<?xml version="1.0"?>
<VTKFile type="UnstructuredGrid" version="0.1" byte_order="LittleEndian">
<UnstructuredGrid>
<Piece NumberOfPoints="31355" NumberOfCells="11071">
<Points>
<DataArray type="Float64" NumberOfComponents="3" format="ascii">
-0.5 -0.5 0 -0.45958308316422031 -0.46313497537055559 0 -0.5 -0.43609587328940957 0 -0.5 -0.5 0 -0.43948332050027639 -0.5 0 -0.45958308316422031 -0.46313497537055559 0 -0.43948332050027639 -0.5 0 -0.45958308316422031 -0.46313497537055559 0 -0.43483942381830942 -0.47095861062616828 0 -0.45958308316422031 -0.46313497537055559 0 -0.45988857403832928 -0.42958946337785658 0 -0.43361905554292629 -0.44349290162707689 0 -0.45958308316422031 -0.46313497537055559 0 -0.43483942381830942 -0.47095861062616828 0 -0.43361905554292629 -0.44349290162707689 0 -0.45958308316422031 -0.46313497537055559 0 -0.5 -0.43609587328940957 0 -0.45988857403832928 -0.42958946337785658 0 -0.5 -0.43609587328940957 0 -0.47665499501968439 -0.40501195629073661 0 -0.49999999999999578 -0.35634566018095459 0 -0.5 -0.43609587328940957 0 -0.47665499501968439 -0.40501195629073661 0 -0.45988857403832928 -0.42958946337785658 0 -0.47665499501968439 -0.40501195629073661 0 -0.47221694618287913 -0.37814995947898972 0 -0.49999999999999578 -0.35634566018095459 0 -0.47221694618287913 -0.37814995947898972 0 -0.45705965164909329 -0.39495203827286068 0 -0.45233943568405932 -0.3746812337852139 0 -0.47665499501968439 -0.40501195629073661 0 -0.47221694618287913 -0.37814995947898972 0 -0.45705965164909329 -0.39495203827286068 0 -0.47665499501968439 -0.40501195629073661 0 -0.45705965164909329 -0.39495203827286068 0 -0.45296274945778919 -0.41102105771276731 0 -0.45705965164909329 -0.39495203827286068 0 -0.43783659947816211 -0.40293077367182251 0 -0.45296274945778919 -0.41102105771276731 0 -0.45705965164909329 -0.39495203827286068 0 -0.43783659947816211 -0.40293077367182251 0 -0.44422097740446759 -0.39054190110878573 0 -0.42964822280655579 -0.38960355870524571 0 -0.43877887423894152 -0.36513860005734078 0 -0.45233943568405932 -0.3746812337852139 0 -0.42964822280655579 -0.38960355870524571 0 -0.45233943568405932 -0.3746812337852139 0 -0.45705965164909329 -0.39495203827286068 0 -0.44422097740446759 -0.39054190110878573 0 -0.45233943568405932 -0.3746812337852139 0 -0.44422097740446759 -0.39054190110878573 0 -0.42964822280655579 -0.38960355870524571 0 -0.45233943568405932 -0.3746812337852139 0 -0.47665499501968439 -0.40501195629073661 0 -0.45988857403832928 -0.42958946337785658 0 -0.45296274945778919 -0.41102105771276731 0 -0.43783659947816211 -0.40293077367182251 0 -0.44076263358592388 -0.42078003597220093 0 -0.45296274945778919 -0.41102105771276731 0 -0.45988857403832928 -0.42958946337785658 0 -0.44076263358592388 -0.42078003597220093 0 -0.45296274945778919 -0.41102105771276731 0 -0.45988857403832928 -0.42958946337785658 0 -0.44076263358592388 -0.42078003597220093 0 -0.43361905554292629 -0.44349290162707689 0 -0.42350418307205051 -0.42150146822855838 0 -0.43361905554292629 -0.44349290162707689 0 -0.40917176666593891 -0.44007216278529437 0 -0.44076263358592388 -0.42078003597220093 0 -0.42350418307205051 -0.42150146822855838 0 -0.43361905554292629 -0.44349290162707689 0 -0.43783659947816211 -0.40293077367182251 0 -0.42350418307205051 -0.42150146822855838 0 -0.43783659947816211 -0.40293077367182251 0 -0.44076263358592388 -0.42078003597220093 0 -0.42350418307205051 -0.42150146822855838 0 -0.43783659947816211 -0.40293077367182251 0 -0.42350418307205051 -0.42150146822855838 0 -0.42250991718058051 -0.40591806287612608 0 -0.42350418307205051 -0.42150146822855838 0 -0.40735795351873039 -0.42088958510141339 0 -0.42250991718058051 -0.40591806287612608 0 -0.40735795351873039 -0.42088958510141339 0 -0.42250991718058051 -0.40591806287612608 0 -0.40695700992905232 -0.40452588362527742 0 -0.42350418307205051 -0.42150146822855838 0 -0.40917176666593891 -0.44007216278529437 0 -0.42350418307205051 -0.42150146822855838 0 -0.40735795351873039 -0.42088958510141339 0 -0.40917176666593891 -0.44007216278529437 0 -0.42964822280655579 -0.38960355870524571 0 -0.4135267553246692 -0.37765324302611292 0 -0.43877887423894152 -0.36513860005734078 0 -0.43783659947816211 -0.40293077367182251 0 -0.42964822280655579 -0.38960355870524571 0 -0.42250991718058051 -0.40591806287612608 0 -0.43783659947816211 -0.40293077367182251 0 -0.44422097740446759 -0.39054190110878573 0 -0.42964822280655579 -0.38960355870524571 0 -0.42964822280655579 -0.38960355870524571 0 -0.42250991718058051 -0.40591806287612608 0 -0.40695700992905232 -0.40452588362527742 0 -0.42964822280655579 -0.38960355870524571 0 -0.40695700992905232 -0.40452588362527742 0 -0.42964822280655579 -0.38960355870524571 0 -0.40695700992905232 -0.40452588362527742 0 -0.4135267553246692 -0.37765324302611292 0 -0.40695700992905232 -0.40452588362527742 0 -0.4135267553246692 -0.37765324302611292 0 -0.3977462633808177 -0.38767850019735278 0 -0.4135267553246692 -0.37765324302611292 0 -0.3977462633808177 -0.38767850019735278 0 -0.3910921140873343 -0.37085154459948622 0 -0.40695700992905232 -0.40452588362527742 0 -0.3977462633808177 -0.38767850019735278 0 -0.39156082734317399 -0.40059903742071362 0 -0.3977462633808177 -0.38767850019735278 0 -0.39156082734317399 -0.40059903742071362 0 -0.37664428964660751 -0.39119637113985251 0 -0.39156082734317399 -0.40059903742071362 0 -0.37664428964660751 -0.39119637113985251 0 -0.38426579705154718 -0.41944820854530679 0 -0.37664428964660751 -0.39119637113985251 0 -0.38426579705154718 -0.41944820854530679 0 -0.3977462633808177 -0.38767850019735278 0 -0.37664428964660751 -0.39119637113985251 0 -0.3910921140873343 -0.37085154459948622 0 -0.39773904721321329 -0.43387172454791773 0 -0.38426579705154718 -0.41944820854530679 0 -0.39142840627115272 -0.4459989760404649 0 -0.40735795351873039 -0.42088958510141339 0 -0.39773904721321329 -0.43387172454791773 0 -0.38426579705154718 -0.41944820854530679 0 -0.40735795351873039 -0.42088958510141339 0 -0.39773904721321329 -0.43387172454791773 0 -0.40917176666593891 -0.44007216278529437 0 -0.40735795351873039 -0.42088958510141339 0 -0.40695700992905232 -0.40452588362527742 0 -0.38426579705154718 -0.41944820854530679 0 -0.40695700992905232 -0.40452588362527742 0 -0.38426579705154718 -0.41944820854530679 0 -0.40695700992905232 -0.40452588362527742 0 -0.39156082734317399 -0.40059903742071362 0 -0.38426579705154718 -0.41944820854530679 0 -0.37664428964660751 -0.39119637113985251 0 -0.38426579705154718 -0.41944820854530679 0 -0.37289078110535862 -0.41436197883334552 0 -0.38426579705154718 -0.41944820854530679 0 -0.37674159639830712 -0.4194098326634994 0 -0.37289078110535862 -0.41436197883334552 0 -0.38426579705154718 -0.41944820854530679 0 -0.37674159639830712 -0.4194098326634994 0 -0.37927839917958772 -0.42469629489405247 0 -0.37674159639830712 -0.4194098326634994 0 -0.37927839917958772 -0.42469629489405247 0 -0.37289093194205702 -0.42600722256956858 0 -0.38426579705154718 -0.41944820854530679 0 -0.38267770885978591 -0.43020472099993617 0 -0.39142840627115272 -0.4459989760404649 0 -0.37927839917958772 -0.42469629489405247 0 -0.38267770885978591 -0.43020472099993617 0 -0.37289093194205702 -0.42600722256956858 0 -0.38426579705154718 -0.41944820854530679 0 -0.37927839917958772 -0.42469629489405247 0 -0.38267770885978591 -0.43020472099993617 0 -0.38426579705154718 -0.41944820854530679 0 -0.39142840627115272 -0.4459989760404649 0 -0.38267770885978591 -0.43020472099993617 0 -0.37498697932785813 -0.43665479546504382 0 -0.37289093194205702 -0.42600722256956858 0 -0.38267770885978591 -0.43020472099993617 0 -0.38274481376531078 -0.44033996738161357 0 -0.37498697932785813 -0.43665479546504382 0 -0.39142840627115272 -0.4459989760404649 0 -0.36940631651393169 -0.45437748399902161 0 -0.38274481376531078 -0.44033996738161357 0 -0.36940631651393169 -0.45437748399902161 0 -0.37498697932785813 -0.43665479546504382 0 -0.39142840627115272 -0.4459989760404649 0 -0.39483935025982653 -0.45864285734202981 0 -0.36940631651393169 -0.45437748399902161 0 -0.38274481376531078 -0.44033996738161357 0 -0.39142840627115272 -0.4459989760404649 0 -0.36940631651393169 -0.45437748399902161 0 -0.38267770885978591 -0.43020472099993617 0 -0.38274481376531078 -0.44033996738161357 0 -0.39142840627115272 -0.4459989760404649 0 -0.39490861364955421 -0.44467489891886441 0 -0.39483935025982653 -0.45864285734202981 0 -0.40917176666593891 -0.44007216278529437 0 -0.39483935025982653 -0.45864285734202981 0 -0.40917176666593891 -0.44007216278529437 0 -0.39773904721321329 -0.43387172454791773 0 -0.39490861364955421 -0.44467489891886441 0 -0.39142840627115272 -0.4459989760404649 0 -0.39490861364955421 -0.44467489891886441 0 -0.39142840627115272 -0.4459989760404649 0 -0.39483935025982653 -0.45864285734202981 0 -0.39142840627115272 -0.4459989760404649 0 -0.39483935025982653 -0.45864285734202981 0 -0.39490861364955421 -0.44467489891886441 0 -0.39142840627115272 -0.4459989760404649 0 -0.39773904721321329 -0.43387172454791773 0 -0.39490861364955421 -0.44467489891886441 0 -0.40917176666593891 -0.44007216278529437 0 -0.39483935025982653 -0.45864285734202981 0 -0.39885015285817521 -0.47351032867723297 0 -0.41482637202655781 -0.46066129084723439 0 -0.39483935025982653 -0.45864285734202981 0 -0.39885015285817521 -0.47351032867723297 0 -0.39483935025982653 -0.45864285734202981 0 -0.37888012514495523 -0.47932142867101452 0 -0.36940631651393169 -0.45437748399902161 0 -0.39483935025982653 -0.45864285734202981 0 -0.37888012514495523 -0.47932142867101452 0 -0.38775261308638909 -0.48824191147213641 0 -0.3952509319422064 -0.5 0 -0.36292090003008348 -0.49999999999999889 0 -0.37888012514495523 -0.47932142867101452 0 -0.38775261308638909 -0.48824191147213641 0 -0.39885015285817521 -0.47351032867723297 0 -0.37888012514495523 -0.47932142867101452 0 -0.38775261308638909 -0.48824191147213641 0 -0.36292090003008348 -0.49999999999999889 0 -0.38775261308638909 -0.48824191147213641 0 -0.3952509319422064 -0.5 0 -0.40286095545652539 -0.4883778000124358 0 -0.39483935025982653 -0.45864285734202981 0 -0.37888012514495523 -0.47932142867101452 0 -0.39885015285817521 -0.47351032867723297 0 -0.38775261308638909 -0.48824191147213641 0 -0.40286095545652539 -0.4883778000124358 0 -0.39885015285817521 -0.47351032867723297 0 -0.40286095545652539 -0.4883778000124358 0 -0.39885015285817521 -0.47351032867723297 0 -0.43948332050027639 -0.5 0 -0.3952509319422064 -0.5 0 -0.40286095545652539 -0.4883778000124358 0 -0.40286095545652539 -0.4883778000124358 0 -0.39885015285817521 -0.47351032867723297 0 -0.41817204493196891 -0.4787016060326143 0 -0.39885015285817521 -0.47351032867723297 0 -0.41817204493196891 -0.4787016060326143 0 -0.41482637202655781 -0.46066129084723439 0 -0.43948332050027639 -0.5 0 -0.40286095545652539 -0.4883778000124358 0 -0.41817204493196891 -0.4787016060326143 0 -0.43948332050027639 -0.5 0 -0.41817204493196891 -0.4787016060326143 0 -0.43483942381830942 -0.47095861062616828 0 -0.41817204493196891 -0.4787016060326143 0 -0.43483942381830942 -0.47095861062616828 0 -0.41482637202655781 -0.46066129084723439 0 -0.43483942381830942 -0.47095861062616828 0 -0.43361905554292629 -0.44349290162707689 0 -0.41482637202655781 -0.46066129084723439 0 -0.43361905554292629 -0.44349290162707689 0 -0.40917176666593891 -0.44007216278529437 0 -0.41482637202655781 -0.46066129084723439 0 -0.39483935025982653 -0.45864285734202981 0 -0.40917176666593891 -0.44007216278529437 0 -0.41482637202655781 -0.46066129084723439 0 -0.44171914672769302 -0.25415451347903623 0 -0.45899654916787758 -0.27399962423614632 0 -0.44171914672769302 -0.25415451347903623 0 -0.45899654916787758 -0.27399962423614632 0 -0.43286821841645279 -0.27598839482715892 0 -0.44171914672769302 -0.25415451347903623 0 -0.45899654916787758 -0.27399962423614632 0 -0.46682899131119288 -0.25102815300489301 0 -0.45899654916787758 -0.27399962423614632 0 -0.46682899131119288 -0.25102815300489301 0 -0.48264419941968267 -0.26973440616221361 0 -0.46682899131119288 -0.25102815300489301 0 -0.48264419941968267 -0.26973440616221361 0 -0.48481247171057978 -0.24408474157918181 0 -0.5 -0.25354434351800498 0 -0.48264419941968267 -0.26973440616221361 0 -0.48481247171057978 -0.24408474157918181 0 -0.5 -0.25354434351800498 0 -0.5 -0.27936456702520568 0 -0.48264419941968267 -0.26973440616221361 0 -0.5 -0.27936456702520568 0 -0.48264419941968267 -0.26973440616221361 0 -0.49049390101519852 -0.29236366889268972 0 -0.45899654916787758 -0.27399962423614632 0 -0.48264419941968267 -0.26973440616221361 0 -0.47627395160806207 -0.29384473499325642 0 -0.48264419941968267 -0.26973440616221361 0 -0.47627395160806207 -0.29384473499325642 0 -0.49049390101519852 -0.29236366889268972 0 -0.5 -0.27936456702520568 0 -0.49049390101519852 -0.29236366889268972 0 -0.50000000000000122 -0.30518479053240638 0 -0.47627395160806207 -0.29384473499325642 0 -0.49355135404824668 -0.31368984575036651 0 -0.49049390101519852 -0.29236366889268972 0 -0.50000000000000122 -0.30518479053240638 0 -0.49355135404824668 -0.31368984575036651 0 -0.47627395160806207 -0.29384473499325642 0 -0.49049390101519852 -0.29236366889268972 0 -0.49355135404824668 -0.31368984575036651 0 -0.50000000000000122 -0.30518479053240638 0 -0.49355135404824668 -0.31368984575036651 0 -0.47627395160806207 -0.29384473499325642 0 -0.46841675271649902 -0.31450512446093309 0 -0.49355135404824668 -0.31368984575036651 0 -0.47627395160806207 -0.29384473499325642 0 -0.44749164464121061 -0.29750245703680928 0 -0.46841675271649902 -0.31450512446093309 0 -0.44749164464121061 -0.29750245703680928 0 -0.44926209036331338 -0.31760531820007759 0 -0.46841675271649902 -0.31450512446093309 0 -0.45899654916787758 -0.27399962423614632 0 -0.47627395160806207 -0.29384473499325642 0 -0.45899654916787758 -0.27399962423614632 0 -0.47627395160806207 -0.29384473499325642 0 -0.44749164464121061 -0.29750245703680928 0 -0.45899654916787758 -0.27399962423614632 0 -0.44749164464121061 -0.29750245703680928 0 -0.43286821841645279 -0.27598839482715892 0 -0.44749164464121061 -0.29750245703680928 0 -0.44926209036331338 -0.31760531820007759 0 -0.43290953976899282 -0.31340376749048088 0 -0.44926209036331338 -0.31760531820007759 0 -0.43545114458754358 -0.33074279413750762 0 -0.43290953976899282 -0.31340376749048088 0 -0.44926209036331338 -0.31760531820007759 0 -0.45538231245673833 -0.33559600481613888 0 -0.43545114458754358 -0.33074279413750762 0 -0.45538231245673833 -0.33559600481613888 0 -0.44241897489514309 -0.34908887970098812 0 -0.43545114458754358 -0.33074279413750762 0 -0.45538231245673833 -0.33559600481613888 0 -0.47907194166918249 -0.33278659919734332 0 -0.46403099315321389 -0.35262395708856892 0 -0.44926209036331338 -0.31760531820007759 0 -0.45538231245673833 -0.33559600481613888 0 -0.46841675271649902 -0.31450512446093309 0 -0.45538231245673833 -0.33559600481613888 0 -0.46841675271649902 -0.31450512446093309 0 -0.47907194166918249 -0.33278659919734332 0 -0.46841675271649902 -0.31450512446093309 0 -0.49355135404824668 -0.31368984575036651 0 -0.47907194166918249 -0.33278659919734332 0 -0.50000000000000122 -0.30518479053240638 0 -0.49999999999999811 -0.32109686735496867 0 -0.49355135404824668 -0.31368984575036651 0 -0.49355135404824668 -0.31368984575036651 0 -0.47907194166918249 -0.33278659919734332 0 -0.49355135404824668 -0.31368984575036651 0 -0.4910582850963825 -0.32915181720151998 0 -0.47907194166918249 -0.33278659919734332 0 -0.49999999999999811 -0.32109686735496867 0 -0.49355135404824668 -0.31368984575036651 0 -0.4910582850963825 -0.32915181720151998 0 -0.49999999999999811 -0.32109686735496867 0 -0.49355135404824668 -0.31368984575036651 0 -0.50000000000000044 -0.3347981548199741 0 -0.4910582850963825 -0.32915181720151998 0 -0.48266812976448581 -0.34338761888494679 0 -0.50000000000000044 -0.3347981548199741 0 -0.48266812976448581 -0.34338761888494679 0 -0.50000000000000044 -0.3347981548199741 0 -0.48266812976448581 -0.34338761888494679 0 -0.49173399961186193 -0.347957508560722 0 -0.49999999999999811 -0.32109686735496867 0 -0.50000000000000044 -0.3347981548199741 0 -0.4910582850963825 -0.32915181720151998 0 -0.48266812976448581 -0.34338761888494679 0 -0.47907194166918249 -0.33278659919734332 0 -0.46403099315321389 -0.35262395708856892 0 -0.47907194166918249 -0.33278659919734332 0 -0.46403099315321389 -0.35262395708856892 0 -0.4910582850963825 -0.32915181720151998 0 -0.48266812976448581 -0.34338761888494679 0 -0.47907194166918249 -0.33278659919734332 0 -0.48266812976448581 -0.34338761888494679 0 -0.48266812976448331 -0.35416137156543698 0 -0.46403099315321389 -0.35262395708856892 0 -0.48266812976448331 -0.35416137156543698 0 -0.46403099315321389 -0.35262395708856892 0 -0.48266812976448331 -0.35416137156543698 0 -0.4750306485615628 -0.35975890886518219 0 -0.46403099315321389 -0.35262395708856892 0 -0.48266812976448581 -0.34338761888494679 0 -0.46403099315321389 -0.35262395708856892 0 -0.48266812976448581 -0.34338761888494679 0 -0.48266812976448331 -0.35416137156543698 0 -0.49173399961186193 -0.347957508560722 0 -0.48266812976448331 -0.35416137156543698 0 -0.49999999999999578 -0.35634566018095459 0 -0.49173399961186193 -0.347957508560722 0 -0.50000000000000044 -0.3347981548199741 0 -0.49999999999999578 -0.35634566018095459 0 -0.49173399961186193 -0.347957508560722 0 -0.48266812976448331 -0.35416137156543698 0 -0.49999999999999578 -0.35634566018095459 0 -0.48266812976448331 -0.35416137156543698 0 -0.49999999999999578 -0.35634566018095459 0 -0.4750306485615628 -0.35975890886518219 0 -0.47221694618287913 -0.37814995947898972 0 -0.49999999999999578 -0.35634566018095459 0 -0.4750306485615628 -0.35975890886518219 0 -0.4750306485615628 -0.35975890886518219 0 -0.46163189939132371 -0.35578809806802258 0 -0.45233943568405932 -0.3746812337852139 0 -0.4750306485615628 -0.35975890886518219 0 -0.45233943568405932 -0.3746812337852139 0 -0.47221694618287913 -0.37814995947898972 0 -0.4750306485615628 -0.35975890886518219 0 -0.45233943568405932 -0.3746812337852139 0 -0.4750306485615628 -0.35975890886518219 0 -0.46403099315321389 -0.35262395708856892 0 -0.46163189939132371 -0.35578809806802258 0 -0.45538231245673833 -0.33559600481613888 0 -0.46403099315321389 -0.35262395708856892 0 -0.44241897489514309 -0.34908887970098812 0 -0.46403099315321389 -0.35262395708856892 0 -0.44241897489514309 -0.34908887970098812 0 -0.46403099315321389 -0.35262395708856892 0 -0.46163189939132371 -0.35578809806802258 0 -0.43877887423894152 -0.36513860005734078 0 -0.46403099315321389 -0.35262395708856892 0 -0.46163189939132371 -0.35578809806802258 0 -0.46403099315321389 -0.35262395708856892 0 -0.43877887423894152 -0.36513860005734078 0 -0.46403099315321389 -0.35262395708856892 0 -0.44241897489514309 -0.34908887970098812 0 -0.43877887423894152 -0.36513860005734078 0 -0.46163189939132371 -0.35578809806802258 0 -0.43877887423894152 -0.36513860005734078 0 -0.45233943568405932 -0.3746812337852139 0 -0.4135267553246692 -0.37765324302611292 0 -0.43877887423894152 -0.36513860005734078 0 -0.42425301298673468 -0.35929057003963838 0 -0.4135267553246692 -0.37765324302611292 0 -0.43877887423894152 -0.36513860005734078 0 -0.44241897489514309 -0.34908887970098812 0 -0.42024542050016622 -0.34629440675765388 0 -0.44241897489514309 -0.34908887970098812 0 -0.43877887423894152 -0.36513860005734078 0 -0.42425301298673468 -0.35929057003963838 0 -0.44241897489514309 -0.34908887970098812 0 -0.42425301298673468 -0.35929057003963838 0 -0.42024542050016622 -0.34629440675765388 0 -0.42024542050016622 -0.34629440675765388 0 -0.40629503997475319 -0.35827772065609642 0 -0.40204564029203399 -0.34139155434071933 0 -0.42425301298673468 -0.35929057003963838 0 -0.42024542050016622 -0.34629440675765388 0 -0.40629503997475319 -0.35827772065609642 0 -0.4135267553246692 -0.37765324302611292 0 -0.42425301298673468 -0.35929057003963838 0 -0.40629503997475319 -0.35827772065609642 0 -0.4135267553246692 -0.37765324302611292 0 -0.40629503997475319 -0.35827772065609642 0 -0.3910921140873343 -0.37085154459948622 0 -0.3910921140873343 -0.37085154459948622 0 -0.38646827771226289 -0.34786902154149091 0 -0.36902278224166851 -0.36294453373439789 0 -0.37664428964660751 -0.39119637113985251 0 -0.3910921140873343 -0.37085154459948622 0 -0.36902278224166851 -0.36294453373439789 0 -0.40629503997475319 -0.35827772065609642 0 -0.38646827771226289 -0.34786902154149091 0 -0.40204564029203399 -0.34139155434071933 0 -0.40629503997475319 -0.35827772065609642 0 -0.3910921140873343 -0.37085154459948622 0 -0.38646827771226289 -0.34786902154149091 0 -0.38646827771226289 -0.34786902154149091 0 -0.40204564029203399 -0.34139155434071933 0 -0.38723208749828453 -0.33035435010497899 0 -0.40204564029203399 -0.34139155434071933 0 -0.38723208749828453 -0.33035435010497899 0 -0.41136356223569692 -0.32265700123525493 0 -0.38646827771226289 -0.34786902154149091 0 -0.38723208749828453 -0.33035435010497899 0 -0.36140127483673029 -0.33469269632894322 0 -0.38723208749828453 -0.33035435010497899 0 -0.38913600481141841 -0.31474850160647788 0 -0.37297776510156422 -0.32076732557698828 0 -0.38913600481141841 -0.31474850160647788 0 -0.37172307290782658 -0.30500105152910761 0 -0.37297776510156422 -0.32076732557698828 0 -0.38913600481141841 -0.31474850160647788 0 -0.41136356223569692 -0.32265700123525493 0 -0.4032466841557355 -0.30617714178070049 0 -0.38723208749828453 -0.33035435010497899 0 -0.38913600481141841 -0.31474850160647788 0 -0.41136356223569692 -0.32265700123525493 0 -0.42024542050016622 -0.34629440675765388 0 -0.40204564029203399 -0.34139155434071933 0 -0.41136356223569692 -0.32265700123525493 0 -0.44241897489514309 -0.34908887970098812 0 -0.42024542050016622 -0.34629440675765388 0 -0.43545114458754358 -0.33074279413750762 0 -0.42024542050016622 -0.34629440675765388 0 -0.41136356223569692 -0.32265700123525493 0 -0.43545114458754358 -0.33074279413750762 0 -0.41136356223569692 -0.32265700123525493 0 -0.43545114458754358 -0.33074279413750762 0 -0.43290953976899282 -0.31340376749048088 0 -0.44749164464121061 -0.29750245703680928 0 -0.43290953976899282 -0.31340376749048088 0 -0.4209792570171994 -0.29851126684275481 0 -0.44749164464121061 -0.29750245703680928 0 -0.4209792570171994 -0.29851126684275481 0 -0.43286821841645279 -0.27598839482715892 0 -0.4209792570171994 -0.29851126684275481 0 -0.41432728048357542 -0.27690903574521519 0 -0.43286821841645279 -0.27598839482715892 0 -0.4209792570171994 -0.29851126684275481 0 -0.39943949320787842 -0.28676716965572879 0 -0.41432728048357542 -0.27690903574521519 0 -0.41136356223569692 -0.32265700123525493 0 -0.4209792570171994 -0.29851126684275481 0 -0.4032466841557355 -0.30617714178070049 0 -0.41136356223569692 -0.32265700123525493 0 -0.43290953976899282 -0.31340376749048088 0 -0.4209792570171994 -0.29851126684275481 0 -0.4209792570171994 -0.29851126684275481 0 -0.4032466841557355 -0.30617714178070049 0 -0.39943949320787842 -0.28676716965572879 0 -0.4032466841557355 -0.30617714178070049 0 -0.38778418045527979 -0.29972626251757611 0 -0.39943949320787842 -0.28676716965572879 0 -0.38913600481141841 -0.31474850160647788 0 -0.4032466841557355 -0.30617714178070049 0 -0.38778418045527979 -0.29972626251757611 0 -0.38913600481141841 -0.31474850160647788 0 -0.38778418045527979 -0.29972626251757611 0 -0.37172307290782658 -0.30500105152910761 0 -0.38778418045527979 -0.29972626251757611 0 -0.37973970708924049 -0.28546896814063449 0 -0.39943949320787842 -0.28676716965572879 0 -0.38778418045527979 -0.29972626251757611 0 -0.37973970708924049 -0.28546896814063449 0 -0.37172307290782658 -0.30500105152910761 0 -0.39943949320787842 -0.28676716965572879 0 -0.40160182677153938 -0.26672042941192281 0 -0.38841788639160318 -0.2712480099356892 0 -0.39943949320787842 -0.28676716965572879 0 -0.40160182677153938 -0.26672042941192281 0 -0.41432728048357542 -0.27690903574521519 0 -0.37973970708924049 -0.28546896814063449 0 -0.39943949320787842 -0.28676716965572879 0 -0.38841788639160318 -0.2712480099356892 0 -0.37973970708924049 -0.28546896814063449 0 -0.38841788639160318 -0.2712480099356892 0 -0.37316382666053671 -0.25968387109586161 0 -0.37973970708924049 -0.28546896814063449 0 -0.37316382666053671 -0.25968387109586161 0 -0.38100293632462362 -0.25057896254278189 0 -0.37316382666053671 -0.25968387109586161 0 -0.3756643166546676 -0.24119391028490669 0 -0.38100293632462362 -0.25057896254278189 0 -0.38814457822882109 -0.25759961137429832 0 -0.37316382666053671 -0.25968387109586161 0 -0.38841788639160318 -0.2712480099356892 0 -0.38814457822882109 -0.25759961137429832 0 -0.37316382666053671 -0.25968387109586161 0 -0.38100293632462362 -0.25057896254278189 0 -0.38814457822882109 -0.25759961137429832 0 -0.38703902375446902 -0.24383845741606119 0 -0.38814457822882109 -0.25759961137429832 0 -0.3999403531778139 -0.25255777809320151 0 -0.38703902375446902 -0.24383845741606119 0 -0.40160182677153938 -0.26672042941192281 0 -0.3999403531778139 -0.25255777809320151 0 -0.41674760700480662 -0.25655791798851102 0 -0.40160182677153938 -0.26672042941192281 0 -0.38814457822882109 -0.25759961137429832 0 -0.3999403531778139 -0.25255777809320151 0 -0.40160182677153938 -0.26672042941192281 0 -0.38841788639160318 -0.2712480099356892 0 -0.38814457822882109 -0.25759961137429832 0 -0.40160182677153938 -0.26672042941192281 0 -0.41674760700480662 -0.25655791798851102 0 -0.41432728048357542 -0.27690903574521519 0 -0.41674760700480662 -0.25655791798851102 0 -0.41432728048357542 -0.27690903574521519 0 -0.43286821841645279 -0.27598839482715892 0 -0.44171914672769302 -0.25415451347903623 0 -0.41674760700480662 -0.25655791798851102 0 -0.43286821841645279 -0.27598839482715892 0 -0.32702568788228947 -0.26319602787905277 0 -0.32398828001488078 -0.25232987534048379 0 -0.31610842544640022 -0.25968105533738128 0 -0.32398828001488078 -0.25232987534048379 0 -0.31352607005286259 -0.25036143285104001 0 -0.31610842544640022 -0.25968105533738128 0 -0.32702568788228947 -0.26319602787905277 0 -0.31610842544640022 -0.25968105533738128 0 -0.31248016883321461 -0.27130840787043808 0 -0.32021430202903362 -0.28191142345830578 0 -0.3105646220953559 -0.29004079181112169 0 -0.31248016883321461 -0.27130840787043808 0 -0.33036060179926252 -0.275772638941927 0 -0.32021430202903362 -0.28191142345830578 0 -0.31248016883321461 -0.27130840787043808 0 -0.32702568788228947 -0.26319602787905277 0 -0.33036060179926252 -0.275772638941927 0 -0.31248016883321461 -0.27130840787043808 0 -0.32702568788228947 -0.26319602787905277 0 -0.33036060179926252 -0.275772638941927 0 -0.33808476988758462 -0.26553968653190801 0 -0.33036060179926252 -0.275772638941927 0 -0.34505614110802879 -0.27410362438571922 0 -0.33818440007690698 -0.28892527605983881 0 -0.33036060179926252 -0.275772638941927 0 -0.33808476988758462 -0.26553968653190801 0 -0.34505614110802879 -0.27410362438571922 0 -0.33808476988758462 -0.26553968653190801 0 -0.33785940386562507 -0.25340916090029658 0 -0.35012201478271721 -0.26121698055254461 0 -0.32702568788228947 -0.26319602787905277 0 -0.33808476988758462 -0.26553968653190801 0 -0.33785940386562507 -0.25340916090029658 0 -0.32398828001488078 -0.25232987534048379 0 -0.33785940386562507 -0.25340916090029658 0 -0.33050674820977688 -0.24431234086603379 0 -0.32702568788228947 -0.26319602787905277 0 -0.32398828001488078 -0.25232987534048379 0 -0.33785940386562507 -0.25340916090029658 0 -0.33785940386562507 -0.25340916090029658 0 -0.35012201478271721 -0.26121698055254461 0 -0.35236755769683781 -0.2481117759650866 0 -0.35012201478271721 -0.26121698055254461 0 -0.35955994354002557 -0.25703975774410298 0 -0.3628430666301044 -0.2668427827571625 0 -0.35955994354002557 -0.25703975774410298 0 -0.36233147867638649 -0.2477992409525154 0 -0.35236755769683781 -0.2481117759650866 0 -0.35012201478271721 -0.26121698055254461 0 -0.35955994354002557 -0.25703975774410298 0 -0.35236755769683781 -0.2481117759650866 0 -0.35955994354002557 -0.25703975774410298 0 -0.37316382666053671 -0.25968387109586161 0 -0.36233147867638649 -0.2477992409525154 0 -0.35955994354002557 -0.25703975774410298 0 -0.37316382666053671 -0.25968387109586161 0 -0.3628430666301044 -0.2668427827571625 0 -0.3628430666301044 -0.2668427827571625 0 -0.35749346781124142 -0.28360980012142267 0 -0.37973970708924049 -0.28546896814063449 0 -0.37316382666053671 -0.25968387109586161 0 -0.3628430666301044 -0.2668427827571625 0 -0.37973970708924049 -0.28546896814063449 0 -0.3628430666301044 -0.2668427827571625 0 -0.35749346781124142 -0.28360980012142267 0 -0.35012201478271721 -0.26121698055254461 0 -0.3628430666301044 -0.2668427827571625 0 -0.34505614110802879 -0.27410362438571922 0 -0.3628430666301044 -0.2668427827571625 0 -0.34505614110802879 -0.27410362438571922 0 -0.35749346781124142 -0.28360980012142267 0 -0.33808476988758462 -0.26553968653190801 0 -0.35012201478271721 -0.26121698055254461 0 -0.34505614110802879 -0.27410362438571922 0 -0.35749346781124142 -0.28360980012142267 0 -0.36354166568024698 -0.29477642370848139 0 -0.35214386899237859 -0.30037681748568301 0 -0.34505614110802879 -0.27410362438571922 0 -0.35749346781124142 -0.28360980012142267 0 -0.35214386899237859 -0.30037681748568301 0 -0.34505614110802879 -0.27410362438571922 0 -0.35214386899237859 -0.30037681748568301 0 -0.33818440007690698 -0.28892527605983881 0 -0.35749346781124142 -0.28360980012142267 0 -0.35214386899237859 -0.30037681748568301 0 -0.34505614110802879 -0.27410362438571922 0 -0.35214386899237859 -0.30037681748568301 0 -0.37973970708924049 -0.28546896814063449 0 -0.35749346781124142 -0.28360980012142267 0 -0.36354166568024698 -0.29477642370848139 0 -0.37973970708924049 -0.28546896814063449 0 -0.36354166568024698 -0.29477642370848139 0 -0.37172307290782658 -0.30500105152910761 0 -0.37172307290782658 -0.30500105152910761 0 -0.35214386899237859 -0.30037681748568301 0 -0.35677257191455419 -0.31753475690731309 0 -0.36354166568024698 -0.29477642370848139 0 -0.37172307290782658 -0.30500105152910761 0 -0.35214386899237859 -0.30037681748568301 0 -0.35214386899237859 -0.30037681748568301 0 -0.33590957309656411 -0.30384944427612842 0 -0.34409726460486212 -0.32559694334130013 0 -0.35214386899237859 -0.30037681748568301 0 -0.35677257191455419 -0.31753475690731309 0 -0.35214386899237859 -0.30037681748568301 0 -0.33590957309656411 -0.30384944427612842 0 -0.33818440007690698 -0.28892527605983881 0 -0.33590957309656411 -0.30384944427612842 0 -0.32272459645753582 -0.3020231034240603 0 -0.32793141210410659 -0.31709945638820508 0 -0.33590957309656411 -0.30384944427612842 0 -0.32745181538830148 -0.29052385520973639 0 -0.32272459645753582 -0.3020231034240603 0 -0.33036060179926252 -0.275772638941927 0 -0.33818440007690698 -0.28892527605983881 0 -0.32745181538830148 -0.29052385520973639 0 -0.33590957309656411 -0.30384944427612842 0 -0.33818440007690698 -0.28892527605983881 0 -0.32745181538830148 -0.29052385520973639 0 -0.32745181538830148 -0.29052385520973639 0 -0.32272459645753582 -0.3020231034240603 0 -0.3105646220953559 -0.29004079181112169 0 -0.32745181538830148 -0.29052385520973639 0 -0.32021430202903362 -0.28191142345830578 0 -0.3105646220953559 -0.29004079181112169 0 -0.33036060179926252 -0.275772638941927 0 -0.32745181538830148 -0.29052385520973639 0 -0.32021430202903362 -0.28191142345830578 0 -0.32272459645753582 -0.3020231034240603 0 -0.31176555960335128 -0.30860196943510981 0 -0.3105646220953559 -0.29004079181112169 0 -0.32272459645753582 -0.3020231034240603 0 -0.32793141210410659 -0.31709945638820508 0 -0.31176555960335128 -0.30860196943510981 0 -0.32793141210410659 -0.31709945638820508 0 -0.30938471444588628 -0.32494651211652409 0 -0.31176555960335128 -0.30860196943510981 0 -0.32793141210410659 -0.31709945638820508 0 -0.32649136350680341 -0.33232890979204682 0 -0.30938471444588628 -0.32494651211652409 0 -0.32793141210410659 -0.31709945638820508 0 -0.31176555960335128 -0.30860196943510981 0 -0.31388923542340141 -0.34100049319485831 0 -0.32649136350680341 -0.33232890979204682 0 -0.30938471444588628 -0.32494651211652409 0 -0.31388923542340141 -0.34100049319485831 0 -0.32649136350680341 -0.33232890979204682 0 -0.32667638194466297 -0.34502285893923967 0 -0.32649136350680341 -0.33232890979204682 0 -0.33926295477141799 -0.34074891261342388 0 -0.34409726460486212 -0.32559694334130013 0 -0.32649136350680341 -0.33232890979204682 0 -0.33926295477141799 -0.34074891261342388 0 -0.32667638194466297 -0.34502285893923967 0 -0.33926295477141799 -0.34074891261342388 0 -0.34409726460486212 -0.32559694334130013 0 -0.33590957309656411 -0.30384944427612842 0 -0.32793141210410659 -0.31709945638820508 0 -0.34409726460486212 -0.32559694334130013 0 -0.32793141210410659 -0.31709945638820508 0 -0.32649136350680341 -0.33232890979204682 0 -0.34409726460486212 -0.32559694334130013 0 -0.32793141210410659 -0.31709945638820508 0 -0.34409726460486212 -0.32559694334130013 0 -0.35677257191455419 -0.31753475690731309 0 -0.36140127483673029 -0.33469269632894322 0 -0.35677257191455419 -0.31753475690731309 0 -0.34409726460486212 -0.32559694334130013 0 -0.36140127483673029 -0.33469269632894322 0 -0.35214386899237859 -0.30037681748568301 0 -0.34409726460486212 -0.32559694334130013 0 -0.35214386899237859 -0.30037681748568301 0 -0.35677257191455419 -0.31753475690731309 0 -0.34409726460486212 -0.32559694334130013 0 -0.37172307290782658 -0.30500105152910761 0 -0.35677257191455419 -0.31753475690731309 0 -0.37297776510156422 -0.32076732557698828 0 -0.35677257191455419 -0.31753475690731309 0 -0.37297776510156422 -0.32076732557698828 0 -0.36140127483673029 -0.33469269632894322 0 -0.38646827771226289 -0.34786902154149091 0 -0.36140127483673029 -0.33469269632894322 0 -0.38723208749828453 -0.33035435010497899 0 -0.37297776510156422 -0.32076732557698828 0 -0.36140127483673029 -0.33469269632894322 0 -0.34409726460486212 -0.32559694334130013 0 -0.36140127483673029 -0.33469269632894322 0 -0.33926295477141799 -0.34074891261342388 0 -0.36140127483673029 -0.33469269632894322 0 -0.35108552649587921 -0.35313179738813277 0 -0.33926295477141799 -0.34074891261342388 0 -0.34409726460486212 -0.32559694334130013 0 -0.36140127483673029 -0.33469269632894322 0 -0.38646827771226289 -0.34786902154149091 0 -0.36140127483673029 -0.33469269632894322 0 -0.36902278224166851 -0.36294453373439789 0 -0.36140127483673029 -0.33469269632894322 0 -0.35108552649587921 -0.35313179738813277 0 -0.36902278224166851 -0.36294453373439789 0 -0.36140127483673029 -0.33469269632894322 0 -0.36902278224166851 -0.36294453373439789 0 -0.35108552649587921 -0.35313179738813277 0 -0.36902278224166851 -0.36294453373439789 0 -0.3455164314731487 -0.3707883653923234 0 -0.3455164314731487 -0.3707883653923234 0 -0.33442864493797231 -0.3559008818855473 0 -0.32688977381803058 -0.37018208547104359 0 -0.35108552649587921 -0.35313179738813277 0 -0.3455164314731487 -0.3707883653923234 0 -0.33442864493797231 -0.3559008818855473 0 -0.33926295477141799 -0.34074891261342388 0 -0.35108552649587921 -0.35313179738813277 0 -0.33442864493797231 -0.3559008818855473 0 -0.33926295477141799 -0.34074891261342388 0 -0.33442864493797231 -0.3559008818855473 0 -0.33926295477141799 -0.34074891261342388 0 -0.33442864493797231 -0.3559008818855473 0 -0.32667638194466297 -0.34502285893923967 0 -0.33442864493797231 -0.3559008818855473 0 -0.32667638194466297 -0.34502285893923967 0 -0.31930971108372003 -0.35513509721032238 0 -0.31388923542340141 -0.34100049319485831 0 -0.32667638194466297 -0.34502285893923967 0 -0.31930971108372003 -0.35513509721032238 0 -0.32688977381803058 -0.37018208547104359 0 -0.31040525594364388 -0.36740942470759319 0 -0.31592849657657712 -0.38215615333539432 0 -0.31930971108372003 -0.35513509721032238 0 -0.32688977381803058 -0.37018208547104359 0 -0.31040525594364388 -0.36740942470759319 0 -0.33442864493797231 -0.3559008818855473 0 -0.31930971108372003 -0.35513509721032238 0 -0.32688977381803058 -0.37018208547104359 0 -0.31040525594364388 -0.36740942470759319 0 -0.30392930741822588 -0.35253776991133617 0 -0.29329781028295682 -0.36399006337634232 0 -0.31040525594364388 -0.36740942470759319 0 -0.29329781028295682 -0.36399006337634232 0 -0.29931463517772072 -0.3787126702367723 0 -0.31930971108372003 -0.35513509721032238 0 -0.31040525594364388 -0.36740942470759319 0 -0.30392930741822588 -0.35253776991133617 0 -0.31388923542340141 -0.34100049319485831 0 -0.31930971108372003 -0.35513509721032238 0 -0.30392930741822588 -0.35253776991133617 0 -0.31388923542340141 -0.34100049319485831 0 -0.30392930741822588 -0.35253776991133617 0 -0.29865400739376002 -0.33808167723819299 0 -0.30392930741822588 -0.35253776991133617 0 -0.28849446468521789 -0.35039526863465231 0 -0.29865400739376002 -0.33808167723819299 0 -0.30392930741822588 -0.35253776991133617 0 -0.28849446468521789 -0.35039526863465231 0 -0.29329781028295682 -0.36399006337634232 0 -0.28849446468521789 -0.35039526863465231 0 -0.29329781028295682 -0.36399006337634232 0 -0.27915206356962391 -0.36263245586594128 0 -0.29329781028295682 -0.36399006337634232 0 -0.29931463517772072 -0.3787126702367723 0 -0.28122506305057432 -0.37677672309087479 0 -0.29329781028295682 -0.36399006337634232 0 -0.27915206356962391 -0.36263245586594128 0 -0.28122506305057432 -0.37677672309087479 0 -0.27915206356962391 -0.36263245586594128 0 -0.26423990634011429 -0.37008717358033638 0 -0.28122506305057432 -0.37677672309087479 0 -0.27915206356962391 -0.36263245586594128 0 -0.26423990634011429 -0.37008717358033638 0 -0.27154720677328881 -0.34998988232699679 0 -0.26423990634011429 -0.37008717358033638 0 -0.25356398932983287 -0.35281739151350128 0 -0.24190245769781621 -0.37180080852581121 0 -0.25356398932983287 -0.35281739151350128 0 -0.27154720677328881 -0.34998988232699679 0 -0.26242969499215502 -0.34293184120876041 0 -0.25356398932983287 -0.35281739151350128 0 -0.26242969499215502 -0.34293184120876041 0 -0.2542411799230469 -0.33588014060137672 0 -0.26423990634011429 -0.37008717358033638 0 -0.25356398932983287 -0.35281739151350128 0 -0.27154720677328881 -0.34998988232699679 0 -0.28849446468521789 -0.35039526863465231 0 -0.27915206356962391 -0.36263245586594128 0 -0.27154720677328881 -0.34998988232699679 0 -0.28849446468521789 -0.35039526863465231 0 -0.27154720677328881 -0.34998988232699679 0 -0.28361708290950188 -0.33523683642425101 0 -0.27154720677328881 -0.34998988232699679 0 -0.26856290724685722 -0.33228045366193909 0 -0.26242969499215502 -0.34293184120876041 0 -0.27154720677328881 -0.34998988232699679 0 -0.26856290724685722 -0.33228045366193909 0 -0.28361708290950188 -0.33523683642425101 0 -0.26856290724685722 -0.33228045366193909 0 -0.27745551396385432 -0.32029936858514091 0 -0.28361708290950188 -0.33523683642425101 0 -0.26856290724685722 -0.33228045366193909 0 -0.26242969499215502 -0.34293184120876041 0 -0.2542411799230469 -0.33588014060137672 0 -0.26856290724685722 -0.33228045366193909 0 -0.2542411799230469 -0.33588014060137672 0 -0.25967865116451072 -0.32082587120965822 0 -0.2542411799230469 -0.33588014060137672 0 -0.25967865116451072 -0.32082587120965822 0 -0.24473123317309911 -0.32890389190738051 0 -0.25967865116451072 -0.32082587120965822 0 -0.26865073799373268 -0.30793511178162458 0 -0.2442836160094537 -0.31771734852563338 0 -0.26865073799373268 -0.30793511178162458 0 -0.2442836160094537 -0.31771734852563338 0 -0.26856290724685722 -0.33228045366193909 0 -0.25967865116451072 -0.32082587120965822 0 -0.26858695259223858 -0.32033520130959059 0 -0.27745551396385432 -0.32029936858514091 0 -0.28626453567313082 -0.31273311619392108 0 -0.26865073799373268 -0.30793511178162458 0 -0.25967865116451072 -0.32082587120965822 0 -0.26858695259223858 -0.32033520130959059 0 -0.26865073799373268 -0.30793511178162458 0 -0.26858695259223858 -0.32033520130959059 0 -0.27745551396385432 -0.32029936858514091 0 -0.26865073799373268 -0.30793511178162458 0 -0.26856290724685722 -0.33228045366193909 0 -0.26858695259223858 -0.32033520130959059 0 -0.27745551396385432 -0.32029936858514091 0 -0.27745551396385432 -0.32029936858514091 0 -0.28626453567313082 -0.31273311619392108 0 -0.29223901972875299 -0.32374129878294289 0 -0.28626453567313082 -0.31273311619392108 0 -0.29223901972875299 -0.32374129878294289 0 -0.29853433788582667 -0.31363515431322281 0 -0.27745551396385432 -0.32029936858514091 0 -0.29223901972875299 -0.32374129878294289 0 -0.28361708290950188 -0.33523683642425101 0 -0.28849446468521789 -0.35039526863465231 0 -0.28361708290950188 -0.33523683642425101 0 -0.29865400739376002 -0.33808167723819299 0 -0.29223901972875299 -0.32374129878294289 0 -0.28361708290950188 -0.33523683642425101 0 -0.29865400739376002 -0.33808167723819299 0 -0.31388923542340141 -0.34100049319485831 0 -0.29865400739376002 -0.33808167723819299 0 -0.30938471444588628 -0.32494651211652409 0 -0.29223901972875299 -0.32374129878294289 0 -0.29865400739376002 -0.33808167723819299 0 -0.30938471444588628 -0.32494651211652409 0 -0.29223901972875299 -0.32374129878294289 0 -0.30938471444588628 -0.32494651211652409 0 -0.29853433788582667 -0.31363515431322281 0 -0.30938471444588628 -0.32494651211652409 0 -0.29853433788582667 -0.31363515431322281 0 -0.31176555960335128 -0.30860196943510981 0 -0.29853433788582667 -0.31363515431322281 0 -0.31176555960335128 -0.30860196943510981 0 -0.29301785997801177 -0.29815287503761578 0 -0.31176555960335128 -0.30860196943510981 0 -0.3105646220953559 -0.29004079181112169 0 -0.29301785997801177 -0.29815287503761578 0 -0.3105646220953559 -0.29004079181112169 0 -0.29301785997801177 -0.29815287503761578 0 -0.29358508250495718 -0.28034970912273788 0 -0.29301785997801177 -0.29815287503761578 0 -0.27563538659937459 -0.29009373104912761 0 -0.29358508250495718 -0.28034970912273788 0 -0.28626453567313082 -0.31273311619392108 0 -0.29301785997801177 -0.29815287503761578 0 -0.26865073799373268 -0.30793511178162458 0 -0.28626453567313082 -0.31273311619392108 0 -0.29853433788582667 -0.31363515431322281 0 -0.29301785997801177 -0.29815287503761578 0 -0.29301785997801177 -0.29815287503761578 0 -0.26865073799373268 -0.30793511178162458 0 -0.26865073799373268 -0.30793511178162458 0 -0.27563538659937459 -0.29009373104912761 0 -0.26593292328389928 -0.2965832396898177 0 -0.29301785997801177 -0.29815287503761578 0 -0.26865073799373268 -0.30793511178162458 0 -0.27563538659937459 -0.29009373104912761 0 -0.26865073799373268 -0.30793511178162458 0 -0.25798462174260928 -0.30513169097613058 0 -0.2442836160094537 -0.31771734852563338 0 -0.26865073799373268 -0.30793511178162458 0 -0.25798462174260928 -0.30513169097613058 0 -0.26593292328389928 -0.2965832396898177 0 -0.25798462174260928 -0.30513169097613058 0 -0.2484058214503109 -0.29293501674903999 0 -0.2445979568743985 -0.30292672892464573 0 -0.25798462174260928 -0.30513169097613058 0 -0.26593292328389928 -0.2965832396898177 0 -0.25880019644146801 -0.28094624205305069 0 -0.25798462174260928 -0.30513169097613058 0 -0.25880019644146801 -0.28094624205305069 0 -0.2484058214503109 -0.29293501674903999 0 -0.25798462174260928 -0.30513169097613058 0 -0.25880019644146801 -0.28094624205305069 0 -0.27563538659937459 -0.29009373104912761 0 -0.26593292328389928 -0.2965832396898177 0 -0.25880019644146801 -0.28094624205305069 0 -0.27563538659937459 -0.29009373104912761 0 -0.27502744922789513 -0.26795188421010918 0 -0.25880019644146801 -0.28094624205305069 0 -0.25880019644146801 -0.28094624205305069 0 -0.25961577114032658 -0.2567607931299708 0 -0.25880019644146801 -0.28094624205305069 0 -0.25146340277487977 -0.26507489417853108 0 -0.23985923772846071 -0.26606577945759913 0 -0.27502744922789513 -0.26795188421010918 0 -0.25880019644146801 -0.28094624205305069 0 -0.25961577114032658 -0.2567607931299708 0 -0.25880019644146801 -0.28094624205305069 0 -0.25146340277487977 -0.26507489417853108 0 -0.25961577114032658 -0.2567607931299708 0 -0.25961577114032658 -0.2567607931299708 0 -0.24757840578926399 -0.25652676207350378 0 -0.24966206634667409 -0.24400955986671949 0 -0.25146340277487977 -0.26507489417853108 0 -0.25961577114032658 -0.2567607931299708 0 -0.24757840578926399 -0.25652676207350378 0 -0.27502744922789513 -0.26795188421010918 0 -0.25961577114032658 -0.2567607931299708 0 -0.26772939753353958 -0.25026361420850018 0 -0.27502744922789513 -0.26795188421010918 0 -0.26772939753353958 -0.25026361420850018 0 -0.27502744922789513 -0.26795188421010918 0 -0.26772939753353958 -0.25026361420850018 0 -0.28220785034157359 -0.25446673289743471 0 -0.26772939753353958 -0.25026361420850018 0 -0.28220785034157359 -0.25446673289743471 0 -0.27745322421201168 -0.24544522856295259 0 -0.28220785034157359 -0.25446673289743471 0 -0.29294132617956792 -0.25294672078684138 0 -0.28757158230071878 -0.2433662660545364 0 -0.27502744922789513 -0.26795188421010918 0 -0.28220785034157359 -0.25446673289743471 0 -0.29327349000075842 -0.26356996834656782 0 -0.28220785034157359 -0.25446673289743471 0 -0.29294132617956792 -0.25294672078684138 0 -0.29327349000075842 -0.26356996834656782 0 -0.27502744922789513 -0.26795188421010918 0 -0.29327349000075842 -0.26356996834656782 0 -0.29358508250495718 -0.28034970912273788 0 -0.27563538659937459 -0.29009373104912761 0 -0.27502744922789513 -0.26795188421010918 0 -0.29358508250495718 -0.28034970912273788 0 -0.29327349000075842 -0.26356996834656782 0 -0.29358508250495718 -0.28034970912273788 0 -0.31248016883321461 -0.27130840787043808 0 -0.3105646220953559 -0.29004079181112169 0 -0.29358508250495718 -0.28034970912273788 0 -0.31248016883321461 -0.27130840787043808 0 -0.29327349000075842 -0.26356996834656782 0 -0.31248016883321461 -0.27130840787043808 0 -0.30474039183049878 -0.25544372680981631 0 -0.31610842544640022 -0.25968105533738128 0 -0.31248016883321461 -0.27130840787043808 0 -0.30474039183049878 -0.25544372680981631 0 -0.31352607005286259 -0.25036143285104001 0 -0.31610842544640022 -0.25968105533738128 0 -0.30474039183049878 -0.25544372680981631 0 -0.29294132617956792 -0.25294672078684138 0 -0.29327349000075842 -0.26356996834656782 0 -0.30474039183049878 -0.25544372680981631 0 -0.29294132617956792 -0.25294672078684138 0 -0.30474039183049878 -0.25544372680981631 0 -0.2983230382578394 -0.2445925140318079 0 -0.32814860380010541 -0.44655711221797978 0 -0.32536213699949063 -0.47113449991613698 0 -0.34738422675671082 -0.46275599195757838 0 -0.32536213699949063 -0.47113449991613698 0 -0.34738422675671082 -0.46275599195757838 0 -0.32814860380010541 -0.44655711221797978 0 -0.34738422675671082 -0.46275599195757838 0 -0.35331864897312371 -0.44085807759581558 0 -0.32814860380010541 -0.44655711221797978 0 -0.35331864897312371 -0.44085807759581558 0 -0.33817201027559413 -0.42789178668400007 0 -0.32814860380010541 -0.44655711221797978 0 -0.31939433728099748 -0.43254904288372292 0 -0.30690798573548439 -0.45274632167467382 0 -0.32536213699949063 -0.47113449991613698 0 -0.30690798573548439 -0.45274632167467382 0 -0.30967252450826682 -0.47710375826416668 0 -0.32814860380010541 -0.44655711221797978 0 -0.32536213699949063 -0.47113449991613698 0 -0.32814860380010541 -0.44655711221797978 0 -0.32536213699949063 -0.47113449991613698 0 -0.30690798573548439 -0.45274632167467382 0 -0.32536213699949063 -0.47113449991613698 0 -0.30896673211881848 -0.49112253212614287 0 -0.30967252450826682 -0.47710375826416668 0 -0.32536213699949063 -0.47113449991613698 0 -0.30967252450826682 -0.47710375826416668 0 -0.32536213699949063 -0.47113449991613698 0 -0.32208950450271678 -0.50000000000000289 0 -0.30896673211881848 -0.49112253212614287 0 -0.32536213699949063 -0.47113449991613698 0 -0.32208950450271678 -0.50000000000000289 0 -0.32208950450271678 -0.50000000000000289 0 -0.34250520226640008 -0.5 0 -0.33846915908159891 -0.48330121719407432 0 -0.32536213699949063 -0.47113449991613698 0 -0.32208950450271678 -0.50000000000000289 0 -0.33846915908159891 -0.48330121719407432 0 -0.32536213699949063 -0.47113449991613698 0 -0.33846915908159891 -0.48330121719407432 0 -0.34738422675671082 -0.46275599195757838 0 -0.33846915908159891 -0.48330121719407432 0 -0.35500472488267498 -0.48261559409665289 0 -0.34738422675671082 -0.46275599195757838 0 -0.35500472488267498 -0.48261559409665289 0 -0.36260501704148929 -0.46960893386920249 0 -0.34738422675671082 -0.46275599195757838 0 -0.34250520226640008 -0.5 0 -0.33846915908159891 -0.48330121719407432 0 -0.35500472488267498 -0.48261559409665289 0 -0.34250520226640008 -0.5 0 -0.35500472488267498 -0.48261559409665289 0 -0.36292090003008348 -0.49999999999999889 0 -0.37888012514495523 -0.47932142867101452 0 -0.36292090003008348 -0.49999999999999889 0 -0.37888012514495523 -0.47932142867101452 0 -0.35500472488267498 -0.48261559409665289 0 -0.36292090003008348 -0.49999999999999889 0 -0.37888012514495523 -0.47932142867101452 0 -0.35500472488267498 -0.48261559409665289 0 -0.36260501704148929 -0.46960893386920249 0 -0.37888012514495523 -0.47932142867101452 0 -0.36260501704148929 -0.46960893386920249 0 -0.36940631651393169 -0.45437748399902161 0 -0.36260501704148929 -0.46960893386920249 0 -0.36940631651393169 -0.45437748399902161 0 -0.34738422675671082 -0.46275599195757838 0 -0.36940631651393169 -0.45437748399902161 0 -0.34738422675671082 -0.46275599195757838 0 -0.36940631651393169 -0.45437748399902161 0 -0.34738422675671082 -0.46275599195757838 0 -0.35331864897312371 -0.44085807759581558 0 -0.36940631651393169 -0.45437748399902161 0 -0.37498697932785813 -0.43665479546504382 0 -0.36469301056325021 -0.43312282805673352 0 -0.36940631651393169 -0.45437748399902161 0 -0.35331864897312371 -0.44085807759581558 0 -0.36469301056325021 -0.43312282805673352 0 -0.37498697932785813 -0.43665479546504382 0 -0.36469301056325021 -0.43312282805673352 0 -0.37289093194205702 -0.42600722256956858 0 -0.36469301056325021 -0.43312282805673352 0 -0.37289093194205702 -0.42600722256956858 0 -0.35871435563278059 -0.42318369786652799 0 -0.35970246981538151 -0.40674575530762758 0 -0.37289078110535862 -0.41436197883334552 0 -0.35871435563278059 -0.42318369786652799 0 -0.37289093194205702 -0.42600722256956858 0 -0.37289078110535862 -0.41436197883334552 0 -0.35871435563278059 -0.42318369786652799 0 -0.37674159639830712 -0.4194098326634994 0 -0.37289093194205702 -0.42600722256956858 0 -0.37289078110535862 -0.41436197883334552 0 -0.34574199115368531 -0.41128568470073562 0 -0.35871435563278059 -0.42318369786652799 0 -0.33817201027559413 -0.42789178668400007 0 -0.35970246981538151 -0.40674575530762758 0 -0.34574199115368531 -0.41128568470073562 0 -0.35871435563278059 -0.42318369786652799 0 -0.35331864897312371 -0.44085807759581558 0 -0.35871435563278059 -0.42318369786652799 0 -0.33817201027559413 -0.42789178668400007 0 -0.35331864897312371 -0.44085807759581558 0 -0.36469301056325021 -0.43312282805673352 0 -0.35871435563278059 -0.42318369786652799 0 -0.37664428964660751 -0.39119637113985251 0 -0.36902278224166851 -0.36294453373439789 0 -0.37664428964660751 -0.39119637113985251 0 -0.36902278224166851 -0.36294453373439789 0 -0.35498469877473182 -0.39130816240292338 0 -0.37664428964660751 -0.39119637113985251 0 -0.35970246981538151 -0.40674575530762758 0 -0.35498469877473182 -0.39130816240292338 0 -0.37664428964660751 -0.39119637113985251 0 -0.35970246981538151 -0.40674575530762758 0 -0.37289078110535862 -0.41436197883334552 0 -0.35970246981538151 -0.40674575530762758 0 -0.34574199115368531 -0.41128568470073562 0 -0.35498469877473182 -0.39130816240292338 0 -0.34574199115368531 -0.41128568470073562 0 -0.35498469877473182 -0.39130816240292338 0 -0.33575010289312163 -0.3897025902950807 0 -0.3455164314731487 -0.3707883653923234 0 -0.35498469877473182 -0.39130816240292338 0 -0.33575010289312163 -0.3897025902950807 0 -0.36902278224166851 -0.36294453373439789 0 -0.3455164314731487 -0.3707883653923234 0 -0.35498469877473182 -0.39130816240292338 0 -0.3455164314731487 -0.3707883653923234 0 -0.32688977381803058 -0.37018208547104359 0 -0.33575010289312163 -0.3897025902950807 0 -0.34574199115368531 -0.41128568470073562 0 -0.33575010289312163 -0.3897025902950807 0 -0.32068223758707942 -0.40962993373340739 0 -0.31592849657657712 -0.38215615333539432 0 -0.32068223758707942 -0.40962993373340739 0 -0.30376817377309501 -0.39536815281994708 0 -0.33575010289312163 -0.3897025902950807 0 -0.31592849657657712 -0.38215615333539432 0 -0.32068223758707942 -0.40962993373340739 0 -0.32688977381803058 -0.37018208547104359 0 -0.33575010289312163 -0.3897025902950807 0 -0.31592849657657712 -0.38215615333539432 0 -0.32814860380010541 -0.44655711221797978 0 -0.33817201027559413 -0.42789178668400007 0 -0.31939433728099748 -0.43254904288372292 0 -0.34574199115368531 -0.41128568470073562 0 -0.33817201027559413 -0.42789178668400007 0 -0.32068223758707942 -0.40962993373340739 0 -0.32068223758707942 -0.40962993373340739 0 -0.31939433728099748 -0.43254904288372292 0 -0.30306084900672442 -0.42592006010855371 0 -0.33817201027559413 -0.42789178668400007 0 -0.32068223758707942 -0.40962993373340739 0 -0.31939433728099748 -0.43254904288372292 0 -0.31939433728099748 -0.43254904288372292 0 -0.30306084900672442 -0.42592006010855371 0 -0.30690798573548439 -0.45274632167467382 0 -0.32068223758707942 -0.40962993373340739 0 -0.30306084900672442 -0.42592006010855371 0 -0.29932458003036899 -0.40955694507569801 0 -0.30306084900672442 -0.42592006010855371 0 -0.29932458003036899 -0.40955694507569801 0 -0.28374437551606918 -0.41977403112151263 0 -0.29932458003036899 -0.40955694507569801 0 -0.28374437551606918 -0.41977403112151263 0 -0.28536726426887699 -0.39709254759506929 0 -0.28374437551606918 -0.41977403112151263 0 -0.27236356336683498 -0.43654832500377699 0 -0.29118913797384882 -0.44127650607302549 0 -0.30306084900672442 -0.42592006010855371 0 -0.28374437551606918 -0.41977403112151263 0 -0.29118913797384882 -0.44127650607302549 0 -0.31040525594364388 -0.36740942470759319 0 -0.31592849657657712 -0.38215615333539432 0 -0.29931463517772072 -0.3787126702367723 0 -0.31592849657657712 -0.38215615333539432 0 -0.29931463517772072 -0.3787126702367723 0 -0.30376817377309501 -0.39536815281994708 0 -0.32068223758707942 -0.40962993373340739 0 -0.29932458003036899 -0.40955694507569801 0 -0.30376817377309501 -0.39536815281994708 0 -0.29932458003036899 -0.40955694507569801 0 -0.30376817377309501 -0.39536815281994708 0 -0.28536726426887699 -0.39709254759506929 0 -0.29931463517772072 -0.3787126702367723 0 -0.28536726426887699 -0.39709254759506929 0 -0.28122506305057432 -0.37677672309087479 0 -0.29931463517772072 -0.3787126702367723 0 -0.30376817377309501 -0.39536815281994708 0 -0.28536726426887699 -0.39709254759506929 0 -0.26423990634011429 -0.37008717358033638 0 -0.26862606748358459 -0.38945321137224098 0 -0.28122506305057432 -0.37677672309087479 0 -0.28536726426887699 -0.39709254759506929 0 -0.26862606748358459 -0.38945321137224098 0 -0.28122506305057432 -0.37677672309087479 0 -0.28536726426887699 -0.39709254759506929 0 -0.26862606748358459 -0.38945321137224098 0 -0.26155388904173088 -0.41328597919956722 0 -0.26862606748358459 -0.38945321137224098 0 -0.25074421471662678 -0.39002363339535739 0 -0.26155388904173088 -0.41328597919956722 0 -0.25074421471662678 -0.39002363339535739 0 -0.26155388904173088 -0.41328597919956722 0 -0.26423990634011429 -0.37008717358033638 0 -0.26862606748358459 -0.38945321137224098 0 -0.25074421471662678 -0.39002363339535739 0 -0.26423990634011429 -0.37008717358033638 0 -0.25074421471662678 -0.39002363339535739 0 -0.24190245769781621 -0.37180080852581121 0 -0.27236356336683498 -0.43654832500377699 0 -0.26155388904173088 -0.41328597919956722 0 -0.28374437551606918 -0.41977403112151263 0 -0.27236356336683498 -0.43654832500377699 0 -0.26155388904173088 -0.41328597919956722 0 -0.28374437551606918 -0.41977403112151263 0 -0.28536726426887699 -0.39709254759506929 0 -0.26155388904173088 -0.41328597919956722 0 -0.27236356336683498 -0.43654832500377699 0 -0.26155388904173088 -0.41328597919956722 0 -0.24411245222672981 -0.44021398672708412 0 -0.27236356336683498 -0.43654832500377699 0 -0.26239787146121513 -0.45755467307489323 0 -0.24411245222672981 -0.44021398672708412 0 -0.26239787146121513 -0.45755467307489323 0 -0.27664641428734099 -0.47350233349751619 0 -0.25715997455084122 -0.47182342759753321 0 -0.26239787146121513 -0.45755467307489323 0 -0.25715997455084122 -0.47182342759753321 0 -0.2409315866436044 -0.46342929481546219 0 -0.26239787146121513 -0.45755467307489323 0 -0.28317323769193897 -0.45981067080798682 0 -0.27664641428734099 -0.47350233349751619 0 -0.27236356336683498 -0.43654832500377699 0 -0.26239787146121513 -0.45755467307489323 0 -0.28317323769193897 -0.45981067080798682 0 -0.27236356336683498 -0.43654832500377699 0 -0.28317323769193897 -0.45981067080798682 0 -0.27236356336683498 -0.43654832500377699 0 -0.29118913797384882 -0.44127650607302549 0 -0.28317323769193897 -0.45981067080798682 0 -0.29118913797384882 -0.44127650607302549 0 -0.28317323769193897 -0.45981067080798682 0 -0.30690798573548439 -0.45274632167467382 0 -0.28317323769193897 -0.45981067080798682 0 -0.29803632838505573 -0.46799071641719819 0 -0.30690798573548439 -0.45274632167467382 0 -0.29803632838505573 -0.46799071641719819 0 -0.30690798573548439 -0.45274632167467382 0 -0.30967252450826682 -0.47710375826416668 0 -0.30306084900672442 -0.42592006010855371 0 -0.29118913797384882 -0.44127650607302549 0 -0.30690798573548439 -0.45274632167467382 0 -0.32208950450271678 -0.50000000000000289 0 -0.29809407247920511 -0.5 0 -0.30896673211881848 -0.49112253212614287 0 -0.29809407247920511 -0.5 0 -0.30896673211881848 -0.49112253212614287 0 -0.29565480718066173 -0.48667092366053011 0 -0.30896673211881848 -0.49112253212614287 0 -0.30967252450826682 -0.47710375826416668 0 -0.29565480718066173 -0.48667092366053011 0 -0.30967252450826682 -0.47710375826416668 0 -0.29398291201704302 -0.48307301661219659 0 -0.29565480718066173 -0.48667092366053011 0 -0.29803632838505573 -0.46799071641719819 0 -0.30967252450826682 -0.47710375826416668 0 -0.29398291201704302 -0.48307301661219659 0 -0.30967252450826682 -0.47710375826416668 0 -0.29398291201704302 -0.48307301661219659 0 -0.29398291201704302 -0.48307301661219659 0 -0.28325663501193948 -0.48715392801723312 0 -0.27664641428734099 -0.47350233349751619 0 -0.28317323769193897 -0.45981067080798682 0 -0.29803632838505573 -0.46799071641719819 0 -0.29398291201704302 -0.48307301661219659 0 -0.28317323769193897 -0.45981067080798682 0 -0.29398291201704302 -0.48307301661219659 0 -0.27664641428734099 -0.47350233349751619 0 -0.28317323769193897 -0.45981067080798682 0 -0.29398291201704302 -0.48307301661219659 0 -0.29398291201704302 -0.48307301661219659 0 -0.28325663501193948 -0.48715392801723312 0 -0.29809407247920511 -0.5 0 -0.28325663501193948 -0.48715392801723312 0 -0.27409864045569338 -0.5 0 -0.29809407247920511 -0.5 0 -0.28325663501193948 -0.48715392801723312 0 -0.29565480718066173 -0.48667092366053011 0 -0.29398291201704302 -0.48307301661219659 0 -0.28325663501193948 -0.48715392801723312 0 -0.29565480718066173 -0.48667092366053011 0 -0.29398291201704302 -0.48307301661219659 0 -0.29565480718066173 -0.48667092366053011 0 -0.28325663501193948 -0.48715392801723312 0 -0.27409864045569338 -0.5 0 -0.26377912077346488 -0.48589195621452408 0 -0.27664641428734099 -0.47350233349751619 0 -0.25715997455084122 -0.47182342759753321 0 -0.26377912077346488 -0.48589195621452408 0 -0.28325663501193948 -0.48715392801723312 0 -0.27664641428734099 -0.47350233349751619 0 -0.26377912077346488 -0.48589195621452408 0 -0.25715997455084122 -0.47182342759753321 0 -0.26377912077346488 -0.48589195621452408 0 -0.24290750200282149 -0.48304463099722111 0 -0.27409864045569338 -0.5 0 -0.26377912077346488 -0.48589195621452408 0 -0.25010320843218181 -0.5 0 -0.26377912077346488 -0.48589195621452408 0 -0.25010320843218181 -0.5 0 -0.24290750200282149 -0.48304463099722111 0 -0.25010320843218181 -0.5 0 -0.24290750200282149 -0.48304463099722111 0 -0.22610777640867019 -0.49999999999999911 0 -0.24290750200282149 -0.48304463099722111 0 -0.2229577054482367 -0.4775373061294661 0 -0.2409315866436044 -0.46342929481546219 0 -0.25715997455084122 -0.47182342759753321 0 -0.24290750200282149 -0.48304463099722111 0 -0.2409315866436044 -0.46342929481546219 0 -0.24290750200282149 -0.48304463099722111 0 -0.2229577054482367 -0.4775373061294661 0 -0.22610777640867019 -0.49999999999999911 0 -0.2229577054482367 -0.4775373061294661 0 -0.22610777640867019 -0.49999999999999911 0 -0.24411245222672981 -0.44021398672708412 0 -0.2409315866436044 -0.46342929481546219 0 -0.21980763448780299 -0.45507461225893309 0 -0.26239787146121513 -0.45755467307489323 0 -0.24411245222672981 -0.44021398672708412 0 -0.2409315866436044 -0.46342929481546219 0 -0.2229577054482367 -0.4775373061294661 0 -0.21980763448780299 -0.45507461225893309 0 -0.2229577054482367 -0.4775373061294661 0 -0.2409315866436044 -0.46342929481546219 0 -0.21980763448780299 -0.45507461225893309 0 -0.24411245222672981 -0.44021398672708412 0 -0.21980763448780299 -0.45507461225893309 0 -0.2166575635273694 -0.43261191838840007 0 -0.21980763448780299 -0.45507461225893309 0 -0.2166575635273694 -0.43261191838840007 0 -0.21980763448780299 -0.45507461225893309 0 -0.20068356461422179 -0.44541947860785291 0 -0.2166575635273694 -0.43261191838840007 0 -0.2229577054482367 -0.4775373061294661 0 -0.21980763448780299 -0.45507461225893309 0 -0.1974822178269347 -0.47326947554065729 0 -0.21980763448780299 -0.45507461225893309 0 -0.20068356461422179 -0.44541947860785291 0 -0.1974822178269347 -0.47326947554065729 0 -0.20068356461422179 -0.44541947860785291 0 -0.1974822178269347 -0.47326947554065729 0 -0.18514287977510099 -0.45722207374860818 0 -0.20068356461422179 -0.44541947860785291 0 -0.18514287977510099 -0.45722207374860818 0 -0.18575869516187921 -0.43511169199507782 0 -0.2229577054482367 -0.4775373061294661 0 -0.22610777640867019 -0.49999999999999911 0 -0.2033846631223574 -0.5 0 -0.2229577054482367 -0.4775373061294661 0 -0.2033846631223574 -0.5 0 -0.1974822178269347 -0.47326947554065729 0 -0.2033846631223574 -0.5 0 -0.1974822178269347 -0.47326947554065729 0 -0.18066154983604449 -0.5 0 -0.18066154983604449 -0.5 0 -0.15793843654973169 -0.50000000000000067 0 -0.16929999319288691 -0.47785249484471798 0 -0.15793843654973169 -0.50000000000000067 0 -0.16929999319288691 -0.47785249484471798 0 -0.14580427977266749 -0.47040721093746568 0 -0.1974822178269347 -0.47326947554065729 0 -0.16929999319288691 -0.47785249484471798 0 -0.18514287977510099 -0.45722207374860818 0 -0.1974822178269347 -0.47326947554065729 0 -0.18066154983604449 -0.5 0 -0.16929999319288691 -0.47785249484471798 0 -0.18514287977510099 -0.45722207374860818 0 -0.15927132508066219 -0.45507042360758582 0 -0.18514287977510099 -0.45722207374860818 0 -0.1710412086422255 -0.44248833125615122 0 -0.18575869516187921 -0.43511169199507782 0 -0.1710412086422255 -0.44248833125615122 0 -0.15927132508066219 -0.45507042360758582 0 -0.16150275176297799 -0.4281406120173481 0 -0.18514287977510099 -0.45722207374860818 0 -0.1710412086422255 -0.44248833125615122 0 -0.15927132508066219 -0.45507042360758582 0 -0.16929999319288691 -0.47785249484471798 0 -0.18514287977510099 -0.45722207374860818 0 -0.15927132508066219 -0.45507042360758582 0 -0.16929999319288691 -0.47785249484471798 0 -0.15927132508066219 -0.45507042360758582 0 -0.14580427977266749 -0.47040721093746568 0 -0.15927132508066219 -0.45507042360758582 0 -0.13339977038622339 -0.45291877346656317 0 -0.14580427977266749 -0.47040721093746568 0 -0.15927132508066219 -0.45507042360758582 0 -0.13339977038622339 -0.45291877346656317 0 -0.15927132508066219 -0.45507042360758582 0 -0.13339977038622339 -0.45291877346656317 0 -0.14202848093077711 -0.43555946639308918 0 -0.15927132508066219 -0.45507042360758582 0 -0.14202848093077711 -0.43555946639308918 0 -0.16150275176297799 -0.4281406120173481 0 -0.14202848093077711 -0.43555946639308918 0 -0.1225542100985763 -0.44297832076883009 0 -0.13339977038622339 -0.45291877346656317 0 -0.14202848093077711 -0.43555946639308918 0 -0.1225542100985763 -0.44297832076883009 0 -0.13339977038622339 -0.45291877346656317 0 -0.1307687261585217 -0.46778345343049782 0 -0.14580427977266749 -0.47040721093746568 0 -0.13339977038622339 -0.45291877346656317 0 -0.1307687261585217 -0.46778345343049782 0 -0.1197536107712632 -0.4603846222227676 0 -0.1307687261585217 -0.46778345343049782 0 -0.13582373032455619 -0.48735854341737339 0 -0.1137090240993809 -0.47471708683474562 0 -0.1307687261585217 -0.46778345343049782 0 -0.13582373032455619 -0.48735854341737339 0 -0.14580427977266749 -0.47040721093746568 0 -0.1352964182094325 -0.5 0 -0.13582373032455619 -0.48735854341737339 0 -0.1126543998691333 -0.5 0 -0.15793843654973169 -0.50000000000000067 0 -0.13582373032455619 -0.48735854341737339 0 -0.15793843654973169 -0.50000000000000067 0 -0.1352964182094325 -0.5 0 -0.13582373032455619 -0.48735854341737339 0 -0.15793843654973169 -0.50000000000000067 0 -0.13582373032455619 -0.48735854341737339 0 -0.14580427977266749 -0.47040721093746568 0 -0.14815820246943501 -0.38862434508841293 0 -0.13820369649585121 -0.39936786319616852 0 -0.14893509359103921 -0.41354355943300569 0 -0.14815820246943501 -0.38862434508841293 0 -0.14893509359103921 -0.41354355943300569 0 -0.15868543423353421 -0.3929060338687464 0 -0.14893509359103921 -0.41354355943300569 0 -0.15868543423353421 -0.3929060338687464 0 -0.14629003136845831 -0.38366487186701009 0 -0.14022921479688971 -0.36757509429221658 0 -0.14629003136845831 -0.38366487186701009 0 -0.16843577487603181 -0.37226850830448821 0 -0.15320018995237381 -0.37000292891013942 0 -0.14815820246943501 -0.38862434508841293 0 -0.14629003136845831 -0.38366487186701009 0 -0.13820369649585121 -0.39936786319616852 0 -0.14815820246943501 -0.38862434508841293 0 -0.14629003136845831 -0.38366487186701009 0 -0.15868543423353421 -0.3929060338687464 0 -0.14815820246943501 -0.38862434508841293 0 -0.14629003136845831 -0.38366487186701009 0 -0.14629003136845831 -0.38366487186701009 0 -0.12889758925109701 -0.38102998034298241 0 -0.11965770675951989 -0.39737006328019292 0 -0.14629003136845831 -0.38366487186701009 0 -0.11965770675951989 -0.39737006328019292 0 -0.14629003136845831 -0.38366487186701009 0 -0.12889758925109701 -0.38102998034298241 0 -0.14022921479688971 -0.36757509429221658 0 -0.14629003136845831 -0.38366487186701009 0 -0.13820369649585121 -0.39936786319616852 0 -0.11965770675951989 -0.39737006328019292 0 -0.13820369649585121 -0.39936786319616852 0 -0.12954850123323461 -0.41175179961510788 0 -0.11965770675951989 -0.39737006328019292 0 -0.12954850123323461 -0.41175179961510788 0 -0.12818919803011231 -0.42850087913262958 0 -0.14893509359103921 -0.41354355943300569 0 -0.13820369649585121 -0.39936786319616852 0 -0.12954850123323461 -0.41175179961510788 0 -0.14893509359103921 -0.41354355943300569 0 -0.12818919803011231 -0.42850087913262958 0 -0.14202848093077711 -0.43555946639308918 0 -0.1225542100985763 -0.44297832076883009 0 -0.12818919803011231 -0.42850087913262958 0 -0.14202848093077711 -0.43555946639308918 0 -0.14893509359103921 -0.41354355943300569 0 -0.14202848093077711 -0.43555946639308918 0 -0.16150275176297799 -0.4281406120173481 0 -0.14202848093077711 -0.43555946639308918 0 -0.14893509359103921 -0.41354355943300569 0 -0.16150275176297799 -0.4281406120173481 0 -0.16611168185800959 -0.40903668601634491 0 -0.16150275176297799 -0.4281406120173481 0 -0.17611876105181309 -0.42241441327879209 0 -0.14893509359103921 -0.41354355943300569 0 -0.16611168185800959 -0.40903668601634491 0 -0.16150275176297799 -0.4281406120173481 0 -0.1710412086422255 -0.44248833125615122 0 -0.16150275176297799 -0.4281406120173481 0 -0.17611876105181309 -0.42241441327879209 0 -0.17611876105181309 -0.42241441327879209 0 -0.18575869516187921 -0.43511169199507782 0 -0.19673219926974631 -0.42049220771211088 0 -0.1710412086422255 -0.44248833125615122 0 -0.17611876105181309 -0.42241441327879209 0 -0.18575869516187921 -0.43511169199507782 0 -0.16611168185800959 -0.40903668601634491 0 -0.17611876105181309 -0.42241441327879209 0 -0.18039779705664899 -0.40543882441377171 0 -0.17611876105181309 -0.42241441327879209 0 -0.18039779705664899 -0.40543882441377171 0 -0.19673219926974631 -0.42049220771211088 0 -0.18039779705664899 -0.40543882441377171 0 -0.17828018271768231 -0.38954163684889143 0 -0.1949212565791632 -0.39737567732128748 0 -0.18039779705664899 -0.40543882441377171 0 -0.1708687739664688 -0.39923079528693861 0 -0.17828018271768231 -0.38954163684889143 0 -0.16611168185800959 -0.40903668601634491 0 -0.18039779705664899 -0.40543882441377171 0 -0.1708687739664688 -0.39923079528693861 0 -0.1708687739664688 -0.39923079528693861 0 -0.15868543423353421 -0.3929060338687464 0 -0.17828018271768231 -0.38954163684889143 0 -0.16611168185800959 -0.40903668601634491 0 -0.1708687739664688 -0.39923079528693861 0 -0.15868543423353421 -0.3929060338687464 0 -0.14893509359103921 -0.41354355943300569 0 -0.16611168185800959 -0.40903668601634491 0 -0.15868543423353421 -0.3929060338687464 0 -0.14629003136845831 -0.38366487186701009 0 -0.15868543423353421 -0.3929060338687464 0 -0.16843577487603181 -0.37226850830448821 0 -0.15868543423353421 -0.3929060338687464 0 -0.16843577487603181 -0.37226850830448821 0 -0.14629003136845831 -0.38366487186701009 0 -0.16843577487603181 -0.37226850830448821 0 -0.15868543423353421 -0.3929060338687464 0 -0.17828018271768231 -0.38954163684889143 0 -0.16843577487603181 -0.37226850830448821 0 -0.17828018271768231 -0.38954163684889143 0 -0.19055098658591391 -0.3787247394538551 0 -0.16843577487603181 -0.37226850830448821 0 -0.19055098658591391 -0.3787247394538551 0 -0.1949212565791632 -0.39737567732128748 0 -0.2084980129989466 -0.38586214231331711 0 -0.19055098658591391 -0.3787247394538551 0 -0.2084980129989466 -0.38586214231331711 0 -0.20439723017142469 -0.36771274822236633 0 -0.17828018271768231 -0.38954163684889143 0 -0.19055098658591391 -0.3787247394538551 0 -0.1949212565791632 -0.39737567732128748 0 -0.2084980129989466 -0.38586214231331711 0 -0.2135074925669358 -0.41014922451786712 0 -0.22829807904621649 -0.3909315811694436 0 -0.1949212565791632 -0.39737567732128748 0 -0.2084980129989466 -0.38586214231331711 0 -0.2135074925669358 -0.41014922451786712 0 -0.20068356461422179 -0.44541947860785291 0 -0.18575869516187921 -0.43511169199507782 0 -0.19673219926974631 -0.42049220771211088 0 -0.18039779705664899 -0.40543882441377171 0 -0.1949212565791632 -0.39737567732128748 0 -0.19673219926974631 -0.42049220771211088 0 -0.1949212565791632 -0.39737567732128748 0 -0.19673219926974631 -0.42049220771211088 0 -0.2135074925669358 -0.41014922451786712 0 -0.19673219926974631 -0.42049220771211088 0 -0.2135074925669358 -0.41014922451786712 0 -0.2166575635273694 -0.43261191838840007 0 -0.2135074925669358 -0.41014922451786712 0 -0.2166575635273694 -0.43261191838840007 0 -0.20068356461422179 -0.44541947860785291 0 -0.19673219926974631 -0.42049220771211088 0 -0.2166575635273694 -0.43261191838840007 0 -0.24411245222672981 -0.44021398672708412 0 -0.2166575635273694 -0.43261191838840007 0 -0.2358122818542682 -0.41286938723295319 0 -0.2135074925669358 -0.41014922451786712 0 -0.2166575635273694 -0.43261191838840007 0 -0.2358122818542682 -0.41286938723295319 0 -0.26155388904173088 -0.41328597919956722 0 -0.24411245222672981 -0.44021398672708412 0 -0.2358122818542682 -0.41286938723295319 0 -0.22829807904621649 -0.3909315811694436 0 -0.24190245769781621 -0.37180080852581121 0 -0.2219914235710439 -0.37116445816684202 0 -0.2084980129989466 -0.38586214231331711 0 -0.22829807904621649 -0.3909315811694436 0 -0.2219914235710439 -0.37116445816684202 0 -0.2135074925669358 -0.41014922451786712 0 -0.2358122818542682 -0.41286938723295319 0 -0.22829807904621649 -0.3909315811694436 0 -0.25074421471662678 -0.39002363339535739 0 -0.2358122818542682 -0.41286938723295319 0 -0.22829807904621649 -0.3909315811694436 0 -0.25074421471662678 -0.39002363339535739 0 -0.26155388904173088 -0.41328597919956722 0 -0.2358122818542682 -0.41286938723295319 0 -0.25074421471662678 -0.39002363339535739 0 -0.22829807904621649 -0.3909315811694436 0 -0.24190245769781621 -0.37180080852581121 0 -0.25356398932983287 -0.35281739151350128 0 -0.24190245769781621 -0.37180080852581121 0 -0.23258090176840651 -0.35553226824568962 0 -0.24190245769781621 -0.37180080852581121 0 -0.2219914235710439 -0.37116445816684202 0 -0.23258090176840651 -0.35553226824568962 0 -0.2219914235710439 -0.37116445816684202 0 -0.23258090176840651 -0.35553226824568962 0 -0.21627185974345281 -0.35514720052442422 0 -0.23258090176840651 -0.35553226824568962 0 -0.22376254042618879 -0.34412612393841258 0 -0.21627185974345281 -0.35514720052442422 0 -0.23258090176840651 -0.35553226824568962 0 -0.22376254042618879 -0.34412612393841258 0 -0.23841202626438801 -0.33988787478207622 0 -0.25356398932983287 -0.35281739151350128 0 -0.23258090176840651 -0.35553226824568962 0 -0.23841202626438801 -0.33988787478207622 0 -0.25356398932983287 -0.35281739151350128 0 -0.2542411799230469 -0.33588014060137672 0 -0.23841202626438801 -0.33988787478207622 0 -0.2542411799230469 -0.33588014060137672 0 -0.23841202626438801 -0.33988787478207622 0 -0.24473123317309911 -0.32890389190738051 0 -0.24473123317309911 -0.32890389190738051 0 -0.2442836160094537 -0.31771734852563338 0 -0.2199164940251746 -0.32749958526964218 0 -0.25967865116451072 -0.32082587120965822 0 -0.24473123317309911 -0.32890389190738051 0 -0.2442836160094537 -0.31771734852563338 0 -0.2442836160094537 -0.31771734852563338 0 -0.23017816798247639 -0.31509820347828499 0 -0.234170676235752 -0.30518604116860287 0 -0.2199164940251746 -0.32749958526964218 0 -0.23017816798247639 -0.31509820347828499 0 -0.21009133838106619 -0.31203635794350187 0 -0.2442836160094537 -0.31771734852563338 0 -0.2199164940251746 -0.32749958526964218 0 -0.2442836160094537 -0.31771734852563338 0 -0.2199164940251746 -0.32749958526964218 0 -0.23017816798247639 -0.31509820347828499 0 -0.23017816798247639 -0.31509820347828499 0 -0.21009133838106619 -0.31203635794350187 0 -0.22376254042618879 -0.34412612393841258 0 -0.23841202626438801 -0.33988787478207622 0 -0.2199164940251746 -0.32749958526964218 0 -0.23841202626438801 -0.33988787478207622 0 -0.24473123317309911 -0.32890389190738051 0 -0.2199164940251746 -0.32749958526964218 0 -0.2199164940251746 -0.32749958526964218 0 -0.20138931567169049 -0.32443245243117802 0 -0.19554937204089551 -0.33728182201365098 0 -0.2199164940251746 -0.32749958526964218 0 -0.19554937204089551 -0.33728182201365098 0 -0.2199164940251746 -0.32749958526964218 0 -0.2116314203295219 -0.34256369087023059 0 -0.19554937204089551 -0.33728182201365098 0 -0.22376254042618879 -0.34412612393841258 0 -0.2199164940251746 -0.32749958526964218 0 -0.2116314203295219 -0.34256369087023059 0 -0.2199164940251746 -0.32749958526964218 0 -0.20138931567169049 -0.32443245243117802 0 -0.21009133838106619 -0.31203635794350187 0 -0.19185117133773519 -0.31774128874531338 0 -0.21009133838106619 -0.31203635794350187 0 -0.19000450877965619 -0.30897451240871698 0 -0.20138931567169049 -0.32443245243117802 0 -0.19185117133773519 -0.31774128874531338 0 -0.21009133838106619 -0.31203635794350187 0 -0.20138931567169049 -0.32443245243117802 0 -0.189538202573581 -0.32760320818378119 0 -0.19185117133773519 -0.31774128874531338 0 -0.19185117133773519 -0.31774128874531338 0 -0.19000450877965619 -0.30897451240871698 0 -0.189538202573581 -0.32760320818378119 0 -0.19554937204089551 -0.33728182201365098 0 -0.19076202898078809 -0.34750315793413511 0 -0.20138931567169049 -0.32443245243117802 0 -0.189538202573581 -0.32760320818378119 0 -0.19554937204089551 -0.33728182201365098 0 -0.2116314203295219 -0.34256369087023059 0 -0.19554937204089551 -0.33728182201365098 0 -0.20181805749633039 -0.3522565029678954 0 -0.19554937204089551 -0.33728182201365098 0 -0.19076202898078809 -0.34750315793413511 0 -0.20181805749633039 -0.3522565029678954 0 -0.19076202898078809 -0.34750315793413511 0 -0.20181805749633039 -0.3522565029678954 0 -0.188710995883588 -0.36183472946868223 0 -0.20181805749633039 -0.3522565029678954 0 -0.188710995883588 -0.36183472946868223 0 -0.20439723017142469 -0.36771274822236633 0 -0.19055098658591391 -0.3787247394538551 0 -0.188710995883588 -0.36183472946868223 0 -0.20439723017142469 -0.36771274822236633 0 -0.2219914235710439 -0.37116445816684202 0 -0.20439723017142469 -0.36771274822236633 0 -0.21627185974345281 -0.35514720052442422 0 -0.2084980129989466 -0.38586214231331711 0 -0.2219914235710439 -0.37116445816684202 0 -0.20439723017142469 -0.36771274822236633 0 -0.22376254042618879 -0.34412612393841258 0 -0.2116314203295219 -0.34256369087023059 0 -0.21627185974345281 -0.35514720052442422 0 -0.2116314203295219 -0.34256369087023059 0 -0.20181805749633039 -0.3522565029678954 0 -0.21627185974345281 -0.35514720052442422 0 -0.20181805749633039 -0.3522565029678954 0 -0.20439723017142469 -0.36771274822236633 0 -0.21627185974345281 -0.35514720052442422 0 -0.22463764297864169 -0.25957013295895209 0 -0.23985923772846071 -0.26606577945759913 0 -0.23562107515302921 -0.24938861089824399 0 -0.22463764297864169 -0.25957013295895209 0 -0.2170457079486674 -0.24720300742873891 0 -0.23562107515302921 -0.24938861089824399 0 -0.24757840578926399 -0.25652676207350378 0 -0.23985923772846071 -0.26606577945759913 0 -0.23562107515302921 -0.24938861089824399 0 -0.25146340277487977 -0.26507489417853108 0 -0.24757840578926399 -0.25652676207350378 0 -0.23985923772846071 -0.26606577945759913 0 -0.25880019644146801 -0.28094624205305069 0 -0.23985923772846071 -0.26606577945759913 0 -0.23903163002898489 -0.2822334906684974 0 -0.23985923772846071 -0.26606577945759913 0 -0.22262882728634739 -0.27250734897309548 0 -0.23903163002898489 -0.2822334906684974 0 -0.22262882728634739 -0.27250734897309548 0 -0.2258283058908146 -0.2869511125113493 0 -0.23903163002898489 -0.2822334906684974 0 -0.22463764297864169 -0.25957013295895209 0 -0.23985923772846071 -0.26606577945759913 0 -0.22262882728634739 -0.27250734897309548 0 -0.22262882728634739 -0.27250734897309548 0 -0.2258283058908146 -0.2869511125113493 0 -0.2112004361958425 -0.28807981623867668 0 -0.2258283058908146 -0.2869511125113493 0 -0.2234950011485618 -0.30034956097513671 0 -0.2112004361958425 -0.28807981623867668 0 -0.2258283058908146 -0.2869511125113493 0 -0.23572008058892299 -0.29455395741082502 0 -0.2234950011485618 -0.30034956097513671 0 -0.2258283058908146 -0.2869511125113493 0 -0.23903163002898489 -0.2822334906684974 0 -0.23572008058892299 -0.29455395741082502 0 -0.25880019644146801 -0.28094624205305069 0 -0.23903163002898489 -0.2822334906684974 0 -0.2484058214503109 -0.29293501674903999 0 -0.2484058214503109 -0.29293501674903999 0 -0.23572008058892299 -0.29455395741082502 0 -0.2445979568743985 -0.30292672892464573 0 -0.23903163002898489 -0.2822334906684974 0 -0.2484058214503109 -0.29293501674903999 0 -0.23572008058892299 -0.29455395741082502 0 -0.23572008058892299 -0.29455395741082502 0 -0.2445979568743985 -0.30292672892464573 0 -0.234170676235752 -0.30518604116860287 0 -0.25798462174260928 -0.30513169097613058 0 -0.2442836160094537 -0.31771734852563338 0 -0.2445979568743985 -0.30292672892464573 0 -0.2442836160094537 -0.31771734852563338 0 -0.2445979568743985 -0.30292672892464573 0 -0.234170676235752 -0.30518604116860287 0 -0.23017816798247639 -0.31509820347828499 0 -0.234170676235752 -0.30518604116860287 0 -0.2234950011485618 -0.30034956097513671 0 -0.23017816798247639 -0.31509820347828499 0 -0.2234950011485618 -0.30034956097513671 0 -0.21009133838106619 -0.31203635794350187 0 -0.23572008058892299 -0.29455395741082502 0 -0.234170676235752 -0.30518604116860287 0 -0.2234950011485618 -0.30034956097513671 0 -0.2234950011485618 -0.30034956097513671 0 -0.21197034995116251 -0.30088926728797238 0 -0.21009133838106619 -0.31203635794350187 0 -0.21197034995116251 -0.30088926728797238 0 -0.20135950202062711 -0.30190099960312272 0 -0.2112004361958425 -0.28807981623867668 0 -0.21197034995116251 -0.30088926728797238 0 -0.21009133838106619 -0.31203635794350187 0 -0.20135950202062711 -0.30190099960312272 0 -0.21009133838106619 -0.31203635794350187 0 -0.19000450877965619 -0.30897451240871698 0 -0.19000450877965619 -0.30897451240871698 0 -0.19000424819106099 -0.29482790513326668 0 -0.1866364852001724 -0.29298528400933038 0 -0.21009133838106619 -0.31203635794350187 0 -0.19000450877965619 -0.30897451240871698 0 -0.20135950202062711 -0.30190099960312272 0 -0.19000450877965619 -0.30897451240871698 0 -0.1866364852001724 -0.29298528400933038 0 -0.19000450877965619 -0.30897451240871698 0 -0.19444584205301699 -0.30044302990133542 0 -0.19000424819106099 -0.29482790513326668 0 -0.19000450877965619 -0.30897451240871698 0 -0.19444584205301699 -0.30044302990133542 0 -0.20135950202062711 -0.30190099960312272 0 -0.19444584205301699 -0.30044302990133542 0 -0.19641510922072311 -0.29606870246023542 0 -0.19000424819106099 -0.29482790513326668 0 -0.19444584205301699 -0.30044302990133542 0 -0.20135950202062711 -0.30190099960312272 0 -0.19641510922072311 -0.29606870246023542 0 -0.20035531510569829 -0.29086164045443408 0 -0.19641510922072311 -0.29606870246023542 0 -0.19261048192947569 -0.28613947310569099 0 -0.20135950202062711 -0.30190099960312272 0 -0.20035531510569829 -0.29086164045443408 0 -0.19641510922072311 -0.29606870246023542 0 -0.19000424819106099 -0.29482790513326668 0 -0.19261048192947569 -0.28613947310569099 0 -0.1866364852001724 -0.29298528400933038 0 -0.19641510922072311 -0.29606870246023542 0 -0.19000424819106099 -0.29482790513326668 0 -0.19261048192947569 -0.28613947310569099 0 -0.19000424819106099 -0.29482790513326668 0 -0.1866364852001724 -0.29298528400933038 0 -0.20035531510569829 -0.29086164045443408 0 -0.2112004361958425 -0.28807981623867668 0 -0.19693324174275961 -0.27816482245543039 0 -0.20035531510569829 -0.29086164045443408 0 -0.19261048192947569 -0.28613947310569099 0 -0.19693324174275961 -0.27816482245543039 0 -0.20135950202062711 -0.30190099960312272 0 -0.20035531510569829 -0.29086164045443408 0 -0.2112004361958425 -0.28807981623867668 0 -0.2234950011485618 -0.30034956097513671 0 -0.21197034995116251 -0.30088926728797238 0 -0.2112004361958425 -0.28807981623867668 0 -0.2112004361958425 -0.28807981623867668 0 -0.19693324174275961 -0.27816482245543039 0 -0.20544116280817529 -0.26502159791948299 0 -0.22262882728634739 -0.27250734897309548 0 -0.2112004361958425 -0.28807981623867668 0 -0.20544116280817529 -0.26502159791948299 0 -0.22463764297864169 -0.25957013295895209 0 -0.22262882728634739 -0.27250734897309548 0 -0.20544116280817529 -0.26502159791948299 0 -0.19693324174275961 -0.27816482245543039 0 -0.20544116280817529 -0.26502159791948299 0 -0.18153301423792209 -0.26875725801147737 0 -0.19261048192947569 -0.28613947310569099 0 -0.19693324174275961 -0.27816482245543039 0 -0.18153301423792209 -0.26875725801147737 0 -0.18913519041805449 -0.25412740646705079 0 -0.2023768832660017 -0.25097279894461488 0 -0.20544116280817529 -0.26502159791948299 0 -0.18913519041805449 -0.25412740646705079 0 -0.20544116280817529 -0.26502159791948299 0 -0.18153301423792209 -0.26875725801147737 0 -0.2023768832660017 -0.25097279894461488 0 -0.20544116280817529 -0.26502159791948299 0 -0.2170457079486674 -0.24720300742873891 0 -0.22463764297864169 -0.25957013295895209 0 -0.20544116280817529 -0.26502159791948299 0 -0.2170457079486674 -0.24720300742873891 0 -0.1647536502557389 -0.26521682517304201 0 -0.1680929605241295 -0.25474777188350262 0 -0.18153301423792209 -0.26875725801147737 0 -0.15732428354340641 -0.25302835223868969 0 -0.16241980729389349 -0.25844401723742783 0 -0.1680929605241295 -0.25474777188350262 0 -0.15732428354340641 -0.25302835223868969 0 -0.1680929605241295 -0.25474777188350262 0 -0.16263472847473401 -0.2428724329714736 0 -0.15732428354340641 -0.25302835223868969 0 -0.15671343046709449 -0.25973743758482681 0 -0.16241980729389349 -0.25844401723742783 0 -0.15671343046709449 -0.25973743758482681 0 -0.1647536502557389 -0.26521682517304201 0 -0.15067355395008911 -0.26656157379805012 0 -0.15671343046709449 -0.25973743758482681 0 -0.16241980729389349 -0.25844401723742783 0 -0.1647536502557389 -0.26521682517304201 0 -0.16241980729389349 -0.25844401723742783 0 -0.1647536502557389 -0.26521682517304201 0 -0.1680929605241295 -0.25474777188350262 0 -0.18913519041805449 -0.25412740646705079 0 -0.18153301423792209 -0.26875725801147737 0 -0.1764295432756699 -0.2445292320136247 0 -0.18153301423792209 -0.26875725801147737 0 -0.1764295432756699 -0.2445292320136247 0 -0.1680929605241295 -0.25474777188350262 0 -0.18153301423792209 -0.26875725801147737 0 -0.1764295432756699 -0.2445292320136247 0 -0.18153301423792209 -0.26875725801147737 0 -0.16544975604126089 -0.28139328219659421 0 -0.1866364852001724 -0.29298528400933038 0 -0.18153301423792209 -0.26875725801147737 0 -0.1866364852001724 -0.29298528400933038 0 -0.1647536502557389 -0.26521682517304201 0 -0.16544975604126089 -0.28139328219659421 0 -0.15067355395008911 -0.26656157379805012 0 -0.1647536502557389 -0.26521682517304201 0 -0.18153301423792209 -0.26875725801147737 0 -0.16544975604126089 -0.28139328219659421 0 -0.16544975604126089 -0.28139328219659421 0 -0.1670583664777345 -0.3054768204014795 0 -0.14411222417581321 -0.30197912839424002 0 -0.16544975604126089 -0.28139328219659421 0 -0.1866364852001724 -0.29298528400933038 0 -0.19261048192947569 -0.28613947310569099 0 -0.18153301423792209 -0.26875725801147737 0 -0.1866364852001724 -0.29298528400933038 0 -0.16544975604126089 -0.28139328219659421 0 -0.1866364852001724 -0.29298528400933038 0 -0.1670583664777345 -0.3054768204014795 0 -0.19000450877965619 -0.30897451240871698 0 -0.1670583664777345 -0.3054768204014795 0 -0.19000450877965619 -0.30897451240871698 0 -0.1670583664777345 -0.3054768204014795 0 -0.17683774400362101 -0.31942230544739908 0 -0.19000450877965619 -0.30897451240871698 0 -0.1866364852001724 -0.29298528400933038 0 -0.1670583664777345 -0.3054768204014795 0 -0.1670583664777345 -0.3054768204014795 0 -0.14411222417581321 -0.30197912839424002 0 -0.15990930131163419 -0.31807708746679858 0 -0.16544975604126089 -0.28139328219659421 0 -0.14411222417581321 -0.30197912839424002 0 -0.13347981841798129 -0.28475764727324498 0 -0.1670583664777345 -0.3054768204014795 0 -0.14411222417581321 -0.30197912839424002 0 -0.14411222417581321 -0.30197912839424002 0 -0.13096826870341979 -0.3096802622929965 0 -0.14255816167999891 -0.3234628400499131 0 -0.14411222417581321 -0.30197912839424002 0 -0.1211660818738917 -0.29848143638700059 0 -0.14411222417581321 -0.30197912839424002 0 -0.13096826870341979 -0.3096802622929965 0 -0.1211660818738917 -0.29848143638700059 0 -0.14411222417581321 -0.30197912839424002 0 -0.13347981841798129 -0.28475764727324498 0 -0.1211660818738917 -0.29848143638700059 0 -0.16544975604126089 -0.28139328219659421 0 -0.13347981841798129 -0.28475764727324498 0 -0.14426302688235071 -0.26980128038385542 0 -0.16544975604126089 -0.28139328219659421 0 -0.15067355395008911 -0.26656157379805012 0 -0.14426302688235071 -0.26980128038385542 0 -0.16544975604126089 -0.28139328219659421 0 -0.14426302688235071 -0.26980128038385542 0 -0.15067355395008911 -0.26656157379805012 0 -0.14426302688235071 -0.26980128038385542 0 -0.14257400975171869 -0.26154908970557372 0 -0.13347981841798129 -0.28475764727324498 0 -0.14426302688235071 -0.26980128038385542 0 -0.1230762977234405 -0.25820927857111697 0 -0.1510077136628947 -0.25398390283359468 0 -0.1230762977234405 -0.25820927857111697 0 -0.13520422189713291 -0.2421257222954841 0 -0.14257400975171869 -0.26154908970557372 0 -0.1510077136628947 -0.25398390283359468 0 -0.1230762977234405 -0.25820927857111697 0 -0.1510077136628947 -0.25398390283359468 0 -0.1230762977234405 -0.25820927857111697 0 -0.14426302688235071 -0.26980128038385542 0 -0.1230762977234405 -0.25820927857111697 0 -0.14426302688235071 -0.26980128038385542 0 -0.14257400975171869 -0.26154908970557372 0 -0.1230762977234405 -0.25820927857111697 0 -0.15067355395008911 -0.26656157379805012 0 -0.14257400975171869 -0.26154908970557372 0 -0.1510077136628947 -0.25398390283359468 0 -0.15671343046709449 -0.25973743758482681 0 -0.15067355395008911 -0.26656157379805012 0 -0.1510077136628947 -0.25398390283359468 0 -0.15067355395008911 -0.26656157379805012 0 -0.1510077136628947 -0.25398390283359468 0 -0.15732428354340641 -0.25302835223868969 0 -0.15671343046709449 -0.25973743758482681 0 -0.1510077136628947 -0.25398390283359468 0 -0.15732428354340641 -0.25302835223868969 0 -0.1510077136628947 -0.25398390283359468 0 -0.1686704947434477 -0.34424306249697723 0 -0.16347817731942371 -0.35883661090702301 0 -0.1789869887248052 -0.34993585824413409 0 -0.1686704947434477 -0.34424306249697723 0 -0.15992947021905729 -0.35045270591908001 0 -0.16347817731942371 -0.35883661090702301 0 -0.15992947021905729 -0.35045270591908001 0 -0.15890962005105019 -0.34182366084041721 0 -0.15087644433376399 -0.35053346593323259 0 -0.1686704947434477 -0.34424306249697723 0 -0.15992947021905729 -0.35045270591908001 0 -0.15890962005105019 -0.34182366084041721 0 -0.15992947021905729 -0.35045270591908001 0 -0.16347817731942371 -0.35883661090702301 0 -0.15147611878769021 -0.35978900669309 0 -0.16347817731942371 -0.35883661090702301 0 -0.16843577487603181 -0.37226850830448821 0 -0.1789869887248052 -0.34993585824413409 0 -0.16347817731942371 -0.35883661090702301 0 -0.16843577487603181 -0.37226850830448821 0 -0.15320018995237381 -0.37000292891013942 0 -0.188710995883588 -0.36183472946868223 0 -0.16843577487603181 -0.37226850830448821 0 -0.1789869887248052 -0.34993585824413409 0 -0.19055098658591391 -0.3787247394538551 0 -0.188710995883588 -0.36183472946868223 0 -0.16843577487603181 -0.37226850830448821 0 -0.16843577487603181 -0.37226850830448821 0 -0.1789869887248052 -0.34993585824413409 0 -0.188710995883588 -0.36183472946868223 0 -0.16843577487603181 -0.37226850830448821 0 -0.19076202898078809 -0.34750315793413511 0 -0.188710995883588 -0.36183472946868223 0 -0.1789869887248052 -0.34993585824413409 0 -0.189538202573581 -0.32760320818378119 0 -0.1789869887248052 -0.34993585824413409 0 -0.189538202573581 -0.32760320818378119 0 -0.1789869887248052 -0.34993585824413409 0 -0.17450770206785979 -0.33379591424852861 0 -0.1686704947434477 -0.34424306249697723 0 -0.1789869887248052 -0.34993585824413409 0 -0.17450770206785979 -0.33379591424852861 0 -0.189538202573581 -0.32760320818378119 0 -0.19076202898078809 -0.34750315793413511 0 -0.1789869887248052 -0.34993585824413409 0 -0.19185117133773519 -0.31774128874531338 0 -0.19000450877965619 -0.30897451240871698 0 -0.17683774400362101 -0.31942230544739908 0 -0.189538202573581 -0.32760320818378119 0 -0.19185117133773519 -0.31774128874531338 0 -0.17683774400362101 -0.31942230544739908 0 -0.189538202573581 -0.32760320818378119 0 -0.17450770206785979 -0.33379591424852861 0 -0.17683774400362101 -0.31942230544739908 0 -0.17450770206785979 -0.33379591424852861 0 -0.17683774400362101 -0.31942230544739908 0 -0.16789889199243579 -0.3258415379856438 0 -0.17683774400362101 -0.31942230544739908 0 -0.16789889199243579 -0.3258415379856438 0 -0.15990930131163419 -0.31807708746679858 0 -0.1670583664777345 -0.3054768204014795 0 -0.17683774400362101 -0.31942230544739908 0 -0.15990930131163419 -0.31807708746679858 0 -0.16789889199243579 -0.3258415379856438 0 -0.15990930131163419 -0.31807708746679858 0 -0.1603408205866283 -0.33207084477984899 0 -0.1686704947434477 -0.34424306249697723 0 -0.17450770206785979 -0.33379591424852861 0 -0.1603408205866283 -0.33207084477984899 0 -0.17450770206785979 -0.33379591424852861 0 -0.16789889199243579 -0.3258415379856438 0 -0.1603408205866283 -0.33207084477984899 0 -0.1686704947434477 -0.34424306249697723 0 -0.1603408205866283 -0.33207084477984899 0 -0.15890962005105019 -0.34182366084041721 0 -0.1603408205866283 -0.33207084477984899 0 -0.15890962005105019 -0.34182366084041721 0 -0.15007535211468931 -0.34118924614675972 0 -0.15007535211468931 -0.34118924614675972 0 -0.14255816167999891 -0.3234628400499131 0 -0.13818895890073399 -0.3402611072919951 0 -0.1603408205866283 -0.33207084477984899 0 -0.15007535211468931 -0.34118924614675972 0 -0.14255816167999891 -0.3234628400499131 0 -0.15990930131163419 -0.31807708746679858 0 -0.1603408205866283 -0.33207084477984899 0 -0.14255816167999891 -0.3234628400499131 0 -0.14411222417581321 -0.30197912839424002 0 -0.15990930131163419 -0.31807708746679858 0 -0.14255816167999891 -0.3234628400499131 0 -0.13067042051203859 -0.32054912994338181 0 -0.12719081665269971 -0.33296178375977459 0 -0.1202132350800718 -0.3144382508021285 0 -0.13096826870341979 -0.3096802622929965 0 -0.14255816167999891 -0.3234628400499131 0 -0.13067042051203859 -0.32054912994338181 0 -0.14255816167999891 -0.3234628400499131 0 -0.13067042051203859 -0.32054912994338181 0 -0.12719081665269971 -0.33296178375977459 0 -0.13096826870341979 -0.3096802622929965 0 -0.13067042051203859 -0.32054912994338181 0 -0.1202132350800718 -0.3144382508021285 0 -0.14255816167999891 -0.3234628400499131 0 -0.13818895890073399 -0.3402611072919951 0 -0.12719081665269971 -0.33296178375977459 0 -0.12719081665269971 -0.33296178375977459 0 -0.13416839822532439 -0.35148531671742189 0 -0.13818895890073399 -0.3402611072919951 0 -0.12719081665269971 -0.33296178375977459 0 -0.13416839822532439 -0.35148531671742189 0 -0.13416839822532439 -0.35148531671742189 0 -0.14157005660463351 -0.35169421551710939 0 -0.14022921479688971 -0.36757509429221658 0 -0.13416839822532439 -0.35148531671742189 0 -0.14157005660463351 -0.35169421551710939 0 -0.13818895890073399 -0.3402611072919951 0 -0.13416839822532439 -0.35148531671742189 0 -0.14157005660463351 -0.35169421551710939 0 -0.15007535211468931 -0.34118924614675972 0 -0.13818895890073399 -0.3402611072919951 0 -0.14157005660463351 -0.35169421551710939 0 -0.15007535211468931 -0.34118924614675972 0 -0.14157005660463351 -0.35169421551710939 0 -0.15087644433376399 -0.35053346593323259 0 -0.14157005660463351 -0.35169421551710939 0 -0.15087644433376399 -0.35053346593323259 0 -0.15147611878769021 -0.35978900669309 0 -0.15992947021905729 -0.35045270591908001 0 -0.15087644433376399 -0.35053346593323259 0 -0.15147611878769021 -0.35978900669309 0 -0.15890962005105019 -0.34182366084041721 0 -0.15007535211468931 -0.34118924614675972 0 -0.15087644433376399 -0.35053346593323259 0 -0.14629003136845831 -0.38366487186701009 0 -0.15320018995237381 -0.37000292891013942 0 -0.14022921479688971 -0.36757509429221658 0 -0.14157005660463351 -0.35169421551710939 0 -0.15147611878769021 -0.35978900669309 0 -0.14022921479688971 -0.36757509429221658 0 -0.16347817731942371 -0.35883661090702301 0 -0.15320018995237381 -0.37000292891013942 0 -0.15147611878769021 -0.35978900669309 0 -0.15320018995237381 -0.37000292891013942 0 -0.15147611878769021 -0.35978900669309 0 -0.14022921479688971 -0.36757509429221658 0 -0.13416839822532439 -0.35148531671742189 0 -0.14022921479688971 -0.36757509429221658 0 -0.13416839822532439 -0.35148531671742189 0 -0.14022921479688971 -0.36757509429221658 0 -0.13066310477351001 -0.36658532474748717 0 -0.12889758925109701 -0.38102998034298241 0 -0.14022921479688971 -0.36757509429221658 0 -0.13066310477351001 -0.36658532474748717 0 -0.13416839822532439 -0.35148531671742189 0 -0.13066310477351001 -0.36658532474748717 0 -0.11935721682072881 -0.36625090763732798 0 -0.12889758925109701 -0.38102998034298241 0 -0.13066310477351001 -0.36658532474748717 0 -0.11935721682072881 -0.36625090763732798 0 -0.11935721682072881 -0.36625090763732798 0 -0.096545230004300056 -0.36757531451045422 0 -0.10161114746934941 -0.38408870307324328 0 -0.11935721682072881 -0.36625090763732798 0 -0.096545230004300056 -0.36757531451045422 0 -0.10540241470889759 -0.35067344738754769 0 -0.13416839822532439 -0.35148531671742189 0 -0.10540241470889759 -0.35067344738754769 0 -0.13416839822532439 -0.35148531671742189 0 -0.11935721682072881 -0.36625090763732798 0 -0.10540241470889759 -0.35067344738754769 0 -0.12719081665269971 -0.33296178375977459 0 -0.13416839822532439 -0.35148531671742189 0 -0.10540241470889759 -0.35067344738754769 0 -0.12719081665269971 -0.33296178375977459 0 -0.10540241470889759 -0.35067344738754769 0 -0.1056390333882781 -0.32961136112902512 0 -0.12719081665269971 -0.33296178375977459 0 -0.1202132350800718 -0.3144382508021285 0 -0.12719081665269971 -0.33296178375977459 0 -0.1202132350800718 -0.3144382508021285 0 -0.1128626144798494 -0.32037008012786222 0 -0.12719081665269971 -0.33296178375977459 0 -0.1128626144798494 -0.32037008012786222 0 -0.1056390333882781 -0.32961136112902512 0 -0.1202132350800718 -0.3144382508021285 0 -0.1128626144798494 -0.32037008012786222 0 -0.1105639095327733 -0.30986966324987109 0 -0.1128626144798494 -0.32037008012786222 0 -0.10234914655790769 -0.31389410460291328 0 -0.1056390333882781 -0.32961136112902512 0 -0.10234914655790769 -0.31389410460291328 0 -0.1056390333882781 -0.32961136112902512 0 -0.090453213225100831 -0.32200647057478998 0 -0.1128626144798494 -0.32037008012786222 0 -0.10234914655790769 -0.31389410460291328 0 -0.1105639095327733 -0.30986966324987109 0 -0.10234914655790769 -0.31389410460291328 0 -0.090453213225100831 -0.32200647057478998 0 -0.091333810189710873 -0.30641211044299488 0 -0.10540241470889759 -0.35067344738754769 0 -0.1056390333882781 -0.32961136112902512 0 -0.090841581513406502 -0.33666300905290109 0 -0.1056390333882781 -0.32961136112902512 0 -0.090841581513406502 -0.33666300905290109 0 -0.090453213225100831 -0.32200647057478998 0 -0.090841581513406502 -0.33666300905290109 0 -0.076076815052285196 -0.33116218811547082 0 -0.076636431192470766 -0.34986157805767221 0 -0.090841581513406502 -0.33666300905290109 0 -0.090453213225100831 -0.32200647057478998 0 -0.076076815052285196 -0.33116218811547082 0 -0.090453213225100831 -0.32200647057478998 0 -0.076076815052285196 -0.33116218811547082 0 -0.077083995483234038 -0.30874024323451271 0 -0.076076815052285196 -0.33116218811547082 0 -0.077083995483234038 -0.30874024323451271 0 -0.062328020054012709 -0.32255128637316188 0 -0.077083995483234038 -0.30874024323451271 0 -0.063456477994186231 -0.30931765152422241 0 -0.062328020054012709 -0.32255128637316188 0 -0.076076815052285196 -0.33116218811547082 0 -0.076636431192470766 -0.34986157805767221 0 -0.058122185781438532 -0.33493853208753122 0 -0.076076815052285196 -0.33116218811547082 0 -0.058122185781438532 -0.33493853208753122 0 -0.062328020054012709 -0.32255128637316188 0 -0.078498534134579717 -0.37377528235856078 0 -0.06213406998535722 -0.37115011931220071 0 -0.076636431192470766 -0.34986157805767221 0 -0.078498534134579717 -0.37377528235856078 0 -0.06213406998535722 -0.37115011931220071 0 -0.096545230004300056 -0.36757531451045422 0 -0.076636431192470766 -0.34986157805767221 0 -0.078498534134579717 -0.37377528235856078 0 -0.10540241470889759 -0.35067344738754769 0 -0.076636431192470766 -0.34986157805767221 0 -0.096545230004300056 -0.36757531451045422 0 -0.10540241470889759 -0.35067344738754769 0 -0.076636431192470766 -0.34986157805767221 0 -0.10540241470889759 -0.35067344738754769 0 -0.090841581513406502 -0.33666300905290109 0 -0.076636431192470766 -0.34986157805767221 0 -0.084819037538815312 -0.26399671517363721 0 -0.098598209298187994 -0.2448164587889948 0 -0.099517985831804864 -0.2418500915779096 0 -0.10394766763112789 -0.26110299687237742 0 -0.084819037538815312 -0.26399671517363721 0 -0.10394766763112789 -0.26110299687237742 0 -0.084819037538815312 -0.26399671517363721 0 -0.098598209298187994 -0.2448164587889948 0 -0.10394766763112789 -0.26110299687237742 0 -0.1230762977234405 -0.25820927857111697 0 -0.098598209298187994 -0.2448164587889948 0 -0.1230762977234405 -0.25820927857111697 0 -0.098598209298187994 -0.2448164587889948 0 -0.10394766763112789 -0.26110299687237742 0 -0.1230762977234405 -0.25820927857111697 0 -0.10394766763112789 -0.26110299687237742 0 -0.1230762977234405 -0.25820927857111697 0 -0.1127504376086176 -0.27913710493942762 0 -0.13347981841798129 -0.28475764727324498 0 -0.1230762977234405 -0.25820927857111697 0 -0.1127504376086176 -0.27913710493942762 0 -0.10394766763112789 -0.26110299687237742 0 -0.1127504376086176 -0.27913710493942762 0 -0.094514924678929788 -0.27625391352140749 0 -0.10394766763112789 -0.26110299687237742 0 -0.094514924678929788 -0.27625391352140749 0 -0.084819037538815312 -0.26399671517363721 0 -0.1127504376086176 -0.27913710493942762 0 -0.094514924678929788 -0.27625391352140749 0 -0.098219939571970061 -0.29498374437976221 0 -0.098219939571970061 -0.29498374437976221 0 -0.1211660818738917 -0.29848143638700059 0 -0.1127504376086176 -0.27913710493942762 0 -0.098219939571970061 -0.29498374437976221 0 -0.1211660818738917 -0.29848143638700059 0 -0.13347981841798129 -0.28475764727324498 0 -0.1127504376086176 -0.27913710493942762 0 -0.1211660818738917 -0.29848143638700059 0 -0.098219939571970061 -0.29498374437976221 0 -0.1211660818738917 -0.29848143638700059 0 -0.1191746119740683 -0.30566213633668832 0 -0.13096826870341979 -0.3096802622929965 0 -0.1211660818738917 -0.29848143638700059 0 -0.1191746119740683 -0.30566213633668832 0 -0.13096826870341979 -0.3096802622929965 0 -0.1202132350800718 -0.3144382508021285 0 -0.1191746119740683 -0.30566213633668832 0 -0.1202132350800718 -0.3144382508021285 0 -0.1191746119740683 -0.30566213633668832 0 -0.1105639095327733 -0.30986966324987109 0 -0.098219939571970061 -0.29498374437976221 0 -0.1191746119740683 -0.30566213633668832 0 -0.1105639095327733 -0.30986966324987109 0 -0.10234914655790769 -0.31389410460291328 0 -0.098219939571970061 -0.29498374437976221 0 -0.091333810189710873 -0.30641211044299488 0 -0.098219939571970061 -0.29498374437976221 0 -0.1191746119740683 -0.30566213633668832 0 -0.10234914655790769 -0.31389410460291328 0 -0.098219939571970061 -0.29498374437976221 0 -0.1105639095327733 -0.30986966324987109 0 -0.090453213225100831 -0.32200647057478998 0 -0.091333810189710873 -0.30641211044299488 0 -0.077083995483234038 -0.30874024323451271 0 -0.098219939571970061 -0.29498374437976221 0 -0.091333810189710873 -0.30641211044299488 0 -0.08828393588273159 -0.29346919434209129 0 -0.091333810189710873 -0.30641211044299488 0 -0.077083995483234038 -0.30874024323451271 0 -0.08828393588273159 -0.29346919434209129 0 -0.077083995483234038 -0.30874024323451271 0 -0.075642629659835897 -0.29460923645086978 0 -0.08828393588273159 -0.29346919434209129 0 -0.077083995483234038 -0.30874024323451271 0 -0.063456477994186231 -0.30931765152422241 0 -0.063553993795949199 -0.29603634890338698 0 -0.077083995483234038 -0.30874024323451271 0 -0.075642629659835897 -0.29460923645086978 0 -0.063553993795949199 -0.29603634890338698 0 -0.075642629659835897 -0.29460923645086978 0 -0.063553993795949199 -0.29603634890338698 0 -0.07283754104411827 -0.28204900624183288 0 -0.063553993795949199 -0.29603634890338698 0 -0.07283754104411827 -0.28204900624183288 0 -0.063553993795949199 -0.29603634890338698 0 -0.06298459392333608 -0.28558396661188018 0 -0.07283754104411827 -0.28204900624183288 0 -0.098219939571970061 -0.29498374437976221 0 -0.07283754104411827 -0.28204900624183288 0 -0.094514924678929788 -0.27625391352140749 0 -0.098219939571970061 -0.29498374437976221 0 -0.07283754104411827 -0.28204900624183288 0 -0.098219939571970061 -0.29498374437976221 0 -0.07283754104411827 -0.28204900624183288 0 -0.08828393588273159 -0.29346919434209129 0 -0.075642629659835897 -0.29460923645086978 0 -0.07283754104411827 -0.28204900624183288 0 -0.08828393588273159 -0.29346919434209129 0 -0.098219939571970061 -0.29498374437976221 0 -0.08828393588273159 -0.29346919434209129 0 -0.094514924678929788 -0.27625391352140749 0 -0.07283754104411827 -0.28204900624183288 0 -0.084819037538815312 -0.26399671517363721 0 -0.07283754104411827 -0.28204900624183288 0 -0.084819037538815312 -0.26399671517363721 0 -0.066541660463870222 -0.26676165862675238 0 -0.070856176904452534 -0.2729995184871053 0 -0.084819037538815312 -0.26399671517363721 0 -0.07283754104411827 -0.28204900624183288 0 -0.070856176904452534 -0.2729995184871053 0 -0.084819037538815312 -0.26399671517363721 0 -0.07283754104411827 -0.28204900624183288 0 -0.070856176904452534 -0.2729995184871053 0 -0.061887461326094552 -0.2745413579278746 0 -0.07283754104411827 -0.28204900624183288 0 -0.061887461326094552 -0.2745413579278746 0 -0.06005412634454501 -0.27553464466696947 0 -0.06298459392333608 -0.28558396661188018 0 -0.07283754104411827 -0.28204900624183288 0 -0.06005412634454501 -0.27553464466696947 0 -0.07283754104411827 -0.28204900624183288 0 -0.06005412634454501 -0.27553464466696947 0 -0.066541660463870222 -0.26676165862675238 0 -0.070856176904452534 -0.2729995184871053 0 -0.061887461326094552 -0.2745413579278746 0 -0.066541660463870222 -0.26676165862675238 0 -0.084819037538815312 -0.26399671517363721 0 -0.072633096569996461 -0.25231433365624389 0 -0.056182934724786388 -0.2579007550064667 0 -0.06073814619030448 -0.24598109428459611 0 -0.066541660463870222 -0.26676165862675238 0 -0.072633096569996461 -0.25231433365624389 0 -0.056182934724786388 -0.2579007550064667 0 -0.066541660463870222 -0.26676165862675238 0 -0.072633096569996461 -0.25231433365624389 0 -0.084819037538815312 -0.26399671517363721 0 -0.072633096569996461 -0.25231433365624389 0 -0.084819037538815312 -0.26399671517363721 0 -0.086362519757149495 -0.24803654749965709 0 -0.084819037538815312 -0.26399671517363721 0 -0.086362519757149495 -0.24803654749965709 0 -0.099517985831804864 -0.2418500915779096 0 -0.084819037538815312 -0.26399671517363721 0 -0.099517985831804864 -0.2418500915779096 0 -0.04333166838545123 -0.25587103745628742 0 -0.026008002787897441 -0.25818491736150839 0 -0.03749998534272686 -0.24645163551448299 0 -0.04333166838545123 -0.25587103745628742 0 -0.048264283388925008 -0.26952660207986712 0 -0.026008002787897441 -0.25818491736150839 0 -0.048264283388925008 -0.26952660207986712 0 -0.026008002787897441 -0.25818491736150839 0 -0.04333166838545123 -0.25587103745628742 0 -0.056182934724786388 -0.2579007550064667 0 -0.048954136784397161 -0.24677205084299511 0 -0.066541660463870222 -0.26676165862675238 0 -0.056182934724786388 -0.2579007550064667 0 -0.048264283388925008 -0.26952660207986712 0 -0.056182934724786388 -0.2579007550064667 0 -0.06073814619030448 -0.24598109428459611 0 -0.048954136784397161 -0.24677205084299511 0 -0.04333166838545123 -0.25587103745628742 0 -0.056182934724786388 -0.2579007550064667 0 -0.048264283388925008 -0.26952660207986712 0 -0.066541660463870222 -0.26676165862675238 0 -0.048264283388925008 -0.26952660207986712 0 -0.048264283388925008 -0.26952660207986712 0 -0.06005412634454501 -0.27553464466696947 0 -0.066541660463870222 -0.26676165862675238 0 -0.048264283388925008 -0.26952660207986712 0 -0.061887461326094552 -0.2745413579278746 0 -0.048264283388925008 -0.26952660207986712 0 -0.06005412634454501 -0.27553464466696947 0 -0.037756109620498461 -0.28761553798041101 0 -0.048264283388925008 -0.26952660207986712 0 -0.061887461326094552 -0.2745413579278746 0 -0.06005412634454501 -0.27553464466696947 0 -0.061887461326094552 -0.2745413579278746 0 -0.06005412634454501 -0.27553464466696947 0 -0.0437893823857839 -0.27020355086640502 0 -0.027954527386523039 -0.27446801751595312 0 -0.026008002787897441 -0.25818491736150839 0 -0.048264283388925008 -0.26952660207986712 0 -0.0437893823857839 -0.27020355086640502 0 -0.037756109620498461 -0.28761553798041101 0 -0.0437893823857839 -0.27020355086640502 0 -0.037756109620498461 -0.28761553798041101 0 -0.027954527386523039 -0.27446801751595312 0 -0.048264283388925008 -0.26952660207986712 0 -0.0437893823857839 -0.27020355086640502 0 -0.026008002787897441 -0.25818491736150839 0 -0.048264283388925008 -0.26952660207986712 0 -0.0437893823857839 -0.27020355086640502 0 -0.06005412634454501 -0.27553464466696947 0 -0.037756109620498461 -0.28761553798041101 0 -0.054907628896754379 -0.28916300804981931 0 -0.037756109620498461 -0.28761553798041101 0 -0.054907628896754379 -0.28916300804981931 0 -0.050189320799445131 -0.30104454208644471 0 -0.06005412634454501 -0.27553464466696947 0 -0.037756109620498461 -0.28761553798041101 0 -0.06298459392333608 -0.28558396661188018 0 -0.06005412634454501 -0.27553464466696947 0 -0.054907628896754379 -0.28916300804981931 0 -0.063553993795949199 -0.29603634890338698 0 -0.054907628896754379 -0.28916300804981931 0 -0.050189320799445131 -0.30104454208644471 0 -0.063553993795949199 -0.29603634890338698 0 -0.06298459392333608 -0.28558396661188018 0 -0.054907628896754379 -0.28916300804981931 0 -0.063456477994186231 -0.30931765152422241 0 -0.050189320799445131 -0.30104454208644471 0 -0.047066945361674883 -0.31914620485107009 0 -0.063456477994186231 -0.30931765152422241 0 -0.063553993795949199 -0.29603634890338698 0 -0.050189320799445131 -0.30104454208644471 0 -0.037756109620498461 -0.28761553798041101 0 -0.037217216485105571 -0.30670689251819599 0 -0.027560617545667531 -0.30445417516927198 0 -0.050189320799445131 -0.30104454208644471 0 -0.037217216485105571 -0.30670689251819599 0 -0.047066945361674883 -0.31914620485107009 0 -0.037756109620498461 -0.28761553798041101 0 -0.050189320799445131 -0.30104454208644471 0 -0.037217216485105571 -0.30670689251819599 0 -0.037217216485105571 -0.30670689251819599 0 -0.030565610590850081 -0.31142764263038658 0 -0.027560617545667531 -0.30445417516927198 0 -0.037217216485105571 -0.30670689251819599 0 -0.030565610590850081 -0.31142764263038658 0 -0.037500275595947222 -0.3161458182703738 0 -0.037756109620498461 -0.28761553798041101 0 -0.027560617545667531 -0.30445417516927198 0 -0.01545809289645643 -0.2996964312938607 0 -0.02509127964785254 -0.31115435659590102 0 -0.027560617545667531 -0.30445417516927198 0 -0.021193744439298449 -0.30847357355690452 0 -0.02509127964785254 -0.31115435659590102 0 -0.030565610590850081 -0.31142764263038658 0 -0.027560617545667531 -0.30445417516927198 0 -0.027560617545667531 -0.30445417516927198 0 -0.021193744439298449 -0.30847357355690452 0 -0.01545809289645643 -0.2996964312938607 0 -0.01545809289645643 -0.2996964312938607 0 -0.01811004293999097 -0.31261226474241688 0 -0.021193744439298449 -0.30847357355690452 0 -0.01545809289645643 -0.2996964312938607 0 -0.01811004293999097 -0.31261226474241688 0 -0.021193744439298449 -0.30847357355690452 0 -0.01811004293999097 -0.31261226474241688 0 -0.020228660721467361 -0.31359189968424239 0 -0.02509127964785254 -0.31115435659590102 0 -0.021193744439298449 -0.30847357355690452 0 -0.020228660721467361 -0.31359189968424239 0 -0.0063596629264112857 -0.30462589040891103 0 -0.01545809289645643 -0.2996964312938607 0 -0.01811004293999097 -0.31261226474241688 0 -0.0063596629264112857 -0.30462589040891103 0 -0.01811004293999097 -0.31261226474241688 0 -0.0063596629264112857 -0.30462589040891103 0 -0.01545809289645643 -0.2996964312938607 0 -0.0017353971264607181 -0.28860223348569658 0 -0.0063596629264112857 -0.30462589040891103 0 -0.01811004293999097 -0.31261226474241688 0 -0.0063767584182884453 -0.31267072953001079 0 -0.0063596629264112857 -0.30462589040891103 0 -0.0063767584182884453 -0.31267072953001079 0 0.0069218991655704901 -0.31182173821255171 0 -0.0063596629264112857 -0.30462589040891103 0 -0.01545809289645643 -0.2996964312938607 0 -0.01545809289645643 -0.2996964312938607 0 -0.0017353971264607181 -0.28860223348569658 0 -0.010305792251711691 -0.27429525117709919 0 -0.01545809289645643 -0.2996964312938607 0 -0.010305792251711691 -0.27429525117709919 0 -0.037756109620498461 -0.28761553798041101 0 -0.01545809289645643 -0.2996964312938607 0 -0.037756109620498461 -0.28761553798041101 0 -0.01545809289645643 -0.2996964312938607 0 -0.022868630538797521 -0.284018809491831 0 -0.01545809289645643 -0.2996964312938607 0 -0.022868630538797521 -0.284018809491831 0 -0.010305792251711691 -0.27429525117709919 0 -0.037756109620498461 -0.28761553798041101 0 -0.022868630538797521 -0.284018809491831 0 -0.027954527386523039 -0.27446801751595312 0 -0.022868630538797521 -0.284018809491831 0 -0.027954527386523039 -0.27446801751595312 0 -0.010305792251711691 -0.27429525117709919 0 -0.027954527386523039 -0.27446801751595312 0 -0.010305792251711691 -0.27429525117709919 0 -0.026008002787897441 -0.25818491736150839 0 -0.010305792251711691 -0.27429525117709919 0 -0.026008002787897441 -0.25818491736150839 0 -0.0037517221868697478 -0.24684323264315031 0 -0.010305792251711691 -0.27429525117709919 0 -0.0037517221868697478 -0.24684323264315031 0 0.01217519740530776 -0.2668565954612736 0 -0.026008002787897441 -0.25818491736150839 0 -0.0037517221868697478 -0.24684323264315031 0 -0.047870447676044189 -0.34904970872779562 0 -0.02533978476910894 -0.3484138203638405 0 -0.036895247149196307 -0.35793982586866452 0 -0.047870447676044189 -0.34904970872779562 0 -0.02533978476910894 -0.3484138203638405 0 -0.036895247149196307 -0.35793982586866452 0 -0.045501608712330603 -0.36848196456507237 0 -0.047870447676044189 -0.34904970872779562 0 -0.047870447676044189 -0.34904970872779562 0 -0.039403578638212838 -0.33593093160072868 0 -0.02533978476910894 -0.3484138203638405 0 -0.045501608712330603 -0.36848196456507237 0 -0.0288691474393034 -0.36581380981794798 0 -0.033751437652646842 -0.38988382079798939 0 -0.045501608712330603 -0.36848196456507237 0 -0.0288691474393034 -0.36581380981794798 0 -0.036895247149196307 -0.35793982586866452 0 -0.045501608712330603 -0.36848196456507237 0 -0.0288691474393034 -0.36581380981794798 0 -0.045501608712330603 -0.36848196456507237 0 -0.06213406998535722 -0.37115011931220071 0 -0.045501608712330603 -0.36848196456507237 0 -0.06213406998535722 -0.37115011931220071 0 -0.047870447676044189 -0.34904970872779562 0 -0.045501608712330603 -0.36848196456507237 0 -0.06213406998535722 -0.37115011931220071 0 -0.050556586925527239 -0.38332022825225959 0 -0.06213406998535722 -0.37115011931220071 0 -0.047870447676044189 -0.34904970872779562 0 -0.076636431192470766 -0.34986157805767221 0 -0.047870447676044189 -0.34904970872779562 0 -0.058122185781438532 -0.33493853208753122 0 -0.076636431192470766 -0.34986157805767221 0 -0.06213406998535722 -0.37115011931220071 0 -0.047870447676044189 -0.34904970872779562 0 -0.076636431192470766 -0.34986157805767221 0 -0.047870447676044189 -0.34904970872779562 0 -0.047870447676044189 -0.34904970872779562 0 -0.058122185781438532 -0.33493853208753122 0 -0.039403578638212838 -0.33593093160072868 0 -0.058122185781438532 -0.33493853208753122 0 -0.047066945361674883 -0.31914620485107009 0 -0.039403578638212838 -0.33593093160072868 0 -0.058122185781438532 -0.33493853208753122 0 -0.062328020054012709 -0.32255128637316188 0 -0.047066945361674883 -0.31914620485107009 0 -0.063456477994186231 -0.30931765152422241 0 -0.062328020054012709 -0.32255128637316188 0 -0.047066945361674883 -0.31914620485107009 0 -0.047066945361674883 -0.31914620485107009 0 -0.039403578638212838 -0.33593093160072868 0 -0.030936709600379891 -0.32281215447366279 0 -0.047066945361674883 -0.31914620485107009 0 -0.037500275595947222 -0.3161458182703738 0 -0.030936709600379891 -0.32281215447366279 0 -0.037217216485105571 -0.30670689251819599 0 -0.047066945361674883 -0.31914620485107009 0 -0.037500275595947222 -0.3161458182703738 0 -0.037500275595947222 -0.3161458182703738 0 -0.02590776494197929 -0.31782449193869949 0 -0.030936709600379891 -0.32281215447366279 0 -0.030565610590850081 -0.31142764263038658 0 -0.037500275595947222 -0.3161458182703738 0 -0.02590776494197929 -0.31782449193869949 0 -0.047870447676044189 -0.34904970872779562 0 -0.039403578638212838 -0.33593093160072868 0 -0.039403578638212838 -0.33593093160072868 0 -0.030936709600379891 -0.32281215447366279 0 -0.039403578638212838 -0.33593093160072868 0 -0.021859278484043228 -0.33125469609289349 0 -0.030936709600379891 -0.32281215447366279 0 -0.021859278484043228 -0.33125469609289349 0 -0.0040619637084774382 -0.34781329125918142 0 -0.02533978476910894 -0.3484138203638405 0 -0.039403578638212838 -0.33593093160072868 0 -0.021859278484043228 -0.33125469609289349 0 -0.02533978476910894 -0.3484138203638405 0 -0.021859278484043228 -0.33125469609289349 0 -0.02533978476910894 -0.3484138203638405 0 -0.021859278484043228 -0.33125469609289349 0 -0.01837877219897803 -0.31409557182194647 0 -0.021859278484043228 -0.33125469609289349 0 -0.02590776494197929 -0.31782449193869949 0 -0.01837877219897803 -0.31409557182194647 0 -0.02509127964785254 -0.31115435659590102 0 -0.030565610590850081 -0.31142764263038658 0 -0.02590776494197929 -0.31782449193869949 0 -0.02509127964785254 -0.31115435659590102 0 -0.02590776494197929 -0.31782449193869949 0 -0.020228660721467361 -0.31359189968424239 0 -0.021859278484043228 -0.33125469609289349 0 -0.02590776494197929 -0.31782449193869949 0 -0.030936709600379891 -0.32281215447366279 0 -0.01811004293999097 -0.31261226474241688 0 -0.01837877219897803 -0.31409557182194647 0 -0.01811004293999097 -0.31261226474241688 0 -0.01837877219897803 -0.31409557182194647 0 -0.020228660721467361 -0.31359189968424239 0 -0.01837877219897803 -0.31409557182194647 0 -0.020228660721467361 -0.31359189968424239 0 -0.02590776494197929 -0.31782449193869949 0 -0.01837877219897803 -0.31409557182194647 0 -0.020228660721467361 -0.31359189968424239 0 -0.021859278484043228 -0.33125469609289349 0 -0.01837877219897803 -0.31409557182194647 0 -0.0060755731424686037 -0.33147489451578949 0 -0.01837877219897803 -0.31409557182194647 0 0.0040119165157269498 -0.32019192082489051 0 -0.01837877219897803 -0.31409557182194647 0 -0.0060755731424686037 -0.33147489451578949 0 0.0040119165157269498 -0.32019192082489051 0 -0.01837877219897803 -0.31409557182194647 0 -0.0063767584182884453 -0.31267072953001079 0 0.0040119165157269498 -0.32019192082489051 0 -0.01811004293999097 -0.31261226474241688 0 -0.01837877219897803 -0.31409557182194647 0 -0.0063767584182884453 -0.31267072953001079 0 -0.021859278484043228 -0.33125469609289349 0 -0.0060755731424686037 -0.33147489451578949 0 -0.0040619637084774382 -0.34781329125918142 0 -0.0040619637084774382 -0.34781329125918142 0 -0.02533978476910894 -0.3484138203638405 0 -0.0040619637084774382 -0.34781329125918142 0 -0.02533978476910894 -0.3484138203638405 0 -0.0092315767869633469 -0.36266357988516268 0 -0.0040619637084774382 -0.34781329125918142 0 -0.0092315767869633469 -0.36266357988516268 0 0.01040599386537659 -0.3595133499523766 0 -0.036895247149196307 -0.35793982586866452 0 -0.02533978476910894 -0.3484138203638405 0 -0.0288691474393034 -0.36581380981794798 0 -0.02533978476910894 -0.3484138203638405 0 -0.0288691474393034 -0.36581380981794798 0 -0.0092315767869633469 -0.36266357988516268 0 -0.02533978476910894 -0.3484138203638405 0 -0.0288691474393034 -0.36581380981794798 0 -0.0288691474393034 -0.36581380981794798 0 -0.0092315767869633469 -0.36266357988516268 0 -0.0288691474393034 -0.36581380981794798 0 -0.014974135974081841 -0.37040648199687171 0 -0.0092315767869633469 -0.36266357988516268 0 -0.0288691474393034 -0.36581380981794798 0 -0.014974135974081841 -0.37040648199687171 0 -0.01463002609816925 -0.38004033416110861 0 -0.005499767600076394 -0.36862719476803352 0 -0.01463002609816925 -0.38004033416110861 0 0.004491385456308495 -0.3701968475242281 0 -0.014974135974081841 -0.37040648199687171 0 -0.0092315767869633469 -0.36266357988516268 0 -0.005499767600076394 -0.36862719476803352 0 -0.014974135974081841 -0.37040648199687171 0 -0.005499767600076394 -0.36862719476803352 0 -0.01463002609816925 -0.38004033416110861 0 -0.0092315767869633469 -0.36266357988516268 0 -0.005499767600076394 -0.36862719476803352 0 0.0070312487209461139 -0.36560911810176072 0 -0.01463002609816925 -0.38004033416110861 0 -0.0082329305185383367 -0.39318065125541718 0 0.004491385456308495 -0.3701968475242281 0 -0.01463002609816925 -0.38004033416110861 0 0.004491385456308495 -0.3701968475242281 0 -0.0082329305185383367 -0.39318065125541718 0 0.004491385456308495 -0.3701968475242281 0 -0.01463002609816925 -0.38004033416110861 0 -0.0082329305185383367 -0.39318065125541718 0 -0.02145081128026502 -0.39508215510512867 0 -0.003501012975338088 -0.40606038485500778 0 -0.0082329305185383367 -0.39318065125541718 0 -0.020957246493385921 -0.41616445498660581 0 -0.0082329305185383367 -0.39318065125541718 0 -0.020957246493385921 -0.41616445498660581 0 -0.003501012975338088 -0.40606038485500778 0 -0.0082329305185383367 -0.39318065125541718 0 0.0078814430085241416 -0.39648342802442182 0 -0.02145081128026502 -0.39508215510512867 0 -0.028131946300283001 -0.40543025254472131 0 -0.020957246493385921 -0.41616445498660581 0 -0.0082329305185383367 -0.39318065125541718 0 -0.02145081128026502 -0.39508215510512867 0 -0.020957246493385921 -0.41616445498660581 0 -0.02145081128026502 -0.39508215510512867 0 -0.030111276010447309 -0.39781564402659192 0 -0.033751437652646842 -0.38988382079798939 0 -0.02145081128026502 -0.39508215510512867 0 -0.030111276010447309 -0.39781564402659192 0 -0.028131946300283001 -0.40543025254472131 0 -0.0288691474393034 -0.36581380981794798 0 -0.01463002609816925 -0.38004033416110861 0 -0.033751437652646842 -0.38988382079798939 0 -0.01463002609816925 -0.38004033416110861 0 -0.02145081128026502 -0.39508215510512867 0 -0.033751437652646842 -0.38988382079798939 0 -0.01463002609816925 -0.38004033416110861 0 -0.033751437652646842 -0.38988382079798939 0 -0.045501608712330603 -0.36848196456507237 0 -0.033751437652646842 -0.38988382079798939 0 -0.050556586925527239 -0.38332022825225959 0 -0.033751437652646842 -0.38988382079798939 0 -0.050321885952906847 -0.39841410037207009 0 -0.050556586925527239 -0.38332022825225959 0 -0.0288691474393034 -0.36581380981794798 0 -0.033751437652646842 -0.38988382079798939 0 -0.033751437652646842 -0.38988382079798939 0 -0.034804764250733977 -0.39507679001399543 0 -0.050321885952906847 -0.39841410037207009 0 -0.030111276010447309 -0.39781564402659192 0 -0.033751437652646842 -0.38988382079798939 0 -0.034804764250733977 -0.39507679001399543 0 -0.033751437652646842 -0.38988382079798939 0 -0.034804764250733977 -0.39507679001399543 0 -0.033751437652646842 -0.38988382079798939 0 -0.050321885952906847 -0.39841410037207009 0 -0.030111276010447309 -0.39781564402659192 0 -0.028131946300283001 -0.40543025254472131 0 -0.036381968952787801 -0.40303388109320643 0 -0.030111276010447309 -0.39781564402659192 0 -0.034804764250733977 -0.39507679001399543 0 -0.036381968952787801 -0.40303388109320643 0 -0.034804764250733977 -0.39507679001399543 0 -0.036381968952787801 -0.40303388109320643 0 -0.050321885952906847 -0.39841410037207009 0 -0.036381968952787801 -0.40303388109320643 0 -0.050321885952906847 -0.39841410037207009 0 -0.042532353304072679 -0.40852092064233569 0 -0.050321885952906847 -0.39841410037207009 0 -0.066892334253167068 -0.4069443799461504 0 -0.050321885952906847 -0.39841410037207009 0 -0.061073932324394682 -0.38867113621396499 0 -0.066892334253167068 -0.4069443799461504 0 -0.050321885952906847 -0.39841410037207009 0 -0.052218954073636553 -0.40985561714323532 0 -0.066892334253167068 -0.4069443799461504 0 -0.050321885952906847 -0.39841410037207009 0 -0.052218954073636553 -0.40985561714323532 0 -0.042532353304072679 -0.40852092064233569 0 -0.06213406998535722 -0.37115011931220071 0 -0.061073932324394682 -0.38867113621396499 0 -0.050556586925527239 -0.38332022825225959 0 -0.050321885952906847 -0.39841410037207009 0 -0.061073932324394682 -0.38867113621396499 0 -0.050556586925527239 -0.38332022825225959 0 -0.039760732932703657 -0.43848563751973868 0 -0.066393057541642403 -0.42478044610655669 0 -0.048718985698284749 -0.42493206143147749 0 -0.039760732932703657 -0.43848563751973868 0 -0.066393057541642403 -0.42478044610655669 0 -0.039760732932703657 -0.43848563751973868 0 -0.066393057541642403 -0.42478044610655669 0 -0.064008215436665752 -0.43699804329512049 0 -0.048718985698284749 -0.42493206143147749 0 -0.057599414774954547 -0.41793042321710983 0 -0.066393057541642403 -0.42478044610655669 0 -0.057599414774954547 -0.41793042321710983 0 -0.052218954073636553 -0.40985561714323532 0 -0.066892334253167068 -0.4069443799461504 0 -0.057599414774954547 -0.41793042321710983 0 -0.052218954073636553 -0.40985561714323532 0 -0.043748782083081597 -0.41746826153851058 0 -0.048718985698284749 -0.42493206143147749 0 -0.057599414774954547 -0.41793042321710983 0 -0.043748782083081597 -0.41746826153851058 0 -0.043748782083081597 -0.41746826153851058 0 -0.042532353304072679 -0.40852092064233569 0 -0.034371862090522939 -0.41265991867056517 0 -0.052218954073636553 -0.40985561714323532 0 -0.043748782083081597 -0.41746826153851058 0 -0.042532353304072679 -0.40852092064233569 0 -0.028131946300283001 -0.40543025254472131 0 -0.036381968952787801 -0.40303388109320643 0 -0.034371862090522939 -0.41265991867056517 0 -0.036381968952787801 -0.40303388109320643 0 -0.042532353304072679 -0.40852092064233569 0 -0.034371862090522939 -0.41265991867056517 0 -0.043748782083081597 -0.41746826153851058 0 -0.034371862090522939 -0.41265991867056517 0 -0.036092941159041568 -0.42599553877547158 0 -0.048718985698284749 -0.42493206143147749 0 -0.043748782083081597 -0.41746826153851058 0 -0.036092941159041568 -0.42599553877547158 0 -0.048718985698284749 -0.42493206143147749 0 -0.036092941159041568 -0.42599553877547158 0 -0.039760732932703657 -0.43848563751973868 0 -0.036092941159041568 -0.42599553877547158 0 -0.039760732932703657 -0.43848563751973868 0 -0.033681562468233527 -0.43914825871779439 0 -0.019086535611000141 -0.43332240730699229 0 -0.020957246493385921 -0.41616445498660581 0 -0.033681562468233527 -0.43914825871779439 0 -0.036092941159041568 -0.42599553877547158 0 -0.020957246493385921 -0.41616445498660581 0 -0.033681562468233527 -0.43914825871779439 0 -0.020957246493385921 -0.41616445498660581 0 -0.033681562468233527 -0.43914825871779439 0 -0.028131946300283001 -0.40543025254472131 0 -0.034371862090522939 -0.41265991867056517 0 -0.020957246493385921 -0.41616445498660581 0 -0.034371862090522939 -0.41265991867056517 0 -0.036092941159041568 -0.42599553877547158 0 -0.020957246493385921 -0.41616445498660581 0 -0.003501012975338088 -0.40606038485500778 0 -0.020957246493385921 -0.41616445498660581 0 -9.0866128732218672e-05 -0.41964567598439279 0 -0.019086535611000141 -0.43332240730699229 0 -9.0866128732218672e-05 -0.41964567598439279 0 -0.0080631752659889987 -0.44280792394436369 0 -9.0866128732218672e-05 -0.41964567598439279 0 -0.0080631752659889987 -0.44280792394436369 0 -0.019086535611000141 -0.43332240730699229 0 -0.020957246493385921 -0.41616445498660581 0 -9.0866128732218672e-05 -0.41964567598439279 0 -0.0080631752659889987 -0.44280792394436369 0 -0.02270360505793385 -0.44813511994719329 0 -0.0080631752659889987 -0.44280792394436369 0 -0.017468276640195249 -0.47013291678740449 0 0.00035831223976342429 -0.46213143315566829 0 -0.0080631752659889987 -0.44280792394436369 0 -0.017468276640195249 -0.47013291678740449 0 -0.02785552416579665 -0.45949330001320038 0 -0.02270360505793385 -0.44813511994719329 0 -0.017468276640195249 -0.47013291678740449 0 -0.02785552416579665 -0.45949330001320038 0 -0.017468276640195249 -0.47013291678740449 0 -0.033906180115179048 -0.46624284736818061 0 -0.0080631752659889987 -0.44280792394436369 0 -0.02270360505793385 -0.44813511994719329 0 -0.017468276640195249 -0.47013291678740449 0 -0.02785552416579665 -0.45949330001320038 0 -0.02270360505793385 -0.44813511994719329 0 -0.037344034849878451 -0.45346231595002351 0 -0.02270360505793385 -0.44813511994719329 0 -0.033681562468233527 -0.43914825871779439 0 -0.037344034849878451 -0.45346231595002351 0 -0.02270360505793385 -0.44813511994719329 0 -0.037344034849878451 -0.45346231595002351 0 -0.019086535611000141 -0.43332240730699229 0 -0.02270360505793385 -0.44813511994719329 0 -0.033681562468233527 -0.43914825871779439 0 -0.019086535611000141 -0.43332240730699229 0 -0.0080631752659889987 -0.44280792394436369 0 -0.02270360505793385 -0.44813511994719329 0 -0.010740055448653699 -0.5 0 -0.01360138984163909 -0.48721658585321947 0 0.00067615073669454514 -0.48127551699502819 0 -0.01360138984163909 -0.48721658585321947 0 -0.017468276640195249 -0.47013291678740449 0 0.00067615073669454514 -0.48127551699502819 0 -0.017468276640195249 -0.47013291678740449 0 0.00035831223976342429 -0.46213143315566829 0 0.00067615073669454514 -0.48127551699502819 0 -0.017468276640195249 -0.47013291678740449 0 -0.036924533379089061 -0.47903542565980223 0 -0.033906180115179048 -0.46624284736818061 0 -0.017468276640195249 -0.47013291678740449 0 -0.034778565259708683 -0.48915342368854542 0 -0.036924533379089061 -0.47903542565980223 0 -0.017468276640195249 -0.47013291678740449 0 -0.026873378014401959 -0.49745790963044539 0 -0.010740055448653699 -0.5 0 -0.01360138984163909 -0.48721658585321947 0 -0.026873378014401959 -0.49745790963044539 0 -0.010740055448653699 -0.5 0 -0.026873378014401959 -0.49745790963044539 0 -0.038158171415419197 -0.49999999999999889 0 -0.017468276640195249 -0.47013291678740449 0 -0.026873378014401959 -0.49745790963044539 0 -0.034778565259708683 -0.48915342368854542 0 -0.01360138984163909 -0.48721658585321947 0 -0.017468276640195249 -0.47013291678740449 0 -0.026873378014401959 -0.49745790963044539 0 -0.034778565259708683 -0.48915342368854542 0 -0.036924533379089061 -0.47903542565980223 0 -0.059130194417929167 -0.48511586618017161 0 -0.038158171415419197 -0.49999999999999889 0 -0.034778565259708683 -0.48915342368854542 0 -0.059130194417929167 -0.48511586618017161 0 -0.026873378014401959 -0.49745790963044539 0 -0.038158171415419197 -0.49999999999999889 0 -0.034778565259708683 -0.48915342368854542 0 -0.036924533379089061 -0.47903542565980223 0 -0.044091696588819528 -0.47313155041428451 0 -0.059130194417929167 -0.48511586618017161 0 -0.036924533379089061 -0.47903542565980223 0 -0.044091696588819528 -0.47313155041428451 0 -0.033906180115179048 -0.46624284736818061 0 -0.050957352413595197 -0.47035334401985018 0 -0.067731395556540563 -0.46386344047678357 0 -0.063124746064515042 -0.47340787327758249 0 -0.044091696588819528 -0.47313155041428451 0 -0.050957352413595197 -0.47035334401985018 0 -0.059130194417929167 -0.48511586618017161 0 -0.050957352413595197 -0.47035334401985018 0 -0.059130194417929167 -0.48511586618017161 0 -0.063124746064515042 -0.47340787327758249 0 -0.050957352413595197 -0.47035334401985018 0 -0.059130194417929167 -0.48511586618017161 0 -0.038158171415419197 -0.49999999999999889 0 -0.059130194417929167 -0.48511586618017161 0 -0.067370363188534968 -0.50000000000000289 0 -0.038158171415419197 -0.49999999999999889 0 -0.059130194417929167 -0.48511586618017161 0 -0.033681562468233527 -0.43914825871779439 0 -0.046405878443081187 -0.46213206244898319 0 -0.047552416813713118 -0.44946809480926908 0 -0.033681562468233527 -0.43914825871779439 0 -0.037344034849878451 -0.45346231595002351 0 -0.046405878443081187 -0.46213206244898319 0 -0.033681562468233527 -0.43914825871779439 0 -0.046405878443081187 -0.46213206244898319 0 -0.039760732932703657 -0.43848563751973868 0 -0.033681562468233527 -0.43914825871779439 0 -0.047552416813713118 -0.44946809480926908 0 -0.02785552416579665 -0.45949330001320038 0 -0.037344034849878451 -0.45346231595002351 0 -0.033906180115179048 -0.46624284736818061 0 -0.044091696588819528 -0.47313155041428451 0 -0.033906180115179048 -0.46624284736818061 0 -0.046405878443081187 -0.46213206244898319 0 -0.037344034849878451 -0.45346231595002351 0 -0.033906180115179048 -0.46624284736818061 0 -0.046405878443081187 -0.46213206244898319 0 -0.050957352413595197 -0.47035334401985018 0 -0.057374765531416717 -0.45842120668937369 0 -0.067731395556540563 -0.46386344047678357 0 -0.046405878443081187 -0.46213206244898319 0 -0.057374765531416717 -0.45842120668937369 0 -0.047552416813713118 -0.44946809480926908 0 -0.050957352413595197 -0.47035334401985018 0 -0.067731395556540563 -0.46386344047678357 0 -0.050957352413595197 -0.47035334401985018 0 -0.046405878443081187 -0.46213206244898319 0 -0.057374765531416717 -0.45842120668937369 0 -0.050957352413595197 -0.47035334401985018 0 -0.046405878443081187 -0.46213206244898319 0 -0.044091696588819528 -0.47313155041428451 0 -0.050957352413595197 -0.47035334401985018 0 -0.046405878443081187 -0.46213206244898319 0 -0.039760732932703657 -0.43848563751973868 0 -0.060659156225640568 -0.44686918137342457 0 -0.047552416813713118 -0.44946809480926908 0 -0.039760732932703657 -0.43848563751973868 0 -0.060659156225640568 -0.44686918137342457 0 -0.064008215436665752 -0.43699804329512049 0 -0.057374765531416717 -0.45842120668937369 0 -0.060659156225640568 -0.44686918137342457 0 -0.047552416813713118 -0.44946809480926908 0 -0.060659156225640568 -0.44686918137342457 0 -0.074428370483700532 -0.44117719835749319 0 -0.081869547746008048 -0.44863317825899829 0 -0.060659156225640568 -0.44686918137342457 0 -0.070652889872351521 -0.45267894507383127 0 -0.081869547746008048 -0.44863317825899829 0 -0.060659156225640568 -0.44686918137342457 0 -0.081869547746008048 -0.44863317825899829 0 -0.060659156225640568 -0.44686918137342457 0 -0.074428370483700532 -0.44117719835749319 0 -0.064008215436665752 -0.43699804329512049 0 -0.070652889872351521 -0.45267894507383127 0 -0.076152021385188243 -0.45389188241651202 0 -0.081869547746008048 -0.44863317825899829 0 -0.057374765531416717 -0.45842120668937369 0 -0.060659156225640568 -0.44686918137342457 0 -0.070652889872351521 -0.45267894507383127 0 -0.067731395556540563 -0.46386344047678357 0 -0.083927907157882786 -0.45769327051248793 0 -0.057374765531416717 -0.45842120668937369 0 -0.070652889872351521 -0.45267894507383127 0 -0.067731395556540563 -0.46386344047678357 0 -0.067731395556540563 -0.46386344047678357 0 -0.083927907157882786 -0.45769327051248793 0 -0.075362256146068854 -0.47359574821614758 0 -0.067731395556540563 -0.46386344047678357 0 -0.081608415390150763 -0.45636737659479237 0 -0.083927907157882786 -0.45769327051248793 0 -0.070652889872351521 -0.45267894507383127 0 -0.067731395556540563 -0.46386344047678357 0 -0.076152021385188243 -0.45389188241651202 0 -0.067731395556540563 -0.46386344047678357 0 -0.076152021385188243 -0.45389188241651202 0 -0.081608415390150763 -0.45636737659479237 0 -0.091594317874205133 -0.46207563025211862 0 -0.075362256146068854 -0.47359574821614758 0 -0.083927907157882786 -0.45769327051248793 0 -0.091594317874205133 -0.46207563025211862 0 -0.1030799392663756 -0.45039717514457173 0 -0.083927907157882786 -0.45769327051248793 0 -0.091594317874205133 -0.46207563025211862 0 -0.075362256146068854 -0.47359574821614758 0 -0.083927907157882786 -0.45769327051248793 0 -0.085896273399716103 -0.45279002216506792 0 -0.1030799392663756 -0.45039717514457173 0 -0.083927907157882786 -0.45769327051248793 0 -0.1030799392663756 -0.45039717514457173 0 -0.081608415390150763 -0.45636737659479237 0 -0.083927907157882786 -0.45769327051248793 0 -0.085896273399716103 -0.45279002216506792 0 -0.081608415390150763 -0.45636737659479237 0 -0.083927907157882786 -0.45769327051248793 0 -0.083927907157882786 -0.45769327051248793 0 -0.091594317874205133 -0.46207563025211862 0 -0.081869547746008048 -0.44863317825899829 0 -0.085896273399716103 -0.45279002216506792 0 -0.1030799392663756 -0.45039717514457173 0 -0.093068570882393023 -0.44251615224307211 0 -0.081869547746008048 -0.44863317825899829 0 -0.1030799392663756 -0.45039717514457173 0 -0.081869547746008048 -0.44863317825899829 0 -0.1030799392663756 -0.45039717514457173 0 -0.093068570882393023 -0.44251615224307211 0 -0.084807514268863293 -0.44023735524342961 0 -0.081869547746008048 -0.44863317825899829 0 -0.093068570882393023 -0.44251615224307211 0 -0.084807514268863293 -0.44023735524342961 0 -0.093949265458286912 -0.43178544703781019 0 -0.074428370483700532 -0.44117719835749319 0 -0.084807514268863293 -0.44023735524342961 0 -0.078799759999641575 -0.43367775311838919 0 -0.074428370483700532 -0.44117719835749319 0 -0.084807514268863293 -0.44023735524342961 0 -0.081869547746008048 -0.44863317825899829 0 -0.076152021385188243 -0.45389188241651202 0 -0.081608415390150763 -0.45636737659479237 0 -0.081869547746008048 -0.44863317825899829 0 -0.081608415390150763 -0.45636737659479237 0 -0.081869547746008048 -0.44863317825899829 0 -0.085896273399716103 -0.45279002216506792 0 -0.059130194417929167 -0.48511586618017161 0 -0.067370363188534968 -0.50000000000000289 0 -0.07869137235868226 -0.48901498358786549 0 -0.059130194417929167 -0.48511586618017161 0 -0.067370363188534968 -0.50000000000000289 0 -0.059130194417929167 -0.48511586618017161 0 -0.075362256146068854 -0.47359574821614758 0 -0.07869137235868226 -0.48901498358786549 0 -0.059130194417929167 -0.48511586618017161 0 -0.075362256146068854 -0.47359574821614758 0 -0.059130194417929167 -0.48511586618017161 0 -0.063124746064515042 -0.47340787327758249 0 -0.075362256146068854 -0.47359574821614758 0 -0.067731395556540563 -0.46386344047678357 0 -0.063124746064515042 -0.47340787327758249 0 -0.075362256146068854 -0.47359574821614758 0 -0.075362256146068854 -0.47359574821614758 0 -0.092910395219098399 -0.48112570615517197 0 -0.07869137235868226 -0.48901498358786549 0 -0.091594317874205133 -0.46207563025211862 0 -0.075362256146068854 -0.47359574821614758 0 -0.092910395219098399 -0.48112570615517197 0 -0.092910395219098399 -0.48112570615517197 0 -0.07869137235868226 -0.48901498358786549 0 -0.090012381528834173 -0.5 0 -0.067370363188534968 -0.50000000000000289 0 -0.07869137235868226 -0.48901498358786549 0 -0.090012381528834173 -0.5 0 -0.092910395219098399 -0.48112570615517197 0 -0.1137090240993809 -0.47471708683474562 0 -0.1126543998691333 -0.5 0 -0.092910395219098399 -0.48112570615517197 0 -0.090012381528834173 -0.5 0 -0.1126543998691333 -0.5 0 -0.091594317874205133 -0.46207563025211862 0 -0.092910395219098399 -0.48112570615517197 0 -0.1137090240993809 -0.47471708683474562 0 -0.13582373032455619 -0.48735854341737339 0 -0.1137090240993809 -0.47471708683474562 0 -0.13582373032455619 -0.48735854341737339 0 -0.1137090240993809 -0.47471708683474562 0 -0.1126543998691333 -0.5 0 -0.1030799392663756 -0.45039717514457173 0 -0.1075282156917844 -0.45076712332554209 0 -0.1115937340963991 -0.44715378777602149 0 -0.1030799392663756 -0.45039717514457173 0 -0.1115937340963991 -0.44715378777602149 0 -0.1030799392663756 -0.45039717514457173 0 -0.1075282156917844 -0.45076712332554209 0 -0.1030799392663756 -0.45039717514457173 0 -0.10065700757320201 -0.44084509933916888 0 -0.1087686671047117 -0.43606079915631712 0 -0.1030799392663756 -0.45039717514457173 0 -0.1115937340963991 -0.44715378777602149 0 -0.1087686671047117 -0.43606079915631712 0 -0.093068570882393023 -0.44251615224307211 0 -0.1030799392663756 -0.45039717514457173 0 -0.10065700757320201 -0.44084509933916888 0 -0.093068570882393023 -0.44251615224307211 0 -0.10065700757320201 -0.44084509933916888 0 -0.093949265458286912 -0.43178544703781019 0 -0.091594317874205133 -0.46207563025211862 0 -0.1137090240993809 -0.47471708683474562 0 -0.1075282156917844 -0.45076712332554209 0 -0.091594317874205133 -0.46207563025211862 0 -0.1075282156917844 -0.45076712332554209 0 -0.091594317874205133 -0.46207563025211862 0 -0.1030799392663756 -0.45039717514457173 0 -0.1075282156917844 -0.45076712332554209 0 -0.091594317874205133 -0.46207563025211862 0 -0.1137090240993809 -0.47471708683474562 0 -0.13339977038622339 -0.45291877346656317 0 -0.1075282156917844 -0.45076712332554209 0 -0.1197536107712632 -0.4603846222227676 0 -0.1307687261585217 -0.46778345343049782 0 -0.1137090240993809 -0.47471708683474562 0 -0.1197536107712632 -0.4603846222227676 0 -0.1137090240993809 -0.47471708683474562 0 -0.1075282156917844 -0.45076712332554209 0 -0.1197536107712632 -0.4603846222227676 0 -0.13339977038622339 -0.45291877346656317 0 -0.1075282156917844 -0.45076712332554209 0 -0.1115937340963991 -0.44715378777602149 0 -0.13339977038622339 -0.45291877346656317 0 -0.1075282156917844 -0.45076712332554209 0 -0.13339977038622339 -0.45291877346656317 0 -0.1115937340963991 -0.44715378777602149 0 -0.1225542100985763 -0.44297832076883009 0 -0.1075282156917844 -0.45076712332554209 0 -0.1115937340963991 -0.44715378777602149 0 -0.1115937340963991 -0.44715378777602149 0 -0.1225542100985763 -0.44297832076883009 0 -0.1087686671047117 -0.43606079915631712 0 -0.1115937340963991 -0.44715378777602149 0 -0.1225542100985763 -0.44297832076883009 0 -0.12818919803011231 -0.42850087913262958 0 -0.1087686671047117 -0.43606079915631712 0 -0.1127568112896505 -0.41997663303354332 0 -0.12818919803011231 -0.42850087913262958 0 -0.1225542100985763 -0.44297832076883009 0 -0.1087686671047117 -0.43606079915631712 0 -0.1087686671047117 -0.43606079915631712 0 -0.093949265458286912 -0.43178544703781019 0 -0.1127568112896505 -0.41997663303354332 0 -0.10065700757320201 -0.44084509933916888 0 -0.1087686671047117 -0.43606079915631712 0 -0.093949265458286912 -0.43178544703781019 0 -0.093949265458286912 -0.43178544703781019 0 -0.1127568112896505 -0.41997663303354332 0 -0.093025382150581162 -0.4110752546933748 0 -0.1127568112896505 -0.41997663303354332 0 -0.11965770675951989 -0.39737006328019292 0 -0.093025382150581162 -0.4110752546933748 0 -0.12954850123323461 -0.41175179961510788 0 -0.12818919803011231 -0.42850087913262958 0 -0.1127568112896505 -0.41997663303354332 0 -0.12954850123323461 -0.41175179961510788 0 -0.1127568112896505 -0.41997663303354332 0 -0.11965770675951989 -0.39737006328019292 0 -0.12889758925109701 -0.38102998034298241 0 -0.11935721682072881 -0.36625090763732798 0 -0.10161114746934941 -0.38408870307324328 0 -0.12889758925109701 -0.38102998034298241 0 -0.11965770675951989 -0.39737006328019292 0 -0.10161114746934941 -0.38408870307324328 0 -0.11965770675951989 -0.39737006328019292 0 -0.10161114746934941 -0.38408870307324328 0 -0.093025382150581162 -0.4110752546933748 0 -0.11965770675951989 -0.39737006328019292 0 -0.093025382150581162 -0.4110752546933748 0 -0.075296373164639191 -0.39154411868981043 0 -0.066892334253167068 -0.4069443799461504 0 -0.093025382150581162 -0.4110752546933748 0 -0.10161114746934941 -0.38408870307324328 0 -0.075296373164639191 -0.39154411868981043 0 -0.093025382150581162 -0.4110752546933748 0 -0.078498534134579717 -0.37377528235856078 0 -0.10161114746934941 -0.38408870307324328 0 -0.075296373164639191 -0.39154411868981043 0 -0.096545230004300056 -0.36757531451045422 0 -0.078498534134579717 -0.37377528235856078 0 -0.10161114746934941 -0.38408870307324328 0 -0.06213406998535722 -0.37115011931220071 0 -0.061073932324394682 -0.38867113621396499 0 -0.075296373164639191 -0.39154411868981043 0 -0.078498534134579717 -0.37377528235856078 0 -0.06213406998535722 -0.37115011931220071 0 -0.075296373164639191 -0.39154411868981043 0 -0.06213406998535722 -0.37115011931220071 0 -0.075296373164639191 -0.39154411868981043 0 -0.061073932324394682 -0.38867113621396499 0 -0.075296373164639191 -0.39154411868981043 0 -0.066892334253167068 -0.4069443799461504 0 -0.066892334253167068 -0.4069443799461504 0 -0.066393057541642403 -0.42478044610655669 0 -0.093025382150581162 -0.4110752546933748 0 -0.057599414774954547 -0.41793042321710983 0 -0.066892334253167068 -0.4069443799461504 0 -0.066393057541642403 -0.42478044610655669 0 -0.066393057541642403 -0.42478044610655669 0 -0.064008215436665752 -0.43699804329512049 0 -0.078799759999641575 -0.43367775311838919 0 -0.074428370483700532 -0.44117719835749319 0 -0.064008215436665752 -0.43699804329512049 0 -0.078799759999641575 -0.43367775311838919 0 -0.066393057541642403 -0.42478044610655669 0 -0.078799759999641575 -0.43367775311838919 0 -0.093025382150581162 -0.4110752546933748 0 -0.093949265458286912 -0.43178544703781019 0 -0.078799759999641575 -0.43367775311838919 0 -0.093025382150581162 -0.4110752546933748 0 -0.084807514268863293 -0.44023735524342961 0 -0.093949265458286912 -0.43178544703781019 0 -0.078799759999641575 -0.43367775311838919 0 -0.066393057541642403 -0.42478044610655669 0 -0.093025382150581162 -0.4110752546933748 0 -0.084139594312111751 -0.08821032915893541 0 -0.091466188814141217 -0.085389860497376804 0 -0.07217788267634509 -0.080654821260108839 0 -0.091466188814141217 -0.085389860497376804 0 -0.07217788267634509 -0.080654821260108839 0 -0.095860611258913681 -0.078884241245923165 0 -0.07217788267634509 -0.080654821260108839 0 -0.095860611258913681 -0.078884241245923165 0 -0.080267008321735722 -0.092079472553861397 0 -0.084139594312111751 -0.08821032915893541 0 -0.07217788267634509 -0.080654821260108839 0 -0.080267008321735722 -0.092079472553861397 0 -0.084139594312111751 -0.08821032915893541 0 -0.084139594312111751 -0.08821032915893541 0 -0.091466188814141217 -0.085389860497376804 0 -0.095326340672506407 -0.091905499039564853 0 -0.080267008321735722 -0.092079472553861397 0 -0.084139594312111751 -0.08821032915893541 0 -0.095326340672506407 -0.091905499039564853 0 -0.091674602759490215 -0.071985953158439961 0 -0.07217788267634509 -0.080654821260108839 0 -0.095860611258913681 -0.078884241245923165 0 -0.091674602759490215 -0.071985953158439961 0 -0.07584038624253811 -0.071406142048815083 0 -0.077019822231796403 -0.064825298916883545 0 -0.091674602759490215 -0.071985953158439961 0 -0.070222994285262103 -0.078554559141748276 0 -0.091674602759490215 -0.071985953158439961 0 -0.07584038624253811 -0.071406142048815083 0 -0.070222994285262103 -0.078554559141748276 0 -0.091674602759490215 -0.071985953158439961 0 -0.099374040229604499 -0.061712481686637947 0 -0.086687283469392445 -0.060462795065124052 0 -0.091674602759490215 -0.071985953158439961 0 -0.077019822231796403 -0.064825298916883545 0 -0.086687283469392445 -0.060462795065124052 0 -0.091674602759490215 -0.071985953158439961 0 -0.070222994285262103 -0.078554559141748276 0 -0.07217788267634509 -0.080654821260108839 0 -0.07584038624253811 -0.071406142048815083 0 -0.069372172491717038 -0.072005081927491582 0 -0.070222994285262103 -0.078554559141748276 0 -0.07584038624253811 -0.071406142048815083 0 -0.069730535052410031 -0.06792787403204685 0 -0.069372172491717038 -0.072005081927491582 0 -0.077019822231796403 -0.064825298916883545 0 -0.069730535052410031 -0.06792787403204685 0 -0.065504653852761899 -0.061919906881131463 0 -0.07584038624253811 -0.071406142048815083 0 -0.077019822231796403 -0.064825298916883545 0 -0.069730535052410031 -0.06792787403204685 0 -0.069730535052410031 -0.06792787403204685 0 -0.065504653852761899 -0.061919906881131463 0 -0.05980388735943417 -0.067360643579411517 0 -0.069730535052410031 -0.06792787403204685 0 -0.069372172491717038 -0.072005081927491582 0 -0.05980388735943417 -0.067360643579411517 0 -0.069372172491717038 -0.072005081927491582 0 -0.070222994285262103 -0.078554559141748276 0 -0.05980388735943417 -0.067360643579411517 0 -0.067806199498569752 -0.080981659227097144 0 -0.070222994285262103 -0.078554559141748276 0 -0.05980388735943417 -0.067360643579411517 0 -0.070222994285262103 -0.078554559141748276 0 -0.05980388735943417 -0.067360643579411517 0 -0.067806199498569752 -0.080981659227097144 0 -0.060516880947652812 -0.0815266269109651 0 -0.067806199498569752 -0.080981659227097144 0 -0.062116995395680573 -0.092932277458986412 0 -0.060516880947652812 -0.0815266269109651 0 -0.080267008321735722 -0.092079472553861397 0 -0.067806199498569752 -0.080981659227097144 0 -0.062116995395680573 -0.092932277458986412 0 -0.067806199498569752 -0.080981659227097144 0 -0.070222994285262103 -0.078554559141748276 0 -0.07217788267634509 -0.080654821260108839 0 -0.067806199498569752 -0.080981659227097144 0 -0.07217788267634509 -0.080654821260108839 0 -0.067806199498569752 -0.080981659227097144 0 -0.070222994285262103 -0.078554559141748276 0 -0.080267008321735722 -0.092079472553861397 0 -0.067806199498569752 -0.080981659227097144 0 -0.07217788267634509 -0.080654821260108839 0 -0.070222994285262103 -0.078554559141748276 0 -0.07217788267634509 -0.080654821260108839 0 -0.080267008321735722 -0.092079472553861397 0 -0.067806199498569752 -0.080981659227097144 0 -0.080267008321735722 -0.092079472553861397 0 -0.07217788267634509 -0.080654821260108839 0 -0.080267008321735722 -0.092079472553861397 0 -0.060443227579164517 -0.11188563063871659 0 -0.080267008321735722 -0.092079472553861397 0 -0.078386499625010597 -0.1126460591304103 0 -0.060443227579164517 -0.11188563063871659 0 -0.080267008321735722 -0.092079472553861397 0 -0.062116995395680573 -0.092932277458986412 0 -0.060443227579164517 -0.11188563063871659 0 -0.078386499625010597 -0.1126460591304103 0 -0.060443227579164517 -0.11188563063871659 0 -0.068987620712481143 -0.1275574927637394 0 -0.078386499625010597 -0.1126460591304103 0 -0.095146093601134504 -0.1053310450037061 0 -0.087088547910535621 -0.12637665469202941 0 -0.078386499625010597 -0.1126460591304103 0 -0.087088547910535621 -0.12637665469202941 0 -0.068987620712481143 -0.1275574927637394 0 -0.080267008321735722 -0.092079472553861397 0 -0.078386499625010597 -0.1126460591304103 0 -0.095146093601134504 -0.1053310450037061 0 -0.080267008321735722 -0.092079472553861397 0 -0.095146093601134504 -0.1053310450037061 0 -0.080267008321735722 -0.092079472553861397 0 -0.095146093601134504 -0.1053310450037061 0 -0.095326340672506407 -0.091905499039564853 0 -0.095146093601134504 -0.1053310450037061 0 -0.1066720944355337 -0.1040083089367935 0 -0.11352878991761139 -0.1116482682742852 0 -0.095146093601134504 -0.1053310450037061 0 -0.10502103755664489 -0.097995240204014386 0 -0.095326340672506407 -0.091905499039564853 0 -0.095146093601134504 -0.1053310450037061 0 -0.1066720944355337 -0.1040083089367935 0 -0.10502103755664489 -0.097995240204014386 0 -0.1066720944355337 -0.1040083089367935 0 -0.10502103755664489 -0.097995240204014386 0 -0.1129924566667435 -0.10105868226516861 0 -0.10502103755664489 -0.097995240204014386 0 -0.1129924566667435 -0.10105868226516861 0 -0.10898481728273469 -0.09062985156914817 0 -0.095146093601134504 -0.1053310450037061 0 -0.1096959964807086 -0.1209629398900559 0 -0.099789038250592474 -0.1280948968813988 0 -0.095146093601134504 -0.1053310450037061 0 -0.1096959964807086 -0.1209629398900559 0 -0.11377165527479351 -0.1219192945703181 0 -0.095146093601134504 -0.1053310450037061 0 -0.11377165527479351 -0.1219192945703181 0 -0.11352878991761139 -0.1116482682742852 0 -0.095146093601134504 -0.1053310450037061 0 -0.087088547910535621 -0.12637665469202941 0 -0.099789038250592474 -0.1280948968813988 0 -0.095146093601134504 -0.1053310450037061 0 -0.1096959964807086 -0.1209629398900559 0 -0.095146093601134504 -0.1053310450037061 0 -0.11377165527479351 -0.1219192945703181 0 -0.11377165527479351 -0.1219192945703181 0 -0.1216888923619938 -0.10675174355337549 0 -0.12775538554626081 -0.1227126556176807 0 -0.11377165527479351 -0.1219192945703181 0 -0.11352878991761139 -0.1116482682742852 0 -0.1216888923619938 -0.10675174355337549 0 -0.1216888923619938 -0.10675174355337549 0 -0.11849704627075811 -0.09243844387458372 0 -0.1292757252008358 -0.086638280753483551 0 -0.1129924566667435 -0.10105868226516861 0 -0.11849704627075811 -0.09243844387458372 0 -0.10898481728273469 -0.09062985156914817 0 -0.1066720944355337 -0.1040083089367935 0 -0.11352878991761139 -0.1116482682742852 0 -0.1129924566667435 -0.10105868226516861 0 -0.11352878991761139 -0.1116482682742852 0 -0.1129924566667435 -0.10105868226516861 0 -0.1216888923619938 -0.10675174355337549 0 -0.1129924566667435 -0.10105868226516861 0 -0.1216888923619938 -0.10675174355337549 0 -0.11849704627075811 -0.09243844387458372 0 -0.10898481728273469 -0.09062985156914817 0 -0.1022362595739558 -0.084784622716751162 0 -0.1195433398414827 -0.077113661231742819 0 -0.11849704627075811 -0.09243844387458372 0 -0.1195433398414827 -0.077113661231742819 0 -0.1292757252008358 -0.086638280753483551 0 -0.11849704627075811 -0.09243844387458372 0 -0.10898481728273469 -0.09062985156914817 0 -0.1195433398414827 -0.077113661231742819 0 -0.1022362595739558 -0.084784622716751162 0 -0.095860611258913681 -0.078884241245923165 0 -0.1195433398414827 -0.077113661231742819 0 -0.10898481728273469 -0.09062985156914817 0 -0.1022362595739558 -0.084784622716751162 0 -0.095326340672506407 -0.091905499039564853 0 -0.10502103755664489 -0.097995240204014386 0 -0.10898481728273469 -0.09062985156914817 0 -0.095326340672506407 -0.091905499039564853 0 -0.091466188814141217 -0.085389860497376804 0 -0.1022362595739558 -0.084784622716751162 0 -0.095860611258913681 -0.078884241245923165 0 -0.091466188814141217 -0.085389860497376804 0 -0.1022362595739558 -0.084784622716751162 0 -0.095326340672506407 -0.091905499039564853 0 -0.091674602759490215 -0.071985953158439961 0 -0.11312621123371849 -0.065417347175132118 0 -0.099374040229604499 -0.061712481686637947 0 -0.095860611258913681 -0.078884241245923165 0 -0.1195433398414827 -0.077113661231742819 0 -0.091674602759490215 -0.071985953158439961 0 -0.095860611258913681 -0.078884241245923165 0 -0.11312621123371849 -0.065417347175132118 0 -0.091674602759490215 -0.071985953158439961 0 -0.11312621123371849 -0.065417347175132118 0 -0.095860611258913681 -0.078884241245923165 0 -0.11312621123371849 -0.065417347175132118 0 -0.1195433398414827 -0.077113661231742819 0 -0.11312621123371849 -0.065417347175132118 0 -0.1248513481307208 -0.056407903770398032 0 -0.12775156614772479 -0.066509879246278839 0 -0.11312621123371849 -0.065417347175132118 0 -0.1195433398414827 -0.077113661231742819 0 -0.12775156614772479 -0.066509879246278839 0 -0.11312621123371849 -0.065417347175132118 0 -0.1121493660837172 -0.052570866956479508 0 -0.1046083313716378 -0.0575429868804163 0 -0.11312621123371849 -0.065417347175132118 0 -0.1248513481307208 -0.056407903770398032 0 -0.1121493660837172 -0.052570866956479508 0 -0.1121493660837172 -0.052570866956479508 0 -0.11598317169246219 -0.047623513546587781 0 -0.1248513481307208 -0.056407903770398032 0 -0.1121493660837172 -0.052570866956479508 0 -0.11598317169246219 -0.047623513546587781 0 -0.11598317169246219 -0.047623513546587781 0 -0.12862488378310541 -0.031309953653028681 0 -0.11598317169246219 -0.047623513546587781 0 -0.1130199299181902 -0.032627722745712621 0 -0.12862488378310541 -0.031309953653028681 0 -0.11598317169246219 -0.047623513546587781 0 -0.1130199299181902 -0.032627722745712621 0 -0.1045721409641539 -0.041083305060858791 0 -0.11598317169246219 -0.047623513546587781 0 -0.1045721409641539 -0.041083305060858791 0 -0.093783707939511116 -0.050471251703415633 0 -0.1130199299181902 -0.032627722745712621 0 -0.1045721409641539 -0.041083305060858791 0 -0.09681819399234981 -0.033312195800135447 0 -0.1045721409641539 -0.041083305060858791 0 -0.09681819399234981 -0.033312195800135447 0 -0.093783707939511116 -0.050471251703415633 0 -0.1121493660837172 -0.052570866956479508 0 -0.11598317169246219 -0.047623513546587781 0 -0.093783707939511116 -0.050471251703415633 0 -0.11598317169246219 -0.047623513546587781 0 -0.093783707939511116 -0.050471251703415633 0 -0.1121493660837172 -0.052570866956479508 0 -0.093783707939511116 -0.050471251703415633 0 -0.1046083313716378 -0.0575429868804163 0 -0.093783707939511116 -0.050471251703415633 0 -0.099374040229604499 -0.061712481686637947 0 -0.1046083313716378 -0.0575429868804163 0 -0.11312621123371849 -0.065417347175132118 0 -0.099374040229604499 -0.061712481686637947 0 -0.1046083313716378 -0.0575429868804163 0 -0.11894034767877069 -0.01352240977351583 0 -0.12716660979733599 0.0095071604966818855 0 -0.1099523175120959 0.0011801964601080731 0 -0.11894034767877069 -0.01352240977351583 0 -0.1055739924855011 -0.01092724636114609 0 -0.1099523175120959 0.0011801964601080731 0 -0.1130199299181902 -0.032627722745712621 0 -0.11894034767877069 -0.01352240977351583 0 -0.1019972360314495 -0.023730584291434789 0 -0.1130199299181902 -0.032627722745712621 0 -0.11894034767877069 -0.01352240977351583 0 -0.12862488378310541 -0.031309953653028681 0 -0.09681819399234981 -0.033312195800135447 0 -0.1019972360314495 -0.023730584291434789 0 -0.091409430166355762 -0.017495605837342831 0 -0.11894034767877069 -0.01352240977351583 0 -0.1019972360314495 -0.023730584291434789 0 -0.1055739924855011 -0.01092724636114609 0 -0.1130199299181902 -0.032627722745712621 0 -0.09681819399234981 -0.033312195800135447 0 -0.1019972360314495 -0.023730584291434789 0 -0.1019972360314495 -0.023730584291434789 0 -0.1055739924855011 -0.01092724636114609 0 -0.091409430166355762 -0.017495605837342831 0 -0.1055739924855011 -0.01092724636114609 0 -0.095210434247410186 -0.0022878937736707269 0 -0.091409430166355762 -0.017495605837342831 0 -0.1055739924855011 -0.01092724636114609 0 -0.095210434247410186 -0.0022878937736707269 0 -0.1099523175120959 0.0011801964601080731 0 -0.080428613217369896 -0.0033278701301705941 0 -0.091409430166355762 -0.017495605837342831 0 -0.075102013982143348 -0.017069588009078668 0 -0.095210434247410186 -0.0022878937736707269 0 -0.080428613217369896 -0.0033278701301705941 0 -0.091409430166355762 -0.017495605837342831 0 -0.091409430166355762 -0.017495605837342831 0 -0.075102013982143348 -0.017069588009078668 0 -0.083709411525209831 -0.032745135223966 0 -0.09681819399234981 -0.033312195800135447 0 -0.091409430166355762 -0.017495605837342831 0 -0.083709411525209831 -0.032745135223966 0 -0.069628025986883252 -0.03046743390415687 0 -0.075102013982143348 -0.017069588009078668 0 -0.056590410657144347 -0.020335090667853259 0 -0.069628025986883252 -0.03046743390415687 0 -0.075102013982143348 -0.017069588009078668 0 -0.083709411525209831 -0.032745135223966 0 -0.075102013982143348 -0.017069588009078668 0 -0.064271127366952091 -0.0052947208783540797 0 -0.056590410657144347 -0.020335090667853259 0 -0.080428613217369896 -0.0033278701301705941 0 -0.075102013982143348 -0.017069588009078668 0 -0.064271127366952091 -0.0052947208783540797 0 -0.093783707939511116 -0.050471251703415633 0 -0.071584244186559967 -0.053318989860243172 0 -0.093783707939511116 -0.050471251703415633 0 -0.086687283469392445 -0.060462795065124052 0 -0.071584244186559967 -0.053318989860243172 0 -0.077019822231796403 -0.064825298916883545 0 -0.086687283469392445 -0.060462795065124052 0 -0.071584244186559967 -0.053318989860243172 0 -0.093783707939511116 -0.050471251703415633 0 -0.099374040229604499 -0.061712481686637947 0 -0.086687283469392445 -0.060462795065124052 0 -0.09681819399234981 -0.033312195800135447 0 -0.093783707939511116 -0.050471251703415633 0 -0.083709411525209831 -0.032745135223966 0 -0.093783707939511116 -0.050471251703415633 0 -0.083709411525209831 -0.032745135223966 0 -0.071584244186559967 -0.053318989860243172 0 -0.069628025986883252 -0.03046743390415687 0 -0.071584244186559967 -0.053318989860243172 0 -0.058251149421032447 -0.036281237789403883 0 -0.069628025986883252 -0.03046743390415687 0 -0.083709411525209831 -0.032745135223966 0 -0.071584244186559967 -0.053318989860243172 0 -0.077019822231796403 -0.064825298916883545 0 -0.071584244186559967 -0.053318989860243172 0 -0.065504653852761899 -0.061919906881131463 0 -0.071584244186559967 -0.053318989860243172 0 -0.049384780433608957 -0.056166728017072232 0 -0.051789923638464228 -0.045153497422452081 0 -0.065504653852761899 -0.061919906881131463 0 -0.049384780433608957 -0.056166728017072232 0 -0.05980388735943417 -0.067360643579411517 0 -0.071584244186559967 -0.053318989860243172 0 -0.049384780433608957 -0.056166728017072232 0 -0.071584244186559967 -0.053318989860243172 0 -0.065504653852761899 -0.061919906881131463 0 -0.049384780433608957 -0.056166728017072232 0 -0.049384780433608957 -0.056166728017072232 0 -0.041329101590172737 -0.057400694765476018 0 -0.051003302023229287 -0.066016706134836567 0 -0.049384780433608957 -0.056166728017072232 0 -0.05980388735943417 -0.067360643579411517 0 -0.049384780433608957 -0.056166728017072232 0 -0.051789923638464228 -0.045153497422452081 0 -0.041154594099971478 -0.047324510393541318 0 -0.071584244186559967 -0.053318989860243172 0 -0.058251149421032447 -0.036281237789403883 0 -0.051789923638464228 -0.045153497422452081 0 -0.058251149421032447 -0.036281237789403883 0 -0.051789923638464228 -0.045153497422452081 0 -0.039842211476505879 -0.030449990007079389 0 -0.035610022655665721 -0.052307183476045932 0 -0.041154594099971478 -0.047324510393541318 0 -0.02021674328810202 -0.038597660817255387 0 -0.041154594099971478 -0.047324510393541318 0 -0.039842211476505879 -0.030449990007079389 0 -0.02021674328810202 -0.038597660817255387 0 -0.051789923638464228 -0.045153497422452081 0 -0.041154594099971478 -0.047324510393541318 0 -0.039842211476505879 -0.030449990007079389 0 -0.035610022655665721 -0.052307183476045932 0 -0.041329101590172737 -0.057400694765476018 0 -0.032980228934457297 -0.066831436049127155 0 -0.035610022655665721 -0.052307183476045932 0 -0.041329101590172737 -0.057400694765476018 0 -0.049384780433608957 -0.056166728017072232 0 -0.041329101590172737 -0.057400694765476018 0 -0.041329101590172737 -0.057400694765476018 0 -0.051003302023229287 -0.066016706134836567 0 -0.035610022655665721 -0.052307183476045932 0 -0.041329101590172737 -0.057400694765476018 0 -0.041154594099971478 -0.047324510393541318 0 -0.049384780433608957 -0.056166728017072232 0 -0.041329101590172737 -0.057400694765476018 0 -0.041154594099971478 -0.047324510393541318 0 -0.049384780433608957 -0.056166728017072232 0 -0.041154594099971478 -0.047324510393541318 0 -0.05011721311063793 -0.0050823539785914071 0 -0.056590410657144347 -0.020335090667853259 0 -0.038314111013531667 -0.01403876745007962 0 -0.064271127366952091 -0.0052947208783540797 0 -0.05011721311063793 -0.0050823539785914071 0 -0.05439781635118042 0.006307054599579049 0 -0.064271127366952091 -0.0052947208783540797 0 -0.05011721311063793 -0.0050823539785914071 0 -0.056590410657144347 -0.020335090667853259 0 -0.069628025986883252 -0.03046743390415687 0 -0.058251149421032447 -0.036281237789403883 0 -0.056590410657144347 -0.020335090667853259 0 -0.058251149421032447 -0.036281237789403883 0 -0.056590410657144347 -0.020335090667853259 0 -0.039842211476505879 -0.030449990007079389 0 -0.056590410657144347 -0.020335090667853259 0 -0.039842211476505879 -0.030449990007079389 0 -0.038314111013531667 -0.01403876745007962 0 -0.039842211476505879 -0.030449990007079389 0 -0.038314111013531667 -0.01403876745007962 0 -0.02410295138048758 -0.023276983147432061 0 -0.038314111013531667 -0.01403876745007962 0 -0.024027833461894011 -0.0099480013779003635 0 -0.035204045994520303 0.0048598144783787243 0 -0.05011721311063793 -0.0050823539785914071 0 -0.038314111013531667 -0.01403876745007962 0 -0.035204045994520303 0.0048598144783787243 0 -0.024027833461894011 -0.0099480013779003635 0 -0.0089631398119183643 -5.4210394797340562e-05 0 -0.035204045994520303 0.0048598144783787243 0 -0.039842211476505879 -0.030449990007079389 0 -0.02410295138048758 -0.023276983147432061 0 -0.02021674328810202 -0.038597660817255387 0 -0.02410295138048758 -0.023276983147432061 0 -0.0077693764230151452 -0.027511819132423971 0 -0.02021674328810202 -0.038597660817255387 0 -0.024027833461894011 -0.0099480013779003635 0 -0.02410295138048758 -0.023276983147432061 0 -0.01107747054258992 -0.015019591288197021 0 -0.038314111013531667 -0.01403876745007962 0 -0.024027833461894011 -0.0099480013779003635 0 -0.02410295138048758 -0.023276983147432061 0 -0.0077693764230151452 -0.027511819132423971 0 -0.01107747054258992 -0.015019591288197021 0 0.0046779904420720169 -0.016425977447592929 0 -0.02410295138048758 -0.023276983147432061 0 -0.0077693764230151452 -0.027511819132423971 0 -0.01107747054258992 -0.015019591288197021 0 -0.0077693764230151452 -0.027511819132423971 0 -0.0032567702735929551 -0.029385263834405598 0 0.0046779904420720169 -0.016425977447592929 0 -0.0077693764230151452 -0.027511819132423971 0 0.0046779904420720169 -0.016425977447592929 0 -0.01107747054258992 -0.015019591288197021 0 -0.0089631398119183643 -5.4210394797340562e-05 0 0.0046779904420720169 -0.016425977447592929 0 -0.024027833461894011 -0.0099480013779003635 0 -0.01107747054258992 -0.015019591288197021 0 -0.0089631398119183643 -5.4210394797340562e-05 0 -0.02137178599191579 -0.058971244433906778 0 -0.01119153098925808 -0.042344550221218039 0 -0.035610022655665721 -0.052307183476045932 0 -0.02137178599191579 -0.058971244433906778 0 -0.02021674328810202 -0.038597660817255387 0 -0.02137178599191579 -0.058971244433906778 0 -0.0082419530246259903 -0.056732907412171601 0 -0.01867465821777485 -0.070491537482031713 0 -0.035610022655665721 -0.052307183476045932 0 -0.02137178599191579 -0.058971244433906778 0 -0.032980228934457297 -0.066831436049127155 0 -0.02137178599191579 -0.058971244433906778 0 -0.02021674328810202 -0.038597660817255387 0 -0.01119153098925808 -0.042344550221218039 0 -0.035610022655665721 -0.052307183476045932 0 -0.02021674328810202 -0.038597660817255387 0 -0.039842211476505879 -0.030449990007079389 0 -0.02021674328810202 -0.038597660817255387 0 -0.02021674328810202 -0.038597660817255387 0 -0.01119153098925808 -0.042344550221218039 0 -0.01119153098925808 -0.042344550221218039 0 0.0083234155274403004 -0.050446337071338332 0 -0.0077693764230151452 -0.027511819132423971 0 -0.02021674328810202 -0.038597660817255387 0 -0.01119153098925808 -0.042344550221218039 0 -0.0077693764230151452 -0.027511819132423971 0 -0.02021674328810202 -0.038597660817255387 0 -0.0032567702735929551 -0.029385263834405598 0 -0.01119153098925808 -0.042344550221218039 0 0.0041562439286982498 -0.037449416732748153 0 -0.0032567702735929551 -0.029385263834405598 0 -0.01119153098925808 -0.042344550221218039 0 -0.0077693764230151452 -0.027511819132423971 0 -0.0032567702735929551 -0.029385263834405598 0 -0.01119153098925808 -0.042344550221218039 0 -0.01119153098925808 -0.042344550221218039 0 -0.0082419530246259903 -0.056732907412171601 0 0.0083234155274403004 -0.050446337071338332 0 -0.02137178599191579 -0.058971244433906778 0 -0.01119153098925808 -0.042344550221218039 0 -0.0082419530246259903 -0.056732907412171601 0 -0.0082419530246259903 -0.056732907412171601 0 -0.001417147873282963 -0.070227706175478771 0 0.0083234155274403004 -0.050446337071338332 0 -0.0082419530246259903 -0.056732907412171601 0 -0.001417147873282963 -0.070227706175478771 0 -0.01867465821777485 -0.070491537482031713 0 -0.001417147873282963 -0.070227706175478771 0 -0.015951645683606231 -0.084858435347256636 0 -0.01867465821777485 -0.070491537482031713 0 -0.015951645683606231 -0.084858435347256636 0 -0.01212379761353349 -0.094755621727328501 0 0.0063309719484169009 -0.086524339565403285 0 -0.001417147873282963 -0.070227706175478771 0 -0.015951645683606231 -0.084858435347256636 0 0.0063309719484169009 -0.086524339565403285 0 -0.015951645683606231 -0.084858435347256636 0 0.0063309719484169009 -0.086524339565403285 0 -0.015951645683606231 -0.084858435347256636 0 -0.01867465821777485 -0.070491537482031713 0 -0.03823426331562961 -0.083192531129111708 0 -0.022511522072824811 -0.093164086544951813 0 -0.015951645683606231 -0.084858435347256636 0 -0.03823426331562961 -0.083192531129111708 0 -0.015951645683606231 -0.084858435347256636 0 -0.03823426331562961 -0.083192531129111708 0 -0.022511522072824811 -0.093164086544951813 0 -0.015951645683606231 -0.084858435347256636 0 -0.01212379761353349 -0.094755621727328501 0 -0.01867465821777485 -0.070491537482031713 0 -0.032980228934457297 -0.066831436049127155 0 -0.03823426331562961 -0.083192531129111708 0 -0.02137178599191579 -0.058971244433906778 0 -0.01867465821777485 -0.070491537482031713 0 -0.032980228934457297 -0.066831436049127155 0 -0.032980228934457297 -0.066831436049127155 0 -0.03823426331562961 -0.083192531129111708 0 -0.051003302023229287 -0.066016706134836567 0 -0.041329101590172737 -0.057400694765476018 0 -0.032980228934457297 -0.066831436049127155 0 -0.051003302023229287 -0.066016706134836567 0 -0.022511522072824811 -0.093164086544951813 0 -0.04151420151023856 -0.087345356727957638 0 -0.034175245532243839 -0.096980609847496013 0 -0.022511522072824811 -0.093164086544951813 0 -0.03823426331562961 -0.083192531129111708 0 -0.04151420151023856 -0.087345356727957638 0 -0.022511522072824811 -0.093164086544951813 0 -0.04151420151023856 -0.087345356727957638 0 -0.03823426331562961 -0.083192531129111708 0 -0.04151420151023856 -0.087345356727957638 0 -0.060516880947652812 -0.0815266269109651 0 -0.04151420151023856 -0.087345356727957638 0 -0.042197031359394462 -0.095546264416939503 0 -0.034175245532243839 -0.096980609847496013 0 -0.04151420151023856 -0.087345356727957638 0 -0.052095330616804283 -0.09155323300163129 0 -0.042197031359394462 -0.095546264416939503 0 -0.03823426331562961 -0.083192531129111708 0 -0.060516880947652812 -0.0815266269109651 0 -0.04151420151023856 -0.087345356727957638 0 -0.052095330616804283 -0.09155323300163129 0 -0.060516880947652812 -0.0815266269109651 0 -0.04151420151023856 -0.087345356727957638 0 -0.060516880947652812 -0.0815266269109651 0 -0.052095330616804283 -0.09155323300163129 0 -0.062116995395680573 -0.092932277458986412 0 -0.060516880947652812 -0.0815266269109651 0 -0.067806199498569752 -0.080981659227097144 0 -0.060516880947652812 -0.0815266269109651 0 -0.051003302023229287 -0.066016706134836567 0 -0.067806199498569752 -0.080981659227097144 0 -0.05980388735943417 -0.067360643579411517 0 -0.051003302023229287 -0.066016706134836567 0 -0.03823426331562961 -0.083192531129111708 0 -0.060516880947652812 -0.0815266269109651 0 -0.051003302023229287 -0.066016706134836567 0 -0.067806199498569752 -0.080981659227097144 0 -0.051003302023229287 -0.066016706134836567 0 -0.049384780433608957 -0.056166728017072232 0 -0.05980388735943417 -0.067360643579411517 0 -0.051003302023229287 -0.066016706134836567 0 -0.060443227579164517 -0.11188563063871659 0 -0.041558870721501891 -0.117809106253649 0 -0.040619446836592903 -0.13169178872357129 0 -0.060443227579164517 -0.11188563063871659 0 -0.040619446836592903 -0.13169178872357129 0 -0.060443227579164517 -0.11188563063871659 0 -0.040619446836592903 -0.13169178872357129 0 -0.068987620712481143 -0.1275574927637394 0 -0.060443227579164517 -0.11188563063871659 0 -0.051573325410154747 -0.099567042421642007 0 -0.038000414332723692 -0.1071728326841306 0 -0.062116995395680573 -0.092932277458986412 0 -0.060443227579164517 -0.11188563063871659 0 -0.051573325410154747 -0.099567042421642007 0 -0.052095330616804283 -0.09155323300163129 0 -0.062116995395680573 -0.092932277458986412 0 -0.051573325410154747 -0.099567042421642007 0 -0.052095330616804283 -0.09155323300163129 0 -0.051573325410154747 -0.099567042421642007 0 -0.042197031359394462 -0.095546264416939503 0 -0.051573325410154747 -0.099567042421642007 0 -0.042197031359394462 -0.095546264416939503 0 -0.038000414332723692 -0.1071728326841306 0 -0.034175245532243839 -0.096980609847496013 0 -0.038000414332723692 -0.1071728326841306 0 -0.027127375704020299 -0.100022631057442 0 -0.042197031359394462 -0.095546264416939503 0 -0.034175245532243839 -0.096980609847496013 0 -0.038000414332723692 -0.1071728326841306 0 -0.060443227579164517 -0.11188563063871659 0 -0.038000414332723692 -0.1071728326841306 0 -0.041558870721501891 -0.117809106253649 0 -0.038000414332723692 -0.1071728326841306 0 -0.041558870721501891 -0.117809106253649 0 -0.0297250423136254 -0.11620259727614971 0 -0.041558870721501891 -0.117809106253649 0 -0.0297250423136254 -0.11620259727614971 0 -0.040619446836592903 -0.13169178872357129 0 -0.0297250423136254 -0.11620259727614971 0 -0.014908068774208069 -0.1188435223343005 0 -0.040619446836592903 -0.13169178872357129 0 -0.0297250423136254 -0.11620259727614971 0 -0.018967063252522811 -0.11144585108459761 0 -0.02589179507426494 -0.1075752477691319 0 -0.038000414332723692 -0.1071728326841306 0 -0.0297250423136254 -0.11620259727614971 0 -0.02589179507426494 -0.1075752477691319 0 -0.0297250423136254 -0.11620259727614971 0 -0.018967063252522811 -0.11144585108459761 0 -0.014908068774208069 -0.1188435223343005 0 -0.022511522072824811 -0.093164086544951813 0 -0.034175245532243839 -0.096980609847496013 0 -0.027127375704020299 -0.100022631057442 0 -0.038000414332723692 -0.1071728326841306 0 -0.027127375704020299 -0.100022631057442 0 -0.02589179507426494 -0.1075752477691319 0 -0.027127375704020299 -0.100022631057442 0 -0.02589179507426494 -0.1075752477691319 0 -0.019330445223575389 -0.1025345863844483 0 -0.018967063252522811 -0.11144585108459761 0 -0.02589179507426494 -0.1075752477691319 0 -0.019330445223575389 -0.1025345863844483 0 -0.018967063252522811 -0.11144585108459761 0 -0.019330445223575389 -0.1025345863844483 0 -0.01065999807502682 -0.1086257214281092 0 -0.022511522072824811 -0.093164086544951813 0 -0.027127375704020299 -0.100022631057442 0 -0.019330445223575389 -0.1025345863844483 0 -0.022511522072824811 -0.093164086544951813 0 -0.019330445223575389 -0.1025345863844483 0 -0.01212379761353349 -0.094755621727328501 0 -0.01065999807502682 -0.1086257214281092 0 0.0063309719484169009 -0.086524339565403285 0 -0.01212379761353349 -0.094755621727328501 0 -0.01065999807502682 -0.1086257214281092 0 0.0063309719484169009 -0.086524339565403285 0 -0.019330445223575389 -0.1025345863844483 0 -0.01212379761353349 -0.094755621727328501 0 -0.01065999807502682 -0.1086257214281092 0 -0.01065999807502682 -0.1086257214281092 0 -0.014908068774208069 -0.1188435223343005 0 0.010803309288177651 -0.1059952559450313 0 -0.014908068774208069 -0.1188435223343005 0 0.010803309288177651 -0.1059952559450313 0 -0.014908068774208069 -0.1188435223343005 0 -0.0049910715658874252 -0.12520864677907331 0 0.010803309288177651 -0.1059952559450313 0 -0.018967063252522811 -0.11144585108459761 0 -0.01065999807502682 -0.1086257214281092 0 -0.014908068774208069 -0.1188435223343005 0 -0.0049910715658874252 -0.12520864677907331 0 -0.0098486782387315671 -0.13968786278958389 0 0.0088244082276408946 -0.12923406822939981 0 -0.0049910715658874252 -0.12520864677907331 0 -0.0098486782387315671 -0.13968786278958389 0 -0.01982632833231603 -0.13228252459705089 0 -0.014908068774208069 -0.1188435223343005 0 -0.0049910715658874252 -0.12520864677907331 0 -0.01982632833231603 -0.13228252459705089 0 -0.014908068774208069 -0.1188435223343005 0 -0.01982632833231603 -0.13228252459705089 0 -0.040619446836592903 -0.13169178872357129 0 -0.0098486782387315671 -0.13968786278958389 0 -0.01982632833231603 -0.13228252459705089 0 -0.027474599099440451 -0.14482495114421451 0 -0.014908068774208069 -0.1188435223343005 0 -0.040619446836592903 -0.13169178872357129 0 -0.01982632833231603 -0.13228252459705089 0 -0.027474599099440451 -0.14482495114421451 0 -0.040619446836592903 -0.13169178872357129 0 -0.0098486782387315671 -0.13968786278958389 0 -0.027474599099440451 -0.14482495114421451 0 -0.017471534114245981 -0.1587585578439635 0 -0.027474599099440451 -0.14482495114421451 0 -0.017471534114245981 -0.1587585578439635 0 -0.036491065683978953 -0.1545576113110988 0 -0.017471534114245981 -0.1587585578439635 0 0.0070721815308918828 -0.14835407191058131 0 -0.0098486782387315671 -0.13968786278958389 0 -0.017471534114245981 -0.1587585578439635 0 0.0070721815308918828 -0.14835407191058131 0 -0.0085478460378840132 -0.1686674562380521 0 -0.016215254959647912 -0.17987130138463131 0 -0.017471534114245981 -0.1587585578439635 0 -0.017471534114245981 -0.1587585578439635 0 4.3932368462001469e-05 -0.16259256566360691 0 0.0070721815308918828 -0.14835407191058131 0 -0.0085478460378840132 -0.1686674562380521 0 -0.017471534114245981 -0.1587585578439635 0 4.3932368462001469e-05 -0.16259256566360691 0 -0.0085478460378840132 -0.1686674562380521 0 4.3932368462001469e-05 -0.16259256566360691 0 0.0032934927891920562 -0.17359131979549861 0 -0.016215254959647912 -0.17987130138463131 0 0.0032934927891920562 -0.17359131979549861 0 0.0016220851498990111 -0.18706253986558219 0 -0.0085478460378840132 -0.1686674562380521 0 -0.016215254959647912 -0.17987130138463131 0 0.0032934927891920562 -0.17359131979549861 0 -0.016215254959647912 -0.17987130138463131 0 -0.042015249759383928 -0.16916304377734581 0 -0.035310887089208168 -0.1869415038206711 0 -0.016215254959647912 -0.17987130138463131 0 -0.017471534114245981 -0.1587585578439635 0 -0.042015249759383928 -0.16916304377734581 0 -0.017471534114245981 -0.1587585578439635 0 -0.042015249759383928 -0.16916304377734581 0 -0.017471534114245981 -0.1587585578439635 0 -0.042015249759383928 -0.16916304377734581 0 -0.036491065683978953 -0.1545576113110988 0 -0.042015249759383928 -0.16916304377734581 0 -0.050438354320754407 -0.1512059850554634 0 -0.036491065683978953 -0.1545576113110988 0 -0.042015249759383928 -0.16916304377734581 0 -0.035310887089208168 -0.1869415038206711 0 -0.056708354906834367 -0.17928594510321619 0 -0.035310887089208168 -0.1869415038206711 0 -0.056708354906834367 -0.17928594510321619 0 -0.055933817126448022 -0.19347577781875511 0 -0.056708354906834367 -0.17928594510321619 0 -0.050438354320754407 -0.1512059850554634 0 -0.071531383562284945 -0.16741564331840059 0 -0.050438354320754407 -0.1512059850554634 0 -0.071531383562284945 -0.16741564331840059 0 -0.042015249759383928 -0.16916304377734581 0 -0.056708354906834367 -0.17928594510321619 0 -0.050438354320754407 -0.1512059850554634 0 -0.050438354320754407 -0.1512059850554634 0 -0.040619446836592903 -0.13169178872357129 0 -0.066221577550223523 -0.14448546297718079 0 -0.040619446836592903 -0.13169178872357129 0 -0.068987620712481143 -0.1275574927637394 0 -0.066221577550223523 -0.14448546297718079 0 -0.040619446836592903 -0.13169178872357129 0 -0.066221577550223523 -0.14448546297718079 0 -0.027474599099440451 -0.14482495114421451 0 -0.040619446836592903 -0.13169178872357129 0 -0.050438354320754407 -0.1512059850554634 0 -0.040619446836592903 -0.13169178872357129 0 -0.036491065683978953 -0.1545576113110988 0 -0.027474599099440451 -0.14482495114421451 0 -0.040619446836592903 -0.13169178872357129 0 -0.036491065683978953 -0.1545576113110988 0 -0.026008002787897441 -0.25818491736150839 0 -0.02701546243075412 -0.2413288456044746 0 -0.03749998534272686 -0.24645163551448299 0 -0.026008002787897441 -0.25818491736150839 0 -0.02701546243075412 -0.2413288456044746 0 -0.0037517221868697478 -0.24684323264315031 0 -0.02701546243075412 -0.2413288456044746 0 -0.0037517221868697478 -0.24684323264315031 0 -0.0076778747790505319 -0.2226872354148747 0 -0.0037517221868697478 -0.24684323264315031 0 -0.0076778747790505319 -0.2226872354148747 0 0.0082068293806228168 -0.22365460084151381 0 -0.02701546243075412 -0.2413288456044746 0 -0.0076778747790505319 -0.2226872354148747 0 -0.030881544900558919 -0.22097485326417499 0 -0.02701546243075412 -0.2413288456044746 0 -0.0076778747790505319 -0.2226872354148747 0 -0.0076778747790505319 -0.2226872354148747 0 -0.030881544900558919 -0.22097485326417499 0 -0.01599203999056836 -0.200364704776096 0 -0.030881544900558919 -0.22097485326417499 0 -0.01599203999056836 -0.200364704776096 0 -0.043869419107489573 -0.2031094121832181 0 -0.0076778747790505319 -0.2226872354148747 0 -0.00087008517443049169 -0.20676331926816319 0 -0.01599203999056836 -0.200364704776096 0 -0.01599203999056836 -0.200364704776096 0 0.0118853391263529 -0.1976199973689739 0 0.0016220851498990111 -0.18706253986558219 0 -0.01599203999056836 -0.200364704776096 0 0.0118853391263529 -0.1976199973689739 0 -0.016215254959647912 -0.17987130138463131 0 -0.01599203999056836 -0.200364704776096 0 0.0016220851498990111 -0.18706253986558219 0 -0.00087008517443049169 -0.20676331926816319 0 -0.01599203999056836 -0.200364704776096 0 0.0118853391263529 -0.1976199973689739 0 -0.01599203999056836 -0.200364704776096 0 -0.043869419107489573 -0.2031094121832181 0 -0.016215254959647912 -0.17987130138463131 0 -0.035310887089208168 -0.1869415038206711 0 -0.01599203999056836 -0.200364704776096 0 -0.035310887089208168 -0.1869415038206711 0 -0.01599203999056836 -0.200364704776096 0 -0.043869419107489573 -0.2031094121832181 0 -0.035310887089208168 -0.1869415038206711 0 -0.043869419107489573 -0.2031094121832181 0 -0.055933817126448022 -0.19347577781875511 0 -0.056708354906834367 -0.17928594510321619 0 -0.055933817126448022 -0.19347577781875511 0 -0.072033626304297188 -0.19218790839632979 0 -0.043869419107489573 -0.2031094121832181 0 -0.055933817126448022 -0.19347577781875511 0 -0.071746798224410824 -0.2058541195903402 0 -0.043869419107489573 -0.2031094121832181 0 -0.059220796729067889 -0.21363364729599829 0 -0.05043636915195801 -0.22335593217289521 0 -0.043869419107489573 -0.2031094121832181 0 -0.071746798224410824 -0.2058541195903402 0 -0.043869419107489573 -0.2031094121832181 0 -0.059220796729067889 -0.21363364729599829 0 -0.071746798224410824 -0.2058541195903402 0 -0.030881544900558919 -0.22097485326417499 0 -0.043869419107489573 -0.2031094121832181 0 -0.05043636915195801 -0.22335593217289521 0 -0.030881544900558919 -0.22097485326417499 0 -0.05043636915195801 -0.22335593217289521 0 -0.041782634686147832 -0.23580765945952209 0 -0.02701546243075412 -0.2413288456044746 0 -0.030881544900558919 -0.22097485326417499 0 -0.041782634686147832 -0.23580765945952209 0 -0.05043636915195801 -0.22335593217289521 0 -0.057125690101845192 -0.23518125909278551 0 -0.070830600432413154 -0.2222151252375397 0 -0.059220796729067889 -0.21363364729599829 0 -0.05043636915195801 -0.22335593217289521 0 -0.070830600432413154 -0.2222151252375397 0 -0.05043636915195801 -0.22335593217289521 0 -0.057125690101845192 -0.23518125909278551 0 -0.041782634686147832 -0.23580765945952209 0 -0.057125690101845192 -0.23518125909278551 0 -0.048954136784397161 -0.24677205084299511 0 -0.041782634686147832 -0.23580765945952209 0 -0.057125690101845192 -0.23518125909278551 0 -0.06073814619030448 -0.24598109428459611 0 -0.048954136784397161 -0.24677205084299511 0 -0.04333166838545123 -0.25587103745628742 0 -0.048954136784397161 -0.24677205084299511 0 -0.03749998534272686 -0.24645163551448299 0 -0.048954136784397161 -0.24677205084299511 0 -0.041782634686147832 -0.23580765945952209 0 -0.03749998534272686 -0.24645163551448299 0 -0.02701546243075412 -0.2413288456044746 0 -0.041782634686147832 -0.23580765945952209 0 -0.03749998534272686 -0.24645163551448299 0 -0.086362519757149495 -0.24803654749965709 0 -0.091376045324069274 -0.2413572179207312 0 -0.099517985831804864 -0.2418500915779096 0 -0.086362519757149495 -0.24803654749965709 0 -0.091376045324069274 -0.2413572179207312 0 -0.083466433521061562 -0.24066437916976341 0 -0.091376045324069274 -0.2413572179207312 0 -0.083466433521061562 -0.24066437916976341 0 -0.09211951837745036 -0.2339813487752786 0 -0.091376045324069274 -0.2413572179207312 0 -0.09211951837745036 -0.2339813487752786 0 -0.09572814914433754 -0.23729766622533949 0 -0.083466433521061562 -0.24066437916976341 0 -0.078679255715819976 -0.23144365328618541 0 -0.09211951837745036 -0.2339813487752786 0 -0.072633096569996461 -0.25231433365624389 0 -0.086362519757149495 -0.24803654749965709 0 -0.083466433521061562 -0.24066437916976341 0 -0.072633096569996461 -0.25231433365624389 0 -0.083466433521061562 -0.24066437916976341 0 -0.070012253365850527 -0.23695569255916471 0 -0.072633096569996461 -0.25231433365624389 0 -0.06073814619030448 -0.24598109428459611 0 -0.070012253365850527 -0.23695569255916471 0 -0.057125690101845192 -0.23518125909278551 0 -0.06073814619030448 -0.24598109428459611 0 -0.070012253365850527 -0.23695569255916471 0 -0.083466433521061562 -0.24066437916976341 0 -0.070012253365850527 -0.23695569255916471 0 -0.078679255715819976 -0.23144365328618541 0 -0.070012253365850527 -0.23695569255916471 0 -0.070830600432413154 -0.2222151252375397 0 -0.078679255715819976 -0.23144365328618541 0 -0.057125690101845192 -0.23518125909278551 0 -0.070012253365850527 -0.23695569255916471 0 -0.070830600432413154 -0.2222151252375397 0 -0.070830600432413154 -0.2222151252375397 0 -0.087087962320947038 -0.2247218904076595 0 -0.084945040438357031 -0.21597580679164699 0 -0.070830600432413154 -0.2222151252375397 0 -0.078679255715819976 -0.23144365328618541 0 -0.087087962320947038 -0.2247218904076595 0 -0.09211951837745036 -0.2339813487752786 0 -0.087087962320947038 -0.2247218904076595 0 -0.097872634337300327 -0.2262805196534691 0 -0.078679255715819976 -0.23144365328618541 0 -0.09211951837745036 -0.2339813487752786 0 -0.087087962320947038 -0.2247218904076595 0 -0.087087962320947038 -0.2247218904076595 0 -0.095435663872681847 -0.21848907172523349 0 -0.097872634337300327 -0.2262805196534691 0 -0.087087962320947038 -0.2247218904076595 0 -0.084945040438357031 -0.21597580679164699 0 -0.095435663872681847 -0.21848907172523349 0 -0.084945040438357031 -0.21597580679164699 0 -0.071746798224410824 -0.2058541195903402 0 -0.099624177341332221 -0.20859882699746229 0 -0.071746798224410824 -0.2058541195903402 0 -0.099624177341332221 -0.20859882699746229 0 -0.071746798224410824 -0.2058541195903402 0 -0.084007253668463858 -0.19756653914136749 0 -0.099624177341332221 -0.20859882699746229 0 -0.084945040438357031 -0.21597580679164699 0 -0.099624177341332221 -0.20859882699746229 0 -0.095435663872681847 -0.21848907172523349 0 -0.070830600432413154 -0.2222151252375397 0 -0.084945040438357031 -0.21597580679164699 0 -0.071746798224410824 -0.2058541195903402 0 -0.059220796729067889 -0.21363364729599829 0 -0.070830600432413154 -0.2222151252375397 0 -0.071746798224410824 -0.2058541195903402 0 -0.071746798224410824 -0.2058541195903402 0 -0.072033626304297188 -0.19218790839632979 0 -0.084007253668463858 -0.19756653914136749 0 -0.055933817126448022 -0.19347577781875511 0 -0.071746798224410824 -0.2058541195903402 0 -0.072033626304297188 -0.19218790839632979 0 -0.084007253668463858 -0.19756653914136749 0 -0.099624177341332221 -0.20859882699746229 0 -0.092624412803815226 -0.18362530158133791 0 -0.072033626304297188 -0.19218790839632979 0 -0.092624412803815226 -0.18362530158133791 0 -0.072033626304297188 -0.19218790839632979 0 -0.084007253668463858 -0.19756653914136749 0 -0.092624412803815226 -0.18362530158133791 0 -0.11406080426493791 -0.20009882826147851 0 -0.092624412803815226 -0.18362530158133791 0 -0.11406080426493791 -0.20009882826147851 0 -0.099624177341332221 -0.20859882699746229 0 -0.092624412803815226 -0.18362530158133791 0 -0.11406080426493791 -0.20009882826147851 0 -0.092624412803815226 -0.18362530158133791 0 -0.1185739717390439 -0.18746180593934361 0 -0.11406080426493791 -0.20009882826147851 0 -0.1185739717390439 -0.18746180593934361 0 -0.12648523572834661 -0.19861449317922411 0 -0.099624177341332221 -0.20859882699746229 0 -0.12750155645825351 -0.21134353440458439 0 -0.11406080426493791 -0.20009882826147851 0 -0.099624177341332221 -0.20859882699746229 0 -0.12750155645825351 -0.21134353440458439 0 -0.099624177341332221 -0.20859882699746229 0 -0.1142169341247946 -0.2197034679821824 0 -0.12750155645825351 -0.21134353440458439 0 -0.11406080426493791 -0.20009882826147851 0 -0.12750155645825351 -0.21134353440458439 0 -0.12648523572834661 -0.19861449317922411 0 -0.099624177341332221 -0.20859882699746229 0 -0.095435663872681847 -0.21848907172523349 0 -0.1142169341247946 -0.2197034679821824 0 -0.097872634337300327 -0.2262805196534691 0 -0.099899047044025635 -0.23200200662743861 0 -0.1142169341247946 -0.2197034679821824 0 -0.1142169341247946 -0.2197034679821824 0 -0.099517985831804864 -0.2418500915779096 0 -0.095435663872681847 -0.21848907172523349 0 -0.097872634337300327 -0.2262805196534691 0 -0.1142169341247946 -0.2197034679821824 0 -0.099899047044025635 -0.23200200662743861 0 -0.1142169341247946 -0.2197034679821824 0 -0.099517985831804864 -0.2418500915779096 0 -0.09211951837745036 -0.2339813487752786 0 -0.097872634337300327 -0.2262805196534691 0 -0.099899047044025635 -0.23200200662743861 0 -0.1142169341247946 -0.2197034679821824 0 -0.1320523352215501 -0.22733853631471179 0 -0.12750155645825351 -0.21134353440458439 0 -0.1142169341247946 -0.2197034679821824 0 -0.1173091965465549 -0.23970208953565619 0 -0.1320523352215501 -0.22733853631471179 0 -0.1142169341247946 -0.2197034679821824 0 -0.1173091965465549 -0.23970208953565619 0 -0.099517985831804864 -0.2418500915779096 0 -0.1230762977234405 -0.25820927857111697 0 -0.1173091965465549 -0.23970208953565619 0 -0.098598209298187994 -0.2448164587889948 0 -0.1173091965465549 -0.23970208953565619 0 -0.098598209298187994 -0.2448164587889948 0 -0.099517985831804864 -0.2418500915779096 0 -0.099899047044025635 -0.23200200662743861 0 -0.099517985831804864 -0.2418500915779096 0 -0.09572814914433754 -0.23729766622533949 0 -0.091376045324069274 -0.2413572179207312 0 -0.099517985831804864 -0.2418500915779096 0 -0.09572814914433754 -0.23729766622533949 0 -0.09211951837745036 -0.2339813487752786 0 -0.099899047044025635 -0.23200200662743861 0 -0.09572814914433754 -0.23729766622533949 0 -0.082998540919170333 -0.15490380264376319 0 -0.096850227156753635 -0.1655080590888206 0 -0.096402148057529821 -0.14461979264467131 0 -0.081567192181053239 -0.14128546429921041 0 -0.082998540919170333 -0.15490380264376319 0 -0.096402148057529821 -0.14461979264467131 0 -0.081567192181053239 -0.14128546429921041 0 -0.087088547910535621 -0.12637665469202941 0 -0.096402148057529821 -0.14461979264467131 0 -0.081567192181053239 -0.14128546429921041 0 -0.087088547910535621 -0.12637665469202941 0 -0.068987620712481143 -0.1275574927637394 0 -0.081567192181053239 -0.14128546429921041 0 -0.068987620712481143 -0.1275574927637394 0 -0.066221577550223523 -0.14448546297718079 0 -0.081567192181053239 -0.14128546429921041 0 -0.082998540919170333 -0.15490380264376319 0 -0.066221577550223523 -0.14448546297718079 0 -0.082998540919170333 -0.15490380264376319 0 -0.066221577550223523 -0.14448546297718079 0 -0.071531383562284945 -0.16741564331840059 0 -0.050438354320754407 -0.1512059850554634 0 -0.066221577550223523 -0.14448546297718079 0 -0.071531383562284945 -0.16741564331840059 0 -0.056708354906834367 -0.17928594510321619 0 -0.072033626304297188 -0.19218790839632979 0 -0.071531383562284945 -0.16741564331840059 0 -0.072033626304297188 -0.19218790839632979 0 -0.071531383562284945 -0.16741564331840059 0 -0.092624412803815226 -0.18362530158133791 0 -0.071531383562284945 -0.16741564331840059 0 -0.092624412803815226 -0.18362530158133791 0 -0.096850227156753635 -0.1655080590888206 0 -0.071531383562284945 -0.16741564331840059 0 -0.092624412803815226 -0.18362530158133791 0 -0.082998540919170333 -0.15490380264376319 0 -0.071531383562284945 -0.16741564331840059 0 -0.096850227156753635 -0.1655080590888206 0 -0.096850227156753635 -0.1655080590888206 0 -0.1130289326340585 -0.17514015311169839 0 -0.1160324622949228 -0.15429651653689691 0 -0.092624412803815226 -0.18362530158133791 0 -0.1130289326340585 -0.17514015311169839 0 -0.1185739717390439 -0.18746180593934361 0 -0.092624412803815226 -0.18362530158133791 0 -0.1130289326340585 -0.17514015311169839 0 -0.092624412803815226 -0.18362530158133791 0 -0.096850227156753635 -0.1655080590888206 0 -0.1130289326340585 -0.17514015311169839 0 -0.1130289326340585 -0.17514015311169839 0 -0.1185739717390439 -0.18746180593934361 0 -0.131469774688136 -0.17879898752129539 0 -0.1130289326340585 -0.17514015311169839 0 -0.1160324622949228 -0.15429651653689691 0 -0.13343345246430161 -0.16665500464205851 0 -0.1130289326340585 -0.17514015311169839 0 -0.13343345246430161 -0.16665500464205851 0 -0.1160324622949228 -0.15429651653689691 0 -0.1090027702502897 -0.13870270715379501 0 -0.12424589936028289 -0.13659483477640549 0 -0.1160324622949228 -0.15429651653689691 0 -0.096402148057529821 -0.14461979264467131 0 -0.1090027702502897 -0.13870270715379501 0 -0.096850227156753635 -0.1655080590888206 0 -0.1160324622949228 -0.15429651653689691 0 -0.096402148057529821 -0.14461979264467131 0 -0.096402148057529821 -0.14461979264467131 0 -0.099789038250592474 -0.1280948968813988 0 -0.1090027702502897 -0.13870270715379501 0 -0.087088547910535621 -0.12637665469202941 0 -0.096402148057529821 -0.14461979264467131 0 -0.099789038250592474 -0.1280948968813988 0 -0.099789038250592474 -0.1280948968813988 0 -0.1090027702502897 -0.13870270715379501 0 -0.1106834260854684 -0.13108884467541379 0 -0.1096959964807086 -0.1209629398900559 0 -0.099789038250592474 -0.1280948968813988 0 -0.1106834260854684 -0.13108884467541379 0 -0.1096959964807086 -0.1209629398900559 0 -0.11377165527479351 -0.1219192945703181 0 -0.12424589936028289 -0.13659483477640549 0 -0.1096959964807086 -0.1209629398900559 0 -0.1106834260854684 -0.13108884467541379 0 -0.12424589936028289 -0.13659483477640549 0 -0.1096959964807086 -0.1209629398900559 0 -0.12424589936028289 -0.13659483477640549 0 -0.1090027702502897 -0.13870270715379501 0 -0.1106834260854684 -0.13108884467541379 0 -0.12424589936028289 -0.13659483477640549 0 -0.11377165527479351 -0.1219192945703181 0 -0.12424589936028289 -0.13659483477640549 0 -0.12775538554626081 -0.1227126556176807 0 -0.12424589936028289 -0.13659483477640549 0 -0.14565055659664219 -0.1343259976994412 0 -0.12775538554626081 -0.1227126556176807 0 -0.14565055659664219 -0.1343259976994412 0 -0.16253917459895509 -0.1394942716281366 0 -0.15777931628877051 -0.12655242217590151 0 -0.14565055659664219 -0.1343259976994412 0 -0.1387958022398573 -0.15222672966275511 0 -0.15383797229454541 -0.1581698561724201 0 -0.14565055659664219 -0.1343259976994412 0 -0.15383797229454541 -0.1581698561724201 0 -0.16253917459895509 -0.1394942716281366 0 -0.14565055659664219 -0.1343259976994412 0 -0.15383797229454541 -0.1581698561724201 0 -0.12424589936028289 -0.13659483477640549 0 -0.14565055659664219 -0.1343259976994412 0 -0.1387958022398573 -0.15222672966275511 0 -0.1160324622949228 -0.15429651653689691 0 -0.12424589936028289 -0.13659483477640549 0 -0.1387958022398573 -0.15222672966275511 0 -0.12424589936028289 -0.13659483477640549 0 -0.1387958022398573 -0.15222672966275511 0 -0.1160324622949228 -0.15429651653689691 0 -0.1387958022398573 -0.15222672966275511 0 -0.13343345246430161 -0.16665500464205851 0 -0.1130289326340585 -0.17514015311169839 0 -0.13343345246430161 -0.16665500464205851 0 -0.131469774688136 -0.17879898752129539 0 -0.131469774688136 -0.17879898752129539 0 -0.14219977161140471 -0.18281221433747061 0 -0.1478309391466632 -0.17069737655965081 0 -0.13343345246430161 -0.16665500464205851 0 -0.131469774688136 -0.17879898752129539 0 -0.1478309391466632 -0.17069737655965081 0 -0.1185739717390439 -0.18746180593934361 0 -0.131469774688136 -0.17879898752129539 0 -0.13375158053334399 -0.19002737053755089 0 -0.131469774688136 -0.17879898752129539 0 -0.14219977161140471 -0.18281221433747061 0 -0.13375158053334399 -0.19002737053755089 0 -0.14219977161140471 -0.18281221433747061 0 -0.15286796526086741 -0.1839645928637853 0 -0.14374865843143189 -0.19335781876427369 0 -0.14219977161140471 -0.18281221433747061 0 -0.15286796526086741 -0.1839645928637853 0 -0.1478309391466632 -0.17069737655965081 0 -0.15286796526086741 -0.1839645928637853 0 -0.1478309391466632 -0.17069737655965081 0 -0.1611191303889134 -0.17184515402006681 0 -0.13343345246430161 -0.16665500464205851 0 -0.15383797229454541 -0.1581698561724201 0 -0.13343345246430161 -0.16665500464205851 0 -0.1478309391466632 -0.17069737655965081 0 -0.15383797229454541 -0.1581698561724201 0 -0.1387958022398573 -0.15222672966275511 0 -0.13343345246430161 -0.16665500464205851 0 -0.15383797229454541 -0.1581698561724201 0 -0.1478309391466632 -0.17069737655965081 0 -0.15499294998849239 -0.1668362586348193 0 -0.15383797229454541 -0.1581698561724201 0 -0.1478309391466632 -0.17069737655965081 0 -0.15499294998849239 -0.1668362586348193 0 -0.1611191303889134 -0.17184515402006681 0 -0.15383797229454541 -0.1581698561724201 0 -0.16161081341686301 -0.16296654505739369 0 -0.16940000012506179 -0.15948217701006071 0 -0.15499294998849239 -0.1668362586348193 0 -0.15383797229454541 -0.1581698561724201 0 -0.16161081341686301 -0.16296654505739369 0 -0.15499294998849239 -0.1668362586348193 0 -0.16161081341686301 -0.16296654505739369 0 -0.1611191303889134 -0.17184515402006681 0 -0.16161081341686301 -0.16296654505739369 0 -0.1611191303889134 -0.17184515402006681 0 -0.17226763289838121 -0.16925403728163421 0 -0.16161081341686301 -0.16296654505739369 0 -0.16940000012506179 -0.15948217701006071 0 -0.17226763289838121 -0.16925403728163421 0 -0.15286796526086741 -0.1839645928637853 0 -0.1611191303889134 -0.17184515402006681 0 -0.16622260135116559 -0.1960731800179194 0 -0.1611191303889134 -0.17184515402006681 0 -0.16622260135116559 -0.1960731800179194 0 -0.1611191303889134 -0.17184515402006681 0 -0.1741684978085859 -0.18163823153196701 0 -0.16622260135116559 -0.1960731800179194 0 -0.1611191303889134 -0.17184515402006681 0 -0.1741684978085859 -0.18163823153196701 0 -0.17226763289838121 -0.16925403728163421 0 -0.1741684978085859 -0.18163823153196701 0 -0.18452445402616291 -0.17682418831985389 0 -0.18601242219899619 -0.19299565749814129 0 -0.1741684978085859 -0.18163823153196701 0 -0.18452445402616291 -0.17682418831985389 0 -0.17226763289838121 -0.16925403728163421 0 -0.16940000012506179 -0.15948217701006071 0 -0.17226763289838121 -0.16925403728163421 0 -0.18278290162470021 -0.16276792775046339 0 -0.16940000012506179 -0.15948217701006071 0 -0.18278290162470021 -0.16276792775046339 0 -0.1789239052628277 -0.14773795836221759 0 -0.18452445402616291 -0.17682418831985389 0 -0.17226763289838121 -0.16925403728163421 0 -0.18278290162470021 -0.16276792775046339 0 -0.18452445402616291 -0.17682418831985389 0 -0.18278290162470021 -0.16276792775046339 0 -0.19387271605509951 -0.16924748171793461 0 -0.18278290162470021 -0.16276792775046339 0 -0.1789239052628277 -0.14773795836221759 0 -0.19467208949071799 -0.15405300767894509 0 -0.1789239052628277 -0.14773795836221759 0 -0.1736516256269095 -0.1301832227178564 0 -0.19085896727340229 -0.13415704608446249 0 -0.1736516256269095 -0.1301832227178564 0 -0.19085896727340229 -0.13415704608446249 0 -0.1835149386294132 -0.1166598148705749 0 -0.1736516256269095 -0.1301832227178564 0 -0.16253917459895509 -0.1394942716281366 0 -0.15777931628877051 -0.12655242217590151 0 -0.1789239052628277 -0.14773795836221759 0 -0.1736516256269095 -0.1301832227178564 0 -0.16253917459895509 -0.1394942716281366 0 -0.15383797229454541 -0.1581698561724201 0 -0.16940000012506179 -0.15948217701006071 0 -0.1789239052628277 -0.14773795836221759 0 -0.15383797229454541 -0.1581698561724201 0 -0.1789239052628277 -0.14773795836221759 0 -0.15383797229454541 -0.1581698561724201 0 -0.1789239052628277 -0.14773795836221759 0 -0.16253917459895509 -0.1394942716281366 0 -0.1510077136628947 -0.25398390283359468 0 -0.151627797528886 -0.23064413284365831 0 -0.16263472847473401 -0.2428724329714736 0 -0.1510077136628947 -0.25398390283359468 0 -0.151627797528886 -0.23064413284365831 0 -0.1510077136628947 -0.25398390283359468 0 -0.13520422189713291 -0.2421257222954841 0 -0.151627797528886 -0.23064413284365831 0 -0.1173091965465549 -0.23970208953565619 0 -0.13520422189713291 -0.2421257222954841 0 -0.1320523352215501 -0.22733853631471179 0 -0.1230762977234405 -0.25820927857111697 0 -0.1173091965465549 -0.23970208953565619 0 -0.13520422189713291 -0.2421257222954841 0 -0.13520422189713291 -0.2421257222954841 0 -0.1320523352215501 -0.22733853631471179 0 -0.151627797528886 -0.23064413284365831 0 -0.1320523352215501 -0.22733853631471179 0 -0.151627797528886 -0.23064413284365831 0 -0.14022113279204659 -0.2158622239291032 0 -0.151627797528886 -0.23064413284365831 0 -0.15224788139487669 -0.20730436285372181 0 -0.151627797528886 -0.23064413284365831 0 -0.15224788139487669 -0.20730436285372181 0 -0.14022113279204659 -0.2158622239291032 0 -0.15224788139487669 -0.20730436285372181 0 -0.14022113279204659 -0.2158622239291032 0 -0.13767609335666689 -0.2026805532288399 0 -0.1320523352215501 -0.22733853631471179 0 -0.14022113279204659 -0.2158622239291032 0 -0.12750155645825351 -0.21134353440458439 0 -0.12750155645825351 -0.21134353440458439 0 -0.13767609335666689 -0.2026805532288399 0 -0.12648523572834661 -0.19861449317922411 0 -0.14022113279204659 -0.2158622239291032 0 -0.12750155645825351 -0.21134353440458439 0 -0.13767609335666689 -0.2026805532288399 0 -0.13767609335666689 -0.2026805532288399 0 -0.13375158053334399 -0.19002737053755089 0 -0.14374865843143189 -0.19335781876427369 0 -0.13767609335666689 -0.2026805532288399 0 -0.12648523572834661 -0.19861449317922411 0 -0.13375158053334399 -0.19002737053755089 0 -0.1185739717390439 -0.18746180593934361 0 -0.12648523572834661 -0.19861449317922411 0 -0.13375158053334399 -0.19002737053755089 0 -0.14219977161140471 -0.18281221433747061 0 -0.13375158053334399 -0.19002737053755089 0 -0.14374865843143189 -0.19335781876427369 0 -0.15286796526086741 -0.1839645928637853 0 -0.15224788139487669 -0.20730436285372181 0 -0.15286796526086741 -0.1839645928637853 0 -0.15224788139487669 -0.20730436285372181 0 -0.14374865843143189 -0.19335781876427369 0 -0.15224788139487669 -0.20730436285372181 0 -0.13767609335666689 -0.2026805532288399 0 -0.14374865843143189 -0.19335781876427369 0 -0.15286796526086741 -0.1839645928637853 0 -0.15224788139487669 -0.20730436285372181 0 -0.16622260135116559 -0.1960731800179194 0 -0.1741684978085859 -0.18163823153196701 0 -0.16622260135116559 -0.1960731800179194 0 -0.18601242219899619 -0.19299565749814129 0 -0.16622260135116559 -0.1960731800179194 0 -0.18601242219899619 -0.19299565749814129 0 -0.1817118216133454 -0.2100984661791685 0 -0.16622260135116559 -0.1960731800179194 0 -0.1817118216133454 -0.2100984661791685 0 -0.1713260723134177 -0.22030120601577199 0 -0.15224788139487669 -0.20730436285372181 0 -0.16622260135116559 -0.1960731800179194 0 -0.1713260723134177 -0.22030120601577199 0 -0.16622260135116559 -0.1960731800179194 0 -0.1713260723134177 -0.22030120601577199 0 -0.151627797528886 -0.23064413284365831 0 -0.15224788139487669 -0.20730436285372181 0 -0.1713260723134177 -0.22030120601577199 0 -0.151627797528886 -0.23064413284365831 0 -0.1713260723134177 -0.22030120601577199 0 -0.16263472847473401 -0.2428724329714736 0 -0.1817118216133454 -0.2100984661791685 0 -0.1713260723134177 -0.22030120601577199 0 -0.18464411250149851 -0.22640908521479389 0 -0.1713260723134177 -0.22030120601577199 0 -0.1764295432756699 -0.2445292320136247 0 -0.1713260723134177 -0.22030120601577199 0 -0.18464411250149851 -0.22640908521479389 0 -0.1764295432756699 -0.2445292320136247 0 -0.18464411250149851 -0.22640908521479389 0 -0.1764295432756699 -0.2445292320136247 0 -0.1970008633315361 -0.23446567227139589 0 -0.1680929605241295 -0.25474777188350262 0 -0.1764295432756699 -0.2445292320136247 0 -0.16263472847473401 -0.2428724329714736 0 -0.1713260723134177 -0.22030120601577199 0 -0.1764295432756699 -0.2445292320136247 0 -0.16263472847473401 -0.2428724329714736 0 -0.15732428354340641 -0.25302835223868969 0 -0.1510077136628947 -0.25398390283359468 0 -0.16263472847473401 -0.2428724329714736 0 -0.20779894815716221 -0.24008232934796839 0 -0.1970008633315361 -0.23446567227139589 0 -0.21478474209867521 -0.22972741511151751 0 -0.2170457079486674 -0.24720300742873891 0 -0.20779894815716221 -0.24008232934796839 0 -0.21478474209867521 -0.22972741511151751 0 -0.2023768832660017 -0.25097279894461488 0 -0.2170457079486674 -0.24720300742873891 0 -0.20779894815716221 -0.24008232934796839 0 -0.18913519041805449 -0.25412740646705079 0 -0.2023768832660017 -0.25097279894461488 0 -0.1970008633315361 -0.23446567227139589 0 -0.2023768832660017 -0.25097279894461488 0 -0.20779894815716221 -0.24008232934796839 0 -0.1970008633315361 -0.23446567227139589 0 -0.18913519041805449 -0.25412740646705079 0 -0.1764295432756699 -0.2445292320136247 0 -0.1970008633315361 -0.23446567227139589 0 -0.1970008633315361 -0.23446567227139589 0 -0.21065120802394771 -0.21622099914890461 0 -0.19615412909815849 -0.21143349992751831 0 -0.18464411250149851 -0.22640908521479389 0 -0.1970008633315361 -0.23446567227139589 0 -0.19615412909815849 -0.21143349992751831 0 -0.1970008633315361 -0.23446567227139589 0 -0.21478474209867521 -0.22972741511151751 0 -0.21065120802394771 -0.21622099914890461 0 -0.21478474209867521 -0.22972741511151751 0 -0.21065120802394771 -0.21622099914890461 0 -0.2242908073558183 -0.22067112223278751 0 -0.21055601001954721 -0.20362294464731251 0 -0.21065120802394771 -0.21622099914890461 0 -0.2227824104509146 -0.20646586255457111 0 -0.21055601001954721 -0.20362294464731251 0 -0.21065120802394771 -0.21622099914890461 0 -0.19615412909815849 -0.21143349992751831 0 -0.1817118216133454 -0.2100984661791685 0 -0.18464411250149851 -0.22640908521479389 0 -0.19615412909815849 -0.21143349992751831 0 -0.18601242219899619 -0.19299565749814129 0 -0.1817118216133454 -0.2100984661791685 0 -0.19615412909815849 -0.21143349992751831 0 -0.18601242219899619 -0.19299565749814129 0 -0.20374742972567769 -0.19282725472535209 0 -0.19547555174113951 -0.18061411404679409 0 -0.18601242219899619 -0.19299565749814129 0 -0.19615412909815849 -0.21143349992751831 0 -0.20374742972567769 -0.19282725472535209 0 -0.21055601001954721 -0.20362294464731251 0 -0.20374742972567769 -0.19282725472535209 0 -0.22076352464028351 -0.18797924788232431 0 -0.21055601001954721 -0.20362294464731251 0 -0.19615412909815849 -0.21143349992751831 0 -0.20374742972567769 -0.19282725472535209 0 -0.21055601001954721 -0.20362294464731251 0 -0.22076352464028351 -0.18797924788232431 0 -0.2227824104509146 -0.20646586255457111 0 -0.22076352464028351 -0.18797924788232431 0 -0.2325282350838864 -0.19516632725499469 0 -0.2227824104509146 -0.20646586255457111 0 -0.2325282350838864 -0.19516632725499469 0 -0.24480860767009471 -0.19471055200310031 0 -0.23728939407258931 -0.2108978179337733 0 -0.2325282350838864 -0.19516632725499469 0 -0.24480860767009471 -0.19471055200310031 0 -0.23699723858555 -0.1757781559012048 0 -0.24480860767009471 -0.19471055200310031 0 -0.25261997675463937 -0.21364294810499571 0 -0.24480860767009471 -0.19471055200310031 0 -0.23728939407258931 -0.2108978179337733 0 -0.25261997675463937 -0.21364294810499571 0 -0.23728939407258931 -0.2108978179337733 0 -0.24379034702086719 -0.2188406903150811 0 -0.25261997675463937 -0.21364294810499571 0 -0.23728939407258931 -0.2108978179337733 0 -0.23692022186394829 -0.22492268153689179 0 -0.24379034702086719 -0.2188406903150811 0 -0.23728939407258931 -0.2108978179337733 0 -0.2227824104509146 -0.20646586255457111 0 -0.2242908073558183 -0.22067112223278751 0 -0.2325282350838864 -0.19516632725499469 0 -0.23728939407258931 -0.2108978179337733 0 -0.2227824104509146 -0.20646586255457111 0 -0.21065120802394771 -0.21622099914890461 0 -0.2227824104509146 -0.20646586255457111 0 -0.2242908073558183 -0.22067112223278751 0 -0.21478474209867521 -0.22972741511151751 0 -0.2242908073558183 -0.22067112223278751 0 -0.22720681370978629 -0.23610113206596539 0 -0.2242908073558183 -0.22067112223278751 0 -0.23692022186394829 -0.22492268153689179 0 -0.22720681370978629 -0.23610113206596539 0 -0.23728939407258931 -0.2108978179337733 0 -0.2242908073558183 -0.22067112223278751 0 -0.23692022186394829 -0.22492268153689179 0 -0.24379034702086719 -0.2188406903150811 0 -0.2480915939287219 -0.22734937565480301 0 -0.25261997675463937 -0.21364294810499571 0 -0.23692022186394829 -0.22492268153689179 0 -0.24379034702086719 -0.2188406903150811 0 -0.2480915939287219 -0.22734937565480301 0 -0.23692022186394829 -0.22492268153689179 0 -0.239500354200432 -0.23635427200452469 0 -0.22720681370978629 -0.23610113206596539 0 -0.23692022186394829 -0.22492268153689179 0 -0.2480915939287219 -0.22734937565480301 0 -0.239500354200432 -0.23635427200452469 0 -0.2480915939287219 -0.22734937565480301 0 -0.239500354200432 -0.23635427200452469 0 -0.24966206634667409 -0.24400955986671949 0 -0.24757840578926399 -0.25652676207350378 0 -0.24966206634667409 -0.24400955986671949 0 -0.23562107515302921 -0.24938861089824399 0 -0.239500354200432 -0.23635427200452469 0 -0.24966206634667409 -0.24400955986671949 0 -0.23562107515302921 -0.24938861089824399 0 -0.2170457079486674 -0.24720300742873891 0 -0.21478474209867521 -0.22972741511151751 0 -0.22720681370978629 -0.23610113206596539 0 -0.2170457079486674 -0.24720300742873891 0 -0.23562107515302921 -0.24938861089824399 0 -0.22720681370978629 -0.23610113206596539 0 -0.239500354200432 -0.23635427200452469 0 -0.23562107515302921 -0.24938861089824399 0 -0.22720681370978629 -0.23610113206596539 0 -0.21767578300225801 -0.1480833943441062 0 -0.19467208949071799 -0.15405300767894509 0 -0.21767578300225801 -0.1480833943441062 0 -0.20707429621905099 -0.1351975419663293 0 -0.19467208949071799 -0.15405300767894509 0 -0.20707429621905099 -0.1351975419663293 0 -0.21589823627696719 -0.12235065205212591 0 -0.20172774628929749 -0.1188334453301446 0 -0.21767578300225801 -0.1480833943441062 0 -0.20707429621905099 -0.1351975419663293 0 -0.22164546340573449 -0.13299806611361931 0 -0.20707429621905099 -0.1351975419663293 0 -0.22164546340573449 -0.13299806611361931 0 -0.21589823627696719 -0.12235065205212591 0 -0.20707429621905099 -0.1351975419663293 0 -0.19085896727340229 -0.13415704608446249 0 -0.20172774628929749 -0.1188334453301446 0 -0.20707429621905099 -0.1351975419663293 0 -0.19085896727340229 -0.13415704608446249 0 -0.19467208949071799 -0.15405300767894509 0 -0.1789239052628277 -0.14773795836221759 0 -0.19085896727340229 -0.13415704608446249 0 -0.19467208949071799 -0.15405300767894509 0 -0.18278290162470021 -0.16276792775046339 0 -0.19467208949071799 -0.15405300767894509 0 -0.19387271605509951 -0.16924748171793461 0 -0.19467208949071799 -0.15405300767894509 0 -0.19387271605509951 -0.16924748171793461 0 -0.20922073669976141 -0.17117598797268829 0 -0.18452445402616291 -0.17682418831985389 0 -0.18601242219899619 -0.19299565749814129 0 -0.19547555174113951 -0.18061411404679409 0 -0.20374742972567769 -0.19282725472535209 0 -0.19547555174113951 -0.18061411404679409 0 -0.20922073669976141 -0.17117598797268829 0 -0.18452445402616291 -0.17682418831985389 0 -0.19387271605509951 -0.16924748171793461 0 -0.19547555174113951 -0.18061411404679409 0 -0.19387271605509951 -0.16924748171793461 0 -0.19547555174113951 -0.18061411404679409 0 -0.20922073669976141 -0.17117598797268829 0 -0.20374742972567769 -0.19282725472535209 0 -0.22076352464028351 -0.18797924788232431 0 -0.20922073669976141 -0.17117598797268829 0 -0.22076352464028351 -0.18797924788232431 0 -0.20922073669976141 -0.17117598797268829 0 -0.2256184038571116 -0.1656009158218586 0 -0.21767578300225801 -0.1480833943441062 0 -0.20922073669976141 -0.17117598797268829 0 -0.2256184038571116 -0.1656009158218586 0 -0.21767578300225801 -0.1480833943441062 0 -0.19467208949071799 -0.15405300767894509 0 -0.20922073669976141 -0.17117598797268829 0 -0.2256184038571116 -0.1656009158218586 0 -0.24220539714476011 -0.16237985861264401 0 -0.23429144364747451 -0.15372768976248519 0 -0.22076352464028351 -0.18797924788232431 0 -0.2256184038571116 -0.1656009158218586 0 -0.23699723858555 -0.1757781559012048 0 -0.22076352464028351 -0.18797924788232431 0 -0.2325282350838864 -0.19516632725499469 0 -0.23699723858555 -0.1757781559012048 0 -0.24480860767009471 -0.19471055200310031 0 -0.23699723858555 -0.1757781559012048 0 -0.24480860767009471 -0.19471055200310031 0 -0.23699723858555 -0.1757781559012048 0 -0.25120195883373803 -0.1721391415510975 0 -0.2256184038571116 -0.1656009158218586 0 -0.23699723858555 -0.1757781559012048 0 -0.24220539714476011 -0.16237985861264401 0 -0.23699723858555 -0.1757781559012048 0 -0.24220539714476011 -0.16237985861264401 0 -0.25120195883373803 -0.1721391415510975 0 -0.2472196927006948 -0.1515692412906269 0 -0.24067947651379801 -0.14211378100926739 0 -0.25165074314210373 -0.14434673674649831 0 -0.24220539714476011 -0.16237985861264401 0 -0.2472196927006948 -0.1515692412906269 0 -0.23429144364747451 -0.15372768976248519 0 -0.2472196927006948 -0.1515692412906269 0 -0.24067947651379801 -0.14211378100926739 0 -0.23429144364747451 -0.15372768976248519 0 -0.21767578300225801 -0.1480833943441062 0 -0.24067947651379801 -0.14211378100926739 0 -0.23429144364747451 -0.15372768976248519 0 -0.21767578300225801 -0.1480833943441062 0 -0.24067947651379801 -0.14211378100926739 0 -0.23605858438071819 -0.13736420085859621 0 -0.21767578300225801 -0.1480833943441062 0 -0.24067947651379801 -0.14211378100926739 0 -0.21767578300225801 -0.1480833943441062 0 -0.2256184038571116 -0.1656009158218586 0 -0.23429144364747451 -0.15372768976248519 0 -0.21767578300225801 -0.1480833943441062 0 -0.22164546340573449 -0.13299806611361931 0 -0.23605858438071819 -0.13736420085859621 0 -0.22164546340573449 -0.13299806611361931 0 -0.23605858438071819 -0.13736420085859621 0 -0.22886574885261071 -0.1215538071093781 0 -0.22164546340573449 -0.13299806611361931 0 -0.22886574885261071 -0.1215538071093781 0 -0.21589823627696719 -0.12235065205212591 0 -0.23605858438071819 -0.13736420085859621 0 -0.24337070752788431 -0.13036937651093711 0 -0.23941659369080631 -0.11001219212279841 0 -0.24067947651379801 -0.14211378100926739 0 -0.23605858438071819 -0.13736420085859621 0 -0.24337070752788431 -0.13036937651093711 0 -0.24067947651379801 -0.14211378100926739 0 -0.24337070752788431 -0.13036937651093711 0 -0.25019901471553613 -0.13547804139513889 0 -0.24337070752788431 -0.13036937651093711 0 -0.25074896958116072 -0.12623220477356401 0 -0.25019901471553613 -0.13547804139513889 0 -0.23605858438071819 -0.13736420085859621 0 -0.23941659369080631 -0.11001219212279841 0 -0.22886574885261071 -0.1215538071093781 0 -0.23941659369080631 -0.11001219212279841 0 -0.25661321536168652 -0.1165333872518117 0 -0.25074896958116072 -0.12623220477356401 0 -0.23605858438071819 -0.13736420085859621 0 -0.23941659369080631 -0.11001219212279841 0 -0.24337070752788431 -0.13036937651093711 0 -0.23941659369080631 -0.11001219212279841 0 -0.25074896958116072 -0.12623220477356401 0 -0.23941659369080631 -0.11001219212279841 0 -0.24277460300089451 -0.082660183387000596 0 -0.23941659369080631 -0.11001219212279841 0 -0.24277460300089451 -0.082660183387000596 0 -0.25824639025713519 -0.1002016063446013 0 -0.23941659369080631 -0.11001219212279841 0 -0.24277460300089451 -0.082660183387000596 0 -0.21808673786778951 -0.099998755457691768 0 -0.23941659369080631 -0.11001219212279841 0 -0.22886574885261071 -0.1215538071093781 0 -0.21808673786778951 -0.099998755457691768 0 -0.22886574885261071 -0.1215538071093781 0 -0.21589823627696719 -0.12235065205212591 0 -0.21808673786778951 -0.099998755457691768 0 -0.24277460300089451 -0.082660183387000596 0 -0.2461326123109826 -0.055308174651202947 0 -0.24277460300089451 -0.082660183387000596 0 -0.22678342457253439 -0.073702560796810937 0 -0.2461326123109826 -0.055308174651202947 0 -0.24277460300089451 -0.082660183387000596 0 -0.22678342457253439 -0.073702560796810937 0 -0.21808673786778951 -0.099998755457691768 0 -0.22678342457253439 -0.073702560796810937 0 -0.2082485712454242 -0.075691833792724941 0 -0.21867459843758119 -0.054853856695434418 0 -0.2082485712454242 -0.075691833792724941 0 -0.20355444297641959 -0.058912148511826003 0 -0.21867459843758119 -0.054853856695434418 0 -0.22678342457253439 -0.073702560796810937 0 -0.2082485712454242 -0.075691833792724941 0 -0.21808673786778951 -0.099998755457691768 0 -0.2082485712454242 -0.075691833792724941 0 -0.20182317639961589 -0.091168758769189173 0 -0.21808673786778951 -0.099998755457691768 0 -0.18892911743230381 -0.084537191147156077 0 -0.20182317639961589 -0.091168758769189173 0 -0.19493330146916171 -0.10463686154968301 0 -0.2082485712454242 -0.075691833792724941 0 -0.18892911743230381 -0.084537191147156077 0 -0.20182317639961589 -0.091168758769189173 0 -0.2082485712454242 -0.075691833792724941 0 -0.18892911743230381 -0.084537191147156077 0 -0.18867323158886029 -0.063345075001549997 0 -0.2082485712454242 -0.075691833792724941 0 -0.18867323158886029 -0.063345075001549997 0 -0.20355444297641959 -0.058912148511826003 0 -0.21589823627696719 -0.12235065205212591 0 -0.21808673786778951 -0.099998755457691768 0 -0.20172774628929749 -0.1188334453301446 0 -0.20182317639961589 -0.091168758769189173 0 -0.21808673786778951 -0.099998755457691768 0 -0.19493330146916171 -0.10463686154968301 0 -0.21808673786778951 -0.099998755457691768 0 -0.19493330146916171 -0.10463686154968301 0 -0.20172774628929749 -0.1188334453301446 0 -0.19085896727340229 -0.13415704608446249 0 -0.20172774628929749 -0.1188334453301446 0 -0.1835149386294132 -0.1166598148705749 0 -0.19493330146916171 -0.10463686154968301 0 -0.20172774628929749 -0.1188334453301446 0 -0.1835149386294132 -0.1166598148705749 0 -0.1736516256269095 -0.1301832227178564 0 -0.1835149386294132 -0.1166598148705749 0 -0.16456992742497181 -0.11316406650340349 0 -0.1736516256269095 -0.1301832227178564 0 -0.15777931628877051 -0.12655242217590151 0 -0.16456992742497181 -0.11316406650340349 0 -0.16456992742497181 -0.11316406650340349 0 -0.17538057211680791 -0.098274606843327325 0 -0.15649317757566941 -0.093528111831307242 0 -0.1835149386294132 -0.1166598148705749 0 -0.16456992742497181 -0.11316406650340349 0 -0.17538057211680791 -0.098274606843327325 0 -0.19493330146916171 -0.10463686154968301 0 -0.1835149386294132 -0.1166598148705749 0 -0.17538057211680791 -0.098274606843327325 0 -0.18892911743230381 -0.084537191147156077 0 -0.19493330146916171 -0.10463686154968301 0 -0.17538057211680791 -0.098274606843327325 0 -0.18892911743230381 -0.084537191147156077 0 -0.17538057211680791 -0.098274606843327325 0 -0.1669087970066209 -0.073572501203382101 0 -0.18892911743230381 -0.084537191147156077 0 -0.18867323158886029 -0.063345075001549997 0 -0.1669087970066209 -0.073572501203382101 0 -0.18867323158886029 -0.063345075001549997 0 -0.1669087970066209 -0.073572501203382101 0 -0.17143341752452079 -0.055413914205868102 0 -0.17538057211680791 -0.098274606843327325 0 -0.1669087970066209 -0.073572501203382101 0 -0.15649317757566941 -0.093528111831307242 0 -0.15649317757566941 -0.093528111831307242 0 -0.143057941131703 -0.089397845842355661 0 -0.14322606842405181 -0.07534308121756246 0 -0.1669087970066209 -0.073572501203382101 0 -0.15649317757566941 -0.093528111831307242 0 -0.14322606842405181 -0.07534308121756246 0 -0.1669087970066209 -0.073572501203382101 0 -0.14322606842405181 -0.07534308121756246 0 -0.14322606842405181 -0.07534308121756246 0 -0.1380108631086501 -0.058267402836558783 0 -0.15235282648664511 -0.058430994655053733 0 -0.1669087970066209 -0.073572501203382101 0 -0.14322606842405181 -0.07534308121756246 0 -0.15235282648664511 -0.058430994655053733 0 -0.1195433398414827 -0.077113661231742819 0 -0.14322606842405181 -0.07534308121756246 0 -0.14322606842405181 -0.07534308121756246 0 -0.12775156614772479 -0.066509879246278839 0 -0.1380108631086501 -0.058267402836558783 0 -0.1195433398414827 -0.077113661231742819 0 -0.14322606842405181 -0.07534308121756246 0 -0.12775156614772479 -0.066509879246278839 0 -0.1195433398414827 -0.077113661231742819 0 -0.14322606842405181 -0.07534308121756246 0 -0.1292757252008358 -0.086638280753483551 0 -0.143057941131703 -0.089397845842355661 0 -0.14322606842405181 -0.07534308121756246 0 -0.1292757252008358 -0.086638280753483551 0 -0.143057941131703 -0.089397845842355661 0 -0.1292757252008358 -0.086638280753483551 0 -0.13746314089873901 -0.1104821392264624 0 -0.1216888923619938 -0.10675174355337549 0 -0.1292757252008358 -0.086638280753483551 0 -0.13746314089873901 -0.1104821392264624 0 -0.1292757252008358 -0.086638280753483551 0 -0.13746314089873901 -0.1104821392264624 0 -0.1216888923619938 -0.10675174355337549 0 -0.13746314089873901 -0.1104821392264624 0 -0.12775538554626081 -0.1227126556176807 0 -0.14565055659664219 -0.1343259976994412 0 -0.13746314089873901 -0.1104821392264624 0 -0.12775538554626081 -0.1227126556176807 0 -0.14565055659664219 -0.1343259976994412 0 -0.15777931628877051 -0.12655242217590151 0 -0.13746314089873901 -0.1104821392264624 0 -0.14565055659664219 -0.1343259976994412 0 -0.13746314089873901 -0.1104821392264624 0 -0.15777931628877051 -0.12655242217590151 0 -0.16456992742497181 -0.11316406650340349 0 -0.13746314089873901 -0.1104821392264624 0 -0.16456992742497181 -0.11316406650340349 0 -0.15649317757566941 -0.093528111831307242 0 -0.13746314089873901 -0.1104821392264624 0 -0.15649317757566941 -0.093528111831307242 0 -0.143057941131703 -0.089397845842355661 0 -0.13746314089873901 -0.1104821392264624 0 -0.1473277221521419 -0.030190809450498891 0 -0.1412665958737489 -0.01499639375946985 0 -0.1590112835684252 -0.016641718436299541 0 -0.1473277221521419 -0.030190809450498891 0 -0.16187240177723439 -0.041736861825891827 0 -0.1590112835684252 -0.016641718436299541 0 -0.1412665958737489 -0.01499639375946985 0 -0.15390830796439009 0.0013171661340907719 0 -0.1412665958737489 -0.01499639375946985 0 -0.12716660979733599 0.0095071604966818855 0 -0.15390830796439009 0.0013171661340907719 0 -0.1412665958737489 -0.01499639375946985 0 -0.1590112835684252 -0.016641718436299541 0 -0.15390830796439009 0.0013171661340907719 0 -0.11894034767877069 -0.01352240977351583 0 -0.1412665958737489 -0.01499639375946985 0 -0.12716660979733599 0.0095071604966818855 0 -0.1412665958737489 -0.01499639375946985 0 -0.12862488378310541 -0.031309953653028681 0 -0.1473277221521419 -0.030190809450498891 0 -0.1412665958737489 -0.01499639375946985 0 -0.12862488378310541 -0.031309953653028681 0 -0.11894034767877069 -0.01352240977351583 0 -0.1412665958737489 -0.01499639375946985 0 -0.12862488378310541 -0.031309953653028681 0 -0.1473277221521419 -0.030190809450498891 0 -0.12862488378310541 -0.031309953653028681 0 -0.13892778673484829 -0.044680187686239957 0 -0.11598317169246219 -0.047623513546587781 0 -0.12862488378310541 -0.031309953653028681 0 -0.13892778673484829 -0.044680187686239957 0 -0.11598317169246219 -0.047623513546587781 0 -0.13892778673484829 -0.044680187686239957 0 -0.1248513481307208 -0.056407903770398032 0 -0.11598317169246219 -0.047623513546587781 0 -0.13892778673484829 -0.044680187686239957 0 -0.1248513481307208 -0.056407903770398032 0 -0.12775156614772479 -0.066509879246278839 0 -0.1380108631086501 -0.058267402836558783 0 -0.1248513481307208 -0.056407903770398032 0 -0.13892778673484829 -0.044680187686239957 0 -0.1380108631086501 -0.058267402836558783 0 -0.13892778673484829 -0.044680187686239957 0 -0.15235282648664511 -0.058430994655053733 0 -0.16187240177723439 -0.041736861825891827 0 -0.13892778673484829 -0.044680187686239957 0 -0.1380108631086501 -0.058267402836558783 0 -0.15235282648664511 -0.058430994655053733 0 -0.13892778673484829 -0.044680187686239957 0 -0.16187240177723439 -0.041736861825891827 0 -0.1473277221521419 -0.030190809450498891 0 -0.13892778673484829 -0.044680187686239957 0 -0.16187240177723439 -0.041736861825891827 0 -0.1669087970066209 -0.073572501203382101 0 -0.15235282648664511 -0.058430994655053733 0 -0.17143341752452079 -0.055413914205868102 0 -0.15235282648664511 -0.058430994655053733 0 -0.16187240177723439 -0.041736861825891827 0 -0.17143341752452079 -0.055413914205868102 0 -0.18867323158886029 -0.063345075001549997 0 -0.17143341752452079 -0.055413914205868102 0 -0.1825383802307679 -0.041301565368032242 0 -0.16187240177723439 -0.041736861825891827 0 -0.1825383802307679 -0.041301565368032242 0 -0.17653686727154519 -0.022977090075950349 0 -0.16187240177723439 -0.041736861825891827 0 -0.17143341752452079 -0.055413914205868102 0 -0.1825383802307679 -0.041301565368032242 0 -0.17653686727154519 -0.022977090075950349 0 -0.18950058035090861 -0.0095834321890353822 0 -0.19463057633471981 -0.02643434289786898 0 -0.1825383802307679 -0.041301565368032242 0 -0.17653686727154519 -0.022977090075950349 0 -0.19463057633471981 -0.02643434289786898 0 -0.16187240177723439 -0.041736861825891827 0 -0.17653686727154519 -0.022977090075950349 0 -0.1590112835684252 -0.016641718436299541 0 -0.1590112835684252 -0.016641718436299541 0 -0.17170444415764949 -0.0041331330274716662 0 -0.15390830796439009 0.0013171661340907719 0 -0.17170444415764949 -0.0041331330274716662 0 -0.15390830796439009 0.0013171661340907719 0 -0.17653686727154519 -0.022977090075950349 0 -0.1590112835684252 -0.016641718436299541 0 -0.17170444415764949 -0.0041331330274716662 0 -0.17170444415764949 -0.0041331330274716662 0 -0.18950058035090861 -0.0095834321890353822 0 -0.17170444415764949 -0.0041331330274716662 0 -0.18950058035090861 -0.0095834321890353822 0 -0.1832898811322998 0.01081735141828993 0 -0.17653686727154519 -0.022977090075950349 0 -0.17170444415764949 -0.0041331330274716662 0 -0.18950058035090861 -0.0095834321890353822 0 -0.18950058035090861 -0.0095834321890353822 0 -0.20949726077429881 -0.01570767676449172 0 -0.18950058035090861 -0.0095834321890353822 0 -0.20949726077429881 -0.01570767676449172 0 -0.20518915555726081 0.0063160521339462369 0 -0.18950058035090861 -0.0095834321890353822 0 -0.19463057633471981 -0.02643434289786898 0 -0.18950058035090861 -0.0095834321890353822 0 -0.19463057633471981 -0.02643434289786898 0 -0.20949726077429881 -0.01570767676449172 0 -0.20949726077429881 -0.01570767676449172 0 -0.21508030175252779 -0.033186487781323257 0 -0.2294939411976889 -0.021831921339948369 0 -0.19463057633471981 -0.02643434289786898 0 -0.20949726077429881 -0.01570767676449172 0 -0.21508030175252779 -0.033186487781323257 0 -0.20949726077429881 -0.01570767676449172 0 -0.22538834727875931 -0.003116926288211063 0 -0.20518915555726081 0.0063160521339462369 0 -0.18867323158886029 -0.063345075001549997 0 -0.1825383802307679 -0.041301565368032242 0 -0.1997605723185315 -0.043285253606702337 0 -0.18867323158886029 -0.063345075001549997 0 -0.1997605723185315 -0.043285253606702337 0 -0.20355444297641959 -0.058912148511826003 0 -0.19463057633471981 -0.02643434289786898 0 -0.1997605723185315 -0.043285253606702337 0 -0.1825383802307679 -0.041301565368032242 0 -0.19463057633471981 -0.02643434289786898 0 -0.1997605723185315 -0.043285253606702337 0 -0.19463057633471981 -0.02643434289786898 0 -0.1997605723185315 -0.043285253606702337 0 -0.21508030175252779 -0.033186487781323257 0 -0.1997605723185315 -0.043285253606702337 0 -0.21508030175252779 -0.033186487781323257 0 -0.21867459843758119 -0.054853856695434418 0 -0.1997605723185315 -0.043285253606702337 0 -0.20355444297641959 -0.058912148511826003 0 -0.21867459843758119 -0.054853856695434418 0 -0.21867459843758119 -0.054853856695434418 0 -0.23175602664240821 -0.038749350512572528 0 -0.2461326123109826 -0.055308174651202947 0 -0.22678342457253439 -0.073702560796810937 0 -0.21867459843758119 -0.054853856695434418 0 -0.2461326123109826 -0.055308174651202947 0 -0.21508030175252779 -0.033186487781323257 0 -0.23175602664240821 -0.038749350512572528 0 -0.2294939411976889 -0.021831921339948369 0 -0.21508030175252779 -0.033186487781323257 0 -0.21867459843758119 -0.054853856695434418 0 -0.23175602664240821 -0.038749350512572528 0 -0.2461326123109826 -0.055308174651202947 0 -0.24949062162107871 -0.027956165915406329 0 -0.23175602664240821 -0.038749350512572528 0 -0.2461326123109826 -0.055308174651202947 0 -0.24949062162107871 -0.027956165915406329 0 -0.20949726077429881 -0.01570767676449172 0 -0.22538834727875931 -0.003116926288211063 0 -0.2294939411976889 -0.021831921339948369 0 -0.22538834727875931 -0.003116926288211063 0 -0.2294939411976889 -0.021831921339948369 0 -0.24085558219536299 -0.01885853391374126 0 -0.20949726077429881 -0.01570767676449172 0 -0.2294939411976889 -0.021831921339948369 0 -0.2294939411976889 -0.021831921339948369 0 -0.24085558219536299 -0.01885853391374126 0 -0.24949062162107871 -0.027956165915406329 0 -0.2294939411976889 -0.021831921339948369 0 -0.24949062162107871 -0.027956165915406329 0 -0.23175602664240821 -0.038749350512572528 0 -0.2294939411976889 -0.021831921339948369 0 -0.24949062162107871 -0.027956165915406329 0 -0.24085558219536299 -0.01885853391374126 0 -0.24763180198353149 -0.02006090391322984 0 -0.25175475688049992 -0.014484072789302299 0 -0.24085558219536299 -0.01885853391374126 0 -0.24949062162107871 -0.027956165915406329 0 -0.24763180198353149 -0.02006090391322984 0 -0.22538834727875931 -0.003116926288211063 0 -0.24085558219536299 -0.01885853391374126 0 -0.24128403747649099 -0.003068301980002572 0 -0.24128403747649099 -0.003068301980002572 0 -0.25175475688049992 -0.014484072789302299 0 -0.25445223429650399 0.001296013740745124 0 -0.24085558219536299 -0.01885853391374126 0 -0.24128403747649099 -0.003068301980002572 0 -0.25175475688049992 -0.014484072789302299 0 -0.25175475688049992 -0.014484072789302299 0 -0.26622076965958508 -0.0098856513175089398 0 -0.25445223429650399 0.001296013740745124 0 -0.26622076965958508 -0.0098856513175089398 0 -0.25445223429650399 0.001296013740745124 0 -0.27363723852786181 0.0027058176256576621 0 -0.25175475688049992 -0.014484072789302299 0 -0.26161363782186542 -0.021899091393194989 0 -0.26622076965958508 -0.0098856513175089398 0 -0.24949062162107871 -0.027956165915406329 0 -0.26161363782186542 -0.021899091393194989 0 -0.26733794620964579 -0.033422142191652057 0 -0.24949062162107871 -0.027956165915406329 0 -0.26733794620964579 -0.033422142191652057 0 -0.24949062162107871 -0.027956165915406329 0 -0.25379617331213111 -0.021465648559274599 0 -0.26161363782186542 -0.021899091393194989 0 -0.24949062162107871 -0.027956165915406329 0 -0.24763180198353149 -0.02006090391322984 0 -0.25379617331213111 -0.021465648559274599 0 -0.25175475688049992 -0.014484072789302299 0 -0.25379617331213111 -0.021465648559274599 0 -0.26161363782186542 -0.021899091393194989 0 -0.24763180198353149 -0.02006090391322984 0 -0.25175475688049992 -0.014484072789302299 0 -0.25379617331213111 -0.021465648559274599 0 -0.26161363782186542 -0.021899091393194989 0 -0.27261821491741028 -0.023296801838334609 0 -0.26733794620964579 -0.033422142191652057 0 -0.27261821491741028 -0.023296801838334609 0 -0.27894948583882412 -0.031790115301283423 0 -0.26733794620964579 -0.033422142191652057 0 -0.27261821491741028 -0.023296801838334609 0 -0.27887420054768691 -0.016003300149823069 0 -0.26622076965958508 -0.0098856513175089398 0 -0.26161363782186542 -0.021899091393194989 0 -0.27261821491741028 -0.023296801838334609 0 -0.26622076965958508 -0.0098856513175089398 0 -0.27261821491741028 -0.023296801838334609 0 -0.27887420054768691 -0.016003300149823069 0 -0.28339956498270857 -0.025602016534572329 0 -0.27261821491741028 -0.023296801838334609 0 -0.28339956498270857 -0.025602016534572329 0 -0.27894948583882412 -0.031790115301283423 0 -0.26622076965958508 -0.0098856513175089398 0 -0.2771889831843754 -0.0068077134963978672 0 -0.27363723852786181 0.0027058176256576621 0 -0.27887420054768691 -0.016003300149823069 0 -0.2771889831843754 -0.0068077134963978672 0 -0.284717082850938 -0.0087291656650594282 0 -0.27887420054768691 -0.016003300149823069 0 -0.26622076965958508 -0.0098856513175089398 0 -0.2771889831843754 -0.0068077134963978672 0 -0.2771889831843754 -0.0068077134963978672 0 -0.28249562433580527 -0.0021262679752555671 0 -0.27363723852786181 0.0027058176256576621 0 -0.2771889831843754 -0.0068077134963978672 0 -0.28249562433580527 -0.0021262679752555671 0 -0.284717082850938 -0.0087291656650594282 0 -0.28249562433580527 -0.0021262679752555671 0 -0.28979225651653689 -0.0028564736825077478 0 -0.284717082850938 -0.0087291656650594282 0 -0.28979225651653689 -0.0028564736825077478 0 -0.29429584126494102 -0.0087693092716347489 0 -0.29799676537030689 -0.0014857598218393779 0 -0.28979225651653689 -0.0028564736825077478 0 -0.29429584126494102 -0.0087693092716347489 0 -0.284717082850938 -0.0087291656650594282 0 -0.29429584126494102 -0.0087693092716347489 0 -0.284717082850938 -0.0087291656650594282 0 -0.28827952353842828 -0.01708115303313781 0 -0.29429584126494102 -0.0087693092716347489 0 -0.28827952353842828 -0.01708115303313781 0 -0.29629977620582709 -0.018169042688396839 0 -0.27887420054768691 -0.016003300149823069 0 -0.284717082850938 -0.0087291656650594282 0 -0.28827952353842828 -0.01708115303313781 0 -0.27887420054768691 -0.016003300149823069 0 -0.28827952353842828 -0.01708115303313781 0 -0.28339956498270857 -0.025602016534572329 0 -0.28827952353842828 -0.01708115303313781 0 -0.28339956498270857 -0.025602016534572329 0 -0.29192401428431197 -0.02500753299160096 0 -0.28339956498270857 -0.025602016534572329 0 -0.29192401428431197 -0.02500753299160096 0 -0.28811731487782322 -0.03127163343683436 0 -0.28339956498270857 -0.025602016534572329 0 -0.28811731487782322 -0.03127163343683436 0 -0.28391290912439199 -0.031887970935147662 0 -0.28339956498270857 -0.025602016534572329 0 -0.28391290912439199 -0.031887970935147662 0 -0.27894948583882412 -0.031790115301283423 0 -0.29192401428431197 -0.02500753299160096 0 -0.29594614900483218 -0.032178807321089763 0 -0.28811731487782322 -0.03127163343683436 0 -0.29192401428431197 -0.02500753299160096 0 -0.29959167997800068 -0.025476245298182171 0 -0.29594614900483218 -0.032178807321089763 0 -0.28827952353842828 -0.01708115303313781 0 -0.29192401428431197 -0.02500753299160096 0 -0.29629977620582709 -0.018169042688396839 0 -0.29192401428431197 -0.02500753299160096 0 -0.29629977620582709 -0.018169042688396839 0 -0.29959167997800068 -0.025476245298182171 0 -0.29629977620582709 -0.018169042688396839 0 -0.30323411805147221 -0.02002320180597561 0 -0.30055653740463728 -0.012601328037984919 0 -0.29629977620582709 -0.018169042688396839 0 -0.30323411805147221 -0.02002320180597561 0 -0.29959167997800068 -0.025476245298182171 0 -0.30323411805147221 -0.02002320180597561 0 -0.30744607057772538 -0.01442650364168027 0 -0.30055653740463728 -0.012601328037984919 0 -0.29959167997800068 -0.025476245298182171 0 -0.30466710656626772 -0.03137644102885348 0 -0.29594614900483218 -0.032178807321089763 0 -0.30323411805147221 -0.02002320180597561 0 -0.29959167997800068 -0.025476245298182171 0 -0.30588228556265878 -0.025853127277383151 0 -0.29959167997800068 -0.025476245298182171 0 -0.30588228556265878 -0.025853127277383151 0 -0.30466710656626772 -0.03137644102885348 0 -0.30588228556265878 -0.025853127277383151 0 -0.31102220705251399 -0.02799749818517136 0 -0.30466710656626772 -0.03137644102885348 0 -0.30588228556265878 -0.025853127277383151 0 -0.31102220705251399 -0.02799749818517136 0 -0.31211244184299669 -0.022472195243399929 0 -0.31102220705251399 -0.02799749818517136 0 -0.31108014597656458 -0.033634118145371039 0 -0.30466710656626772 -0.03137644102885348 0 -0.30323411805147221 -0.02002320180597561 0 -0.31211244184299669 -0.022472195243399929 0 -0.30744607057772538 -0.01442650364168027 0 -0.31211244184299669 -0.022472195243399929 0 -0.30744607057772538 -0.01442650364168027 0 -0.31531470951244212 -0.0154209744093768 0 -0.30323411805147221 -0.02002320180597561 0 -0.30588228556265878 -0.025853127277383151 0 -0.31211244184299669 -0.022472195243399929 0 -0.30744607057772538 -0.01442650364168027 0 -0.30378972535931809 -0.0058143035547737563 0 -0.31250898135027622 -0.0086857241839327151 0 -0.30744607057772538 -0.01442650364168027 0 -0.31531470951244212 -0.0154209744093768 0 -0.31250898135027622 -0.0086857241839327151 0 -0.29799676537030689 -0.0014857598218393779 0 -0.30378972535931809 -0.0058143035547737563 0 -0.31782108018962713 0.00054412690020929884 0 -0.30378972535931809 -0.0058143035547737563 0 -0.31250898135027622 -0.0086857241839327151 0 -0.31782108018962713 0.00054412690020929884 0 -0.29429584126494102 -0.0087693092716347489 0 -0.29799676537030689 -0.0014857598218393779 0 -0.30378972535931809 -0.0058143035547737563 0 -0.29429584126494102 -0.0087693092716347489 0 -0.30378972535931809 -0.0058143035547737563 0 -0.30055653740463728 -0.012601328037984919 0 -0.30744607057772538 -0.01442650364168027 0 -0.30378972535931809 -0.0058143035547737563 0 -0.30055653740463728 -0.012601328037984919 0 -0.29429584126494102 -0.0087693092716347489 0 -0.29629977620582709 -0.018169042688396839 0 -0.30055653740463728 -0.012601328037984919 0 -0.30387776194788702 -0.05345516306955618 0 -0.3053520222421548 -0.046704708650119338 0 -0.29467262502624458 -0.053648809423448678 0 -0.30288071454149468 -0.059217761993481263 0 -0.29467262502624458 -0.053648809423448678 0 -0.29503956421242661 -0.066382050019581113 0 -0.30387776194788702 -0.05345516306955618 0 -0.30288071454149468 -0.059217761993481263 0 -0.29467262502624458 -0.053648809423448678 0 -0.30387776194788702 -0.05345516306955618 0 -0.30288071454149468 -0.059217761993481263 0 -0.31260568598165389 -0.05424937221117547 0 -0.30288071454149468 -0.059217761993481263 0 -0.3123413018411676 -0.06229503864178499 0 -0.31260568598165389 -0.05424937221117547 0 -0.30387776194788702 -0.05345516306955618 0 -0.3053520222421548 -0.046704708650119338 0 -0.31260568598165389 -0.05424937221117547 0 -0.30665094044174668 -0.039865430074447053 0 -0.31108014597656458 -0.033634118145371039 0 -0.31686809546174621 -0.036103722337029173 0 -0.30665094044174668 -0.039865430074447053 0 -0.31108014597656458 -0.033634118145371039 0 -0.30466710656626772 -0.03137644102885348 0 -0.30665094044174668 -0.039865430074447053 0 -0.30466710656626772 -0.03137644102885348 0 -0.29594614900483218 -0.032178807321089763 0 -0.30665094044174668 -0.039865430074447053 0 -0.3053520222421548 -0.046704708650119338 0 -0.29279634008099609 -0.041219107851216429 0 -0.30665094044174668 -0.039865430074447053 0 -0.2851852707982121 -0.038888118467900523 0 -0.3053520222421548 -0.046704708650119338 0 -0.29279634008099609 -0.041219107851216429 0 -0.28983632723568847 -0.043642976925365187 0 -0.3053520222421548 -0.046704708650119338 0 -0.28983632723568847 -0.043642976925365187 0 -0.28361106027449562 -0.047331227157407098 0 -0.30665094044174668 -0.039865430074447053 0 -0.29594614900483218 -0.032178807321089763 0 -0.2851852707982121 -0.038888118467900523 0 -0.30665094044174668 -0.039865430074447053 0 -0.29279634008099609 -0.041219107851216429 0 -0.2851852707982121 -0.038888118467900523 0 -0.29279634008099609 -0.041219107851216429 0 -0.28983632723568847 -0.043642976925365187 0 -0.2851852707982121 -0.038888118467900523 0 -0.29594614900483218 -0.032178807321089763 0 -0.28811731487782322 -0.03127163343683436 0 -0.2851852707982121 -0.038888118467900523 0 -0.28811731487782322 -0.03127163343683436 0 -0.2851852707982121 -0.038888118467900523 0 -0.28391290912439199 -0.031887970935147662 0 -0.2851852707982121 -0.038888118467900523 0 -0.28080160642074198 -0.038688534381011497 0 -0.2851852707982121 -0.038888118467900523 0 -0.28391290912439199 -0.031887970935147662 0 -0.27894948583882412 -0.031790115301283423 0 -0.2851852707982121 -0.038888118467900523 0 -0.28361106027449562 -0.047331227157407098 0 -0.28080160642074198 -0.038688534381011497 0 -0.28983632723568847 -0.043642976925365187 0 -0.2851852707982121 -0.038888118467900523 0 -0.28361106027449562 -0.047331227157407098 0 -0.29279634008099609 -0.041219107851216429 0 -0.2851852707982121 -0.038888118467900523 0 -0.3053520222421548 -0.046704708650119338 0 -0.28361106027449562 -0.047331227157407098 0 -0.29467262502624458 -0.053648809423448678 0 -0.3053520222421548 -0.046704708650119338 0 -0.28361106027449562 -0.047331227157407098 0 -0.28361106027449562 -0.047331227157407098 0 -0.29467262502624458 -0.053648809423448678 0 -0.28351494435787322 -0.060342252451038123 0 -0.29467262502624458 -0.053648809423448678 0 -0.28351494435787322 -0.060342252451038123 0 -0.29503956421242661 -0.066382050019581113 0 -0.28351494435787322 -0.060342252451038123 0 -0.27497313905500942 -0.053222339095729501 0 -0.26788549850543558 -0.064860007170021217 0 -0.27497313905500942 -0.053222339095729501 0 -0.26503452108500558 -0.049109761461220383 0 -0.26788549850543558 -0.064860007170021217 0 -0.28361106027449562 -0.047331227157407098 0 -0.27497313905500942 -0.053222339095729501 0 -0.27481967105223681 -0.044468447238960658 0 -0.28361106027449562 -0.047331227157407098 0 -0.28351494435787322 -0.060342252451038123 0 -0.27497313905500942 -0.053222339095729501 0 -0.27497313905500942 -0.053222339095729501 0 -0.27481967105223681 -0.044468447238960658 0 -0.26503452108500558 -0.049109761461220383 0 -0.2851852707982121 -0.038888118467900523 0 -0.28080160642074198 -0.038688534381011497 0 -0.26733794620964579 -0.033422142191652057 0 -0.2851852707982121 -0.038888118467900523 0 -0.27894948583882412 -0.031790115301283423 0 -0.26733794620964579 -0.033422142191652057 0 -0.2851852707982121 -0.038888118467900523 0 -0.26733794620964579 -0.033422142191652057 0 -0.27481967105223681 -0.044468447238960658 0 -0.26733794620964579 -0.033422142191652057 0 -0.26503452108500558 -0.049109761461220383 0 -0.28080160642074198 -0.038688534381011497 0 -0.27481967105223681 -0.044468447238960658 0 -0.26733794620964579 -0.033422142191652057 0 -0.28361106027449562 -0.047331227157407098 0 -0.28080160642074198 -0.038688534381011497 0 -0.27481967105223681 -0.044468447238960658 0 -0.2461326123109826 -0.055308174651202947 0 -0.24949062162107871 -0.027956165915406329 0 -0.25699892530667812 -0.04144906105487043 0 -0.26733794620964579 -0.033422142191652057 0 -0.25699892530667812 -0.04144906105487043 0 -0.26503452108500558 -0.049109761461220383 0 -0.24949062162107871 -0.027956165915406329 0 -0.26733794620964579 -0.033422142191652057 0 -0.25699892530667812 -0.04144906105487043 0 -0.2461326123109826 -0.055308174651202947 0 -0.25699892530667812 -0.04144906105487043 0 -0.26503452108500558 -0.049109761461220383 0 -0.2461326123109826 -0.055308174651202947 0 -0.26503452108500558 -0.049109761461220383 0 -0.26788549850543558 -0.064860007170021217 0 -0.24277460300089451 -0.082660183387000596 0 -0.2461326123109826 -0.055308174651202947 0 -0.26788549850543558 -0.064860007170021217 0 -0.24277460300089451 -0.082660183387000596 0 -0.2693309697009113 -0.083705062642459721 0 -0.26788549850543558 -0.064860007170021217 0 -0.24277460300089451 -0.082660183387000596 0 -0.2693309697009113 -0.083705062642459721 0 -0.25824639025713519 -0.1002016063446013 0 -0.2693309697009113 -0.083705062642459721 0 -0.27619091415007352 -0.098312060036498075 0 -0.28572127165967498 -0.084991803941222965 0 -0.2693309697009113 -0.083705062642459721 0 -0.28259405611946159 -0.072857471581559488 0 -0.28572127165967498 -0.084991803941222965 0 -0.2693309697009113 -0.083705062642459721 0 -0.26788549850543558 -0.064860007170021217 0 -0.28259405611946159 -0.072857471581559488 0 -0.28351494435787322 -0.060342252451038123 0 -0.26788549850543558 -0.064860007170021217 0 -0.28259405611946159 -0.072857471581559488 0 -0.25661321536168652 -0.1165333872518117 0 -0.25824639025713519 -0.1002016063446013 0 -0.2719101374322152 -0.11489141184942819 0 -0.26473979149963378 -0.1229813646565117 0 -0.25661321536168652 -0.1165333872518117 0 -0.2719101374322152 -0.11489141184942819 0 -0.26473979149963378 -0.1229813646565117 0 -0.25661321536168652 -0.1165333872518117 0 -0.25850907120502509 -0.12694145683918931 0 -0.25661321536168652 -0.1165333872518117 0 -0.25074896958116072 -0.12623220477356401 0 -0.25850907120502509 -0.12694145683918931 0 -0.23941659369080631 -0.11001219212279841 0 -0.25661321536168652 -0.1165333872518117 0 -0.25824639025713519 -0.1002016063446013 0 -0.27619091415007352 -0.098312060036498075 0 -0.2719101374322152 -0.11489141184942819 0 -0.28459489616305428 -0.11046384788143621 0 -0.2693309697009113 -0.083705062642459721 0 -0.25824639025713519 -0.1002016063446013 0 -0.27619091415007352 -0.098312060036498075 0 -0.25824639025713519 -0.1002016063446013 0 -0.27619091415007352 -0.098312060036498075 0 -0.2719101374322152 -0.11489141184942819 0 -0.2719101374322152 -0.11489141184942819 0 -0.28620089297729029 -0.12447629827749659 0 -0.28459489616305428 -0.11046384788143621 0 -0.2719101374322152 -0.11489141184942819 0 -0.28620089297729029 -0.12447629827749659 0 -0.27281217822798981 -0.1254728102371292 0 -0.26473979149963378 -0.1229813646565117 0 -0.2719101374322152 -0.11489141184942819 0 -0.27281217822798981 -0.1254728102371292 0 -0.28620089297729029 -0.12447629827749659 0 -0.29666813476340048 -0.1133451358397615 0 -0.30384372506448321 -0.1230867912680753 0 -0.28620089297729029 -0.12447629827749659 0 -0.28459489616305428 -0.11046384788143621 0 -0.29666813476340048 -0.1133451358397615 0 -0.27619091415007352 -0.098312060036498075 0 -0.28459489616305428 -0.11046384788143621 0 -0.29261636436127048 -0.099949453799237892 0 -0.27619091415007352 -0.098312060036498075 0 -0.29261636436127048 -0.099949453799237892 0 -0.28572127165967498 -0.084991803941222965 0 -0.28459489616305428 -0.11046384788143621 0 -0.29666813476340048 -0.1133451358397615 0 -0.29261636436127048 -0.099949453799237892 0 -0.29666813476340048 -0.1133451358397615 0 -0.29261636436127048 -0.099949453799237892 0 -0.31265045857664558 -0.1045694367362775 0 -0.29261636436127048 -0.099949453799237892 0 -0.30017849228926369 -0.087341998557851824 0 -0.31265045857664558 -0.1045694367362775 0 -0.29666813476340048 -0.1133451358397615 0 -0.30384372506448321 -0.1230867912680753 0 -0.31265045857664558 -0.1045694367362775 0 -0.30384372506448321 -0.1230867912680753 0 -0.31265045857664558 -0.1045694367362775 0 -0.31660117337291221 -0.1318563968139303 0 -0.29384240456523503 -0.077214380072118949 0 -0.29503956421242661 -0.066382050019581113 0 -0.28259405611946159 -0.072857471581559488 0 -0.28351494435787322 -0.060342252451038123 0 -0.29503956421242661 -0.066382050019581113 0 -0.28259405611946159 -0.072857471581559488 0 -0.29384240456523503 -0.077214380072118949 0 -0.28259405611946159 -0.072857471581559488 0 -0.28572127165967498 -0.084991803941222965 0 -0.29261636436127048 -0.099949453799237892 0 -0.28572127165967498 -0.084991803941222965 0 -0.30017849228926369 -0.087341998557851824 0 -0.29384240456523503 -0.077214380072118949 0 -0.28572127165967498 -0.084991803941222965 0 -0.30017849228926369 -0.087341998557851824 0 -0.30017849228926369 -0.087341998557851824 0 -0.31360643674210997 -0.085278918796361514 0 -0.31265045857664558 -0.1045694367362775 0 -0.29384240456523503 -0.077214380072118949 0 -0.30017849228926369 -0.087341998557851824 0 -0.30457615671232557 -0.076182064934387714 0 -0.30017849228926369 -0.087341998557851824 0 -0.30457615671232557 -0.076182064934387714 0 -0.31360643674210997 -0.085278918796361514 0 -0.30457615671232557 -0.076182064934387714 0 -0.3165834315049123 -0.072426724921389365 0 -0.31360643674210997 -0.085278918796361514 0 -0.30457615671232557 -0.076182064934387714 0 -0.30564108435926868 -0.06725869540514369 0 -0.3165834315049123 -0.072426724921389365 0 -0.29384240456523503 -0.077214380072118949 0 -0.29503956421242661 -0.066382050019581113 0 -0.30457615671232557 -0.076182064934387714 0 -0.29503956421242661 -0.066382050019581113 0 -0.30457615671232557 -0.076182064934387714 0 -0.30564108435926868 -0.06725869540514369 0 -0.30288071454149468 -0.059217761993481263 0 -0.29503956421242661 -0.066382050019581113 0 -0.30564108435926868 -0.06725869540514369 0 -0.30288071454149468 -0.059217761993481263 0 -0.3123413018411676 -0.06229503864178499 0 -0.30564108435926868 -0.06725869540514369 0 -0.3123413018411676 -0.06229503864178499 0 -0.30564108435926868 -0.06725869540514369 0 -0.3165834315049123 -0.072426724921389365 0 -0.3165834315049123 -0.072426724921389365 0 -0.32811741844918391 -0.087423955583301557 0 -0.33014879737880659 -0.071143570277152068 0 -0.3123413018411676 -0.06229503864178499 0 -0.32113708335130331 -0.062913289436134612 0 -0.3165834315049123 -0.072426724921389365 0 -0.32113708335130331 -0.062913289436134612 0 -0.33014879737880659 -0.071143570277152068 0 -0.32845265619327069 -0.059488120777393197 0 -0.32113708335130331 -0.062913289436134612 0 -0.3165834315049123 -0.072426724921389365 0 -0.33014879737880659 -0.071143570277152068 0 -0.31360643674210997 -0.085278918796361514 0 -0.32811741844918391 -0.087423955583301557 0 -0.31265045857664558 -0.1045694367362775 0 -0.3165834315049123 -0.072426724921389365 0 -0.31360643674210997 -0.085278918796361514 0 -0.32811741844918391 -0.087423955583301557 0 -0.33084039820140548 -0.10582389505519781 0 -0.3450796230298987 -0.079791393296465563 0 -0.32811741844918391 -0.087423955583301557 0 -0.33489391071165858 -0.079009839279477301 0 -0.3450796230298987 -0.079791393296465563 0 -0.32811741844918391 -0.087423955583301557 0 -0.33489391071165858 -0.079009839279477301 0 -0.33014879737880659 -0.071143570277152068 0 -0.32811741844918391 -0.087423955583301557 0 -0.33084039820140548 -0.10582389505519781 0 -0.3450796230298987 -0.079791393296465563 0 -0.33489391071165858 -0.079009839279477301 0 -0.34259217600780328 -0.075742612128046033 0 -0.3450796230298987 -0.079791393296465563 0 -0.34259217600780328 -0.075742612128046033 0 -0.33659178726629257 -0.073237244308836935 0 -0.33873226496690167 -0.067052955550672325 0 -0.33489391071165858 -0.079009839279477301 0 -0.34259217600780328 -0.075742612128046033 0 -0.33659178726629257 -0.073237244308836935 0 -0.34259217600780328 -0.075742612128046033 0 -0.33873226496690167 -0.067052955550672325 0 -0.34571306109263872 -0.060597141881795109 0 -0.33014879737880659 -0.071143570277152068 0 -0.32845265619327069 -0.059488120777393197 0 -0.33642097797390708 -0.059172738857424322 0 -0.33873226496690167 -0.067052955550672325 0 -0.33014879737880659 -0.071143570277152068 0 -0.33642097797390708 -0.059172738857424322 0 -0.33489391071165858 -0.079009839279477301 0 -0.33659178726629257 -0.073237244308836935 0 -0.33014879737880659 -0.071143570277152068 0 -0.33659178726629257 -0.073237244308836935 0 -0.33873226496690167 -0.067052955550672325 0 -0.33014879737880659 -0.071143570277152068 0 -0.31265045857664558 -0.1045694367362775 0 -0.33084039820140548 -0.10582389505519781 0 -0.31660117337291221 -0.1318563968139303 0 -0.33084039820140548 -0.10582389505519781 0 -0.31660117337291221 -0.1318563968139303 0 -0.3310448730978095 -0.12716432410153991 0 -0.33084039820140548 -0.10582389505519781 0 -0.31660117337291221 -0.1318563968139303 0 -0.32811741844918391 -0.087423955583301557 0 -0.31265045857664558 -0.1045694367362775 0 -0.33084039820140548 -0.10582389505519781 0 -0.33084039820140548 -0.10582389505519781 0 -0.34687902118687902 -0.097686153277585869 0 -0.3450796230298987 -0.079791393296465563 0 -0.33084039820140548 -0.10582389505519781 0 -0.34892928668163709 -0.11292278860744361 0 -0.34687902118687902 -0.097686153277585869 0 -0.33084039820140548 -0.10582389505519781 0 -0.33994260749638638 -0.1200966028809774 0 -0.34892928668163709 -0.11292278860744361 0 -0.33084039820140548 -0.10582389505519781 0 -0.33994260749638638 -0.1200966028809774 0 -0.3310448730978095 -0.12716432410153991 0 -0.34892928668163709 -0.11292278860744361 0 -0.36370686734751329 -0.1086822987256502 0 -0.36306954132545999 -0.12583347830204639 0 -0.34892928668163709 -0.11292278860744361 0 -0.34803039317708429 -0.12827044755731409 0 -0.36306954132545999 -0.12583347830204639 0 -0.33994260749638638 -0.1200966028809774 0 -0.34892928668163709 -0.11292278860744361 0 -0.34803039317708429 -0.12827044755731409 0 -0.34892928668163709 -0.11292278860744361 0 -0.34687902118687902 -0.097686153277585869 0 -0.36370686734751329 -0.1086822987256502 0 -0.34687902118687902 -0.097686153277585869 0 -0.36370686734751329 -0.1086822987256502 0 -0.36101285630625701 -0.091119670485676318 0 -0.36370686734751329 -0.1086822987256502 0 -0.3710168798650903 -0.098752521635988438 0 -0.38013010237982348 -0.1153213818989289 0 -0.36370686734751329 -0.1086822987256502 0 -0.3710168798650903 -0.098752521635988438 0 -0.36101285630625701 -0.091119670485676318 0 -0.36370686734751329 -0.1086822987256502 0 -0.36306954132545999 -0.12583347830204639 0 -0.38013010237982348 -0.1153213818989289 0 -0.36306954132545999 -0.12583347830204639 0 -0.37604978349753682 -0.1305695757879414 0 -0.38013010237982348 -0.1153213818989289 0 -0.36370686734751329 -0.1086822987256502 0 -0.36306954132545999 -0.12583347830204639 0 -0.35551676505002328 -0.069585988236698079 0 -0.34955052591663421 -0.074256111452824458 0 -0.35575143471007681 -0.080598778842528168 0 -0.35551676505002328 -0.069585988236698079 0 -0.35575143471007681 -0.080598778842528168 0 -0.36212310065804543 -0.073285000798704106 0 -0.35551676505002328 -0.069585988236698079 0 -0.35600812805493531 -0.061716210673030361 0 -0.34571306109263872 -0.060597141881795109 0 -0.35551676505002328 -0.069585988236698079 0 -0.36348753307120718 -0.064754115209235533 0 -0.35600812805493531 -0.061716210673030361 0 -0.35551676505002328 -0.069585988236698079 0 -0.34955052591663421 -0.074256111452824458 0 -0.34571306109263872 -0.060597141881795109 0 -0.34259217600780328 -0.075742612128046033 0 -0.34571306109263872 -0.060597141881795109 0 -0.34259217600780328 -0.075742612128046033 0 -0.34955052591663421 -0.074256111452824458 0 -0.34571306109263872 -0.060597141881795109 0 -0.34955052591663421 -0.074256111452824458 0 -0.3450796230298987 -0.079791393296465563 0 -0.35046082525328182 -0.079684157210279577 0 -0.34259217600780328 -0.075742612128046033 0 -0.34955052591663421 -0.074256111452824458 0 -0.3450796230298987 -0.079791393296465563 0 -0.34687902118687902 -0.097686153277585869 0 -0.3450796230298987 -0.079791393296465563 0 -0.35183026719721022 -0.085746882652988368 0 -0.3450796230298987 -0.079791393296465563 0 -0.35046082525328182 -0.079684157210279577 0 -0.35183026719721022 -0.085746882652988368 0 -0.34687902118687902 -0.097686153277585869 0 -0.35183026719721022 -0.085746882652988368 0 -0.36101285630625701 -0.091119670485676318 0 -0.35183026719721022 -0.085746882652988368 0 -0.35575143471007681 -0.080598778842528168 0 -0.36101285630625701 -0.091119670485676318 0 -0.34955052591663421 -0.074256111452824458 0 -0.35046082525328182 -0.079684157210279577 0 -0.35575143471007681 -0.080598778842528168 0 -0.35046082525328182 -0.079684157210279577 0 -0.35183026719721022 -0.085746882652988368 0 -0.35575143471007681 -0.080598778842528168 0 -0.35575143471007681 -0.080598778842528168 0 -0.36535178508285582 -0.079935000031701384 0 -0.36101285630625701 -0.091119670485676318 0 -0.3710168798650903 -0.098752521635988438 0 -0.36101285630625701 -0.091119670485676318 0 -0.37655611353167889 -0.08415547958917069 0 -0.36535178508285582 -0.079935000031701384 0 -0.37050798537606372 -0.071551121673357337 0 -0.37655611353167889 -0.08415547958917069 0 -0.36535178508285582 -0.079935000031701384 0 -0.36101285630625701 -0.091119670485676318 0 -0.37655611353167889 -0.08415547958917069 0 -0.35575143471007681 -0.080598778842528168 0 -0.36535178508285582 -0.079935000031701384 0 -0.36212310065804543 -0.073285000798704106 0 -0.36535178508285582 -0.079935000031701384 0 -0.37050798537606372 -0.071551121673357337 0 -0.36212310065804543 -0.073285000798704106 0 -0.37050798537606372 -0.071551121673357337 0 -0.36212310065804543 -0.073285000798704106 0 -0.36348753307120718 -0.064754115209235533 0 -0.35551676505002328 -0.069585988236698079 0 -0.36212310065804543 -0.073285000798704106 0 -0.36348753307120718 -0.064754115209235533 0 -0.37050798537606372 -0.071551121673357337 0 -0.3720135013680746 -0.062199750492047727 0 -0.38074771570066612 -0.069485435524499747 0 -0.37050798537606372 -0.071551121673357337 0 -0.36348753307120718 -0.064754115209235533 0 -0.3720135013680746 -0.062199750492047727 0 -0.36366302952674412 -0.054989232429091393 0 -0.34883394617747321 -0.045451671635544019 0 -0.377918264125567 -0.044613536529405057 0 -0.3720135013680746 -0.062199750492047727 0 -0.36366302952674412 -0.054989232429091393 0 -0.37531608161951241 -0.054597891757102182 0 -0.36366302952674412 -0.054989232429091393 0 -0.377918264125567 -0.044613536529405057 0 -0.37531608161951241 -0.054597891757102182 0 -0.36348753307120718 -0.064754115209235533 0 -0.3720135013680746 -0.062199750492047727 0 -0.36366302952674412 -0.054989232429091393 0 -0.36348753307120718 -0.064754115209235533 0 -0.36366302952674412 -0.054989232429091393 0 -0.35600812805493531 -0.061716210673030361 0 -0.35600812805493531 -0.061716210673030361 0 -0.35346076449617131 -0.055835396405036833 0 -0.34571306109263872 -0.060597141881795109 0 -0.36366302952674412 -0.054989232429091393 0 -0.35600812805493531 -0.061716210673030361 0 -0.35346076449617131 -0.055835396405036833 0 -0.36366302952674412 -0.054989232429091393 0 -0.35346076449617131 -0.055835396405036833 0 -0.34883394617747321 -0.045451671635544019 0 -0.34571306109263872 -0.060597141881795109 0 -0.34883394617747321 -0.045451671635544019 0 -0.33804853739331497 -0.051518032212356901 0 -0.34571306109263872 -0.060597141881795109 0 -0.34883394617747321 -0.045451671635544019 0 -0.35346076449617131 -0.055835396405036833 0 -0.34571306109263872 -0.060597141881795109 0 -0.34883394617747321 -0.045451671635544019 0 -0.34958227972881611 -0.041820053287534728 0 -0.36586946808493698 -0.042561593546133862 0 -0.34652854956439938 -0.035582026386845308 0 -0.34958227972881611 -0.041820053287534728 0 -0.3485154316088398 -0.024987600966012321 0 -0.34958227972881611 -0.041820053287534728 0 -0.3612857617902005 -0.031806827529165707 0 -0.36586946808493698 -0.042561593546133862 0 -0.34883394617747321 -0.045451671635544019 0 -0.34958227972881611 -0.041820053287534728 0 -0.36586946808493698 -0.042561593546133862 0 -0.34652854956439938 -0.035582026386845308 0 -0.34958227972881611 -0.041820053287534728 0 -0.34058696205188582 -0.038073071817179033 0 -0.34652854956439938 -0.035582026386845308 0 -0.34599310641779241 -0.0304481111859463 0 -0.34102317109375191 -0.031939393829359043 0 -0.34883394617747321 -0.045451671635544019 0 -0.34958227972881611 -0.041820053287534728 0 -0.34958227972881611 -0.041820053287534728 0 -0.3612857617902005 -0.031806827529165707 0 -0.35799234254321632 -0.027432744866241629 0 -0.3612857617902005 -0.031806827529165707 0 -0.36586946808493698 -0.042561593546133862 0 -0.36959331310531829 -0.031954041508409511 0 -0.34883394617747321 -0.045451671635544019 0 -0.377918264125567 -0.044613536529405057 0 -0.34883394617747321 -0.045451671635544019 0 -0.36586946808493698 -0.042561593546133862 0 -0.377918264125567 -0.044613536529405057 0 -0.36586946808493698 -0.042561593546133862 0 -0.37330575909772251 -0.038255008438460671 0 -0.377918264125567 -0.044613536529405057 0 -0.37330575909772251 -0.038255008438460671 0 -0.36959331310531829 -0.031954041508409511 0 -0.37984199107506789 -0.033890862169894252 0 -0.36586946808493698 -0.042561593546133862 0 -0.37330575909772251 -0.038255008438460671 0 -0.36959331310531829 -0.031954041508409511 0 -0.36959331310531829 -0.031954041508409511 0 -0.3659723299812645 -0.021201943470906238 0 -0.37572716706011239 -0.0240696977567233 0 -0.3659723299812645 -0.021201943470906238 0 -0.37738686226534363 -0.01323459619958703 0 -0.37572716706011239 -0.0240696977567233 0 -0.3659723299812645 -0.021201943470906238 0 -0.35512899867258418 -0.014902155177359849 0 -0.35799234254321632 -0.027432744866241629 0 -0.3612857617902005 -0.031806827529165707 0 -0.36959331310531829 -0.031954041508409511 0 -0.3659723299812645 -0.021201943470906238 0 -0.3612857617902005 -0.031806827529165707 0 -0.3659723299812645 -0.021201943470906238 0 -0.35799234254321632 -0.027432744866241629 0 -0.36656517708657399 -0.0072088866496940272 0 -0.35512899867258418 -0.014902155177359849 0 -0.36067571761635259 0.01201574293281492 0 -0.36656517708657399 -0.0072088866496940272 0 -0.37738686226534363 -0.01323459619958703 0 -0.37366197689732522 0.0012785186665680559 0 -0.3659723299812645 -0.021201943470906238 0 -0.36656517708657399 -0.0072088866496940272 0 -0.37738686226534363 -0.01323459619958703 0 -0.3659723299812645 -0.021201943470906238 0 -0.36656517708657399 -0.0072088866496940272 0 -0.35512899867258418 -0.014902155177359849 0 -0.35512899867258418 -0.014902155177359849 0 -0.36067571761635259 0.01201574293281492 0 -0.35512899867258418 -0.014902155177359849 0 -0.34968102917954508 -0.0065141269123413824 0 -0.36067571761635259 0.01201574293281492 0 -0.34968102917954508 -0.0065141269123413824 0 -0.3474106639861696 -0.015857201421736269 0 -0.34036330428034017 -0.01233739595199943 0 -0.35512899867258418 -0.014902155177359849 0 -0.34968102917954508 -0.0065141269123413824 0 -0.3474106639861696 -0.015857201421736269 0 -0.34958227972881611 -0.041820053287534728 0 -0.35512899867258418 -0.014902155177359849 0 -0.35799234254321632 -0.027432744866241629 0 -0.34958227972881611 -0.041820053287534728 0 -0.35512899867258418 -0.014902155177359849 0 -0.3485154316088398 -0.024987600966012321 0 -0.34958227972881611 -0.041820053287534728 0 -0.35512899867258418 -0.014902155177359849 0 -0.3474106639861696 -0.015857201421736269 0 -0.3485154316088398 -0.024987600966012321 0 -0.34295629121873428 -0.0205231094303201 0 -0.35512899867258418 -0.014902155177359849 0 -0.3474106639861696 -0.015857201421736269 0 -0.3485154316088398 -0.024987600966012321 0 -0.34652854956439938 -0.035582026386845308 0 -0.3485154316088398 -0.024987600966012321 0 -0.34599310641779241 -0.0304481111859463 0 -0.3485154316088398 -0.024987600966012321 0 -0.34351963881718828 -0.026703426119618609 0 -0.34295629121873428 -0.0205231094303201 0 -0.3485154316088398 -0.024987600966012321 0 -0.34599310641779241 -0.0304481111859463 0 -0.34351963881718828 -0.026703426119618609 0 -0.33870192877601901 -0.025597296515807031 0 -0.34351963881718828 -0.026703426119618609 0 -0.34102317109375191 -0.031939393829359043 0 -0.34599310641779241 -0.0304481111859463 0 -0.34351963881718828 -0.026703426119618609 0 -0.34102317109375191 -0.031939393829359043 0 -0.33870192877601901 -0.025597296515807031 0 -0.33453683815527552 -0.03073759843531516 0 -0.34102317109375191 -0.031939393829359043 0 -0.33870192877601901 -0.025597296515807031 0 -0.34351963881718828 -0.026703426119618609 0 -0.34295629121873428 -0.0205231094303201 0 -0.3474106639861696 -0.015857201421736269 0 -0.34295629121873428 -0.0205231094303201 0 -0.34036330428034017 -0.01233739595199943 0 -0.34295629121873428 -0.0205231094303201 0 -0.33550932088955437 -0.018187278001026701 0 -0.34036330428034017 -0.01233739595199943 0 -0.33870192877601901 -0.025597296515807031 0 -0.34295629121873428 -0.0205231094303201 0 -0.33550932088955437 -0.018187278001026701 0 -0.33870192877601901 -0.025597296515807031 0 -0.33550932088955437 -0.018187278001026701 0 -0.33191636213403941 -0.02391586378438286 0 -0.33550932088955437 -0.018187278001026701 0 -0.33191636213403941 -0.02391586378438286 0 -0.3279687481716867 -0.016896863565944151 0 -0.33191636213403941 -0.02391586378438286 0 -0.32505032610413909 -0.024352404139747739 0 -0.3279687481716867 -0.016896863565944151 0 -0.33191636213403941 -0.02391586378438286 0 -0.3286366956459239 -0.029745245351569891 0 -0.32505032610413909 -0.024352404139747739 0 -0.33191636213403941 -0.02391586378438286 0 -0.3286366956459239 -0.029745245351569891 0 -0.33453683815527552 -0.03073759843531516 0 -0.33870192877601901 -0.025597296515807031 0 -0.33191636213403941 -0.02391586378438286 0 -0.33453683815527552 -0.03073759843531516 0 -0.34968102917954508 -0.0065141269123413824 0 -0.33375105468458599 -0.0029850000060665191 0 -0.34371067612720191 0.0063243568063823504 0 -0.34968102917954508 -0.0065141269123413824 0 -0.34036330428034017 -0.01233739595199943 0 -0.33375105468458599 -0.0029850000060665191 0 -0.34968102917954508 -0.0065141269123413824 0 -0.33375105468458599 -0.0029850000060665191 0 -0.33550932088955437 -0.018187278001026701 0 -0.34036330428034017 -0.01233739595199943 0 -0.33248039243698391 -0.011671763151170239 0 -0.33248039243698391 -0.011671763151170239 0 -0.32536415985895067 -0.0087100383947575633 0 -0.3279687481716867 -0.016896863565944151 0 -0.34036330428034017 -0.01233739595199943 0 -0.33248039243698391 -0.011671763151170239 0 -0.33375105468458599 -0.0029850000060665191 0 -0.33550932088955437 -0.018187278001026701 0 -0.33248039243698391 -0.011671763151170239 0 -0.3279687481716867 -0.016896863565944151 0 -0.33248039243698391 -0.011671763151170239 0 -0.33375105468458599 -0.0029850000060665191 0 -0.32536415985895067 -0.0087100383947575633 0 -0.33375105468458599 -0.0029850000060665191 0 -0.31782108018962713 0.00054412690020929884 0 -0.33375105468458599 -0.0029850000060665191 0 -0.32536415985895067 -0.0087100383947575633 0 -0.31782108018962713 0.00054412690020929884 0 -0.32536415985895067 -0.0087100383947575633 0 -0.31817332111226782 -0.008310966214042044 0 -0.31782108018962713 0.00054412690020929884 0 -0.32536415985895067 -0.0087100383947575633 0 -0.32154854555265999 -0.013690992048661151 0 -0.3279687481716867 -0.016896863565944151 0 -0.32536415985895067 -0.0087100383947575633 0 -0.32154854555265999 -0.013690992048661151 0 -0.31817332111226782 -0.008310966214042044 0 -0.32154854555265999 -0.013690992048661151 0 -0.31531470951244212 -0.0154209744093768 0 -0.31817332111226782 -0.008310966214042044 0 -0.31531470951244212 -0.0154209744093768 0 -0.31250898135027622 -0.0086857241839327151 0 -0.31817332111226782 -0.008310966214042044 0 -0.31817332111226782 -0.008310966214042044 0 -0.31782108018962713 0.00054412690020929884 0 -0.31250898135027622 -0.0086857241839327151 0 -0.31817332111226782 -0.008310966214042044 0 -0.31782108018962713 0.00054412690020929884 0 -0.32285875502042599 -0.030001411402652219 0 -0.32505032610413909 -0.024352404139747739 0 -0.31805590575754422 -0.026040460890412429 0 -0.3286366956459239 -0.029745245351569891 0 -0.32285875502042599 -0.030001411402652219 0 -0.32505032610413909 -0.024352404139747739 0 -0.3286366956459239 -0.029745245351569891 0 -0.32285875502042599 -0.030001411402652219 0 -0.32639704397193842 -0.033843185695333122 0 -0.32154854555265999 -0.013690992048661151 0 -0.3279687481716867 -0.016896863565944151 0 -0.32000844615691149 -0.01981231504959036 0 -0.32505032610413909 -0.024352404139747739 0 -0.3279687481716867 -0.016896863565944151 0 -0.32000844615691149 -0.01981231504959036 0 -0.32505032610413909 -0.024352404139747739 0 -0.32000844615691149 -0.01981231504959036 0 -0.31805590575754422 -0.026040460890412429 0 -0.31211244184299669 -0.022472195243399929 0 -0.32000844615691149 -0.01981231504959036 0 -0.31805590575754422 -0.026040460890412429 0 -0.31211244184299669 -0.022472195243399929 0 -0.31531470951244212 -0.0154209744093768 0 -0.32000844615691149 -0.01981231504959036 0 -0.32154854555265999 -0.013690992048661151 0 -0.31531470951244212 -0.0154209744093768 0 -0.32000844615691149 -0.01981231504959036 0 -0.31102220705251399 -0.02799749818517136 0 -0.31211244184299669 -0.022472195243399929 0 -0.31805590575754422 -0.026040460890412429 0 -0.32285875502042599 -0.030001411402652219 0 -0.31805590575754422 -0.026040460890412429 0 -0.3168581354251539 -0.031446526987799851 0 -0.31102220705251399 -0.02799749818517136 0 -0.31805590575754422 -0.026040460890412429 0 -0.3168581354251539 -0.031446526987799851 0 -0.31102220705251399 -0.02799749818517136 0 -0.31108014597656458 -0.033634118145371039 0 -0.3168581354251539 -0.031446526987799851 0 -0.30665094044174668 -0.039865430074447053 0 -0.32709298420981392 -0.046078190142831578 0 -0.32811661008528142 -0.040842741680992029 0 -0.3053520222421548 -0.046704708650119338 0 -0.32709298420981392 -0.046078190142831578 0 -0.30665094044174668 -0.039865430074447053 0 -0.3053520222421548 -0.046704708650119338 0 -0.32709298420981392 -0.046078190142831578 0 -0.31108014597656458 -0.033634118145371039 0 -0.31686809546174621 -0.036103722337029173 0 -0.3168581354251539 -0.031446526987799851 0 -0.30665094044174668 -0.039865430074447053 0 -0.32811661008528142 -0.040842741680992029 0 -0.30665094044174668 -0.039865430074447053 0 -0.31686809546174621 -0.036103722337029173 0 -0.32811661008528142 -0.040842741680992029 0 -0.31686809546174621 -0.036103722337029173 0 -0.3168581354251539 -0.031446526987799851 0 -0.3216346453799846 -0.034729794796535908 0 -0.32285875502042599 -0.030001411402652219 0 -0.3216346453799846 -0.034729794796535908 0 -0.32639704397193842 -0.033843185695333122 0 -0.31686809546174621 -0.036103722337029173 0 -0.3216346453799846 -0.034729794796535908 0 -0.32811661008528142 -0.040842741680992029 0 -0.32285875502042599 -0.030001411402652219 0 -0.3168581354251539 -0.031446526987799851 0 -0.3216346453799846 -0.034729794796535908 0 -0.3216346453799846 -0.034729794796535908 0 -0.32639704397193842 -0.033843185695333122 0 -0.32811661008528142 -0.040842741680992029 0 -0.3053520222421548 -0.046704708650119338 0 -0.32709298420981392 -0.046078190142831578 0 -0.31260568598165389 -0.05424937221117547 0 -0.31260568598165389 -0.05424937221117547 0 -0.31664326673231408 -0.057784523373006338 0 -0.32265304645734832 -0.054341758626081732 0 -0.32113708335130331 -0.062913289436134612 0 -0.31664326673231408 -0.057784523373006338 0 -0.32265304645734832 -0.054341758626081732 0 -0.3123413018411676 -0.06229503864178499 0 -0.32113708335130331 -0.062913289436134612 0 -0.31664326673231408 -0.057784523373006338 0 -0.3123413018411676 -0.06229503864178499 0 -0.31260568598165389 -0.05424937221117547 0 -0.31664326673231408 -0.057784523373006338 0 -0.32265304645734832 -0.054341758626081732 0 -0.33053364044553102 -0.054119768123217539 0 -0.32845265619327069 -0.059488120777393197 0 -0.32113708335130331 -0.062913289436134612 0 -0.32265304645734832 -0.054341758626081732 0 -0.32845265619327069 -0.059488120777393197 0 -0.32709298420981392 -0.046078190142831578 0 -0.32265304645734832 -0.054341758626081732 0 -0.33053364044553102 -0.054119768123217539 0 -0.32709298420981392 -0.046078190142831578 0 -0.31260568598165389 -0.05424937221117547 0 -0.32265304645734832 -0.054341758626081732 0 -0.34883394617747321 -0.045451671635544019 0 -0.32709298420981392 -0.046078190142831578 0 -0.33804853739331497 -0.051518032212356901 0 -0.32709298420981392 -0.046078190142831578 0 -0.33053364044553102 -0.054119768123217539 0 -0.33804853739331497 -0.051518032212356901 0 -0.33053364044553102 -0.054119768123217539 0 -0.32845265619327069 -0.059488120777393197 0 -0.33642097797390708 -0.059172738857424322 0 -0.33053364044553102 -0.054119768123217539 0 -0.33642097797390708 -0.059172738857424322 0 -0.33804853739331497 -0.051518032212356901 0 -0.34571306109263872 -0.060597141881795109 0 -0.33642097797390708 -0.059172738857424322 0 -0.33804853739331497 -0.051518032212356901 0 -0.33873226496690167 -0.067052955550672325 0 -0.34571306109263872 -0.060597141881795109 0 -0.33642097797390708 -0.059172738857424322 0 -0.34883394617747321 -0.045451671635544019 0 -0.32709298420981392 -0.046078190142831578 0 -0.34958227972881611 -0.041820053287534728 0 -0.32811661008528142 -0.040842741680992029 0 -0.34058696205188582 -0.038073071817179033 0 -0.34883394617747321 -0.045451671635544019 0 -0.34958227972881611 -0.041820053287534728 0 -0.32811661008528142 -0.040842741680992029 0 -0.34883394617747321 -0.045451671635544019 0 -0.32709298420981392 -0.046078190142831578 0 -0.32811661008528142 -0.040842741680992029 0 -0.34958227972881611 -0.041820053287534728 0 -0.32811661008528142 -0.040842741680992029 0 -0.34652854956439938 -0.035582026386845308 0 -0.34058696205188582 -0.038073071817179033 0 -0.34102317109375191 -0.031939393829359043 0 -0.33453683815527552 -0.03073759843531516 0 -0.34102317109375191 -0.031939393829359043 0 -0.33567376500794938 -0.036064985320245241 0 -0.34058696205188582 -0.038073071817179033 0 -0.34102317109375191 -0.031939393829359043 0 -0.33567376500794938 -0.036064985320245241 0 -0.32811661008528142 -0.040842741680992029 0 -0.34058696205188582 -0.038073071817179033 0 -0.33567376500794938 -0.036064985320245241 0 -0.33453683815527552 -0.03073759843531516 0 -0.33567376500794938 -0.036064985320245241 0 -0.33055639837412792 -0.034763947826259807 0 -0.3286366956459239 -0.029745245351569891 0 -0.33453683815527552 -0.03073759843531516 0 -0.33055639837412792 -0.034763947826259807 0 -0.3286366956459239 -0.029745245351569891 0 -0.32639704397193842 -0.033843185695333122 0 -0.33055639837412792 -0.034763947826259807 0 -0.32639704397193842 -0.033843185695333122 0 -0.32811661008528142 -0.040842741680992029 0 -0.33055639837412792 -0.034763947826259807 0 -0.32811661008528142 -0.040842741680992029 0 -0.33567376500794938 -0.036064985320245241 0 -0.33055639837412792 -0.034763947826259807 0 -0.30387853660551051 -0.23527825701036881 0 -0.2983230382578394 -0.2445925140318079 0 -0.29527641717527692 -0.23644602391427769 0 -0.30387853660551051 -0.23527825701036881 0 -0.2983230382578394 -0.2445925140318079 0 -0.3079912162874085 -0.243557709704426 0 -0.30474039183049878 -0.25544372680981631 0 -0.2983230382578394 -0.2445925140318079 0 -0.3079912162874085 -0.243557709704426 0 -0.31352607005286259 -0.25036143285104001 0 -0.30474039183049878 -0.25544372680981631 0 -0.3079912162874085 -0.243557709704426 0 -0.30387853660551051 -0.23527825701036881 0 -0.3079912162874085 -0.243557709704426 0 -0.31277516778767422 -0.23355928116819821 0 -0.30387853660551051 -0.23527825701036881 0 -0.30726697053105939 -0.22636630551678169 0 -0.31277516778767422 -0.23355928116819821 0 -0.30726697053105939 -0.22636630551678169 0 -0.31584244883929019 -0.22399051255305899 0 -0.31277516778767422 -0.23355928116819821 0 -0.30726697053105939 -0.22636630551678169 0 -0.30972670441963418 -0.21464490462368971 0 -0.31584244883929019 -0.22399051255305899 0 -0.30726697053105939 -0.22636630551678169 0 -0.30154486051069129 -0.22001790411641581 0 -0.30972670441963418 -0.21464490462368971 0 -0.30726697053105939 -0.22636630551678169 0 -0.30154486051069129 -0.22001790411641581 0 -0.29876020503382639 -0.22794683563540849 0 -0.30154486051069129 -0.22001790411641581 0 -0.29876020503382639 -0.22794683563540849 0 -0.29292937819085568 -0.21994846670296159 0 -0.30387853660551051 -0.23527825701036881 0 -0.30726697053105939 -0.22636630551678169 0 -0.29876020503382639 -0.22794683563540849 0 -0.30387853660551051 -0.23527825701036881 0 -0.29876020503382639 -0.22794683563540849 0 -0.29527641717527692 -0.23644602391427769 0 -0.29876020503382639 -0.22794683563540849 0 -0.28784872367848968 -0.23104624683926719 0 -0.29527641717527692 -0.23644602391427769 0 -0.29876020503382639 -0.22794683563540849 0 -0.29292937819085568 -0.21994846670296159 0 -0.28784872367848968 -0.23104624683926719 0 -0.29292937819085568 -0.21994846670296159 0 -0.28327967231097589 -0.22115890160194901 0 -0.28784872367848968 -0.23104624683926719 0 -0.28327967231097589 -0.22115890160194901 0 -0.28784872367848968 -0.23104624683926719 0 -0.27586215622407051 -0.22961355243484649 0 -0.28784872367848968 -0.23104624683926719 0 -0.28757158230071878 -0.2433662660545364 0 -0.27978811840555889 -0.23779073454506419 0 -0.2983230382578394 -0.2445925140318079 0 -0.29527641717527692 -0.23644602391427769 0 -0.28757158230071878 -0.2433662660545364 0 -0.28784872367848968 -0.23104624683926719 0 -0.29527641717527692 -0.23644602391427769 0 -0.28757158230071878 -0.2433662660545364 0 -0.29294132617956792 -0.25294672078684138 0 -0.2983230382578394 -0.2445925140318079 0 -0.28757158230071878 -0.2433662660545364 0 -0.28220785034157359 -0.25446673289743471 0 -0.28757158230071878 -0.2433662660545364 0 -0.27745322421201168 -0.24544522856295259 0 -0.28757158230071878 -0.2433662660545364 0 -0.27745322421201168 -0.24544522856295259 0 -0.27978811840555889 -0.23779073454506419 0 -0.26772939753353958 -0.25026361420850018 0 -0.27204524153703619 -0.2393377948205215 0 -0.2604313458391847 -0.2325753442068908 0 -0.27978811840555889 -0.23779073454506419 0 -0.27204524153703619 -0.2393377948205215 0 -0.27586215622407051 -0.22961355243484649 0 -0.27745322421201168 -0.24544522856295259 0 -0.27978811840555889 -0.23779073454506419 0 -0.27204524153703619 -0.2393377948205215 0 -0.26772939753353958 -0.25026361420850018 0 -0.27745322421201168 -0.24544522856295259 0 -0.27204524153703619 -0.2393377948205215 0 -0.25961577114032658 -0.2567607931299708 0 -0.2604313458391847 -0.2325753442068908 0 -0.25961577114032658 -0.2567607931299708 0 -0.26772939753353958 -0.25026361420850018 0 -0.2604313458391847 -0.2325753442068908 0 -0.25961577114032658 -0.2567607931299708 0 -0.24966206634667409 -0.24400955986671949 0 -0.2604313458391847 -0.2325753442068908 0 -0.2480915939287219 -0.22734937565480301 0 -0.24966206634667409 -0.24400955986671949 0 -0.2604313458391847 -0.2325753442068908 0 -0.26772939753353958 -0.25026361420850018 0 -0.2604313458391847 -0.2325753442068908 0 -0.2604313458391847 -0.2325753442068908 0 -0.26124430188572362 -0.2084675500737756 0 -0.2604313458391847 -0.2325753442068908 0 -0.27276661212884618 -0.21629534984350329 0 -0.26124430188572362 -0.2084675500737756 0 -0.2604313458391847 -0.2325753442068908 0 -0.25261997675463937 -0.21364294810499571 0 -0.2480915939287219 -0.22734937565480301 0 -0.2604313458391847 -0.2325753442068908 0 -0.25261997675463937 -0.21364294810499571 0 -0.2604313458391847 -0.2325753442068908 0 -0.27586215622407051 -0.22961355243484649 0 -0.27276661212884618 -0.21629534984350329 0 -0.27204524153703619 -0.2393377948205215 0 -0.2604313458391847 -0.2325753442068908 0 -0.27586215622407051 -0.22961355243484649 0 -0.28784872367848968 -0.23104624683926719 0 -0.27978811840555889 -0.23779073454506419 0 -0.27586215622407051 -0.22961355243484649 0 -0.28327967231097589 -0.22115890160194901 0 -0.27586215622407051 -0.22961355243484649 0 -0.27276661212884618 -0.21629534984350329 0 -0.28327967231097589 -0.22115890160194901 0 -0.27276661212884618 -0.21629534984350329 0 -0.28649145345278049 -0.21123178555254599 0 -0.27813634746499122 -0.20390110390793739 0 -0.27036013812571791 -0.20676507402557659 0 -0.27276661212884618 -0.21629534984350329 0 -0.27813634746499122 -0.20390110390793739 0 -0.27276661212884618 -0.21629534984350329 0 -0.28649145345278049 -0.21123178555254599 0 -0.27036013812571791 -0.20676507402557659 0 -0.26124430188572362 -0.2084675500737756 0 -0.26991089076330749 -0.19695411047121389 0 -0.27036013812571791 -0.20676507402557659 0 -0.27276661212884618 -0.21629534984350329 0 -0.26124430188572362 -0.2084675500737756 0 -0.24480860767009471 -0.19471055200310031 0 -0.26124430188572362 -0.2084675500737756 0 -0.25261997675463937 -0.21364294810499571 0 -0.2604313458391847 -0.2325753442068908 0 -0.26124430188572362 -0.2084675500737756 0 -0.25261997675463937 -0.21364294810499571 0 -0.26124430188572362 -0.2084675500737756 0 -0.26991089076330749 -0.19695411047121389 0 -0.26205725793226198 -0.1843597559406604 0 -0.24480860767009471 -0.19471055200310031 0 -0.26124430188572362 -0.2084675500737756 0 -0.26205725793226198 -0.1843597559406604 0 -0.26124430188572362 -0.2084675500737756 0 -0.26205725793226198 -0.1843597559406604 0 -0.26991089076330749 -0.19695411047121389 0 -0.27814280479153081 -0.18916161736518031 0 -0.26205725793226198 -0.1843597559406604 0 -0.27813634746499122 -0.20390110390793739 0 -0.27036013812571791 -0.20676507402557659 0 -0.26991089076330749 -0.19695411047121389 0 -0.27813634746499122 -0.20390110390793739 0 -0.26991089076330749 -0.19695411047121389 0 -0.27814280479153081 -0.18916161736518031 0 -0.27813634746499122 -0.20390110390793739 0 -0.27814280479153081 -0.18916161736518031 0 -0.29284605206918718 -0.1957137044834916 0 -0.27813634746499122 -0.20390110390793739 0 -0.29284605206918718 -0.1957137044834916 0 -0.28649145345278049 -0.21123178555254599 0 -0.29292937819085568 -0.21994846670296159 0 -0.28327967231097589 -0.22115890160194901 0 -0.28649145345278049 -0.21123178555254599 0 -0.29292937819085568 -0.21994846670296159 0 -0.28649145345278049 -0.21123178555254599 0 -0.29859358604902653 -0.21003295060592461 0 -0.29284605206918718 -0.1957137044834916 0 -0.28649145345278049 -0.21123178555254599 0 -0.29859358604902653 -0.21003295060592461 0 -0.30154486051069129 -0.22001790411641581 0 -0.29859358604902653 -0.21003295060592461 0 -0.30972670441963418 -0.21464490462368971 0 -0.30154486051069129 -0.22001790411641581 0 -0.29292937819085568 -0.21994846670296159 0 -0.29859358604902653 -0.21003295060592461 0 -0.29859358604902653 -0.21003295060592461 0 -0.30972670441963418 -0.21464490462368971 0 -0.30717046186727898 -0.20070990089750071 0 -0.30972670441963418 -0.21464490462368971 0 -0.30717046186727898 -0.20070990089750071 0 -0.31923786733807141 -0.204941767304919 0 -0.29284605206918718 -0.1957137044834916 0 -0.30659843024189742 -0.18931958072541191 0 -0.30001811857440791 -0.1786838991148951 0 -0.30717046186727898 -0.20070990089750071 0 -0.30659843024189742 -0.18931958072541191 0 -0.31898143293391479 -0.18926381436845979 0 -0.29284605206918718 -0.1957137044834916 0 -0.30717046186727898 -0.20070990089750071 0 -0.30659843024189742 -0.18931958072541191 0 -0.29284605206918718 -0.1957137044834916 0 -0.29859358604902653 -0.21003295060592461 0 -0.30717046186727898 -0.20070990089750071 0 -0.30659843024189742 -0.18931958072541191 0 -0.30001811857440791 -0.1786838991148951 0 -0.31453593373425848 -0.1761057413314418 0 -0.30001811857440791 -0.1786838991148951 0 -0.30236194854441889 -0.15788889857266281 0 -0.31453593373425848 -0.1761057413314418 0 -0.30236194854441889 -0.15788889857266281 0 -0.32032294895926389 -0.1608628795598179 0 -0.31453593373425848 -0.1761057413314418 0 -0.30236194854441889 -0.15788889857266281 0 -0.28505752991803501 -0.15775329508293481 0 -0.28374822828227719 -0.17439157046146739 0 -0.30001811857440791 -0.1786838991148951 0 -0.30236194854441889 -0.15788889857266281 0 -0.28374822828227719 -0.17439157046146739 0 -0.29284605206918718 -0.1957137044834916 0 -0.30001811857440791 -0.1786838991148951 0 -0.28374822828227719 -0.17439157046146739 0 -0.27814280479153081 -0.18916161736518031 0 -0.29284605206918718 -0.1957137044834916 0 -0.28374822828227719 -0.17439157046146739 0 -0.28374822828227719 -0.17439157046146739 0 -0.26205725793226198 -0.1843597559406604 0 -0.26287021397880028 -0.1602519618075452 0 -0.27814280479153081 -0.18916161736518031 0 -0.28374822828227719 -0.17439157046146739 0 -0.26205725793226198 -0.1843597559406604 0 -0.24480860767009471 -0.19471055200310031 0 -0.26205725793226198 -0.1843597559406604 0 -0.25120195883373803 -0.1721391415510975 0 -0.26205725793226198 -0.1843597559406604 0 -0.26287021397880028 -0.1602519618075452 0 -0.26205725793226198 -0.1843597559406604 0 -0.25120195883373803 -0.1721391415510975 0 -0.26287021397880028 -0.1602519618075452 0 -0.24220539714476011 -0.16237985861264401 0 -0.25120195883373803 -0.1721391415510975 0 -0.26287021397880028 -0.1602519618075452 0 -0.24220539714476011 -0.16237985861264401 0 -0.2472196927006948 -0.1515692412906269 0 -0.26287021397880028 -0.1602519618075452 0 -0.28505752991803501 -0.15775329508293481 0 -0.28374822828227719 -0.17439157046146739 0 -0.26287021397880028 -0.1602519618075452 0 -0.28505752991803501 -0.15775329508293481 0 -0.26287021397880028 -0.1602519618075452 0 -0.27424315885750472 -0.14856787275784941 0 -0.26287021397880028 -0.1602519618075452 0 -0.27424315885750472 -0.14856787275784941 0 -0.26368317002533831 -0.13614416767442991 0 -0.27424315885750472 -0.14856787275784941 0 -0.27510627728932968 -0.13983668480246231 0 -0.28506942255127438 -0.1420577593546915 0 -0.27424315885750472 -0.14856787275784941 0 -0.26368317002533831 -0.13614416767442991 0 -0.27510627728932968 -0.13983668480246231 0 -0.26287021397880028 -0.1602519618075452 0 -0.25502063332858388 -0.14755975701166901 0 -0.26368317002533831 -0.13614416767442991 0 -0.2472196927006948 -0.1515692412906269 0 -0.26287021397880028 -0.1602519618075452 0 -0.25502063332858388 -0.14755975701166901 0 -0.24067947651379801 -0.14211378100926739 0 -0.25165074314210373 -0.14434673674649831 0 -0.26368317002533831 -0.13614416767442991 0 -0.26287021397880028 -0.1602519618075452 0 -0.26368317002533831 -0.13614416767442991 0 -0.25502063332858388 -0.14755975701166901 0 -0.25165074314210373 -0.14434673674649831 0 -0.26368317002533831 -0.13614416767442991 0 -0.2472196927006948 -0.1515692412906269 0 -0.25502063332858388 -0.14755975701166901 0 -0.25165074314210373 -0.14434673674649831 0 -0.24067947651379801 -0.14211378100926739 0 -0.25019901471553613 -0.13547804139513889 0 -0.26368317002533831 -0.13614416767442991 0 -0.24067947651379801 -0.14211378100926739 0 -0.26368317002533831 -0.13614416767442991 0 -0.25074896958116072 -0.12623220477356401 0 -0.25019901471553613 -0.13547804139513889 0 -0.25605198038432758 -0.13334573929478169 0 -0.25074896958116072 -0.12623220477356401 0 -0.25605198038432758 -0.13334573929478169 0 -0.25850907120502509 -0.12694145683918931 0 -0.25019901471553613 -0.13547804139513889 0 -0.25605198038432758 -0.13334573929478169 0 -0.26368317002533831 -0.13614416767442991 0 -0.25605198038432758 -0.13334573929478169 0 -0.26368317002533831 -0.13614416767442991 0 -0.26052464422148602 -0.13187478022835031 0 -0.26368317002533831 -0.13614416767442991 0 -0.26385435527125289 -0.13106775710500029 0 -0.26052464422148602 -0.13187478022835031 0 -0.26368317002533831 -0.13614416767442991 0 -0.26385435527125289 -0.13106775710500029 0 -0.26473979149963378 -0.1229813646565117 0 -0.26385435527125289 -0.13106775710500029 0 -0.25850907120502509 -0.12694145683918931 0 -0.25605198038432758 -0.13334573929478169 0 -0.26052464422148602 -0.13187478022835031 0 -0.25850907120502509 -0.12694145683918931 0 -0.26385435527125289 -0.13106775710500029 0 -0.26052464422148602 -0.13187478022835031 0 -0.25850907120502509 -0.12694145683918931 0 -0.26473979149963378 -0.1229813646565117 0 -0.26385435527125289 -0.13106775710500029 0 -0.27281217822798981 -0.1254728102371292 0 -0.26385435527125289 -0.13106775710500029 0 -0.27281217822798981 -0.1254728102371292 0 -0.27742935772320182 -0.1325769394228784 0 -0.26368317002533831 -0.13614416767442991 0 -0.26385435527125289 -0.13106775710500029 0 -0.27742935772320182 -0.1325769394228784 0 -0.26368317002533831 -0.13614416767442991 0 -0.27510627728932968 -0.13983668480246231 0 -0.27742935772320182 -0.1325769394228784 0 -0.26368317002533831 -0.13614416767442991 0 -0.27742935772320182 -0.1325769394228784 0 -0.27510627728932968 -0.13983668480246231 0 -0.27742935772320182 -0.1325769394228784 0 -0.28506942255127438 -0.1420577593546915 0 -0.28620089297729029 -0.12447629827749659 0 -0.27281217822798981 -0.1254728102371292 0 -0.27742935772320182 -0.1325769394228784 0 -0.28620089297729029 -0.12447629827749659 0 -0.28506942255127438 -0.1420577593546915 0 -0.29702865478286711 -0.13294456488837009 0 -0.28620089297729029 -0.12447629827749659 0 -0.27742935772320182 -0.1325769394228784 0 -0.28506942255127438 -0.1420577593546915 0 -0.28620089297729029 -0.12447629827749659 0 -0.30384372506448321 -0.1230867912680753 0 -0.29702865478286711 -0.13294456488837009 0 -0.30236194854441889 -0.15788889857266281 0 -0.28505752991803501 -0.15775329508293481 0 -0.28506942255127438 -0.1420577593546915 0 -0.30236194854441889 -0.15788889857266281 0 -0.28506942255127438 -0.1420577593546915 0 -0.29702865478286711 -0.13294456488837009 0 -0.28505752991803501 -0.15775329508293481 0 -0.27424315885750472 -0.14856787275784941 0 -0.28506942255127438 -0.1420577593546915 0 -0.30236194854441889 -0.15788889857266281 0 -0.30587785951223878 -0.13464172250185599 0 -0.31660117337291221 -0.1318563968139303 0 -0.30236194854441889 -0.15788889857266281 0 -0.30587785951223878 -0.13464172250185599 0 -0.29702865478286711 -0.13294456488837009 0 -0.30236194854441889 -0.15788889857266281 0 -0.31660117337291221 -0.1318563968139303 0 -0.30384372506448321 -0.1230867912680753 0 -0.30587785951223878 -0.13464172250185599 0 -0.31660117337291221 -0.1318563968139303 0 -0.30384372506448321 -0.1230867912680753 0 -0.30587785951223878 -0.13464172250185599 0 -0.29702865478286711 -0.13294456488837009 0 -0.32577172975082569 -0.13475250834242411 0 -0.32248154435030818 -0.1419147100522441 0 -0.3329593281822732 -0.13807460240198219 0 -0.32577172975082569 -0.13475250834242411 0 -0.31660117337291221 -0.1318563968139303 0 -0.32248154435030818 -0.1419147100522441 0 -0.32577172975082569 -0.13475250834242411 0 -0.31660117337291221 -0.1318563968139303 0 -0.3310448730978095 -0.12716432410153991 0 -0.30236194854441889 -0.15788889857266281 0 -0.31660117337291221 -0.1318563968139303 0 -0.32248154435030818 -0.1419147100522441 0 -0.32248154435030818 -0.1419147100522441 0 -0.33186642564990299 -0.15403117225276561 0 -0.32032294895926389 -0.1608628795598179 0 -0.30236194854441889 -0.15788889857266281 0 -0.32248154435030818 -0.1419147100522441 0 -0.32032294895926389 -0.1608628795598179 0 -0.32248154435030818 -0.1419147100522441 0 -0.33186642564990299 -0.15403117225276561 0 -0.34245687982685741 -0.14244968396534249 0 -0.32248154435030818 -0.1419147100522441 0 -0.34245687982685741 -0.14244968396534249 0 -0.32248154435030818 -0.1419147100522441 0 -0.34245687982685741 -0.14244968396534249 0 -0.3329593281822732 -0.13807460240198219 0 -0.33186642564990299 -0.15403117225276561 0 -0.34284574384319932 -0.14460267716726391 0 -0.34245687982685741 -0.14244968396534249 0 -0.34245687982685741 -0.14244968396534249 0 -0.33986553509993239 -0.137097207792511 0 -0.34425150161963008 -0.1357318781629909 0 -0.34245687982685741 -0.14244968396534249 0 -0.33986553509993239 -0.137097207792511 0 -0.3329593281822732 -0.13807460240198219 0 -0.33986553509993239 -0.137097207792511 0 -0.33979443077096899 -0.13213266663972831 0 -0.34425150161963008 -0.1357318781629909 0 -0.33986553509993239 -0.137097207792511 0 -0.3329593281822732 -0.13807460240198219 0 -0.33979443077096899 -0.13213266663972831 0 -0.32577172975082569 -0.13475250834242411 0 -0.3329593281822732 -0.13807460240198219 0 -0.3310448730978095 -0.12716432410153991 0 -0.3329593281822732 -0.13807460240198219 0 -0.3310448730978095 -0.12716432410153991 0 -0.33979443077096899 -0.13213266663972831 0 -0.33994260749638638 -0.1200966028809774 0 -0.33979443077096899 -0.13213266663972831 0 -0.34803039317708429 -0.12827044755731409 0 -0.33994260749638638 -0.1200966028809774 0 -0.3310448730978095 -0.12716432410153991 0 -0.33979443077096899 -0.13213266663972831 0 -0.33979443077096899 -0.13213266663972831 0 -0.34803039317708429 -0.12827044755731409 0 -0.34425150161963008 -0.1357318781629909 0 -0.35251545304353799 -0.1371774492751148 0 -0.36306954132545999 -0.12583347830204639 0 -0.36243221530340658 -0.14298465787844261 0 -0.34245687982685741 -0.14244968396534249 0 -0.34425150161963008 -0.1357318781629909 0 -0.35251545304353799 -0.1371774492751148 0 -0.34803039317708429 -0.12827044755731409 0 -0.34425150161963008 -0.1357318781629909 0 -0.35251545304353799 -0.1371774492751148 0 -0.34803039317708429 -0.12827044755731409 0 -0.35251545304353799 -0.1371774492751148 0 -0.36306954132545999 -0.12583347830204639 0 -0.36306954132545999 -0.12583347830204639 0 -0.36243221530340658 -0.14298465787844261 0 -0.36243221530340658 -0.14298465787844261 0 -0.3809700474397878 -0.14348113297444151 0 -0.37604978349753682 -0.1305695757879414 0 -0.36306954132545999 -0.12583347830204639 0 -0.36243221530340658 -0.14298465787844261 0 -0.37604978349753682 -0.1305695757879414 0 -0.36243221530340658 -0.14298465787844261 0 -0.35624797787289708 -0.15597089325168409 0 -0.36146698494894958 -0.16896012187806811 0 -0.36243221530340658 -0.14298465787844261 0 -0.3809700474397878 -0.14348113297444151 0 -0.36243221530340658 -0.14298465787844261 0 -0.3701519468561304 -0.1553903417896399 0 -0.36146698494894958 -0.16896012187806811 0 -0.36243221530340658 -0.14298465787844261 0 -0.36146698494894958 -0.16896012187806811 0 -0.36243221530340658 -0.14298465787844261 0 -0.3701519468561304 -0.1553903417896399 0 -0.3809700474397878 -0.14348113297444151 0 -0.34284574384319932 -0.14460267716726391 0 -0.36243221530340658 -0.14298465787844261 0 -0.35624797787289708 -0.15597089325168409 0 -0.34245687982685741 -0.14244968396534249 0 -0.36243221530340658 -0.14298465787844261 0 -0.34284574384319932 -0.14460267716726391 0 -0.35824696739603262 -0.16733611608296101 0 -0.34245687982685741 -0.14244968396534249 0 -0.35251545304353799 -0.1371774492751148 0 -0.36243221530340658 -0.14298465787844261 0 -0.34284574384319932 -0.14460267716726391 0 -0.35624797787289708 -0.15597089325168409 0 -0.35824696739603262 -0.16733611608296101 0 -0.33186642564990299 -0.15403117225276561 0 -0.34284574384319932 -0.14460267716726391 0 -0.35824696739603262 -0.16733611608296101 0 -0.34284574384319932 -0.14460267716726391 0 -0.34245687982685741 -0.14244968396534249 0 -0.36243221530340658 -0.14298465787844261 0 -0.33186642564990299 -0.15403117225276561 0 -0.34640661271727841 -0.1675321394318367 0 -0.35824696739603262 -0.16733611608296101 0 -0.33186642564990299 -0.15403117225276561 0 -0.35824696739603262 -0.16733611608296101 0 -0.34640661271727841 -0.1675321394318367 0 -0.35102686298292929 -0.1740912186383278 0 -0.34430735117645689 -0.1727563545190097 0 -0.34640661271727841 -0.1675321394318367 0 -0.35411951568724581 -0.17087725064610609 0 -0.35102686298292929 -0.1740912186383278 0 -0.35624797787289708 -0.15597089325168409 0 -0.35824696739603262 -0.16733611608296101 0 -0.36146698494894958 -0.16896012187806811 0 -0.34640661271727841 -0.1675321394318367 0 -0.35411951568724581 -0.17087725064610609 0 -0.35824696739603262 -0.16733611608296101 0 -0.35411951568724581 -0.17087725064610609 0 -0.35824696739603262 -0.16733611608296101 0 -0.35786321084348022 -0.17094464609175 0 -0.35824696739603262 -0.16733611608296101 0 -0.35786321084348022 -0.17094464609175 0 -0.36135675942504059 -0.17192641807354339 0 -0.35411951568724581 -0.17087725064610609 0 -0.35786321084348022 -0.17094464609175 0 -0.35586112222586719 -0.17347346882811371 0 -0.35824696739603262 -0.16733611608296101 0 -0.36146698494894958 -0.16896012187806811 0 -0.36135675942504059 -0.17192641807354339 0 -0.35824696739603262 -0.16733611608296101 0 -0.36135675942504059 -0.17192641807354339 0 -0.35824696739603262 -0.16733611608296101 0 -0.36146698494894958 -0.16896012187806811 0 -0.36146698494894958 -0.16896012187806811 0 -0.36135675942504059 -0.17192641807354339 0 -0.3701519468561304 -0.1553903417896399 0 -0.36146698494894958 -0.16896012187806811 0 -0.37153809633817841 -0.1653584908172947 0 -0.3701519468561304 -0.1553903417896399 0 -0.37153809633817841 -0.1653584908172947 0 -0.37938820977670962 -0.15451394970132321 0 -0.36135675942504059 -0.17192641807354339 0 -0.36068441261408402 -0.1900200475399296 0 -0.37629408299317207 -0.19397510347409991 0 -0.36146698494894958 -0.16896012187806811 0 -0.38735846487900549 -0.18201840890891119 0 -0.37161907306154202 -0.17922001308365559 0 -0.36135675942504059 -0.17192641807354339 0 -0.37629408299317207 -0.19397510347409991 0 -0.36146698494894958 -0.16896012187806811 0 -0.37161907306154202 -0.17922001308365559 0 -0.38735846487900549 -0.18201840890891119 0 -0.36135675942504059 -0.17192641807354339 0 -0.37629408299317207 -0.19397510347409991 0 -0.36135675942504059 -0.17192641807354339 0 -0.36068441261408402 -0.1900200475399296 0 -0.36146698494894958 -0.16896012187806811 0 -0.37153809633817841 -0.1653584908172947 0 -0.38735846487900549 -0.18201840890891119 0 -0.36146698494894958 -0.16896012187806811 0 -0.37161907306154202 -0.17922001308365559 0 -0.36135675942504059 -0.17192641807354339 0 -0.35493926219064098 -0.17952781069084089 0 -0.35135857237452311 -0.18636575850681711 0 -0.36068441261408402 -0.1900200475399296 0 -0.36135675942504059 -0.17192641807354339 0 -0.35493926219064098 -0.17952781069084089 0 -0.36068441261408402 -0.1900200475399296 0 -0.36135675942504059 -0.17192641807354339 0 -0.35586112222586719 -0.17347346882811371 0 -0.35493926219064098 -0.17952781069084089 0 -0.35786321084348022 -0.17094464609175 0 -0.36135675942504059 -0.17192641807354339 0 -0.35586112222586719 -0.17347346882811371 0 -0.35586112222586719 -0.17347346882811371 0 -0.35493926219064098 -0.17952781069084089 0 -0.35102686298292929 -0.1740912186383278 0 -0.35411951568724581 -0.17087725064610609 0 -0.35586112222586719 -0.17347346882811371 0 -0.35102686298292929 -0.1740912186383278 0 -0.35493926219064098 -0.17952781069084089 0 -0.35102686298292929 -0.1740912186383278 0 -0.34491734719857969 -0.180385408607632 0 -0.35102686298292929 -0.1740912186383278 0 -0.34430735117645689 -0.1727563545190097 0 -0.34491734719857969 -0.180385408607632 0 -0.35493926219064098 -0.17952781069084089 0 -0.35135857237452311 -0.18636575850681711 0 -0.34491734719857969 -0.180385408607632 0 -0.35135857237452311 -0.18636575850681711 0 -0.34491734719857969 -0.180385408607632 0 -0.3448176511976575 -0.18852059866684481 0 -0.34491734719857969 -0.180385408607632 0 -0.33479958807238908 -0.1861304917350782 0 -0.33639970045588902 -0.17441029247362769 0 -0.34491734719857969 -0.180385408607632 0 -0.33479958807238908 -0.1861304917350782 0 -0.3448176511976575 -0.18852059866684481 0 -0.33479958807238908 -0.1861304917350782 0 -0.33639970045588902 -0.17441029247362769 0 -0.32598988781777249 -0.17378572212821669 0 -0.34430735117645689 -0.1727563545190097 0 -0.34491734719857969 -0.180385408607632 0 -0.33639970045588902 -0.17441029247362769 0 -0.34430735117645689 -0.1727563545190097 0 -0.33639970045588902 -0.17441029247362769 0 -0.33875861202130592 -0.16662997208968369 0 -0.34640661271727841 -0.1675321394318367 0 -0.34430735117645689 -0.1727563545190097 0 -0.33875861202130592 -0.16662997208968369 0 -0.33186642564990299 -0.15403117225276561 0 -0.34640661271727841 -0.1675321394318367 0 -0.33875861202130592 -0.16662997208968369 0 -0.33186642564990299 -0.15403117225276561 0 -0.33875861202130592 -0.16662997208968369 0 -0.33066751498082692 -0.16594400770082229 0 -0.33639970045588902 -0.17441029247362769 0 -0.33066751498082692 -0.16594400770082229 0 -0.32598988781777249 -0.17378572212821669 0 -0.33639970045588902 -0.17441029247362769 0 -0.33875861202130592 -0.16662997208968369 0 -0.33066751498082692 -0.16594400770082229 0 -0.33066751498082692 -0.16594400770082229 0 -0.32032294895926389 -0.1608628795598179 0 -0.32598988781777249 -0.17378572212821669 0 -0.33186642564990299 -0.15403117225276561 0 -0.33066751498082692 -0.16594400770082229 0 -0.32032294895926389 -0.1608628795598179 0 -0.32032294895926389 -0.1608628795598179 0 -0.31453593373425848 -0.1761057413314418 0 -0.32598988781777249 -0.17378572212821669 0 -0.33479958807238908 -0.1861304917350782 0 -0.32598988781777249 -0.17378572212821669 0 -0.31898143293391479 -0.18926381436845979 0 -0.30659843024189742 -0.18931958072541191 0 -0.31453593373425848 -0.1761057413314418 0 -0.31898143293391479 -0.18926381436845979 0 -0.31453593373425848 -0.1761057413314418 0 -0.32598988781777249 -0.17378572212821669 0 -0.31898143293391479 -0.18926381436845979 0 -0.30717046186727898 -0.20070990089750071 0 -0.31898143293391479 -0.18926381436845979 0 -0.31923786733807141 -0.204941767304919 0 -0.31898143293391479 -0.18926381436845979 0 -0.31923786733807141 -0.204941767304919 0 -0.33113913859534783 -0.1997495171746908 0 -0.30972670441963418 -0.21464490462368971 0 -0.31911640767833738 -0.21555083258470409 0 -0.31584244883929019 -0.22399051255305899 0 -0.30972670441963418 -0.21464490462368971 0 -0.31923786733807141 -0.204941767304919 0 -0.31911640767833738 -0.21555083258470409 0 -0.31911640767833738 -0.21555083258470409 0 -0.32606818141384541 -0.21220265818687209 0 -0.32470683638084591 -0.22197432025498071 0 -0.31923786733807141 -0.204941767304919 0 -0.31911640767833738 -0.21555083258470409 0 -0.32606818141384541 -0.21220265818687209 0 -0.31923786733807141 -0.204941767304919 0 -0.32606818141384541 -0.21220265818687209 0 -0.33113913859534783 -0.1997495171746908 0 -0.32606818141384541 -0.21220265818687209 0 -0.3349320496832473 -0.2093326438375607 0 -0.33113913859534783 -0.1997495171746908 0 -0.3349320496832473 -0.2093326438375607 0 -0.34044844831899201 -0.20394143361263159 0 -0.33113913859534783 -0.1997495171746908 0 -0.32606818141384541 -0.21220265818687209 0 -0.33512474448614249 -0.21895054495625721 0 -0.32470683638084591 -0.22197432025498071 0 -0.32606818141384541 -0.21220265818687209 0 -0.3349320496832473 -0.2093326438375607 0 -0.33512474448614249 -0.21895054495625721 0 -0.3349320496832473 -0.2093326438375607 0 -0.34190125387649989 -0.21095418519924691 0 -0.33512474448614249 -0.21895054495625721 0 -0.34190125387649989 -0.21095418519924691 0 -0.34726249644926538 -0.21716034396247319 0 -0.33512474448614249 -0.21895054495625721 0 -0.3349320496832473 -0.2093326438375607 0 -0.34190125387649989 -0.21095418519924691 0 -0.34044844831899201 -0.20394143361263159 0 -0.34190125387649989 -0.21095418519924691 0 -0.34044844831899201 -0.20394143361263159 0 -0.34791993815652478 -0.20469203486817461 0 -0.33479958807238908 -0.1861304917350782 0 -0.31898143293391479 -0.18926381436845979 0 -0.33113913859534783 -0.1997495171746908 0 -0.34044844831899201 -0.20394143361263159 0 -0.34142963296735518 -0.19618294532412089 0 -0.34791993815652478 -0.20469203486817461 0 -0.34044844831899201 -0.20394143361263159 0 -0.34142963296735518 -0.19618294532412089 0 -0.33113913859534783 -0.1997495171746908 0 -0.33479958807238908 -0.1861304917350782 0 -0.34142963296735518 -0.19618294532412089 0 -0.33113913859534783 -0.1997495171746908 0 -0.33479958807238908 -0.1861304917350782 0 -0.34142963296735518 -0.19618294532412089 0 -0.3448176511976575 -0.18852059866684481 0 -0.34142963296735518 -0.19618294532412089 0 -0.35071255263460321 -0.19423410247168599 0 -0.3448176511976575 -0.18852059866684481 0 -0.35135857237452311 -0.18636575850681711 0 -0.35071255263460321 -0.19423410247168599 0 -0.3448176511976575 -0.18852059866684481 0 -0.34142963296735518 -0.19618294532412089 0 -0.35071255263460321 -0.19423410247168599 0 -0.34791993815652478 -0.20469203486817461 0 -0.35071255263460321 -0.19423410247168599 0 -0.35788374125979999 -0.19976817019737669 0 -0.34791993815652478 -0.20469203486817461 0 -0.35135857237452311 -0.18636575850681711 0 -0.35071255263460321 -0.19423410247168599 0 -0.36068441261408402 -0.1900200475399296 0 -0.35071255263460321 -0.19423410247168599 0 -0.35788374125979999 -0.19976817019737669 0 -0.36068441261408402 -0.1900200475399296 0 -0.36068441261408402 -0.1900200475399296 0 -0.36001206580312872 -0.20811367700631581 0 -0.36068441261408402 -0.1900200475399296 0 -0.36737135996079712 -0.2001136570623368 0 -0.36001206580312872 -0.20811367700631581 0 -0.35788374125979999 -0.19976817019737669 0 -0.36068441261408402 -0.1900200475399296 0 -0.36001206580312872 -0.20811367700631581 0 -0.36737135996079712 -0.2001136570623368 0 -0.37249487843280371 -0.20834580022900209 0 -0.37629408299317207 -0.19397510347409991 0 -0.36068441261408402 -0.1900200475399296 0 -0.36737135996079712 -0.2001136570623368 0 -0.37629408299317207 -0.19397510347409991 0 -0.36001206580312872 -0.20811367700631581 0 -0.35941972563654362 -0.22405423523846621 0 -0.3686305064904804 -0.2175514899852424 0 -0.37249487843280371 -0.20834580022900209 0 -0.37542713549415629 -0.21984770865456321 0 -0.36737135996079712 -0.2001136570623368 0 -0.37249487843280371 -0.20834580022900209 0 -0.36001206580312872 -0.20811367700631581 0 -0.3686305064904804 -0.2175514899852424 0 -0.37249487843280371 -0.20834580022900209 0 -0.36001206580312872 -0.20811367700631581 0 -0.35316686672476949 -0.21051336588835531 0 -0.34726249644926538 -0.21716034396247319 0 -0.35941972563654362 -0.22405423523846621 0 -0.36001206580312872 -0.20811367700631581 0 -0.35316686672476949 -0.21051336588835531 0 -0.35941972563654362 -0.22405423523846621 0 -0.35788374125979999 -0.19976817019737669 0 -0.36001206580312872 -0.20811367700631581 0 -0.35788374125979999 -0.19976817019737669 0 -0.36001206580312872 -0.20811367700631581 0 -0.35316686672476949 -0.21051336588835531 0 -0.35788374125979999 -0.19976817019737669 0 -0.35316686672476949 -0.21051336588835531 0 -0.34791993815652478 -0.20469203486817461 0 -0.34190125387649989 -0.21095418519924691 0 -0.34791993815652478 -0.20469203486817461 0 -0.34726249644926538 -0.21716034396247319 0 -0.35316686672476949 -0.21051336588835531 0 -0.34791993815652478 -0.20469203486817461 0 -0.34726249644926538 -0.21716034396247319 0 -0.34726249644926538 -0.21716034396247319 0 -0.35005385703378722 -0.2260068662262886 0 -0.34068529152597871 -0.22843165861985371 0 -0.35005385703378722 -0.2260068662262886 0 -0.35284791452336112 -0.2343812270843614 0 -0.34068529152597871 -0.22843165861985371 0 -0.35284791452336112 -0.2343812270843614 0 -0.34079054607198561 -0.24012535433262849 0 -0.34068529152597871 -0.22843165861985371 0 -0.35005385703378722 -0.2260068662262886 0 -0.35941972563654362 -0.22405423523846621 0 -0.35284791452336112 -0.2343812270843614 0 -0.34726249644926538 -0.21716034396247319 0 -0.35005385703378722 -0.2260068662262886 0 -0.35941972563654362 -0.22405423523846621 0 -0.3686305064904804 -0.2175514899852424 0 -0.366587946231833 -0.23389877405108861 0 -0.37542713549415629 -0.21984770865456321 0 -0.36001206580312872 -0.20811367700631581 0 -0.35941972563654362 -0.22405423523846621 0 -0.366587946231833 -0.23389877405108861 0 -0.3686305064904804 -0.2175514899852424 0 -0.36001206580312872 -0.20811367700631581 0 -0.366587946231833 -0.23389877405108861 0 -0.36001206580312872 -0.20811367700631581 0 -0.366587946231833 -0.23389877405108861 0 -0.35941972563654362 -0.22405423523846621 0 -0.366587946231833 -0.23389877405108861 0 -0.35284791452336112 -0.2343812270843614 0 -0.366587946231833 -0.23389877405108861 0 -0.37542713549415629 -0.21984770865456321 0 -0.37973134364711042 -0.23057452398867981 0 -0.37316382666053671 -0.25968387109586161 0 -0.366587946231833 -0.23389877405108861 0 -0.3756643166546676 -0.24119391028490669 0 -0.37316382666053671 -0.25968387109586161 0 -0.366587946231833 -0.23389877405108861 0 -0.36233147867638649 -0.2477992409525154 0 -0.37316382666053671 -0.25968387109586161 0 -0.366587946231833 -0.23389877405108861 0 -0.366587946231833 -0.23389877405108861 0 -0.3756643166546676 -0.24119391028490669 0 -0.37973134364711042 -0.23057452398867981 0 -0.366587946231833 -0.23389877405108861 0 -0.36233147867638649 -0.2477992409525154 0 -0.35853372428210462 -0.24104775451326299 0 -0.36233147867638649 -0.2477992409525154 0 -0.35236755769683781 -0.2481117759650866 0 -0.35853372428210462 -0.24104775451326299 0 -0.366587946231833 -0.23389877405108861 0 -0.35853372428210462 -0.24104775451326299 0 -0.35284791452336112 -0.2343812270843614 0 -0.35236755769683781 -0.2481117759650866 0 -0.35853372428210462 -0.24104775451326299 0 -0.35284791452336112 -0.2343812270843614 0 -0.35236755769683781 -0.2481117759650866 0 -0.35284791452336112 -0.2343812270843614 0 -0.34079054607198561 -0.24012535433262849 0 -0.33785940386562507 -0.25340916090029658 0 -0.33050674820977688 -0.24431234086603379 0 -0.34079054607198561 -0.24012535433262849 0 -0.33785940386562507 -0.25340916090029658 0 -0.35236755769683781 -0.2481117759650866 0 -0.34079054607198561 -0.24012535433262849 0 -0.33050674820977688 -0.24431234086603379 0 -0.34079054607198561 -0.24012535433262849 0 -0.33030644608515131 -0.23240236297598421 0 -0.34079054607198561 -0.24012535433262849 0 -0.34068529152597871 -0.22843165861985371 0 -0.33030644608515131 -0.23240236297598421 0 -0.34726249644926538 -0.21716034396247319 0 -0.34068529152597871 -0.22843165861985371 0 -0.33512474448614249 -0.21895054495625721 0 -0.33512474448614249 -0.21895054495625721 0 -0.33030644608515131 -0.23240236297598421 0 -0.32470683638084591 -0.22197432025498071 0 -0.34068529152597871 -0.22843165861985371 0 -0.33512474448614249 -0.21895054495625721 0 -0.33030644608515131 -0.23240236297598421 0 -0.33030644608515131 -0.23240236297598421 0 -0.32071929515066783 -0.2305762559680142 0 -0.32470683638084591 -0.22197432025498071 0 -0.32071929515066783 -0.2305762559680142 0 -0.32470683638084591 -0.22197432025498071 0 -0.31584244883929019 -0.22399051255305899 0 -0.31911640767833738 -0.21555083258470409 0 -0.32470683638084591 -0.22197432025498071 0 -0.31584244883929019 -0.22399051255305899 0 -0.32071929515066783 -0.2305762559680142 0 -0.31584244883929019 -0.22399051255305899 0 -0.31277516778767422 -0.23355928116819821 0 -0.32071929515066783 -0.2305762559680142 0 -0.31277516778767422 -0.23355928116819821 0 -0.31996557666037728 -0.24095480288784901 0 -0.3079912162874085 -0.243557709704426 0 -0.31277516778767422 -0.23355928116819821 0 -0.31996557666037728 -0.24095480288784901 0 -0.32398828001488078 -0.25232987534048379 0 -0.31352607005286259 -0.25036143285104001 0 -0.31996557666037728 -0.24095480288784901 0 -0.31352607005286259 -0.25036143285104001 0 -0.3079912162874085 -0.243557709704426 0 -0.31996557666037728 -0.24095480288784901 0 -0.32398828001488078 -0.25232987534048379 0 -0.33050674820977688 -0.24431234086603379 0 -0.31996557666037728 -0.24095480288784901 0 -0.33050674820977688 -0.24431234086603379 0 -0.33030644608515131 -0.23240236297598421 0 -0.31996557666037728 -0.24095480288784901 0 -0.33030644608515131 -0.23240236297598421 0 -0.32071929515066783 -0.2305762559680142 0 -0.31996557666037728 -0.24095480288784901 0 -0.44171914672769302 -0.25415451347903623 0 -0.4244417442875083 -0.23430940272192621 0 -0.43887789481282619 -0.234118381522984 0 -0.44171914672769302 -0.25415451347903623 0 -0.41674760700480662 -0.25655791798851102 0 -0.4244417442875083 -0.23430940272192621 0 -0.44171914672769302 -0.25415451347903623 0 -0.4244417442875083 -0.23430940272192621 0 -0.43018080968280481 -0.22402208464885051 0 -0.4244417442875083 -0.23430940272192621 0 -0.43887789481282619 -0.234118381522984 0 -0.4244417442875083 -0.23430940272192621 0 -0.40716434184732359 -0.21446429196481601 0 -0.43018080968280481 -0.22402208464885051 0 -0.4244417442875083 -0.23430940272192621 0 -0.40716434184732359 -0.21446429196481601 0 -0.4244417442875083 -0.23430940272192621 0 -0.40616873012943328 -0.2380724742752143 0 -0.40716434184732359 -0.21446429196481601 0 -0.3999403531778139 -0.25255777809320151 0 -0.41674760700480662 -0.25655791798851102 0 -0.40616873012943328 -0.2380724742752143 0 -0.41674760700480662 -0.25655791798851102 0 -0.4244417442875083 -0.23430940272192621 0 -0.40616873012943328 -0.2380724742752143 0 -0.3999403531778139 -0.25255777809320151 0 -0.40616873012943328 -0.2380724742752143 0 -0.38703902375446902 -0.24383845741606119 0 -0.40616873012943328 -0.2380724742752143 0 -0.38703902375446902 -0.24383845741606119 0 -0.37973134364711042 -0.23057452398867981 0 -0.38703902375446902 -0.24383845741606119 0 -0.3756643166546676 -0.24119391028490669 0 -0.37973134364711042 -0.23057452398867981 0 -0.38100293632462362 -0.25057896254278189 0 -0.38703902375446902 -0.24383845741606119 0 -0.3756643166546676 -0.24119391028490669 0 -0.37542713549415629 -0.21984770865456321 0 -0.37973134364711042 -0.23057452398867981 0 -0.39123140656130267 -0.21602378887465709 0 -0.40616873012943328 -0.2380724742752143 0 -0.39123140656130267 -0.21602378887465709 0 -0.40716434184732359 -0.21446429196481601 0 -0.40616873012943328 -0.2380724742752143 0 -0.39123140656130267 -0.21602378887465709 0 -0.40616873012943328 -0.2380724742752143 0 -0.37973134364711042 -0.23057452398867981 0 -0.39123140656130267 -0.21602378887465709 0 -0.39123140656130267 -0.21602378887465709 0 -0.40550979699500772 -0.20329603653525441 0 -0.39513688611155251 -0.19823758942784961 0 -0.39123140656130267 -0.21602378887465709 0 -0.40550979699500772 -0.20329603653525441 0 -0.40716434184732359 -0.21446429196481601 0 -0.39123140656130267 -0.21602378887465709 0 -0.37629408299317207 -0.19397510347409991 0 -0.37249487843280371 -0.20834580022900209 0 -0.39123140656130267 -0.21602378887465709 0 -0.37629408299317207 -0.19397510347409991 0 -0.37249487843280371 -0.20834580022900209 0 -0.37542713549415629 -0.21984770865456321 0 -0.39123140656130267 -0.21602378887465709 0 -0.37629408299317207 -0.19397510347409991 0 -0.39513688611155251 -0.19823758942784961 0 -0.38735846487900549 -0.18201840890891119 0 -0.39123140656130267 -0.21602378887465709 0 -0.37629408299317207 -0.19397510347409991 0 -0.39513688611155251 -0.19823758942784961 0 -0.39513688611155251 -0.19823758942784961 0 -0.41324994480906219 -0.1950766959397528 0 -0.38735846487900549 -0.18201840890891119 0 -0.40550979699500772 -0.20329603653525441 0 -0.39513688611155251 -0.19823758942784961 0 -0.41324994480906219 -0.1950766959397528 0 -0.41324994480906219 -0.1950766959397528 0 -0.38735846487900549 -0.18201840890891119 0 -0.41324994480906219 -0.1950766959397528 0 -0.42830710322991522 -0.19680768594527559 0 -0.41979099477934811 -0.18409815341710389 0 -0.41324994480906219 -0.1950766959397528 0 -0.41838324777490321 -0.207925059367391 0 -0.42830710322991522 -0.19680768594527559 0 -0.40550979699500772 -0.20329603653525441 0 -0.41324994480906219 -0.1950766959397528 0 -0.41838324777490321 -0.207925059367391 0 -0.43018080968280481 -0.22402208464885051 0 -0.40716434184732359 -0.21446429196481601 0 -0.41838324777490321 -0.207925059367391 0 -0.40550979699500772 -0.20329603653525441 0 -0.40716434184732359 -0.21446429196481601 0 -0.41838324777490321 -0.207925059367391 0 -0.43018080968280481 -0.22402208464885051 0 -0.42830710322991522 -0.19680768594527559 0 -0.44397082764593587 -0.20940094286609739 0 -0.43018080968280481 -0.22402208464885051 0 -0.42830710322991522 -0.19680768594527559 0 -0.43018080968280481 -0.22402208464885051 0 -0.41838324777490321 -0.207925059367391 0 -0.42830710322991522 -0.19680768594527559 0 -0.42830710322991522 -0.19680768594527559 0 -0.43611053198040678 -0.18263784011771181 0 -0.44386731017550518 -0.19318854338988389 0 -0.43611053198040678 -0.18263784011771181 0 -0.4264333967770258 -0.1695932872417007 0 -0.44902974188701239 -0.1762263503740413 0 -0.42830710322991522 -0.19680768594527559 0 -0.43611053198040678 -0.18263784011771181 0 -0.4264333967770258 -0.1695932872417007 0 -0.42830710322991522 -0.19680768594527559 0 -0.4264333967770258 -0.1695932872417007 0 -0.41979099477934811 -0.18409815341710389 0 -0.42830710322991522 -0.19680768594527559 0 -0.4264333967770258 -0.1695932872417007 0 -0.4264333967770258 -0.1695932872417007 0 -0.41979099477934811 -0.18409815341710389 0 -0.4264333967770258 -0.1695932872417007 0 -0.43530899593460248 -0.150211837872609 0 -0.4264333967770258 -0.1695932872417007 0 -0.4247162440040978 -0.14465273151839281 0 -0.4264333967770258 -0.1695932872417007 0 -0.43530899593460248 -0.150211837872609 0 -0.44902974188701239 -0.1762263503740413 0 -0.4264333967770258 -0.1695932872417007 0 -0.4119395108177733 -0.15857783802968839 0 -0.4247162440040978 -0.14465273151839281 0 -0.4119395108177733 -0.15857783802968839 0 -0.41337998399763692 -0.17238892202521891 0 -0.39716454920637018 -0.16950495365656021 0 -0.4264333967770258 -0.1695932872417007 0 -0.4119395108177733 -0.15857783802968839 0 -0.41337998399763692 -0.17238892202521891 0 -0.41337998399763692 -0.17238892202521891 0 -0.41979099477934811 -0.18409815341710389 0 -0.40618878753428461 -0.1806174267895094 0 -0.4264333967770258 -0.1695932872417007 0 -0.41337998399763692 -0.17238892202521891 0 -0.41979099477934811 -0.18409815341710389 0 -0.41324994480906219 -0.1950766959397528 0 -0.41979099477934811 -0.18409815341710389 0 -0.40618878753428461 -0.1806174267895094 0 -0.40618878753428461 -0.1806174267895094 0 -0.38735846487900549 -0.18201840890891119 0 -0.39716454920637018 -0.16950495365656021 0 -0.41337998399763692 -0.17238892202521891 0 -0.40618878753428461 -0.1806174267895094 0 -0.39716454920637018 -0.16950495365656021 0 -0.41324994480906219 -0.1950766959397528 0 -0.40618878753428461 -0.1806174267895094 0 -0.38735846487900549 -0.18201840890891119 0 -0.38735846487900549 -0.18201840890891119 0 -0.3883064875669936 -0.16870962884665619 0 -0.39716454920637018 -0.16950495365656021 0 -0.37161907306154202 -0.17922001308365559 0 -0.37629408299317207 -0.19397510347409991 0 -0.38735846487900549 -0.18201840890891119 0 -0.38735846487900549 -0.18201840890891119 0 -0.38031006373651099 -0.1657403326317575 0 -0.3883064875669936 -0.16870962884665619 0 -0.37153809633817841 -0.1653584908172947 0 -0.38735846487900549 -0.18201840890891119 0 -0.38031006373651099 -0.1657403326317575 0 -0.37153809633817841 -0.1653584908172947 0 -0.38031006373651099 -0.1657403326317575 0 -0.37938820977670962 -0.15451394970132321 0 -0.38031006373651099 -0.1657403326317575 0 -0.38839287244608772 -0.15757482018939581 0 -0.37938820977670962 -0.15451394970132321 0 -0.38031006373651099 -0.1657403326317575 0 -0.3883064875669936 -0.16870962884665619 0 -0.38839287244608772 -0.15757482018939581 0 -0.38839287244608772 -0.15757482018939581 0 -0.39716454920637018 -0.16950495365656021 0 -0.39950787957616901 -0.14397760807044169 0 -0.4119395108177733 -0.15857783802968839 0 -0.39716454920637018 -0.16950495365656021 0 -0.39950787957616901 -0.14397760807044169 0 -0.39716454920637018 -0.16950495365656021 0 -0.39950787957616901 -0.14397760807044169 0 -0.3883064875669936 -0.16870962884665619 0 -0.38839287244608772 -0.15757482018939581 0 -0.39716454920637018 -0.16950495365656021 0 -0.39950787957616901 -0.14397760807044169 0 -0.3809700474397878 -0.14348113297444151 0 -0.38839287244608772 -0.15757482018939581 0 -0.39950787957616901 -0.14397760807044169 0 -0.3809700474397878 -0.14348113297444151 0 -0.38839287244608772 -0.15757482018939581 0 -0.3809700474397878 -0.14348113297444151 0 -0.37938820977670962 -0.15451394970132321 0 -0.3701519468561304 -0.1553903417896399 0 -0.3809700474397878 -0.14348113297444151 0 -0.37938820977670962 -0.15451394970132321 0 -0.37604978349753682 -0.1305695757879414 0 -0.38908604387160639 -0.13108360082930481 0 -0.38013010237982348 -0.1153213818989289 0 -0.39950787957616901 -0.14397760807044169 0 -0.3809700474397878 -0.14348113297444151 0 -0.38908604387160639 -0.13108360082930481 0 -0.3809700474397878 -0.14348113297444151 0 -0.37604978349753682 -0.1305695757879414 0 -0.38908604387160639 -0.13108360082930481 0 -0.39950787957616901 -0.14397760807044169 0 -0.38908604387160639 -0.13108360082930481 0 -0.40165133317540308 -0.12062764364338061 0 -0.39950787957616901 -0.14397760807044169 0 -0.40165133317540308 -0.12062764364338061 0 -0.39950787957616901 -0.14397760807044169 0 -0.41232203336743062 -0.1272796321847649 0 -0.40165133317540308 -0.12062764364338061 0 -0.39950787957616901 -0.14397760807044169 0 -0.41232203336743062 -0.1272796321847649 0 -0.4160079902226993 -0.1361720249185891 0 -0.4160079902226993 -0.1361720249185891 0 -0.4247162440040978 -0.14465273151839281 0 -0.42356607680282182 -0.127947281877131 0 -0.41232203336743062 -0.1272796321847649 0 -0.4160079902226993 -0.1361720249185891 0 -0.42356607680282182 -0.127947281877131 0 -0.41232203336743062 -0.1272796321847649 0 -0.42356607680282182 -0.127947281877131 0 -0.41986723551606597 -0.12093428468085191 0 -0.39950787957616901 -0.14397760807044169 0 -0.4247162440040978 -0.14465273151839281 0 -0.39950787957616901 -0.14397760807044169 0 -0.4160079902226993 -0.1361720249185891 0 -0.4247162440040978 -0.14465273151839281 0 -0.4119395108177733 -0.15857783802968839 0 -0.39950787957616901 -0.14397760807044169 0 -0.4247162440040978 -0.14465273151839281 0 -0.4264333967770258 -0.1695932872417007 0 -0.4247162440040978 -0.14465273151839281 0 -0.43530899593460248 -0.150211837872609 0 -0.4247162440040978 -0.14465273151839281 0 -0.43248673662131498 -0.14486083870372191 0 -0.43248673662131498 -0.14486083870372191 0 -0.43371570309418228 -0.13671381198632171 0 -0.43769556488196909 -0.14500034010236501 0 -0.4247162440040978 -0.14465273151839281 0 -0.43530899593460248 -0.150211837872609 0 -0.43248673662131498 -0.14486083870372191 0 -0.43530899593460248 -0.150211837872609 0 -0.43769556488196909 -0.14500034010236501 0 -0.43530899593460248 -0.150211837872609 0 -0.43248673662131498 -0.14486083870372191 0 -0.43530899593460248 -0.150211837872609 0 -0.43248673662131498 -0.14486083870372191 0 -0.43769556488196909 -0.14500034010236501 0 -0.43248673662131498 -0.14486083870372191 0 -0.43769556488196909 -0.14500034010236501 0 -0.4247162440040978 -0.14465273151839281 0 -0.42356607680282182 -0.127947281877131 0 -0.43248673662131498 -0.14486083870372191 0 -0.42356607680282182 -0.127947281877131 0 -0.4247162440040978 -0.14465273151839281 0 -0.43248673662131498 -0.14486083870372191 0 -0.42356607680282182 -0.127947281877131 0 -0.43248673662131498 -0.14486083870372191 0 -0.43371570309418228 -0.13671381198632171 0 -0.42356607680282182 -0.127947281877131 0 -0.43371570309418228 -0.13671381198632171 0 -0.43393467774707101 -0.12953977077528919 0 -0.44192653909503432 -0.1357612553897056 0 -0.43371570309418228 -0.13671381198632171 0 -0.43393467774707101 -0.12953977077528919 0 -0.42356607680282182 -0.127947281877131 0 -0.43393467774707101 -0.12953977077528919 0 -0.44040315015508658 -0.12572588993431161 0 -0.43006191958823181 -0.12155061468897541 0 -0.43393467774707101 -0.12953977077528919 0 -0.42356607680282182 -0.127947281877131 0 -0.43006191958823181 -0.12155061468897541 0 -0.44402761327197032 -0.1311731862286234 0 -0.45350957691232108 -0.1454238666012081 0 -0.45723506512287182 -0.13734468837488281 0 -0.44402761327197032 -0.1311731862286234 0 -0.442194947010767 -0.1375293997255822 0 -0.45350957691232108 -0.1454238666012081 0 -0.44402761327197032 -0.1311731862286234 0 -0.45350957691232108 -0.1454238666012081 0 -0.44402761327197032 -0.1311731862286234 0 -0.44040315015508658 -0.12572588993431161 0 -0.44192653909503432 -0.1357612553897056 0 -0.43393467774707101 -0.12953977077528919 0 -0.44040315015508658 -0.12572588993431161 0 -0.44192653909503432 -0.1357612553897056 0 -0.44040315015508658 -0.12572588993431161 0 -0.44192653909503432 -0.1357612553897056 0 -0.44402761327197032 -0.1311731862286234 0 -0.44040315015508658 -0.12572588993431161 0 -0.44192653909503432 -0.1357612553897056 0 -0.43769556488196909 -0.14500034010236501 0 -0.43371570309418228 -0.13671381198632171 0 -0.44192653909503432 -0.1357612553897056 0 -0.43769556488196909 -0.14500034010236501 0 -0.44192653909503432 -0.1357612553897056 0 -0.442194947010767 -0.1375293997255822 0 -0.43769556488196909 -0.14500034010236501 0 -0.44402761327197032 -0.1311731862286234 0 -0.44192653909503432 -0.1357612553897056 0 -0.442194947010767 -0.1375293997255822 0 -0.44402761327197032 -0.1311731862286234 0 -0.44192653909503432 -0.1357612553897056 0 -0.44192653909503432 -0.1357612553897056 0 -0.442194947010767 -0.1375293997255822 0 -0.43769556488196909 -0.14500034010236501 0 -0.44485169195699881 -0.1504787874376752 0 -0.45350957691232108 -0.1454238666012081 0 -0.442194947010767 -0.1375293997255822 0 -0.43769556488196909 -0.14500034010236501 0 -0.45350957691232108 -0.1454238666012081 0 -0.43769556488196909 -0.14500034010236501 0 -0.45350957691232108 -0.1454238666012081 0 -0.43530899593460248 -0.150211837872609 0 -0.43769556488196909 -0.14500034010236501 0 -0.44485169195699881 -0.1504787874376752 0 -0.43530899593460248 -0.150211837872609 0 -0.44485169195699881 -0.1504787874376752 0 -0.44870816196286811 -0.15867686676417381 0 -0.44485169195699881 -0.1504787874376752 0 -0.45350957691232108 -0.1454238666012081 0 -0.44870816196286811 -0.15867686676417381 0 -0.45350957691232108 -0.1454238666012081 0 -0.46510763695957608 -0.1628548812037186 0 -0.45350957691232108 -0.1454238666012081 0 -0.46229591929998781 -0.14565917999429109 0 -0.46510763695957608 -0.1628548812037186 0 -0.46229591929998781 -0.14565917999429109 0 -0.47759671704524892 -0.14904960905202261 0 -0.46510763695957608 -0.1628548812037186 0 -0.45350957691232108 -0.1454238666012081 0 -0.46229591929998781 -0.14565917999429109 0 -0.45723506512287182 -0.13734468837488281 0 -0.45350957691232108 -0.1454238666012081 0 -0.46229591929998781 -0.14565917999429109 0 -0.45350957691232108 -0.1454238666012081 0 -0.46510763695957608 -0.1628548812037186 0 -0.44870816196286811 -0.15867686676417381 0 -0.46229591929998781 -0.14565917999429109 0 -0.46800424475956409 -0.1360295095635265 0 -0.45723506512287182 -0.13734468837488281 0 -0.46800424475956409 -0.1360295095635265 0 -0.45723506512287182 -0.13734468837488281 0 -0.45833797137051729 -0.1284376994867642 0 -0.44402761327197032 -0.1311731862286234 0 -0.45723506512287182 -0.13734468837488281 0 -0.45833797137051729 -0.1284376994867642 0 -0.46800424475956409 -0.1360295095635265 0 -0.45833797137051729 -0.1284376994867642 0 -0.4688131679446601 -0.12114347433947591 0 -0.46800424475956409 -0.1360295095635265 0 -0.48291639053358171 -0.13241516776855161 0 -0.4688131679446601 -0.12114347433947591 0 -0.46800424475956409 -0.1360295095635265 0 -0.48291639053358171 -0.13241516776855161 0 -0.47759671704524892 -0.14904960905202261 0 -0.48291639053358171 -0.13241516776855161 0 -0.5 -0.1502634494892022 0 -0.50000000000000067 -0.1244432259820015 0 -0.5 -0.1502634494892022 0 -0.47759671704524892 -0.14904960905202261 0 -0.48457469682297122 -0.16460270735937291 0 -0.48291639053358171 -0.13241516776855161 0 -0.5 -0.1502634494892022 0 -0.47759671704524892 -0.14904960905202261 0 -0.46229591929998781 -0.14565917999429109 0 -0.46800424475956409 -0.1360295095635265 0 -0.47759671704524892 -0.14904960905202261 0 -0.47759671704524892 -0.14904960905202261 0 -0.48457469682297122 -0.16460270735937291 0 -0.46510763695957608 -0.1628548812037186 0 -0.47670569700683108 -0.1802858958062292 0 -0.46510763695957608 -0.1628548812037186 0 -0.48457469682297122 -0.16460270735937291 0 -0.47670569700683108 -0.1802858958062292 0 -0.46510763695957608 -0.1628548812037186 0 -0.5 -0.1502634494892022 0 -0.48457469682297122 -0.16460270735937291 0 -0.5 -0.1760836729964029 0 -0.5 -0.1760836729964029 0 -0.47670569700683108 -0.1802858958062292 0 -0.48830375705408591 -0.19771691040873979 0 -0.48457469682297122 -0.16460270735937291 0 -0.5 -0.1760836729964029 0 -0.47670569700683108 -0.1802858958062292 0 -0.47670569700683108 -0.1802858958062292 0 -0.46508519567506601 -0.18122829335312621 0 -0.46510763695957608 -0.1628548812037186 0 -0.47670569700683108 -0.1802858958062292 0 -0.46508519567506601 -0.18122829335312621 0 -0.47583276442852068 -0.193440721452107 0 -0.46508519567506601 -0.18122829335312621 0 -0.44902974188701239 -0.1762263503740413 0 -0.46275048783942041 -0.20224086287547441 0 -0.46508519567506601 -0.18122829335312621 0 -0.46510763695957608 -0.1628548812037186 0 -0.44902974188701239 -0.1762263503740413 0 -0.46510763695957608 -0.1628548812037186 0 -0.44870816196286811 -0.15867686676417381 0 -0.44902974188701239 -0.1762263503740413 0 -0.43530899593460248 -0.150211837872609 0 -0.44870816196286811 -0.15867686676417381 0 -0.44902974188701239 -0.1762263503740413 0 -0.43530899593460248 -0.150211837872609 0 -0.44902974188701239 -0.1762263503740413 0 -0.43611053198040678 -0.18263784011771181 0 -0.44902974188701239 -0.1762263503740413 0 -0.44386731017550518 -0.19318854338988389 0 -0.44902974188701239 -0.1762263503740413 0 -0.44386731017550518 -0.19318854338988389 0 -0.46275048783942041 -0.20224086287547441 0 -0.44386731017550518 -0.19318854338988389 0 -0.44397082764593587 -0.20940094286609739 0 -0.46275048783942041 -0.20224086287547441 0 -0.42830710322991522 -0.19680768594527559 0 -0.44386731017550518 -0.19318854338988389 0 -0.44397082764593587 -0.20940094286609739 0 -0.44397082764593587 -0.20940094286609739 0 -0.45660166856011508 -0.21979689597116869 0 -0.44524020046472801 -0.22406044200639599 0 -0.44397082764593587 -0.20940094286609739 0 -0.46275048783942041 -0.20224086287547441 0 -0.45660166856011508 -0.21979689597116869 0 -0.46275048783942041 -0.20224086287547441 0 -0.47647123379182837 -0.2282553753769074 0 -0.45660166856011508 -0.21979689597116869 0 -0.44902974188701239 -0.1762263503740413 0 -0.46275048783942041 -0.20224086287547441 0 -0.46508519567506601 -0.18122829335312621 0 -0.46275048783942041 -0.20224086287547441 0 -0.47583276442852068 -0.193440721452107 0 -0.46275048783942041 -0.20224086287547441 0 -0.47583276442852068 -0.193440721452107 0 -0.47842783520667731 -0.20729357567408649 0 -0.47670569700683108 -0.1802858958062292 0 -0.47583276442852068 -0.193440721452107 0 -0.48830375705408591 -0.19771691040873979 0 -0.47670569700683108 -0.1802858958062292 0 -0.48830375705408591 -0.19771691040873979 0 -0.47583276442852068 -0.193440721452107 0 -0.48830375705408591 -0.19771691040873979 0 -0.47842783520667731 -0.20729357567408649 0 -0.5 -0.1760836729964029 0 -0.5 -0.2019038965036036 0 -0.48830375705408591 -0.19771691040873979 0 -0.48830375705408591 -0.19771691040873979 0 -0.48878093291953079 -0.2148140082572039 0 -0.47842783520667731 -0.20729357567408649 0 -0.5 -0.2019038965036036 0 -0.48878093291953079 -0.2148140082572039 0 -0.5 -0.2277241200108043 0 -0.5 -0.2019038965036036 0 -0.48830375705408591 -0.19771691040873979 0 -0.48878093291953079 -0.2148140082572039 0 -0.48878093291953079 -0.2148140082572039 0 -0.47842783520667731 -0.20729357567408649 0 -0.47647123379182837 -0.2282553753769074 0 -0.46275048783942041 -0.20224086287547441 0 -0.47842783520667731 -0.20729357567408649 0 -0.47647123379182837 -0.2282553753769074 0 -0.46275048783942041 -0.20224086287547441 0 -0.47647123379182837 -0.2282553753769074 0 -0.47647123379182837 -0.2282553753769074 0 -0.5 -0.2277241200108043 0 -0.48481247171057978 -0.24408474157918181 0 -0.48878093291953079 -0.2148140082572039 0 -0.47647123379182837 -0.2282553753769074 0 -0.5 -0.2277241200108043 0 -0.5 -0.25354434351800498 0 -0.5 -0.2277241200108043 0 -0.48481247171057978 -0.24408474157918181 0 -0.46682899131119288 -0.25102815300489301 0 -0.47647123379182837 -0.2282553753769074 0 -0.48481247171057978 -0.24408474157918181 0 -0.46682899131119288 -0.25102815300489301 0 -0.47647123379182837 -0.2282553753769074 0 -0.45457559305866291 -0.23502685673096821 0 -0.44171914672769302 -0.25415451347903623 0 -0.46682899131119288 -0.25102815300489301 0 -0.45457559305866291 -0.23502685673096821 0 -0.47647123379182837 -0.2282553753769074 0 -0.45457559305866291 -0.23502685673096821 0 -0.45660166856011508 -0.21979689597116869 0 -0.45457559305866291 -0.23502685673096821 0 -0.44524020046472801 -0.22406044200639599 0 -0.43887789481282619 -0.234118381522984 0 -0.45457559305866291 -0.23502685673096821 0 -0.45660166856011508 -0.21979689597116869 0 -0.44524020046472801 -0.22406044200639599 0 -0.43018080968280481 -0.22402208464885051 0 -0.44397082764593587 -0.20940094286609739 0 -0.44524020046472801 -0.22406044200639599 0 -0.43018080968280481 -0.22402208464885051 0 -0.44524020046472801 -0.22406044200639599 0 -0.43887789481282619 -0.234118381522984 0 -0.44171914672769302 -0.25415451347903623 0 -0.45457559305866291 -0.23502685673096821 0 -0.43887789481282619 -0.234118381522984 0 -0.4162703946615175 -0.036973884782726223 0 -0.40860871376237951 -0.044836598169306137 0 -0.41127918715087969 -0.0157454815493531 0 -0.40860871376237951 -0.044836598169306137 0 -0.41127918715087969 -0.0157454815493531 0 -0.40336599823417701 -0.03693928025105972 0 -0.41724534092339682 -0.046338722896909858 0 -0.41932729984436751 -0.042251484426041028 0 -0.4162703946615175 -0.036973884782726223 0 -0.41724534092339682 -0.046338722896909858 0 -0.41932729984436751 -0.042251484426041028 0 -0.42466008817352791 -0.044498318948165028 0 -0.41932729984436751 -0.042251484426041028 0 -0.4162703946615175 -0.036973884782726223 0 -0.42521919615565701 -0.036898517052743378 0 -0.4162703946615175 -0.036973884782726223 0 -0.42521919615565701 -0.036898517052743378 0 -0.42409497406852542 -0.025979874485350819 0 -0.41724534092339682 -0.046338722896909858 0 -0.4162703946615175 -0.036973884782726223 0 -0.40860871376237951 -0.044836598169306137 0 -0.4070025820736608 -0.043775401423266323 0 -0.40860871376237951 -0.044836598169306137 0 -0.40336599823417701 -0.03693928025105972 0 -0.40860871376237951 -0.044836598169306137 0 -0.41352994408069232 -0.055952376748469403 0 -0.41177218977955321 -0.06397503332026315 0 -0.40860871376237951 -0.044836598169306137 0 -0.41352994408069232 -0.055952376748469403 0 -0.41643254650056588 -0.051461661562262152 0 -0.40860871376237951 -0.044836598169306137 0 -0.40593824037387599 -0.073927714789258747 0 -0.40860871376237951 -0.044836598169306137 0 -0.40593824037387599 -0.073927714789258747 0 -0.41177218977955321 -0.06397503332026315 0 -0.41352994408069232 -0.055952376748469403 0 -0.42085649059406371 -0.058951806865511269 0 -0.41177218977955321 -0.06397503332026315 0 -0.41352994408069232 -0.055952376748469403 0 -0.42085649059406371 -0.058951806865511269 0 -0.41643254650056588 -0.051461661562262152 0 -0.41724534092339682 -0.046338722896909858 0 -0.40860871376237951 -0.044836598169306137 0 -0.41643254650056588 -0.051461661562262152 0 -0.42085649059406371 -0.058951806865511269 0 -0.41643254650056588 -0.051461661562262152 0 -0.42192224314229709 -0.051228803131114088 0 -0.41724534092339682 -0.046338722896909858 0 -0.42192224314229709 -0.051228803131114088 0 -0.42466008817352791 -0.044498318948165028 0 -0.41724534092339682 -0.046338722896909858 0 -0.41643254650056588 -0.051461661562262152 0 -0.42192224314229709 -0.051228803131114088 0 -0.42085649059406371 -0.058951806865511269 0 -0.42192224314229709 -0.051228803131114088 0 -0.43174799050700591 -0.051459705689637911 0 -0.42192224314229709 -0.051228803131114088 0 -0.43174799050700591 -0.051459705689637911 0 -0.42466008817352791 -0.044498318948165028 0 -0.42085649059406371 -0.058951806865511269 0 -0.43071874477816607 -0.06192961005653852 0 -0.43174799050700591 -0.051459705689637911 0 -0.43071874477816607 -0.06192961005653852 0 -0.43174799050700591 -0.051459705689637911 0 -0.44191280180493958 -0.061734332901946007 0 -0.43174799050700591 -0.051459705689637911 0 -0.43368604000820388 -0.040982417846531297 0 -0.44393089276092162 -0.049225023683917242 0 -0.43174799050700591 -0.051459705689637911 0 -0.43368604000820388 -0.040982417846531297 0 -0.42466008817352791 -0.044498318948165028 0 -0.43368604000820388 -0.040982417846531297 0 -0.42466008817352791 -0.044498318948165028 0 -0.42521919615565701 -0.036898517052743378 0 -0.41932729984436751 -0.042251484426041028 0 -0.42466008817352791 -0.044498318948165028 0 -0.42521919615565701 -0.036898517052743378 0 -0.43368604000820388 -0.040982417846531297 0 -0.42521919615565701 -0.036898517052743378 0 -0.43327638017779979 -0.03070512182764594 0 -0.43368604000820388 -0.040982417846531297 0 -0.43327638017779979 -0.03070512182764594 0 -0.44462761117665939 -0.033892557985653007 0 -0.43327638017779979 -0.03070512182764594 0 -0.43689592879446981 -0.019883833289050339 0 -0.42409497406852542 -0.025979874485350819 0 -0.43689592879446981 -0.019883833289050339 0 -0.42409497406852542 -0.025979874485350819 0 -0.42805522992714562 -0.01318134653417719 0 -0.42521919615565701 -0.036898517052743378 0 -0.43327638017779979 -0.03070512182764594 0 -0.42409497406852542 -0.025979874485350819 0 -0.42805522992714562 -0.01318134653417719 0 -0.41127918715087969 -0.0157454815493531 0 -0.42758688314687793 4.56899480267281e-05 0 -0.42805522992714562 -0.01318134653417719 0 -0.44041917647497519 -0.0043432332951584274 0 -0.42758688314687793 4.56899480267281e-05 0 -0.43689592879446981 -0.019883833289050339 0 -0.42805522992714562 -0.01318134653417719 0 -0.44041917647497519 -0.0043432332951584274 0 -0.41127918715087969 -0.0157454815493531 0 -0.41394966053937998 0.01334563507059992 0 -0.41127918715087969 -0.0157454815493531 0 -0.42758688314687793 4.56899480267281e-05 0 -0.41394966053937998 0.01334563507059992 0 -0.41127918715087969 -0.0157454815493531 0 -0.40017062158542782 -0.0038387895413610901 0 -0.41394966053937998 0.01334563507059992 0 -0.40860871376237951 -0.044836598169306137 0 -0.41127918715087969 -0.0157454815493531 0 -0.4162703946615175 -0.036973884782726223 0 -0.42409497406852542 -0.025979874485350819 0 -0.41127918715087969 -0.0157454815493531 0 -0.42409497406852542 -0.025979874485350819 0 -0.42805522992714562 -0.01318134653417719 0 -0.41127918715087969 -0.0157454815493531 0 -0.41127918715087969 -0.0157454815493531 0 -0.40080747226165409 -0.028204154674896169 0 -0.40336599823417701 -0.03693928025105972 0 -0.41127918715087969 -0.0157454815493531 0 -0.40080747226165409 -0.028204154674896169 0 -0.39817588919084479 -0.020714797009624052 0 -0.39817588919084479 -0.020714797009624052 0 -0.39075231019145162 -0.012634545706286179 0 -0.38539644028815462 -0.024444570923951709 0 -0.39817588919084479 -0.020714797009624052 0 -0.39402312816116941 -0.031168601602528191 0 -0.38539644028815462 -0.024444570923951709 0 -0.40080747226165409 -0.028204154674896169 0 -0.39817588919084479 -0.020714797009624052 0 -0.39402312816116941 -0.031168601602528191 0 -0.39817588919084479 -0.020714797009624052 0 -0.40017062158542782 -0.0038387895413610901 0 -0.39075231019145162 -0.012634545706286179 0 -0.41127918715087969 -0.0157454815493531 0 -0.39817588919084479 -0.020714797009624052 0 -0.40017062158542782 -0.0038387895413610901 0 -0.40017062158542782 -0.0038387895413610901 0 -0.39075231019145162 -0.012634545706286179 0 -0.38645945484234001 -0.00036052547126835843 0 -0.39075231019145162 -0.012634545706286179 0 -0.38645945484234001 -0.00036052547126835843 0 -0.37738686226534363 -0.01323459619958703 0 -0.38645945484234001 -0.00036052547126835843 0 -0.37738686226534363 -0.01323459619958703 0 -0.37366197689732522 0.0012785186665680559 0 -0.39402312816116941 -0.031168601602528191 0 -0.38539644028815462 -0.024444570923951709 0 -0.38749682656910162 -0.033534840737372118 0 -0.38539644028815462 -0.024444570923951709 0 -0.37984199107506789 -0.033890862169894252 0 -0.38749682656910162 -0.033534840737372118 0 -0.39075231019145162 -0.012634545706286179 0 -0.37738686226534363 -0.01323459619958703 0 -0.38539644028815462 -0.024444570923951709 0 -0.37738686226534363 -0.01323459619958703 0 -0.38539644028815462 -0.024444570923951709 0 -0.37572716706011239 -0.0240696977567233 0 -0.38539644028815462 -0.024444570923951709 0 -0.37572716706011239 -0.0240696977567233 0 -0.37984199107506789 -0.033890862169894252 0 -0.36959331310531829 -0.031954041508409511 0 -0.37572716706011239 -0.0240696977567233 0 -0.37984199107506789 -0.033890862169894252 0 -0.37330575909772251 -0.038255008438460671 0 -0.37984199107506789 -0.033890862169894252 0 -0.377918264125567 -0.044613536529405057 0 -0.377918264125567 -0.044613536529405057 0 -0.38702672815664468 -0.039102378132629893 0 -0.39413006057874278 -0.039784291052573487 0 -0.37984199107506789 -0.033890862169894252 0 -0.377918264125567 -0.044613536529405057 0 -0.38702672815664468 -0.039102378132629893 0 -0.37984199107506789 -0.033890862169894252 0 -0.38702672815664468 -0.039102378132629893 0 -0.38749682656910162 -0.033534840737372118 0 -0.38702672815664468 -0.039102378132629893 0 -0.38749682656910162 -0.033534840737372118 0 -0.3918806708135818 -0.036040036678888082 0 -0.4070025820736608 -0.043775401423266323 0 -0.377918264125567 -0.044613536529405057 0 -0.39413006057874278 -0.039784291052573487 0 -0.39402312816116941 -0.031168601602528191 0 -0.38749682656910162 -0.033534840737372118 0 -0.3918806708135818 -0.036040036678888082 0 -0.4070025820736608 -0.043775401423266323 0 -0.377918264125567 -0.044613536529405057 0 -0.39402312816116941 -0.031168601602528191 0 -0.39695292270387661 -0.034754908081963 0 -0.3918806708135818 -0.036040036678888082 0 -0.4070025820736608 -0.043775401423266323 0 -0.377918264125567 -0.044613536529405057 0 -0.38697844235995699 -0.045432560022454299 0 -0.39695292270387661 -0.034754908081963 0 -0.39413006057874278 -0.039784291052573487 0 -0.40336599823417701 -0.03693928025105972 0 -0.40080747226165409 -0.028204154674896169 0 -0.39402312816116941 -0.031168601602528191 0 -0.39695292270387661 -0.034754908081963 0 -0.39695292270387661 -0.034754908081963 0 -0.3918806708135818 -0.036040036678888082 0 -0.39413006057874278 -0.039784291052573487 0 -0.38702672815664468 -0.039102378132629893 0 -0.3918806708135818 -0.036040036678888082 0 -0.39413006057874278 -0.039784291052573487 0 -0.4070025820736608 -0.043775401423266323 0 -0.39413006057874278 -0.039784291052573487 0 -0.40336599823417701 -0.03693928025105972 0 -0.40080747226165409 -0.028204154674896169 0 -0.39695292270387661 -0.034754908081963 0 -0.40336599823417701 -0.03693928025105972 0 -0.4070025820736608 -0.043775401423266323 0 -0.38697844235995699 -0.045432560022454299 0 -0.40254512149890059 -0.052267858153487709 0 -0.40860871376237951 -0.044836598169306137 0 -0.40254512149890059 -0.052267858153487709 0 -0.40593824037387599 -0.073927714789258747 0 -0.40254512149890059 -0.052267858153487709 0 -0.39645834136691549 -0.059680137405857217 0 -0.40593824037387599 -0.073927714789258747 0 -0.4070025820736608 -0.043775401423266323 0 -0.40860871376237951 -0.044836598169306137 0 -0.40254512149890059 -0.052267858153487709 0 -0.38697844235995699 -0.045432560022454299 0 -0.40254512149890059 -0.052267858153487709 0 -0.39645834136691549 -0.059680137405857217 0 -0.38697844235995699 -0.045432560022454299 0 -0.39645834136691549 -0.059680137405857217 0 -0.39645834136691549 -0.059680137405857217 0 -0.38307293213795551 -0.052444479670782952 0 -0.38113183066061518 -0.059586646689271612 0 -0.38697844235995699 -0.045432560022454299 0 -0.39645834136691549 -0.059680137405857217 0 -0.38307293213795551 -0.052444479670782952 0 -0.377918264125567 -0.044613536529405057 0 -0.38307293213795551 -0.052444479670782952 0 -0.37531608161951241 -0.054597891757102182 0 -0.377918264125567 -0.044613536529405057 0 -0.38697844235995699 -0.045432560022454299 0 -0.38307293213795551 -0.052444479670782952 0 -0.3720135013680746 -0.062199750492047727 0 -0.37531608161951241 -0.054597891757102182 0 -0.38113183066061518 -0.059586646689271612 0 -0.38307293213795551 -0.052444479670782952 0 -0.37531608161951241 -0.054597891757102182 0 -0.38113183066061518 -0.059586646689271612 0 -0.39645834136691549 -0.059680137405857217 0 -0.38113183066061518 -0.059586646689271612 0 -0.38074771570066612 -0.069485435524499747 0 -0.3720135013680746 -0.062199750492047727 0 -0.38113183066061518 -0.059586646689271612 0 -0.38074771570066612 -0.069485435524499747 0 -0.39645834136691549 -0.059680137405857217 0 -0.38074771570066612 -0.069485435524499747 0 -0.39047758630338142 -0.075176757748365589 0 -0.38074771570066612 -0.069485435524499747 0 -0.39047758630338142 -0.075176757748365589 0 -0.37655611353167889 -0.08415547958917069 0 -0.37050798537606372 -0.071551121673357337 0 -0.38074771570066612 -0.069485435524499747 0 -0.37655611353167889 -0.08415547958917069 0 -0.37655611353167889 -0.08415547958917069 0 -0.39206441980153739 -0.089600519194344197 0 -0.38281390262083359 -0.099366859997052914 0 -0.39047758630338142 -0.075176757748365589 0 -0.37655611353167889 -0.08415547958917069 0 -0.39206441980153739 -0.089600519194344197 0 -0.40593824037387599 -0.073927714789258747 0 -0.4037947867746412 -0.097277679216319815 0 -0.39047758630338142 -0.075176757748365589 0 -0.39206441980153739 -0.089600519194344197 0 -0.40593824037387599 -0.073927714789258747 0 -0.39206441980153739 -0.089600519194344197 0 -0.40593824037387599 -0.073927714789258747 0 -0.4037947867746412 -0.097277679216319815 0 -0.39645834136691549 -0.059680137405857217 0 -0.40593824037387599 -0.073927714789258747 0 -0.39645834136691549 -0.059680137405857217 0 -0.39047758630338142 -0.075176757748365589 0 -0.40593824037387599 -0.073927714789258747 0 -0.38908604387160639 -0.13108360082930481 0 -0.38013010237982348 -0.1153213818989289 0 -0.40165133317540308 -0.12062764364338061 0 -0.39206441980153739 -0.089600519194344197 0 -0.38281390262083359 -0.099366859997052914 0 -0.39280588920481568 -0.10769862382589609 0 -0.3710168798650903 -0.098752521635988438 0 -0.38013010237982348 -0.1153213818989289 0 -0.38281390262083359 -0.099366859997052914 0 -0.38013010237982348 -0.1153213818989289 0 -0.38281390262083359 -0.099366859997052914 0 -0.39280588920481568 -0.10769862382589609 0 -0.3710168798650903 -0.098752521635988438 0 -0.37655611353167889 -0.08415547958917069 0 -0.38281390262083359 -0.099366859997052914 0 -0.39280588920481568 -0.10769862382589609 0 -0.4037947867746412 -0.097277679216319815 0 -0.40165133317540308 -0.12062764364338061 0 -0.39206441980153739 -0.089600519194344197 0 -0.39280588920481568 -0.10769862382589609 0 -0.4037947867746412 -0.097277679216319815 0 -0.4037947867746412 -0.097277679216319815 0 -0.40165133317540308 -0.12062764364338061 0 -0.4037947867746412 -0.097277679216319815 0 -0.40165133317540308 -0.12062764364338061 0 -0.41181284273216479 -0.11375833286495041 0 -0.38013010237982348 -0.1153213818989289 0 -0.39280588920481568 -0.10769862382589609 0 -0.40165133317540308 -0.12062764364338061 0 -0.41232203336743062 -0.1272796321847649 0 -0.41986723551606597 -0.12093428468085191 0 -0.41181284273216479 -0.11375833286495041 0 -0.42356607680282182 -0.127947281877131 0 -0.41986723551606597 -0.12093428468085191 0 -0.41232203336743062 -0.1272796321847649 0 -0.40165133317540308 -0.12062764364338061 0 -0.41181284273216479 -0.11375833286495041 0 -0.41181284273216479 -0.11375833286495041 0 -0.4160950361932429 -0.1053250220496698 0 -0.42250911811867442 -0.1125956268730797 0 -0.41986723551606597 -0.12093428468085191 0 -0.41181284273216479 -0.11375833286495041 0 -0.42250911811867442 -0.1125956268730797 0 -0.4037947867746412 -0.097277679216319815 0 -0.41181284273216479 -0.11375833286495041 0 -0.4160950361932429 -0.1053250220496698 0 -0.4037947867746412 -0.097277679216319815 0 -0.4160950361932429 -0.1053250220496698 0 -0.42145215943452558 -0.097243971869028431 0 -0.4160950361932429 -0.1053250220496698 0 -0.42145215943452558 -0.097243971869028431 0 -0.42250911811867442 -0.1125956268730797 0 -0.42145215943452558 -0.097243971869028431 0 -0.43717501502944628 -0.10446046330838719 0 -0.4309276547948061 -0.11148493090167 0 -0.43717501502944628 -0.10446046330838719 0 -0.43394687990380609 -0.083195036682462878 0 -0.42145215943452558 -0.097243971869028431 0 -0.43717501502944628 -0.10446046330838719 0 -0.43394687990380609 -0.083195036682462878 0 -0.42145215943452558 -0.097243971869028431 0 -0.42250911811867442 -0.1125956268730797 0 -0.42145215943452558 -0.097243971869028431 0 -0.42250911811867442 -0.1125956268730797 0 -0.4309276547948061 -0.11148493090167 0 -0.42145215943452558 -0.097243971869028431 0 -0.4309276547948061 -0.11148493090167 0 -0.44040315015508658 -0.12572588993431161 0 -0.43717501502944628 -0.10446046330838719 0 -0.4309276547948061 -0.11148493090167 0 -0.42250911811867442 -0.1125956268730797 0 -0.4309276547948061 -0.11148493090167 0 -0.43006191958823181 -0.12155061468897541 0 -0.44040315015508658 -0.12572588993431161 0 -0.4309276547948061 -0.11148493090167 0 -0.44040315015508658 -0.12572588993431161 0 -0.4309276547948061 -0.11148493090167 0 -0.43006191958823181 -0.12155061468897541 0 -0.42356607680282182 -0.127947281877131 0 -0.42250911811867442 -0.1125956268730797 0 -0.42356607680282182 -0.127947281877131 0 -0.41986723551606597 -0.12093428468085191 0 -0.42250911811867442 -0.1125956268730797 0 -0.42356607680282182 -0.127947281877131 0 -0.42250911811867442 -0.1125956268730797 0 -0.43006191958823181 -0.12155061468897541 0 -0.42085649059406371 -0.058951806865511269 0 -0.41949348836893191 -0.068795516015111913 0 -0.41177218977955321 -0.06397503332026315 0 -0.40593824037387599 -0.073927714789258747 0 -0.41949348836893191 -0.068795516015111913 0 -0.41177218977955321 -0.06397503332026315 0 -0.40593824037387599 -0.073927714789258747 0 -0.42145215943452558 -0.097243971869028431 0 -0.41949348836893191 -0.068795516015111913 0 -0.42145215943452558 -0.097243971869028431 0 -0.41949348836893191 -0.068795516015111913 0 -0.40593824037387599 -0.073927714789258747 0 -0.4037947867746412 -0.097277679216319815 0 -0.42145215943452558 -0.097243971869028431 0 -0.40593824037387599 -0.073927714789258747 0 -0.42145215943452558 -0.097243971869028431 0 -0.42145215943452558 -0.097243971869028431 0 -0.41949348836893191 -0.068795516015111913 0 -0.43394687990380609 -0.083195036682462878 0 -0.43071874477816607 -0.06192961005653852 0 -0.43394687990380609 -0.083195036682462878 0 -0.44191280180493958 -0.061734332901946007 0 -0.43071874477816607 -0.06192961005653852 0 -0.41949348836893191 -0.068795516015111913 0 -0.43394687990380609 -0.083195036682462878 0 -0.43071874477816607 -0.06192961005653852 0 -0.43394687990380609 -0.083195036682462878 0 -0.42085649059406371 -0.058951806865511269 0 -0.43071874477816607 -0.06192961005653852 0 -0.41949348836893191 -0.068795516015111913 0 -0.4505287774553588 -0.07146284836225901 0 -0.45871618363474009 -0.057436915277976619 0 -0.44191280180493958 -0.061734332901946007 0 -0.43394687990380609 -0.083195036682462878 0 -0.4505287774553588 -0.07146284836225901 0 -0.44191280180493958 -0.061734332901946007 0 -0.43394687990380609 -0.083195036682462878 0 -0.4505287774553588 -0.07146284836225901 0 -0.45032822573657172 -0.082600771631680947 0 -0.43394687990380609 -0.083195036682462878 0 -0.4434445820331373 -0.092816264490733616 0 -0.45032822573657172 -0.082600771631680947 0 -0.43717501502944628 -0.10446046330838719 0 -0.43394687990380609 -0.083195036682462878 0 -0.4434445820331373 -0.092816264490733616 0 -0.44965191364511609 -0.091108562847245625 0 -0.45032822573657172 -0.082600771631680947 0 -0.45545362759522462 -0.094267678023517987 0 -0.4434445820331373 -0.092816264490733616 0 -0.44965191364511609 -0.091108562847245625 0 -0.45032822573657172 -0.082600771631680947 0 -0.4434445820331373 -0.092816264490733616 0 -0.44965191364511609 -0.091108562847245625 0 -0.44938121921553092 -0.094749537243049964 0 -0.44965191364511609 -0.091108562847245625 0 -0.44938121921553092 -0.094749537243049964 0 -0.45545362759522462 -0.094267678023517987 0 -0.45032822573657172 -0.082600771631680947 0 -0.46859648336663401 -0.077522688573027881 0 -0.45545362759522462 -0.094267678023517987 0 -0.46859648336663401 -0.077522688573027881 0 -0.45545362759522462 -0.094267678023517987 0 -0.45963204906561062 -0.097098125278001213 0 -0.46859648336663401 -0.077522688573027881 0 -0.45963204906561062 -0.097098125278001213 0 -0.4505287774553588 -0.07146284836225901 0 -0.45032822573657172 -0.082600771631680947 0 -0.46859648336663401 -0.077522688573027881 0 -0.4505287774553588 -0.07146284836225901 0 -0.46859648336663401 -0.077522688573027881 0 -0.45871618363474009 -0.057436915277976619 0 -0.46859648336663401 -0.077522688573027881 0 -0.47756091766765901 -0.057947251868055313 0 -0.45871618363474009 -0.057436915277976619 0 -0.44040315015508658 -0.12572588993431161 0 -0.43717501502944628 -0.10446046330838719 0 -0.44450273263843199 -0.1113885187453038 0 -0.44040315015508658 -0.12572588993431161 0 -0.43717501502944628 -0.10446046330838719 0 -0.44402761327197032 -0.1311731862286234 0 -0.45833797137051729 -0.1284376994867642 0 -0.45182983116879111 -0.1141356557533126 0 -0.44402761327197032 -0.1311731862286234 0 -0.44040315015508658 -0.12572588993431161 0 -0.45182983116879111 -0.1141356557533126 0 -0.44402761327197032 -0.1311731862286234 0 -0.45182983116879111 -0.1141356557533126 0 -0.44040315015508658 -0.12572588993431161 0 -0.44450273263843199 -0.1113885187453038 0 -0.45182983116879111 -0.1141356557533126 0 -0.44450273263843199 -0.1113885187453038 0 -0.45182983116879111 -0.1141356557533126 0 -0.44860293420040442 -0.101232065985204 0 -0.43717501502944628 -0.10446046330838719 0 -0.44450273263843199 -0.1113885187453038 0 -0.44860293420040442 -0.101232065985204 0 -0.43717501502944628 -0.10446046330838719 0 -0.4434445820331373 -0.092816264490733616 0 -0.44860293420040442 -0.101232065985204 0 -0.4434445820331373 -0.092816264490733616 0 -0.44860293420040442 -0.101232065985204 0 -0.44938121921553092 -0.094749537243049964 0 -0.44860293420040442 -0.101232065985204 0 -0.44938121921553092 -0.094749537243049964 0 -0.45545362759522462 -0.094267678023517987 0 -0.45182983116879111 -0.1141356557533126 0 -0.44860293420040442 -0.101232065985204 0 -0.45963204906561062 -0.097098125278001213 0 -0.45182983116879111 -0.1141356557533126 0 -0.45963204906561062 -0.097098125278001213 0 -0.45963204906561062 -0.097098125278001213 0 -0.46502276817796678 -0.1107869827501979 0 -0.4798160245328052 -0.11077067563000199 0 -0.45182983116879111 -0.1141356557533126 0 -0.45963204906561062 -0.097098125278001213 0 -0.46502276817796678 -0.1107869827501979 0 -0.44860293420040442 -0.101232065985204 0 -0.45545362759522462 -0.094267678023517987 0 -0.45963204906561062 -0.097098125278001213 0 -0.45545362759522462 -0.094267678023517987 0 -0.45963204906561062 -0.097098125278001213 0 -0.45833797137051729 -0.1284376994867642 0 -0.45182983116879111 -0.1141356557533126 0 -0.4688131679446601 -0.12114347433947591 0 -0.45182983116879111 -0.1141356557533126 0 -0.46502276817796678 -0.1107869827501979 0 -0.4688131679446601 -0.12114347433947591 0 -0.48291639053358171 -0.13241516776855161 0 -0.4688131679446601 -0.12114347433947591 0 -0.4798160245328052 -0.11077067563000199 0 -0.46502276817796678 -0.1107869827501979 0 -0.4688131679446601 -0.12114347433947591 0 -0.4798160245328052 -0.11077067563000199 0 -0.45963204906561062 -0.097098125278001213 0 -0.4798160245328052 -0.11077067563000199 0 -0.45963204906561062 -0.097098125278001213 0 -0.4798160245328052 -0.11077067563000199 0 -0.47920697677599028 -0.091045797563174061 0 -0.4798160245328052 -0.11077067563000199 0 -0.5 -0.096838226043376108 0 -0.47920697677599028 -0.091045797563174061 0 -0.4798160245328052 -0.11077067563000199 0 -0.50000000000000067 -0.1244432259820015 0 -0.4798160245328052 -0.11077067563000199 0 -0.5 -0.096838226043376108 0 -0.50000000000000067 -0.1244432259820015 0 -0.48291639053358171 -0.13241516776855161 0 -0.4798160245328052 -0.11077067563000199 0 -0.50000000000000067 -0.1244432259820015 0 -0.46859648336663401 -0.077522688573027881 0 -0.47756091766765901 -0.057947251868055313 0 -0.46859648336663401 -0.077522688573027881 0 -0.48799032691490191 -0.072999272291463052 0 -0.47756091766765901 -0.057947251868055313 0 -0.48799032691490191 -0.072999272291463052 0 -0.47756091766765901 -0.057947251868055313 0 -0.46859648336663401 -0.077522688573027881 0 -0.45963204906561062 -0.097098125278001213 0 -0.47920697677599028 -0.091045797563174061 0 -0.46859648336663401 -0.077522688573027881 0 -0.47920697677599028 -0.091045797563174061 0 -0.48799032691490191 -0.072999272291463052 0 -0.5 -0.096838226043376108 0 -0.47920697677599028 -0.091045797563174061 0 -0.48799032691490191 -0.072999272291463052 0 -0.5 -0.096838226043376108 0 -0.5 -0.069233226104750689 0 -0.48799032691490191 -0.072999272291463052 0 -0.48799032691490191 -0.072999272291463052 0 -0.4900630745260095 -0.056805147455116702 0 -0.47756091766765901 -0.057947251868055313 0 -0.5 -0.069233226104750689 0 -0.48799032691490191 -0.072999272291463052 0 -0.4900630745260095 -0.056805147455116702 0 -0.5 -0.069233226104750689 0 -0.4900630745260095 -0.056805147455116702 0 -0.5 -0.04162822616612516 0 -0.4900630745260095 -0.056805147455116702 0 -0.5 -0.04162822616612516 0 -0.48476412804748847 -0.042217760845190168 0 -0.5 -0.04162822616612516 0 -0.48476412804748847 -0.042217760845190168 0 -0.49196733842731999 -0.02648826982232599 0 -0.48476412804748847 -0.042217760845190168 0 -0.49196733842731999 -0.02648826982232599 0 -0.48476412804748847 -0.042217760845190168 0 -0.47895875080328598 -0.030832023896619772 0 -0.49196733842731999 -0.02648826982232599 0 -0.48476412804748847 -0.042217760845190168 0 -0.47756091766765901 -0.057947251868055313 0 -0.46394199778608353 -0.038292038869620432 0 -0.48476412804748847 -0.042217760845190168 0 -0.46394199778608353 -0.038292038869620432 0 -0.47895875080328598 -0.030832023896619772 0 -0.4900630745260095 -0.056805147455116702 0 -0.48476412804748847 -0.042217760845190168 0 -0.47756091766765901 -0.057947251868055313 0 -0.47756091766765901 -0.057947251868055313 0 -0.46394199778608353 -0.038292038869620432 0 -0.48476412804748847 -0.042217760845190168 0 -0.47756091766765901 -0.057947251868055313 0 -0.45871618363474009 -0.057436915277976619 0 -0.46394199778608353 -0.038292038869620432 0 -0.44393089276092162 -0.049225023683917242 0 -0.47756091766765901 -0.057947251868055313 0 -0.45871618363474009 -0.057436915277976619 0 -0.46394199778608353 -0.038292038869620432 0 -0.46394199778608353 -0.038292038869620432 0 -0.44462761117665939 -0.033892557985653007 0 -0.44393089276092162 -0.049225023683917242 0 -0.43368604000820388 -0.040982417846531297 0 -0.44462761117665939 -0.033892557985653007 0 -0.44393089276092162 -0.049225023683917242 0 -0.45871618363474009 -0.057436915277976619 0 -0.44393089276092162 -0.049225023683917242 0 -0.44191280180493958 -0.061734332901946007 0 -0.43174799050700591 -0.051459705689637911 0 -0.44393089276092162 -0.049225023683917242 0 -0.44191280180493958 -0.061734332901946007 0 -0.44041917647497519 -0.0043432332951584274 0 -0.46216052424035242 -0.0060285940335542444 0 -0.45172458876458488 0.0065167358095068384 0 -0.44041917647497519 -0.0043432332951584274 0 -0.45032307790450532 -0.018636825871187371 0 -0.46216052424035242 -0.0060285940335542444 0 -0.44041917647497519 -0.0043432332951584274 0 -0.45032307790450532 -0.018636825871187371 0 -0.43689592879446981 -0.019883833289050339 0 -0.44041917647497519 -0.0043432332951584274 0 -0.45032307790450532 -0.018636825871187371 0 -0.43689592879446981 -0.019883833289050339 0 -0.45032307790450532 -0.018636825871187371 0 -0.46394199778608353 -0.038292038869620432 0 -0.44462761117665939 -0.033892557985653007 0 -0.45032307790450532 -0.018636825871187371 0 -0.43327638017779979 -0.03070512182764594 0 -0.43689592879446981 -0.019883833289050339 0 -0.44462761117665939 -0.033892557985653007 0 -0.43689592879446981 -0.019883833289050339 0 -0.44462761117665939 -0.033892557985653007 0 -0.45032307790450532 -0.018636825871187371 0 -0.46394199778608353 -0.038292038869620432 0 -0.45032307790450532 -0.018636825871187371 0 -0.45032307790450532 -0.018636825871187371 0 -0.4751615389522521 -0.016330026049342489 0 -0.46394199778608353 -0.038292038869620432 0 -0.45032307790450532 -0.018636825871187371 0 -0.4751615389522521 -0.016330026049342489 0 -0.45032307790450532 -0.018636825871187371 0 -0.46216052424035242 -0.0060285940335542444 0 -0.4751615389522521 -0.016330026049342489 0 -0.46216052424035242 -0.0060285940335542444 0 -0.4751615389522521 -0.016330026049342489 0 -0.48669626372599462 -0.0056527127875072719 0 -0.47895875080328598 -0.030832023896619772 0 -0.4751615389522521 -0.016330026049342489 0 -0.49196733842731999 -0.02648826982232599 0 -0.46394199778608353 -0.038292038869620432 0 -0.47895875080328598 -0.030832023896619772 0 -0.4751615389522521 -0.016330026049342489 0 -0.5 -0.04162822616612516 0 -0.49196733842731999 -0.02648826982232599 0 -0.49999999999999911 -0.014023226227499609 0 -0.4751615389522521 -0.016330026049342489 0 -0.49196733842731999 -0.02648826982232599 0 -0.49999999999999911 -0.014023226227499609 0 -0.4751615389522521 -0.016330026049342489 0 -0.49999999999999911 -0.014023226227499609 0 -0.48669626372599462 -0.0056527127875072719 0 -0.49999999999999911 -0.014023226227499609 0 -0.5 0.0027178006524835601 0 -0.4751615389522521 -0.016330026049342489 0 -0.48669626372599462 -0.0056527127875072719 0 -0.49999999999999911 -0.014023226227499609 0 -0.48669626372599462 -0.0056527127875072719 0 -0.5 0.0027178006524835601 0 -0.47586229438229177 0.01298778167098695 0 -0.5 0.0027178006524835601 0 -0.49999999999999878 0.019458827532466749 0 -0.47586229438229177 0.01298778167098695 0 -0.49999999999999878 0.019458827532466749 0 -0.49335350825362201 0.025833979536494169 0 -0.47586229438229177 0.01298778167098695 0 -0.49999999999999878 0.019458827532466749 0 -0.47586229438229177 0.01298778167098695 0 -0.49999999999999878 0.019458827532466749 0 -0.49335350825362201 0.025833979536494169 0 -0.50000000000000011 0.031594224303313427 0 -0.49335350825362201 0.025833979536494169 0 -0.47714287243794962 0.024465615833396698 0 -0.470334394589974 0.035021088583738418 0 -0.49335350825362201 0.025833979536494169 0 -0.47714287243794962 0.024465615833396698 0 -0.47586229438229177 0.01298778167098695 0 -0.49335350825362201 0.025833979536494169 0 -0.470334394589974 0.035021088583738418 0 -0.47714287243794962 0.024465615833396698 0 -0.46902129252591029 0.02401961354236725 0 -0.470334394589974 0.035021088583738418 0 -0.47714287243794962 0.024465615833396698 0 -0.46902129252591029 0.02401961354236725 0 -0.47586229438229177 0.01298778167098695 0 -0.46216052424035242 -0.0060285940335542444 0 -0.48669626372599462 -0.0056527127875072719 0 -0.47586229438229177 0.01298778167098695 0 -0.48583124594111321 0.056390680247511461 0 -0.5 0.059867175520137927 0 -0.48522149516819929 0.070178289622843948 0 -0.48583124594111321 0.056390680247511461 0 -0.5 0.059867175520137927 0 -0.48825342014496192 0.046085739911510271 0 -0.48825342014496192 0.046085739911510271 0 -0.50000000000000011 0.031594224303313427 0 -0.47582314543028481 0.040400379356574832 0 -0.49335350825362201 0.025833979536494169 0 -0.50000000000000011 0.031594224303313427 0 -0.47582314543028481 0.040400379356574832 0 -0.50000000000000011 0.031594224303313427 0 -0.47582314543028481 0.040400379356574832 0 -0.5 0.059867175520137927 0 -0.48825342014496192 0.046085739911510271 0 -0.50000000000000011 0.031594224303313427 0 -0.49335350825362201 0.025833979536494169 0 -0.470334394589974 0.035021088583738418 0 -0.47582314543028481 0.040400379356574832 0 -0.48825342014496192 0.046085739911510271 0 -0.47582314543028481 0.040400379356574832 0 -0.47833374584292848 0.051158225736497968 0 -0.48583124594111321 0.056390680247511461 0 -0.48825342014496192 0.046085739911510271 0 -0.47833374584292848 0.051158225736497968 0 -0.47582314543028481 0.040400379356574832 0 -0.47833374584292848 0.051158225736497968 0 -0.46679796697330489 0.053219861505329709 0 -0.47568681914755429 0.061170850046976352 0 -0.46679796697330489 0.053219861505329709 0 -0.46472097474065682 0.064449309408600247 0 -0.47833374584292848 0.051158225736497968 0 -0.47568681914755429 0.061170850046976352 0 -0.46679796697330489 0.053219861505329709 0 -0.48583124594111321 0.056390680247511461 0 -0.47833374584292848 0.051158225736497968 0 -0.47568681914755429 0.061170850046976352 0 -0.47582314543028481 0.040400379356574832 0 -0.46679796697330489 0.053219861505329709 0 -0.4516462908605694 0.049206534409836238 0 -0.45727095153710801 0.058001928234082192 0 -0.44920146859541732 0.059905642320693647 0 -0.45496078588366329 0.065828856093716401 0 -0.45727095153710801 0.058001928234082192 0 -0.46679796697330489 0.053219861505329709 0 -0.46472097474065682 0.064449309408600247 0 -0.45727095153710801 0.058001928234082192 0 -0.46679796697330489 0.053219861505329709 0 -0.4516462908605694 0.049206534409836238 0 -0.470334394589974 0.035021088583738418 0 -0.44731528092632589 0.044208197630982687 0 -0.470334394589974 0.035021088583738418 0 -0.45233535208806958 0.035241995145794319 0 -0.46068913303499931 0.02767542396151236 0 -0.470334394589974 0.035021088583738418 0 -0.47582314543028481 0.040400379356574832 0 -0.4516462908605694 0.049206534409836238 0 -0.47582314543028481 0.040400379356574832 0 -0.4516462908605694 0.049206534409836238 0 -0.470334394589974 0.035021088583738418 0 -0.45233535208806958 0.035241995145794319 0 -0.44731528092632589 0.044208197630982687 0 -0.470334394589974 0.035021088583738418 0 -0.44731528092632589 0.044208197630982687 0 -0.4516462908605694 0.049206534409836238 0 -0.45233535208806958 0.035241995145794319 0 -0.44379299281853057 0.03789884914037106 0 -0.44233489477132332 0.031317023730248889 0 -0.44379299281853057 0.03789884914037106 0 -0.44233489477132332 0.031317023730248889 0 -0.43318644348840363 0.040828180054458339 0 -0.44379299281853057 0.03789884914037106 0 -0.44731528092632589 0.044208197630982687 0 -0.43318644348840363 0.040828180054458339 0 -0.45233535208806958 0.035241995145794319 0 -0.44379299281853057 0.03789884914037106 0 -0.44731528092632589 0.044208197630982687 0 -0.44731528092632589 0.044208197630982687 0 -0.4516462908605694 0.049206534409836238 0 -0.43925461250714859 0.056570098288527 0 -0.4516462908605694 0.049206534409836238 0 -0.43925461250714859 0.056570098288527 0 -0.44920146859541732 0.059905642320693647 0 -0.45727095153710801 0.058001928234082192 0 -0.4516462908605694 0.049206534409836238 0 -0.44920146859541732 0.059905642320693647 0 -0.46216052424035242 -0.0060285940335542444 0 -0.47586229438229177 0.01298778167098695 0 -0.45172458876458488 0.0065167358095068384 0 -0.47586229438229177 0.01298778167098695 0 -0.45172458876458488 0.0065167358095068384 0 -0.47586229438229177 0.01298778167098695 0 -0.45992470102394989 0.018924848770488559 0 -0.45172458876458488 0.0065167358095068384 0 -0.45992470102394989 0.018924848770488559 0 -0.45095037693457712 0.016895821899450419 0 -0.45172458876458488 0.0065167358095068384 0 -0.46902129252591029 0.02401961354236725 0 -0.47586229438229177 0.01298778167098695 0 -0.45992470102394989 0.018924848770488559 0 -0.46902129252591029 0.02401961354236725 0 -0.46068913303499931 0.02767542396151236 0 -0.45992470102394989 0.018924848770488559 0 -0.46902129252591029 0.02401961354236725 0 -0.470334394589974 0.035021088583738418 0 -0.46068913303499931 0.02767542396151236 0 -0.46068913303499931 0.02767542396151236 0 -0.45992470102394989 0.018924848770488559 0 -0.45130052050133579 0.025453715739107562 0 -0.45233535208806958 0.035241995145794319 0 -0.46068913303499931 0.02767542396151236 0 -0.45130052050133579 0.025453715739107562 0 -0.45992470102394989 0.018924848770488559 0 -0.45095037693457712 0.016895821899450419 0 -0.45130052050133579 0.025453715739107562 0 -0.45095037693457712 0.016895821899450419 0 -0.45130052050133579 0.025453715739107562 0 -0.44086952382279909 0.01789513377345579 0 -0.45233535208806958 0.035241995145794319 0 -0.44233489477132332 0.031317023730248889 0 -0.45130052050133579 0.025453715739107562 0 -0.44233489477132332 0.031317023730248889 0 -0.44086952382279909 0.01789513377345579 0 -0.43076431076181698 0.02863438365119398 0 -0.44233489477132332 0.031317023730248889 0 -0.45130052050133579 0.025453715739107562 0 -0.44086952382279909 0.01789513377345579 0 -0.45172458876458488 0.0065167358095068384 0 -0.42758688314687793 4.56899480267281e-05 0 -0.44086952382279909 0.01789513377345579 0 -0.45172458876458488 0.0065167358095068384 0 -0.42758688314687793 4.56899480267281e-05 0 -0.44041917647497519 -0.0043432332951584274 0 -0.45172458876458488 0.0065167358095068384 0 -0.42758688314687793 4.56899480267281e-05 0 -0.45095037693457712 0.016895821899450419 0 -0.44086952382279909 0.01789513377345579 0 -0.45172458876458488 0.0065167358095068384 0 -0.44086952382279909 0.01789513377345579 0 -0.42758688314687793 4.56899480267281e-05 0 -0.42657655564753028 0.01685703061728289 0 -0.42758688314687793 4.56899480267281e-05 0 -0.41394966053937998 0.01334563507059992 0 -0.42657655564753028 0.01685703061728289 0 -0.42070079770703339 0.022938425935902739 0 -0.43076431076181698 0.02863438365119398 0 -0.41151266387940638 0.032916654404534167 0 -0.41394966053937998 0.01334563507059992 0 -0.41151266387940638 0.032916654404534167 0 -0.39748275506619651 0.015039815998363969 0 -0.41394966053937998 0.01334563507059992 0 -0.42070079770703339 0.022938425935902739 0 -0.41151266387940638 0.032916654404534167 0 -0.41394966053937998 0.01334563507059992 0 -0.42070079770703339 0.022938425935902739 0 -0.42657655564753028 0.01685703061728289 0 -0.42070079770703339 0.022938425935902739 0 -0.42657655564753028 0.01685703061728289 0 -0.43076431076181698 0.02863438365119398 0 -0.44086952382279909 0.01789513377345579 0 -0.42657655564753028 0.01685703061728289 0 -0.43076431076181698 0.02863438365119398 0 -0.44233489477132332 0.031317023730248889 0 -0.43076431076181698 0.02863438365119398 0 -0.43318644348840363 0.040828180054458339 0 -0.44731528092632589 0.044208197630982687 0 -0.43318644348840363 0.040828180054458339 0 -0.42429616726267783 0.053395306678226992 0 -0.43318644348840363 0.040828180054458339 0 -0.42429616726267783 0.053395306678226992 0 -0.41151266387940638 0.032916654404534167 0 -0.43076431076181698 0.02863438365119398 0 -0.43318644348840363 0.040828180054458339 0 -0.41151266387940638 0.032916654404534167 0 -0.44731528092632589 0.044208197630982687 0 -0.42429616726267783 0.053395306678226992 0 -0.44731528092632589 0.044208197630982687 0 -0.43925461250714859 0.056570098288527 0 -0.42429616726267783 0.053395306678226992 0 -0.43925461250714859 0.056570098288527 0 -0.42429616726267783 0.053395306678226992 0 -0.42582460799112198 0.070239239832284889 0 -0.42429616726267783 0.053395306678226992 0 -0.40127705359902982 0.062582415725471269 0 -0.42582460799112198 0.070239239832284889 0 -0.42429616726267783 0.053395306678226992 0 -0.40127705359902982 0.062582415725471269 0 -0.42429616726267783 0.053395306678226992 0 -0.4018409069779183 0.046048813805502693 0 -0.40127705359902982 0.062582415725471269 0 -0.42429616726267783 0.053395306678226992 0 -0.41151266387940638 0.032916654404534167 0 -0.4018409069779183 0.046048813805502693 0 -0.41151266387940638 0.032916654404534167 0 -0.4018409069779183 0.046048813805502693 0 -0.39054012118148818 0.032374008391212863 0 -0.4018409069779183 0.046048813805502693 0 -0.38489237583583641 0.049497625960017222 0 -0.39054012118148818 0.032374008391212863 0 -0.4018409069779183 0.046048813805502693 0 -0.38489237583583641 0.049497625960017222 0 -0.40127705359902982 0.062582415725471269 0 -0.38489237583583641 0.049497625960017222 0 -0.40127705359902982 0.062582415725471269 0 -0.37176915550388961 0.065851539153164648 0 -0.38489237583583641 0.049497625960017222 0 -0.39054012118148818 0.032374008391212863 0 -0.3662224365601211 0.038933641042989769 0 -0.39054012118148818 0.032374008391212863 0 -0.37926064652510572 0.01652591772007846 0 -0.3662224365601211 0.038933641042989769 0 -0.39054012118148818 0.032374008391212863 0 -0.37926064652510572 0.01652591772007846 0 -0.39748275506619651 0.015039815998363969 0 -0.38645945484234001 -0.00036052547126835843 0 -0.37926064652510572 0.01652591772007846 0 -0.39748275506619651 0.015039815998363969 0 -0.38645945484234001 -0.00036052547126835843 0 -0.37926064652510572 0.01652591772007846 0 -0.37366197689732522 0.0012785186665680559 0 -0.40017062158542782 -0.0038387895413610901 0 -0.38645945484234001 -0.00036052547126835843 0 -0.39748275506619651 0.015039815998363969 0 -0.40017062158542782 -0.0038387895413610901 0 -0.41394966053937998 0.01334563507059992 0 -0.39748275506619651 0.015039815998363969 0 -0.41151266387940638 0.032916654404534167 0 -0.39054012118148818 0.032374008391212863 0 -0.39748275506619651 0.015039815998363969 0 -0.40275744390744872 0.1116483604253698 0 -0.37731587444765807 0.092769437263339513 0 -0.39439846614658358 0.081725679688912367 0 -0.40275744390744872 0.1116483604253698 0 -0.39122425105351022 0.1373188571645948 0 -0.40275744390744872 0.1116483604253698 0 -0.38286259339142659 0.11968733537351441 0 -0.39122425105351022 0.1373188571645948 0 -0.38286259339142659 0.11968733537351441 0 -0.37731587444765807 0.092769437263339513 0 -0.38286259339142659 0.11968733537351441 0 -0.37731587444765807 0.092769437263339513 0 -0.37097467658251793 0.1081065377119126 0 -0.40275744390744872 0.1116483604253698 0 -0.38286259339142659 0.11968733537351441 0 -0.37731587444765807 0.092769437263339513 0 -0.37731587444765807 0.092769437263339513 0 -0.39439846614658358 0.081725679688912367 0 -0.37176915550388961 0.065851539153164648 0 -0.40127705359902982 0.062582415725471269 0 -0.39439846614658358 0.081725679688912367 0 -0.37176915550388961 0.065851539153164648 0 -0.40127705359902982 0.062582415725471269 0 -0.39439846614658358 0.081725679688912367 0 -0.4142906367613905 0.085977863686146405 0 -0.40275744390744872 0.1116483604253698 0 -0.39439846614658358 0.081725679688912367 0 -0.4142906367613905 0.085977863686146405 0 -0.40127705359902982 0.062582415725471269 0 -0.4142906367613905 0.085977863686146405 0 -0.42582460799112198 0.070239239832284889 0 -0.43925461250714859 0.056570098288527 0 -0.42582460799112198 0.070239239832284889 0 -0.44489225960736112 0.073047030701347035 0 -0.42582460799112198 0.070239239832284889 0 -0.43276098222738563 0.089167748934400964 0 -0.44489225960736112 0.073047030701347035 0 -0.4142906367613905 0.085977863686146405 0 -0.42582460799112198 0.070239239832284889 0 -0.43276098222738563 0.089167748934400964 0 -0.43276098222738563 0.089167748934400964 0 -0.42391392953219992 0.1089031497241422 0 -0.44355337654175708 0.1059561411134856 0 -0.4142906367613905 0.085977863686146405 0 -0.43276098222738563 0.089167748934400964 0 -0.42391392953219992 0.1089031497241422 0 -0.40275744390744872 0.1116483604253698 0 -0.4142906367613905 0.085977863686146405 0 -0.42391392953219992 0.1089031497241422 0 -0.40275744390744872 0.1116483604253698 0 -0.4142906367613905 0.085977863686146405 0 -0.40275744390744872 0.1116483604253698 0 -0.42391392953219992 0.1089031497241422 0 -0.41438981760899651 0.13243088879015261 0 -0.42391392953219992 0.1089031497241422 0 -0.44355337654175708 0.1059561411134856 0 -0.43755538416448242 0.12754292041570811 0 -0.42391392953219992 0.1089031497241422 0 -0.43755538416448242 0.12754292041570811 0 -0.41438981760899651 0.13243088879015261 0 -0.44355337654175708 0.1059561411134856 0 -0.46072095071996821 0.1226549520412637 0 -0.43755538416448242 0.12754292041570811 0 -0.44355337654175708 0.1059561411134856 0 -0.46184392140754482 0.098887738065263964 0 -0.4484688365743103 0.089215128597984417 0 -0.43276098222738563 0.089167748934400964 0 -0.44355337654175708 0.1059561411134856 0 -0.4484688365743103 0.089215128597984417 0 -0.44355337654175708 0.1059561411134856 0 -0.46184392140754482 0.098887738065263964 0 -0.46072095071996821 0.1226549520412637 0 -0.46184392140754482 0.098887738065263964 0 -0.46072095071996821 0.1226549520412637 0 -0.48088808220538848 0.1067984642347222 0 -0.43925461250714859 0.056570098288527 0 -0.44920146859541732 0.059905642320693647 0 -0.44489225960736112 0.073047030701347035 0 -0.44920146859541732 0.059905642320693647 0 -0.44489225960736112 0.073047030701347035 0 -0.45496078588366329 0.065828856093716401 0 -0.44489225960736112 0.073047030701347035 0 -0.4484688365743103 0.089215128597984417 0 -0.46111770710576411 0.078322009195834819 0 -0.43276098222738563 0.089167748934400964 0 -0.44489225960736112 0.073047030701347035 0 -0.4484688365743103 0.089215128597984417 0 -0.46184392140754482 0.098887738065263964 0 -0.4484688365743103 0.089215128597984417 0 -0.46111770710576411 0.078322009195834819 0 -0.46184392140754482 0.098887738065263964 0 -0.46111770710576411 0.078322009195834819 0 -0.47731928812398239 0.08534855380981346 0 -0.44489225960736112 0.073047030701347035 0 -0.46111770710576411 0.078322009195834819 0 -0.45496078588366329 0.065828856093716401 0 -0.46111770710576411 0.078322009195834819 0 -0.46472097474065682 0.064449309408600247 0 -0.47321548621912268 0.071628733761074856 0 -0.45727095153710801 0.058001928234082192 0 -0.46472097474065682 0.064449309408600247 0 -0.45496078588366329 0.065828856093716401 0 -0.46111770710576411 0.078322009195834819 0 -0.46472097474065682 0.064449309408600247 0 -0.45496078588366329 0.065828856093716401 0 -0.47568681914755429 0.061170850046976352 0 -0.47321548621912268 0.071628733761074856 0 -0.48522149516819929 0.070178289622843948 0 -0.48583124594111321 0.056390680247511461 0 -0.47568681914755429 0.061170850046976352 0 -0.48522149516819929 0.070178289622843948 0 -0.47568681914755429 0.061170850046976352 0 -0.46472097474065682 0.064449309408600247 0 -0.47321548621912268 0.071628733761074856 0 -0.47321548621912268 0.071628733761074856 0 -0.47731928812398239 0.08534855380981346 0 -0.48522149516819929 0.070178289622843948 0 -0.46111770710576411 0.078322009195834819 0 -0.47321548621912268 0.071628733761074856 0 -0.47731928812398239 0.08534855380981346 0 -0.47731928812398239 0.08534855380981346 0 -0.5 0.088140126736962421 0 -0.48088808220538848 0.1067984642347222 0 -0.47731928812398239 0.08534855380981346 0 -0.5 0.088140126736962421 0 -0.48522149516819929 0.070178289622843948 0 -0.5 0.059867175520137927 0 -0.5 0.088140126736962421 0 -0.48522149516819929 0.070178289622843948 0 -0.46072095071996821 0.1226549520412637 0 -0.48088808220538848 0.1067984642347222 0 -0.48266524291566609 0.12699176784260061 0 -0.46184392140754482 0.098887738065263964 0 -0.47731928812398239 0.08534855380981346 0 -0.48088808220538848 0.1067984642347222 0 -0.5 0.088140126736962421 0 -0.48088808220538848 0.1067984642347222 0 -0.5 0.1164130779537869 0 -0.48088808220538848 0.1067984642347222 0 -0.5 0.1164130779537869 0 -0.48266524291566609 0.12699176784260061 0 -0.5 0.1164130779537869 0 -0.48266524291566609 0.12699176784260061 0 -0.5 0.14468602917061141 0 -0.48266524291566609 0.12699176784260061 0 -0.47171718165297349 0.14440631581261859 0 -0.5 0.14468602917061141 0 -0.46072095071996821 0.1226549520412637 0 -0.48266524291566609 0.12699176784260061 0 -0.47171718165297349 0.14440631581261859 0 -0.47171718165297349 0.14440631581261859 0 -0.5 0.14468602917061141 0 -0.48023801018512741 0.162023290650782 0 -0.5 0.14468602917061141 0 -0.5 0.1729589803874359 0 -0.48023801018512741 0.162023290650782 0 -0.5 0.1729589803874359 0 -0.47486936376975869 0.18470416249327071 0 -0.48023801018512741 0.162023290650782 0 -0.5 0.1729589803874359 0 -0.47486936376975869 0.18470416249327071 0 -0.5 0.20123193160426039 0 -0.47171718165297349 0.14440631581261859 0 -0.48023801018512741 0.162023290650782 0 -0.45460350550290418 0.16336096538997341 0 -0.47486936376975869 0.18470416249327071 0 -0.48023801018512741 0.162023290650782 0 -0.45460350550290418 0.16336096538997341 0 -0.47486936376975869 0.18470416249327071 0 -0.45460350550290418 0.16336096538997341 0 -0.44952133052619042 0.18482508000849121 0 -0.44952133052619042 0.18482508000849121 0 -0.43346181589913491 0.1698577775831647 0 -0.43512096405529221 0.18328417901960251 0 -0.45460350550290418 0.16336096538997341 0 -0.44952133052619042 0.18482508000849121 0 -0.43346181589913491 0.1698577775831647 0 -0.45460350550290418 0.16336096538997341 0 -0.4379863464193619 0.14930397122740319 0 -0.43346181589913491 0.1698577775831647 0 -0.45460350550290418 0.16336096538997341 0 -0.4379863464193619 0.14930397122740319 0 -0.45327795382604591 0.1413101543981955 0 -0.4379863464193619 0.14930397122740319 0 -0.43755538416448242 0.12754292041570811 0 -0.45327795382604591 0.1413101543981955 0 -0.46072095071996821 0.1226549520412637 0 -0.43755538416448242 0.12754292041570811 0 -0.45327795382604591 0.1413101543981955 0 -0.46072095071996821 0.1226549520412637 0 -0.43755538416448242 0.12754292041570811 0 -0.46072095071996821 0.1226549520412637 0 -0.47171718165297349 0.14440631581261859 0 -0.45327795382604591 0.1413101543981955 0 -0.47171718165297349 0.14440631581261859 0 -0.45460350550290418 0.16336096538997341 0 -0.45327795382604591 0.1413101543981955 0 -0.47780820849333222 0.2476596539210795 0 -0.48487480126248261 0.2313470519091235 0 -0.48940802967484542 0.25683179901188219 0 -0.47780820849333222 0.2476596539210795 0 -0.48487480126248261 0.2313470519091235 0 -0.46835004341743192 0.2372156751629641 0 -0.47780820849333222 0.2476596539210795 0 -0.46835004341743192 0.2372156751629641 0 -0.46870141352786698 0.25225739816318449 0 -0.48487480126248261 0.2313470519091235 0 -0.48940802967484542 0.25683179901188219 0 -0.49357070773433198 0.24386539194500001 0 -0.5 0.2295048828210848 0 -0.5 0.25777783403790933 0 -0.49357070773433198 0.24386539194500001 0 -0.48487480126248261 0.2313470519091235 0 -0.48940802967484542 0.25683179901188219 0 -0.49357070773433198 0.24386539194500001 0 -0.48487480126248261 0.2313470519091235 0 -0.5 0.2295048828210848 0 -0.48487480126248261 0.2313470519091235 0 -0.48082977148638811 0.21007958846523689 0 -0.49142614318721772 0.2180408636999264 0 -0.48487480126248261 0.2313470519091235 0 -0.5 0.2295048828210848 0 -0.49142614318721772 0.2180408636999264 0 -0.48487480126248261 0.2313470519091235 0 -0.48082977148638811 0.21007958846523689 0 -0.46402823545227651 0.22280391372717259 0 -0.48487480126248261 0.2313470519091235 0 -0.46402823545227651 0.22280391372717259 0 -0.46835004341743192 0.2372156751629641 0 -0.48082977148638811 0.21007958846523689 0 -0.46800360302854221 0.19990756922669811 0 -0.46402823545227651 0.22280391372717259 0 -0.5 0.2295048828210848 0 -0.49142614318721772 0.2180408636999264 0 -0.5 0.20123193160426039 0 -0.48082977148638811 0.21007958846523689 0 -0.49142614318721772 0.2180408636999264 0 -0.5 0.20123193160426039 0 -0.47486936376975869 0.18470416249327071 0 -0.48082977148638811 0.21007958846523689 0 -0.5 0.20123193160426039 0 -0.47486936376975869 0.18470416249327071 0 -0.48082977148638811 0.21007958846523689 0 -0.46800360302854221 0.19990756922669811 0 -0.44952133052619042 0.18482508000849121 0 -0.45327440651981532 0.2030069523601721 0 -0.46800360302854221 0.19990756922669811 0 -0.47486936376975869 0.18470416249327071 0 -0.44952133052619042 0.18482508000849121 0 -0.46800360302854221 0.19990756922669811 0 -0.45327440651981532 0.2030069523601721 0 -0.43365447137393243 0.20989867380471591 0 -0.4309997687098982 0.19524253367565411 0 -0.44952133052619042 0.18482508000849121 0 -0.4309997687098982 0.19524253367565411 0 -0.43512096405529221 0.18328417901960251 0 -0.44952133052619042 0.18482508000849121 0 -0.45327440651981532 0.2030069523601721 0 -0.4309997687098982 0.19524253367565411 0 -0.45327440651981532 0.2030069523601721 0 -0.43365447137393243 0.20989867380471591 0 -0.45327440651981532 0.2030069523601721 0 -0.44727834720325149 0.22050250384662909 0 -0.43365447137393243 0.20989867380471591 0 -0.44727834720325149 0.22050250384662909 0 -0.43583826191610792 0.22334371426178121 0 -0.43365447137393243 0.20989867380471591 0 -0.45327440651981532 0.2030069523601721 0 -0.46800360302854221 0.19990756922669811 0 -0.46402823545227651 0.22280391372717259 0 -0.45327440651981532 0.2030069523601721 0 -0.46402823545227651 0.22280391372717259 0 -0.44727834720325149 0.22050250384662909 0 -0.46402823545227651 0.22280391372717259 0 -0.45497574697179249 0.23370150267382031 0 -0.44727834720325149 0.22050250384662909 0 -0.46402823545227651 0.22280391372717259 0 -0.45497574697179249 0.23370150267382031 0 -0.46835004341743192 0.2372156751629641 0 -0.44727834720325149 0.22050250384662909 0 -0.44170171220486443 0.23344953649279079 0 -0.43583826191610792 0.22334371426178121 0 -0.45497574697179249 0.23370150267382031 0 -0.44727834720325149 0.22050250384662909 0 -0.44170171220486443 0.23344953649279079 0 -0.45497574697179249 0.23370150267382031 0 -0.44170171220486443 0.23344953649279079 0 -0.44879287157715531 0.2436899004703923 0 -0.44170171220486443 0.23344953649279079 0 -0.44879287157715531 0.2436899004703923 0 -0.43460594810953662 0.24974433279273681 0 -0.44879287157715531 0.2436899004703923 0 -0.45970327197577582 0.24454748634297321 0 -0.45235884440879393 0.25756667450669463 0 -0.45497574697179249 0.23370150267382031 0 -0.44879287157715531 0.2436899004703923 0 -0.45970327197577582 0.24454748634297321 0 -0.45497574697179249 0.23370150267382031 0 -0.45970327197577582 0.24454748634297321 0 -0.46835004341743192 0.2372156751629641 0 -0.45970327197577582 0.24454748634297321 0 -0.46835004341743192 0.2372156751629641 0 -0.46870141352786698 0.25225739816318449 0 -0.42013516911364568 0.24317325278082849 0 -0.40543934551940192 0.241352405506014 0 -0.41657077913843088 0.25896014262095007 0 -0.41563678348970862 0.23329600692044641 0 -0.40730315504553632 0.2288654633767748 0 -0.40543934551940192 0.241352405506014 0 -0.42013516911364568 0.24317325278082849 0 -0.41563678348970862 0.23329600692044641 0 -0.40543934551940192 0.241352405506014 0 -0.42013516911364568 0.24317325278082849 0 -0.42842298931114992 0.23251337606399561 0 -0.41563678348970862 0.23329600692044641 0 -0.42013516911364568 0.24317325278082849 0 -0.43460594810953662 0.24974433279273681 0 -0.42842298931114992 0.23251337606399561 0 -0.44170171220486443 0.23344953649279079 0 -0.43460594810953662 0.24974433279273681 0 -0.42842298931114992 0.23251337606399561 0 -0.44170171220486443 0.23344953649279079 0 -0.42842298931114992 0.23251337606399561 0 -0.43583826191610792 0.22334371426178121 0 -0.42842298931114992 0.23251337606399561 0 -0.43583826191610792 0.22334371426178121 0 -0.42606696792669602 0.22148612025875311 0 -0.42842298931114992 0.23251337606399561 0 -0.42606696792669602 0.22148612025875311 0 -0.41838458080424029 0.22488444191401291 0 -0.42606696792669602 0.22148612025875311 0 -0.41838458080424029 0.22488444191401291 0 -0.41403453622804948 0.2167903952492598 0 -0.42842298931114992 0.23251337606399561 0 -0.41838458080424029 0.22488444191401291 0 -0.41563678348970862 0.23329600692044641 0 -0.41838458080424029 0.22488444191401291 0 -0.41563678348970862 0.23329600692044641 0 -0.40730315504553632 0.2288654633767748 0 -0.41838458080424029 0.22488444191401291 0 -0.40730315504553632 0.2288654633767748 0 -0.41403453622804948 0.2167903952492598 0 -0.41403453622804948 0.2167903952492598 0 -0.41270718489603248 0.20946232518472899 0 -0.39441460108216669 0.22368211669380381 0 -0.41403453622804948 0.2167903952492598 0 -0.41270718489603248 0.20946232518472899 0 -0.43365447137393243 0.20989867380471591 0 -0.41270718489603248 0.20946232518472899 0 -0.41795421757920809 0.19733635545209879 0 -0.40802904898143222 0.20287107516534081 0 -0.41270718489603248 0.20946232518472899 0 -0.40802904898143222 0.20287107516534081 0 -0.40245444479586129 0.2104604456864477 0 -0.42606696792669602 0.22148612025875311 0 -0.41403453622804948 0.2167903952492598 0 -0.43365447137393243 0.20989867380471591 0 -0.41270718489603248 0.20946232518472899 0 -0.43365447137393243 0.20989867380471591 0 -0.4309997687098982 0.19524253367565411 0 -0.41403453622804948 0.2167903952492598 0 -0.43365447137393243 0.20989867380471591 0 -0.43583826191610792 0.22334371426178121 0 -0.42606696792669602 0.22148612025875311 0 -0.43365447137393243 0.20989867380471591 0 -0.4309997687098982 0.19524253367565411 0 -0.41795421757920809 0.19733635545209879 0 -0.42248691737426308 0.1838902826546194 0 -0.41270718489603248 0.20946232518472899 0 -0.4309997687098982 0.19524253367565411 0 -0.41795421757920809 0.19733635545209879 0 -0.41270718489603248 0.20946232518472899 0 -0.4309997687098982 0.19524253367565411 0 -0.41795421757920809 0.19733635545209879 0 -0.42248691737426308 0.1838902826546194 0 -0.4083382565205414 0.1849662181329777 0 -0.41795421757920809 0.19733635545209879 0 -0.40802904898143222 0.20287107516534081 0 -0.40535774415088183 0.19500427816700039 0 -0.41795421757920809 0.19733635545209879 0 -0.40535774415088183 0.19500427816700039 0 -0.4083382565205414 0.1849662181329777 0 -0.40535774415088183 0.19500427816700039 0 -0.4083382565205414 0.1849662181329777 0 -0.39609842209065571 0.18728472887554579 0 -0.40535774415088183 0.19500427816700039 0 -0.39551076791893303 0.1961402770286689 0 -0.39609842209065571 0.18728472887554579 0 -0.40802904898143222 0.20287107516534081 0 -0.40535774415088183 0.19500427816700039 0 -0.40167165348517769 0.20209197133642839 0 -0.40535774415088183 0.19500427816700039 0 -0.40167165348517769 0.20209197133642839 0 -0.39551076791893303 0.1961402770286689 0 -0.40167165348517769 0.20209197133642839 0 -0.39551076791893303 0.1961402770286689 0 -0.39562089660319227 0.20386646508179071 0 -0.39551076791893303 0.1961402770286689 0 -0.3904666591851409 0.20083003642185601 0 -0.39562089660319227 0.20386646508179071 0 -0.39551076791893303 0.1961402770286689 0 -0.38438584399965642 0.1917063019804077 0 -0.39609842209065571 0.18728472887554579 0 -0.38438584399965642 0.1917063019804077 0 -0.37588725132354017 0.1984015034115085 0 -0.37267174480218279 0.17861289059144789 0 -0.38438584399965642 0.1917063019804077 0 -0.3822986352802783 0.2101887212124248 0 -0.38438584399965642 0.1917063019804077 0 -0.38453906575494612 0.20382646430557869 0 -0.3822986352802783 0.2101887212124248 0 -0.38438584399965642 0.1917063019804077 0 -0.37588725132354017 0.1984015034115085 0 -0.3822986352802783 0.2101887212124248 0 -0.38438584399965642 0.1917063019804077 0 -0.3904666591851409 0.20083003642185601 0 -0.38453906575494612 0.20382646430557869 0 -0.39551076791893303 0.1961402770286689 0 -0.38438584399965642 0.1917063019804077 0 -0.3904666591851409 0.20083003642185601 0 -0.38453906575494612 0.20382646430557869 0 -0.3822986352802783 0.2101887212124248 0 -0.38432938992711879 0.22722465979974341 0 -0.38453906575494612 0.20382646430557869 0 -0.3898714345615828 0.21574006985181729 0 -0.38432938992711879 0.22722465979974341 0 -0.38453906575494612 0.20382646430557869 0 -0.38432938992711879 0.22722465979974341 0 -0.3904666591851409 0.20083003642185601 0 -0.38453906575494612 0.20382646430557869 0 -0.39227584861598358 0.2084094806842392 0 -0.38453906575494612 0.20382646430557869 0 -0.3898714345615828 0.21574006985181729 0 -0.39227584861598358 0.2084094806842392 0 -0.37588725132354017 0.1984015034115085 0 -0.3822986352802783 0.2101887212124248 0 -0.37153448519325188 0.20824986172565749 0 -0.3822986352802783 0.2101887212124248 0 -0.3766316438375385 0.22279434508109699 0 -0.37192451594695802 0.2181715687608827 0 -0.3822986352802783 0.2101887212124248 0 -0.37192451594695802 0.2181715687608827 0 -0.37153448519325188 0.20824986172565749 0 -0.41270718489603248 0.20946232518472899 0 -0.39441460108216669 0.22368211669380381 0 -0.39543669576271062 0.2134588244607582 0 -0.40245444479586129 0.2104604456864477 0 -0.39441460108216669 0.22368211669380381 0 -0.3898714345615828 0.21574006985181729 0 -0.39543669576271062 0.2134588244607582 0 -0.39441460108216669 0.22368211669380381 0 -0.41270718489603248 0.20946232518472899 0 -0.40245444479586129 0.2104604456864477 0 -0.39441460108216669 0.22368211669380381 0 -0.3898714345615828 0.21574006985181729 0 -0.39543669576271062 0.2134588244607582 0 -0.39227584861598358 0.2084094806842392 0 -0.3904666591851409 0.20083003642185601 0 -0.39227584861598358 0.2084094806842392 0 -0.39562089660319227 0.20386646508179071 0 -0.39227584861598358 0.2084094806842392 0 -0.39562089660319227 0.20386646508179071 0 -0.39816714975795842 0.2090020093874834 0 -0.39543669576271062 0.2134588244607582 0 -0.39227584861598358 0.2084094806842392 0 -0.39816714975795842 0.2090020093874834 0 -0.40802904898143222 0.20287107516534081 0 -0.40167165348517769 0.20209197133642839 0 -0.40245444479586129 0.2104604456864477 0 -0.40167165348517769 0.20209197133642839 0 -0.39816714975795842 0.2090020093874834 0 -0.40245444479586129 0.2104604456864477 0 -0.40167165348517769 0.20209197133642839 0 -0.39562089660319227 0.20386646508179071 0 -0.39816714975795842 0.2090020093874834 0 -0.39543669576271062 0.2134588244607582 0 -0.39816714975795842 0.2090020093874834 0 -0.40245444479586129 0.2104604456864477 0 -0.41403453622804948 0.2167903952492598 0 -0.39441460108216669 0.22368211669380381 0 -0.40730315504553632 0.2288654633767748 0 -0.41403453622804948 0.2167903952492598 0 -0.39441460108216669 0.22368211669380381 0 -0.40730315504553632 0.2288654633767748 0 -0.39590908314965079 0.23318741397711221 0 -0.39441460108216669 0.22368211669380381 0 -0.39590908314965079 0.23318741397711221 0 -0.39441460108216669 0.22368211669380381 0 -0.3842906115261131 0.23155202846744821 0 -0.3822986352802783 0.2101887212124248 0 -0.3766316438375385 0.22279434508109699 0 -0.38021142656090129 0.22867114044444189 0 -0.39441460108216669 0.22368211669380381 0 -0.38432938992711879 0.22722465979974341 0 -0.3822986352802783 0.2101887212124248 0 -0.38021142656090129 0.22867114044444189 0 -0.38432938992711879 0.22722465979974341 0 -0.3898714345615828 0.21574006985181729 0 -0.39441460108216669 0.22368211669380381 0 -0.38432938992711879 0.22722465979974341 0 -0.3822986352802783 0.2101887212124248 0 -0.38021142656090129 0.22867114044444189 0 -0.37688178331332778 0.2298407148391263 0 -0.38021142656090129 0.22867114044444189 0 -0.37946222484109549 0.2353053884457206 0 -0.37688178331332778 0.2298407148391263 0 -0.37946222484109549 0.2353053884457206 0 -0.37388399796313398 0.23248221773580621 0 -0.3766316438375385 0.22279434508109699 0 -0.37688178331332778 0.2298407148391263 0 -0.38021142656090129 0.22867114044444189 0 -0.3766316438375385 0.22279434508109699 0 -0.37688178331332778 0.2298407148391263 0 -0.37184185808622688 0.22709958014860859 0 -0.37688178331332778 0.2298407148391263 0 -0.38021142656090129 0.22867114044444189 0 -0.38021142656090129 0.22867114044444189 0 -0.38432938992711879 0.22722465979974341 0 -0.3842906115261131 0.23155202846744821 0 -0.37946222484109549 0.2353053884457206 0 -0.38021142656090129 0.22867114044444189 0 -0.37946222484109549 0.2353053884457206 0 -0.38021142656090129 0.22867114044444189 0 -0.3842906115261131 0.23155202846744821 0 -0.37946222484109549 0.2353053884457206 0 -0.39441460108216669 0.22368211669380381 0 -0.3842906115261131 0.23155202846744821 0 -0.38432938992711879 0.22722465979974341 0 -0.39441460108216669 0.22368211669380381 0 -0.3842906115261131 0.23155202846744821 0 -0.3842906115261131 0.23155202846744821 0 -0.38432938992711879 0.22722465979974341 0 -0.38021142656090129 0.22867114044444189 0 -0.3842906115261131 0.23155202846744821 0 -0.38432938992711879 0.22722465979974341 0 -0.3842906115261131 0.23155202846744821 0 -0.38408779085763528 0.25418524136794413 0 -0.37946222484109549 0.2353053884457206 0 -0.37666257165648181 0.26009656691381922 0 -0.37946222484109549 0.2353053884457206 0 -0.37666257165648181 0.26009656691381922 0 -0.38408779085763528 0.25418524136794413 0 -0.3842906115261131 0.23155202846744821 0 -0.39264970803872012 0.24268135933926779 0 -0.38408779085763528 0.25418524136794413 0 -0.3842906115261131 0.23155202846744821 0 -0.37946222484109549 0.2353053884457206 0 -0.38408779085763528 0.25418524136794413 0 -0.39264970803872012 0.24268135933926779 0 -0.38408779085763528 0.25418524136794413 0 -0.39671598301771022 0.2523864843573409 0 -0.39264970803872012 0.24268135933926779 0 -0.40543934551940192 0.241352405506014 0 -0.39671598301771022 0.2523864843573409 0 -0.39590908314965079 0.23318741397711221 0 -0.3842906115261131 0.23155202846744821 0 -0.39264970803872012 0.24268135933926779 0 -0.39590908314965079 0.23318741397711221 0 -0.39264970803872012 0.24268135933926779 0 -0.40543934551940192 0.241352405506014 0 -0.40730315504553632 0.2288654633767748 0 -0.39590908314965079 0.23318741397711221 0 -0.40543934551940192 0.241352405506014 0 -0.41805990260346149 0.15489701610970741 0 -0.41438981760899651 0.13243088879015261 0 -0.40493527321414952 0.14496124336910751 0 -0.41805990260346149 0.15489701610970741 0 -0.40310567533245489 0.16065717237407789 0 -0.40493527321414952 0.14496124336910751 0 -0.43755538416448242 0.12754292041570811 0 -0.41438981760899651 0.13243088879015261 0 -0.4379863464193619 0.14930397122740319 0 -0.43755538416448242 0.12754292041570811 0 -0.41438981760899651 0.13243088879015261 0 -0.4379863464193619 0.14930397122740319 0 -0.41805990260346149 0.15489701610970741 0 -0.41438981760899651 0.13243088879015261 0 -0.4379863464193619 0.14930397122740319 0 -0.41805990260346149 0.15489701610970741 0 -0.43346181589913491 0.1698577775831647 0 -0.43346181589913491 0.1698577775831647 0 -0.42248691737426308 0.1838902826546194 0 -0.41297141764976208 0.17140652932639791 0 -0.43346181589913491 0.1698577775831647 0 -0.43512096405529221 0.18328417901960251 0 -0.42248691737426308 0.1838902826546194 0 -0.4309997687098982 0.19524253367565411 0 -0.43512096405529221 0.18328417901960251 0 -0.42248691737426308 0.1838902826546194 0 -0.42248691737426308 0.1838902826546194 0 -0.4083382565205414 0.1849662181329777 0 -0.41297141764976208 0.17140652932639791 0 -0.41805990260346149 0.15489701610970741 0 -0.41297141764976208 0.17140652932639791 0 -0.40310567533245489 0.16065717237407789 0 -0.41805990260346149 0.15489701610970741 0 -0.43346181589913491 0.1698577775831647 0 -0.41297141764976208 0.17140652932639791 0 -0.40310567533245489 0.16065717237407789 0 -0.39237593816871702 0.17417070910384061 0 -0.38194799792784478 0.15796587387802061 0 -0.41297141764976208 0.17140652932639791 0 -0.40310567533245489 0.16065717237407789 0 -0.39237593816871702 0.17417070910384061 0 -0.38438584399965642 0.1917063019804077 0 -0.39237593816871702 0.17417070910384061 0 -0.39609842209065571 0.18728472887554579 0 -0.4083382565205414 0.1849662181329777 0 -0.39237593816871702 0.17417070910384061 0 -0.39609842209065571 0.18728472887554579 0 -0.4083382565205414 0.1849662181329777 0 -0.41297141764976208 0.17140652932639791 0 -0.39237593816871702 0.17417070910384061 0 -0.38438584399965642 0.1917063019804077 0 -0.39237593816871702 0.17417070910384061 0 -0.37267174480218279 0.17861289059144789 0 -0.39237593816871702 0.17417070910384061 0 -0.38194799792784478 0.15796587387802061 0 -0.37267174480218279 0.17861289059144789 0 -0.38194799792784478 0.15796587387802061 0 -0.37267174480218279 0.17861289059144789 0 -0.38194799792784478 0.15796587387802061 0 -0.39122425105351022 0.1373188571645948 0 -0.36763089935756199 0.14229708882842099 0 -0.38194799792784478 0.15796587387802061 0 -0.39122425105351022 0.1373188571645948 0 -0.38194799792784478 0.15796587387802061 0 -0.40493527321414952 0.14496124336910751 0 -0.39122425105351022 0.1373188571645948 0 -0.40310567533245489 0.16065717237407789 0 -0.38194799792784478 0.15796587387802061 0 -0.40493527321414952 0.14496124336910751 0 -0.41438981760899651 0.13243088879015261 0 -0.39122425105351022 0.1373188571645948 0 -0.40275744390744872 0.1116483604253698 0 -0.41438981760899651 0.13243088879015261 0 -0.39122425105351022 0.1373188571645948 0 -0.41438981760899651 0.13243088879015261 0 -0.40493527321414952 0.14496124336910751 0 -0.39122425105351022 0.1373188571645948 0 -0.38286259339142659 0.11968733537351441 0 -0.39122425105351022 0.1373188571645948 0 -0.36763089935756199 0.14229708882842099 0 -0.39122425105351022 0.1373188571645948 0 -0.36763089935756199 0.14229708882842099 0 -0.34965350418355268 0.1288197459260963 0 -0.36763089935756199 0.14229708882842099 0 -0.3637907421767661 0.1210109853243788 0 -0.38286259339142659 0.11968733537351441 0 -0.36763089935756199 0.14229708882842099 0 -0.3637907421767661 0.1210109853243788 0 -0.34965350418355268 0.1288197459260963 0 -0.34403754766161332 0.14727532049224501 0 -0.36763089935756199 0.14229708882842099 0 -0.34403754766161332 0.14727532049224501 0 -0.36763089935756199 0.14229708882842099 0 -0.34403754766161332 0.14727532049224501 0 -0.36763089935756199 0.14229708882842099 0 -0.36070006922817532 0.16420898490388619 0 -0.38194799792784478 0.15796587387802061 0 -0.36763089935756199 0.14229708882842099 0 -0.36070006922817532 0.16420898490388619 0 -0.38194799792784478 0.15796587387802061 0 -0.36070006922817532 0.16420898490388619 0 -0.37267174480218279 0.17861289059144789 0 -0.37267174480218279 0.17861289059144789 0 -0.35703139012659901 0.18386296967240401 0 -0.3633954916765208 0.19925990730487531 0 -0.36070006922817532 0.16420898490388619 0 -0.37267174480218279 0.17861289059144789 0 -0.35703139012659901 0.18386296967240401 0 -0.36070006922817532 0.16420898490388619 0 -0.35703139012659901 0.18386296967240401 0 -0.34210006040847379 0.17565716828672129 0 -0.35703139012659901 0.18386296967240401 0 -0.34210006040847379 0.17565716828672129 0 -0.34628958451764208 0.20157589727508951 0 -0.34403754766161332 0.14727532049224501 0 -0.36070006922817532 0.16420898490388619 0 -0.34210006040847379 0.17565716828672129 0 -0.34403754766161332 0.14727532049224501 0 -0.33029605564532211 0.16359732737813301 0 -0.34210006040847379 0.17565716828672129 0 -0.33029605564532211 0.16359732737813301 0 -0.34210006040847379 0.17565716828672129 0 -0.32116052366806608 0.19303933367800441 0 -0.31532842932913357 0.16490520271443751 0 -0.32116052366806608 0.19303933367800441 0 -0.33029605564532211 0.16359732737813301 0 -0.31532842932913357 0.16490520271443751 0 -0.32116052366806608 0.19303933367800441 0 -0.31532842932913357 0.16490520271443751 0 -0.32116052366806608 0.19303933367800441 0 -0.30857486585721261 0.17818809346730999 0 -0.33029605564532211 0.16359732737813301 0 -0.31532842932913357 0.16490520271443751 0 -0.32044419596566459 0.15225355215606901 0 -0.31532842932913357 0.16490520271443751 0 -0.32044419596566459 0.15225355215606901 0 -0.30812037225683692 0.15611463480150109 0 -0.32044419596566459 0.15225355215606901 0 -0.32024201459154061 0.13568658088844879 0 -0.30844705185292148 0.14369364107507809 0 -0.32024201459154061 0.13568658088844879 0 -0.33136770959936468 0.123409597346753 0 -0.31638859544005737 0.1179354956353372 0 -0.32024201459154061 0.13568658088844879 0 -0.30342762917489519 0.12744238737343161 0 -0.31638859544005737 0.1179354956353372 0 -0.34965350418355268 0.1288197459260963 0 -0.34403754766161332 0.14727532049224501 0 -0.33136770959936468 0.123409597346753 0 -0.34403754766161332 0.14727532049224501 0 -0.32024201459154061 0.13568658088844879 0 -0.33136770959936468 0.123409597346753 0 -0.34403754766161332 0.14727532049224501 0 -0.32044419596566459 0.15225355215606901 0 -0.32024201459154061 0.13568658088844879 0 -0.34403754766161332 0.14727532049224501 0 -0.32044419596566459 0.15225355215606901 0 -0.34403754766161332 0.14727532049224501 0 -0.33029605564532211 0.16359732737813301 0 -0.32044419596566459 0.15225355215606901 0 -0.34825562310355601 0.2413059599696995 0 -0.36735012561188568 0.237683187509769 0 -0.35297472874600411 0.22522314885076131 0 -0.34825562310355601 0.2413059599696995 0 -0.36205814242813272 0.2488345008902679 0 -0.36735012561188568 0.237683187509769 0 -0.34825562310355601 0.2413059599696995 0 -0.36205814242813272 0.2488345008902679 0 -0.34999157284080368 0.25810312054077111 0 -0.37946222484109549 0.2353053884457206 0 -0.36205814242813272 0.2488345008902679 0 -0.36735012561188568 0.237683187509769 0 -0.37946222484109549 0.2353053884457206 0 -0.36205814242813272 0.2488345008902679 0 -0.37666257165648181 0.26009656691381922 0 -0.37946222484109549 0.2353053884457206 0 -0.36205814242813272 0.2488345008902679 0 -0.37946222484109549 0.2353053884457206 0 -0.36735012561188568 0.237683187509769 0 -0.37388399796313398 0.23248221773580621 0 -0.36735012561188568 0.237683187509769 0 -0.36531214356249853 0.22421467967717909 0 -0.35297472874600411 0.22522314885076131 0 -0.36735012561188568 0.237683187509769 0 -0.37184185808622688 0.22709958014860859 0 -0.36531214356249853 0.22421467967717909 0 -0.36735012561188568 0.237683187509769 0 -0.37184185808622688 0.22709958014860859 0 -0.37388399796313398 0.23248221773580621 0 -0.37688178331332778 0.2298407148391263 0 -0.37184185808622688 0.22709958014860859 0 -0.37388399796313398 0.23248221773580621 0 -0.37184185808622688 0.22709958014860859 0 -0.36531214356249853 0.22421467967717909 0 -0.37192451594695802 0.2181715687608827 0 -0.3766316438375385 0.22279434508109699 0 -0.37184185808622688 0.22709958014860859 0 -0.37192451594695802 0.2181715687608827 0 -0.36531214356249853 0.22421467967717909 0 -0.35297472874600411 0.22522314885076131 0 -0.36159150390605721 0.21323269081723159 0 -0.36159150390605721 0.21323269081723159 0 -0.3633954916765208 0.19925990730487531 0 -0.34628958451764208 0.20157589727508951 0 -0.35297472874600411 0.22522314885076131 0 -0.36159150390605721 0.21323269081723159 0 -0.34628958451764208 0.20157589727508951 0 -0.36531214356249853 0.22421467967717909 0 -0.36159150390605721 0.21323269081723159 0 -0.37192451594695802 0.2181715687608827 0 -0.36159150390605721 0.21323269081723159 0 -0.37192451594695802 0.2181715687608827 0 -0.37153448519325188 0.20824986172565749 0 -0.36159150390605721 0.21323269081723159 0 -0.37153448519325188 0.20824986172565749 0 -0.3633954916765208 0.19925990730487531 0 -0.37588725132354017 0.1984015034115085 0 -0.37267174480218279 0.17861289059144789 0 -0.3633954916765208 0.19925990730487531 0 -0.37267174480218279 0.17861289059144789 0 -0.3633954916765208 0.19925990730487531 0 -0.37588725132354017 0.1984015034115085 0 -0.37153448519325188 0.20824986172565749 0 -0.3633954916765208 0.19925990730487531 0 -0.35703139012659901 0.18386296967240401 0 -0.3633954916765208 0.19925990730487531 0 -0.34628958451764208 0.20157589727508951 0 -0.32116052366806608 0.19303933367800441 0 -0.32699261800699858 0.22117346464157131 0 -0.29509404201417311 0.20467519586273891 0 -0.34210006040847379 0.17565716828672129 0 -0.34628958451764208 0.20157589727508951 0 -0.32116052366806608 0.19303933367800441 0 -0.32116052366806608 0.19303933367800441 0 -0.32699261800699858 0.22117346464157131 0 -0.35297472874600411 0.22522314885076131 0 -0.34628958451764208 0.20157589727508951 0 -0.32699261800699858 0.22117346464157131 0 -0.34628958451764208 0.20157589727508951 0 -0.32116052366806608 0.19303933367800441 0 -0.32699261800699858 0.22117346464157131 0 -0.34825562310355601 0.2413059599696995 0 -0.35297472874600411 0.22522314885076131 0 -0.32699261800699858 0.22117346464157131 0 -0.32699261800699858 0.22117346464157131 0 -0.31110064463521619 0.2477379589431575 0 -0.30082190656094748 0.22941744397282021 0 -0.32699261800699858 0.22117346464157131 0 -0.3328247123459312 0.24930759560513821 0 -0.31110064463521619 0.2477379589431575 0 -0.32699261800699858 0.22117346464157131 0 -0.3328247123459312 0.24930759560513821 0 -0.34825562310355601 0.2413059599696995 0 -0.3328247123459312 0.24930759560513821 0 -0.34999157284080368 0.25810312054077111 0 -0.34825562310355601 0.2413059599696995 0 -0.32699261800699858 0.22117346464157131 0 -0.3328247123459312 0.24930759560513821 0 -0.28829658598005847 0.24604816411315039 0 -0.30082190656094748 0.22941744397282021 0 -0.28102780628710278 0.2291328738578961 0 -0.28829658598005847 0.24604816411315039 0 -0.31110064463521619 0.2477379589431575 0 -0.30082190656094748 0.22941744397282021 0 -0.30082190656094748 0.22941744397282021 0 -0.29509404201417311 0.20467519586273891 0 -0.28102780628710278 0.2291328738578961 0 -0.32699261800699858 0.22117346464157131 0 -0.30082190656094748 0.22941744397282021 0 -0.29509404201417311 0.20467519586273891 0 -0.29509404201417311 0.20467519586273891 0 -0.26887429735620488 0.21308476310482921 0 -0.28102780628710278 0.2291328738578961 0 -0.32116052366806608 0.19303933367800441 0 -0.29509404201417311 0.20467519586273891 0 -0.29811690205637709 0.1868852192726789 0 -0.29509404201417311 0.20467519586273891 0 -0.29811690205637709 0.1868852192726789 0 -0.28199134619893262 0.17983074707620039 0 -0.29509404201417311 0.20467519586273891 0 -0.26975869639104771 0.19445455226343281 0 -0.28199134619893262 0.17983074707620039 0 -0.26975869639104771 0.19445455226343281 0 -0.25805122363966532 0.17916641703205141 0 -0.2495271856364164 0.19744305691347541 0 -0.26975869639104771 0.19445455226343281 0 -0.26887429735620488 0.21308476310482921 0 -0.2495271856364164 0.19744305691347541 0 -0.26887429735620488 0.21308476310482921 0 -0.24336685301739591 0.22144807136072159 0 -0.2495271856364164 0.19744305691347541 0 -0.29509404201417311 0.20467519586273891 0 -0.26975869639104771 0.19445455226343281 0 -0.26887429735620488 0.21308476310482921 0 -0.28102780628710278 0.2291328738578961 0 -0.26062303872063991 0.22976313397445131 0 -0.27060230483328229 0.24250575650368861 0 -0.26887429735620488 0.21308476310482921 0 -0.28102780628710278 0.2291328738578961 0 -0.26062303872063991 0.22976313397445131 0 -0.26887429735620488 0.21308476310482921 0 -0.26062303872063991 0.22976313397445131 0 -0.24336685301739591 0.22144807136072159 0 -0.26062303872063991 0.22976313397445131 0 -0.25177043790547998 0.24599012604316309 0 -0.24336685301739591 0.22144807136072159 0 -0.26062303872063991 0.22976313397445131 0 -0.25177043790547998 0.24599012604316309 0 -0.27060230483328229 0.24250575650368861 0 -0.25177043790547998 0.24599012604316309 0 -0.27060230483328229 0.24250575650368861 0 -0.2721765985049488 0.26097555064868161 0 -0.28829658598005847 0.24604816411315039 0 -0.27060230483328229 0.24250575650368861 0 -0.2721765985049488 0.26097555064868161 0 -0.28829658598005847 0.24604816411315039 0 -0.28102780628710278 0.2291328738578961 0 -0.27060230483328229 0.24250575650368861 0 -0.29668857576119112 0.15179815985780151 0 -0.28551143348705771 0.1608677580729084 0 -0.28108816933927672 0.1442322641175785 0 -0.29668857576119112 0.15179815985780151 0 -0.29445731736586261 0.1385740890287625 0 -0.28108816933927672 0.1442322641175785 0 -0.29445731736586261 0.1385740890287625 0 -0.30342762917489519 0.12744238737343161 0 -0.28345325083499268 0.123285671591133 0 -0.29445731736586261 0.1385740890287625 0 -0.28108816933927672 0.1442322641175785 0 -0.28345325083499268 0.123285671591133 0 -0.32024201459154061 0.13568658088844879 0 -0.30342762917489519 0.12744238737343161 0 -0.30844705185292148 0.14369364107507809 0 -0.29445731736586261 0.1385740890287625 0 -0.30342762917489519 0.12744238737343161 0 -0.30844705185292148 0.14369364107507809 0 -0.29668857576119112 0.15179815985780151 0 -0.29445731736586261 0.1385740890287625 0 -0.30844705185292148 0.14369364107507809 0 -0.29668857576119112 0.15179815985780151 0 -0.30844705185292148 0.14369364107507809 0 -0.30812037225683692 0.15611463480150109 0 -0.32044419596566459 0.15225355215606901 0 -0.30844705185292148 0.14369364107507809 0 -0.30812037225683692 0.15611463480150109 0 -0.31532842932913357 0.16490520271443751 0 -0.30812037225683692 0.15611463480150109 0 -0.29969360837527381 0.16792261820411919 0 -0.31532842932913357 0.16490520271443751 0 -0.29969360837527381 0.16792261820411919 0 -0.30857486585721261 0.17818809346730999 0 -0.29668857576119112 0.15179815985780151 0 -0.30812037225683692 0.15611463480150109 0 -0.29969360837527381 0.16792261820411919 0 -0.29969360837527381 0.16792261820411919 0 -0.29811690205637709 0.1868852192726789 0 -0.30857486585721261 0.17818809346730999 0 -0.32116052366806608 0.19303933367800441 0 -0.29811690205637709 0.1868852192726789 0 -0.30857486585721261 0.17818809346730999 0 -0.29969360837527381 0.16792261820411919 0 -0.29811690205637709 0.1868852192726789 0 -0.28199134619893262 0.17983074707620039 0 -0.29969360837527381 0.16792261820411919 0 -0.28199134619893262 0.17983074707620039 0 -0.28551143348705771 0.1608677580729084 0 -0.29668857576119112 0.15179815985780151 0 -0.29969360837527381 0.16792261820411919 0 -0.28551143348705771 0.1608677580729084 0 -0.28199134619893262 0.17983074707620039 0 -0.28551143348705771 0.1608677580729084 0 -0.2680954677606141 0.16055500110884241 0 -0.26975869639104771 0.19445455226343281 0 -0.28199134619893262 0.17983074707620039 0 -0.25805122363966532 0.17916641703205141 0 -0.28199134619893262 0.17983074707620039 0 -0.2680954677606141 0.16055500110884241 0 -0.25805122363966532 0.17916641703205141 0 -0.2680954677606141 0.16055500110884241 0 -0.25805122363966532 0.17916641703205141 0 -0.24425749315805231 0.15851006456642949 0 -0.2680954677606141 0.16055500110884241 0 -0.26204185957463072 0.14438820993978041 0 -0.24425749315805231 0.15851006456642949 0 -0.2680954677606141 0.16055500110884241 0 -0.26204185957463072 0.14438820993978041 0 -0.28108816933927672 0.1442322641175785 0 -0.28551143348705771 0.1608677580729084 0 -0.2680954677606141 0.16055500110884241 0 -0.28108816933927672 0.1442322641175785 0 -0.28108816933927672 0.1442322641175785 0 -0.26965816271454812 0.13141678607523291 0 -0.28345325083499268 0.123285671591133 0 -0.26204185957463072 0.14438820993978041 0 -0.28108816933927672 0.1442322641175785 0 -0.26965816271454812 0.13141678607523291 0 -0.26965816271454812 0.13141678607523291 0 -0.25282866413170513 0.1276037338865639 0 -0.265793079805618 0.1181238818638 0 -0.26204185957463072 0.14438820993978041 0 -0.26965816271454812 0.13141678607523291 0 -0.25282866413170513 0.1276037338865639 0 -0.25282866413170513 0.1276037338865639 0 -0.25133926342545337 0.1073077500403757 0 -0.265793079805618 0.1181238818638 0 -0.25133926342545337 0.1073077500403757 0 -0.27168605792139078 0.1010054677256942 0 -0.2502772859734072 0.088867942404367364 0 -0.25133926342545337 0.1073077500403757 0 -0.27168605792139078 0.1010054677256942 0 -0.265793079805618 0.1181238818638 0 -0.26965816271454812 0.13141678607523291 0 -0.265793079805618 0.1181238818638 0 -0.28345325083499268 0.123285671591133 0 -0.27168605792139078 0.1010054677256942 0 -0.265793079805618 0.1181238818638 0 -0.28345325083499268 0.123285671591133 0 -0.30342762917489519 0.12744238737343161 0 -0.28345325083499268 0.123285671591133 0 -0.29606620687046042 0.10885349634611829 0 -0.27168605792139078 0.1010054677256942 0 -0.28345325083499268 0.123285671591133 0 -0.29606620687046042 0.10885349634611829 0 -0.27168605792139078 0.1010054677256942 0 -0.29606620687046042 0.10885349634611829 0 -0.29165577545428711 0.087965709288483046 0 -0.29606620687046042 0.10885349634611829 0 -0.29165577545428711 0.087965709288483046 0 -0.31374858266280742 0.10292389736421979 0 -0.29606620687046042 0.10885349634611829 0 -0.31638859544005737 0.1179354956353372 0 -0.31374858266280742 0.10292389736421979 0 -0.30342762917489519 0.12744238737343161 0 -0.29606620687046042 0.10885349634611829 0 -0.31638859544005737 0.1179354956353372 0 -0.29764005124844239 0.074427120301050975 0 -0.30526974015498348 0.06597265149939735 0 -0.31466132075171532 0.079978293242753282 0 -0.30526974015498348 0.06597265149939735 0 -0.31557405884062428 0.057032689121286659 0 -0.31466132075171532 0.079978293242753282 0 -0.29764005124844239 0.074427120301050975 0 -0.30526974015498348 0.06597265149939735 0 -0.2936825794757818 0.062291716281096782 0 -0.29764005124844239 0.074427120301050975 0 -0.29165577545428711 0.087965709288483046 0 -0.31466132075171532 0.079978293242753282 0 -0.29165577545428711 0.087965709288483046 0 -0.31374858266280742 0.10292389736421979 0 -0.31466132075171532 0.079978293242753282 0 -0.28355236200540918 0.071781826148666711 0 -0.27793292794144592 0.056561884996540128 0 -0.2936825794757818 0.062291716281096782 0 -0.29764005124844239 0.074427120301050975 0 -0.29165577545428711 0.087965709288483046 0 -0.28355236200540918 0.071781826148666711 0 -0.29764005124844239 0.074427120301050975 0 -0.28355236200540918 0.071781826148666711 0 -0.2936825794757818 0.062291716281096782 0 -0.28355236200540918 0.071781826148666711 0 -0.26644965816436689 0.080348387809637947 0 -0.26204503542861168 0.062375187440452728 0 -0.28355236200540918 0.071781826148666711 0 -0.26204503542861168 0.062375187440452728 0 -0.27793292794144592 0.056561884996540128 0 -0.29165577545428711 0.087965709288483046 0 -0.28355236200540918 0.071781826148666711 0 -0.26644965816436689 0.080348387809637947 0 -0.27168605792139078 0.1010054677256942 0 -0.29165577545428711 0.087965709288483046 0 -0.26644965816436689 0.080348387809637947 0 -0.27168605792139078 0.1010054677256942 0 -0.26644965816436689 0.080348387809637947 0 -0.2502772859734072 0.088867942404367364 0 -0.26644965816436689 0.080348387809637947 0 -0.2502772859734072 0.088867942404367364 0 -0.24103724281531561 0.072759993522630267 0 -0.26644965816436689 0.080348387809637947 0 -0.26204503542861168 0.062375187440452728 0 -0.24103724281531561 0.072759993522630267 0 -0.26204503542861168 0.062375187440452728 0 -0.26380140466112639 0.042485306586813973 0 -0.2490733661730499 0.050118410714882898 0 -0.26204503542861168 0.062375187440452728 0 -0.2490733661730499 0.050118410714882898 0 -0.24103724281531561 0.072759993522630267 0 -0.25710948953078411 0.027476827907135608 0 -0.2490733661730499 0.050118410714882898 0 -0.26380140466112639 0.042485306586813973 0 -0.25710948953078411 0.027476827907135608 0 -0.2490733661730499 0.050118410714882898 0 -0.26380140466112639 0.042485306586813973 0 -0.25710948953078411 0.027476827907135608 0 -0.266298634113451 0.027939907302903411 0 -0.26380140466112639 0.042485306586813973 0 -0.27516130165784869 0.033163958902701601 0 -0.27884527339047022 0.043752988670493501 0 -0.26380140466112639 0.042485306586813973 0 -0.27516130165784869 0.033163958902701601 0 -0.266298634113451 0.027939907302903411 0 -0.27516130165784869 0.033163958902701601 0 -0.27884527339047022 0.043752988670493501 0 -0.28601510031390442 0.037828896892459253 0 -0.26380140466112639 0.042485306586813973 0 -0.27884527339047022 0.043752988670493501 0 -0.27793292794144592 0.056561884996540128 0 -0.26204503542861168 0.062375187440452728 0 -0.26380140466112639 0.042485306586813973 0 -0.27793292794144592 0.056561884996540128 0 -0.25445223429650399 0.001296013740745124 0 -0.26109085733176007 0.013112141742292411 0 -0.27363723852786181 0.0027058176256576621 0 -0.26109085733176007 0.013112141742292411 0 -0.25710948953078411 0.027476827907135608 0 -0.23272574590282649 0.01939614916333449 0 -0.26109085733176007 0.013112141742292411 0 -0.25710948953078411 0.027476827907135608 0 -0.266298634113451 0.027939907302903411 0 -0.26109085733176007 0.013112141742292411 0 -0.27433011738573571 0.023461301375573469 0 -0.28529261734652961 0.01623811266284211 0 -0.27516130165784869 0.033163958902701601 0 -0.266298634113451 0.027939907302903411 0 -0.27433011738573571 0.023461301375573469 0 -0.27516130165784869 0.033163958902701601 0 -0.27433011738573571 0.023461301375573469 0 -0.28306236688000669 0.02792111511604136 0 -0.27433011738573571 0.023461301375573469 0 -0.28529261734652961 0.01623811266284211 0 -0.28306236688000669 0.02792111511604136 0 -0.26109085733176007 0.013112141742292411 0 -0.266298634113451 0.027939907302903411 0 -0.27433011738573571 0.023461301375573469 0 -0.26109085733176007 0.013112141742292411 0 -0.27363723852786181 0.0027058176256576621 0 -0.28945596876069352 0.0068281343212503818 0 -0.26109085733176007 0.013112141742292411 0 -0.28945596876069352 0.0068281343212503818 0 -0.28529261734652961 0.01623811266284211 0 -0.26109085733176007 0.013112141742292411 0 -0.28945596876069352 0.0068281343212503818 0 -0.28249562433580527 -0.0021262679752555671 0 -0.27363723852786181 0.0027058176256576621 0 -0.28945596876069352 0.0068281343212503818 0 -0.28979225651653689 -0.0028564736825077478 0 -0.29799676537030689 -0.0014857598218393779 0 -0.28945596876069352 0.0068281343212503818 0 -0.28249562433580527 -0.0021262679752555671 0 -0.28979225651653689 -0.0028564736825077478 0 -0.28945596876069352 0.0068281343212503818 0 -0.28945596876069352 0.0068281343212503818 0 -0.29472676920457291 0.01784043043326658 0 -0.28529261734652961 0.01623811266284211 0 -0.28945596876069352 0.0068281343212503818 0 -0.29472676920457291 0.01784043043326658 0 -0.30356289034155631 0.01573923522061739 0 -0.28529261734652961 0.01623811266284211 0 -0.29426233311611327 0.031909436985768563 0 -0.30059560036951211 0.032556239528356422 0 -0.28529261734652961 0.01623811266284211 0 -0.28306236688000669 0.02792111511604136 0 -0.29426233311611327 0.031909436985768563 0 -0.28529261734652961 0.01623811266284211 0 -0.30059560036951211 0.032556239528356422 0 -0.29472676920457291 0.01784043043326658 0 -0.28529261734652961 0.01623811266284211 0 -0.30059560036951211 0.032556239528356422 0 -0.29472676920457291 0.01784043043326658 0 -0.30356289034155631 0.01573923522061739 0 -0.30059560036951211 0.032556239528356422 0 -0.30356289034155631 0.01573923522061739 0 -0.30059560036951211 0.032556239528356422 0 -0.31685983179106231 0.024709246647040179 0 -0.28945596876069352 0.0068281343212503818 0 -0.30356289034155631 0.01573923522061739 0 -0.31782108018962713 0.00054412690020929884 0 -0.28945596876069352 0.0068281343212503818 0 -0.31782108018962713 0.00054412690020929884 0 -0.29799676537030689 -0.0014857598218393779 0 -0.28945596876069352 0.0068281343212503818 0 -0.31782108018962713 0.00054412690020929884 0 -0.27793292794144592 0.056561884996540128 0 -0.2913156323780256 0.048724895973952548 0 -0.2936825794757818 0.062291716281096782 0 -0.2913156323780256 0.048724895973952548 0 -0.2936825794757818 0.062291716281096782 0 -0.30215204136555701 0.055698603185852097 0 -0.27884527339047022 0.043752988670493501 0 -0.27793292794144592 0.056561884996540128 0 -0.2913156323780256 0.048724895973952548 0 -0.27884527339047022 0.043752988670493501 0 -0.2913156323780256 0.048724895973952548 0 -0.28601510031390442 0.037828896892459253 0 -0.28306236688000669 0.02792111511604136 0 -0.28601510031390442 0.037828896892459253 0 -0.29426233311611327 0.031909436985768563 0 -0.27516130165784869 0.033163958902701601 0 -0.28306236688000669 0.02792111511604136 0 -0.28601510031390442 0.037828896892459253 0 -0.28601510031390442 0.037828896892459253 0 -0.29426233311611327 0.031909436985768563 0 -0.2941278154466031 0.040733573226426872 0 -0.2913156323780256 0.048724895973952548 0 -0.2941278154466031 0.040733573226426872 0 -0.30491819597836939 0.044471063053527098 0 -0.2913156323780256 0.048724895973952548 0 -0.28601510031390442 0.037828896892459253 0 -0.2941278154466031 0.040733573226426872 0 -0.30059560036951211 0.032556239528356422 0 -0.31589858339249421 0.048874366393871049 0 -0.30059560036951211 0.032556239528356422 0 -0.31589858339249421 0.048874366393871049 0 -0.31685983179106231 0.024709246647040179 0 -0.30059560036951211 0.032556239528356422 0 -0.30491819597836939 0.044471063053527098 0 -0.31589858339249421 0.048874366393871049 0 -0.29426233311611327 0.031909436985768563 0 -0.2941278154466031 0.040733573226426872 0 -0.30491819597836939 0.044471063053527098 0 -0.29426233311611327 0.031909436985768563 0 -0.30491819597836939 0.044471063053527098 0 -0.29426233311611327 0.031909436985768563 0 -0.30059560036951211 0.032556239528356422 0 -0.30491819597836939 0.044471063053527098 0 -0.30491819597836939 0.044471063053527098 0 -0.31557405884062428 0.057032689121286659 0 -0.30491819597836939 0.044471063053527098 0 -0.31557405884062428 0.057032689121286659 0 -0.31589858339249421 0.048874366393871049 0 -0.30491819597836939 0.044471063053527098 0 -0.30215204136555701 0.055698603185852097 0 -0.31557405884062428 0.057032689121286659 0 -0.2913156323780256 0.048724895973952548 0 -0.30491819597836939 0.044471063053527098 0 -0.30215204136555701 0.055698603185852097 0 -0.30526974015498348 0.06597265149939735 0 -0.2936825794757818 0.062291716281096782 0 -0.30215204136555701 0.055698603185852097 0 -0.30526974015498348 0.06597265149939735 0 -0.30215204136555701 0.055698603185852097 0 -0.31557405884062428 0.057032689121286659 0 -0.31589858339249421 0.048874366393871049 0 -0.33086201086268302 0.064830412834930337 0 -0.31589858339249421 0.048874366393871049 0 -0.33155880065410159 0.050354532313979052 0 -0.33086201086268302 0.064830412834930337 0 -0.31557405884062428 0.057032689121286659 0 -0.31589858339249421 0.048874366393871049 0 -0.33086201086268302 0.064830412834930337 0 -0.31557405884062428 0.057032689121286659 0 -0.31589858339249421 0.048874366393871049 0 -0.31589858339249421 0.048874366393871049 0 -0.31685983179106231 0.024709246647040179 0 -0.31589858339249421 0.048874366393871049 0 -0.32770872298242981 0.037107539770133598 0 -0.33155880065410159 0.050354532313979052 0 -0.31589858339249421 0.048874366393871049 0 -0.32770872298242981 0.037107539770133598 0 -0.31685983179106231 0.024709246647040179 0 -0.32770872298242981 0.037107539770133598 0 -0.34174842659380161 0.040201616905197322 0 -0.33155880065410159 0.050354532313979052 0 -0.32770872298242981 0.037107539770133598 0 -0.34174842659380161 0.040201616905197322 0 -0.33816867383834032 0.020971101801882611 0 -0.33155880065410159 0.050354532313979052 0 -0.34921248162929208 0.059222501396668847 0 -0.33086201086268302 0.064830412834930337 0 -0.34174842659380161 0.040201616905197322 0 -0.33155880065410159 0.050354532313979052 0 -0.34921248162929208 0.059222501396668847 0 -0.33375105468458599 -0.0029850000060665191 0 -0.31782108018962713 0.00054412690020929884 0 -0.33014852987240201 0.0098880759771651627 0 -0.31782108018962713 0.00054412690020929884 0 -0.31685983179106231 0.024709246647040179 0 -0.30356289034155631 0.01573923522061739 0 -0.31782108018962713 0.00054412690020929884 0 -0.31685983179106231 0.024709246647040179 0 -0.31782108018962713 0.00054412690020929884 0 -0.31685983179106231 0.024709246647040179 0 -0.33014852987240201 0.0098880759771651627 0 -0.32770872298242981 0.037107539770133598 0 -0.31685983179106231 0.024709246647040179 0 -0.33816867383834032 0.020971101801882611 0 -0.31685983179106231 0.024709246647040179 0 -0.33816867383834032 0.020971101801882611 0 -0.33014852987240201 0.0098880759771651627 0 -0.33816867383834032 0.020971101801882611 0 -0.33014852987240201 0.0098880759771651627 0 -0.34371067612720191 0.0063243568063823504 0 -0.33375105468458599 -0.0029850000060665191 0 -0.33014852987240201 0.0098880759771651627 0 -0.34371067612720191 0.0063243568063823504 0 -0.33816867383834032 0.020971101801882611 0 -0.34371067612720191 0.0063243568063823504 0 -0.36067571761635259 0.01201574293281492 0 -0.34968102917954508 -0.0065141269123413824 0 -0.34371067612720191 0.0063243568063823504 0 -0.36067571761635259 0.01201574293281492 0 -0.33816867383834032 0.020971101801882611 0 -0.35192987124121089 0.02815884807313521 0 -0.36067571761635259 0.01201574293281492 0 -0.34174842659380161 0.040201616905197322 0 -0.33816867383834032 0.020971101801882611 0 -0.35192987124121089 0.02815884807313521 0 -0.37926064652510572 0.01652591772007846 0 -0.36067571761635259 0.01201574293281492 0 -0.3662224365601211 0.038933641042989769 0 -0.35192987124121089 0.02815884807313521 0 -0.36067571761635259 0.01201574293281492 0 -0.3662224365601211 0.038933641042989769 0 -0.36067571761635259 0.01201574293281492 0 -0.3662224365601211 0.038933641042989769 0 -0.37926064652510572 0.01652591772007846 0 -0.36067571761635259 0.01201574293281492 0 -0.37366197689732522 0.0012785186665680559 0 -0.36656517708657399 -0.0072088866496940272 0 -0.36067571761635259 0.01201574293281492 0 -0.37366197689732522 0.0012785186665680559 0 -0.34174842659380161 0.040201616905197322 0 -0.34921248162929208 0.059222501396668847 0 -0.3662224365601211 0.038933641042989769 0 -0.34174842659380161 0.040201616905197322 0 -0.35192987124121089 0.02815884807313521 0 -0.3662224365601211 0.038933641042989769 0 -0.3662224365601211 0.038933641042989769 0 -0.37176915550388961 0.065851539153164648 0 -0.34921248162929208 0.059222501396668847 0 -0.3662224365601211 0.038933641042989769 0 -0.37176915550388961 0.065851539153164648 0 -0.38489237583583641 0.049497625960017222 0 -0.3662224365601211 0.038933641042989769 0 -0.37176915550388961 0.065851539153164648 0 -0.34921248162929208 0.059222501396668847 0 -0.37176915550388961 0.065851539153164648 0 -0.35715347922755292 0.073280957101163627 0 -0.37176915550388961 0.065851539153164648 0 -0.35715347922755292 0.073280957101163627 0 -0.3618068414441587 0.087263328578831068 0 -0.34921248162929208 0.059222501396668847 0 -0.35715347922755292 0.073280957101163627 0 -0.34582543833287138 0.080786459275989958 0 -0.34582543833287138 0.080786459275989958 0 -0.3618068414441587 0.087263328578831068 0 -0.35414723576459728 0.1025045416617974 0 -0.34582543833287138 0.080786459275989958 0 -0.35414723576459728 0.1025045416617974 0 -0.33486064730261139 0.079768615391541522 0 -0.35715347922755292 0.073280957101163627 0 -0.34582543833287138 0.080786459275989958 0 -0.3618068414441587 0.087263328578831068 0 -0.35414723576459728 0.1025045416617974 0 -0.33486064730261139 0.079768615391541522 0 -0.37731587444765807 0.092769437263339513 0 -0.37176915550388961 0.065851539153164648 0 -0.37731587444765807 0.092769437263339513 0 -0.37176915550388961 0.065851539153164648 0 -0.3618068414441587 0.087263328578831068 0 -0.3618068414441587 0.087263328578831068 0 -0.37097467658251793 0.1081065377119126 0 -0.35414723576459728 0.1025045416617974 0 -0.37731587444765807 0.092769437263339513 0 -0.3618068414441587 0.087263328578831068 0 -0.37097467658251793 0.1081065377119126 0 -0.38286259339142659 0.11968733537351441 0 -0.37097467658251793 0.1081065377119126 0 -0.3637907421767661 0.1210109853243788 0 -0.37097467658251793 0.1081065377119126 0 -0.3637907421767661 0.1210109853243788 0 -0.35414723576459728 0.1025045416617974 0 -0.34965350418355268 0.1288197459260963 0 -0.3637907421767661 0.1210109853243788 0 -0.35414723576459728 0.1025045416617974 0 -0.34965350418355268 0.1288197459260963 0 -0.35414723576459728 0.1025045416617974 0 -0.33136770959936468 0.123409597346753 0 -0.35414723576459728 0.1025045416617974 0 -0.33270153941792252 0.1008019887649174 0 -0.33486064730261139 0.079768615391541522 0 -0.35414723576459728 0.1025045416617974 0 -0.33270153941792252 0.1008019887649174 0 -0.33136770959936468 0.123409597346753 0 -0.33270153941792252 0.1008019887649174 0 -0.33136770959936468 0.123409597346753 0 -0.31638859544005737 0.1179354956353372 0 -0.33270153941792252 0.1008019887649174 0 -0.31374858266280742 0.10292389736421979 0 -0.32399302253376422 0.090868198690857993 0 -0.33270153941792252 0.1008019887649174 0 -0.31638859544005737 0.1179354956353372 0 -0.31374858266280742 0.10292389736421979 0 -0.31374858266280742 0.10292389736421979 0 -0.32399302253376422 0.090868198690857993 0 -0.31466132075171532 0.079978293242753282 0 -0.31374858266280742 0.10292389736421979 0 -0.31466132075171532 0.079978293242753282 0 -0.32399302253376422 0.090868198690857993 0 -0.31466132075171532 0.079978293242753282 0 -0.33486064730261139 0.079768615391541522 0 -0.31557405884062428 0.057032689121286659 0 -0.31466132075171532 0.079978293242753282 0 -0.31557405884062428 0.057032689121286659 0 -0.31466132075171532 0.079978293242753282 0 -0.33486064730261139 0.079768615391541522 0 -0.31557405884062428 0.057032689121286659 0 -0.33086201086268302 0.064830412834930337 0 -0.33486064730261139 0.079768615391541522 0 -0.31557405884062428 0.057032689121286659 0 -0.33486064730261139 0.079768615391541522 0 -0.34582543833287138 0.080786459275989958 0 -0.33086201086268302 0.064830412834930337 0 -0.33486064730261139 0.079768615391541522 0 -0.34921248162929208 0.059222501396668847 0 -0.34582543833287138 0.080786459275989958 0 -0.33086201086268302 0.064830412834930337 0 -0.34582543833287138 0.080786459275989958 0 -0.33086201086268302 0.064830412834930337 0 -0.33270153941792252 0.1008019887649174 0 -0.32399302253376422 0.090868198690857993 0 -0.33486064730261139 0.079768615391541522 0 -0.40286433130207311 0.46945225254375789 0 -0.40734512917919952 0.5 0 -0.36896870429677547 0.47227760581199041 0 -0.40286433130207311 0.46945225254375789 0 -0.37880257441422138 0.45318909365973292 0 -0.36896870429677547 0.47227760581199041 0 -0.37880257441422138 0.45318909365973292 0 -0.39927044393889027 0.44243637502540573 0 -0.37328688082870892 0.43209049225339369 0 -0.40286433130207311 0.46945225254375789 0 -0.37880257441422138 0.45318909365973292 0 -0.39927044393889027 0.44243637502540573 0 -0.40286433130207311 0.46945225254375789 0 -0.39927044393889027 0.44243637502540573 0 -0.42445283295416653 0.45281764221218063 0 -0.40286433130207311 0.46945225254375789 0 -0.42445283295416653 0.45281764221218063 0 -0.44318585439826669 0.47650816345677072 0 -0.39927044393889027 0.44243637502540573 0 -0.42445283295416653 0.45281764221218063 0 -0.39927044393889027 0.44243637502540573 0 -0.42445283295416653 0.45281764221218063 0 -0.41506855173033069 0.43615949223250039 0 -0.42445283295416653 0.45281764221218063 0 -0.42658819955984861 0.4387007339148527 0 -0.44590959484802528 0.44130168684793802 0 -0.42445283295416653 0.45281764221218063 0 -0.42658819955984861 0.4387007339148527 0 -0.41506855173033069 0.43615949223250039 0 -0.42445283295416653 0.45281764221218063 0 -0.44963522196944261 0.46319890939895542 0 -0.40286433130207311 0.46945225254375789 0 -0.40734512917919952 0.5 0 -0.44318585439826669 0.47650816345677072 0 -0.44318585439826669 0.47650816345677072 0 -0.47481761098471892 0.47358017658573032 0 -0.44963522196944261 0.46319890939895542 0 -0.40734512917919952 0.5 0 -0.44318585439826669 0.47650816345677072 0 -0.5 0.5 0 -0.44318585439826669 0.47650816345677072 0 -0.47481761098471892 0.47358017658573032 0 -0.5 0.5 0 -0.47481761098471892 0.47358017658573032 0 -0.49999999999999578 0.48396144377250372 0 -0.5 0.45568849255567939 0 -0.47481761098471892 0.47358017658573032 0 -0.49999999999999578 0.48396144377250372 0 -0.47481761098471892 0.47358017658573032 0 -0.49999999999999578 0.48396144377250372 0 -0.5 0.5 0 -0.5 0.45568849255567939 0 -0.47841365027678778 0.44410252740933231 0 -0.5 0.42741554133885512 0 -0.47481761098471892 0.47358017658573032 0 -0.5 0.45568849255567939 0 -0.47841365027678778 0.44410252740933231 0 -0.47481761098471892 0.47358017658573032 0 -0.47841365027678778 0.44410252740933231 0 -0.46130506795488507 0.45045366616448113 0 -0.47841365027678778 0.44410252740933231 0 -0.46130506795488507 0.45045366616448113 0 -0.4613549748431941 0.43048322009736301 0 -0.46130506795488507 0.45045366616448113 0 -0.44590959484802528 0.44130168684793802 0 -0.4613549748431941 0.43048322009736301 0 -0.47481761098471892 0.47358017658573032 0 -0.44963522196944261 0.46319890939895542 0 -0.47481761098471892 0.47358017658573032 0 -0.46130506795488507 0.45045366616448113 0 -0.44963522196944261 0.46319890939895542 0 -0.42445283295416653 0.45281764221218063 0 -0.44318585439826669 0.47650816345677072 0 -0.44963522196944261 0.46319890939895542 0 -0.46130506795488507 0.45045366616448113 0 -0.44963522196944261 0.46319890939895542 0 -0.44590959484802528 0.44130168684793802 0 -0.42445283295416653 0.45281764221218063 0 -0.44963522196944261 0.46319890939895542 0 -0.44590959484802528 0.44130168684793802 0 -0.44590959484802528 0.44130168684793802 0 -0.4483382455203293 0.42685683993576667 0 -0.43705299063552411 0.42304307426979659 0 -0.4483382455203293 0.42685683993576667 0 -0.44903542175457389 0.41259937852796919 0 -0.4613549748431941 0.43048322009736301 0 -0.44590959484802528 0.44130168684793802 0 -0.4483382455203293 0.42685683993576667 0 -0.4613549748431941 0.43048322009736301 0 -0.4483382455203293 0.42685683993576667 0 -0.44903542175457389 0.41259937852796919 0 -0.43705299063552411 0.42304307426979659 0 -0.44903542175457389 0.41259937852796919 0 -0.4613549748431941 0.43048322009736301 0 -0.47558611134900192 0.41502579684913049 0 -0.44903542175457389 0.41259937852796919 0 -0.47558611134900192 0.41502579684913049 0 -0.46568390088502332 0.4056053954160424 0 -0.44903542175457389 0.41259937852796919 0 -0.47558611134900192 0.41502579684913049 0 -0.47841365027678778 0.44410252740933231 0 -0.4613549748431941 0.43048322009736301 0 -0.47883868411724589 0.42925677142367019 0 -0.4613549748431941 0.43048322009736301 0 -0.47883868411724589 0.42925677142367019 0 -0.47558611134900192 0.41502579684913049 0 -0.47558611134900192 0.41502579684913049 0 -0.5 0.42741554133885512 0 -0.5 0.39914259012203068 0 -0.47883868411724589 0.42925677142367019 0 -0.47558611134900192 0.41502579684913049 0 -0.5 0.42741554133885512 0 -0.47841365027678778 0.44410252740933231 0 -0.47883868411724589 0.42925677142367019 0 -0.5 0.42741554133885512 0 -0.5 0.39914259012203068 0 -0.4821133158084131 0.39485209878945599 0 -0.5 0.37086963890520641 0 -0.47558611134900192 0.41502579684913049 0 -0.5 0.39914259012203068 0 -0.4821133158084131 0.39485209878945599 0 -0.47558611134900192 0.41502579684913049 0 -0.4821133158084131 0.39485209878945599 0 -0.46568390088502332 0.4056053954160424 0 -0.4821133158084131 0.39485209878945599 0 -0.46937670454704161 0.37673658357893058 0 -0.46568390088502332 0.4056053954160424 0 -0.4821133158084131 0.39485209878945599 0 -0.46937670454704161 0.37673658357893058 0 -0.5 0.37086963890520641 0 -0.46937670454704161 0.37673658357893058 0 -0.4528871112135795 0.39464183263787378 0 -0.44496590517119627 0.3811532460473806 0 -0.44903542175457389 0.41259937852796919 0 -0.46568390088502332 0.4056053954160424 0 -0.4528871112135795 0.39464183263787378 0 -0.46937670454704161 0.37673658357893058 0 -0.46568390088502332 0.4056053954160424 0 -0.4528871112135795 0.39464183263787378 0 -0.46937670454704161 0.37673658357893058 0 -0.46568390088502332 0.4056053954160424 0 -0.4528871112135795 0.39464183263787378 0 -0.44496590517119627 0.3811532460473806 0 -0.43537362371006222 0.39711455961904579 0 -0.44903542175457389 0.41259937852796919 0 -0.4528871112135795 0.39464183263787378 0 -0.43537362371006222 0.39711455961904579 0 -0.44496590517119627 0.3811532460473806 0 -0.42682757931355569 0.38396563306983028 0 -0.43398411596488912 0.37034019119532591 0 -0.42682757931355569 0.38396563306983028 0 -0.4177527503820942 0.37094641529524619 0 -0.43398411596488912 0.37034019119532591 0 -0.44496590517119627 0.3811532460473806 0 -0.42682757931355569 0.38396563306983028 0 -0.43537362371006222 0.39711455961904579 0 -0.42682757931355569 0.38396563306983028 0 -0.41012631551955869 0.38442133783787091 0 -0.41714287692546592 0.3969218202831713 0 -0.42682757931355569 0.38396563306983028 0 -0.41012631551955869 0.38442133783787091 0 -0.4177527503820942 0.37094641529524619 0 -0.41714287692546592 0.3969218202831713 0 -0.42248473216014581 0.41017296020680788 0 -0.39593404256571779 0.40774654188564607 0 -0.41012631551955869 0.38442133783787091 0 -0.41714287692546592 0.3969218202831713 0 -0.40297707120651388 0.39570797761753668 0 -0.42682757931355569 0.38396563306983028 0 -0.41714287692546592 0.3969218202831713 0 -0.43537362371006222 0.39711455961904579 0 -0.41714287692546592 0.3969218202831713 0 -0.43537362371006222 0.39711455961904579 0 -0.42248473216014581 0.41017296020680788 0 -0.42248473216014581 0.41017296020680788 0 -0.43705299063552411 0.42304307426979659 0 -0.42092181870687168 0.42452411436679183 0 -0.44903542175457389 0.41259937852796919 0 -0.42248473216014581 0.41017296020680788 0 -0.44903542175457389 0.41259937852796919 0 -0.43537362371006222 0.39711455961904579 0 -0.42248473216014581 0.41017296020680788 0 -0.44903542175457389 0.41259937852796919 0 -0.42248473216014581 0.41017296020680788 0 -0.43705299063552411 0.42304307426979659 0 -0.44590959484802528 0.44130168684793802 0 -0.43705299063552411 0.42304307426979659 0 -0.42092181870687168 0.42452411436679183 0 -0.42658819955984861 0.4387007339148527 0 -0.44590959484802528 0.44130168684793802 0 -0.42092181870687168 0.42452411436679183 0 -0.44590959484802528 0.44130168684793802 0 -0.42092181870687168 0.42452411436679183 0 -0.41506855173033069 0.43615949223250039 0 -0.42092181870687168 0.42452411436679183 0 -0.4044063649608769 0.42279822471038142 0 -0.42658819955984861 0.4387007339148527 0 -0.41506855173033069 0.43615949223250039 0 -0.42092181870687168 0.42452411436679183 0 -0.42092181870687168 0.42452411436679183 0 -0.39593404256571779 0.40774654188564607 0 -0.4044063649608769 0.42279822471038142 0 -0.42092181870687168 0.42452411436679183 0 -0.39593404256571779 0.40774654188564607 0 -0.42248473216014581 0.41017296020680788 0 -0.39593404256571779 0.40774654188564607 0 -0.42248473216014581 0.41017296020680788 0 -0.42092181870687168 0.42452411436679183 0 -0.39593404256571779 0.40774654188564607 0 -0.3922583721381887 0.41799707120918178 0 -0.39434179177493778 0.41389628871586082 0 -0.4044063649608769 0.42279822471038142 0 -0.39434179177493778 0.41389628871586082 0 -0.39593404256571779 0.40774654188564607 0 -0.4044063649608769 0.42279822471038142 0 -0.3922583721381887 0.41799707120918178 0 -0.39434179177493778 0.41389628871586082 0 -0.39004575059617902 0.41399765264900762 0 -0.39434179177493778 0.41389628871586082 0 -0.39175354171997018 0.40736449366020688 0 -0.39004575059617902 0.41399765264900762 0 -0.39434179177493778 0.41389628871586082 0 -0.39175354171997018 0.40736449366020688 0 -0.39593404256571779 0.40774654188564607 0 -0.39175354171997018 0.40736449366020688 0 -0.39593404256571779 0.40774654188564607 0 -0.39345623700294102 0.40608286592709569 0 -0.39175354171997018 0.40736449366020688 0 -0.39593404256571779 0.40774654188564607 0 -0.39593404256571779 0.40774654188564607 0 -0.39345623700294102 0.40608286592709569 0 -0.39927044393889027 0.44243637502540573 0 -0.41506855173033069 0.43615949223250039 0 -0.4044063649608769 0.42279822471038142 0 -0.39927044393889027 0.44243637502540573 0 -0.4044063649608769 0.42279822471038142 0 -0.39219367622472601 0.42561164402070317 0 -0.3922583721381887 0.41799707120918178 0 -0.4044063649608769 0.42279822471038142 0 -0.39219367622472601 0.42561164402070317 0 -0.39927044393889027 0.44243637502540573 0 -0.39219367622472601 0.42561164402070317 0 -0.37328688082870892 0.43209049225339369 0 -0.39219367622472601 0.42561164402070317 0 -0.38182929675161897 0.41673275701078089 0 -0.37328688082870892 0.43209049225339369 0 -0.39345623700294102 0.40608286592709569 0 -0.36821055110730377 0.41584688824341393 0 -0.39175354171997018 0.40736449366020688 0 -0.38182929675161897 0.41673275701078089 0 -0.36821055110730377 0.41584688824341393 0 -0.39345623700294102 0.40608286592709569 0 -0.37327099691651738 0.40512047719503108 0 -0.36821055110730377 0.41584688824341393 0 -0.39175354171997018 0.40736449366020688 0 -0.39345623700294102 0.40608286592709569 0 -0.36821055110730377 0.41584688824341393 0 -0.39175354171997018 0.40736449366020688 0 -0.39004575059617902 0.41399765264900762 0 -0.38182929675161897 0.41673275701078089 0 -0.3922583721381887 0.41799707120918178 0 -0.39004575059617902 0.41399765264900762 0 -0.38182929675161897 0.41673275701078089 0 -0.3922583721381887 0.41799707120918178 0 -0.39219367622472601 0.42561164402070317 0 -0.38182929675161897 0.41673275701078089 0 -0.38878242224169529 0.39551001355288501 0 -0.3763821131333096 0.39461876647475891 0 -0.39345623700294102 0.40608286592709569 0 -0.3763821131333096 0.39461876647475891 0 -0.39345623700294102 0.40608286592709569 0 -0.38878242224169529 0.39551001355288501 0 -0.3763821131333096 0.39461876647475891 0 -0.39497705997241478 0.38537104622978419 0 -0.3763821131333096 0.39461876647475891 0 -0.39345623700294102 0.40608286592709569 0 -0.37327099691651738 0.40512047719503108 0 -0.3763821131333096 0.39461876647475891 0 -0.38441984633433451 0.36748704170399737 0 -0.3763821131333096 0.39461876647475891 0 -0.39497705997241478 0.38537104622978419 0 -0.38441984633433451 0.36748704170399737 0 -0.41012631551955869 0.38442133783787091 0 -0.39497705997241478 0.38537104622978419 0 -0.40198479661267011 0.36699200619068112 0 -0.41012631551955869 0.38442133783787091 0 -0.39497705997241478 0.38537104622978419 0 -0.40297707120651388 0.39570797761753668 0 -0.41714287692546592 0.3969218202831713 0 -0.40297707120651388 0.39570797761753668 0 -0.39345623700294102 0.40608286592709569 0 -0.41714287692546592 0.3969218202831713 0 -0.39593404256571779 0.40774654188564607 0 -0.39345623700294102 0.40608286592709569 0 -0.41714287692546592 0.3969218202831713 0 -0.39345623700294102 0.40608286592709569 0 -0.38878242224169529 0.39551001355288501 0 -0.39345623700294102 0.40608286592709569 0 -0.39521442680871849 0.39645635379203492 0 -0.40297707120651388 0.39570797761753668 0 -0.39345623700294102 0.40608286592709569 0 -0.39521442680871849 0.39645635379203492 0 -0.39497705997241478 0.38537104622978419 0 -0.40297707120651388 0.39570797761753668 0 -0.39521442680871849 0.39645635379203492 0 -0.38878242224169529 0.39551001355288501 0 -0.39497705997241478 0.38537104622978419 0 -0.39521442680871849 0.39645635379203492 0 -0.40198479661267011 0.36699200619068112 0 -0.38441984633433451 0.36748704170399737 0 -0.39245757953535848 0.34035531693323562 0 -0.40198479661267011 0.36699200619068112 0 -0.39245757953535848 0.34035531693323562 0 -0.41217522793226008 0.35337087914395249 0 -0.39497705997241478 0.38537104622978419 0 -0.40198479661267011 0.36699200619068112 0 -0.38441984633433451 0.36748704170399737 0 -0.38441984633433451 0.36748704170399737 0 -0.39245757953535848 0.34035531693323562 0 -0.38441984633433451 0.36748704170399737 0 -0.37586490017490559 0.3498469573215004 0 -0.39245757953535848 0.34035531693323562 0 -0.37586490017490559 0.3498469573215004 0 -0.39245757953535848 0.34035531693323562 0 -0.36826361210264191 0.33447010231811508 0 -0.38357221515642898 0.32256067272598671 0 -0.39245757953535848 0.34035531693323562 0 -0.36826361210264191 0.33447010231811508 0 -0.38357221515642898 0.32256067272598671 0 -0.40049531273638272 0.31322359216247381 0 -0.39245757953535848 0.34035531693323562 0 -0.40049531273638272 0.31322359216247381 0 -0.39245757953535848 0.34035531693323562 0 -0.40049531273638272 0.31322359216247381 0 -0.39245757953535848 0.34035531693323562 0 -0.42026243431690169 0.33093167260387979 0 -0.39245757953535848 0.34035531693323562 0 -0.42026243431690169 0.33093167260387979 0 -0.41217522793226008 0.35337087914395249 0 -0.40049531273638272 0.31322359216247381 0 -0.42026243431690169 0.33093167260387979 0 -0.41976559079851428 0.30478803225123319 0 -0.42026243431690169 0.33093167260387979 0 -0.43934849936692411 0.31245024310626429 0 -0.41976559079851428 0.30478803225123319 0 -0.42026243431690169 0.33093167260387979 0 -0.44570528618138089 0.33694911391744548 0 -0.43934849936692411 0.31245024310626429 0 -0.42026243431690169 0.33093167260387979 0 -0.43057825110151032 0.35416988272632399 0 -0.44570528618138089 0.33694911391744548 0 -0.42026243431690169 0.33093167260387979 0 -0.43057825110151032 0.35416988272632399 0 -0.41217522793226008 0.35337087914395249 0 -0.40198479661267011 0.36699200619068112 0 -0.41217522793226008 0.35337087914395249 0 -0.4177527503820942 0.37094641529524619 0 -0.41012631551955869 0.38442133783787091 0 -0.40198479661267011 0.36699200619068112 0 -0.4177527503820942 0.37094641529524619 0 -0.43057825110151032 0.35416988272632399 0 -0.41217522793226008 0.35337087914395249 0 -0.4177527503820942 0.37094641529524619 0 -0.43057825110151032 0.35416988272632399 0 -0.4177527503820942 0.37094641529524619 0 -0.43398411596488912 0.37034019119532591 0 -0.43057825110151032 0.35416988272632399 0 -0.43398411596488912 0.37034019119532591 0 -0.44979609385608887 0.36146577883784858 0 -0.44496590517119627 0.3811532460473806 0 -0.43398411596488912 0.37034019119532591 0 -0.44979609385608887 0.36146577883784858 0 -0.43057825110151032 0.35416988272632399 0 -0.44979609385608887 0.36146577883784858 0 -0.44570528618138089 0.33694911391744548 0 -0.44979609385608887 0.36146577883784858 0 -0.47306950820906007 0.34786777174181871 0 -0.44570528618138089 0.33694911391744548 0 -0.46937670454704161 0.37673658357893058 0 -0.44496590517119627 0.3811532460473806 0 -0.44979609385608887 0.36146577883784858 0 -0.46937670454704161 0.37673658357893058 0 -0.44979609385608887 0.36146577883784858 0 -0.47306950820906007 0.34786777174181871 0 -0.46937670454704161 0.37673658357893058 0 -0.47306950820906007 0.34786777174181871 0 -0.46937670454704161 0.37673658357893058 0 -0.47306950820906007 0.34786777174181871 0 -0.5 0.37086963890520641 0 -0.47306950820906007 0.34786777174181871 0 -0.5 0.37086963890520641 0 -0.5 0.34259668768838208 0 -0.48919524953591692 0.3134112048038678 0 -0.5 0.31432373647155792 0 -0.48918254538284273 0.33000866145782459 0 -0.48919524953591692 0.3134112048038678 0 -0.48918254538284273 0.33000866145782459 0 -0.47676231187107848 0.31899895990470689 0 -0.5 0.31432373647155792 0 -0.48918254538284273 0.33000866145782459 0 -0.5 0.34259668768838208 0 -0.47306950820906007 0.34786777174181871 0 -0.48918254538284273 0.33000866145782459 0 -0.5 0.34259668768838208 0 -0.47306950820906007 0.34786777174181871 0 -0.48918254538284273 0.33000866145782459 0 -0.47676231187107848 0.31899895990470689 0 -0.47306950820906007 0.34786777174181871 0 -0.47676231187107848 0.31899895990470689 0 -0.47306950820906007 0.34786777174181871 0 -0.47676231187107848 0.31899895990470689 0 -0.4573776301775338 0.31802971167214961 0 -0.47676231187107848 0.31899895990470689 0 -0.4573776301775338 0.31802971167214961 0 -0.46747663462966271 0.3051367263565834 0 -0.47306950820906007 0.34786777174181871 0 -0.4573776301775338 0.31802971167214961 0 -0.44570528618138089 0.33694911391744548 0 -0.4573776301775338 0.31802971167214961 0 -0.44570528618138089 0.33694911391744548 0 -0.43934849936692411 0.31245024310626429 0 -0.4573776301775338 0.31802971167214961 0 -0.43934849936692411 0.31245024310626429 0 -0.45365989416038899 0.29815331183018889 0 -0.43934849936692411 0.31245024310626429 0 -0.45365989416038899 0.29815331183018889 0 -0.43483090892463938 0.29131468296546259 0 -0.45365989416038899 0.29815331183018889 0 -0.45352891971584552 0.27635953636924698 0 -0.43483090892463938 0.29131468296546259 0 -0.46740585539586849 0.28667651168495673 0 -0.45365989416038899 0.29815331183018889 0 -0.45352891971584552 0.27635953636924698 0 -0.46740585539586849 0.28667651168495673 0 -0.45365989416038899 0.29815331183018889 0 -0.46747663462966271 0.3051367263565834 0 -0.4573776301775338 0.31802971167214961 0 -0.45365989416038899 0.29815331183018889 0 -0.46747663462966271 0.3051367263565834 0 -0.48919524953591692 0.3134112048038678 0 -0.47676231187107848 0.31899895990470689 0 -0.47983341210047509 0.29975569797943569 0 -0.46740585539586849 0.28667651168495673 0 -0.46747663462966271 0.3051367263565834 0 -0.47983341210047509 0.29975569797943569 0 -0.47676231187107848 0.31899895990470689 0 -0.46747663462966271 0.3051367263565834 0 -0.47983341210047509 0.29975569797943569 0 -0.46740585539586849 0.28667651168495673 0 -0.47983341210047509 0.29975569797943569 0 -0.48071050944069471 0.28461127909467449 0 -0.46740585539586849 0.28667651168495673 0 -0.48071050944069471 0.28461127909467449 0 -0.47507400823686979 0.27257694236361851 0 -0.47983341210047509 0.29975569797943569 0 -0.48071050944069471 0.28461127909467449 0 -0.48861778928345101 0.29372573589547318 0 -0.48861778928345101 0.29372573589547318 0 -0.49394125808720812 0.28231654611464091 0 -0.49847448649957088 0.30780129321739957 0 -0.5 0.2860507852547336 0 -0.49394125808720812 0.28231654611464091 0 -0.49847448649957088 0.30780129321739957 0 -0.49394125808720812 0.28231654611464091 0 -0.49847448649957088 0.30780129321739957 0 -0.48071050944069471 0.28461127909467449 0 -0.48861778928345101 0.29372573589547318 0 -0.49394125808720812 0.28231654611464091 0 -0.5 0.31432373647155792 0 -0.5 0.2860507852547336 0 -0.49847448649957088 0.30780129321739957 0 -0.48919524953591692 0.3134112048038678 0 -0.49847448649957088 0.30780129321739957 0 -0.48903023435485349 0.30367348297404412 0 -0.48919524953591692 0.3134112048038678 0 -0.5 0.31432373647155792 0 -0.49847448649957088 0.30780129321739957 0 -0.48919524953591692 0.3134112048038678 0 -0.47983341210047509 0.29975569797943569 0 -0.48903023435485349 0.30367348297404412 0 -0.48861778928345101 0.29372573589547318 0 -0.49847448649957088 0.30780129321739957 0 -0.48903023435485349 0.30367348297404412 0 -0.47983341210047509 0.29975569797943569 0 -0.48861778928345101 0.29372573589547318 0 -0.48903023435485349 0.30367348297404412 0 -0.49357070773433198 0.24386539194500001 0 -0.48940802967484542 0.25683179901188219 0 -0.5 0.25777783403790933 0 -0.49394125808720812 0.28231654611464091 0 -0.48940802967484542 0.25683179901188219 0 -0.48440269670486608 0.26833850453688851 0 -0.5 0.2860507852547336 0 -0.49394125808720812 0.28231654611464091 0 -0.5 0.25777783403790933 0 -0.49394125808720812 0.28231654611464091 0 -0.48940802967484542 0.25683179901188219 0 -0.49394125808720812 0.28231654611464091 0 -0.48940802967484542 0.25683179901188219 0 -0.5 0.25777783403790933 0 -0.49394125808720812 0.28231654611464091 0 -0.48440269670486608 0.26833850453688851 0 -0.48385741234448421 0.27620706461603239 0 -0.48071050944069471 0.28461127909467449 0 -0.49394125808720812 0.28231654611464091 0 -0.48385741234448421 0.27620706461603239 0 -0.48440269670486608 0.26833850453688851 0 -0.47507400823686979 0.27257694236361851 0 -0.4771304213643271 0.25979019786965368 0 -0.48440269670486608 0.26833850453688851 0 -0.48385741234448421 0.27620706461603239 0 -0.47507400823686979 0.27257694236361851 0 -0.48071050944069471 0.28461127909467449 0 -0.48385741234448421 0.27620706461603239 0 -0.47507400823686979 0.27257694236361851 0 -0.46740585539586849 0.28667651168495673 0 -0.47507400823686979 0.27257694236361851 0 -0.46552394449711693 0.27492622332119598 0 -0.47507400823686979 0.27257694236361851 0 -0.46608699463988368 0.26409190286696188 0 -0.46552394449711693 0.27492622332119598 0 -0.47507400823686979 0.27257694236361851 0 -0.4771304213643271 0.25979019786965368 0 -0.46608699463988368 0.26409190286696188 0 -0.4771304213643271 0.25979019786965368 0 -0.46870141352786698 0.25225739816318449 0 -0.46608699463988368 0.26409190286696188 0 -0.48940802967484542 0.25683179901188219 0 -0.48440269670486608 0.26833850453688851 0 -0.4771304213643271 0.25979019786965368 0 -0.47780820849333222 0.2476596539210795 0 -0.48940802967484542 0.25683179901188219 0 -0.4771304213643271 0.25979019786965368 0 -0.47780820849333222 0.2476596539210795 0 -0.4771304213643271 0.25979019786965368 0 -0.46870141352786698 0.25225739816318449 0 -0.45970327197577582 0.24454748634297321 0 -0.46870141352786698 0.25225739816318449 0 -0.45235884440879393 0.25756667450669463 0 -0.46870141352786698 0.25225739816318449 0 -0.46608699463988368 0.26409190286696188 0 -0.45235884440879393 0.25756667450669463 0 -0.46608699463988368 0.26409190286696188 0 -0.45352891971584552 0.27635953636924698 0 -0.45235884440879393 0.25756667450669463 0 -0.46740585539586849 0.28667651168495673 0 -0.46552394449711693 0.27492622332119598 0 -0.45352891971584552 0.27635953636924698 0 -0.46608699463988368 0.26409190286696188 0 -0.46552394449711693 0.27492622332119598 0 -0.45352891971584552 0.27635953636924698 0 -0.45352891971584552 0.27635953636924698 0 -0.45235884440879393 0.25756667450669463 0 -0.43419731878332612 0.27055934014754451 0 -0.45352891971584552 0.27635953636924698 0 -0.43419731878332612 0.27055934014754451 0 -0.43483090892463938 0.29131468296546259 0 -0.43460594810953662 0.24974433279273681 0 -0.45235884440879393 0.25756667450669463 0 -0.43419731878332612 0.27055934014754451 0 -0.44879287157715531 0.2436899004703923 0 -0.43460594810953662 0.24974433279273681 0 -0.45235884440879393 0.25756667450669463 0 -0.43460594810953662 0.24974433279273681 0 -0.41657077913843088 0.25896014262095007 0 -0.43419731878332612 0.27055934014754451 0 -0.42013516911364568 0.24317325278082849 0 -0.43460594810953662 0.24974433279273681 0 -0.41657077913843088 0.25896014262095007 0 -0.41657077913843088 0.25896014262095007 0 -0.40853304593740669 0.28609186739171188 0 -0.39899695307798538 0.2656363605085969 0 -0.41657077913843088 0.25896014262095007 0 -0.40853304593740669 0.28609186739171188 0 -0.41657077913843088 0.25896014262095007 0 -0.43419731878332612 0.27055934014754451 0 -0.40853304593740669 0.28609186739171188 0 -0.43419731878332612 0.27055934014754451 0 -0.43483090892463938 0.29131468296546259 0 -0.40853304593740669 0.28609186739171188 0 -0.43934849936692411 0.31245024310626429 0 -0.43483090892463938 0.29131468296546259 0 -0.41976559079851428 0.30478803225123319 0 -0.40049531273638272 0.31322359216247381 0 -0.41976559079851428 0.30478803225123319 0 -0.40853304593740669 0.28609186739171188 0 -0.43483090892463938 0.29131468296546259 0 -0.41976559079851428 0.30478803225123319 0 -0.40853304593740669 0.28609186739171188 0 -0.40049531273638272 0.31322359216247381 0 -0.40853304593740669 0.28609186739171188 0 -0.39366250419531229 0.28822358788024371 0 -0.40049531273638272 0.31322359216247381 0 -0.39366250419531229 0.28822358788024371 0 -0.38368214952068092 0.29945166716893612 0 -0.40049531273638272 0.31322359216247381 0 -0.40853304593740669 0.28609186739171188 0 -0.38357221515642898 0.32256067272598671 0 -0.38368214952068092 0.29945166716893612 0 -0.37106326528725508 0.30967892385001661 0 -0.38357221515642898 0.32256067272598671 0 -0.40049531273638272 0.31322359216247381 0 -0.38368214952068092 0.29945166716893612 0 -0.38368214952068092 0.29945166716893612 0 -0.37386291847186848 0.28488774538191791 0 -0.37106326528725508 0.30967892385001661 0 -0.39366250419531229 0.28822358788024371 0 -0.38368214952068092 0.29945166716893612 0 -0.38388497018915813 0.27681845426843998 0 -0.38368214952068092 0.29945166716893612 0 -0.38388497018915813 0.27681845426843998 0 -0.37386291847186848 0.28488774538191791 0 -0.38368214952068092 0.29945166716893612 0 -0.38388497018915813 0.27681845426843998 0 -0.38388497018915813 0.27681845426843998 0 -0.37666257165648181 0.26009656691381922 0 -0.37386291847186848 0.28488774538191791 0 -0.37666257165648181 0.26009656691381922 0 -0.37386291847186848 0.28488774538191791 0 -0.38388497018915813 0.27681845426843998 0 -0.38408779085763528 0.25418524136794413 0 -0.38388497018915813 0.27681845426843998 0 -0.37666257165648181 0.26009656691381922 0 -0.38408779085763528 0.25418524136794413 0 -0.38388497018915813 0.27681845426843998 0 -0.38408779085763528 0.25418524136794413 0 -0.39899695307798538 0.2656363605085969 0 -0.40543934551940192 0.241352405506014 0 -0.41657077913843088 0.25896014262095007 0 -0.39671598301771022 0.2523864843573409 0 -0.41657077913843088 0.25896014262095007 0 -0.39671598301771022 0.2523864843573409 0 -0.39899695307798538 0.2656363605085969 0 -0.38408779085763528 0.25418524136794413 0 -0.39671598301771022 0.2523864843573409 0 -0.39899695307798538 0.2656363605085969 0 -0.39366250419531229 0.28822358788024371 0 -0.38388497018915813 0.27681845426843998 0 -0.39899695307798538 0.2656363605085969 0 -0.40853304593740669 0.28609186739171188 0 -0.39366250419531229 0.28822358788024371 0 -0.39899695307798538 0.2656363605085969 0 -0.35944912849734462 0.2716797569264357 0 -0.35603065875099588 0.28967074406538329 0 -0.33865680668486381 0.27744172656870503 0 -0.34999157284080368 0.25810312054077111 0 -0.35944912849734462 0.2716797569264357 0 -0.33865680668486381 0.27744172656870503 0 -0.36205814242813272 0.2488345008902679 0 -0.34999157284080368 0.25810312054077111 0 -0.36204035385569061 0.25967848631782348 0 -0.34999157284080368 0.25810312054077111 0 -0.36204035385569061 0.25967848631782348 0 -0.35944912849734462 0.2716797569264357 0 -0.37666257165648181 0.26009656691381922 0 -0.36204035385569061 0.25967848631782348 0 -0.35944912849734462 0.2716797569264357 0 -0.36205814242813272 0.2488345008902679 0 -0.37666257165648181 0.26009656691381922 0 -0.36204035385569061 0.25967848631782348 0 -0.37666257165648181 0.26009656691381922 0 -0.35944912849734462 0.2716797569264357 0 -0.37386291847186848 0.28488774538191791 0 -0.37386291847186848 0.28488774538191791 0 -0.37106326528725508 0.30967892385001661 0 -0.35603065875099588 0.28967074406538329 0 -0.35944912849734462 0.2716797569264357 0 -0.37386291847186848 0.28488774538191791 0 -0.35603065875099588 0.28967074406538329 0 -0.37386291847186848 0.28488774538191791 0 -0.37106326528725508 0.30967892385001661 0 -0.37106326528725508 0.30967892385001661 0 -0.3444889010237962 0.30557585753227179 0 -0.35603065875099588 0.28967074406538329 0 -0.37106326528725508 0.30967892385001661 0 -0.3444889010237962 0.30557585753227179 0 -0.35984828158371451 0.32096609317174418 0 -0.3444889010237962 0.30557585753227179 0 -0.35603065875099588 0.28967074406538329 0 -0.33865680668486381 0.27744172656870503 0 -0.3444889010237962 0.30557585753227179 0 -0.33865680668486381 0.27744172656870503 0 -0.3444889010237962 0.30557585753227179 0 -0.31927805592336062 0.29211953465998758 0 -0.33865680668486381 0.27744172656870503 0 -0.31927805592336062 0.29211953465998758 0 -0.30031248746027639 0.30186540590040051 0 -0.32032519049196151 0.31359204672195468 0 -0.3444889010237962 0.30557585753227179 0 -0.31927805592336062 0.29211953465998758 0 -0.32032519049196151 0.31359204672195468 0 -0.31927805592336062 0.29211953465998758 0 -0.31495662050993478 0.27029557581977648 0 -0.33865680668486381 0.27744172656870503 0 -0.3328247123459312 0.24930759560513821 0 -0.31495662050993478 0.27029557581977648 0 -0.33865680668486381 0.27744172656870503 0 -0.3328247123459312 0.24930759560513821 0 -0.33865680668486381 0.27744172656870503 0 -0.3328247123459312 0.24930759560513821 0 -0.34999157284080368 0.25810312054077111 0 -0.33865680668486381 0.27744172656870503 0 -0.3328247123459312 0.24930759560513821 0 -0.31110064463521619 0.2477379589431575 0 -0.31495662050993478 0.27029557581977648 0 -0.31110064463521619 0.2477379589431575 0 -0.31495662050993478 0.27029557581977648 0 -0.29405025505885363 0.2665194007526584 0 -0.28829658598005847 0.24604816411315039 0 -0.31110064463521619 0.2477379589431575 0 -0.29405025505885363 0.2665194007526584 0 -0.31495662050993478 0.27029557581977648 0 -0.29405025505885363 0.2665194007526584 0 -0.29952088803173837 0.28419363129162373 0 -0.29405025505885363 0.2665194007526584 0 -0.28175055883096412 0.27984852511200758 0 -0.2721765985049488 0.26097555064868161 0 -0.29405025505885363 0.2665194007526584 0 -0.28175055883096412 0.27984852511200758 0 -0.29952088803173837 0.28419363129162373 0 -0.28829658598005847 0.24604816411315039 0 -0.29405025505885363 0.2665194007526584 0 -0.2721765985049488 0.26097555064868161 0 -0.28175055883096412 0.27984852511200758 0 -0.2721765985049488 0.26097555064868161 0 -0.26873831275601201 0.27890740633074501 0 -0.25522404109648089 0.2674044268366268 0 -0.26068388373972601 0.2942478567628139 0 -0.24033881776653979 0.27704225328469761 0 -0.2721765985049488 0.26097555064868161 0 -0.26873831275601201 0.27890740633074501 0 -0.25522404109648089 0.2674044268366268 0 -0.25522404109648089 0.2674044268366268 0 -0.26068388373972601 0.2942478567628139 0 -0.26873831275601201 0.27890740633074501 0 -0.25522404109648089 0.2674044268366268 0 -0.26068388373972601 0.2942478567628139 0 -0.25177043790547998 0.24599012604316309 0 -0.2721765985049488 0.26097555064868161 0 -0.25522404109648089 0.2674044268366268 0 -0.26068388373972601 0.2942478567628139 0 -0.26614372638297101 0.32109128668900111 0 -0.25207190056089518 0.30376089832601799 0 -0.26068388373972601 0.2942478567628139 0 -0.26614372638297101 0.32109128668900111 0 -0.26068388373972601 0.2942478567628139 0 -0.26965222856760868 0.30411659005525238 0 -0.26614372638297101 0.32109128668900111 0 -0.25207190056089518 0.30376089832601799 0 -0.26068388373972601 0.2942478567628139 0 -0.24033881776653979 0.27704225328469761 0 -0.26068388373972601 0.2942478567628139 0 -0.27385648160794018 0.29206067229359473 0 -0.26965222856760868 0.30411659005525238 0 -0.26873831275601201 0.27890740633074501 0 -0.26068388373972601 0.2942478567628139 0 -0.27385648160794018 0.29206067229359473 0 -0.28175055883096412 0.27984852511200758 0 -0.27385648160794018 0.29206067229359473 0 -0.28704449973560031 0.2950105002036037 0 -0.28175055883096412 0.27984852511200758 0 -0.26873831275601201 0.27890740633074501 0 -0.27385648160794018 0.29206067229359473 0 -0.26965222856760868 0.30411659005525238 0 -0.27308304489420931 0.31173329000978472 0 -0.26614372638297101 0.32109128668900111 0 -0.27385648160794018 0.29206067229359473 0 -0.27837076862552212 0.30462738718743071 0 -0.26965222856760868 0.30411659005525238 0 -0.27385648160794018 0.29206067229359473 0 -0.27837076862552212 0.30462738718743071 0 -0.28704449973560031 0.2950105002036037 0 -0.27837076862552212 0.30462738718743071 0 -0.26965222856760868 0.30411659005525238 0 -0.27308304489420931 0.31173329000978472 0 -0.27837076862552212 0.30462738718743071 0 -0.27308304489420931 0.31173329000978472 0 -0.28010383720689802 0.3186866674406364 0 -0.27837076862552212 0.30462738718743071 0 -0.2899945939896601 0.31033099050102791 0 -0.28010383720689802 0.3186866674406364 0 -0.27837076862552212 0.30462738718743071 0 -0.2899945939896601 0.31033099050102791 0 -0.28704449973560031 0.2950105002036037 0 -0.2899945939896601 0.31033099050102791 0 -0.28704449973560031 0.2950105002036037 0 -0.30031248746027639 0.30186540590040051 0 -0.28175055883096412 0.27984852511200758 0 -0.28704449973560031 0.2950105002036037 0 -0.29952088803173837 0.28419363129162373 0 -0.28704449973560031 0.2950105002036037 0 -0.29952088803173837 0.28419363129162373 0 -0.30031248746027639 0.30186540590040051 0 -0.31927805592336062 0.29211953465998758 0 -0.29952088803173837 0.28419363129162373 0 -0.30031248746027639 0.30186540590040051 0 -0.31927805592336062 0.29211953465998758 0 -0.31495662050993478 0.27029557581977648 0 -0.29952088803173837 0.28419363129162373 0 -0.30031248746027639 0.30186540590040051 0 -0.30253535721836972 0.32179561683001179 0 -0.32032519049196151 0.31359204672195468 0 -0.2899945939896601 0.31033099050102791 0 -0.30031248746027639 0.30186540590040051 0 -0.30253535721836972 0.32179561683001179 0 -0.30253535721836972 0.32179561683001179 0 -0.31100031296254538 0.33717232273781111 0 -0.32120543753280562 0.32791929254302621 0 -0.30253535721836972 0.32179561683001179 0 -0.31100031296254538 0.33717232273781111 0 -0.29778225314234069 0.3387196349169872 0 -0.31100031296254538 0.33717232273781111 0 -0.29778225314234069 0.3387196349169872 0 -0.30662265268206501 0.34860238554506739 0 -0.30253535721836972 0.32179561683001179 0 -0.29778225314234069 0.3387196349169872 0 -0.28760542149401003 0.33070303632350972 0 -0.29778225314234069 0.3387196349169872 0 -0.28760542149401003 0.33070303632350972 0 -0.28419064727341042 0.34152311730530488 0 -0.28760542149401003 0.33070303632350972 0 -0.28419064727341042 0.34152311730530488 0 -0.27727565997609388 0.33179156433297502 0 -0.2899945939896601 0.31033099050102791 0 -0.30253535721836972 0.32179561683001179 0 -0.29016305467609121 0.32053111206948087 0 -0.30253535721836972 0.32179561683001179 0 -0.28760542149401003 0.33070303632350972 0 -0.29016305467609121 0.32053111206948087 0 -0.28760542149401003 0.33070303632350972 0 -0.29016305467609121 0.32053111206948087 0 -0.28010383720689802 0.3186866674406364 0 -0.28760542149401003 0.33070303632350972 0 -0.28010383720689802 0.3186866674406364 0 -0.27727565997609388 0.33179156433297502 0 -0.2899945939896601 0.31033099050102791 0 -0.29016305467609121 0.32053111206948087 0 -0.28010383720689802 0.3186866674406364 0 -0.27308304489420931 0.31173329000978472 0 -0.28010383720689802 0.3186866674406364 0 -0.26614372638297101 0.32109128668900111 0 -0.28010383720689802 0.3186866674406364 0 -0.26614372638297101 0.32109128668900111 0 -0.27727565997609388 0.33179156433297502 0 -0.26614372638297101 0.32109128668900111 0 -0.26380498335525071 0.33047954336733848 0 -0.27149172301994451 0.34798383207182071 0 -0.28419064727341042 0.34152311730530488 0 -0.27727565997609388 0.33179156433297502 0 -0.27149172301994451 0.34798383207182071 0 -0.26380498335525071 0.33047954336733848 0 -0.27149172301994451 0.34798383207182071 0 -0.26614372638297101 0.32109128668900111 0 -0.27727565997609388 0.33179156433297502 0 -0.27149172301994451 0.34798383207182071 0 -0.26614372638297101 0.32109128668900111 0 -0.27149172301994451 0.34798383207182071 0 -0.26380498335525071 0.33047954336733848 0 -0.25385547873427328 0.34079321197431628 0 -0.26148861200731571 0.34883103937820742 0 -0.26380498335525071 0.33047954336733848 0 -0.26148861200731571 0.34883103937820742 0 -0.27149172301994451 0.34798383207182071 0 -0.26380498335525071 0.33047954336733848 0 -0.25385547873427328 0.34079321197431628 0 -0.25278242527253569 0.33108214078453929 0 -0.25207190056089518 0.30376089832601799 0 -0.26380498335525071 0.33047954336733848 0 -0.25207190056089518 0.30376089832601799 0 -0.26614372638297101 0.32109128668900111 0 -0.26380498335525071 0.33047954336733848 0 -0.25207190056089518 0.30376089832601799 0 -0.26380498335525071 0.33047954336733848 0 -0.25050765906856298 0.32044767092370591 0 -0.26380498335525071 0.33047954336733848 0 -0.25278242527253569 0.33108214078453929 0 -0.25050765906856298 0.32044767092370591 0 -0.25991757857111031 0.36409397333669369 0 -0.25387561127537051 0.38040348395526619 0 -0.24701328765104449 0.36866684718732318 0 -0.25991757857111031 0.36409397333669369 0 -0.26817624619023561 0.37569627059022798 0 -0.25387561127537051 0.38040348395526619 0 -0.25991757857111031 0.36409397333669369 0 -0.2476437652915798 0.35795818431482368 0 -0.24701328765104449 0.36866684718732318 0 -0.25991757857111031 0.36409397333669369 0 -0.25432695322633803 0.3515902798040294 0 -0.2476437652915798 0.35795818431482368 0 -0.25385547873427328 0.34079321197431628 0 -0.25432695322633803 0.3515902798040294 0 -0.26148861200731571 0.34883103937820742 0 -0.25991757857111031 0.36409397333669369 0 -0.25432695322633803 0.3515902798040294 0 -0.26148861200731571 0.34883103937820742 0 -0.25991757857111031 0.36409397333669369 0 -0.26148861200731571 0.34883103937820742 0 -0.27553806614960619 0.35719818840865902 0 -0.26148861200731571 0.34883103937820742 0 -0.27149172301994451 0.34798383207182071 0 -0.27553806614960619 0.35719818840865902 0 -0.28419064727341042 0.34152311730530488 0 -0.27149172301994451 0.34798383207182071 0 -0.28393318322282263 0.35071360019992409 0 -0.27149172301994451 0.34798383207182071 0 -0.27553806614960619 0.35719818840865902 0 -0.28393318322282263 0.35071360019992409 0 -0.27149172301994451 0.34798383207182071 0 -0.27553806614960619 0.35719818840865902 0 -0.27553806614960619 0.35719818840865902 0 -0.28727114894396172 0.3839168334499794 0 -0.26817624619023561 0.37569627059022798 0 -0.25991757857111031 0.36409397333669369 0 -0.27553806614960619 0.35719818840865902 0 -0.26817624619023561 0.37569627059022798 0 -0.27553806614960619 0.35719818840865902 0 -0.29014200462500178 0.36672061713596449 0 -0.28727114894396172 0.3839168334499794 0 -0.27553806614960619 0.35719818840865902 0 -0.28727114894396172 0.3839168334499794 0 -0.29014200462500178 0.36672061713596449 0 -0.30898289073664181 0.37072040498276571 0 -0.28727114894396172 0.3839168334499794 0 -0.27553806614960619 0.35719818840865902 0 -0.29014200462500178 0.36672061713596449 0 -0.28393318322282263 0.35071360019992409 0 -0.29014200462500178 0.36672061713596449 0 -0.28393318322282263 0.35071360019992409 0 -0.29473912722364459 0.35252133076021869 0 -0.28419064727341042 0.34152311730530488 0 -0.28393318322282263 0.35071360019992409 0 -0.29473912722364459 0.35252133076021869 0 -0.29778225314234069 0.3387196349169872 0 -0.28419064727341042 0.34152311730530488 0 -0.29473912722364459 0.35252133076021869 0 -0.30662265268206501 0.34860238554506739 0 -0.30898289073664181 0.37072040498276571 0 -0.3184378989006611 0.35156348934713799 0 -0.29473912722364459 0.35252133076021869 0 -0.30662265268206501 0.34860238554506739 0 -0.30898289073664181 0.37072040498276571 0 -0.29778225314234069 0.3387196349169872 0 -0.29473912722364459 0.35252133076021869 0 -0.30662265268206501 0.34860238554506739 0 -0.31100031296254538 0.33717232273781111 0 -0.30662265268206501 0.34860238554506739 0 -0.3184378989006611 0.35156348934713799 0 -0.29014200462500178 0.36672061713596449 0 -0.29473912722364459 0.35252133076021869 0 -0.30898289073664181 0.37072040498276571 0 -0.30898289073664181 0.37072040498276571 0 -0.33237240987409938 0.36079690507190743 0 -0.33683030400294628 0.38190476580143801 0 -0.30898289073664181 0.37072040498276571 0 -0.33237240987409938 0.36079690507190743 0 -0.3184378989006611 0.35156348934713799 0 -0.33237240987409938 0.36079690507190743 0 -0.34656629339330869 0.36744747210692902 0 -0.33683030400294628 0.38190476580143801 0 -0.33237240987409938 0.36079690507190743 0 -0.33069019922110171 0.34019213503584222 0 -0.34441276247547081 0.34878367967052581 0 -0.33237240987409938 0.36079690507190743 0 -0.34656629339330869 0.36744747210692902 0 -0.34441276247547081 0.34878367967052581 0 -0.33237240987409938 0.36079690507190743 0 -0.3184378989006611 0.35156348934713799 0 -0.33069019922110171 0.34019213503584222 0 -0.31100031296254538 0.33717232273781111 0 -0.3184378989006611 0.35156348934713799 0 -0.33069019922110171 0.34019213503584222 0 -0.31100031296254538 0.33717232273781111 0 -0.32120543753280562 0.32791929254302621 0 -0.33069019922110171 0.34019213503584222 0 -0.30253535721836972 0.32179561683001179 0 -0.32120543753280562 0.32791929254302621 0 -0.32032519049196151 0.31359204672195468 0 -0.32120543753280562 0.32791929254302621 0 -0.32032519049196151 0.31359204672195468 0 -0.33358708605032561 0.32425720212237241 0 -0.3444889010237962 0.30557585753227179 0 -0.33358708605032561 0.32425720212237241 0 -0.3503209953627287 0.33370998849583827 0 -0.3444889010237962 0.30557585753227179 0 -0.32032519049196151 0.31359204672195468 0 -0.33358708605032561 0.32425720212237241 0 -0.33358708605032561 0.32425720212237241 0 -0.33069019922110171 0.34019213503584222 0 -0.3503209953627287 0.33370998849583827 0 -0.32120543753280562 0.32791929254302621 0 -0.33358708605032561 0.32425720212237241 0 -0.33069019922110171 0.34019213503584222 0 -0.33069019922110171 0.34019213503584222 0 -0.3503209953627287 0.33370998849583827 0 -0.34441276247547081 0.34878367967052581 0 -0.3503209953627287 0.33370998849583827 0 -0.36826361210264191 0.33447010231811508 0 -0.35831856272728763 0.35707536833065351 0 -0.3444889010237962 0.30557585753227179 0 -0.3503209953627287 0.33370998849583827 0 -0.3444889010237962 0.30557585753227179 0 -0.3503209953627287 0.33370998849583827 0 -0.35984828158371451 0.32096609317174418 0 -0.38357221515642898 0.32256067272598671 0 -0.37106326528725508 0.30967892385001661 0 -0.36826361210264191 0.33447010231811508 0 -0.37106326528725508 0.30967892385001661 0 -0.35984828158371451 0.32096609317174418 0 -0.36826361210264191 0.33447010231811508 0 -0.37106326528725508 0.30967892385001661 0 -0.36826361210264191 0.33447010231811508 0 -0.3503209953627287 0.33370998849583827 0 -0.35984828158371451 0.32096609317174418 0 -0.36826361210264191 0.33447010231811508 0 -0.37586490017490559 0.3498469573215004 0 -0.36826361210264191 0.33447010231811508 0 -0.35831856272728763 0.35707536833065351 0 -0.38441984633433451 0.36748704170399737 0 -0.37586490017490559 0.3498469573215004 0 -0.35831856272728763 0.35707536833065351 0 -0.38441984633433451 0.36748704170399737 0 -0.35831856272728763 0.35707536833065351 0 -0.35721105160818001 0.38174671765931623 0 -0.34656629339330869 0.36744747210692902 0 -0.35831856272728763 0.35707536833065351 0 -0.35721105160818001 0.38174671765931623 0 -0.3503209953627287 0.33370998849583827 0 -0.35831856272728763 0.35707536833065351 0 -0.34441276247547081 0.34878367967052581 0 -0.34656629339330869 0.36744747210692902 0 -0.35831856272728763 0.35707536833065351 0 -0.34441276247547081 0.34878367967052581 0 -0.35015698025508513 0.40000457368939268 0 -0.35721105160818001 0.38174671765931623 0 -0.36403652928337837 0.39767970252887153 0 -0.35015698025508513 0.40000457368939268 0 -0.36403652928337837 0.39767970252887153 0 -0.35972798455479033 0.40885251044328819 0 -0.34656629339330869 0.36744747210692902 0 -0.35721105160818001 0.38174671765931623 0 -0.33683030400294628 0.38190476580143801 0 -0.35015698025508513 0.40000457368939268 0 -0.35721105160818001 0.38174671765931623 0 -0.33683030400294628 0.38190476580143801 0 -0.3763821131333096 0.39461876647475891 0 -0.38441984633433451 0.36748704170399737 0 -0.35721105160818001 0.38174671765931623 0 -0.3763821131333096 0.39461876647475891 0 -0.35721105160818001 0.38174671765931623 0 -0.3763821131333096 0.39461876647475891 0 -0.35721105160818001 0.38174671765931623 0 -0.36403652928337837 0.39767970252887153 0 -0.36403652928337837 0.39767970252887153 0 -0.37327099691651738 0.40512047719503108 0 -0.35972798455479033 0.40885251044328819 0 -0.3763821131333096 0.39461876647475891 0 -0.36403652928337837 0.39767970252887153 0 -0.37327099691651738 0.40512047719503108 0 -0.3763821131333096 0.39461876647475891 0 -0.37327099691651738 0.40512047719503108 0 -0.38182929675161897 0.41673275701078089 0 -0.36821055110730377 0.41584688824341393 0 -0.37328688082870892 0.43209049225339369 0 -0.37327099691651738 0.40512047719503108 0 -0.36821055110730377 0.41584688824341393 0 -0.35972798455479033 0.40885251044328819 0 -0.36821055110730377 0.41584688824341393 0 -0.37328688082870892 0.43209049225339369 0 -0.34296486521166658 0.42561091055973183 0 -0.37328688082870892 0.43209049225339369 0 -0.34296486521166658 0.42561091055973183 0 -0.35439893499514058 0.44810308904666779 0 -0.35015698025508513 0.40000457368939268 0 -0.35972798455479033 0.40885251044328819 0 -0.34296486521166658 0.42561091055973183 0 -0.36821055110730377 0.41584688824341393 0 -0.34296486521166658 0.42561091055973183 0 -0.36821055110730377 0.41584688824341393 0 -0.35972798455479033 0.40885251044328819 0 -0.34296486521166658 0.42561091055973183 0 -0.33620602812038441 0.40896588492529917 0 -0.34296486521166658 0.42561091055973183 0 -0.32128386010410659 0.42033559253271913 0 -0.35015698025508513 0.40000457368939268 0 -0.33620602812038441 0.40896588492529917 0 -0.34296486521166658 0.42561091055973183 0 -0.34296486521166658 0.42561091055973183 0 -0.32128386010410659 0.42033559253271913 0 -0.32807105532146019 0.43963192058069411 0 -0.32128386010410659 0.42033559253271913 0 -0.30669131377808367 0.43563878320443172 0 -0.32807105532146019 0.43963192058069411 0 -0.33620602812038441 0.40896588492529917 0 -0.32128386010410659 0.42033559253271913 0 -0.32293481999810503 0.39568230986459968 0 -0.32128386010410659 0.42033559253271913 0 -0.32293481999810503 0.39568230986459968 0 -0.30034758169074061 0.4099344509774861 0 -0.35015698025508513 0.40000457368939268 0 -0.33620602812038441 0.40896588492529917 0 -0.33683030400294628 0.38190476580143801 0 -0.33620602812038441 0.40896588492529917 0 -0.32293481999810503 0.39568230986459968 0 -0.33683030400294628 0.38190476580143801 0 -0.30898289073664181 0.37072040498276571 0 -0.32293481999810503 0.39568230986459968 0 -0.33683030400294628 0.38190476580143801 0 -0.30898289073664181 0.37072040498276571 0 -0.32293481999810503 0.39568230986459968 0 -0.30514187598022741 0.39002256217209169 0 -0.30898289073664181 0.37072040498276571 0 -0.30514187598022741 0.39002256217209169 0 -0.28727114894396172 0.3839168334499794 0 -0.30514187598022741 0.39002256217209169 0 -0.28727114894396172 0.3839168334499794 0 -0.30034758169074061 0.4099344509774861 0 -0.32293481999810503 0.39568230986459968 0 -0.30514187598022741 0.39002256217209169 0 -0.30034758169074061 0.4099344509774861 0 -0.28727114894396172 0.3839168334499794 0 -0.27507485416392952 0.41165184954922901 0 -0.30034758169074061 0.4099344509774861 0 -0.28727114894396172 0.3839168334499794 0 -0.26817624619023561 0.37569627059022798 0 -0.26427882601112912 0.39286887380054158 0 -0.28727114894396172 0.3839168334499794 0 -0.26427882601112912 0.39286887380054158 0 -0.27507485416392952 0.41165184954922901 0 -0.26427882601112912 0.39286887380054158 0 -0.25100652733015583 0.40949614917766919 0 -0.24591914643091811 0.39479546152300521 0 -0.26427882601112912 0.39286887380054158 0 -0.25100652733015583 0.40949614917766919 0 -0.27507485416392952 0.41165184954922901 0 -0.26817624619023561 0.37569627059022798 0 -0.26427882601112912 0.39286887380054158 0 -0.25387561127537051 0.38040348395526619 0 -0.26427882601112912 0.39286887380054158 0 -0.25387561127537051 0.38040348395526619 0 -0.24591914643091811 0.39479546152300521 0 -0.25100652733015583 0.40949614917766919 0 -0.27507485416392952 0.41165184954922901 0 -0.26098937332124522 0.43347689389149152 0 -0.25100652733015583 0.40949614917766919 0 -0.27507485416392952 0.41165184954922901 0 -0.26098937332124522 0.43347689389149152 0 -0.27507485416392952 0.41165184954922901 0 -0.2840655008446854 0.43268751503577518 0 -0.27507485416392952 0.41165184954922901 0 -0.2840655008446854 0.43268751503577518 0 -0.30034758169074061 0.4099344509774861 0 -0.2840655008446854 0.43268751503577518 0 -0.30034758169074061 0.4099344509774861 0 -0.30669131377808367 0.43563878320443172 0 -0.32128386010410659 0.42033559253271913 0 -0.30034758169074061 0.4099344509774861 0 -0.30669131377808367 0.43563878320443172 0 -0.25853155916051962 0.50000000000000122 0 -0.28086229287303011 0.4874658416471514 0 -0.34076390283461311 0.5 0 -0.30669131377808367 0.43563878320443172 0 -0.29687297840686838 0.45095464489107112 0 -0.31444801164298941 0.45453959109609221 0 -0.29687297840686838 0.45095464489107112 0 -0.30319302658553998 0.47493168329430069 0 -0.31444801164298941 0.45453959109609221 0 -0.29687297840686838 0.45095464489107112 0 -0.27596703918304388 0.45697565182475552 0 -0.30319302658553998 0.47493168329430069 0 -0.2840655008446854 0.43268751503577518 0 -0.30669131377808367 0.43563878320443172 0 -0.29687297840686838 0.45095464489107112 0 -0.2840655008446854 0.43268751503577518 0 -0.29687297840686838 0.45095464489107112 0 -0.27596703918304388 0.45697565182475552 0 -0.26098937332124522 0.43347689389149152 0 -0.2840655008446854 0.43268751503577518 0 -0.27596703918304388 0.45697565182475552 0 -0.27596703918304388 0.45697565182475552 0 -0.25301423857352118 0.47861401590675451 0 -0.24192065739374419 0.45303447804249419 0 -0.26098937332124522 0.43347689389149152 0 -0.27596703918304388 0.45697565182475552 0 -0.24192065739374419 0.45303447804249419 0 -0.25853155916051962 0.50000000000000122 0 -0.25301423857352118 0.47861401590675451 0 -0.28086229287303011 0.4874658416471514 0 -0.27596703918304388 0.45697565182475552 0 -0.25301423857352118 0.47861401590675451 0 -0.28086229287303011 0.4874658416471514 0 -0.25853155916051962 0.50000000000000122 0 -0.28086229287303011 0.4874658416471514 0 -0.28086229287303011 0.4874658416471514 0 -0.30319302658553998 0.47493168329430069 0 -0.34076390283461311 0.5 0 -0.28086229287303011 0.4874658416471514 0 -0.30319302658553998 0.47493168329430069 0 -0.27596703918304388 0.45697565182475552 0 -0.28086229287303011 0.4874658416471514 0 -0.30319302658553998 0.47493168329430069 0 -0.30319302658553998 0.47493168329430069 0 -0.34076390283461311 0.5 0 -0.33429952989801132 0.46581851141446351 0 -0.40734512917919952 0.5 0 -0.34076390283461311 0.5 0 -0.36896870429677547 0.47227760581199041 0 -0.31444801164298941 0.45453959109609221 0 -0.32807105532146019 0.43963192058069411 0 -0.33429952989801132 0.46581851141446351 0 -0.30319302658553998 0.47493168329430069 0 -0.31444801164298941 0.45453959109609221 0 -0.33429952989801132 0.46581851141446351 0 -0.30669131377808367 0.43563878320443172 0 -0.31444801164298941 0.45453959109609221 0 -0.32807105532146019 0.43963192058069411 0 -0.34296486521166658 0.42561091055973183 0 -0.32807105532146019 0.43963192058069411 0 -0.35439893499514058 0.44810308904666779 0 -0.32807105532146019 0.43963192058069411 0 -0.33429952989801132 0.46581851141446351 0 -0.35439893499514058 0.44810308904666779 0 -0.33429952989801132 0.46581851141446351 0 -0.35439893499514058 0.44810308904666779 0 -0.36896870429677547 0.47227760581199041 0 -0.37880257441422138 0.45318909365973292 0 -0.37328688082870892 0.43209049225339369 0 -0.35439893499514058 0.44810308904666779 0 -0.37880257441422138 0.45318909365973292 0 -0.35439893499514058 0.44810308904666779 0 -0.36896870429677547 0.47227760581199041 0 -0.34076390283461311 0.5 0 -0.33429952989801132 0.46581851141446351 0 -0.36896870429677547 0.47227760581199041 0 -0.14534853147378149 0.48413553742888099 0 -0.15549260750231261 0.47048419114956858 0 -0.13834593031188289 0.46825269170173978 0 -0.14534853147378149 0.48413553742888099 0 -0.15549260750231261 0.47048419114956858 0 -0.1629669217300716 0.48331904803477838 0 -0.14534853147378149 0.48413553742888099 0 -0.1629669217300716 0.48331904803477838 0 -0.15840308220211341 0.5 0 -0.14534853147378149 0.48413553742888099 0 -0.13480283873162399 0.5 0 -0.15840308220211341 0.5 0 -0.14534853147378149 0.48413553742888099 0 -0.13480283873162399 0.5 0 -0.1211414063130591 0.47997814940774242 0 -0.14534853147378149 0.48413553742888099 0 -0.13834593031188289 0.46825269170173978 0 -0.1211414063130591 0.47997814940774242 0 -0.13834593031188289 0.46825269170173978 0 -0.1233130978899409 0.45773094234799888 0 -0.1211414063130591 0.47997814940774242 0 -0.14393533763848579 0.44907225994958488 0 -0.1233130978899409 0.45773094234799888 0 -0.13844089948437269 0.45869111799745538 0 -0.14393533763848579 0.44907225994958488 0 -0.1233130978899409 0.45773094234799888 0 -0.13844089948437269 0.45869111799745538 0 -0.13834593031188289 0.46825269170173978 0 -0.1233130978899409 0.45773094234799888 0 -0.1255554655362647 0.43775938910818479 0 -0.14929515504073149 0.44682182754430683 0 -0.12835752724613081 0.44779950626399551 0 -0.14393533763848579 0.44907225994958488 0 -0.1233130978899409 0.45773094234799888 0 -0.1255554655362647 0.43775938910818479 0 -0.12835752724613081 0.44779950626399551 0 -0.14393533763848579 0.44907225994958488 0 -0.1255554655362647 0.43775938910818479 0 -0.14929515504073149 0.44682182754430683 0 -0.1399960452010009 0.43521495597161669 0 -0.1255554655362647 0.43775938910818479 0 -0.14393533763848579 0.44907225994958488 0 -0.14929515504073149 0.44682182754430683 0 -0.14929515504073149 0.44682182754430683 0 -0.1645575773870305 0.44041357755117061 0 -0.14877420013327619 0.43638059937983947 0 -0.14929515504073149 0.44682182754430683 0 -0.14877420013327619 0.43638059937983947 0 -0.1399960452010009 0.43521495597161669 0 -0.14393533763848579 0.44907225994958488 0 -0.14929515504073149 0.44682182754430683 0 -0.1540856508072416 0.45159335996340749 0 -0.14929515504073149 0.44682182754430683 0 -0.1645575773870305 0.44041357755117061 0 -0.14393533763848579 0.44907225994958488 0 -0.1540856508072416 0.45159335996340749 0 -0.14929515504073149 0.44682182754430683 0 -0.15549260750231261 0.47048419114956858 0 -0.13834593031188289 0.46825269170173978 0 -0.14816923209718111 0.45970857799049819 0 -0.13844089948437269 0.45869111799745538 0 -0.13834593031188289 0.46825269170173978 0 -0.14816923209718111 0.45970857799049819 0 -0.13844089948437269 0.45869111799745538 0 -0.14393533763848579 0.44907225994958488 0 -0.14816923209718111 0.45970857799049819 0 -0.1540856508072416 0.45159335996340749 0 -0.14816923209718111 0.45970857799049819 0 -0.1596804561062691 0.45717902436237601 0 -0.14393533763848579 0.44907225994958488 0 -0.1540856508072416 0.45159335996340749 0 -0.14816923209718111 0.45970857799049819 0 -0.15549260750231261 0.47048419114956858 0 -0.14816923209718111 0.45970857799049819 0 -0.1596804561062691 0.45717902436237601 0 -0.15549260750231261 0.47048419114956858 0 -0.1596804561062691 0.45717902436237601 0 -0.16858718253912369 0.46539927861345642 0 -0.1596804561062691 0.45717902436237601 0 -0.16808068211240179 0.45526051709981957 0 -0.16858718253912369 0.46539927861345642 0 -0.16808068211240179 0.45526051709981957 0 -0.1645575773870305 0.44041357755117061 0 -0.17949751241718381 0.45805018787227503 0 -0.1540856508072416 0.45159335996340749 0 -0.1596804561062691 0.45717902436237601 0 -0.1645575773870305 0.44041357755117061 0 -0.1596804561062691 0.45717902436237601 0 -0.16808068211240179 0.45526051709981957 0 -0.1645575773870305 0.44041357755117061 0 -0.14929515504073149 0.44682182754430683 0 -0.1645575773870305 0.44041357755117061 0 -0.1645575773870305 0.44041357755117061 0 -0.18293754862266709 0.43959538003808862 0 -0.179822845836209 0.43400413256170062 0 -0.18293754862266709 0.43959538003808862 0 -0.18570016520381141 0.4599581700344772 0 -0.1645575773870305 0.44041357755117061 0 -0.17949751241718381 0.45805018787227503 0 -0.18293754862266709 0.43959538003808862 0 -0.17949751241718381 0.45805018787227503 0 -0.18570016520381141 0.4599581700344772 0 -0.1645575773870305 0.44041357755117061 0 -0.18293754862266709 0.43959538003808862 0 -0.17949751241718381 0.45805018787227503 0 -0.18293754862266709 0.43959538003808862 0 -0.18570016520381141 0.4599581700344772 0 -0.19307040701090489 0.45778501891411638 0 -0.18293754862266709 0.43959538003808862 0 -0.19106156797600171 0.44450991170092408 0 -0.18695523895503549 0.43672524695162862 0 -0.17949751241718381 0.45805018787227503 0 -0.1944374474473364 0.47568679819338 0 -0.16858718253912369 0.46539927861345642 0 -0.17710025932490669 0.46855698665676832 0 -0.17949751241718381 0.45805018787227503 0 -0.16808068211240179 0.45526051709981957 0 -0.16858718253912369 0.46539927861345642 0 -0.17949751241718381 0.45805018787227503 0 -0.17949751241718381 0.45805018787227503 0 -0.18570016520381141 0.4599581700344772 0 -0.19157879934889521 0.46650475341587538 0 -0.17710025932490669 0.46855698665676832 0 -0.17949751241718381 0.45805018787227503 0 -0.18309388794977019 0.47338070092167961 0 -0.17949751241718381 0.45805018787227503 0 -0.18309388794977019 0.47338070092167961 0 -0.1944374474473364 0.47568679819338 0 -0.18309388794977019 0.47338070092167961 0 -0.17546308918634129 0.47661383792485867 0 -0.1854524009586678 0.48642781137150892 0 -0.17546308918634129 0.47661383792485867 0 -0.17400393805844719 0.48809560387882578 0 -0.1854524009586678 0.48642781137150892 0 -0.16858718253912369 0.46539927861345642 0 -0.17710025932490669 0.46855698665676832 0 -0.17546308918634129 0.47661383792485867 0 -0.17710025932490669 0.46855698665676832 0 -0.18309388794977019 0.47338070092167961 0 -0.17546308918634129 0.47661383792485867 0 -0.16858718253912369 0.46539927861345642 0 -0.17546308918634129 0.47661383792485867 0 -0.16578558077359901 0.47413571797485049 0 -0.17546308918634129 0.47661383792485867 0 -0.16578558077359901 0.47413571797485049 0 -0.1629669217300716 0.48331904803477838 0 -0.17546308918634129 0.47661383792485867 0 -0.1629669217300716 0.48331904803477838 0 -0.17400393805844719 0.48809560387882578 0 -0.15549260750231261 0.47048419114956858 0 -0.16578558077359901 0.47413571797485049 0 -0.1629669217300716 0.48331904803477838 0 -0.15549260750231261 0.47048419114956858 0 -0.16858718253912369 0.46539927861345642 0 -0.16578558077359901 0.47413571797485049 0 -0.1629669217300716 0.48331904803477838 0 -0.15840308220211341 0.5 0 -0.17400393805844719 0.48809560387882578 0 -0.15840308220211341 0.5 0 -0.17400393805844719 0.48809560387882578 0 -0.18200332567260291 0.5 0 -0.17400393805844719 0.48809560387882578 0 -0.1854524009586678 0.48642781137150892 0 -0.18200332567260291 0.5 0 -0.1854524009586678 0.48642781137150892 0 -0.18200332567260291 0.5 0 -0.20560356914309241 0.49999999999999989 0 -0.1854524009586678 0.48642781137150892 0 -0.1944374474473364 0.47568679819338 0 -0.20560356914309241 0.49999999999999989 0 -0.1944374474473364 0.47568679819338 0 -0.2027666415454881 0.47558432790529442 0 -0.20560356914309241 0.49999999999999989 0 -0.18309388794977019 0.47338070092167961 0 -0.1854524009586678 0.48642781137150892 0 -0.1944374474473364 0.47568679819338 0 -0.1944374474473364 0.47568679819338 0 -0.2027666415454881 0.47558432790529442 0 -0.19157879934889521 0.46650475341587538 0 -0.2027666415454881 0.47558432790529442 0 -0.20560356914309241 0.49999999999999989 0 -0.22873631867898331 0.47420812392612621 0 -0.2027666415454881 0.47558432790529442 0 -0.22873631867898331 0.47420812392612621 0 -0.21753922839953591 0.45992225299809758 0 -0.2027666415454881 0.47558432790529442 0 -0.20560356914309241 0.49999999999999989 0 -0.20560356914309241 0.49999999999999989 0 -0.23206756415180599 0.5 0 -0.22873631867898331 0.47420812392612621 0 -0.25301423857352118 0.47861401590675451 0 -0.23206756415180599 0.5 0 -0.22873631867898331 0.47420812392612621 0 -0.25853155916051962 0.50000000000000122 0 -0.25301423857352118 0.47861401590675451 0 -0.23206756415180599 0.5 0 -0.26098937332124522 0.43347689389149152 0 -0.24192065739374419 0.45303447804249419 0 -0.23370461282742969 0.42873443892759039 0 -0.25301423857352118 0.47861401590675451 0 -0.22873631867898331 0.47420812392612621 0 -0.24192065739374419 0.45303447804249419 0 -0.22873631867898331 0.47420812392612621 0 -0.24192065739374419 0.45303447804249419 0 -0.21753922839953591 0.45992225299809758 0 -0.24192065739374419 0.45303447804249419 0 -0.21996751977140089 0.4418162203924747 0 -0.21753922839953591 0.45992225299809758 0 -0.24192065739374419 0.45303447804249419 0 -0.21996751977140089 0.4418162203924747 0 -0.23370461282742969 0.42873443892759039 0 -0.21996751977140089 0.4418162203924747 0 -0.19992971394788389 0.45116865581058879 0 -0.20872809443670731 0.4267310228253855 0 -0.21996751977140089 0.4418162203924747 0 -0.21753922839953591 0.45992225299809758 0 -0.19992971394788389 0.45116865581058879 0 -0.2027666415454881 0.47558432790529442 0 -0.21753922839953591 0.45992225299809758 0 -0.19992971394788389 0.45116865581058879 0 -0.2027666415454881 0.47558432790529442 0 -0.19307040701090489 0.45778501891411638 0 -0.19992971394788389 0.45116865581058879 0 -0.2027666415454881 0.47558432790529442 0 -0.19992971394788389 0.45116865581058879 0 -0.17949751241718381 0.45805018787227503 0 -0.1944374474473364 0.47568679819338 0 -0.19157879934889521 0.46650475341587538 0 -0.2027666415454881 0.47558432790529442 0 -0.19307040701090489 0.45778501891411638 0 -0.19157879934889521 0.46650475341587538 0 -0.18570016520381141 0.4599581700344772 0 -0.19307040701090489 0.45778501891411638 0 -0.19157879934889521 0.46650475341587538 0 -0.18293754862266709 0.43959538003808862 0 -0.19307040701090489 0.45778501891411638 0 -0.19106156797600171 0.44450991170092408 0 -0.19992971394788389 0.45116865581058879 0 -0.19749803580432171 0.43024071382038342 0 -0.19992971394788389 0.45116865581058879 0 -0.19241493134351709 0.43727525679019752 0 -0.19749803580432171 0.43024071382038342 0 -0.18293754862266709 0.43959538003808862 0 -0.19307040701090489 0.45778501891411638 0 -0.19307040701090489 0.45778501891411638 0 -0.19992971394788389 0.45116865581058879 0 -0.19106156797600171 0.44450991170092408 0 -0.19992971394788389 0.45116865581058879 0 -0.19106156797600171 0.44450991170092408 0 -0.19241493134351709 0.43727525679019752 0 -0.19106156797600171 0.44450991170092408 0 -0.19241493134351709 0.43727525679019752 0 -0.18695523895503549 0.43672524695162862 0 -0.18966698230483209 0.43348230250595948 0 -0.1937044955116409 0.4281756291027542 0 -0.1820520035409853 0.43306817367377459 0 -0.19241493134351709 0.43727525679019752 0 -0.18966698230483209 0.43348230250595948 0 -0.18695523895503549 0.43672524695162862 0 -0.1937044955116409 0.4281756291027542 0 -0.1820520035409853 0.43306817367377459 0 -0.19992971394788389 0.45116865581058879 0 -0.19749803580432171 0.43024071382038342 0 -0.20872809443670731 0.4267310228253855 0 -0.19241493134351709 0.43727525679019752 0 -0.19320824217298141 0.43216720601144282 0 -0.18966698230483209 0.43348230250595948 0 -0.19241493134351709 0.43727525679019752 0 -0.19320824217298141 0.43216720601144282 0 -0.19749803580432171 0.43024071382038342 0 -0.19320824217298141 0.43216720601144282 0 -0.18966698230483209 0.43348230250595948 0 -0.1937044955116409 0.4281756291027542 0 -0.19320824217298141 0.43216720601144282 0 -0.1937044955116409 0.4281756291027542 0 -0.19749803580432171 0.43024071382038342 0 -0.1937044955116409 0.4281756291027542 0 -0.1896051305862354 0.41957239687648018 0 -0.18035640587929 0.42057020369155901 0 -0.1937044955116409 0.4281756291027542 0 -0.19657904453461289 0.42233152730534551 0 -0.1896051305862354 0.41957239687648018 0 -0.1937044955116409 0.4281756291027542 0 -0.19709278635027949 0.42675298371588338 0 -0.19749803580432171 0.43024071382038342 0 -0.20255139492541641 0.42446107175260028 0 -0.19376482063277131 0.41488003544418711 0 -0.20872809443670731 0.4267310228253855 0 -0.19709278635027949 0.42675298371588338 0 -0.20255139492541641 0.42446107175260028 0 -0.20872809443670731 0.4267310228253855 0 -0.19709278635027949 0.42675298371588338 0 -0.19749803580432171 0.43024071382038342 0 -0.20872809443670731 0.4267310228253855 0 -0.1937044955116409 0.4281756291027542 0 -0.19749803580432171 0.43024071382038342 0 -0.1937044955116409 0.4281756291027542 0 -0.19709278635027949 0.42675298371588338 0 -0.19709278635027949 0.42675298371588338 0 -0.19749803580432171 0.43024071382038342 0 -0.1937044955116409 0.4281756291027542 0 -0.19709278635027949 0.42675298371588338 0 -0.19657904453461289 0.42233152730534551 0 -0.19709278635027949 0.42675298371588338 0 -0.19657904453461289 0.42233152730534551 0 -0.20255139492541641 0.42446107175260028 0 -0.19709278635027949 0.42675298371588338 0 -0.19657904453461289 0.42233152730534551 0 -0.19709278635027949 0.42675298371588338 0 -0.20255139492541641 0.42446107175260028 0 -0.19376482063277131 0.41488003544418711 0 -0.20286987366260839 0.40518474843454971 0 -0.17787728719735241 0.40229702983133853 0 -0.19376482063277131 0.41488003544418711 0 -0.1896051305862354 0.41957239687648018 0 -0.18362088637286361 0.41190458883855491 0 -0.19657904453461289 0.42233152730534551 0 -0.19376482063277131 0.41488003544418711 0 -0.1896051305862354 0.41957239687648018 0 -0.19376482063277131 0.41488003544418711 0 -0.20559582719629979 0.41608157459356637 0 -0.20872809443670731 0.4267310228253855 0 -0.19657904453461289 0.42233152730534551 0 -0.20255139492541641 0.42446107175260028 0 -0.19376482063277131 0.41488003544418711 0 -0.19376482063277131 0.41488003544418711 0 -0.20872809443670731 0.4267310228253855 0 -0.19376482063277131 0.41488003544418711 0 -0.20559582719629979 0.41608157459356637 0 -0.20286987366260839 0.40518474843454971 0 -0.21814968824115899 0.41733300608078527 0 -0.22693820049638211 0.40734044880610942 0 -0.20286987366260839 0.40518474843454971 0 -0.22693820049638211 0.40734044880610942 0 -0.20286987366260839 0.40518474843454971 0 -0.20559582719629979 0.41608157459356637 0 -0.21814968824115899 0.41733300608078527 0 -0.20286987366260839 0.40518474843454971 0 -0.20559582719629979 0.41608157459356637 0 -0.21814968824115899 0.41733300608078527 0 -0.20872809443670731 0.4267310228253855 0 -0.21814968824115899 0.41733300608078527 0 -0.20872809443670731 0.4267310228253855 0 -0.2207951662930146 0.42940674429393672 0 -0.21996751977140089 0.4418162203924747 0 -0.20872809443670731 0.4267310228253855 0 -0.2207951662930146 0.42940674429393672 0 -0.21996751977140089 0.4418162203924747 0 -0.23370461282742969 0.42873443892759039 0 -0.2207951662930146 0.42940674429393672 0 -0.21814968824115899 0.41733300608078527 0 -0.23370461282742969 0.42873443892759039 0 -0.2207951662930146 0.42940674429393672 0 -0.21814968824115899 0.41733300608078527 0 -0.23370461282742969 0.42873443892759039 0 -0.22693820049638211 0.40734044880610942 0 -0.25100652733015583 0.40949614917766919 0 -0.22693820049638211 0.40734044880610942 0 -0.25100652733015583 0.40949614917766919 0 -0.23370461282742969 0.42873443892759039 0 -0.22693820049638211 0.40734044880610942 0 -0.26098937332124522 0.43347689389149152 0 -0.25100652733015583 0.40949614917766919 0 -0.23370461282742969 0.42873443892759039 0 -0.25387561127537051 0.38040348395526619 0 -0.23482796441088519 0.38303338625268391 0 -0.24591914643091811 0.39479546152300521 0 -0.25387561127537051 0.38040348395526619 0 -0.23482796441088519 0.38303338625268391 0 -0.24701328765104449 0.36866684718732318 0 -0.22693820049638211 0.40734044880610942 0 -0.23482796441088519 0.38303338625268391 0 -0.24591914643091811 0.39479546152300521 0 -0.25100652733015583 0.40949614917766919 0 -0.22693820049638211 0.40734044880610942 0 -0.24591914643091811 0.39479546152300521 0 -0.22693820049638211 0.40734044880610942 0 -0.23482796441088519 0.38303338625268391 0 -0.2205805600722123 0.38524090270801142 0 -0.23482796441088519 0.38303338625268391 0 -0.2205805600722123 0.38524090270801142 0 -0.22444674400701131 0.36840117189784599 0 -0.2205805600722123 0.38524090270801142 0 -0.21066206968640611 0.37573974147514261 0 -0.22444674400701131 0.36840117189784599 0 -0.2205805600722123 0.38524090270801142 0 -0.2071252374783514 0.39055731946347372 0 -0.21066206968640611 0.37573974147514261 0 -0.2071252374783514 0.39055731946347372 0 -0.21066206968640611 0.37573974147514261 0 -0.2016634519468028 0.38142274167740392 0 -0.22693820049638211 0.40734044880610942 0 -0.2205805600722123 0.38524090270801142 0 -0.2071252374783514 0.39055731946347372 0 -0.22693820049638211 0.40734044880610942 0 -0.2071252374783514 0.39055731946347372 0 -0.20286987366260839 0.40518474843454971 0 -0.20286987366260839 0.40518474843454971 0 -0.18952596523196399 0.39819792662579079 0 -0.17787728719735241 0.40229702983133853 0 -0.20286987366260839 0.40518474843454971 0 -0.17787728719735241 0.40229702983133853 0 -0.20286987366260839 0.40518474843454971 0 -0.19841770429934241 0.39368771316632362 0 -0.18952596523196399 0.39819792662579079 0 -0.2071252374783514 0.39055731946347372 0 -0.20286987366260839 0.40518474843454971 0 -0.19841770429934241 0.39368771316632362 0 -0.19841770429934241 0.39368771316632362 0 -0.18952596523196399 0.39819792662579079 0 -0.18966341417168181 0.38679109363375358 0 -0.21066206968640611 0.37573974147514261 0 -0.2016634519468028 0.38142274167740392 0 -0.19529469274725869 0.37254836100698091 0 -0.2016634519468028 0.38142274167740392 0 -0.18966341417168181 0.38679109363375358 0 -0.19529469274725869 0.37254836100698091 0 -0.19841770429934241 0.39368771316632362 0 -0.2016634519468028 0.38142274167740392 0 -0.18966341417168181 0.38679109363375358 0 -0.2071252374783514 0.39055731946347372 0 -0.19841770429934241 0.39368771316632362 0 -0.2016634519468028 0.38142274167740392 0 -0.18966341417168181 0.38679109363375358 0 -0.17787728719735241 0.40229702983133853 0 -0.174031941169697 0.37395362012366329 0 -0.18966341417168181 0.38679109363375358 0 -0.174031941169697 0.37395362012366329 0 -0.19529469274725869 0.37254836100698091 0 -0.17787728719735241 0.40229702983133853 0 -0.174031941169697 0.37395362012366329 0 -0.16191946284109679 0.38965835345908523 0 -0.17787728719735241 0.40229702983133853 0 -0.174031941169697 0.37395362012366329 0 -0.16191946284109679 0.38965835345908523 0 -0.1619300990128239 0.3771432374363311 0 -0.174031941169697 0.37395362012366329 0 -0.16191946284109679 0.38965835345908523 0 -0.174031941169697 0.37395362012366329 0 -0.16191946284109679 0.38965835345908523 0 -0.15797108368745291 0.39477772209966472 0 -0.14975014053340199 0.38002018957891293 0 -0.16191946284109679 0.38965835345908523 0 -0.1619300990128239 0.3771432374363311 0 -0.14975014053340199 0.38002018957891293 0 -0.16171511553400161 0.40149868716398363 0 -0.17787728719735241 0.40229702983133853 0 -0.16191946284109679 0.38965835345908523 0 -0.16171511553400161 0.40149868716398363 0 -0.17787728719735241 0.40229702983133853 0 -0.16191946284109679 0.38965835345908523 0 -0.17787728719735241 0.40229702983133853 0 -0.16171511553400161 0.40149868716398363 0 -0.17787728719735241 0.40229702983133853 0 -0.16861129512932821 0.41387811769158028 0 -0.16171511553400161 0.40149868716398363 0 -0.15797108368745291 0.39477772209966472 0 -0.15098533733792099 0.40383526429639349 0 -0.16171511553400161 0.40149868716398363 0 -0.15797108368745291 0.39477772209966472 0 -0.16191946284109679 0.38965835345908523 0 -0.16171511553400161 0.40149868716398363 0 -0.15797108368745291 0.39477772209966472 0 -0.16191946284109679 0.38965835345908523 0 -0.15797108368745291 0.39477772209966472 0 -0.18952596523196399 0.39819792662579079 0 -0.18966341417168181 0.38679109363375358 0 -0.17787728719735241 0.40229702983133853 0 -0.19376482063277131 0.41488003544418711 0 -0.17787728719735241 0.40229702983133853 0 -0.19376482063277131 0.41488003544418711 0 -0.17787728719735241 0.40229702983133853 0 -0.18362088637286361 0.41190458883855491 0 -0.17787728719735241 0.40229702983133853 0 -0.18035640587929 0.42057020369155901 0 -0.16861129512932821 0.41387811769158028 0 -0.17787728719735241 0.40229702983133853 0 -0.18362088637286361 0.41190458883855491 0 -0.18035640587929 0.42057020369155901 0 -0.17787728719735241 0.40229702983133853 0 -0.18035640587929 0.42057020369155901 0 -0.1896051305862354 0.41957239687648018 0 -0.18362088637286361 0.41190458883855491 0 -0.18035640587929 0.42057020369155901 0 -0.18035640587929 0.42057020369155901 0 -0.16861129512932821 0.41387811769158028 0 -0.18035640587929 0.42057020369155901 0 -0.179822845836209 0.43400413256170062 0 -0.16861129512932821 0.41387811769158028 0 -0.179822845836209 0.43400413256170062 0 -0.16861129512932821 0.41387811769158028 0 -0.18293754862266709 0.43959538003808862 0 -0.179822845836209 0.43400413256170062 0 -0.18293754862266709 0.43959538003808862 0 -0.1820520035409853 0.43306817367377459 0 -0.18293754862266709 0.43959538003808862 0 -0.179822845836209 0.43400413256170062 0 -0.1820520035409853 0.43306817367377459 0 -0.18966698230483209 0.43348230250595948 0 -0.18695523895503549 0.43672524695162862 0 -0.1820520035409853 0.43306817367377459 0 -0.18293754862266709 0.43959538003808862 0 -0.18695523895503549 0.43672524695162862 0 -0.1820520035409853 0.43306817367377459 0 -0.179822845836209 0.43400413256170062 0 -0.1820520035409853 0.43306817367377459 0 -0.18035640587929 0.42057020369155901 0 -0.179822845836209 0.43400413256170062 0 -0.1820520035409853 0.43306817367377459 0 -0.1937044955116409 0.4281756291027542 0 -0.18035640587929 0.42057020369155901 0 -0.1820520035409853 0.43306817367377459 0 -0.1937044955116409 0.4281756291027542 0 -0.18035640587929 0.42057020369155901 0 -0.18035640587929 0.42057020369155901 0 -0.1820520035409853 0.43306817367377459 0 -0.1645575773870305 0.44041357755117061 0 -0.179822845836209 0.43400413256170062 0 -0.179822845836209 0.43400413256170062 0 -0.16446931899110431 0.42644347228823459 0 -0.16861129512932821 0.41387811769158028 0 -0.1645575773870305 0.44041357755117061 0 -0.179822845836209 0.43400413256170062 0 -0.16446931899110431 0.42644347228823459 0 -0.16446931899110431 0.42644347228823459 0 -0.1557327205722647 0.41641723345320342 0 -0.15362215603068771 0.42750430018351931 0 -0.1645575773870305 0.44041357755117061 0 -0.15362215603068771 0.42750430018351931 0 -0.1645575773870305 0.44041357755117061 0 -0.16446931899110431 0.42644347228823459 0 -0.15362215603068771 0.42750430018351931 0 -0.16861129512932821 0.41387811769158028 0 -0.1557327205722647 0.41641723345320342 0 -0.15098533733792099 0.40383526429639349 0 -0.16171511553400161 0.40149868716398363 0 -0.16861129512932821 0.41387811769158028 0 -0.15098533733792099 0.40383526429639349 0 -0.16861129512932821 0.41387811769158028 0 -0.15098533733792099 0.40383526429639349 0 -0.16171511553400161 0.40149868716398363 0 -0.16861129512932821 0.41387811769158028 0 -0.16446931899110431 0.42644347228823459 0 -0.16861129512932821 0.41387811769158028 0 -0.1557327205722647 0.41641723345320342 0 -0.1557327205722647 0.41641723345320342 0 -0.14268673467434359 0.4145950228158693 0 -0.15098533733792099 0.40383526429639349 0 -0.1557327205722647 0.41641723345320342 0 -0.14268673467434359 0.4145950228158693 0 -0.15362215603068771 0.42750430018351931 0 -0.14268673467434359 0.4145950228158693 0 -0.15362215603068771 0.42750430018351931 0 -0.14268673467434359 0.4145950228158693 0 -0.15098533733792099 0.40383526429639349 0 -0.14268673467434359 0.4145950228158693 0 -0.13876061681666671 0.40996023621265792 0 -0.14268673467434359 0.4145950228158693 0 -0.13876061681666671 0.40996023621265792 0 -0.15098533733792099 0.40383526429639349 0 -0.1645575773870305 0.44041357755117061 0 -0.14877420013327619 0.43638059937983947 0 -0.15362215603068771 0.42750430018351931 0 -0.14877420013327619 0.43638059937983947 0 -0.15362215603068771 0.42750430018351931 0 -0.1431451901515618 0.42876412782836892 0 -0.14268673467434359 0.4145950228158693 0 -0.15362215603068771 0.42750430018351931 0 -0.1431451901515618 0.42876412782836892 0 -0.14877420013327619 0.43638059937983947 0 -0.1431451901515618 0.42876412782836892 0 -0.1399960452010009 0.43521495597161669 0 -0.1255554655362647 0.43775938910818479 0 -0.1399960452010009 0.43521495597161669 0 -0.1340621846908461 0.42577739639411721 0 -0.1431451901515618 0.42876412782836892 0 -0.1399960452010009 0.43521495597161669 0 -0.1340621846908461 0.42577739639411721 0 -0.14268673467434359 0.4145950228158693 0 -0.1431451901515618 0.42876412782836892 0 -0.1340621846908461 0.42577739639411721 0 -0.1340621846908461 0.42577739639411721 0 -0.1281218478049512 0.41540643358509072 0 -0.1237184839272443 0.42744959587490861 0 -0.1255554655362647 0.43775938910818479 0 -0.1340621846908461 0.42577739639411721 0 -0.1237184839272443 0.42744959587490861 0 -0.14268673467434359 0.4145950228158693 0 -0.13876061681666671 0.40996023621265792 0 -0.1281218478049512 0.41540643358509072 0 -0.14268673467434359 0.4145950228158693 0 -0.1340621846908461 0.42577739639411721 0 -0.14268673467434359 0.4145950228158693 0 -0.1340621846908461 0.42577739639411721 0 -0.1281218478049512 0.41540643358509072 0 -0.1281218478049512 0.41540643358509072 0 -0.13051712024898041 0.40403865912251802 0 -0.1224258287045045 0.40489930085006348 0 -0.13876061681666671 0.40996023621265792 0 -0.1281218478049512 0.41540643358509072 0 -0.13051712024898041 0.40403865912251802 0 -0.13691704250971301 0.39581948301789721 0 -0.14455252316244191 0.3960832147007764 0 -0.12284874768150481 0.38780370173940099 0 -0.13691704250971301 0.39581948301789721 0 -0.12284874768150481 0.38780370173940099 0 -0.12042314955949331 0.39581425981814827 0 -0.13761509519667131 0.38936916044468578 0 -0.14455252316244191 0.3960832147007764 0 -0.12284874768150481 0.38780370173940099 0 -0.14455252316244191 0.3960832147007764 0 -0.12284874768150481 0.38780370173940099 0 -0.13051712024898041 0.40403865912251802 0 -0.13691704250971301 0.39581948301789721 0 -0.12042314955949331 0.39581425981814827 0 -0.13876061681666671 0.40996023621265792 0 -0.13051712024898041 0.40403865912251802 0 -0.13691704250971301 0.39581948301789721 0 -0.13691704250971301 0.39581948301789721 0 -0.12284874768150481 0.38780370173940099 0 -0.1311976703720926 0.38319871938740041 0 -0.1272257738929207 0.3813029750127751 0 -0.12284874768150481 0.38780370173940099 0 -0.1311976703720926 0.38319871938740041 0 -0.1378780727874668 0.38561640693571592 0 -0.12284874768150481 0.38780370173940099 0 -0.1378780727874668 0.38561640693571592 0 -0.13761509519667131 0.38936916044468578 0 -0.12284874768150481 0.38780370173940099 0 -0.1272257738929207 0.3813029750127751 0 -0.13347756769707031 0.3707691275968874 0 -0.1197697415084036 0.37379827614970679 0 -0.1311976703720926 0.38319871938740041 0 -0.1272257738929207 0.3813029750127751 0 -0.1368380871264783 0.37807179386170953 0 -0.1272257738929207 0.3813029750127751 0 -0.1368380871264783 0.37807179386170953 0 -0.13347756769707031 0.3707691275968874 0 -0.1311976703720926 0.38319871938740041 0 -0.1368380871264783 0.37807179386170953 0 -0.1378780727874668 0.38561640693571592 0 -0.1368380871264783 0.37807179386170953 0 -0.1378780727874668 0.38561640693571592 0 -0.1429949007505627 0.38172169203901463 0 -0.1378780727874668 0.38561640693571592 0 -0.13761509519667131 0.38936916044468578 0 -0.1451810371552717 0.3879733184028501 0 -0.1451810371552717 0.3879733184028501 0 -0.14975014053340199 0.38002018957891293 0 -0.1496880243752978 0.39253794181571938 0 -0.1451810371552717 0.3879733184028501 0 -0.1429949007505627 0.38172169203901463 0 -0.14975014053340199 0.38002018957891293 0 -0.1378780727874668 0.38561640693571592 0 -0.1451810371552717 0.3879733184028501 0 -0.1429949007505627 0.38172169203901463 0 -0.1368380871264783 0.37807179386170953 0 -0.1429949007505627 0.38172169203901463 0 -0.14458643748772859 0.37593051104757202 0 -0.1429949007505627 0.38172169203901463 0 -0.14458643748772859 0.37593051104757202 0 -0.14975014053340199 0.38002018957891293 0 -0.14458643748772859 0.37593051104757202 0 -0.14975014053340199 0.38002018957891293 0 -0.1619300990128239 0.3771432374363311 0 -0.14975014053340199 0.38002018957891293 0 -0.15409782626223581 0.37120548284067362 0 -0.15797108368745291 0.39477772209966472 0 -0.14975014053340199 0.38002018957891293 0 -0.1496880243752978 0.39253794181571938 0 -0.15797108368745291 0.39477772209966472 0 -0.14975014053340199 0.38002018957891293 0 -0.16191946284109679 0.38965835345908523 0 -0.14975014053340199 0.38002018957891293 0 -0.15797108368745291 0.39477772209966472 0 -0.1496880243752978 0.39253794181571938 0 -0.15098533733792099 0.40383526429639349 0 -0.15797108368745291 0.39477772209966472 0 -0.15098533733792099 0.40383526429639349 0 -0.13691704250971301 0.39581948301789721 0 -0.15098533733792099 0.40383526429639349 0 -0.14455252316244191 0.3960832147007764 0 -0.13691704250971301 0.39581948301789721 0 -0.15098533733792099 0.40383526429639349 0 -0.13876061681666671 0.40996023621265792 0 -0.13691704250971301 0.39581948301789721 0 -0.15098533733792099 0.40383526429639349 0 -0.1496880243752978 0.39253794181571938 0 -0.15098533733792099 0.40383526429639349 0 -0.14455252316244191 0.3960832147007764 0 -0.13761509519667131 0.38936916044468578 0 -0.1451810371552717 0.3879733184028501 0 -0.14455252316244191 0.3960832147007764 0 -0.1451810371552717 0.3879733184028501 0 -0.1496880243752978 0.39253794181571938 0 -0.14455252316244191 0.3960832147007764 0 -0.15303919027727159 0.34889188180493169 0 -0.13833156897284341 0.35952254861634492 0 -0.1578060159890356 0.36210324382887521 0 -0.15303919027727159 0.34889188180493169 0 -0.13833156897284341 0.35952254861634492 0 -0.14133031506614241 0.33999380690945591 0 -0.14458643748772859 0.37593051104757202 0 -0.14975014053340199 0.38002018957891293 0 -0.13833156897284341 0.35952254861634492 0 -0.15409782626223581 0.37120548284067362 0 -0.13833156897284341 0.35952254861634492 0 -0.1578060159890356 0.36210324382887521 0 -0.14975014053340199 0.38002018957891293 0 -0.15409782626223581 0.37120548284067362 0 -0.13833156897284341 0.35952254861634492 0 -0.14975014053340199 0.38002018957891293 0 -0.13833156897284341 0.35952254861634492 0 -0.14458643748772859 0.37593051104757202 0 -0.13833156897284341 0.35952254861634492 0 -0.13347756769707031 0.3707691275968874 0 -0.1368380871264783 0.37807179386170953 0 -0.14458643748772859 0.37593051104757202 0 -0.13347756769707031 0.3707691275968874 0 -0.13347756769707031 0.3707691275968874 0 -0.12366732740402089 0.35909998192668952 0 -0.1197697415084036 0.37379827614970679 0 -0.13833156897284341 0.35952254861634492 0 -0.13347756769707031 0.3707691275968874 0 -0.12366732740402089 0.35909998192668952 0 -0.13833156897284341 0.35952254861634492 0 -0.14133031506614241 0.33999380690945591 0 -0.12366732740402089 0.35909998192668952 0 -0.14133031506614241 0.33999380690945591 0 -0.12366732740402089 0.35909998192668952 0 -0.14133031506614241 0.33999380690945591 0 -0.1205113991465218 0.33608428260493739 0 -0.12366732740402089 0.35909998192668952 0 -0.13055351923856459 0.32756978446506058 0 -0.14002973011377551 0.32240529014258251 0 -0.14133031506614241 0.33999380690945591 0 -0.13055351923856459 0.32756978446506058 0 -0.14133031506614241 0.33999380690945591 0 -0.1205113991465218 0.33608428260493739 0 -0.13175626488066619 0.31714522425690628 0 -0.12739733367773079 0.30987467574664262 0 -0.121709049194444 0.31975547501678508 0 -0.13175626488066619 0.31714522425690628 0 -0.13055351923856459 0.32756978446506058 0 -0.121709049194444 0.31975547501678508 0 -0.13175626488066619 0.31714522425690628 0 -0.13055351923856459 0.32756978446506058 0 -0.14002973011377551 0.32240529014258251 0 -0.13175626488066619 0.31714522425690628 0 -0.14002973011377551 0.32240529014258251 0 -0.13953992960472211 0.31378729031838049 0 -0.13175626488066619 0.31714522425690628 0 -0.13953992960472211 0.31378729031838049 0 -0.13452611816629381 0.30740942179225672 0 -0.14002973011377551 0.32240529014258251 0 -0.14936987517385689 0.32191891738441109 0 -0.14133031506614241 0.33999380690945591 0 -0.14936987517385689 0.32191891738441109 0 -0.14133031506614241 0.33999380690945591 0 -0.15899330272826409 0.32088763189222241 0 -0.14002973011377551 0.32240529014258251 0 -0.147628476718701 0.31401671752128041 0 -0.14936987517385689 0.32191891738441109 0 -0.14002973011377551 0.32240529014258251 0 -0.13953992960472211 0.31378729031838049 0 -0.147628476718701 0.31401671752128041 0 -0.14936987517385689 0.32191891738441109 0 -0.15899330272826409 0.32088763189222241 0 -0.147628476718701 0.31401671752128041 0 -0.14936987517385689 0.32191891738441109 0 -0.15899330272826409 0.32088763189222241 0 -0.147628476718701 0.31401671752128041 0 -0.15899330272826409 0.32088763189222241 0 -0.15462811102698051 0.31011645951591083 0 -0.14133031506614241 0.33999380690945591 0 -0.15735200743524419 0.33583320361590602 0 -0.15899330272826409 0.32088763189222241 0 -0.15303919027727159 0.34889188180493169 0 -0.14133031506614241 0.33999380690945591 0 -0.15735200743524419 0.33583320361590602 0 -0.14133031506614241 0.33999380690945591 0 -0.15899330272826409 0.32088763189222241 0 -0.1667201466764883 0.32005959198448958 0 -0.17037604392309261 0.34700660605407641 0 -0.15735200743524419 0.33583320361590602 0 -0.1667201466764883 0.32005959198448958 0 -0.17037604392309261 0.34700660605407641 0 -0.15735200743524419 0.33583320361590602 0 -0.15899330272826409 0.32088763189222241 0 -0.1667201466764883 0.32005959198448958 0 -0.15899330272826409 0.32088763189222241 0 -0.1658292737676717 0.31349311508735622 0 -0.15462811102698051 0.31011645951591083 0 -0.15899330272826409 0.32088763189222241 0 -0.1667201466764883 0.32005959198448958 0 -0.1658292737676717 0.31349311508735622 0 -0.15899330272826409 0.32088763189222241 0 -0.1658292737676717 0.31349311508735622 0 -0.15899330272826409 0.32088763189222241 0 -0.1667201466764883 0.32005959198448958 0 -0.1667201466764883 0.32005959198448958 0 -0.1658292737676717 0.31349311508735622 0 -0.16959216913705011 0.30942276533259622 0 -0.1667201466764883 0.32005959198448958 0 -0.1658292737676717 0.31349311508735622 0 -0.1667201466764883 0.32005959198448958 0 -0.1900592304218254 0.3175584811971488 0 -0.1667201466764883 0.32005959198448958 0 -0.1900592304218254 0.3175584811971488 0 -0.18029287973815319 0.30717347502166542 0 -0.1667201466764883 0.32005959198448958 0 -0.18443951200004091 0.33432421979988902 0 -0.1900592304218254 0.3175584811971488 0 -0.1667201466764883 0.32005959198448958 0 -0.18443951200004091 0.33432421979988902 0 -0.17037604392309261 0.34700660605407641 0 -0.18443951200004091 0.33432421979988902 0 -0.17037604392309261 0.34700660605407641 0 -0.18969136004949841 0.35365001329579793 0 -0.17037604392309261 0.34700660605407641 0 -0.174031941169697 0.37395362012366329 0 -0.18969136004949841 0.35365001329579793 0 -0.15303919027727159 0.34889188180493169 0 -0.17037604392309261 0.34700660605407641 0 -0.1578060159890356 0.36210324382887521 0 -0.15303919027727159 0.34889188180493169 0 -0.15735200743524419 0.33583320361590602 0 -0.17037604392309261 0.34700660605407641 0 -0.1619300990128239 0.3771432374363311 0 -0.1578060159890356 0.36210324382887521 0 -0.174031941169697 0.37395362012366329 0 -0.17037604392309261 0.34700660605407641 0 -0.1578060159890356 0.36210324382887521 0 -0.174031941169697 0.37395362012366329 0 -0.1619300990128239 0.3771432374363311 0 -0.15409782626223581 0.37120548284067362 0 -0.1578060159890356 0.36210324382887521 0 -0.174031941169697 0.37395362012366329 0 -0.19529469274725869 0.37254836100698091 0 -0.18969136004949841 0.35365001329579793 0 -0.17037604392309261 0.34700660605407641 0 -0.174031941169697 0.37395362012366329 0 -0.174031941169697 0.37395362012366329 0 -0.18969136004949841 0.35365001329579793 0 -0.19529469274725869 0.37254836100698091 0 -0.18969136004949841 0.35365001329579793 0 -0.2065577592468385 0.36430945472764442 0 -0.18969136004949841 0.35365001329579793 0 -0.21269392974401791 0.35120798596245439 0 -0.20535077892929959 0.33334640646793212 0 -0.18969136004949841 0.35365001329579793 0 -0.21269392974401791 0.35120798596245439 0 -0.2065577592468385 0.36430945472764442 0 -0.21269392974401791 0.35120798596245439 0 -0.2065577592468385 0.36430945472764442 0 -0.22444674400701131 0.36840117189784599 0 -0.21066206968640611 0.37573974147514261 0 -0.2065577592468385 0.36430945472764442 0 -0.22444674400701131 0.36840117189784599 0 -0.21066206968640611 0.37573974147514261 0 -0.19529469274725869 0.37254836100698091 0 -0.2065577592468385 0.36430945472764442 0 -0.22444674400701131 0.36840117189784599 0 -0.22675380618709659 0.3506385644446926 0 -0.23589033341228541 0.35867335746767631 0 -0.21269392974401791 0.35120798596245439 0 -0.22444674400701131 0.36840117189784599 0 -0.22675380618709659 0.3506385644446926 0 -0.22675380618709659 0.3506385644446926 0 -0.24107067359712109 0.34676646377839598 0 -0.22403227734185849 0.33738680748519412 0 -0.21269392974401791 0.35120798596245439 0 -0.22675380618709659 0.3506385644446926 0 -0.22403227734185849 0.33738680748519412 0 -0.22675380618709659 0.3506385644446926 0 -0.23589033341228541 0.35867335746767631 0 -0.24107067359712109 0.34676646377839598 0 -0.23589033341228541 0.35867335746767631 0 -0.24107067359712109 0.34676646377839598 0 -0.2476437652915798 0.35795818431482368 0 -0.25385547873427328 0.34079321197431628 0 -0.25432695322633803 0.3515902798040294 0 -0.24107067359712109 0.34676646377839598 0 -0.25432695322633803 0.3515902798040294 0 -0.24107067359712109 0.34676646377839598 0 -0.2476437652915798 0.35795818431482368 0 -0.22444674400701131 0.36840117189784599 0 -0.23589033341228541 0.35867335746767631 0 -0.24701328765104449 0.36866684718732318 0 -0.23482796441088519 0.38303338625268391 0 -0.22444674400701131 0.36840117189784599 0 -0.24701328765104449 0.36866684718732318 0 -0.23589033341228541 0.35867335746767631 0 -0.2476437652915798 0.35795818431482368 0 -0.24701328765104449 0.36866684718732318 0 -0.25050765906856298 0.32044767092370591 0 -0.24296157993205589 0.33260813687279678 0 -0.23102061480848751 0.32529684356266308 0 -0.25050765906856298 0.32044767092370591 0 -0.23673739791249929 0.31255625962246347 0 -0.23102061480848751 0.32529684356266308 0 -0.25278242527253569 0.33108214078453929 0 -0.25050765906856298 0.32044767092370591 0 -0.24296157993205589 0.33260813687279678 0 -0.25385547873427328 0.34079321197431628 0 -0.25278242527253569 0.33108214078453929 0 -0.24296157993205589 0.33260813687279678 0 -0.24107067359712109 0.34676646377839598 0 -0.24296157993205589 0.33260813687279678 0 -0.22403227734185849 0.33738680748519412 0 -0.25385547873427328 0.34079321197431628 0 -0.24107067359712109 0.34676646377839598 0 -0.24296157993205589 0.33260813687279678 0 -0.24296157993205589 0.33260813687279678 0 -0.22403227734185849 0.33738680748519412 0 -0.23102061480848751 0.32529684356266308 0 -0.23673739791249929 0.31255625962246347 0 -0.21339831416716229 0.31505737040980619 0 -0.23673739791249929 0.31255625962246347 0 -0.23102061480848751 0.32529684356266308 0 -0.21339831416716229 0.31505737040980619 0 -0.22403227734185849 0.33738680748519412 0 -0.23102061480848751 0.32529684356266308 0 -0.21339831416716229 0.31505737040980619 0 -0.21269392974401791 0.35120798596245439 0 -0.22403227734185849 0.33738680748519412 0 -0.20535077892929959 0.33334640646793212 0 -0.22403227734185849 0.33738680748519412 0 -0.21339831416716229 0.31505737040980619 0 -0.20535077892929959 0.33334640646793212 0 -0.18443951200004091 0.33432421979988902 0 -0.20535077892929959 0.33334640646793212 0 -0.1900592304218254 0.3175584811971488 0 -0.18969136004949841 0.35365001329579793 0 -0.20535077892929959 0.33334640646793212 0 -0.18443951200004091 0.33432421979988902 0 -0.18969136004949841 0.35365001329579793 0 -0.20535077892929959 0.33334640646793212 0 -0.21339831416716229 0.31505737040980619 0 -0.1900592304218254 0.3175584811971488 0 -0.21339831416716229 0.31505737040980619 0 -0.20535077892929959 0.33334640646793212 0 -0.1900592304218254 0.3175584811971488 0 -0.1980467059599372 0.30203595493417612 0 -0.18505245313055849 0.29541009795511192 0 -0.18029287973815319 0.30717347502166542 0 -0.1900592304218254 0.3175584811971488 0 -0.1980467059599372 0.30203595493417612 0 -0.18029287973815319 0.30717347502166542 0 -0.21339831416716229 0.31505737040980619 0 -0.1900592304218254 0.3175584811971488 0 -0.1980467059599372 0.30203595493417612 0 -0.1980467059599372 0.30203595493417612 0 -0.19616798608394301 0.28357034073614351 0 -0.18505245313055849 0.29541009795511192 0 -0.19616798608394301 0.28357034073614351 0 -0.2213314959373868 0.2932798563103185 0 -0.2167572761358291 0.2699053126266423 0 -0.1980467059599372 0.30203595493417612 0 -0.19616798608394301 0.28357034073614351 0 -0.2213314959373868 0.2932798563103185 0 -0.21339831416716229 0.31505737040980619 0 -0.1980467059599372 0.30203595493417612 0 -0.2213314959373868 0.2932798563103185 0 -0.23673739791249929 0.31255625962246347 0 -0.21339831416716229 0.31505737040980619 0 -0.2213314959373868 0.2932798563103185 0 -0.23673739791249929 0.31255625962246347 0 -0.2213314959373868 0.2932798563103185 0 -0.23761990304433031 0.29665981688587439 0 -0.2213314959373868 0.2932798563103185 0 -0.23761990304433031 0.29665981688587439 0 -0.24033881776653979 0.27704225328469761 0 -0.25207190056089518 0.30376089832601799 0 -0.24033881776653979 0.27704225328469761 0 -0.25207190056089518 0.30376089832601799 0 -0.23761990304433031 0.29665981688587439 0 -0.24033881776653979 0.27704225328469761 0 -0.25207190056089518 0.30376089832601799 0 -0.25050765906856298 0.32044767092370591 0 -0.23673739791249929 0.31255625962246347 0 -0.25207190056089518 0.30376089832601799 0 -0.23673739791249929 0.31255625962246347 0 -0.23761990304433031 0.29665981688587439 0 -0.24033881776653979 0.27704225328469761 0 -0.2286057349721842 0.25032360824337713 0 -0.25522404109648089 0.2674044268366268 0 -0.24033881776653979 0.27704225328469761 0 -0.2286057349721842 0.25032360824337713 0 -0.25177043790547998 0.24599012604316309 0 -0.25522404109648089 0.2674044268366268 0 -0.2286057349721842 0.25032360824337713 0 -0.24033881776653979 0.27704225328469761 0 -0.2286057349721842 0.25032360824337713 0 -0.2167572761358291 0.2699053126266423 0 -0.2213314959373868 0.2932798563103185 0 -0.24033881776653979 0.27704225328469761 0 -0.2167572761358291 0.2699053126266423 0 -0.2286057349721842 0.25032360824337713 0 -0.2167572761358291 0.2699053126266423 0 -0.2037259274003673 0.24687887307223971 0 -0.2167572761358291 0.2699053126266423 0 -0.19717776305809331 0.26510599001559998 0 -0.2037259274003673 0.24687887307223971 0 -0.19616798608394301 0.28357034073614351 0 -0.2167572761358291 0.2699053126266423 0 -0.19717776305809331 0.26510599001559998 0 -0.19616798608394301 0.28357034073614351 0 -0.19717776305809331 0.26510599001559998 0 -0.18031402575922989 0.2717167608805654 0 -0.19717776305809331 0.26510599001559998 0 -0.18347382519695599 0.25610808106538258 0 -0.2037259274003673 0.24687887307223971 0 -0.19717776305809331 0.26510599001559998 0 -0.18347382519695599 0.25610808106538258 0 -0.18031402575922989 0.2717167608805654 0 -0.18347382519695599 0.25610808106538258 0 -0.167896213224692 0.26299273880388829 0 -0.18031402575922989 0.2717167608805654 0 -0.18347382519695599 0.25610808106538258 0 -0.167896213224692 0.26299273880388829 0 -0.16340192378364951 0.24750357251422311 0 -0.167896213224692 0.26299273880388829 0 -0.15127515854631329 0.26211328852275317 0 -0.16340192378364951 0.24750357251422311 0 -0.167896213224692 0.26299273880388829 0 -0.16101613283731131 0.27752199103651748 0 -0.18031402575922989 0.2717167608805654 0 -0.167896213224692 0.26299273880388829 0 -0.16101613283731131 0.27752199103651748 0 -0.15127515854631329 0.26211328852275317 0 -0.16101613283731131 0.27752199103651748 0 -0.18031402575922989 0.2717167608805654 0 -0.17375383619860249 0.28686939577899973 0 -0.19616798608394301 0.28357034073614351 0 -0.18031402575922989 0.2717167608805654 0 -0.17375383619860249 0.28686939577899973 0 -0.19616798608394301 0.28357034073614351 0 -0.18505245313055849 0.29541009795511192 0 -0.17375383619860249 0.28686939577899973 0 -0.18505245313055849 0.29541009795511192 0 -0.17375383619860249 0.28686939577899973 0 -0.17433055032011391 0.29824606492077638 0 -0.18505245313055849 0.29541009795511192 0 -0.18029287973815319 0.30717347502166542 0 -0.17433055032011391 0.29824606492077638 0 -0.1667201466764883 0.32005959198448958 0 -0.18029287973815319 0.30717347502166542 0 -0.16959216913705011 0.30942276533259622 0 -0.18029287973815319 0.30717347502166542 0 -0.17433055032011391 0.29824606492077638 0 -0.16959216913705011 0.30942276533259622 0 -0.1658292737676717 0.31349311508735622 0 -0.16296141339620521 0.29235459051550861 0 -0.1658292737676717 0.31349311508735622 0 -0.16296141339620521 0.29235459051550861 0 -0.15541994789818681 0.30158179633133558 0 -0.1658292737676717 0.31349311508735622 0 -0.16959216913705011 0.30942276533259622 0 -0.16296141339620521 0.29235459051550861 0 -0.17433055032011391 0.29824606492077638 0 -0.16959216913705011 0.30942276533259622 0 -0.16296141339620521 0.29235459051550861 0 -0.1658292737676717 0.31349311508735622 0 -0.16959216913705011 0.30942276533259622 0 -0.1658292737676717 0.31349311508735622 0 -0.15462811102698051 0.31011645951591083 0 -0.15541994789818681 0.30158179633133558 0 -0.16101613283731131 0.27752199103651748 0 -0.17375383619860249 0.28686939577899973 0 -0.16296141339620521 0.29235459051550861 0 -0.17375383619860249 0.28686939577899973 0 -0.17433055032011391 0.29824606492077638 0 -0.16296141339620521 0.29235459051550861 0 -0.16101613283731131 0.27752199103651748 0 -0.16296141339620521 0.29235459051550861 0 -0.14903378997395031 0.28878199221709328 0 -0.16296141339620521 0.29235459051550861 0 -0.14903378997395031 0.28878199221709328 0 -0.15541994789818681 0.30158179633133558 0 -0.14903378997395031 0.28878199221709328 0 -0.1446471513261271 0.30316282432080882 0 -0.1393297680041144 0.29374697711537789 0 -0.14903378997395031 0.28878199221709328 0 -0.13796904364020851 0.28447837172862311 0 -0.14576283994361219 0.27623109154767328 0 -0.14903378997395031 0.28878199221709328 0 -0.13796904364020851 0.28447837172862311 0 -0.1393297680041144 0.29374697711537789 0 -0.147628476718701 0.31401671752128041 0 -0.15462811102698051 0.31011645951591083 0 -0.1446471513261271 0.30316282432080882 0 -0.15462811102698051 0.31011645951591083 0 -0.15541994789818681 0.30158179633133558 0 -0.1446471513261271 0.30316282432080882 0 -0.14903378997395031 0.28878199221709328 0 -0.15541994789818681 0.30158179633133558 0 -0.1446471513261271 0.30316282432080882 0 -0.13953992960472211 0.31378729031838049 0 -0.147628476718701 0.31401671752128041 0 -0.1446471513261271 0.30316282432080882 0 -0.13953992960472211 0.31378729031838049 0 -0.1446471513261271 0.30316282432080882 0 -0.13452611816629381 0.30740942179225672 0 -0.1446471513261271 0.30316282432080882 0 -0.13452611816629381 0.30740942179225672 0 -0.13445639965369999 0.29966367928805682 0 -0.1446471513261271 0.30316282432080882 0 -0.13445639965369999 0.29966367928805682 0 -0.1393297680041144 0.29374697711537789 0 -0.13445639965369999 0.29966367928805682 0 -0.1284364203415489 0.30100662093678487 0 -0.13054245542658621 0.2926480180223075 0 -0.1284364203415489 0.30100662093678487 0 -0.12739733367773079 0.30987467574664262 0 -0.1224076226257632 0.30316409369634828 0 -0.13452611816629381 0.30740942179225672 0 -0.13445639965369999 0.29966367928805682 0 -0.1284364203415489 0.30100662093678487 0 -0.13452611816629381 0.30740942179225672 0 -0.1284364203415489 0.30100662093678487 0 -0.12739733367773079 0.30987467574664262 0 -0.13175626488066619 0.31714522425690628 0 -0.13452611816629381 0.30740942179225672 0 -0.12739733367773079 0.30987467574664262 0 -0.13796904364020851 0.28447837172862311 0 -0.1393297680041144 0.29374697711537789 0 -0.13054245542658621 0.2926480180223075 0 -0.13445639965369999 0.29966367928805682 0 -0.1393297680041144 0.29374697711537789 0 -0.13054245542658621 0.2926480180223075 0 -0.1284364203415489 0.30100662093678487 0 -0.13054245542658621 0.2926480180223075 0 -0.12323845491320951 0.29654861032128482 0 -0.13054245542658621 0.2926480180223075 0 -0.12191266252302679 0.2899026683728505 0 -0.12323845491320951 0.29654861032128482 0 -0.13054245542658621 0.2926480180223075 0 -0.12806027289369609 0.28083185474876932 0 -0.12191266252302679 0.2899026683728505 0 -0.13796904364020851 0.28447837172862311 0 -0.13054245542658621 0.2926480180223075 0 -0.12806027289369609 0.28083185474876932 0 -0.12806027289369609 0.28083185474876932 0 -0.1364455253731246 0.27629250063117472 0 -0.13153175710404549 0.2692865968031225 0 -0.12806027289369609 0.28083185474876932 0 -0.13153175710404549 0.2692865968031225 0 -0.12198092026351499 0.27353291120265472 0 -0.13796904364020851 0.28447837172862311 0 -0.12806027289369609 0.28083185474876932 0 -0.1364455253731246 0.27629250063117472 0 -0.13796904364020851 0.28447837172862311 0 -0.1364455253731246 0.27629250063117472 0 -0.14576283994361219 0.27623109154767328 0 -0.1364455253731246 0.27629250063117472 0 -0.13153175710404549 0.2692865968031225 0 -0.1408354859660037 0.26716772762207092 0 -0.13153175710404549 0.2692865968031225 0 -0.1261899488386756 0.26059405023886989 0 -0.12198092026351499 0.27353291120265472 0 -0.13153175710404549 0.2692865968031225 0 -0.1261899488386756 0.26059405023886989 0 -0.137412856061147 0.25803999099692432 0 -0.1261899488386756 0.26059405023886989 0 -0.12976778397381189 0.25096292900929318 0 -0.12227324942971381 0.24521350853289531 0 -0.1261899488386756 0.26059405023886989 0 -0.12976778397381189 0.25096292900929318 0 -0.137412856061147 0.25803999099692432 0 -0.12976778397381189 0.25096292900929318 0 -0.137412856061147 0.25803999099692432 0 -0.13680763179620051 0.24850911453875629 0 -0.137412856061147 0.25803999099692432 0 -0.13680763179620051 0.24850911453875629 0 -0.14599748894139869 0.24892434473906261 0 -0.13153175710404549 0.2692865968031225 0 -0.137412856061147 0.25803999099692432 0 -0.1408354859660037 0.26716772762207092 0 -0.15127515854631329 0.26211328852275317 0 -0.16340192378364951 0.24750357251422311 0 -0.14599748894139869 0.24892434473906261 0 -0.137412856061147 0.25803999099692432 0 -0.15127515854631329 0.26211328852275317 0 -0.1408354859660037 0.26716772762207092 0 -0.137412856061147 0.25803999099692432 0 -0.15127515854631329 0.26211328852275317 0 -0.14599748894139869 0.24892434473906261 0 -0.16101613283731131 0.27752199103651748 0 -0.15127515854631329 0.26211328852275317 0 -0.14576283994361219 0.27623109154767328 0 -0.16101613283731131 0.27752199103651748 0 -0.14903378997395031 0.28878199221709328 0 -0.14576283994361219 0.27623109154767328 0 -0.15127515854631329 0.26211328852275317 0 -0.14576283994361219 0.27623109154767328 0 -0.1408354859660037 0.26716772762207092 0 -0.1364455253731246 0.27629250063117472 0 -0.14576283994361219 0.27623109154767328 0 -0.1408354859660037 0.26716772762207092 0 -0.1009877922532835 0.27333703173625512 0 -0.1069626107446499 0.27191237425227271 0 -0.1062364020777182 0.29470344165874901 0 -0.1069626107446499 0.27191237425227271 0 -0.1076888194115803 0.24912130684579639 0 -0.1009877922532835 0.27333703173625512 0 -0.083269394733685956 0.25492163177339572 0 -0.1076888194115803 0.24912130684579639 0 -0.1009877922532835 0.27333703173625512 0 -0.1069626107446499 0.27191237425227271 0 -0.1076888194115803 0.24912130684579639 0 -0.1009877922532835 0.27333703173625512 0 -0.1076888194115803 0.24912130684579639 0 -0.1069626107446499 0.27191237425227271 0 -0.11417312619982049 0.2665283648883302 0 -0.1076888194115803 0.24912130684579639 0 -0.1261899488386756 0.26059405023886989 0 -0.11417312619982049 0.2665283648883302 0 -0.12227324942971381 0.24521350853289531 0 -0.11417312619982049 0.2665283648883302 0 -0.1076888194115803 0.24912130684579639 0 -0.1141673783984848 0.23641763639849739 0 -0.11417312619982049 0.2665283648883302 0 -0.1141673783984848 0.23641763639849739 0 -0.1261899488386756 0.26059405023886989 0 -0.11417312619982049 0.2665283648883302 0 -0.12198092026351499 0.27353291120265472 0 -0.1069626107446499 0.27191237425227271 0 -0.11417312619982049 0.2665283648883302 0 -0.1147990267065446 0.27370101070627068 0 -0.11417312619982049 0.2665283648883302 0 -0.1147990267065446 0.27370101070627068 0 -0.12198092026351499 0.27353291120265472 0 -0.1069626107446499 0.27191237425227271 0 -0.1147990267065446 0.27370101070627068 0 -0.116079449618193 0.28283039248182562 0 -0.1147990267065446 0.27370101070627068 0 -0.12198092026351499 0.27353291120265472 0 -0.116079449618193 0.28283039248182562 0 -0.12806027289369609 0.28083185474876932 0 -0.12198092026351499 0.27353291120265472 0 -0.116079449618193 0.28283039248182562 0 -0.12806027289369609 0.28083185474876932 0 -0.12191266252302679 0.2899026683728505 0 -0.116079449618193 0.28283039248182562 0 -0.1069626107446499 0.27191237425227271 0 -0.116079449618193 0.28283039248182562 0 -0.1077314717463496 0.29434695180126691 0 -0.12191266252302679 0.2899026683728505 0 -0.1155635034207398 0.29124026789926882 0 -0.116079449618193 0.28283039248182562 0 -0.12191266252302679 0.2899026683728505 0 -0.12323845491320951 0.29654861032128482 0 -0.1184209652816018 0.29541041874121371 0 -0.12191266252302679 0.2899026683728505 0 -0.1184209652816018 0.29541041874121371 0 -0.1155635034207398 0.29124026789926882 0 -0.1155635034207398 0.29124026789926882 0 -0.116079449618193 0.28283039248182562 0 -0.1077314717463496 0.29434695180126691 0 -0.1155635034207398 0.29124026789926882 0 -0.1138838583257893 0.2984315592012376 0 -0.1077314717463496 0.29434695180126691 0 -0.1184209652816018 0.29541041874121371 0 -0.1155635034207398 0.29124026789926882 0 -0.1138838583257893 0.2984315592012376 0 -0.12739733367773079 0.30987467574664262 0 -0.1224076226257632 0.30316409369634828 0 -0.11467184366031111 0.3057742397299919 0 -0.12739733367773079 0.30987467574664262 0 -0.11467184366031111 0.3057742397299919 0 -0.121709049194444 0.31975547501678508 0 -0.1224076226257632 0.30316409369634828 0 -0.11852454896133501 0.29986578433801531 0 -0.11467184366031111 0.3057742397299919 0 -0.1284364203415489 0.30100662093678487 0 -0.12323845491320951 0.29654861032128482 0 -0.1224076226257632 0.30316409369634828 0 -0.12323845491320951 0.29654861032128482 0 -0.1224076226257632 0.30316409369634828 0 -0.11852454896133501 0.29986578433801531 0 -0.12323845491320951 0.29654861032128482 0 -0.1184209652816018 0.29541041874121371 0 -0.11852454896133501 0.29986578433801531 0 -0.1138838583257893 0.2984315592012376 0 -0.11467184366031111 0.3057742397299919 0 -0.1062364020777182 0.29470344165874901 0 -0.1184209652816018 0.29541041874121371 0 -0.11852454896133501 0.29986578433801531 0 -0.1138838583257893 0.2984315592012376 0 -0.11852454896133501 0.29986578433801531 0 -0.1138838583257893 0.2984315592012376 0 -0.11467184366031111 0.3057742397299919 0 -0.11467184366031111 0.3057742397299919 0 -0.1062364020777182 0.29470344165874901 0 -0.1053639345628696 0.32208464329717201 0 -0.094286765094989927 0.29755275662671471 0 -0.1062364020777182 0.29470344165874901 0 -0.1053639345628696 0.32208464329717201 0 -0.094286765094989927 0.29755275662671471 0 -0.089065302804030813 0.31642172870769331 0 -0.1053639345628696 0.32208464329717201 0 -0.1062364020777182 0.29470344165874901 0 -0.1053639345628696 0.32208464329717201 0 -0.1069626107446499 0.27191237425227271 0 -0.1062364020777182 0.29470344165874901 0 -0.1069626107446499 0.27191237425227271 0 -0.1077314717463496 0.29434695180126691 0 -0.1062364020777182 0.29470344165874901 0 -0.1009877922532835 0.27333703173625512 0 -0.094286765094989927 0.29755275662671471 0 -0.1009877922532835 0.27333703173625512 0 -0.094286765094989927 0.29755275662671471 0 -0.1062364020777182 0.29470344165874901 0 -0.1138838583257893 0.2984315592012376 0 -0.1077314717463496 0.29434695180126691 0 -0.1062364020777182 0.29470344165874901 0 -0.1077314717463496 0.29434695180126691 0 -0.1062364020777182 0.29470344165874901 0 -0.094286765094989927 0.29755275662671471 0 -0.1062364020777182 0.29470344165874901 0 -0.094286765094989927 0.29755275662671471 0 -0.070316529480775089 0.2874626145693448 0 -0.080493831925187873 0.27595366197446147 0 -0.1009877922532835 0.27333703173625512 0 -0.094286765094989927 0.29755275662671471 0 -0.080493831925187873 0.27595366197446147 0 -0.094286765094989927 0.29755275662671471 0 -0.089065302804030813 0.31642172870769331 0 -0.094286765094989927 0.29755275662671471 0 -0.067758068228118515 0.30387835573676758 0 -0.094286765094989927 0.29755275662671471 0 -0.067758068228118515 0.30387835573676758 0 -0.089065302804030813 0.31642172870769331 0 -0.067758068228118515 0.30387835573676758 0 -0.070316529480775089 0.2874626145693448 0 -0.050480641928861078 0.29021085600260299 0 -0.094286765094989927 0.29755275662671471 0 -0.067758068228118515 0.30387835573676758 0 -0.070316529480775089 0.2874626145693448 0 -0.080493831925187873 0.27595366197446147 0 -0.083269394733685956 0.25492163177339572 0 -0.058563340226719163 0.26971744250617768 0 -0.070316529480775089 0.2874626145693448 0 -0.080493831925187873 0.27595366197446147 0 -0.058563340226719163 0.26971744250617768 0 -0.1009877922532835 0.27333703173625512 0 -0.080493831925187873 0.27595366197446147 0 -0.083269394733685956 0.25492163177339572 0 -0.083269394733685956 0.25492163177339572 0 -0.058563340226719163 0.26971744250617768 0 -0.083269394733685956 0.25492163177339572 0 -0.066099543921763954 0.25154844667530768 0 -0.074550653465175754 0.2446864525953652 0 -0.083269394733685956 0.25492163177339572 0 -0.066099543921763954 0.25154844667530768 0 -0.058563340226719163 0.26971744250617768 0 -0.066099543921763954 0.25154844667530768 0 -0.050846139704629277 0.25179692870554921 0 -0.058563340226719163 0.26971744250617768 0 -0.050846139704629277 0.25179692870554921 0 -0.058563340226719163 0.26971744250617768 0 -0.035627366476922988 0.26622356636304939 0 -0.058563340226719163 0.26971744250617768 0 -0.035627366476922988 0.26622356636304939 0 -0.050480641928861078 0.29021085600260299 0 -0.035627366476922988 0.26622356636304939 0 -0.027259591565780679 0.28545165195921851 0 -0.050480641928861078 0.29021085600260299 0 -0.050846139704629277 0.25179692870554921 0 -0.035627366476922988 0.26622356636304939 0 -0.023139987613061779 0.24937707409410681 0 -0.050846139704629277 0.25179692870554921 0 -0.023139987613061779 0.24937707409410681 0 -0.035627366476922988 0.26622356636304939 0 -0.02506738475103135 0.26099975048986868 0 -0.023139987613061779 0.24937707409410681 0 -0.01328981177031908 0.26069934907161879 0 -0.023139987613061779 0.24937707409410681 0 -0.02506738475103135 0.26099975048986868 0 -0.01328981177031908 0.26069934907161879 0 -0.023139987613061779 0.24937707409410681 0 -0.01328981177031908 0.26069934907161879 0 -0.027259591565780679 0.28545165195921851 0 -0.01328981177031908 0.26069934907161879 0 -0.0107427913139472 0.28206205783979371 0 -0.027259591565780679 0.28545165195921851 0 -0.035627366476922988 0.26622356636304939 0 -0.02506738475103135 0.26099975048986868 0 -0.027259591565780679 0.28545165195921851 0 -0.02506738475103135 0.26099975048986868 0 -0.01328981177031908 0.26069934907161879 0 -0.027259591565780679 0.28545165195921851 0 -0.01328981177031908 0.26069934907161879 0 -0.0107427913139472 0.28206205783979371 0 0.0034427418201543052 0.27993256641229641 0 -0.01328981177031908 0.26069934907161879 0 0.0034427418201543052 0.27993256641229641 0 -0.01328981177031908 0.26069934907161879 0 0.005432461206957475 0.27008104065747518 0 0.0034427418201543052 0.27993256641229641 0 -0.0046572426905789758 0.25660830977550991 0 -0.0052839620752209932 0.24651421377050101 0 0.005432461206957475 0.27008104065747518 0 -0.0046572426905789758 0.25660830977550991 0 -0.01328981177031908 0.26069934907161879 0 0.005432461206957475 0.27008104065747518 0 -0.01328981177031908 0.26069934907161879 0 -0.0052839620752209932 0.24651421377050101 0 -0.023139987613061779 0.24937707409410681 0 -0.0046572426905789758 0.25660830977550991 0 -0.01328981177031908 0.26069934907161879 0 -0.0052839620752209932 0.24651421377050101 0 -0.01328981177031908 0.26069934907161879 0 -0.0052839620752209932 0.24651421377050101 0 -0.0089709971350864174 0.30579241992498002 0 -0.0078697945137191361 0.31546547343540748 0 0.010167076674657971 0.29825243278197971 0 -0.0089709971350864174 0.30579241992498002 0 -0.0042868264351340014 0.29199423495856552 0 0.010167076674657971 0.29825243278197971 0 -0.0089709971350864174 0.30579241992498002 0 -0.0042868264351340014 0.29199423495856552 0 -0.015873855478955812 0.29572655435010758 0 -0.0089709971350864174 0.30579241992498002 0 -0.023167181103477489 0.31451076928227489 0 -0.0078697945137191361 0.31546547343540748 0 -0.0042868264351340014 0.29199423495856552 0 -0.001660643000739298 0.28540143448832911 0 -0.0107427913139472 0.28206205783979371 0 -0.0042868264351340014 0.29199423495856552 0 -0.001660643000739298 0.28540143448832911 0 0.0049443039259697008 0.28761687874266101 0 -0.001660643000739298 0.28540143448832911 0 -0.0107427913139472 0.28206205783979371 0 0.0034427418201543052 0.27993256641229641 0 -0.0042868264351340014 0.29199423495856552 0 -0.0107427913139472 0.28206205783979371 0 -0.015873855478955812 0.29572655435010758 0 -0.0107427913139472 0.28206205783979371 0 -0.027259591565780679 0.28545165195921851 0 -0.015873855478955812 0.29572655435010758 0 -0.0089709971350864174 0.30579241992498002 0 -0.015873855478955812 0.29572655435010758 0 -0.028109070944830949 0.31333240706797971 0 -0.0089709971350864174 0.30579241992498002 0 -0.028109070944830949 0.31333240706797971 0 -0.023167181103477489 0.31451076928227489 0 -0.027259591565780679 0.28545165195921851 0 -0.015873855478955812 0.29572655435010758 0 -0.028109070944830949 0.31333240706797971 0 -0.0089709971350864174 0.30579241992498002 0 -0.028109070944830949 0.31333240706797971 0 -0.027259591565780679 0.28545165195921851 0 -0.041229371361246041 0.31020395484681601 0 -0.041229371361246041 0.31020395484681601 0 -0.028109070944830949 0.31333240706797971 0 -0.027259591565780679 0.28545165195921851 0 -0.041229371361246041 0.31020395484681601 0 -0.028109070944830949 0.31333240706797971 0 -0.027259591565780679 0.28545165195921851 0 -0.041229371361246041 0.31020395484681601 0 -0.050480641928861078 0.29021085600260299 0 -0.070316529480775089 0.2874626145693448 0 -0.058563340226719163 0.26971744250617768 0 -0.050480641928861078 0.29021085600260299 0 -0.067758068228118515 0.30387835573676758 0 -0.041229371361246041 0.31020395484681601 0 -0.067758068228118515 0.30387835573676758 0 -0.041229371361246041 0.31020395484681601 0 -0.050480641928861078 0.29021085600260299 0 -0.067758068228118515 0.30387835573676758 0 -0.041229371361246041 0.31020395484681601 0 -0.045555297928913129 0.31786883190573262 0 -0.055976455728951997 0.32431155392832578 0 -0.058748966494106512 0.33233878435159081 0 -0.033309380503912717 0.32390212889349912 0 -0.067758068228118515 0.30387835573676758 0 -0.055976455728951997 0.32431155392832578 0 -0.045555297928913129 0.31786883190573262 0 -0.058748966494106512 0.33233878435159081 0 -0.054821022626484021 0.34904311479027322 0 -0.069530422821966018 0.34408339901692769 0 -0.058748966494106512 0.33233878435159081 0 -0.033038280958823163 0.33663182436836242 0 -0.054821022626484021 0.34904311479027322 0 -0.058748966494106512 0.33233878435159081 0 -0.033038280958823163 0.33663182436836242 0 -0.033309380503912717 0.32390212889349912 0 -0.033038280958823163 0.33663182436836242 0 -0.054821022626484021 0.34904311479027322 0 -0.055976455728951997 0.32431155392832578 0 -0.033309380503912717 0.32390212889349912 0 -0.028109070944830949 0.31333240706797971 0 -0.058748966494106512 0.33233878435159081 0 -0.033309380503912717 0.32390212889349912 0 -0.041229371361246041 0.31020395484681601 0 -0.045555297928913129 0.31786883190573262 0 -0.028109070944830949 0.31333240706797971 0 -0.055976455728951997 0.32431155392832578 0 -0.028109070944830949 0.31333240706797971 0 -0.055976455728951997 0.32431155392832578 0 -0.045555297928913129 0.31786883190573262 0 -0.028109070944830949 0.31333240706797971 0 -0.041229371361246041 0.31020395484681601 0 -0.045555297928913129 0.31786883190573262 0 -0.033309380503912717 0.32390212889349912 0 -0.023167181103477489 0.31451076928227489 0 -0.0078697945137191361 0.31546547343540748 0 -0.033309380503912717 0.32390212889349912 0 -0.028109070944830949 0.31333240706797971 0 -0.023167181103477489 0.31451076928227489 0 -0.033309380503912717 0.32390212889349912 0 -0.017192706755502 0.32992663263382283 0 -0.0078697945137191361 0.31546547343540748 0 -0.033309380503912717 0.32390212889349912 0 -0.0078697945137191361 0.31546547343540748 0 -0.028109070944830949 0.31333240706797971 0 -0.023167181103477489 0.31451076928227489 0 -0.033038280958823163 0.33663182436836242 0 -0.033309380503912717 0.32390212889349912 0 -0.0262608651890728 0.33176352548795041 0 -0.0262608651890728 0.33176352548795041 0 -0.017192706755502 0.32992663263382283 0 -0.0201785136025966 0.34803225829594858 0 -0.033309380503912717 0.32390212889349912 0 -0.0262608651890728 0.33176352548795041 0 -0.017192706755502 0.32992663263382283 0 -0.033038280958823163 0.33663182436836242 0 -0.0262608651890728 0.33176352548795041 0 -0.0201785136025966 0.34803225829594858 0 -0.017192706755502 0.32992663263382283 0 -0.0091175441794758404 0.33993487952236451 0 -0.004262417917405714 0.32802685679016308 0 -0.017192706755502 0.32992663263382283 0 -0.0091175441794758404 0.33993487952236451 0 -0.0201785136025966 0.34803225829594858 0 -0.0091175441794758404 0.33993487952236451 0 4.0509382391099018e-05 0.34942577061310842 0 0.0088051504294338334 0.32822729429521302 0 -0.0091175441794758404 0.33993487952236451 0 -0.004262417917405714 0.32802685679016308 0 0.0088051504294338334 0.32822729429521302 0 -0.004262417917405714 0.32802685679016308 0 -0.0078697945137191361 0.31546547343540748 0 0.0088051504294338334 0.32822729429521302 0 -0.017192706755502 0.32992663263382283 0 -0.004262417917405714 0.32802685679016308 0 -0.0078697945137191361 0.31546547343540748 0 -0.0087241316646523917 0.37062424693100332 0 4.0509382391099018e-05 0.34942577061310842 0 -0.0087241316646523917 0.37062424693100332 0 4.0509382391099018e-05 0.34942577061310842 0 0.0026724101620130801 0.3695972521235823 0 -0.0087241316646523917 0.37062424693100332 0 0.0026724101620130801 0.3695972521235823 0 -0.0087241316646523917 0.37062424693100332 0 -0.0077465772954661768 0.3815284444822295 0 0.0026724101620130801 0.3695972521235823 0 -0.0087241316646523917 0.37062424693100332 0 -0.0201785136025966 0.34803225829594858 0 4.0509382391099018e-05 0.34942577061310842 0 -0.0091175441794758404 0.33993487952236451 0 -0.0201785136025966 0.34803225829594858 0 4.0509382391099018e-05 0.34942577061310842 0 -0.0201785136025966 0.34803225829594858 0 -0.029974918542352839 0.372539253088922 0 -0.036970294345702141 0.35505166168074781 0 -0.033038280958823163 0.33663182436836242 0 -0.0201785136025966 0.34803225829594858 0 -0.036970294345702141 0.35505166168074781 0 -0.0087241316646523917 0.37062424693100332 0 -0.029974918542352839 0.372539253088922 0 -0.0087241316646523917 0.37062424693100332 0 -0.0201785136025966 0.34803225829594858 0 -0.029974918542352839 0.372539253088922 0 -0.029974918542352839 0.372539253088922 0 -0.051225705420053218 0.37445425924684111 0 -0.029974918542352839 0.372539253088922 0 -0.047231887764682803 0.36322498129340608 0 -0.051225705420053218 0.37445425924684111 0 -0.029974918542352839 0.372539253088922 0 -0.036970294345702141 0.35505166168074781 0 -0.047231887764682803 0.36322498129340608 0 -0.033038280958823163 0.33663182436836242 0 -0.036970294345702141 0.35505166168074781 0 -0.054821022626484021 0.34904311479027322 0 -0.036970294345702141 0.35505166168074781 0 -0.054821022626484021 0.34904311479027322 0 -0.047231887764682803 0.36322498129340608 0 -0.054821022626484021 0.34904311479027322 0 -0.047231887764682803 0.36322498129340608 0 -0.063167497888821797 0.36503661766024631 0 -0.047231887764682803 0.36322498129340608 0 -0.051225705420053218 0.37445425924684111 0 -0.063167497888821797 0.36503661766024631 0 -0.051225705420053218 0.37445425924684111 0 -0.063167497888821797 0.36503661766024631 0 -0.072476492297753575 0.37636926540476062 0 -0.063167497888821797 0.36503661766024631 0 -0.072662926932065289 0.37290738182297262 0 -0.074424191822964961 0.36933079879992869 0 -0.063167497888821797 0.36503661766024631 0 -0.072662926932065289 0.37290738182297262 0 -0.072476492297753575 0.37636926540476062 0 -0.063167497888821797 0.36503661766024631 0 -0.074424191822964961 0.36933079879992869 0 -0.076603764294144644 0.36145440521218408 0 -0.074424191822964961 0.36933079879992869 0 -0.063167497888821797 0.36503661766024631 0 -0.076603764294144644 0.36145440521218408 0 -0.074424191822964961 0.36933079879992869 0 -0.072662926932065289 0.37290738182297262 0 -0.073016532645762827 0.37441770362352927 0 -0.074424191822964961 0.36933079879992869 0 -0.073016532645762827 0.37441770362352927 0 -0.074424191822964961 0.36933079879992869 0 -0.072662926932065289 0.37290738182297262 0 -0.073016532645762827 0.37441770362352927 0 -0.072476492297753575 0.37636926540476062 0 -0.072662926932065289 0.37290738182297262 0 -0.073016532645762827 0.37441770362352927 0 -0.074424191822964961 0.36933079879992869 0 -0.09918359075427674 0.3787759648977595 0 -0.073016532645762827 0.37441770362352927 0 -0.074424191822964961 0.36933079879992869 0 -0.09918359075427674 0.3787759648977595 0 -0.076603764294144644 0.36145440521218408 0 -0.074424191822964961 0.36933079879992869 0 -0.090111381913658362 0.36915072589310138 0 -0.076603764294144644 0.36145440521218408 0 -0.090111381913658362 0.36915072589310138 0 -0.08913951655568475 0.35066654522745427 0 -0.074424191822964961 0.36933079879992869 0 -0.090111381913658362 0.36915072589310138 0 -0.09918359075427674 0.3787759648977595 0 -0.076603764294144644 0.36145440521218408 0 -0.090111381913658362 0.36915072589310138 0 -0.076603764294144644 0.36145440521218408 0 -0.083843840513072948 0.33529070078867218 0 -0.076603764294144644 0.36145440521218408 0 -0.08913951655568475 0.35066654522745427 0 -0.083843840513072948 0.33529070078867218 0 -0.054821022626484021 0.34904311479027322 0 -0.063167497888821797 0.36503661766024631 0 -0.076603764294144644 0.36145440521218408 0 -0.054821022626484021 0.34904311479027322 0 -0.076603764294144644 0.36145440521218408 0 -0.069530422821966018 0.34408339901692769 0 -0.054821022626484021 0.34904311479027322 0 -0.076603764294144644 0.36145440521218408 0 -0.076603764294144644 0.36145440521218408 0 -0.069530422821966018 0.34408339901692769 0 -0.083843840513072948 0.33529070078867218 0 -0.055976455728951997 0.32431155392832578 0 -0.058748966494106512 0.33233878435159081 0 -0.083843840513072948 0.33529070078867218 0 -0.055976455728951997 0.32431155392832578 0 -0.083843840513072948 0.33529070078867218 0 -0.058748966494106512 0.33233878435159081 0 -0.069530422821966018 0.34408339901692769 0 -0.083843840513072948 0.33529070078867218 0 -0.067758068228118515 0.30387835573676758 0 -0.055976455728951997 0.32431155392832578 0 -0.074160916818543546 0.3199755847903647 0 -0.055976455728951997 0.32431155392832578 0 -0.074160916818543546 0.3199755847903647 0 -0.083843840513072948 0.33529070078867218 0 -0.067758068228118515 0.30387835573676758 0 -0.074160916818543546 0.3199755847903647 0 -0.089065302804030813 0.31642172870769331 0 -0.089065302804030813 0.31642172870769331 0 -0.083843840513072948 0.33529070078867218 0 -0.074160916818543546 0.3199755847903647 0 -0.089065302804030813 0.31642172870769331 0 -0.083843840513072948 0.33529070078867218 0 -0.089065302804030813 0.31642172870769331 0 -0.083843840513072948 0.33529070078867218 0 -0.094575127450382129 0.32684999767223749 0 -0.083843840513072948 0.33529070078867218 0 -0.090647129009525845 0.3379710493077191 0 -0.094575127450382129 0.32684999767223749 0 -0.08913951655568475 0.35066654522745427 0 -0.083843840513072948 0.33529070078867218 0 -0.090647129009525845 0.3379710493077191 0 -0.083843840513072948 0.33529070078867218 0 -0.090647129009525845 0.3379710493077191 0 -0.1053639345628696 0.32208464329717201 0 -0.094575127450382129 0.32684999767223749 0 -0.10449146704802199 0.34946584493559502 0 -0.1053639345628696 0.32208464329717201 0 -0.10449146704802199 0.34946584493559502 0 -0.090647129009525845 0.3379710493077191 0 -0.094575127450382129 0.32684999767223749 0 -0.10449146704802199 0.34946584493559502 0 -0.089065302804030813 0.31642172870769331 0 -0.1053639345628696 0.32208464329717201 0 -0.094575127450382129 0.32684999767223749 0 -0.13055351923856459 0.32756978446506058 0 -0.121709049194444 0.31975547501678508 0 -0.1205113991465218 0.33608428260493739 0 -0.1053639345628696 0.32208464329717201 0 -0.121709049194444 0.31975547501678508 0 -0.1205113991465218 0.33608428260493739 0 -0.11467184366031111 0.3057742397299919 0 -0.1053639345628696 0.32208464329717201 0 -0.121709049194444 0.31975547501678508 0 -0.1053639345628696 0.32208464329717201 0 -0.1205113991465218 0.33608428260493739 0 -0.10449146704802199 0.34946584493559502 0 -0.1205113991465218 0.33608428260493739 0 -0.12366732740402089 0.35909998192668952 0 -0.10449146704802199 0.34946584493559502 0 -0.12366732740402089 0.35909998192668952 0 -0.10449146704802199 0.34946584493559502 0 -0.1036189995331724 0.37684704657401807 0 -0.12366732740402089 0.35909998192668952 0 -0.1060043397419001 0.37820615694392379 0 -0.12366732740402089 0.35909998192668952 0 -0.1036189995331724 0.37684704657401807 0 -0.1060043397419001 0.37820615694392379 0 -0.12366732740402089 0.35909998192668952 0 -0.1197697415084036 0.37379827614970679 0 -0.1060043397419001 0.37820615694392379 0 -0.10449146704802199 0.34946584493559502 0 -0.1036189995331724 0.37684704657401807 0 -0.090111381913658362 0.36915072589310138 0 -0.10449146704802199 0.34946584493559502 0 -0.1036189995331724 0.37684704657401807 0 -0.090111381913658362 0.36915072589310138 0 -0.09918359075427674 0.3787759648977595 0 -0.1036189995331724 0.37684704657401807 0 -0.090111381913658362 0.36915072589310138 0 -0.1036189995331724 0.37684704657401807 0 -0.090111381913658362 0.36915072589310138 0 -0.08913951655568475 0.35066654522745427 0 -0.10449146704802199 0.34946584493559502 0 -0.08913951655568475 0.35066654522745427 0 -0.090647129009525845 0.3379710493077191 0 -0.10449146704802199 0.34946584493559502 0 -0.1031978656106862 0.39006375969190149 0 -0.11264402829636019 0.39853074591466192 0 -0.10257703788962901 0.40954759000502411 0 -0.095645827043461584 0.40525444114195608 0 -0.1031978656106862 0.39006375969190149 0 -0.10257703788962901 0.40954759000502411 0 -0.1031978656106862 0.39006375969190149 0 -0.10257703788962901 0.40954759000502411 0 -0.09936513521757509 0.3853878300585446 0 -0.09918359075427674 0.3787759648977595 0 -0.1038366207254614 0.38055099348621751 0 -0.09918359075427674 0.3787759648977595 0 -0.1038366207254614 0.38055099348621751 0 -0.09918359075427674 0.3787759648977595 0 -0.1036189995331724 0.37684704657401807 0 -0.1038366207254614 0.38055099348621751 0 -0.1036189995331724 0.37684704657401807 0 -0.1038366207254614 0.38055099348621751 0 -0.1036189995331724 0.37684704657401807 0 -0.1060043397419001 0.37820615694392379 0 -0.1036189995331724 0.37684704657401807 0 -0.1038366207254614 0.38055099348621751 0 -0.1060043397419001 0.37820615694392379 0 -0.1038366207254614 0.38055099348621751 0 -0.1060043397419001 0.37820615694392379 0 -0.1038366207254614 0.38055099348621751 0 -0.1084736988061064 0.3796131392682594 0 -0.1060043397419001 0.37820615694392379 0 -0.1084736988061064 0.3796131392682594 0 -0.1060043397419001 0.37820615694392379 0 -0.1038366207254614 0.38055099348621751 0 -0.1031978656106862 0.39006375969190149 0 -0.09936513521757509 0.3853878300585446 0 -0.1038366207254614 0.38055099348621751 0 -0.1031978656106862 0.39006375969190149 0 -0.1038366207254614 0.38055099348621751 0 -0.1031978656106862 0.39006375969190149 0 -0.1186299983026263 0.38763885918255381 0 -0.09936513521757509 0.3853878300585446 0 -0.1038366207254614 0.38055099348621751 0 -0.1031978656106862 0.39006375969190149 0 -0.1186299983026263 0.38763885918255381 0 -0.1038366207254614 0.38055099348621751 0 -0.12284874768150481 0.38780370173940099 0 -0.1272257738929207 0.3813029750127751 0 -0.1084736988061064 0.3796131392682594 0 -0.1084736988061064 0.3796131392682594 0 -0.12284874768150481 0.38780370173940099 0 -0.1272257738929207 0.3813029750127751 0 -0.1197697415084036 0.37379827614970679 0 -0.1084736988061064 0.3796131392682594 0 -0.1038366207254614 0.38055099348621751 0 -0.1084736988061064 0.3796131392682594 0 -0.12284874768150481 0.38780370173940099 0 -0.1272257738929207 0.3813029750127751 0 -0.1084736988061064 0.3796131392682594 0 -0.12284874768150481 0.38780370173940099 0 -0.1038366207254614 0.38055099348621751 0 -0.1186299983026263 0.38763885918255381 0 -0.12284874768150481 0.38780370173940099 0 -0.1197697415084036 0.37379827614970679 0 -0.1084736988061064 0.3796131392682594 0 -0.1060043397419001 0.37820615694392379 0 -0.1186299983026263 0.38763885918255381 0 -0.12284874768150481 0.38780370173940099 0 -0.12042314955949331 0.39581425981814827 0 -0.1186299983026263 0.38763885918255381 0 -0.12042314955949331 0.39581425981814827 0 -0.11264402829636019 0.39853074591466192 0 -0.1031978656106862 0.39006375969190149 0 -0.1186299983026263 0.38763885918255381 0 -0.11264402829636019 0.39853074591466192 0 -0.11264402829636019 0.39853074591466192 0 -0.1224258287045045 0.40489930085006348 0 -0.1134238523389148 0.41116229303253071 0 -0.12042314955949331 0.39581425981814827 0 -0.11264402829636019 0.39853074591466192 0 -0.1224258287045045 0.40489930085006348 0 -0.13051712024898041 0.40403865912251802 0 -0.12042314955949331 0.39581425981814827 0 -0.1224258287045045 0.40489930085006348 0 -0.1281218478049512 0.41540643358509072 0 -0.1224258287045045 0.40489930085006348 0 -0.1134238523389148 0.41116229303253071 0 -0.11701418025994161 0.42090960170533798 0 -0.1134238523389148 0.41116229303253071 0 -0.1019562101685684 0.42903142031814662 0 -0.1281218478049512 0.41540643358509072 0 -0.11701418025994161 0.42090960170533798 0 -0.1134238523389148 0.41116229303253071 0 -0.1281218478049512 0.41540643358509072 0 -0.11701418025994161 0.42090960170533798 0 -0.1237184839272443 0.42744959587490861 0 -0.11264402829636019 0.39853074591466192 0 -0.1134238523389148 0.41116229303253071 0 -0.10257703788962901 0.40954759000502411 0 -0.11701418025994161 0.42090960170533798 0 -0.1237184839272443 0.42744959587490861 0 -0.1019562101685684 0.42903142031814662 0 -0.1255554655362647 0.43775938910818479 0 -0.1019562101685684 0.42903142031814662 0 -0.11323444475880209 0.43848062023337703 0 -0.1255554655362647 0.43775938910818479 0 -0.1019562101685684 0.42903142031814662 0 -0.1255554655362647 0.43775938910818479 0 -0.1237184839272443 0.42744959587490861 0 -0.1019562101685684 0.42903142031814662 0 -0.1056672085662714 0.43631467688778369 0 -0.1019562101685684 0.42903142031814662 0 -0.11323444475880209 0.43848062023337703 0 -0.1018034157472878 0.43382666459623243 0 -0.1056672085662714 0.43631467688778369 0 -0.1019562101685684 0.42903142031814662 0 -0.1018034157472878 0.43382666459623243 0 -0.1019562101685684 0.42903142031814662 0 -0.1019562101685684 0.42903142031814662 0 -0.088347220429629669 0.42399825991309559 0 -0.1019562101685684 0.42903142031814662 0 -0.094701806760754653 0.43079915685587722 0 -0.088347220429629669 0.42399825991309559 0 -0.1018034157472878 0.43382666459623243 0 -0.096137762513109182 0.43577777795270062 0 -0.1034363442620968 0.44239854764163822 0 -0.1018034157472878 0.43382666459623243 0 -0.1019562101685684 0.42903142031814662 0 -0.094701806760754653 0.43079915685587722 0 -0.1018034157472878 0.43382666459623243 0 -0.094701806760754653 0.43079915685587722 0 -0.096137762513109182 0.43577777795270062 0 -0.1019562101685684 0.42903142031814662 0 -0.10257703788962901 0.40954759000502411 0 -0.088347220429629669 0.42399825991309559 0 -0.095645827043461584 0.40525444114195608 0 -0.10257703788962901 0.40954759000502411 0 -0.088347220429629669 0.42399825991309559 0 -0.1019562101685684 0.42903142031814662 0 -0.10257703788962901 0.40954759000502411 0 -0.1134238523389148 0.41116229303253071 0 -0.1019562101685684 0.42903142031814662 0 -0.10257703788962901 0.40954759000502411 0 -0.084271740310992133 0.42249098086019199 0 -0.072883456549494435 0.40668859984863048 0 -0.07762064230882669 0.39408279082975373 0 -0.095645827043461584 0.40525444114195608 0 -0.088347220429629669 0.42399825991309559 0 -0.084271740310992133 0.42249098086019199 0 -0.095645827043461584 0.40525444114195608 0 -0.088347220429629669 0.42399825991309559 0 -0.084271740310992133 0.42249098086019199 0 -0.07762064230882669 0.39408279082975373 0 -0.095645827043461584 0.40525444114195608 0 -0.084271740310992133 0.42249098086019199 0 -0.07762064230882669 0.39408279082975373 0 -0.086022445690619675 0.42996859900620998 0 -0.071762700469453003 0.42730843843398708 0 -0.080475238585770159 0.44421458459779328 0 -0.094701806760754653 0.43079915685587722 0 -0.096137762513109182 0.43577777795270062 0 -0.086022445690619675 0.42996859900620998 0 -0.096137762513109182 0.43577777795270062 0 -0.086022445690619675 0.42996859900620998 0 -0.094724800104788481 0.44189592166354608 0 -0.094701806760754653 0.43079915685587722 0 -0.086022445690619675 0.42996859900620998 0 -0.088347220429629669 0.42399825991309559 0 -0.086022445690619675 0.42996859900620998 0 -0.088347220429629669 0.42399825991309559 0 -0.086022445690619675 0.42996859900620998 0 -0.088347220429629669 0.42399825991309559 0 -0.084271740310992133 0.42249098086019199 0 -0.088347220429629669 0.42399825991309559 0 -0.084271740310992133 0.42249098086019199 0 -0.086022445690619675 0.42996859900620998 0 -0.084271740310992133 0.42249098086019199 0 -0.071762700469453003 0.42730843843398708 0 -0.086022445690619675 0.42996859900620998 0 -0.084271740310992133 0.42249098086019199 0 -0.086022445690619675 0.42996859900620998 0 -0.080475238585770159 0.44421458459779328 0 -0.071762700469453003 0.42730843843398708 0 -0.061467173784743492 0.41615400616835208 0 -0.055816254217957953 0.43657492230174871 0 -0.071762700469453003 0.42730843843398708 0 -0.055816254217957953 0.43657492230174871 0 -0.080475238585770159 0.44421458459779328 0 -0.062523350226642613 0.414447537669623 0 -0.067118093351518776 0.39573309003495272 0 -0.061467173784743492 0.41615400616835208 0 -0.084271740310992133 0.42249098086019199 0 -0.071762700469453003 0.42730843843398708 0 -0.062523350226642613 0.414447537669623 0 -0.084271740310992133 0.42249098086019199 0 -0.072883456549494435 0.40668859984863048 0 -0.062523350226642613 0.414447537669623 0 -0.084271740310992133 0.42249098086019199 0 -0.062523350226642613 0.414447537669623 0 -0.071762700469453003 0.42730843843398708 0 -0.062523350226642613 0.414447537669623 0 -0.061467173784743492 0.41615400616835208 0 -0.067118093351518776 0.39573309003495272 0 -0.061467173784743492 0.41615400616835208 0 -0.072883456549494435 0.40668859984863048 0 -0.062523350226642613 0.414447537669623 0 -0.067118093351518776 0.39573309003495272 0 -0.067118093351518776 0.39573309003495272 0 -0.07762064230882669 0.39408279082975373 0 -0.072883456549494435 0.40668859984863048 0 -0.067118093351518776 0.39573309003495272 0 -0.07762064230882669 0.39408279082975373 0 -0.095645827043461584 0.40525444114195608 0 -0.1031978656106862 0.39006375969190149 0 -0.07762064230882669 0.39408279082975373 0 -0.1031978656106862 0.39006375969190149 0 -0.07762064230882669 0.39408279082975373 0 -0.09936513521757509 0.3853878300585446 0 -0.1031978656106862 0.39006375969190149 0 -0.07762064230882669 0.39408279082975373 0 -0.09936513521757509 0.3853878300585446 0 -0.07762064230882669 0.39408279082975373 0 -0.072476492297753575 0.37636926540476062 0 -0.09936513521757509 0.3853878300585446 0 -0.09918359075427674 0.3787759648977595 0 -0.072476492297753575 0.37636926540476062 0 -0.09918359075427674 0.3787759648977595 0 -0.072476492297753575 0.37636926540476062 0 -0.073016532645762827 0.37441770362352927 0 -0.09918359075427674 0.3787759648977595 0 -0.072476492297753575 0.37636926540476062 0 -0.067118093351518776 0.39573309003495272 0 -0.072476492297753575 0.37636926540476062 0 -0.058715003214566117 0.38841155642429043 0 -0.067118093351518776 0.39573309003495272 0 -0.072476492297753575 0.37636926540476062 0 -0.07762064230882669 0.39408279082975373 0 -0.072476492297753575 0.37636926540476062 0 -0.067118093351518776 0.39573309003495272 0 -0.07762064230882669 0.39408279082975373 0 -0.072476492297753575 0.37636926540476062 0 -0.073016532645762827 0.37441770362352927 0 -0.072476492297753575 0.37636926540476062 0 -0.051225705420053218 0.37445425924684111 0 -0.072476492297753575 0.37636926540476062 0 -0.058715003214566117 0.38841155642429043 0 -0.051225705420053218 0.37445425924684111 0 -0.072476492297753575 0.37636926540476062 0 -0.051225705420053218 0.37445425924684111 0 -0.058715003214566117 0.38841155642429043 0 -0.048902891940287227 0.38688996694760802 0 -0.067118093351518776 0.39573309003495272 0 -0.058715003214566117 0.38841155642429043 0 -0.047271240992863402 0.39885168960600192 0 -0.067118093351518776 0.39573309003495272 0 -0.047271240992863402 0.39885168960600192 0 -0.049248089838617913 0.4117045419377845 0 -0.067118093351518776 0.39573309003495272 0 -0.047271240992863402 0.39885168960600192 0 -0.058715003214566117 0.38841155642429043 0 -0.047271240992863402 0.39885168960600192 0 -0.058715003214566117 0.38841155642429043 0 -0.048902891940287227 0.38688996694760802 0 -0.047271240992863402 0.39885168960600192 0 -0.047271240992863402 0.39885168960600192 0 -0.033945415747496231 0.40094561927016509 0 -0.047271240992863402 0.39885168960600192 0 -0.033692218446678163 0.41123981871190057 0 -0.047271240992863402 0.39885168960600192 0 -0.033945415747496231 0.40094561927016509 0 -0.038399618133665783 0.3858423625132984 0 -0.033945415747496231 0.40094561927016509 0 -0.038399618133665783 0.3858423625132984 0 -0.030121379294115611 0.38819671792831512 0 -0.047271240992863402 0.39885168960600192 0 -0.033945415747496231 0.40094561927016509 0 -0.033692218446678163 0.41123981871190057 0 -0.029974918542352839 0.372539253088922 0 -0.051225705420053218 0.37445425924684111 0 -0.038399618133665783 0.3858423625132984 0 -0.029974918542352839 0.372539253088922 0 -0.038399618133665783 0.3858423625132984 0 -0.030121379294115611 0.38819671792831512 0 -0.051225705420053218 0.37445425924684111 0 -0.048902891940287227 0.38688996694760802 0 -0.038399618133665783 0.3858423625132984 0 -0.048902891940287227 0.38688996694760802 0 -0.047271240992863402 0.39885168960600192 0 -0.038399618133665783 0.3858423625132984 0 -0.029974918542352839 0.372539253088922 0 -0.030121379294115611 0.38819671792831512 0 -0.018165564752948379 0.39345963684087409 0 -0.0087241316646523917 0.37062424693100332 0 -0.029974918542352839 0.372539253088922 0 -0.018165564752948379 0.39345963684087409 0 -0.018165564752948379 0.39345963684087409 0 -0.027756004896898799 0.41665542057902583 0 -0.033945415747496231 0.40094561927016509 0 -0.018165564752948379 0.39345963684087409 0 -0.033692218446678163 0.41123981871190057 0 -0.018165564752948379 0.39345963684087409 0 -0.033692218446678163 0.41123981871190057 0 -0.033945415747496231 0.40094561927016509 0 -0.030121379294115611 0.38819671792831512 0 -0.018165564752948379 0.39345963684087409 0 -0.018165564752948379 0.39345963684087409 0 -0.0092108586508279754 0.4106309113407618 0 0.00080831168534120645 0.3943864162940891 0 -0.0092108586508279754 0.4106309113407618 0 0.005058598613043204 0.40980309247480551 0 0.00080831168534120645 0.3943864162940891 0 -0.0087241316646523917 0.37062424693100332 0 -0.018165564752948379 0.39345963684087409 0 -0.0087241316646523917 0.37062424693100332 0 -0.018165564752948379 0.39345963684087409 0 -0.0077465772954661768 0.3815284444822295 0 -0.018165564752948379 0.39345963684087409 0 -0.0077465772954661768 0.3815284444822295 0 0.00080831168534120645 0.3943864162940891 0 -0.0077465772954661768 0.3815284444822295 0 0.0026724101620130801 0.3695972521235823 0 -0.018165564752948379 0.39345963684087409 0 -0.0077465772954661768 0.3815284444822295 0 -0.01415625225844569 0.42906246172800411 0 -0.00055649961999283334 0.44146950287698272 0 0.0032960192925871388 0.42358955289276901 0 -0.01415625225844569 0.42906246172800411 0 -0.00055649961999283334 0.44146950287698272 0 -0.0092108586508279754 0.4106309113407618 0 0.005058598613043204 0.40980309247480551 0 0.0032960192925871388 0.42358955289276901 0 -0.01415625225844569 0.42906246172800411 0 -0.0092108586508279754 0.4106309113407618 0 0.0032960192925871388 0.42358955289276901 0 -0.018165564752948379 0.39345963684087409 0 -0.0092108586508279754 0.4106309113407618 0 -0.027756004896898799 0.41665542057902583 0 -0.018165564752948379 0.39345963684087409 0 -0.027756004896898799 0.41665542057902583 0 -0.033692218446678163 0.41123981871190057 0 -0.01415625225844569 0.42906246172800411 0 -0.0092108586508279754 0.4106309113407618 0 -0.027756004896898799 0.41665542057902583 0 -0.027756004896898799 0.41665542057902583 0 -0.033692218446678163 0.41123981871190057 0 -0.027756004896898799 0.41665542057902583 0 -0.034232057362999058 0.43231863417775779 0 -0.01415625225844569 0.42906246172800411 0 -0.027756004896898799 0.41665542057902583 0 -0.034232057362999058 0.43231863417775779 0 -0.01415625225844569 0.42906246172800411 0 -0.034232057362999058 0.43231863417775779 0 -0.026941326141506541 0.44403181384670648 0 -0.01415625225844569 0.42906246172800411 0 -0.027756004896898799 0.41665542057902583 0 -0.034232057362999058 0.43231863417775779 0 -0.042204322929024353 0.42958553368158592 0 -0.040708109829098692 0.44798184777649008 0 -0.027756004896898799 0.41665542057902583 0 -0.034232057362999058 0.43231863417775779 0 -0.036553103864872483 0.42396137443120779 0 -0.036553103864872483 0.42396137443120779 0 -0.044754236332315719 0.4239073705068267 0 -0.035688890885191213 0.41894099605724022 0 -0.034232057362999058 0.43231863417775779 0 -0.036553103864872483 0.42396137443120779 0 -0.042204322929024353 0.42958553368158592 0 -0.036553103864872483 0.42396137443120779 0 -0.044754236332315719 0.4239073705068267 0 -0.042204322929024353 0.42958553368158592 0 -0.044754236332315719 0.4239073705068267 0 -0.033692218446678163 0.41123981871190057 0 -0.035688890885191213 0.41894099605724022 0 -0.027756004896898799 0.41665542057902583 0 -0.033692218446678163 0.41123981871190057 0 -0.035688890885191213 0.41894099605724022 0 -0.027756004896898799 0.41665542057902583 0 -0.036553103864872483 0.42396137443120779 0 -0.035688890885191213 0.41894099605724022 0 -0.044754236332315719 0.4239073705068267 0 -0.033692218446678163 0.41123981871190057 0 -0.044754236332315719 0.4239073705068267 0 -0.033692218446678163 0.41123981871190057 0 -0.049248089838617913 0.4117045419377845 0 -0.047271240992863402 0.39885168960600192 0 -0.033692218446678163 0.41123981871190057 0 -0.049248089838617913 0.4117045419377845 0 -0.067118093351518776 0.39573309003495272 0 -0.049248089838617913 0.4117045419377845 0 -0.061467173784743492 0.41615400616835208 0 -0.044754236332315719 0.4239073705068267 0 -0.049248089838617913 0.4117045419377845 0 -0.061467173784743492 0.41615400616835208 0 -0.044754236332315719 0.4239073705068267 0 -0.061467173784743492 0.41615400616835208 0 -0.055816254217957953 0.43657492230174871 0 -0.061467173784743492 0.41615400616835208 0 -0.055816254217957953 0.43657492230174871 0 -0.044754236332315719 0.4239073705068267 0 -0.042204322929024353 0.42958553368158592 0 -0.055816254217957953 0.43657492230174871 0 -0.044754236332315719 0.4239073705068267 0 -0.055816254217957953 0.43657492230174871 0 -0.055816254217957953 0.43657492230174871 0 -0.047867797305171281 0.46529852561765928 0 -0.055816254217957953 0.43657492230174871 0 -0.047867797305171281 0.46529852561765928 0 -0.040708109829098692 0.44798184777649008 0 -0.055816254217957953 0.43657492230174871 0 -0.061966982562847661 0.46413155409137941 0 -0.047867797305171281 0.46529852561765928 0 -0.035005792570602261 0.45522635362800601 0 -0.02914444848156985 0.47142484376693111 0 -0.038592733879623663 0.47399092388824582 0 -0.047867797305171281 0.46529852561765928 0 -0.040708109829098692 0.44798184777649008 0 -0.038592733879623663 0.47399092388824582 0 -0.040708109829098692 0.44798184777649008 0 -0.038592733879623663 0.47399092388824582 0 -0.035005792570602261 0.45522635362800601 0 -0.040708109829098692 0.44798184777649008 0 -0.038592733879623663 0.47399092388824582 0 -0.047867797305171281 0.46529852561765928 0 -0.040708109829098692 0.44798184777649008 0 -0.034232057362999058 0.43231863417775779 0 -0.040708109829098692 0.44798184777649008 0 -0.026941326141506541 0.44403181384670648 0 -0.042204322929024353 0.42958553368158592 0 -0.040708109829098692 0.44798184777649008 0 -0.042204322929024353 0.42958553368158592 0 -0.055816254217957953 0.43657492230174871 0 -0.040708109829098692 0.44798184777649008 0 -0.034232057362999058 0.43231863417775779 0 -0.040708109829098692 0.44798184777649008 0 -0.035005792570602261 0.45522635362800601 0 -0.040708109829098692 0.44798184777649008 0 -0.026941326141506541 0.44403181384670648 0 -0.01415625225844569 0.42906246172800411 0 -0.026941326141506541 0.44403181384670648 0 -0.01325276158728704 0.44416234293388918 0 -0.026941326141506541 0.44403181384670648 0 -0.019056759228836609 0.4513376328365839 0 -0.01325276158728704 0.44416234293388918 0 -0.026941326141506541 0.44403181384670648 0 -0.019056759228836609 0.4513376328365839 0 -0.02438142198830209 0.4534012332451548 0 -0.035005792570602261 0.45522635362800601 0 -0.026941326141506541 0.44403181384670648 0 -0.02438142198830209 0.4534012332451548 0 -0.035005792570602261 0.45522635362800601 0 -0.017826195212627381 0.46034771022460969 0 -0.016213786387321519 0.47113925917072719 0 -0.035005792570602261 0.45522635362800601 0 -0.016213786387321519 0.47113925917072719 0 -0.035005792570602261 0.45522635362800601 0 -0.016213786387321519 0.47113925917072719 0 -0.02914444848156985 0.47142484376693111 0 -0.035005792570602261 0.45522635362800601 0 -0.02438142198830209 0.4534012332451548 0 -0.017826195212627381 0.46034771022460969 0 -0.019056759228836609 0.4513376328365839 0 -0.02438142198830209 0.4534012332451548 0 -0.017826195212627381 0.46034771022460969 0 -0.019056759228836609 0.4513376328365839 0 -0.017826195212627381 0.46034771022460969 0 -0.011316292049790211 0.45397937189937537 0 -0.017826195212627381 0.46034771022460969 0 -0.011316292049790211 0.45397937189937537 0 -0.0084963778050106287 0.4616726172862638 0 -0.0084963778050106287 0.4616726172862638 0 -0.0043479113537027896 0.47213461157433478 0 -0.016213786387321519 0.47113925917072719 0 -0.017826195212627381 0.46034771022460969 0 -0.0084963778050106287 0.4616726172862638 0 -0.016213786387321519 0.47113925917072719 0 -0.0084963778050106287 0.4616726172862638 0 -0.0043479113537027896 0.47213461157433478 0 0.00474029898156135 0.46867440512690051 0 -0.011316292049790211 0.45397937189937537 0 -0.0084963778050106287 0.4616726172862638 0 -0.0034087120612929442 0.45056895297779281 0 -0.0084963778050106287 0.4616726172862638 0 -0.0034087120612929442 0.45056895297779281 0 0.0039172354096816339 0.45918515846397029 0 -0.0034087120612929442 0.45056895297779281 0 -0.00055649961999283334 0.44146950287698272 0 -0.01325276158728704 0.44416234293388918 0 -0.01415625225844569 0.42906246172800411 0 -0.00055649961999283334 0.44146950287698272 0 -0.01325276158728704 0.44416234293388918 0 -0.019056759228836609 0.4513376328365839 0 -0.011316292049790211 0.45397937189937537 0 -0.01325276158728704 0.44416234293388918 0 -0.011316292049790211 0.45397937189937537 0 -0.0034087120612929442 0.45056895297779281 0 -0.01325276158728704 0.44416234293388918 0 -0.01491828294746167 0.48341313180646112 0 0.0025782197959596351 0.48705216471344781 0 -0.0093043341943110924 0.5 0 -0.01491828294746167 0.48341313180646112 0 0.0025782197959596351 0.48705216471344781 0 -0.016213786387321519 0.47113925917072719 0 0.0025782197959596351 0.48705216471344781 0 -0.01491828294746167 0.48341313180646112 0 -0.016213786387321519 0.47113925917072719 0 0.0025782197959596351 0.48705216471344781 0 -0.0043479113537027896 0.47213461157433478 0 -0.016213786387321519 0.47113925917072719 0 0.0025782197959596351 0.48705216471344781 0 -0.01491828294746167 0.48341313180646112 0 -0.032414785690883137 0.47977409889947498 0 -0.01491828294746167 0.48341313180646112 0 -0.02317282587680905 0.47643783341089863 0 -0.032414785690883137 0.47977409889947498 0 -0.01491828294746167 0.48341313180646112 0 -0.016213786387321519 0.47113925917072719 0 -0.02317282587680905 0.47643783341089863 0 -0.016213786387321519 0.47113925917072719 0 -0.02317282587680905 0.47643783341089863 0 -0.02914444848156985 0.47142484376693111 0 -0.02317282587680905 0.47643783341089863 0 -0.02914444848156985 0.47142484376693111 0 -0.032414785690883137 0.47977409889947498 0 -0.023278690190701001 0.49079680767648431 0 -0.036477357930147961 0.50000000000000133 0 -0.032414785690883137 0.47977409889947498 0 -0.0093043341943110924 0.5 0 -0.023278690190701001 0.49079680767648431 0 -0.036477357930147961 0.50000000000000133 0 -0.0093043341943110924 0.5 0 -0.01491828294746167 0.48341313180646112 0 -0.023278690190701001 0.49079680767648431 0 -0.01491828294746167 0.48341313180646112 0 -0.023278690190701001 0.49079680767648431 0 -0.032414785690883137 0.47977409889947498 0 -0.036477357930147961 0.50000000000000133 0 -0.038592733879623663 0.47399092388824582 0 -0.036477357930147961 0.50000000000000133 0 -0.038592733879623663 0.47399092388824582 0 -0.032414785690883137 0.47977409889947498 0 -0.038265131131809647 0.50000000000000444 0 -0.043066464218490128 0.48264926280883169 0 -0.038265131131809647 0.50000000000000444 0 -0.036477357930147961 0.50000000000000133 0 -0.043066464218490128 0.48264926280883169 0 -0.036477357930147961 0.50000000000000133 0 -0.038592733879623663 0.47399092388824582 0 -0.043066464218490128 0.48264926280883169 0 -0.038265131131809647 0.50000000000000444 0 -0.043066464218490128 0.48264926280883169 0 -0.050933415386163361 0.49176596557829699 0 -0.047867797305171281 0.46529852561765928 0 -0.043066464218490128 0.48264926280883169 0 -0.047867797305171281 0.46529852561765928 0 -0.038592733879623663 0.47399092388824582 0 -0.043066464218490128 0.48264926280883169 0 -0.02914444848156985 0.47142484376693111 0 -0.038592733879623663 0.47399092388824582 0 -0.032414785690883137 0.47977409889947498 0 -0.047867797305171281 0.46529852561765928 0 -0.043066464218490128 0.48264926280883169 0 -0.054150059145496907 0.48049303023343448 0 -0.061966982562847661 0.46413155409137941 0 -0.054150059145496907 0.48049303023343448 0 -0.067680176233372386 0.4770740525192938 0 -0.061966982562847661 0.46413155409137941 0 -0.047867797305171281 0.46529852561765928 0 -0.054150059145496907 0.48049303023343448 0 -0.047867797305171281 0.46529852561765928 0 -0.054150059145496907 0.48049303023343448 0 -0.054150059145496907 0.48049303023343448 0 -0.060432320985821672 0.49568753484921008 0 -0.067680176233372386 0.4770740525192938 0 -0.038265131131809647 0.50000000000000444 0 -0.050933415386163361 0.49176596557829699 0 -0.058753101449195218 0.50000000000000289 0 -0.043066464218490128 0.48264926280883169 0 -0.054150059145496907 0.48049303023343448 0 -0.050933415386163361 0.49176596557829699 0 -0.054150059145496907 0.48049303023343448 0 -0.050933415386163361 0.49176596557829699 0 -0.060432320985821672 0.49568753484921008 0 -0.054150059145496907 0.48049303023343448 0 -0.060432320985821672 0.49568753484921008 0 -0.050933415386163361 0.49176596557829699 0 -0.060432320985821672 0.49568753484921008 0 -0.058753101449195218 0.50000000000000289 0 -0.060432320985821672 0.49568753484921008 0 -0.058753101449195218 0.50000000000000289 0 -0.060432320985821672 0.49568753484921008 0 -0.062215336354835678 0.49999999999999822 0 -0.058753101449195218 0.50000000000000289 0 -0.060432320985821672 0.49568753484921008 0 -0.062215336354835678 0.49999999999999822 0 -0.060432320985821672 0.49568753484921008 0 -0.074462151081411396 0.49241164682468719 0 -0.067680176233372386 0.4770740525192938 0 -0.060432320985821672 0.49568753484921008 0 -0.062215336354835678 0.49999999999999822 0 -0.074462151081411396 0.49241164682468719 0 -0.062215336354835678 0.49999999999999822 0 -0.074462151081411396 0.49241164682468719 0 -0.08670896580798515 0.5 0 -0.060432320985821672 0.49568753484921008 0 -0.067680176233372386 0.4770740525192938 0 -0.074462151081411396 0.49241164682468719 0 -0.08670896580798515 0.5 0 -0.093065313371028441 0.47923028509468529 0 -0.093065313371028441 0.47923028509468529 0 -0.067680176233372386 0.4770740525192938 0 -0.074928031480921226 0.4584605701893768 0 -0.074462151081411396 0.49241164682468719 0 -0.093065313371028441 0.47923028509468529 0 -0.067680176233372386 0.4770740525192938 0 -0.093065313371028441 0.47923028509468529 0 -0.074928031480921226 0.4584605701893768 0 -0.061966982562847661 0.46413155409137941 0 -0.067680176233372386 0.4770740525192938 0 -0.074928031480921226 0.4584605701893768 0 -0.067680176233372386 0.4770740525192938 0 -0.074928031480921226 0.4584605701893768 0 -0.055816254217957953 0.43657492230174871 0 -0.074928031480921226 0.4584605701893768 0 -0.080475238585770159 0.44421458459779328 0 -0.055816254217957953 0.43657492230174871 0 -0.074928031480921226 0.4584605701893768 0 -0.055816254217957953 0.43657492230174871 0 -0.061966982562847661 0.46413155409137941 0 -0.074928031480921226 0.4584605701893768 0 -0.074928031480921226 0.4584605701893768 0 -0.080475238585770159 0.44421458459779328 0 -0.086022445690619675 0.42996859900620998 0 -0.080475238585770159 0.44421458459779328 0 -0.091187699860285673 0.45203044833690209 0 -0.086022445690619675 0.42996859900620998 0 -0.091187699860285673 0.45203044833690209 0 -0.086022445690619675 0.42996859900620998 0 -0.091187699860285673 0.45203044833690209 0 -0.094724800104788481 0.44189592166354608 0 -0.074928031480921226 0.4584605701893768 0 -0.080475238585770159 0.44421458459779328 0 -0.091187699860285673 0.45203044833690209 0 -0.074928031480921226 0.4584605701893768 0 -0.091187699860285673 0.45203044833690209 0 -0.09907348618995257 0.46061033851179217 0 -0.093065313371028441 0.47923028509468529 0 -0.074928031480921226 0.4584605701893768 0 -0.09907348618995257 0.46061033851179217 0 -0.1084639447411225 0.46751102178586679 0 -0.09907348618995257 0.46061033851179217 0 -0.10908123536408371 0.45124353451418842 0 -0.091187699860285673 0.45203044833690209 0 -0.09907348618995257 0.46061033851179217 0 -0.099500713156241427 0.44963575813361339 0 -0.09907348618995257 0.46061033851179217 0 -0.099500713156241427 0.44963575813361339 0 -0.10908123536408371 0.45124353451418842 0 -0.096137762513109182 0.43577777795270062 0 -0.094724800104788481 0.44189592166354608 0 -0.1034363442620968 0.44239854764163822 0 -0.094724800104788481 0.44189592166354608 0 -0.099500713156241427 0.44963575813361339 0 -0.1034363442620968 0.44239854764163822 0 -0.091187699860285673 0.45203044833690209 0 -0.094724800104788481 0.44189592166354608 0 -0.099500713156241427 0.44963575813361339 0 -0.099500713156241427 0.44963575813361339 0 -0.10908123536408371 0.45124353451418842 0 -0.1034363442620968 0.44239854764163822 0 -0.1056672085662714 0.43631467688778369 0 -0.1034363442620968 0.44239854764163822 0 -0.11323444475880209 0.43848062023337703 0 -0.1018034157472878 0.43382666459623243 0 -0.1056672085662714 0.43631467688778369 0 -0.1034363442620968 0.44239854764163822 0 -0.10908123536408371 0.45124353451418842 0 -0.1034363442620968 0.44239854764163822 0 -0.11323444475880209 0.43848062023337703 0 -0.10908123536408371 0.45124353451418842 0 -0.11323444475880209 0.43848062023337703 0 -0.12062620791983179 0.44663543365021341 0 -0.12835752724613081 0.44779950626399551 0 -0.12062620791983179 0.44663543365021341 0 -0.1233130978899409 0.45773094234799888 0 -0.10908123536408371 0.45124353451418842 0 -0.12062620791983179 0.44663543365021341 0 -0.1233130978899409 0.45773094234799888 0 -0.1255554655362647 0.43775938910818479 0 -0.12835752724613081 0.44779950626399551 0 -0.12062620791983179 0.44663543365021341 0 -0.1255554655362647 0.43775938910818479 0 -0.11323444475880209 0.43848062023337703 0 -0.12062620791983179 0.44663543365021341 0 -0.1084639447411225 0.46751102178586679 0 -0.1233130978899409 0.45773094234799888 0 -0.1211414063130591 0.47997814940774242 0 -0.1084639447411225 0.46751102178586679 0 -0.10908123536408371 0.45124353451418842 0 -0.1233130978899409 0.45773094234799888 0 -0.13480283873162399 0.5 0 -0.1211414063130591 0.47997814940774242 0 -0.1112025952611347 0.49999999999999478 0 -0.08670896580798515 0.5 0 -0.093065313371028441 0.47923028509468529 0 -0.1112025952611347 0.49999999999999478 0 -0.093065313371028441 0.47923028509468529 0 -0.1112025952611347 0.49999999999999478 0 -0.093065313371028441 0.47923028509468529 0 -0.1211414063130591 0.47997814940774242 0 -0.1112025952611347 0.49999999999999478 0 -0.093065313371028441 0.47923028509468529 0 -0.1084639447411225 0.46751102178586679 0 -0.1211414063130591 0.47997814940774242 0 -0.093065313371028441 0.47923028509468529 0 -0.1084639447411225 0.46751102178586679 0 -0.09907348618995257 0.46061033851179217 0 -0.16471675286475379 0.08637938673542947 0 -0.1665073998901016 0.065944118335332896 0 -0.14825080120885409 0.077512696039309992 0 -0.16471675286475379 0.08637938673542947 0 -0.1665073998901016 0.065944118335332896 0 -0.1848979993769562 0.075289326912078638 0 -0.1665073998901016 0.065944118335332896 0 -0.1848979993769562 0.075289326912078638 0 -0.1820606235460312 0.055495869272145837 0 -0.16471675286475379 0.08637938673542947 0 -0.1848979993769562 0.075289326912078638 0 -0.18151238797247579 0.096840368637884477 0 -0.18151238797247579 0.096840368637884477 0 -0.1783278299431702 0.113207025524323 0 -0.1669318592203354 0.1021025205197414 0 -0.18151238797247579 0.096840368637884477 0 -0.1783278299431702 0.113207025524323 0 -0.1989263106482495 0.11412574373471809 0 -0.1783278299431702 0.113207025524323 0 -0.16120310185971101 0.116311255482486 0 -0.17931008951358099 0.1299347712311513 0 -0.1783278299431702 0.113207025524323 0 -0.1989263106482495 0.11412574373471809 0 -0.17931008951358099 0.1299347712311513 0 -0.1783278299431702 0.113207025524323 0 -0.16120310185971101 0.116311255482486 0 -0.1669318592203354 0.1021025205197414 0 -0.16471675286475379 0.08637938673542947 0 -0.18151238797247579 0.096840368637884477 0 -0.1669318592203354 0.1021025205197414 0 -0.16120310185971101 0.116311255482486 0 -0.1669318592203354 0.1021025205197414 0 -0.1495153060974706 0.098721362091399451 0 -0.16471675286475379 0.08637938673542947 0 -0.1669318592203354 0.1021025205197414 0 -0.1495153060974706 0.098721362091399451 0 -0.16120310185971101 0.116311255482486 0 -0.1495153060974706 0.098721362091399451 0 -0.14217304248940249 0.1115350136177016 0 -0.16120310185971101 0.116311255482486 0 -0.14499402368131789 0.1243778778869043 0 -0.14217304248940249 0.1115350136177016 0 -0.14499402368131789 0.1243778778869043 0 -0.12696926159011401 0.11688853919367979 0 -0.12851164379040581 0.131950320149015 0 -0.14499402368131789 0.1243778778869043 0 -0.14217304248940249 0.1115350136177016 0 -0.12696926159011401 0.11688853919367979 0 -0.14217304248940249 0.1115350136177016 0 -0.12696926159011401 0.11688853919367979 0 -0.13014376881308221 0.103448624029411 0 -0.12696926159011401 0.11688853919367979 0 -0.13014376881308221 0.103448624029411 0 -0.11838927439815029 0.11051416995688509 0 -0.12696926159011401 0.11688853919367979 0 -0.12851164379040581 0.131950320149015 0 -0.12060300057831359 0.1253336184863498 0 -0.1495153060974706 0.098721362091399451 0 -0.13014376881308221 0.103448624029411 0 -0.13405845092167301 0.088593883612027344 0 -0.1495153060974706 0.098721362091399451 0 -0.14217304248940249 0.1115350136177016 0 -0.13014376881308221 0.103448624029411 0 -0.13014376881308221 0.103448624029411 0 -0.13405845092167301 0.088593883612027344 0 -0.12247351799286969 0.094978656904516456 0 -0.13405845092167301 0.088593883612027344 0 -0.14825080120885409 0.077512696039309992 0 -0.12894820963791109 0.071549159605543894 0 -0.13405845092167301 0.088593883612027344 0 -0.11847927161111441 0.083226311160254668 0 -0.12247351799286969 0.094978656904516456 0 -0.13405845092167301 0.088593883612027344 0 -0.12894820963791109 0.071549159605543894 0 -0.11847927161111441 0.083226311160254668 0 -0.1495153060974706 0.098721362091399451 0 -0.13405845092167301 0.088593883612027344 0 -0.14825080120885409 0.077512696039309992 0 -0.16471675286475379 0.08637938673542947 0 -0.1495153060974706 0.098721362091399451 0 -0.14825080120885409 0.077512696039309992 0 -0.1665073998901016 0.065944118335332896 0 -0.14825080120885409 0.077512696039309992 0 -0.1446679350515673 0.055123107781829918 0 -0.14825080120885409 0.077512696039309992 0 -0.12894820963791109 0.071549159605543894 0 -0.1446679350515673 0.055123107781829918 0 -0.13112644818408389 0.03324826071597238 0 -0.1446679350515673 0.055123107781829918 0 -0.1204793428039985 0.055319963820883097 0 -0.12894820963791109 0.071549159605543894 0 -0.1446679350515673 0.055123107781829918 0 -0.1204793428039985 0.055319963820883097 0 -0.13112644818408389 0.03324826071597238 0 -0.15293783449639439 0.036059903257998328 0 -0.1446679350515673 0.055123107781829918 0 -0.15293783449639439 0.036059903257998328 0 -0.1446679350515673 0.055123107781829918 0 -0.15971559756169201 0.048999668793796518 0 -0.13112644818408389 0.03324826071597238 0 -0.15293783449639439 0.036059903257998328 0 -0.12716660979733599 0.0095071604966818855 0 -0.15390830796439009 0.0013171661340907719 0 -0.13112644818408389 0.03324826071597238 0 -0.12716660979733599 0.0095071604966818855 0 -0.14856470443765851 0.020252033020570399 0 -0.13112644818408389 0.03324826071597238 0 -0.15293783449639439 0.036059903257998328 0 -0.14856470443765851 0.020252033020570399 0 -0.15293783449639439 0.036059903257998328 0 -0.14856470443765851 0.020252033020570399 0 -0.16413518290830889 0.029284566721767279 0 -0.12716660979733599 0.0095071604966818855 0 -0.14856470443765851 0.020252033020570399 0 -0.15390830796439009 0.0013171661340907719 0 -0.14856470443765851 0.020252033020570399 0 -0.15390830796439009 0.0013171661340907719 0 -0.1654937449390412 0.016267650579852411 0 -0.17170444415764949 -0.0041331330274716662 0 -0.15390830796439009 0.0013171661340907719 0 -0.1654937449390412 0.016267650579852411 0 -0.15390830796439009 0.0013171661340907719 0 -0.1654937449390412 0.016267650579852411 0 -0.14856470443765851 0.020252033020570399 0 -0.1654937449390412 0.016267650579852411 0 -0.16413518290830889 0.029284566721767279 0 -0.1654937449390412 0.016267650579852411 0 -0.16413518290830889 0.029284566721767279 0 -0.17707918191369079 0.031218135025615251 0 -0.1654937449390412 0.016267650579852411 0 -0.17707918191369079 0.031218135025615251 0 -0.17707918191369079 0.031218135025615251 0 -0.18708279199497591 0.02968959259615666 0 -0.1832898811322998 0.01081735141828993 0 -0.17707918191369079 0.031218135025615251 0 -0.1832898811322998 0.01081735141828993 0 -0.1654937449390412 0.016267650579852411 0 -0.17707918191369079 0.031218135025615251 0 -0.1832898811322998 0.01081735141828993 0 -0.18950058035090861 -0.0095834321890353822 0 -0.1832898811322998 0.01081735141828993 0 -0.17170444415764949 -0.0041331330274716662 0 -0.1654937449390412 0.016267650579852411 0 -0.1832898811322998 0.01081735141828993 0 -0.1665073998901016 0.065944118335332896 0 -0.15971559756169201 0.048999668793796518 0 -0.17474922080870481 0.038871545800024977 0 -0.1665073998901016 0.065944118335332896 0 -0.1446679350515673 0.055123107781829918 0 -0.15971559756169201 0.048999668793796518 0 -0.1665073998901016 0.065944118335332896 0 -0.17474922080870481 0.038871545800024977 0 -0.15293783449639439 0.036059903257998328 0 -0.16413518290830889 0.029284566721767279 0 -0.17474922080870481 0.038871545800024977 0 -0.15293783449639439 0.036059903257998328 0 -0.15971559756169201 0.048999668793796518 0 -0.17474922080870481 0.038871545800024977 0 -0.15293783449639439 0.036059903257998328 0 -0.17474922080870481 0.038871545800024977 0 -0.17474922080870481 0.038871545800024977 0 -0.1873735127567864 0.040498906656227518 0 -0.1820606235460312 0.055495869272145837 0 -0.16413518290830889 0.029284566721767279 0 -0.17707918191369079 0.031218135025615251 0 -0.17474922080870481 0.038871545800024977 0 -0.17707918191369079 0.031218135025615251 0 -0.17474922080870481 0.038871545800024977 0 -0.17707918191369079 0.031218135025615251 0 -0.17474922080870481 0.038871545800024977 0 -0.1873735127567864 0.040498906656227518 0 -0.17707918191369079 0.031218135025615251 0 -0.18708279199497591 0.02968959259615666 0 -0.1873735127567864 0.040498906656227518 0 -0.17474922080870481 0.038871545800024977 0 -0.1873735127567864 0.040498906656227518 0 -0.1665073998901016 0.065944118335332896 0 -0.17474922080870481 0.038871545800024977 0 -0.1820606235460312 0.055495869272145837 0 -0.1848979993769562 0.075289326912078638 0 -0.1820606235460312 0.055495869272145837 0 -0.20057681625268431 0.056626203652507319 0 -0.1873735127567864 0.040498906656227518 0 -0.1820606235460312 0.055495869272145837 0 -0.20057681625268431 0.056626203652507319 0 -0.1873735127567864 0.040498906656227518 0 -0.20057681625268431 0.056626203652507319 0 -0.20087952003994611 0.036707216442191618 0 -0.18708279199497591 0.02968959259615666 0 -0.1873735127567864 0.040498906656227518 0 -0.20087952003994611 0.036707216442191618 0 -0.20057681625268431 0.056626203652507319 0 -0.20087952003994611 0.036707216442191618 0 -0.21994966047120609 0.043343929081465601 0 -0.20087952003994611 0.036707216442191618 0 -0.21286878928494571 0.025235630143771171 0 -0.21994966047120609 0.043343929081465601 0 -0.20057681625268431 0.056626203652507319 0 -0.21994966047120609 0.043343929081465601 0 -0.22286783113552319 0.064357037387919369 0 -0.18950058035090861 -0.0095834321890353822 0 -0.1832898811322998 0.01081735141828993 0 -0.20518915555726081 0.0063160521339462369 0 -0.1832898811322998 0.01081735141828993 0 -0.19806994804695771 0.023079276535804879 0 -0.20518915555726081 0.0063160521339462369 0 -0.18708279199497591 0.02968959259615666 0 -0.1832898811322998 0.01081735141828993 0 -0.19806994804695771 0.023079276535804879 0 -0.18708279199497591 0.02968959259615666 0 -0.20087952003994611 0.036707216442191618 0 -0.19806994804695771 0.023079276535804879 0 -0.19806994804695771 0.023079276535804879 0 -0.21286878928494571 0.025235630143771171 0 -0.20518915555726081 0.0063160521339462369 0 -0.20087952003994611 0.036707216442191618 0 -0.19806994804695771 0.023079276535804879 0 -0.21286878928494571 0.025235630143771171 0 -0.21286878928494571 0.025235630143771171 0 -0.20518915555726081 0.0063160521339462369 0 -0.21886163726501981 0.011946961747091291 0 -0.22538834727875931 -0.003116926288211063 0 -0.20518915555726081 0.0063160521339462369 0 -0.21886163726501981 0.011946961747091291 0 -0.22538834727875931 -0.003116926288211063 0 -0.24128403747649099 -0.003068301980002572 0 -0.23272574590282649 0.01939614916333449 0 -0.22538834727875931 -0.003116926288211063 0 -0.21886163726501981 0.011946961747091291 0 -0.23272574590282649 0.01939614916333449 0 -0.21286878928494571 0.025235630143771171 0 -0.21886163726501981 0.011946961747091291 0 -0.23272574590282649 0.01939614916333449 0 -0.21286878928494571 0.025235630143771171 0 -0.23272574590282649 0.01939614916333449 0 -0.21994966047120609 0.043343929081465601 0 -0.25710948953078411 0.027476827907135608 0 -0.23272574590282649 0.01939614916333449 0 -0.2397145655194666 0.035083829216704651 0 -0.26109085733176007 0.013112141742292411 0 -0.23272574590282649 0.01939614916333449 0 -0.25445223429650399 0.001296013740745124 0 -0.26109085733176007 0.013112141742292411 0 -0.23272574590282649 0.01939614916333449 0 -0.24128403747649099 -0.003068301980002572 0 -0.25445223429650399 0.001296013740745124 0 -0.23272574590282649 0.01939614916333449 0 -0.21994966047120609 0.043343929081465601 0 -0.2490733661730499 0.050118410714882898 0 -0.22286783113552319 0.064357037387919369 0 -0.23272574590282649 0.01939614916333449 0 -0.21994966047120609 0.043343929081465601 0 -0.2397145655194666 0.035083829216704651 0 -0.21994966047120609 0.043343929081465601 0 -0.2397145655194666 0.035083829216704651 0 -0.2490733661730499 0.050118410714882898 0 -0.25710948953078411 0.027476827907135608 0 -0.2397145655194666 0.035083829216704651 0 -0.2490733661730499 0.050118410714882898 0 -0.2490733661730499 0.050118410714882898 0 -0.24103724281531561 0.072759993522630267 0 -0.22286783113552319 0.064357037387919369 0 -0.2490733661730499 0.050118410714882898 0 -0.24103724281531561 0.072759993522630267 0 -0.2502772859734072 0.088867942404367364 0 -0.24103724281531561 0.072759993522630267 0 -0.23300111945758151 0.095401576330377574 0 -0.24103724281531561 0.072759993522630267 0 -0.23300111945758151 0.095401576330377574 0 -0.24103724281531561 0.072759993522630267 0 -0.22303041499653811 0.08052548049963959 0 -0.23300111945758151 0.095401576330377574 0 -0.22303041499653811 0.08052548049963959 0 -0.21323886751899601 0.095357127195591154 0 -0.23300111945758151 0.095401576330377574 0 -0.24103724281531561 0.072759993522630267 0 -0.22303041499653811 0.08052548049963959 0 -0.22286783113552319 0.064357037387919369 0 -0.22303041499653811 0.08052548049963959 0 -0.22286783113552319 0.064357037387919369 0 -0.20500701405527411 0.074751668061679599 0 -0.20057681625268431 0.056626203652507319 0 -0.22286783113552319 0.064357037387919369 0 -0.20500701405527411 0.074751668061679599 0 -0.22303041499653811 0.08052548049963959 0 -0.20500701405527411 0.074751668061679599 0 -0.21323886751899601 0.095357127195591154 0 -0.20500701405527411 0.074751668061679599 0 -0.19671651591439029 0.091272846908390395 0 -0.21323886751899601 0.095357127195591154 0 -0.1848979993769562 0.075289326912078638 0 -0.20500701405527411 0.074751668061679599 0 -0.19671651591439029 0.091272846908390395 0 -0.1848979993769562 0.075289326912078638 0 -0.18151238797247579 0.096840368637884477 0 -0.19671651591439029 0.091272846908390395 0 -0.1848979993769562 0.075289326912078638 0 -0.20057681625268431 0.056626203652507319 0 -0.20500701405527411 0.074751668061679599 0 -0.18151238797247579 0.096840368637884477 0 -0.19671651591439029 0.091272846908390395 0 -0.1989263106482495 0.11412574373471809 0 -0.19671651591439029 0.091272846908390395 0 -0.1989263106482495 0.11412574373471809 0 -0.21323886751899601 0.095357127195591154 0 -0.1989263106482495 0.11412574373471809 0 -0.21323886751899601 0.095357127195591154 0 -0.2249649960998473 0.1180431591381248 0 -0.1989263106482495 0.11412574373471809 0 -0.2249649960998473 0.1180431591381248 0 -0.21301546698754811 0.12916176581813371 0 -0.2249649960998473 0.1180431591381248 0 -0.23300111945758151 0.095401576330377574 0 -0.21323886751899601 0.095357127195591154 0 -0.2249649960998473 0.1180431591381248 0 -0.23300111945758151 0.095401576330377574 0 -0.25133926342545337 0.1073077500403757 0 -0.2502772859734072 0.088867942404367364 0 -0.23300111945758151 0.095401576330377574 0 -0.25133926342545337 0.1073077500403757 0 -0.2249649960998473 0.1180431591381248 0 -0.23300111945758151 0.095401576330377574 0 -0.25282866413170513 0.1276037338865639 0 -0.25133926342545337 0.1073077500403757 0 -0.2249649960998473 0.1180431591381248 0 -0.25282866413170513 0.1276037338865639 0 -0.2249649960998473 0.1180431591381248 0 -0.23360944098277639 0.1389776043265897 0 -0.26204185957463072 0.14438820993978041 0 -0.25282866413170513 0.1276037338865639 0 -0.23360944098277639 0.1389776043265897 0 -0.2249649960998473 0.1180431591381248 0 -0.23360944098277639 0.1389776043265897 0 -0.21301546698754811 0.12916176581813371 0 -0.23360944098277639 0.1389776043265897 0 -0.21301546698754811 0.12916176581813371 0 -0.21149586119994521 0.1440228962366229 0 -0.23360944098277639 0.1389776043265897 0 -0.225424967759458 0.15284937554921879 0 -0.21149586119994521 0.1440228962366229 0 -0.26204185957463072 0.14438820993978041 0 -0.23360944098277639 0.1389776043265897 0 -0.24425749315805231 0.15851006456642949 0 -0.23360944098277639 0.1389776043265897 0 -0.225424967759458 0.15284937554921879 0 -0.24425749315805231 0.15851006456642949 0 -0.24425749315805231 0.15851006456642949 0 -0.2346771526929283 0.18420508026392779 0 -0.22620520541417061 0.16932110817830509 0 -0.24425749315805231 0.15851006456642949 0 -0.22620520541417061 0.16932110817830509 0 -0.25805122363966532 0.17916641703205141 0 -0.24425749315805231 0.15851006456642949 0 -0.2346771526929283 0.18420508026392779 0 -0.25805122363966532 0.17916641703205141 0 -0.2346771526929283 0.18420508026392779 0 -0.2495271856364164 0.19744305691347541 0 -0.2346771526929283 0.18420508026392779 0 -0.22620520541417061 0.16932110817830509 0 -0.20815291767028879 0.1801321517901808 0 -0.225424967759458 0.15284937554921879 0 -0.24425749315805231 0.15851006456642949 0 -0.22620520541417061 0.16932110817830509 0 -0.225424967759458 0.15284937554921879 0 -0.22620520541417061 0.16932110817830509 0 -0.20343672933678911 0.16148616352512821 0 -0.22620520541417061 0.16932110817830509 0 -0.20343672933678911 0.16148616352512821 0 -0.20815291767028879 0.1801321517901808 0 -0.22620520541417061 0.16932110817830509 0 -0.20815291767028879 0.1801321517901808 0 -0.20815291767028879 0.1801321517901808 0 -0.1901006299264065 0.19094319540205559 0 -0.1865037831221312 0.1706070540117543 0 -0.20815291767028879 0.1801321517901808 0 -0.1901006299264065 0.19094319540205559 0 -0.1901006299264065 0.19094319540205559 0 -0.1865037831221312 0.1706070540117543 0 -0.20343672933678911 0.16148616352512821 0 -0.18290693631785609 0.15027091262145281 0 -0.1865037831221312 0.1706070540117543 0 -0.20343672933678911 0.16148616352512821 0 -0.20815291767028879 0.1801321517901808 0 -0.1865037831221312 0.1706070540117543 0 -0.19719600053026601 0.13288248316630979 0 -0.21149586119994521 0.1440228962366229 0 -0.18290693631785609 0.15027091262145281 0 -0.20343672933678911 0.16148616352512821 0 -0.21149586119994521 0.1440228962366229 0 -0.18290693631785609 0.15027091262145281 0 -0.1989263106482495 0.11412574373471809 0 -0.19719600053026601 0.13288248316630979 0 -0.21301546698754811 0.12916176581813371 0 -0.1989263106482495 0.11412574373471809 0 -0.19719600053026601 0.13288248316630979 0 -0.17931008951358099 0.1299347712311513 0 -0.19719600053026601 0.13288248316630979 0 -0.21301546698754811 0.12916176581813371 0 -0.21149586119994521 0.1440228962366229 0 -0.225424967759458 0.15284937554921879 0 -0.20343672933678911 0.16148616352512821 0 -0.21149586119994521 0.1440228962366229 0 -0.2286057349721842 0.25032360824337713 0 -0.21687265217782881 0.22360496320205669 0 -0.25177043790547998 0.24599012604316309 0 -0.2286057349721842 0.25032360824337713 0 -0.24336685301739591 0.22144807136072159 0 -0.2286057349721842 0.25032360824337713 0 -0.24336685301739591 0.22144807136072159 0 -0.21687265217782881 0.22360496320205669 0 -0.24336685301739591 0.22144807136072159 0 -0.22558283587798739 0.1998121085065355 0 -0.21687265217782881 0.22360496320205669 0 -0.24336685301739591 0.22144807136072159 0 -0.2495271856364164 0.19744305691347541 0 -0.22558283587798739 0.1998121085065355 0 -0.2346771526929283 0.18420508026392779 0 -0.2495271856364164 0.19744305691347541 0 -0.22558283587798739 0.1998121085065355 0 -0.2346771526929283 0.18420508026392779 0 -0.20815291767028879 0.1801321517901808 0 -0.22558283587798739 0.1998121085065355 0 -0.20815291767028879 0.1801321517901808 0 -0.22558283587798739 0.1998121085065355 0 -0.20503960632968091 0.19676207737805429 0 -0.22558283587798739 0.1998121085065355 0 -0.20503960632968091 0.19676207737805429 0 -0.20650959718904291 0.2108750290967778 0 -0.20815291767028879 0.1801321517901808 0 -0.20503960632968091 0.19676207737805429 0 -0.1901006299264065 0.19094319540205559 0 -0.1901006299264065 0.19094319540205559 0 -0.1927213183455582 0.20576025410148521 0 -0.20503960632968091 0.19676207737805429 0 -0.1901006299264065 0.19094319540205559 0 -0.1927213183455582 0.20576025410148521 0 -0.20503960632968091 0.19676207737805429 0 -0.1927213183455582 0.20576025410148521 0 -0.20650959718904291 0.2108750290967778 0 -0.1927213183455582 0.20576025410148521 0 -0.19082693668717421 0.2274927403587178 0 -0.179429626353484 0.2168406238158537 0 -0.1927213183455582 0.20576025410148521 0 -0.20650959718904291 0.2108750290967778 0 -0.19082693668717421 0.2274927403587178 0 -0.22558283587798739 0.1998121085065355 0 -0.20650959718904291 0.2108750290967778 0 -0.21687265217782881 0.22360496320205669 0 -0.20650959718904291 0.2108750290967778 0 -0.21687265217782881 0.22360496320205669 0 -0.19082693668717421 0.2274927403587178 0 -0.21687265217782881 0.22360496320205669 0 -0.19082693668717421 0.2274927403587178 0 -0.2037259274003673 0.24687887307223971 0 -0.19082693668717421 0.2274927403587178 0 -0.2037259274003673 0.24687887307223971 0 -0.1804093746754574 0.24033665321156369 0 -0.18347382519695599 0.25610808106538258 0 -0.2037259274003673 0.24687887307223971 0 -0.1804093746754574 0.24033665321156369 0 -0.2286057349721842 0.25032360824337713 0 -0.21687265217782881 0.22360496320205669 0 -0.2037259274003673 0.24687887307223971 0 -0.16340192378364951 0.24750357251422311 0 -0.16732722744419079 0.2292379320538262 0 -0.15274245996667221 0.23937034616480601 0 -0.16340192378364951 0.24750357251422311 0 -0.1804093746754574 0.24033665321156369 0 -0.16732722744419079 0.2292379320538262 0 -0.18347382519695599 0.25610808106538258 0 -0.16340192378364951 0.24750357251422311 0 -0.1804093746754574 0.24033665321156369 0 -0.19082693668717421 0.2274927403587178 0 -0.1804093746754574 0.24033665321156369 0 -0.16732722744419079 0.2292379320538262 0 -0.19082693668717421 0.2274927403587178 0 -0.16732722744419079 0.2292379320538262 0 -0.179429626353484 0.2168406238158537 0 -0.19082693668717421 0.2274927403587178 0 -0.16732722744419079 0.2292379320538262 0 -0.16732722744419079 0.2292379320538262 0 -0.16684302293701281 0.20487156874938581 0 -0.14358541594761851 0.21879994209671519 0 -0.16732722744419079 0.2292379320538262 0 -0.16684302293701281 0.20487156874938581 0 -0.179429626353484 0.2168406238158537 0 -0.1927213183455582 0.20576025410148521 0 -0.16684302293701281 0.20487156874938581 0 -0.179429626353484 0.2168406238158537 0 -0.1901006299264065 0.19094319540205559 0 -0.16684302293701281 0.20487156874938581 0 -0.1901006299264065 0.19094319540205559 0 -0.16684302293701281 0.20487156874938581 0 -0.17061809440016351 0.18299478300060501 0 -0.1901006299264065 0.19094319540205559 0 -0.1927213183455582 0.20576025410148521 0 -0.16684302293701281 0.20487156874938581 0 -0.16684302293701281 0.20487156874938581 0 -0.1538660539509949 0.18761258841366829 0 -0.17061809440016351 0.18299478300060501 0 -0.16684302293701281 0.20487156874938581 0 -0.1538660539509949 0.18761258841366829 0 -0.14806892234248659 0.20264952398271741 0 -0.14806892234248659 0.20264952398271741 0 -0.13931228965098341 0.19278415015590891 0 -0.1348517575313059 0.2061522789870158 0 -0.1538660539509949 0.18761258841366829 0 -0.14806892234248659 0.20264952398271741 0 -0.13931228965098341 0.19278415015590891 0 -0.13931228965098341 0.19278415015590891 0 -0.12670081873287459 0.19565348143795031 0 -0.12797910783858529 0.18183011952201519 0 -0.12670081873287459 0.19565348143795031 0 -0.1348517575313059 0.2061522789870158 0 -0.12561731124133321 0.20417220577303 0 -0.13931228965098341 0.19278415015590891 0 -0.12670081873287459 0.19565348143795031 0 -0.1348517575313059 0.2061522789870158 0 -0.13304165243829719 0.21434319659433501 0 -0.14358541594761851 0.21879994209671519 0 -0.12758495904310091 0.22018260438809659 0 -0.1348517575313059 0.2061522789870158 0 -0.12561731124133321 0.20417220577303 0 -0.12614447723116351 0.21223796090551231 0 -0.1348517575313059 0.2061522789870158 0 -0.12614447723116351 0.21223796090551231 0 -0.13304165243829719 0.21434319659433501 0 -0.12614447723116351 0.21223796090551231 0 -0.12758495904310091 0.22018260438809659 0 -0.1213049521672557 0.2183642323049185 0 -0.12614447723116351 0.21223796090551231 0 -0.13304165243829719 0.21434319659433501 0 -0.12758495904310091 0.22018260438809659 0 -0.1348517575313059 0.2061522789870158 0 -0.13304165243829719 0.21434319659433501 0 -0.14358541594761851 0.21879994209671519 0 -0.14806892234248659 0.20264952398271741 0 -0.1348517575313059 0.2061522789870158 0 -0.14358541594761851 0.21879994209671519 0 -0.16684302293701281 0.20487156874938581 0 -0.14358541594761851 0.21879994209671519 0 -0.16684302293701281 0.20487156874938581 0 -0.14806892234248659 0.20264952398271741 0 -0.14358541594761851 0.21879994209671519 0 -0.16732722744419079 0.2292379320538262 0 -0.14382751820120751 0.23098312374893459 0 -0.16732722744419079 0.2292379320538262 0 -0.14382751820120751 0.23098312374893459 0 -0.15274245996667221 0.23937034616480601 0 -0.16732722744419079 0.2292379320538262 0 -0.14382751820120751 0.23098312374893459 0 -0.14358541594761851 0.21879994209671519 0 -0.14382751820120751 0.23098312374893459 0 -0.14358541594761851 0.21879994209671519 0 -0.12032780895822411 0.2327283154440439 0 -0.14358541594761851 0.21879994209671519 0 -0.12032780895822411 0.2327283154440439 0 -0.14358541594761851 0.21879994209671519 0 -0.12758495904310091 0.22018260438809659 0 -0.12032780895822411 0.2327283154440439 0 -0.14382751820120751 0.23098312374893459 0 -0.1322700146717726 0.23603558864877189 0 -0.12032780895822411 0.2327283154440439 0 -0.14382751820120751 0.23098312374893459 0 -0.12032780895822411 0.2327283154440439 0 -0.14020095548025421 0.2413335428936858 0 -0.1322700146717726 0.23603558864877189 0 -0.13065907452439079 0.24328476505481569 0 -0.14382751820120751 0.23098312374893459 0 -0.14020095548025421 0.2413335428936858 0 -0.1322700146717726 0.23603558864877189 0 -0.1322700146717726 0.23603558864877189 0 -0.12508014256405209 0.2389534664509789 0 -0.12032780895822411 0.2327283154440439 0 -0.1322700146717726 0.23603558864877189 0 -0.12508014256405209 0.2389534664509789 0 -0.13065907452439079 0.24328476505481569 0 -0.12976778397381189 0.25096292900929318 0 -0.13065907452439079 0.24328476505481569 0 -0.12227324942971381 0.24521350853289531 0 -0.12508014256405209 0.2389534664509789 0 -0.13065907452439079 0.24328476505481569 0 -0.12227324942971381 0.24521350853289531 0 -0.12976778397381189 0.25096292900929318 0 -0.13065907452439079 0.24328476505481569 0 -0.13680763179620051 0.24850911453875629 0 -0.14020095548025421 0.2413335428936858 0 -0.13065907452439079 0.24328476505481569 0 -0.13680763179620051 0.24850911453875629 0 -0.14020095548025421 0.2413335428936858 0 -0.14599748894139869 0.24892434473906261 0 -0.15274245996667221 0.23937034616480601 0 -0.16340192378364951 0.24750357251422311 0 -0.14599748894139869 0.24892434473906261 0 -0.15274245996667221 0.23937034616480601 0 -0.14020095548025421 0.2413335428936858 0 -0.13680763179620051 0.24850911453875629 0 -0.14599748894139869 0.24892434473906261 0 -0.14382751820120751 0.23098312374893459 0 -0.14020095548025421 0.2413335428936858 0 -0.15274245996667221 0.23937034616480601 0 -0.16633790900973031 0.15290932580423891 0 -0.15663248095933421 0.16638886775291101 0 -0.15511574626068611 0.14523459850388501 0 -0.16633790900973031 0.15290932580423891 0 -0.1627134177876757 0.1352833979140243 0 -0.18290693631785609 0.15027091262145281 0 -0.16633790900973031 0.15290932580423891 0 -0.1627134177876757 0.1352833979140243 0 -0.15511574626068611 0.14523459850388501 0 -0.16120310185971101 0.116311255482486 0 -0.1627134177876757 0.1352833979140243 0 -0.17931008951358099 0.1299347712311513 0 -0.16120310185971101 0.116311255482486 0 -0.14499402368131789 0.1243778778869043 0 -0.1627134177876757 0.1352833979140243 0 -0.19719600053026601 0.13288248316630979 0 -0.17931008951358099 0.1299347712311513 0 -0.18290693631785609 0.15027091262145281 0 -0.1627134177876757 0.1352833979140243 0 -0.17931008951358099 0.1299347712311513 0 -0.18290693631785609 0.15027091262145281 0 -0.17931008951358099 0.1299347712311513 0 -0.18290693631785609 0.15027091262145281 0 -0.16633790900973031 0.15290932580423891 0 -0.18290693631785609 0.15027091262145281 0 -0.17259984076184309 0.1646341886381924 0 -0.18290693631785609 0.15027091262145281 0 -0.17259984076184309 0.1646341886381924 0 -0.1865037831221312 0.1706070540117543 0 -0.18290693631785609 0.15027091262145281 0 -0.1865037831221312 0.1706070540117543 0 -0.1901006299264065 0.19094319540205559 0 -0.1865037831221312 0.1706070540117543 0 -0.17061809440016351 0.18299478300060501 0 -0.17259984076184309 0.1646341886381924 0 -0.1865037831221312 0.1706070540117543 0 -0.17061809440016351 0.18299478300060501 0 -0.1538660539509949 0.18761258841366829 0 -0.17061809440016351 0.18299478300060501 0 -0.15663248095933421 0.16638886775291101 0 -0.16633790900973031 0.15290932580423891 0 -0.17259984076184309 0.1646341886381924 0 -0.15663248095933421 0.16638886775291101 0 -0.17259984076184309 0.1646341886381924 0 -0.17061809440016351 0.18299478300060501 0 -0.15663248095933421 0.16638886775291101 0 -0.15663248095933421 0.16638886775291101 0 -0.14172151341598921 0.1759866368404816 0 -0.14048919824865469 0.15632822287218701 0 -0.1538660539509949 0.18761258841366829 0 -0.13931228965098341 0.19278415015590891 0 -0.14172151341598921 0.1759866368404816 0 -0.1538660539509949 0.18761258841366829 0 -0.15663248095933421 0.16638886775291101 0 -0.14172151341598921 0.1759866368404816 0 -0.13931228965098341 0.19278415015590891 0 -0.14172151341598921 0.1759866368404816 0 -0.12797910783858529 0.18183011952201519 0 -0.14172151341598921 0.1759866368404816 0 -0.12797910783858529 0.18183011952201519 0 -0.1301638781528652 0.16794878081530651 0 -0.14048919824865469 0.15632822287218701 0 -0.1301638781528652 0.16794878081530651 0 -0.1225693757370693 0.15559047407615331 0 -0.14172151341598921 0.1759866368404816 0 -0.14048919824865469 0.15632822287218701 0 -0.1301638781528652 0.16794878081530651 0 -0.14048919824865469 0.15632822287218701 0 -0.13112655771453391 0.1447099380437574 0 -0.14342065069000801 0.1380741820982459 0 -0.14048919824865469 0.15632822287218701 0 -0.13112655771453391 0.1447099380437574 0 -0.1225693757370693 0.15559047407615331 0 -0.15663248095933421 0.16638886775291101 0 -0.14048919824865469 0.15632822287218701 0 -0.15511574626068611 0.14523459850388501 0 -0.14048919824865469 0.15632822287218701 0 -0.15511574626068611 0.14523459850388501 0 -0.14342065069000801 0.1380741820982459 0 -0.1627134177876757 0.1352833979140243 0 -0.15511574626068611 0.14523459850388501 0 -0.14342065069000801 0.1380741820982459 0 -0.14499402368131789 0.1243778778869043 0 -0.1627134177876757 0.1352833979140243 0 -0.14342065069000801 0.1380741820982459 0 -0.14499402368131789 0.1243778778869043 0 -0.14342065069000801 0.1380741820982459 0 -0.12851164379040581 0.131950320149015 0 -0.13112655771453391 0.1447099380437574 0 -0.14342065069000801 0.1380741820982459 0 -0.12851164379040581 0.131950320149015 0 -0.13112655771453391 0.1447099380437574 0 -0.12851164379040581 0.131950320149015 0 -0.1184184166147479 0.14220422534258029 0 -0.12851164379040581 0.131950320149015 0 -0.12060300057831359 0.1253336184863498 0 -0.11587432767471929 0.13257167812098519 0 -0.12851164379040581 0.131950320149015 0 -0.11587432767471929 0.13257167812098519 0 -0.1184184166147479 0.14220422534258029 0 -0.11587432767471929 0.13257167812098519 0 -0.1054198483707643 0.1363833863281822 0 -0.1184184166147479 0.14220422534258029 0 -0.12060300057831359 0.1253336184863498 0 -0.11587432767471929 0.13257167812098519 0 -0.1114571508438128 0.1245729394762651 0 -0.11587432767471929 0.13257167812098519 0 -0.1054198483707643 0.1363833863281822 0 -0.1114571508438128 0.1245729394762651 0 -0.1054198483707643 0.1363833863281822 0 -0.09979871479720083 0.12508316358580929 0 -0.1114571508438128 0.1245729394762651 0 -0.1054198483707643 0.1363833863281822 0 -0.09979871479720083 0.12508316358580929 0 -0.092847290417970421 0.13909380415846631 0 -0.10521174172761751 0.15160468302157501 0 -0.089600374356986506 0.15714894835400961 0 -0.092847290417970421 0.13909380415846631 0 -0.1054198483707643 0.1363833863281822 0 -0.10521174172761751 0.15160468302157501 0 -0.092847290417970421 0.13909380415846631 0 -0.10521174172761751 0.15160468302157501 0 -0.1184184166147479 0.14220422534258029 0 -0.1225693757370693 0.15559047407615331 0 -0.1054198483707643 0.1363833863281822 0 -0.10521174172761751 0.15160468302157501 0 -0.1184184166147479 0.14220422534258029 0 -0.13112655771453391 0.1447099380437574 0 -0.1184184166147479 0.14220422534258029 0 -0.1225693757370693 0.15559047407615331 0 -0.10521174172761751 0.15160468302157501 0 -0.1225693757370693 0.15559047407615331 0 -0.1133949420047434 0.1676793698748619 0 -0.1301638781528652 0.16794878081530651 0 -0.1225693757370693 0.15559047407615331 0 -0.1133949420047434 0.1676793698748619 0 -0.12797910783858529 0.18183011952201519 0 -0.1301638781528652 0.16794878081530651 0 -0.1133949420047434 0.1676793698748619 0 -0.12797910783858529 0.18183011952201519 0 -0.1133949420047434 0.1676793698748619 0 -0.11415772959348409 0.18587090892286659 0 -0.1133949420047434 0.1676793698748619 0 -0.11415772959348409 0.18587090892286659 0 -0.10176208032985951 0.17918214116272441 0 -0.11415772959348409 0.18587090892286659 0 -0.10176208032985951 0.17918214116272441 0 -0.10299989107956491 0.19199239401487109 0 -0.10176208032985951 0.17918214116272441 0 -0.099344807656336923 0.16637402358230879 0 -0.086754899862477808 0.17625497549837341 0 -0.10176208032985951 0.17918214116272441 0 -0.10299989107956491 0.19199239401487109 0 -0.091635631627798766 0.19039592706291161 0 -0.10521174172761751 0.15160468302157501 0 -0.1133949420047434 0.1676793698748619 0 -0.099344807656336923 0.16637402358230879 0 -0.1133949420047434 0.1676793698748619 0 -0.10176208032985951 0.17918214116272441 0 -0.099344807656336923 0.16637402358230879 0 -0.10521174172761751 0.15160468302157501 0 -0.099344807656336923 0.16637402358230879 0 -0.089600374356986506 0.15714894835400961 0 -0.089600374356986506 0.15714894835400961 0 -0.086754899862477808 0.17625497549837341 0 -0.071580675632062302 0.16544121307344681 0 -0.099344807656336923 0.16637402358230879 0 -0.089600374356986506 0.15714894835400961 0 -0.086754899862477808 0.17625497549837341 0 -0.089600374356986506 0.15714894835400961 0 -0.071580675632062302 0.16544121307344681 0 -0.079578250690702915 0.14759974276973439 0 -0.086754899862477808 0.17625497549837341 0 -0.072542618243606194 0.1925912686890475 0 -0.086754899862477808 0.17625497549837341 0 -0.091635631627798766 0.19039592706291161 0 -0.072542618243606194 0.1925912686890475 0 -0.10176208032985951 0.17918214116272441 0 -0.086754899862477808 0.17625497549837341 0 -0.091635631627798766 0.19039592706291161 0 -0.086754899862477808 0.17625497549837341 0 -0.067916098723394464 0.17946034298918229 0 -0.071580675632062302 0.16544121307344681 0 -0.067916098723394464 0.17946034298918229 0 -0.072542618243606194 0.1925912686890475 0 -0.056106904600032148 0.1894478352231482 0 -0.086754899862477808 0.17625497549837341 0 -0.067916098723394464 0.17946034298918229 0 -0.072542618243606194 0.1925912686890475 0 -0.067916098723394464 0.17946034298918229 0 -0.062871388453574789 0.17225106793122039 0 -0.071580675632062302 0.16544121307344681 0 -0.067916098723394464 0.17946034298918229 0 -0.062871388453574789 0.17225106793122039 0 -0.057950396506277868 0.1793085976129733 0 -0.071580675632062302 0.16544121307344681 0 -0.066383978546143863 0.15597250385056291 0 -0.079578250690702915 0.14759974276973439 0 -0.062871388453574789 0.17225106793122039 0 -0.071580675632062302 0.16544121307344681 0 -0.062434963576035701 0.1642158861777572 0 -0.071580675632062302 0.16544121307344681 0 -0.066383978546143863 0.15597250385056291 0 -0.062434963576035701 0.1642158861777572 0 -0.066383978546143863 0.15597250385056291 0 -0.067622183864069346 0.14463918348563881 0 -0.056640798997532951 0.15430592569849619 0 -0.066383978546143863 0.15597250385056291 0 -0.067622183864069346 0.14463918348563881 0 -0.079578250690702915 0.14759974276973439 0 -0.058806790164959981 0.1357825515942494 0 -0.081182686546764526 0.1225592277892579 0 -0.067622183864069346 0.14463918348563881 0 -0.079578250690702915 0.14759974276973439 0 -0.081182686546764526 0.1225592277892579 0 -0.067622183864069346 0.14463918348563881 0 -0.058806790164959981 0.1357825515942494 0 -0.081182686546764526 0.1225592277892579 0 -0.058806790164959981 0.1357825515942494 0 -0.060937618900255147 0.1175598836492321 0 -0.081182686546764526 0.1225592277892579 0 -0.09979871479720083 0.12508316358580929 0 -0.092847290417970421 0.13909380415846631 0 -0.081182686546764526 0.1225592277892579 0 -0.092847290417970421 0.13909380415846631 0 -0.079578250690702915 0.14759974276973439 0 -0.081182686546764526 0.1225592277892579 0 -0.089600374356986506 0.15714894835400961 0 -0.092847290417970421 0.13909380415846631 0 -0.079578250690702915 0.14759974276973439 0 -0.10818242130816649 0.23363028531275851 0 -0.085672032171139875 0.23530200574850541 0 -0.083269394733685956 0.25492163177339572 0 -0.10797544924065219 0.240125821040613 0 -0.1076888194115803 0.24912130684579639 0 -0.10797544924065219 0.240125821040613 0 -0.10818242130816649 0.23363028531275851 0 -0.085672032171139875 0.23530200574850541 0 -0.083269394733685956 0.25492163177339572 0 -0.10797544924065219 0.240125821040613 0 -0.10797544924065219 0.240125821040613 0 -0.10818242130816649 0.23363028531275851 0 -0.10797544924065219 0.240125821040613 0 -0.1106155995697896 0.23854470396807631 0 -0.10818242130816649 0.23363028531275851 0 -0.10797544924065219 0.240125821040613 0 -0.1106155995697896 0.23854470396807631 0 -0.1076888194115803 0.24912130684579639 0 -0.1106155995697896 0.23854470396807631 0 -0.10797544924065219 0.240125821040613 0 -0.1076888194115803 0.24912130684579639 0 -0.10797544924065219 0.240125821040613 0 -0.1076888194115803 0.24912130684579639 0 -0.1106155995697896 0.23854470396807631 0 -0.11417312619982049 0.2665283648883302 0 -0.12227324942971381 0.24521350853289531 0 -0.1141673783984848 0.23641763639849739 0 -0.12227324942971381 0.24521350853289531 0 -0.1206376081143018 0.23771341778160779 0 -0.1141673783984848 0.23641763639849739 0 -0.12508014256405209 0.2389534664509789 0 -0.1206376081143018 0.23771341778160779 0 -0.12032780895822411 0.2327283154440439 0 -0.12508014256405209 0.2389534664509789 0 -0.12227324942971381 0.24521350853289531 0 -0.1206376081143018 0.23771341778160779 0 -0.1141673783984848 0.23641763639849739 0 -0.12032780895822411 0.2327283154440439 0 -0.1206376081143018 0.23771341778160779 0 -0.1141673783984848 0.23641763639849739 0 -0.12032780895822411 0.2327283154440439 0 -0.1076888194115803 0.24912130684579639 0 -0.1141673783984848 0.23641763639849739 0 -0.1106155995697896 0.23854470396807631 0 -0.1141673783984848 0.23641763639849739 0 -0.114166761488877 0.2331858619083636 0 -0.1106155995697896 0.23854470396807631 0 -0.1120551141763803 0.23334268211897191 0 -0.1106155995697896 0.23854470396807631 0 -0.1120551141763803 0.23334268211897191 0 -0.10818242130816649 0.23363028531275851 0 -0.1141673783984848 0.23641763639849739 0 -0.1106155995697896 0.23854470396807631 0 -0.1120551141763803 0.23334268211897191 0 -0.1141673783984848 0.23641763639849739 0 -0.1106155995697896 0.23854470396807631 0 -0.1120551141763803 0.23334268211897191 0 -0.1141653357483738 0.22571690418399459 0 -0.10818242130816649 0.23363028531275851 0 -0.1120551141763803 0.23334268211897191 0 -0.10818242130816649 0.23363028531275851 0 -0.1120551141763803 0.23334268211897191 0 -0.114166761488877 0.2331858619083636 0 -0.1120551141763803 0.23334268211897191 0 -0.1141653357483738 0.22571690418399459 0 -0.11704497533697029 0.22930508132633581 0 -0.1197430193223407 0.22502951288279441 0 -0.1141653357483738 0.22571690418399459 0 -0.11704497533697029 0.22930508132633581 0 -0.114166761488877 0.2331858619083636 0 -0.1141653357483738 0.22571690418399459 0 -0.114166761488877 0.2331858619083636 0 -0.1141653357483738 0.22571690418399459 0 -0.1120551141763803 0.23334268211897191 0 -0.114166761488877 0.2331858619083636 0 -0.1141653357483738 0.22571690418399459 0 -0.1141673783984848 0.23641763639849739 0 -0.114166761488877 0.2331858619083636 0 -0.12032780895822411 0.2327283154440439 0 -0.11704497533697029 0.22930508132633581 0 -0.114166761488877 0.2331858619083636 0 -0.12032780895822411 0.2327283154440439 0 -0.1141673783984848 0.23641763639849739 0 -0.1120551141763803 0.23334268211897191 0 -0.114166761488877 0.2331858619083636 0 -0.114166761488877 0.2331858619083636 0 -0.12032780895822411 0.2327283154440439 0 -0.11704497533697029 0.22930508132633581 0 -0.12032780895822411 0.2327283154440439 0 -0.1197430193223407 0.22502951288279441 0 -0.12758495904310091 0.22018260438809659 0 -0.12032780895822411 0.2327283154440439 0 -0.1197430193223407 0.22502951288279441 0 -0.12758495904310091 0.22018260438809659 0 -0.1197430193223407 0.22502951288279441 0 -0.1213049521672557 0.2183642323049185 0 -0.1197430193223407 0.22502951288279441 0 -0.1141653357483738 0.22571690418399459 0 -0.1213049521672557 0.2183642323049185 0 -0.1141653357483738 0.22571690418399459 0 -0.10818242130816649 0.23363028531275851 0 -0.1086672823570836 0.21841358334829961 0 -0.10818242130816649 0.23363028531275851 0 -0.1086672823570836 0.21841358334829961 0 -0.10818242130816649 0.23363028531275851 0 -0.097127577808434146 0.22120925351368051 0 -0.085672032171139875 0.23530200574850541 0 -0.10818242130816649 0.23363028531275851 0 -0.097127577808434146 0.22120925351368051 0 -0.1086672823570836 0.21841358334829961 0 -0.097127577808434146 0.22120925351368051 0 -0.10137419431535651 0.21084900547484181 0 -0.092483044497181893 0.21028181726063441 0 -0.10137419431535651 0.21084900547484181 0 -0.098917639352721645 0.20118402527702281 0 -0.092483044497181893 0.21028181726063441 0 -0.10137419431535651 0.21084900547484181 0 -0.1091521434060041 0.20319688138384059 0 -0.1086672823570836 0.21841358334829961 0 -0.10137419431535651 0.21084900547484181 0 -0.1091521434060041 0.20319688138384059 0 -0.098917639352721645 0.20118402527702281 0 -0.1091521434060041 0.20319688138384059 0 -0.1086672823570836 0.21841358334829961 0 -0.097127577808434146 0.22120925351368051 0 -0.10137419431535651 0.21084900547484181 0 -0.1086672823570836 0.21841358334829961 0 -0.1141653357483738 0.22571690418399459 0 -0.1141615326709292 0.20579390655343061 0 -0.1141653357483738 0.22571690418399459 0 -0.118886969491299 0.2086541791641944 0 -0.1141615326709292 0.20579390655343061 0 -0.1141653357483738 0.22571690418399459 0 -0.118886969491299 0.2086541791641944 0 -0.1141653357483738 0.22571690418399459 0 -0.1213049521672557 0.2183642323049185 0 -0.118886969491299 0.2086541791641944 0 -0.1141653357483738 0.22571690418399459 0 -0.1086672823570836 0.21841358334829961 0 -0.1141615326709292 0.20579390655343061 0 -0.12614447723116351 0.21223796090551231 0 -0.1213049521672557 0.2183642323049185 0 -0.118886969491299 0.2086541791641944 0 -0.12561731124133321 0.20417220577303 0 -0.118886969491299 0.2086541791641944 0 -0.119904872345984 0.2000289363702944 0 -0.118886969491299 0.2086541791641944 0 -0.1141615326709292 0.20579390655343061 0 -0.119904872345984 0.2000289363702944 0 -0.12561731124133321 0.20417220577303 0 -0.12614447723116351 0.21223796090551231 0 -0.118886969491299 0.2086541791641944 0 -0.1091521434060041 0.20319688138384059 0 -0.1086672823570836 0.21841358334829961 0 -0.1141615326709292 0.20579390655343061 0 -0.11415772959348409 0.18587090892286659 0 -0.1141615326709292 0.20579390655343061 0 -0.119904872345984 0.2000289363702944 0 -0.11415772959348409 0.18587090892286659 0 -0.1141615326709292 0.20579390655343061 0 -0.11415772959348409 0.18587090892286659 0 -0.1091521434060041 0.20319688138384059 0 -0.1141615326709292 0.20579390655343061 0 -0.12670081873287459 0.19565348143795031 0 -0.12561731124133321 0.20417220577303 0 -0.119904872345984 0.2000289363702944 0 -0.12670081873287459 0.19565348143795031 0 -0.12797910783858529 0.18183011952201519 0 -0.11415772959348409 0.18587090892286659 0 -0.12670081873287459 0.19565348143795031 0 -0.11415772959348409 0.18587090892286659 0 -0.119904872345984 0.2000289363702944 0 -0.11415772959348409 0.18587090892286659 0 -0.1091521434060041 0.20319688138384059 0 -0.10299989107956491 0.19199239401487109 0 -0.1091521434060041 0.20319688138384059 0 -0.10299989107956491 0.19199239401487109 0 -0.098917639352721645 0.20118402527702281 0 -0.10299989107956491 0.19199239401487109 0 -0.098917639352721645 0.20118402527702281 0 -0.091635631627798766 0.19039592706291161 0 -0.091635631627798766 0.19039592706291161 0 -0.0843096947268583 0.2004929702148682 0 -0.072542618243606194 0.1925912686890475 0 -0.098917639352721645 0.20118402527702281 0 -0.091635631627798766 0.19039592706291161 0 -0.0843096947268583 0.2004929702148682 0 -0.0843096947268583 0.2004929702148682 0 -0.072542618243606194 0.1925912686890475 0 -0.074672233451624173 0.21357274185864891 0 -0.072542618243606194 0.1925912686890475 0 -0.058330336624733893 0.20892756187972089 0 -0.074672233451624173 0.21357274185864891 0 -0.057536246429524138 0.21898377707186781 0 -0.058330336624733893 0.20892756187972089 0 -0.072542618243606194 0.1925912686890475 0 -0.074672233451624173 0.21357274185864891 0 -0.058330336624733893 0.20892756187972089 0 -0.074672233451624173 0.21357274185864891 0 -0.058330336624733893 0.20892756187972089 0 -0.0843096947268583 0.2004929702148682 0 -0.074672233451624173 0.21357274185864891 0 -0.092483044497181893 0.21028181726063441 0 -0.074672233451624173 0.21357274185864891 0 -0.092483044497181893 0.21028181726063441 0 -0.084198475518810378 0.22115614157819119 0 -0.098917639352721645 0.20118402527702281 0 -0.0843096947268583 0.2004929702148682 0 -0.092483044497181893 0.21028181726063441 0 -0.097127577808434146 0.22120925351368051 0 -0.092483044497181893 0.21028181726063441 0 -0.084198475518810378 0.22115614157819119 0 -0.097127577808434146 0.22120925351368051 0 -0.084198475518810378 0.22115614157819119 0 -0.085672032171139875 0.23530200574850541 0 -0.084198475518810378 0.22115614157819119 0 -0.071037489665671805 0.2254148895094869 0 -0.085672032171139875 0.23530200574850541 0 -0.074672233451624173 0.21357274185864891 0 -0.084198475518810378 0.22115614157819119 0 -0.071037489665671805 0.2254148895094869 0 -0.074672233451624173 0.21357274185864891 0 -0.071037489665671805 0.2254148895094869 0 -0.057536246429524138 0.21898377707186781 0 -0.071037489665671805 0.2254148895094869 0 -0.063161643034113188 0.23697372618425189 0 -0.085672032171139875 0.23530200574850541 0 -0.071037489665671805 0.2254148895094869 0 -0.061081554146564868 0.2272680372320548 0 -0.057536246429524138 0.21898377707186781 0 -0.071037489665671805 0.2254148895094869 0 -0.063161643034113188 0.23697372618425189 0 -0.061081554146564868 0.2272680372320548 0 -0.063161643034113188 0.23697372618425189 0 -0.085672032171139875 0.23530200574850541 0 -0.063161643034113188 0.23697372618425189 0 -0.074550653465175754 0.2446864525953652 0 -0.085672032171139875 0.23530200574850541 0 -0.066099543921763954 0.25154844667530768 0 -0.063161643034113188 0.23697372618425189 0 -0.074550653465175754 0.2446864525953652 0 -0.083269394733685956 0.25492163177339572 0 -0.074550653465175754 0.2446864525953652 0 -0.085672032171139875 0.23530200574850541 0 -0.083269394733685956 0.25492163177339572 0 -0.10797544924065219 0.240125821040613 0 -0.085672032171139875 0.23530200574850541 0 -0.050846139704629277 0.25179692870554921 0 -0.040373008830991992 0.24055159145784641 0 -0.023139987613061779 0.24937707409410681 0 -0.031911656821457857 0.23929448751140939 0 -0.040373008830991992 0.24055159145784641 0 -0.023139987613061779 0.24937707409410681 0 -0.031911656821457857 0.23929448751140939 0 -0.040651253897086487 0.23864544661999831 0 -0.042299462347207092 0.22735423462118901 0 -0.031911656821457857 0.23929448751140939 0 -0.040373008830991992 0.24055159145784641 0 -0.040651253897086487 0.23864544661999831 0 -0.031911656821457857 0.23929448751140939 0 -0.040651253897086487 0.23864544661999831 0 -0.040373008830991992 0.24055159145784641 0 -0.040651253897086487 0.23864544661999831 0 -0.050846139704629277 0.25179692870554921 0 -0.040373008830991992 0.24055159145784641 0 -0.040651253897086487 0.23864544661999831 0 -0.050846139704629277 0.25179692870554921 0 -0.063161643034113188 0.23697372618425189 0 -0.040651253897086487 0.23864544661999831 0 -0.063161643034113188 0.23697372618425189 0 -0.040651253897086487 0.23864544661999831 0 -0.063161643034113188 0.23697372618425189 0 -0.040651253897086487 0.23864544661999831 0 -0.052590837456950368 0.22769975616261259 0 -0.066099543921763954 0.25154844667530768 0 -0.050846139704629277 0.25179692870554921 0 -0.063161643034113188 0.23697372618425189 0 -0.063161643034113188 0.23697372618425189 0 -0.052590837456950368 0.22769975616261259 0 -0.061081554146564868 0.2272680372320548 0 -0.052590837456950368 0.22769975616261259 0 -0.061081554146564868 0.2272680372320548 0 -0.057536246429524138 0.21898377707186781 0 -0.042299462347207092 0.22735423462118901 0 -0.051762956297119231 0.21647643076676429 0 -0.052590837456950368 0.22769975616261259 0 -0.057536246429524138 0.21898377707186781 0 -0.051762956297119231 0.21647643076676429 0 -0.052590837456950368 0.22769975616261259 0 -0.042299462347207092 0.22735423462118901 0 -0.051762956297119231 0.21647643076676429 0 -0.042299462347207092 0.22735423462118901 0 -0.044356843161122442 0.21325994762096009 0 -0.042299462347207092 0.22735423462118901 0 -0.044356843161122442 0.21325994762096009 0 -0.051762956297119231 0.21647643076676429 0 -0.031911656821457857 0.23929448751140939 0 -0.042299462347207092 0.22735423462118901 0 -0.031376147531260418 0.22059028026002589 0 -0.042299462347207092 0.22735423462118901 0 -0.031376147531260418 0.22059028026002589 0 -0.044356843161122442 0.21325994762096009 0 -0.040651253897086487 0.23864544661999831 0 -0.042299462347207092 0.22735423462118901 0 -0.040651253897086487 0.23864544661999831 0 -0.052590837456950368 0.22769975616261259 0 -0.042299462347207092 0.22735423462118901 0 -0.031911656821457857 0.23929448751140939 0 -0.042299462347207092 0.22735423462118901 0 -0.044356843161122442 0.21325994762096009 0 -0.02435551774496382 0.20457334981810671 0 -0.031376147531260418 0.22059028026002589 0 -0.044356843161122442 0.21325994762096009 0 -0.02435551774496382 0.20457334981810671 0 -0.045520757100042372 0.20528644218737699 0 -0.026490961477472531 0.1998772276656165 0 -0.02435551774496382 0.20457334981810671 0 -0.045520757100042372 0.20528644218737699 0 -0.044356843161122442 0.21325994762096009 0 -0.02435551774496382 0.20457334981810671 0 -0.045520757100042372 0.20528644218737699 0 -0.044356843161122442 0.21325994762096009 0 -0.045520757100042372 0.20528644218737699 0 -0.044356843161122442 0.21325994762096009 0 -0.051762956297119231 0.21647643076676429 0 -0.044356843161122442 0.21325994762096009 0 -0.051762956297119231 0.21647643076676429 0 -0.057536246429524138 0.21898377707186781 0 -0.051762956297119231 0.21647643076676429 0 -0.057536246429524138 0.21898377707186781 0 -0.051762956297119231 0.21647643076676429 0 -0.058330336624733893 0.20892756187972089 0 -0.051762956297119231 0.21647643076676429 0 -0.058330336624733893 0.20892756187972089 0 -0.045520757100042372 0.20528644218737699 0 -0.058330336624733893 0.20892756187972089 0 -0.053030053511201977 0.20127460016023299 0 -0.045520757100042372 0.20528644218737699 0 -0.051762956297119231 0.21647643076676429 0 -0.058330336624733893 0.20892756187972089 0 -0.045520757100042372 0.20528644218737699 0 -0.058330336624733893 0.20892756187972089 0 -0.053030053511201977 0.20127460016023299 0 -0.046642425151819322 0.1976023463049715 0 -0.056106904600032148 0.1894478352231482 0 -0.046642425151819322 0.1976023463049715 0 -0.049226533260373982 0.17989966283712119 0 -0.045520757100042372 0.20528644218737699 0 -0.053030053511201977 0.20127460016023299 0 -0.046642425151819322 0.1976023463049715 0 -0.046642425151819322 0.1976023463049715 0 -0.049226533260373982 0.17989966283712119 0 -0.072542618243606194 0.1925912686890475 0 -0.058330336624733893 0.20892756187972089 0 -0.053030053511201977 0.20127460016023299 0 -0.053030053511201977 0.20127460016023299 0 -0.056106904600032148 0.1894478352231482 0 -0.046642425151819322 0.1976023463049715 0 -0.072542618243606194 0.1925912686890475 0 -0.053030053511201977 0.20127460016023299 0 -0.056106904600032148 0.1894478352231482 0 -0.045520757100042372 0.20528644218737699 0 -0.026490961477472531 0.1998772276656165 0 -0.046642425151819322 0.1976023463049715 0 -0.031487289550446849 0.18888964387335069 0 -0.046642425151819322 0.1976023463049715 0 -0.031487289550446849 0.18888964387335069 0 -0.042066990032091973 0.1864460078587197 0 -0.046642425151819322 0.1976023463049715 0 -0.049226533260373982 0.17989966283712119 0 -0.042066990032091973 0.1864460078587197 0 -0.045520757100042372 0.20528644218737699 0 -0.037535358319945478 0.19791391500782901 0 -0.026490961477472531 0.1998772276656165 0 -0.045520757100042372 0.20528644218737699 0 -0.046642425151819322 0.1976023463049715 0 -0.037535358319945478 0.19791391500782901 0 -0.045520757100042372 0.20528644218737699 0 -0.046642425151819322 0.1976023463049715 0 -0.037535358319945478 0.19791391500782901 0 -0.031487289550446849 0.18888964387335069 0 -0.026490961477472531 0.1998772276656165 0 -0.046642425151819322 0.1976023463049715 0 -0.037535358319945478 0.19791391500782901 0 -0.031487289550446849 0.18888964387335069 0 -0.026490961477472531 0.1998772276656165 0 -0.020137950417994821 0.19035858595291941 0 -0.0097280081366586252 0.19511236248066879 0 -0.026490961477472531 0.1998772276656165 0 -0.0097280081366586252 0.19511236248066879 0 -0.02435551774496382 0.20457334981810671 0 -0.026490961477472531 0.1998772276656165 0 -0.0097280081366586252 0.19511236248066879 0 -0.031487289550446849 0.18888964387335069 0 -0.026490961477472531 0.1998772276656165 0 -0.020137950417994821 0.19035858595291941 0 -0.031487289550446849 0.18888964387335069 0 -0.026490961477472531 0.1998772276656165 0 -0.026490961477472531 0.1998772276656165 0 -0.02435551774496382 0.20457334981810671 0 -0.0097280081366586252 0.19511236248066879 0 -0.0039684215854149446 0.19571921135371431 0 -0.02435551774496382 0.20457334981810671 0 -0.0039684215854149446 0.19571921135371431 0 -0.02435551774496382 0.20457334981810671 0 -0.0097280081366586252 0.19511236248066879 0 0.0072515955251371486 0.19084634548344831 0 -0.0097280081366586252 0.19511236248066879 0 -0.0039684215854149446 0.19571921135371431 0 0.0072515955251371486 0.19084634548344831 0 -0.0097280081366586252 0.19511236248066879 0 -0.01231412683936841 0.1873277671156196 0 -0.0037551453458108631 0.18406374113349119 0 -0.020137950417994821 0.19035858595291941 0 -0.0097280081366586252 0.19511236248066879 0 -0.01231412683936841 0.1873277671156196 0 -0.0097280081366586252 0.19511236248066879 0 -0.0037551453458108631 0.18406374113349119 0 0.0072515955251371486 0.19084634548344831 0 -0.0039684215854149446 0.19571921135371431 0 -0.0014517666341171409 0.2126412530505721 0 -0.012341277361638319 0.21657449985340599 0 -0.0039684215854149446 0.19571921135371431 0 -0.012341277361638319 0.21657449985340599 0 -0.02435551774496382 0.20457334981810671 0 -0.0014517666341171409 0.2126412530505721 0 -0.012341277361638319 0.21657449985340599 0 -0.002086922477541876 0.22382617073466241 0 -0.0014517666341171409 0.2126412530505721 0 -0.002086922477541876 0.22382617073466241 0 0.0017531838798161691 0.21857897502398921 0 -0.02435551774496382 0.20457334981810671 0 -0.016053284336835689 0.2228310550573154 0 -0.012341277361638319 0.21657449985340599 0 -0.02435551774496382 0.20457334981810671 0 -0.016053284336835689 0.2228310550573154 0 -0.031376147531260418 0.22059028026002589 0 -0.02435551774496382 0.20457334981810671 0 -0.016053284336835689 0.2228310550573154 0 -0.031911656821457857 0.23929448751140939 0 -0.031376147531260418 0.22059028026002589 0 -0.016053284336835689 0.2228310550573154 0 -0.012341277361638319 0.21657449985340599 0 -0.016053284336835689 0.2228310550573154 0 -0.0085331384227579198 0.23089672833601271 0 -0.016053284336835689 0.2228310550573154 0 -0.0085331384227579198 0.23089672833601271 0 -0.0077510509287081154 0.24108876029652451 0 -0.012341277361638319 0.21657449985340599 0 -0.0085331384227579198 0.23089672833601271 0 -0.00070589218395681339 0.23840257749217331 0 -0.012341277361638319 0.21657449985340599 0 -0.002086922477541876 0.22382617073466241 0 -0.00070589218395681339 0.23840257749217331 0 -0.012341277361638319 0.21657449985340599 0 -0.00070589218395681339 0.23840257749217331 0 -0.016053284336835689 0.2228310550573154 0 -0.0077510509287081154 0.24108876029652451 0 -0.002086922477541876 0.22382617073466241 0 -0.00070589218395681339 0.23840257749217331 0 0.00066277402891192199 0.2296529712618455 0 -0.0077510509287081154 0.24108876029652451 0 -0.0052839620752209932 0.24651421377050101 0 -0.023139987613061779 0.24937707409410681 0 -0.0052839620752209932 0.24651421377050101 0 -0.023139987613061779 0.24937707409410681 0 -0.0085331384227579198 0.23089672833601271 0 -0.004858608108644559 0.2379677313224049 0 -0.0077510509287081154 0.24108876029652451 0 -0.0085331384227579198 0.23089672833601271 0 -0.004858608108644559 0.2379677313224049 0 -0.00070589218395681339 0.23840257749217331 0 -0.004858608108644559 0.2379677313224049 0 -0.0077510509287081154 0.24108876029652451 0 -0.002444350899155684 0.24148285916491 0 -0.0077510509287081154 0.24108876029652451 0 -0.002444350899155684 0.24148285916491 0 -0.004858608108644559 0.2379677313224049 0 -0.002444350899155684 0.24148285916491 0 -0.00070589218395681339 0.23840257749217331 0 -0.002444350899155684 0.24148285916491 0 0.001075375111205677 0.24174424948845771 0 -0.002444350899155684 0.24148285916491 0 -0.00070589218395681339 0.23840257749217331 0 0.001075375111205677 0.24174424948845771 0 -0.002444350899155684 0.24148285916491 0 -0.00070589218395681339 0.23840257749217331 0 -0.00070589218395681339 0.23840257749217331 0 0.00059610376430076911 0.2360956407657859 0 -0.001286980100155164 0.24545305109547139 0 -0.0052839620752209932 0.24651421377050101 0 0.0038858066017371838 0.24701664192213149 0 -0.0052839620752209932 0.24651421377050101 0 0.0038858066017371838 0.24701664192213149 0 -0.002444350899155684 0.24148285916491 0 -0.001286980100155164 0.24545305109547139 0 -0.0052839620752209932 0.24651421377050101 0 -0.002444350899155684 0.24148285916491 0 -0.001286980100155164 0.24545305109547139 0 0.001075375111205677 0.24174424948845771 0 -0.002444350899155684 0.24148285916491 0 -0.0052839620752209932 0.24651421377050101 0 -0.0077510509287081154 0.24108876029652451 0 -0.002444350899155684 0.24148285916491 0 -0.0052839620752209932 0.24651421377050101 0 -0.0077510509287081154 0.24108876029652451 0 -0.0052839620752209932 0.24651421377050101 0 -0.031911656821457857 0.23929448751140939 0 -0.0077510509287081154 0.24108876029652451 0 -0.023139987613061779 0.24937707409410681 0 -0.031911656821457857 0.23929448751140939 0 -0.016053284336835689 0.2228310550573154 0 -0.0077510509287081154 0.24108876029652451 0 -0.031911656821457857 0.23929448751140939 0 -0.0077510509287081154 0.24108876029652451 0 -0.031911656821457857 0.23929448751140939 0 -0.023139987613061779 0.24937707409410681 0 -0.039132365897830257 0.14740940570198141 0 -0.034400284178882003 0.13629870149848469 0 -0.02111029596954115 0.1393086745212942 0 -0.039132365897830257 0.14740940570198141 0 -0.049377950963987421 0.14954572199527921 0 -0.035018989020603172 0.159311844839235 0 -0.043385188846957003 0.13397535155627799 0 -0.033973286001199587 0.1245013742143854 0 -0.049781516339739637 0.1249843469984554 0 -0.039132365897830257 0.14740940570198141 0 -0.034400284178882003 0.13629870149848469 0 -0.043385188846957003 0.13397535155627799 0 -0.034400284178882003 0.13629870149848469 0 -0.043385188846957003 0.13397535155627799 0 -0.033973286001199587 0.1245013742143854 0 -0.058806790164959981 0.1357825515942494 0 -0.060937618900255147 0.1175598836492321 0 -0.039132365897830257 0.14740940570198141 0 -0.043385188846957003 0.13397535155627799 0 -0.058806790164959981 0.1357825515942494 0 -0.058806790164959981 0.1357825515942494 0 -0.049781516339739637 0.1249843469984554 0 -0.060937618900255147 0.1175598836492321 0 -0.043385188846957003 0.13397535155627799 0 -0.058806790164959981 0.1357825515942494 0 -0.049781516339739637 0.1249843469984554 0 -0.058806790164959981 0.1357825515942494 0 -0.049377950963987421 0.14954572199527921 0 -0.056640798997532951 0.15430592569849619 0 -0.039132365897830257 0.14740940570198141 0 -0.058806790164959981 0.1357825515942494 0 -0.058806790164959981 0.1357825515942494 0 -0.056640798997532951 0.15430592569849619 0 -0.067622183864069346 0.14463918348563881 0 -0.058806790164959981 0.1357825515942494 0 -0.056640798997532951 0.15430592569849619 0 -0.039132365897830257 0.14740940570198141 0 -0.058806790164959981 0.1357825515942494 0 -0.049377950963987421 0.14954572199527921 0 -0.049377950963987421 0.14954572199527921 0 -0.056640798997532951 0.15430592569849619 0 -0.051810641368927587 0.1621969793692708 0 -0.049377950963987421 0.14954572199527921 0 -0.051810641368927587 0.1621969793692708 0 -0.040432620257217181 0.16921768293431491 0 -0.056640798997532951 0.15430592569849619 0 -0.062434963576035701 0.1642158861777572 0 -0.054474807830103562 0.1728292998027427 0 -0.056640798997532951 0.15430592569849619 0 -0.054474807830103562 0.1728292998027427 0 -0.051810641368927587 0.1621969793692708 0 -0.049226533260373982 0.17989966283712119 0 -0.040432620257217181 0.16921768293431491 0 -0.051810641368927587 0.1621969793692708 0 -0.054474807830103562 0.1728292998027427 0 -0.049226533260373982 0.17989966283712119 0 -0.051810641368927587 0.1621969793692708 0 -0.049226533260373982 0.17989966283712119 0 -0.056640798997532951 0.15430592569849619 0 -0.051810641368927587 0.1621969793692708 0 -0.054474807830103562 0.1728292998027427 0 -0.066383978546143863 0.15597250385056291 0 -0.056640798997532951 0.15430592569849619 0 -0.062434963576035701 0.1642158861777572 0 -0.062871388453574789 0.17225106793122039 0 -0.062434963576035701 0.1642158861777572 0 -0.054474807830103562 0.1728292998027427 0 -0.067916098723394464 0.17946034298918229 0 -0.056106904600032148 0.1894478352231482 0 -0.057950396506277868 0.1793085976129733 0 -0.062871388453574789 0.17225106793122039 0 -0.057950396506277868 0.1793085976129733 0 -0.054474807830103562 0.1728292998027427 0 -0.057950396506277868 0.1793085976129733 0 -0.054474807830103562 0.1728292998027427 0 -0.049226533260373982 0.17989966283712119 0 -0.056106904600032148 0.1894478352231482 0 -0.057950396506277868 0.1793085976129733 0 -0.049226533260373982 0.17989966283712119 0 -0.031487289550446849 0.18888964387335069 0 -0.040432620257217181 0.16921768293431491 0 -0.049226533260373982 0.17989966283712119 0 -0.042066990032091973 0.1864460078587197 0 -0.040432620257217181 0.16921768293431491 0 -0.031487289550446849 0.18888964387335069 0 -0.042066990032091973 0.1864460078587197 0 -0.040432620257217181 0.16921768293431491 0 -0.031487289550446849 0.18888964387335069 0 -0.040432620257217181 0.16921768293431491 0 -0.026694066353279731 0.17135015375488519 0 -0.049377950963987421 0.14954572199527921 0 -0.040432620257217181 0.16921768293431491 0 -0.049377950963987421 0.14954572199527921 0 -0.040432620257217181 0.16921768293431491 0 -0.035018989020603172 0.159311844839235 0 -0.040432620257217181 0.16921768293431491 0 -0.035018989020603172 0.159311844839235 0 -0.026694066353279731 0.17135015375488519 0 -0.026694066353279731 0.17135015375488519 0 -0.019457941630701279 0.1590362598097145 0 -0.015635403457009318 0.1797763788953991 0 -0.035018989020603172 0.159311844839235 0 -0.026694066353279731 0.17135015375488519 0 -0.019457941630701279 0.1590362598097145 0 -0.031487289550446849 0.18888964387335069 0 -0.020137950417994821 0.19035858595291941 0 -0.015635403457009318 0.1797763788953991 0 -0.031487289550446849 0.18888964387335069 0 -0.015635403457009318 0.1797763788953991 0 -0.031487289550446849 0.18888964387335069 0 -0.026694066353279731 0.17135015375488519 0 -0.015635403457009318 0.1797763788953991 0 -0.020137950417994821 0.19035858595291941 0 -0.015635403457009318 0.1797763788953991 0 -0.01231412683936841 0.1873277671156196 0 -0.015635403457009318 0.1797763788953991 0 -0.0037551453458108631 0.18406374113349119 0 0.00021648263642794549 0.17066311391744721 0 -0.015635403457009318 0.1797763788953991 0 0.00021648263642794549 0.17066311391744721 0 -0.015635403457009318 0.1797763788953991 0 -0.01231412683936841 0.1873277671156196 0 -0.0037551453458108631 0.18406374113349119 0 -0.019457941630701279 0.1590362598097145 0 0.00021648263642794549 0.17066311391744721 0 -0.019457941630701279 0.1590362598097145 0 -0.0086927989589408294 0.15068433493231251 0 0.00021648263642794549 0.17066311391744721 0 -0.019457941630701279 0.1590362598097145 0 -0.015635403457009318 0.1797763788953991 0 0.00021648263642794549 0.17066311391744721 0 -0.0086927989589408294 0.15068433493231251 0 0.003619432850628497 0.15651973498445559 0 0.00021648263642794549 0.17066311391744721 0 -0.0086927989589408294 0.15068433493231251 0 -0.02111029596954115 0.1393086745212942 0 -0.001561785711569529 0.1397671442044712 0 -0.0086927989589408294 0.15068433493231251 0 -0.001561785711569529 0.1397671442044712 0 0.003619432850628497 0.15651973498445559 0 -0.039132365897830257 0.14740940570198141 0 -0.019457941630701279 0.1590362598097145 0 -0.039132365897830257 0.14740940570198141 0 -0.035018989020603172 0.159311844839235 0 -0.019457941630701279 0.1590362598097145 0 -0.019457941630701279 0.1590362598097145 0 -0.0086927989589408294 0.15068433493231251 0 -0.02111029596954115 0.1393086745212942 0 -0.039132365897830257 0.14740940570198141 0 -0.019457941630701279 0.1590362598097145 0 -0.02111029596954115 0.1393086745212942 0 -0.02111029596954115 0.1393086745212942 0 -0.01191878952888009 0.1181920992421175 0 -0.033973286001199587 0.1245013742143854 0 -0.034400284178882003 0.13629870149848469 0 -0.02111029596954115 0.1393086745212942 0 -0.033973286001199587 0.1245013742143854 0 -0.001561785711569529 0.1397671442044712 0 -0.01191878952888009 0.1181920992421175 0 0.01304916444528376 0.12900521594725781 0 -0.02111029596954115 0.1393086745212942 0 -0.001561785711569529 0.1397671442044712 0 -0.01191878952888009 0.1181920992421175 0 -0.01191878952888009 0.1181920992421175 0 -0.02865353471513819 0.10762281480148921 0 -0.0029549549015219778 0.092918491733280997 0 -0.01191878952888009 0.1181920992421175 0 -0.0029549549015219778 0.092918491733280997 0 -0.01191878952888009 0.1181920992421175 0 -0.0029549549015219778 0.092918491733280997 0 0.01307697603093517 0.1088943488213957 0 -0.02865353471513819 0.10762281480148921 0 -0.0029549549015219778 0.092918491733280997 0 -0.02239051441205336 0.089292152351493778 0 -0.01191878952888009 0.1181920992421175 0 -0.02865353471513819 0.10762281480148921 0 -0.033973286001199587 0.1245013742143854 0 -0.0088261443048828631 0.079530263409270607 0 -0.01596798763179225 0.068265525327863188 0 0.0060088797258361377 0.067644884224444479 0 -0.0029549549015219778 0.092918491733280997 0 -0.0088261443048828631 0.079530263409270607 0 -0.02239051441205336 0.089292152351493778 0 -0.0029549549015219778 0.092918491733280997 0 -0.0088261443048828631 0.079530263409270607 0 0.0060088797258361377 0.067644884224444479 0 -0.0088261443048828631 0.079530263409270607 0 -0.02239051441205336 0.089292152351493778 0 -0.01596798763179225 0.068265525327863188 0 -0.02239051441205336 0.089292152351493778 0 -0.01596798763179225 0.068265525327863188 0 -0.039501783332273541 0.061608362680294473 0 -0.02239051441205336 0.089292152351493778 0 -0.048639042508284838 0.078489588691882134 0 -0.039501783332273541 0.061608362680294473 0 -0.02239051441205336 0.089292152351493778 0 -0.042729481023800787 0.094314684027854132 0 -0.02239051441205336 0.089292152351493778 0 -0.048639042508284838 0.078489588691882134 0 -0.042729481023800787 0.094314684027854132 0 -0.048639042508284838 0.078489588691882134 0 -0.063068447635548266 0.099337215704214554 0 -0.065402512717481751 0.07937648763364262 0 -0.048639042508284838 0.078489588691882134 0 -0.042729481023800787 0.094314684027854132 0 -0.063068447635548266 0.099337215704214554 0 -0.048639042508284838 0.078489588691882134 0 -0.065402512717481751 0.07937648763364262 0 -0.067736577799415221 0.05941575956307063 0 -0.048639042508284838 0.078489588691882134 0 -0.067736577799415221 0.05941575956307063 0 -0.039501783332273541 0.061608362680294473 0 -0.02865353471513819 0.10762281480148921 0 -0.033973286001199587 0.1245013742143854 0 -0.046930189770514649 0.1115187086745688 0 -0.033973286001199587 0.1245013742143854 0 -0.046930189770514649 0.1115187086745688 0 -0.049781516339739637 0.1249843469984554 0 -0.02865353471513819 0.10762281480148921 0 -0.02239051441205336 0.089292152351493778 0 -0.042729481023800787 0.094314684027854132 0 -0.02865353471513819 0.10762281480148921 0 -0.042729481023800787 0.094314684027854132 0 -0.046930189770514649 0.1115187086745688 0 -0.042729481023800787 0.094314684027854132 0 -0.063068447635548266 0.099337215704214554 0 -0.060937618900255147 0.1175598836492321 0 -0.063068447635548266 0.099337215704214554 0 -0.042729481023800787 0.094314684027854132 0 -0.046930189770514649 0.1115187086745688 0 -0.063068447635548266 0.099337215704214554 0 -0.046930189770514649 0.1115187086745688 0 -0.060937618900255147 0.1175598836492321 0 -0.063068447635548266 0.099337215704214554 0 -0.046930189770514649 0.1115187086745688 0 -0.049781516339739637 0.1249843469984554 0 -0.060937618900255147 0.1175598836492321 0 -0.060937618900255147 0.1175598836492321 0 -0.072125567091156847 0.1109482217467367 0 -0.081182686546764526 0.1225592277892579 0 -0.081182686546764526 0.1225592277892579 0 -0.083313515282059381 0.1043365598442423 0 -0.1035585829285708 0.1093359039842689 0 -0.072125567091156847 0.1109482217467367 0 -0.081182686546764526 0.1225592277892579 0 -0.083313515282059381 0.1043365598442423 0 -0.081182686546764526 0.1225592277892579 0 -0.1035585829285708 0.1093359039842689 0 -0.083313515282059381 0.1043365598442423 0 -0.082520427496120596 0.089407901883292687 0 -0.099484787603835084 0.097300509616745398 0 -0.083313515282059381 0.1043365598442423 0 -0.1035585829285708 0.1093359039842689 0 -0.060937618900255147 0.1175598836492321 0 -0.072125567091156847 0.1109482217467367 0 -0.063068447635548266 0.099337215704214554 0 -0.072125567091156847 0.1109482217467367 0 -0.083313515282059381 0.1043365598442423 0 -0.063068447635548266 0.099337215704214554 0 -0.083313515282059381 0.1043365598442423 0 -0.063068447635548266 0.099337215704214554 0 -0.082520427496120596 0.089407901883292687 0 -0.083313515282059381 0.1043365598442423 0 -0.063068447635548266 0.099337215704214554 0 -0.063068447635548266 0.099337215704214554 0 -0.065402512717481751 0.07937648763364262 0 -0.063068447635548266 0.099337215704214554 0 -0.065402512717481751 0.07937648763364262 0 -0.082520427496120596 0.089407901883292687 0 -0.065402512717481751 0.07937648763364262 0 -0.083902302412820248 0.072077730054395758 0 -0.082520427496120596 0.089407901883292687 0 -0.065402512717481751 0.07937648763364262 0 -0.067736577799415221 0.05941575956307063 0 -0.065402512717481751 0.07937648763364262 0 -0.083902302412820248 0.072077730054395758 0 -0.067736577799415221 0.05941575956307063 0 -0.083902302412820248 0.072077730054395758 0 -0.094107960301706872 0.057367861691976829 0 -0.067736577799415221 0.05941575956307063 0 -0.083902302412820248 0.072077730054395758 0 -0.082520427496120596 0.089407901883292687 0 -0.09995099932497882 0.084018908446515578 0 -0.082520427496120596 0.089407901883292687 0 -0.09995099932497882 0.084018908446515578 0 -0.099484787603835084 0.097300509616745398 0 -0.09995099932497882 0.084018908446515578 0 -0.10775345623025941 0.069518995218958379 0 -0.11847927161111441 0.083226311160254668 0 -0.09995099932497882 0.084018908446515578 0 -0.1106314965984109 0.095395359827877349 0 -0.099484787603835084 0.097300509616745398 0 -0.083902302412820248 0.072077730054395758 0 -0.10775345623025941 0.069518995218958379 0 -0.094107960301706872 0.057367861691976829 0 -0.083902302412820248 0.072077730054395758 0 -0.09995099932497882 0.084018908446515578 0 -0.10775345623025941 0.069518995218958379 0 -0.12894820963791109 0.071549159605543894 0 -0.10775345623025941 0.069518995218958379 0 -0.1204793428039985 0.055319963820883097 0 -0.12894820963791109 0.071549159605543894 0 -0.10775345623025941 0.069518995218958379 0 -0.11847927161111441 0.083226311160254668 0 -0.09995099932497882 0.084018908446515578 0 -0.11847927161111441 0.083226311160254668 0 -0.1106314965984109 0.095395359827877349 0 -0.11847927161111441 0.083226311160254668 0 -0.12247351799286969 0.094978656904516456 0 -0.1106314965984109 0.095395359827877349 0 -0.13014376881308221 0.103448624029411 0 -0.12247351799286969 0.094978656904516456 0 -0.1184657061071261 0.10189160653600821 0 -0.12247351799286969 0.094978656904516456 0 -0.1106314965984109 0.095395359827877349 0 -0.1184657061071261 0.10189160653600821 0 -0.1106314965984109 0.095395359827877349 0 -0.1106904727331173 0.1051212219613509 0 -0.1184657061071261 0.10189160653600821 0 -0.1106904727331173 0.1051212219613509 0 -0.1184657061071261 0.10189160653600821 0 -0.11838927439815029 0.11051416995688509 0 -0.1106904727331173 0.1051212219613509 0 -0.11838927439815029 0.11051416995688509 0 -0.1101137782607772 0.1112195112971688 0 -0.13014376881308221 0.103448624029411 0 -0.1184657061071261 0.10189160653600821 0 -0.11838927439815029 0.11051416995688509 0 -0.12696926159011401 0.11688853919367979 0 -0.11838927439815029 0.11051416995688509 0 -0.1191439647455993 0.11874681541064031 0 -0.12696926159011401 0.11688853919367979 0 -0.12060300057831359 0.1253336184863498 0 -0.1191439647455993 0.11874681541064031 0 -0.1191439647455993 0.11874681541064031 0 -0.1114571508438128 0.1245729394762651 0 -0.11340623769823301 0.1163217865464854 0 -0.12060300057831359 0.1253336184863498 0 -0.1191439647455993 0.11874681541064031 0 -0.1114571508438128 0.1245729394762651 0 -0.1114571508438128 0.1245729394762651 0 -0.11340623769823301 0.1163217865464854 0 -0.1059838627095834 0.1170457686437221 0 -0.11838927439815029 0.11051416995688509 0 -0.1191439647455993 0.11874681541064031 0 -0.11340623769823301 0.1163217865464854 0 -0.11838927439815029 0.11051416995688509 0 -0.11340623769823301 0.1163217865464854 0 -0.1101137782607772 0.1112195112971688 0 -0.11340623769823301 0.1163217865464854 0 -0.1101137782607772 0.1112195112971688 0 -0.1059838627095834 0.1170457686437221 0 -0.09979871479720083 0.12508316358580929 0 -0.081182686546764526 0.1225592277892579 0 -0.1035585829285708 0.1093359039842689 0 -0.1101137782607772 0.1112195112971688 0 -0.1059838627095834 0.1170457686437221 0 -0.1035585829285708 0.1093359039842689 0 -0.09979871479720083 0.12508316358580929 0 -0.1059838627095834 0.1170457686437221 0 -0.1035585829285708 0.1093359039842689 0 -0.09979871479720083 0.12508316358580929 0 -0.1114571508438128 0.1245729394762651 0 -0.1059838627095834 0.1170457686437221 0 -0.083313515282059381 0.1043365598442423 0 -0.099484787603835084 0.097300509616745398 0 -0.1035585829285708 0.1093359039842689 0 -0.1106314965984109 0.095395359827877349 0 -0.1106904727331173 0.1051212219613509 0 -0.099484787603835084 0.097300509616745398 0 -0.1106904727331173 0.1051212219613509 0 -0.099484787603835084 0.097300509616745398 0 -0.1035585829285708 0.1093359039842689 0 -0.1106904727331173 0.1051212219613509 0 -0.1101137782607772 0.1112195112971688 0 -0.1035585829285708 0.1093359039842689 0 -0.1106904727331173 0.1051212219613509 0 -0.1035585829285708 0.1093359039842689 0 -0.1093150618717733 0.030436618173946439 0 -0.10042491163028169 0.01769715485927199 0 -0.090765246335762564 0.033909786355608318 0 -0.095210434247410186 -0.0022878937736707269 0 -0.10042491163028169 0.01769715485927199 0 -0.1099523175120959 0.0011801964601080731 0 -0.12716660979733599 0.0095071604966818855 0 -0.10042491163028169 0.01769715485927199 0 -0.12716660979733599 0.0095071604966818855 0 -0.10042491163028169 0.01769715485927199 0 -0.1099523175120959 0.0011801964601080731 0 -0.12716660979733599 0.0095071604966818855 0 -0.1093150618717733 0.030436618173946439 0 -0.10042491163028169 0.01769715485927199 0 -0.13112644818408389 0.03324826071597238 0 -0.12716660979733599 0.0095071604966818855 0 -0.1093150618717733 0.030436618173946439 0 -0.13112644818408389 0.03324826071597238 0 -0.1093150618717733 0.030436618173946439 0 -0.13112644818408389 0.03324826071597238 0 -0.1093150618717733 0.030436618173946439 0 -0.1204793428039985 0.055319963820883097 0 -0.1093150618717733 0.030436618173946439 0 -0.1204793428039985 0.055319963820883097 0 -0.10161390486903341 0.044376901459665573 0 -0.1204793428039985 0.055319963820883097 0 -0.094107960301706872 0.057367861691976829 0 -0.10161390486903341 0.044376901459665573 0 -0.1204793428039985 0.055319963820883097 0 -0.094107960301706872 0.057367861691976829 0 -0.10775345623025941 0.069518995218958379 0 -0.1204793428039985 0.055319963820883097 0 -0.094107960301706872 0.057367861691976829 0 -0.1093150618717733 0.030436618173946439 0 -0.10161390486903341 0.044376901459665573 0 -0.090765246335762564 0.033909786355608318 0 -0.10161390486903341 0.044376901459665573 0 -0.090765246335762564 0.033909786355608318 0 -0.083678433811602435 0.046886840116664837 0 -0.090765246335762564 0.033909786355608318 0 -0.083678433811602435 0.046886840116664837 0 -0.069797132412861951 0.041794069991549193 0 -0.094107960301706872 0.057367861691976829 0 -0.10161390486903341 0.044376901459665573 0 -0.083678433811602435 0.046886840116664837 0 -0.094107960301706872 0.057367861691976829 0 -0.083678433811602435 0.046886840116664837 0 -0.067736577799415221 0.05941575956307063 0 -0.094107960301706872 0.057367861691976829 0 -0.067736577799415221 0.05941575956307063 0 -0.067736577799415221 0.05941575956307063 0 -0.069797132412861951 0.041794069991549193 0 -0.083678433811602435 0.046886840116664837 0 -0.067736577799415221 0.05941575956307063 0 -0.069797132412861951 0.041794069991549193 0 -0.067736577799415221 0.05941575956307063 0 -0.069797132412861951 0.041794069991549193 0 -0.052555404240213321 0.042800821153162853 0 -0.090765246335762564 0.033909786355608318 0 -0.069797132412861951 0.041794069991549193 0 -0.07368321346322744 0.0258871492218621 0 -0.069797132412861951 0.041794069991549193 0 -0.07368321346322744 0.0258871492218621 0 -0.062388581290678993 0.033297219591476933 0 -0.07368321346322744 0.0258871492218621 0 -0.068695387013079437 0.0096772019159858218 0 -0.053518575046413268 0.022706837999333589 0 -0.07368321346322744 0.0258871492218621 0 -0.053518575046413268 0.022706837999333589 0 -0.062388581290678993 0.033297219591476933 0 -0.10042491163028169 0.01769715485927199 0 -0.07368321346322744 0.0258871492218621 0 -0.10042491163028169 0.01769715485927199 0 -0.07368321346322744 0.0258871492218621 0 -0.084011186884581784 0.0097579359096388874 0 -0.10042491163028169 0.01769715485927199 0 -0.090765246335762564 0.033909786355608318 0 -0.07368321346322744 0.0258871492218621 0 -0.095210434247410186 -0.0022878937736707269 0 -0.10042491163028169 0.01769715485927199 0 -0.084011186884581784 0.0097579359096388874 0 -0.095210434247410186 -0.0022878937736707269 0 -0.080428613217369896 -0.0033278701301705941 0 -0.084011186884581784 0.0097579359096388874 0 -0.080428613217369896 -0.0033278701301705941 0 -0.084011186884581784 0.0097579359096388874 0 -0.068695387013079437 0.0096772019159858218 0 -0.080428613217369896 -0.0033278701301705941 0 -0.064271127366952091 -0.0052947208783540797 0 -0.068695387013079437 0.0096772019159858218 0 -0.07368321346322744 0.0258871492218621 0 -0.084011186884581784 0.0097579359096388874 0 -0.068695387013079437 0.0096772019159858218 0 -0.064271127366952091 -0.0052947208783540797 0 -0.068695387013079437 0.0096772019159858218 0 -0.05439781635118042 0.006307054599579049 0 -0.05439781635118042 0.006307054599579049 0 -0.053518575046413268 0.022706837999333589 0 -0.035204045994520303 0.0048598144783787243 0 -0.068695387013079437 0.0096772019159858218 0 -0.05439781635118042 0.006307054599579049 0 -0.053518575046413268 0.022706837999333589 0 -0.053518575046413268 0.022706837999333589 0 -0.035770968515258843 0.03908085948569949 0 -0.027700200370757499 0.020837115068481179 0 -0.053518575046413268 0.022706837999333589 0 -0.027700200370757499 0.020837115068481179 0 -0.053518575046413268 0.022706837999333589 0 -0.035204045994520303 0.0048598144783787243 0 -0.027700200370757499 0.020837115068481179 0 -0.05011721311063793 -0.0050823539785914071 0 -0.05439781635118042 0.006307054599579049 0 -0.035204045994520303 0.0048598144783787243 0 -0.067736577799415221 0.05941575956307063 0 -0.052555404240213321 0.042800821153162853 0 -0.039501783332273541 0.061608362680294473 0 -0.067736577799415221 0.05941575956307063 0 -0.039501783332273541 0.061608362680294473 0 -0.069797132412861951 0.041794069991549193 0 -0.062388581290678993 0.033297219591476933 0 -0.052555404240213321 0.042800821153162853 0 -0.053518575046413268 0.022706837999333589 0 -0.052555404240213321 0.042800821153162853 0 -0.035770968515258843 0.03908085948569949 0 -0.053518575046413268 0.022706837999333589 0 -0.062388581290678993 0.033297219591476933 0 -0.052555404240213321 0.042800821153162853 0 -0.052555404240213321 0.042800821153162853 0 -0.035770968515258843 0.03908085948569949 0 -0.039501783332273541 0.061608362680294473 0 -0.035770968515258843 0.03908085948569949 0 -0.039501783332273541 0.061608362680294473 0 -0.015369566765614779 0.04740269431277859 0 -0.01596798763179225 0.068265525327863188 0 -0.039501783332273541 0.061608362680294473 0 -0.015369566765614779 0.04740269431277859 0 -0.035770968515258843 0.03908085948569949 0 -0.015369566765614779 0.04740269431277859 0 -0.027700200370757499 0.020837115068481179 0 -0.0012261298419511621 0.037483843981654968 0 -0.015369566765614779 0.04740269431277859 0 -0.027700200370757499 0.020837115068481179 0 -0.0012261298419511621 0.037483843981654968 0 -0.015369566765614779 0.04740269431277859 0 0.0060088797258361377 0.067644884224444479 0 -0.01596798763179225 0.068265525327863188 0 -0.015369566765614779 0.04740269431277859 0 0.0060088797258361377 0.067644884224444479 0 -0.0089631398119183643 -5.4210394797340562e-05 0 -0.035204045994520303 0.0048598144783787243 0 -0.027700200370757499 0.020837115068481179 0 -0.027700200370757499 0.020837115068481179 0 -0.0018818256951016151 0.018967392137628759 0 -0.0012261298419511621 0.037483843981654968 0 -0.027700200370757499 0.020837115068481179 0 -0.0018818256951016151 0.018967392137628759 0 -0.0089631398119183643 -5.4210394797340562e-05 0 -0.027700200370757499 0.020837115068481179 0 -0.0018818256951016151 0.018967392137628759 0 -0.0089631398119183643 -5.4210394797340562e-05 0 -0.0018818256951016151 0.018967392137628759 0 0.014539710737812159 -0.00031952355959833159 0 -0.0018818256951016151 0.018967392137628759 0 0.02440143103355169 0.015786930328396689 0 0.014539710737812159 -0.00031952355959833159 0 -0.0012261298419511621 0.037483843981654968 0 -0.0018818256951016151 0.018967392137628759 0 0.0116749781922427 0.026975249641749809 0 -0.0018818256951016151 0.018967392137628759 0 0.02440143103355169 0.015786930328396689 0 -0.0018818256951016151 0.018967392137628759 0 0.0116749781922427 0.026975249641749809 0 0.02440143103355169 0.015786930328396689 0 0.02440143103355169 0.015786930328396689 0 0.014972714353194239 0.042371276715607989 0 0.0116749781922427 0.026975249641749809 0 0.02440143103355169 0.015786930328396689 0 0.014972714353194239 0.042371276715607989 0 0.02440143103355169 0.015786930328396689 0 0.014972714353194239 0.042371276715607989 0 0.033429860844410117 0.030532429497785819 0 0.02440143103355169 0.015786930328396689 0 0.033559896453982267 0.02031608070243987 0 0.033429860844410117 0.030532429497785819 0 0.02440143103355169 0.015786930328396689 0 0.033429860844410117 0.030532429497785819 0 0.02440143103355169 0.015786930328396689 0 0.028349239989563391 0.0046560496035753726 0 0.033559896453982267 0.02031608070243987 0 0.02440143103355169 0.015786930328396689 0 0.028349239989563391 0.0046560496035753726 0 0.014539710737812159 -0.00031952355959833159 0 0.02440143103355169 0.015786930328396689 0 0.028349239989563391 0.0046560496035753726 0 0.02440143103355169 0.015786930328396689 0 0.014539710737812159 -0.00031952355959833159 0 -0.0012261298419511621 0.037483843981654968 0 0.014972714353194239 0.042371276715607989 0 0.0060088797258361377 0.067644884224444479 0 0.014972714353194239 0.042371276715607989 0 0.0060088797258361377 0.067644884224444479 0 -0.0012261298419511621 0.037483843981654968 0 0.0116749781922427 0.026975249641749809 0 0.014972714353194239 0.042371276715607989 0 0.014972714353194239 0.042371276715607989 0 0.027730956680300751 0.056220191676821692 0 0.033429860844410117 0.030532429497785819 0 0.014972714353194239 0.042371276715607989 0 0.027730956680300751 0.056220191676821692 0 0.0060088797258361377 0.067644884224444479 0 0.027730956680300751 0.056220191676821692 0 0.044216543633034552 0.059457832705990268 0 0.042458290655268169 0.045277928667175171 0 0.027730956680300751 0.056220191676821692 0 0.042458290655268169 0.045277928667175171 0 0.033429860844410117 0.030532429497785819 0 0.042458290655268169 0.045277928667175171 0 0.033429860844410117 0.030532429497785819 0 0.042458290655268169 0.045277928667175171 0 0.045089406523732931 0.031539737137392353 0 0.033429860844410117 0.030532429497785819 0 0.058761342191417883 0.031741597411952108 0 0.054578102692190662 0.045447007812596793 0 0.073967393292346084 0.045284371316139341 0 0.045089406523732931 0.031539737137392353 0 0.058761342191417883 0.031741597411952108 0 0.054578102692190662 0.045447007812596793 0 0.042458290655268169 0.045277928667175171 0 0.045089406523732931 0.031539737137392353 0 0.054578102692190662 0.045447007812596793 0 0.054578102692190662 0.045447007812596793 0 0.05884666775773794 0.05958657027682622 0 0.073967393292346084 0.045284371316139341 0 0.044216543633034552 0.059457832705990268 0 0.042458290655268169 0.045277928667175171 0 0.054578102692190662 0.045447007812596793 0 0.044216543633034552 0.059457832705990268 0 0.054578102692190662 0.045447007812596793 0 0.05884666775773794 0.05958657027682622 0 0.028349239989563391 0.0046560496035753726 0 0.043555291090489653 0.018198823507764861 0 0.047740627773719187 0.001996661195049852 0 0.028349239989563391 0.0046560496035753726 0 0.033559896453982267 0.02031608070243987 0 0.043555291090489653 0.018198823507764861 0 0.028349239989563391 0.0046560496035753726 0 0.043555291090489653 0.018198823507764861 0 0.045089406523732931 0.031539737137392353 0 0.033559896453982267 0.02031608070243987 0 0.033429860844410117 0.030532429497785819 0 0.045089406523732931 0.031539737137392353 0 0.033559896453982267 0.02031608070243987 0 0.043555291090489653 0.018198823507764861 0 0.058761342191417883 0.031741597411952108 0 0.043555291090489653 0.018198823507764861 0 0.064043398586387551 0.016484687227618051 0 0.058761342191417883 0.031741597411952108 0 0.043555291090489653 0.018198823507764861 0 0.045089406523732931 0.031539737137392353 0 0.058761342191417883 0.031741597411952108 0 0.043555291090489653 0.018198823507764861 0 0.043555291090489653 0.018198823507764861 0 0.047740627773719187 0.001996661195049852 0 0.064043398586387551 0.016484687227618051 0 0.047740627773719187 0.001996661195049852 0 0.064043398586387551 0.016484687227618051 0 0.071777021100217678 -0.0013939366682484619 0 0.087668007647492177 0.01927661724196485 0 0.064043398586387551 0.016484687227618051 0 0.071777021100217678 -0.0013939366682484619 0 0.086294217375082277 0.0038891852048607129 0 0.087668007647492177 0.01927661724196485 0 0.071777021100217678 -0.0013939366682484619 0 0.086294217375082277 0.0038891852048607129 0 0.087668007647492177 0.01927661724196485 0 0.1051296991518323 0.01836888498948714 0 0.087668007647492177 0.01927661724196485 0 0.071777021100217678 -0.0013939366682484619 0 0.087668007647492177 0.01927661724196485 0 0.064043398586387551 0.016484687227618051 0 0.074206459656332324 0.031792870964954187 0 0.058761342191417883 0.031741597411952108 0 0.064043398586387551 0.016484687227618051 0 0.074206459656332324 0.031792870964954187 0 0.058761342191417883 0.031741597411952108 0 0.073967393292346084 0.045284371316139341 0 0.074206459656332324 0.031792870964954187 0 0.058761342191417883 0.031741597411952108 0 0.073967393292346084 0.045284371316139341 0 0.05884666775773794 0.05958657027682622 0 0.073967393292346084 0.045284371316139341 0 0.074191079945247221 0.061438600165591072 0 0.074191079945247221 0.061438600165591072 0 0.086592156564018002 0.046177081627096633 0 0.088450146534461649 0.069882809883079933 0 0.086592156564018002 0.046177081627096633 0 0.102263096645668 0.059296953624644773 0 0.088450146534461649 0.069882809883079933 0 0.073967393292346084 0.045284371316139341 0 0.074191079945247221 0.061438600165591072 0 0.086592156564018002 0.046177081627096633 0 0.087668007647492177 0.01927661724196485 0 0.086592156564018002 0.046177081627096633 0 0.1035589941947667 0.039947171152178183 0 0.087668007647492177 0.01927661724196485 0 0.074206459656332324 0.031792870964954187 0 0.086592156564018002 0.046177081627096633 0 0.073967393292346084 0.045284371316139341 0 0.074206459656332324 0.031792870964954187 0 0.086592156564018002 0.046177081627096633 0 0.1035589941947667 0.039947171152178183 0 0.11548381397339889 0.045760857191489243 0 0.1051296991518323 0.01836888498948714 0 0.1035589941947667 0.039947171152178183 0 0.102263096645668 0.059296953624644773 0 0.11944998074204199 0.060617725062390833 0 0.086592156564018002 0.046177081627096633 0 0.1035589941947667 0.039947171152178183 0 0.102263096645668 0.059296953624644773 0 0.1203117858774304 0.058533332141466138 0 0.12875803810089551 0.038104922492593063 0 0.1203117858774304 0.058533332141466138 0 0.11548381397339889 0.045760857191489243 0 0.12875803810089551 0.038104922492593063 0 0.1035589941947667 0.039947171152178183 0 0.1139150190707512 0.048980390280758318 0 0.11944998074204199 0.060617725062390833 0 0.1035589941947667 0.039947171152178183 0 0.11944998074204199 0.060617725062390833 0 0.1139150190707512 0.048980390280758318 0 0.1203117858774304 0.058533332141466138 0 0.11548381397339889 0.045760857191489243 0 0.1139150190707512 0.048980390280758318 0 0.11548381397339889 0.045760857191489243 0 0.1203117858774304 0.058533332141466138 0 0.11548381397339889 0.045760857191489243 0 0.1139150190707512 0.048980390280758318 0 0.1203117858774304 0.058533332141466138 0 0.11944998074204199 0.060617725062390833 0 0.1203117858774304 0.058533332141466138 0 0.12269544150965531 0.064839330282485258 0 0.12802629524595011 0.059896385033824252 0 0.1203117858774304 0.058533332141466138 0 0.12269544150965531 0.064839330282485258 0 0.1203117858774304 0.058533332141466138 0 0.11944998074204199 0.060617725062390833 0 0.12269544150965531 0.064839330282485258 0 0.1203117858774304 0.058533332141466138 0 0.11944998074204199 0.060617725062390833 0 0.11548381397339889 0.045760857191489243 0 0.1051296991518323 0.01836888498948714 0 0.11548381397339889 0.045760857191489243 0 0.12598116292572639 0.02421784844981693 0 0.11548381397339889 0.045760857191489243 0 0.12598116292572639 0.02421784844981693 0 0.12875803810089551 0.038104922492593063 0 0.1035589941947667 0.039947171152178183 0 0.1139150190707512 0.048980390280758318 0 0.11548381397339889 0.045760857191489243 0 0.11548381397339889 0.045760857191489243 0 0.1051296991518323 0.01836888498948714 0 0.12598116292572639 0.02421784844981693 0 0.1191620246975521 0.0084359164153180715 0 0.1051296991518323 0.01836888498948714 0 0.12598116292572639 0.02421784844981693 0 0.1191620246975521 0.0084359164153180715 0 0.1051296991518323 0.01836888498948714 0 0.1079566754540649 -0.0046028785155016946 0 0.1051296991518323 0.01836888498948714 0 0.1079566754540649 -0.0046028785155016946 0 0.094775584330267032 -0.0090230872125153811 0 0.086294217375082277 0.0038891852048607129 0 0.1051296991518323 0.01836888498948714 0 0.094775584330267032 -0.0090230872125153811 0 0.1051296991518323 0.01836888498948714 0 0.094775584330267032 -0.0090230872125153811 0 0.087668007647492177 0.01927661724196485 0 0.1035589941947667 0.039947171152178183 0 0.087668007647492177 0.01927661724196485 0 0.1035589941947667 0.039947171152178183 0 0.1051296991518323 0.01836888498948714 0 0.1019253257514396 0.10300348641915109 0 0.10719534167879349 0.11343759335724039 0 0.1162760973220357 0.10023178141298671 0 0.1019253257514396 0.10300348641915109 0 0.10719534167879349 0.11343759335724039 0 0.093162998256136331 0.1241963670975304 0 0.1019253257514396 0.10300348641915109 0 0.093162998256136331 0.1241963670975304 0 0.10262549360193481 0.12298499605864981 0 0.10719534167879349 0.11343759335724039 0 0.093162998256136331 0.1241963670975304 0 0.10262549360193481 0.12298499605864981 0 0.093162998256136331 0.1241963670975304 0 0.095660805844260066 0.12529610217238801 0 0.093162998256136331 0.1241963670975304 0 0.095660805844260066 0.12529610217238801 0 0.10262549360193481 0.12298499605864981 0 0.10719534167879349 0.11343759335724039 0 0.1118384908630341 0.1247669536496753 0 0.10719534167879349 0.11343759335724039 0 0.1118384908630341 0.1247669536496753 0 0.1178100177304227 0.11121483550798129 0 0.1118384908630341 0.1247669536496753 0 0.1178100177304227 0.11121483550798129 0 0.12591725066788861 0.1224849421901677 0 0.1019253257514396 0.10300348641915109 0 0.1162760973220357 0.10023178141298671 0 0.1106876532467418 0.081810605740771369 0 0.1178100177304227 0.11121483550798129 0 0.1162760973220357 0.10023178141298671 0 0.12869506425262761 0.1049951383488585 0 0.10719534167879349 0.11343759335724039 0 0.1178100177304227 0.11121483550798129 0 0.1162760973220357 0.10023178141298671 0 0.1106876532467418 0.081810605740771369 0 0.12269544150965531 0.064839330282485258 0 0.13142414888542589 0.087931261743246267 0 0.1162760973220357 0.10023178141298671 0 0.1106876532467418 0.081810605740771369 0 0.13142414888542589 0.087931261743246267 0 0.102263096645668 0.059296953624644773 0 0.11944998074204199 0.060617725062390833 0 0.1106876532467418 0.081810605740771369 0 0.11944998074204199 0.060617725062390833 0 0.1106876532467418 0.081810605740771369 0 0.11944998074204199 0.060617725062390833 0 0.1106876532467418 0.081810605740771369 0 0.12269544150965531 0.064839330282485258 0 0.11944998074204199 0.060617725062390833 0 0.12269544150965531 0.064839330282485258 0 0.102263096645668 0.059296953624644773 0 0.1106876532467418 0.081810605740771369 0 0.088450146534461649 0.069882809883079933 0 0.1019253257514396 0.10300348641915109 0 0.1106876532467418 0.081810605740771369 0 0.1106876532467418 0.081810605740771369 0 0.086133154853185706 0.089588164677732895 0 0.088450146534461649 0.069882809883079933 0 0.1019253257514396 0.10300348641915109 0 0.1106876532467418 0.081810605740771369 0 0.086133154853185706 0.089588164677732895 0 0.086133154853185706 0.089588164677732895 0 0.088450146534461649 0.069882809883079933 0 0.066168493092629718 0.080180177830413812 0 0.074191079945247221 0.061438600165591072 0 0.088450146534461649 0.069882809883079933 0 0.066168493092629718 0.080180177830413812 0 0.05884666775773794 0.05958657027682622 0 0.074191079945247221 0.061438600165591072 0 0.066168493092629718 0.080180177830413812 0 0.086133154853185706 0.089588164677732895 0 0.066168493092629718 0.080180177830413812 0 0.066100536032717025 0.112281302438183 0 0.1019253257514396 0.10300348641915109 0 0.086133154853185706 0.089588164677732895 0 0.084824236133221154 0.10784543651343689 0 0.086133154853185706 0.089588164677732895 0 0.084824236133221154 0.10784543651343689 0 0.066100536032717025 0.112281302438183 0 0.1019253257514396 0.10300348641915109 0 0.084824236133221154 0.10784543651343689 0 0.093162998256136331 0.1241963670975304 0 0.093162998256136331 0.1241963670975304 0 0.066100536032717025 0.112281302438183 0 0.084824236133221154 0.10784543651343689 0 0.093162998256136331 0.1241963670975304 0 0.066100536032717025 0.112281302438183 0 0.093162998256136331 0.1241963670975304 0 0.066100536032717025 0.112281302438183 0 0.072407381218146202 0.1338548844673659 0 0.066100536032717025 0.112281302438183 0 0.039038073809297497 0.10036623777883549 0 0.036435888733326392 0.123361191594173 0 0.066168493092629718 0.080180177830413812 0 0.066100536032717025 0.112281302438183 0 0.039038073809297497 0.10036623777883549 0 0.066100536032717025 0.112281302438183 0 0.039038073809297497 0.10036623777883549 0 0.05884666775773794 0.05958657027682622 0 0.066168493092629718 0.080180177830413812 0 0.049966792831398522 0.073919923382794364 0 0.044216543633034552 0.059457832705990268 0 0.05884666775773794 0.05958657027682622 0 0.049966792831398522 0.073919923382794364 0 0.066168493092629718 0.080180177830413812 0 0.039038073809297497 0.10036623777883549 0 0.049966792831398522 0.073919923382794364 0 0.039038073809297497 0.10036623777883549 0 0.049966792831398522 0.073919923382794364 0 0.035033793697021628 0.072340376857664826 0 0.039038073809297497 0.10036623777883549 0 0.035033793697021628 0.072340376857664826 0 0.02019495604788217 0.075680900087858632 0 0.027730956680300751 0.056220191676821692 0 0.044216543633034552 0.059457832705990268 0 0.035033793697021628 0.072340376857664826 0 0.044216543633034552 0.059457832705990268 0 0.049966792831398522 0.073919923382794364 0 0.035033793697021628 0.072340376857664826 0 0.027730956680300751 0.056220191676821692 0 0.02019495604788217 0.075680900087858632 0 0.0060088797258361377 0.067644884224444479 0 0.027730956680300751 0.056220191676821692 0 0.035033793697021628 0.072340376857664826 0 0.02019495604788217 0.075680900087858632 0 0.039038073809297497 0.10036623777883549 0 0.02019495604788217 0.075680900087858632 0 0.01197561158587802 0.088451173119488094 0 -0.0029549549015219778 0.092918491733280997 0 0.0060088797258361377 0.067644884224444479 0 -0.0029549549015219778 0.092918491733280997 0 0.01197561158587802 0.088451173119488094 0 0.0060088797258361377 0.067644884224444479 0 0.02019495604788217 0.075680900087858632 0 0.01197561158587802 0.088451173119488094 0 0.0060088797258361377 0.067644884224444479 0 0.039038073809297497 0.10036623777883549 0 0.036435888733326392 0.123361191594173 0 0.01307697603093517 0.1088943488213957 0 0.036435888733326392 0.123361191594173 0 0.01307697603093517 0.1088943488213957 0 0.01304916444528376 0.12900521594725781 0 0.039038073809297497 0.10036623777883549 0 0.01197561158587802 0.088451173119488094 0 0.039038073809297497 0.10036623777883549 0 0.01197561158587802 0.088451173119488094 0 0.01307697603093517 0.1088943488213957 0 -0.0029549549015219778 0.092918491733280997 0 0.01197561158587802 0.088451173119488094 0 0.01307697603093517 0.1088943488213957 0 -0.01191878952888009 0.1181920992421175 0 0.01307697603093517 0.1088943488213957 0 0.01304916444528376 0.12900521594725781 0 -0.001561785711569529 0.1397671442044712 0 0.01304916444528376 0.12900521594725781 0 0.016259466253672451 0.14690170898289551 0 0.036435888733326392 0.123361191594173 0 0.01304916444528376 0.12900521594725781 0 0.028970439645018459 0.13746900112289259 0 0.01304916444528376 0.12900521594725781 0 0.028970439645018459 0.13746900112289259 0 0.016259466253672451 0.14690170898289551 0 0.028970439645018459 0.13746900112289259 0 0.016259466253672451 0.14690170898289551 0 0.032000887591859671 0.15239022810322739 0 0.016259466253672451 0.14690170898289551 0 0.013588423968690059 0.162975571633064 0 0.032000887591859671 0.15239022810322739 0 0.016259466253672451 0.14690170898289551 0 0.003619432850628497 0.15651973498445559 0 0.013588423968690059 0.162975571633064 0 -0.001561785711569529 0.1397671442044712 0 0.016259466253672451 0.14690170898289551 0 0.003619432850628497 0.15651973498445559 0 0.003619432850628497 0.15651973498445559 0 0.00021648263642794549 0.17066311391744721 0 0.013588423968690059 0.162975571633064 0 0.00021648263642794549 0.17066311391744721 0 0.013588423968690059 0.162975571633064 0 0.018066875288176149 0.18121203307816669 0 0.00021648263642794549 0.17066311391744721 0 0.013588423968690059 0.162975571633064 0 0.003619432850628497 0.15651973498445559 0 0.013588423968690059 0.162975571633064 0 0.00021648263642794549 0.17066311391744721 0 0.018066875288176149 0.18121203307816669 0 0.00021648263642794549 0.17066311391744721 0 0.0075963664714162396 0.18263029166282899 0 0.018066875288176149 0.18121203307816669 0 -0.0037551453458108631 0.18406374113349119 0 0.0075963664714162396 0.18263029166282899 0 0.0072515955251371486 0.19084634548344831 0 -0.0037551453458108631 0.18406374113349119 0 0.00021648263642794549 0.17066311391744721 0 0.0075963664714162396 0.18263029166282899 0 0.0075963664714162396 0.18263029166282899 0 0.01641867457413335 0.18686507288932069 0 0.0072515955251371486 0.19084634548344831 0 0.0075963664714162396 0.18263029166282899 0 0.018066875288176149 0.18121203307816669 0 0.01641867457413335 0.18686507288932069 0 0.018066875288176149 0.18121203307816669 0 0.01641867457413335 0.18686507288932069 0 0.036805770733681367 0.1780109344249266 0 0.01641867457413335 0.18686507288932069 0 0.036805770733681367 0.1780109344249266 0 0.031391888709460539 0.19102960139719929 0 0.01641867457413335 0.18686507288932069 0 0.036805770733681367 0.1780109344249266 0 0.013588423968690059 0.162975571633064 0 0.018066875288176149 0.18121203307816669 0 0.036805770733681367 0.1780109344249266 0 0.013588423968690059 0.162975571633064 0 0.033259559260870028 0.16732729353997919 0 0.036805770733681367 0.1780109344249266 0 0.013588423968690059 0.162975571633064 0 0.032000887591859671 0.15239022810322739 0 0.013588423968690059 0.162975571633064 0 0.033259559260870028 0.16732729353997919 0 0.032000887591859671 0.15239022810322739 0 0.013588423968690059 0.162975571633064 0 0.036805770733681367 0.1780109344249266 0 0.033259559260870028 0.16732729353997919 0 0.04459472816920583 0.162464212353745 0 0.032000887591859671 0.15239022810322739 0 0.033259559260870028 0.16732729353997919 0 0.04459472816920583 0.162464212353745 0 0.039821591811631127 0.17670115998726171 0 0.04459472816920583 0.162464212353745 0 0.039821591811631127 0.17670115998726171 0 0.054798808724612937 0.17600131707032279 0 0.036805770733681367 0.1780109344249266 0 0.049813388496148629 0.18643456069437689 0 0.031391888709460539 0.19102960139719929 0 0.033259559260870028 0.16732729353997919 0 0.036805770733681367 0.1780109344249266 0 0.039821591811631127 0.17670115998726171 0 0.036805770733681367 0.1780109344249266 0 0.039821591811631127 0.17670115998726171 0 0.036805770733681367 0.1780109344249266 0 0.049813388496148629 0.18643456069437689 0 0.036805770733681367 0.1780109344249266 0 0.039821591811631127 0.17670115998726171 0 0.049813388496148629 0.18643456069437689 0 0.049813388496148629 0.18643456069437689 0 0.054798808724612937 0.17600131707032279 0 0.062821006258615447 0.19485818696382809 0 0.039821591811631127 0.17670115998726171 0 0.049813388496148629 0.18643456069437689 0 0.054798808724612937 0.17600131707032279 0 0.054798808724612937 0.17600131707032279 0 0.057274170411231319 0.16056039084828741 0 0.073753631423299992 0.17114056035574471 0 0.04459472816920583 0.162464212353745 0 0.054798808724612937 0.17600131707032279 0 0.057274170411231319 0.16056039084828741 0 0.04459472816920583 0.162464212353745 0 0.057274170411231319 0.16056039084828741 0 0.05041335121502992 0.14180488457339169 0 0.057274170411231319 0.16056039084828741 0 0.05041335121502992 0.14180488457339169 0 0.066929270391673679 0.14972388196993699 0 0.066100536032717025 0.112281302438183 0 0.036435888733326392 0.123361191594173 0 0.05041335121502992 0.14180488457339169 0 0.036435888733326392 0.123361191594173 0 0.028970439645018459 0.13746900112289259 0 0.05041335121502992 0.14180488457339169 0 0.05041335121502992 0.14180488457339169 0 0.032000887591859671 0.15239022810322739 0 0.028970439645018459 0.13746900112289259 0 0.05041335121502992 0.14180488457339169 0 0.032000887591859671 0.15239022810322739 0 0.04459472816920583 0.162464212353745 0 0.05041335121502992 0.14180488457339169 0 0.032000887591859671 0.15239022810322739 0 0.018147486044665428 0.24301209948230251 0 0.035219596978125163 0.24427994947614681 0 0.019552701789931199 0.2456482956991394 0 0.035219596978125163 0.24427994947614681 0 0.019552701789931199 0.2456482956991394 0 0.035219596978125163 0.24427994947614681 0 0.023831315674361551 0.25784578595971469 0 0.0277561520607402 0.2366471620800556 0 0.018147486044665428 0.24301209948230251 0 0.035219596978125163 0.24427994947614681 0 0.019552701789931199 0.2456482956991394 0 0.018147486044665428 0.24301209948230251 0 0.035219596978125163 0.24427994947614681 0 0.0277561520607402 0.2366471620800556 0 0.018147486044665428 0.24301209948230251 0 0.018285648049168188 0.23186094764767071 0 0.018147486044665428 0.24301209948230251 0 0.001075375111205677 0.24174424948845771 0 0.018147486044665428 0.24301209948230251 0 0.001075375111205677 0.24174424948845771 0 0.0097466044974914914 0.23699758190822601 0 0.019552701789931199 0.2456482956991394 0 0.0038858066017371838 0.24701664192213149 0 0.019552701789931199 0.2456482956991394 0 0.0038858066017371838 0.24701664192213149 0 0.01534911090579608 0.25416688120580838 0 0.018147486044665428 0.24301209948230251 0 0.0038858066017371838 0.24701664192213149 0 0.001075375111205677 0.24174424948845771 0 0.019552701789931199 0.2456482956991394 0 0.018147486044665428 0.24301209948230251 0 0.0038858066017371838 0.24701664192213149 0 -0.001286980100155164 0.24545305109547139 0 0.0038858066017371838 0.24701664192213149 0 0.001075375111205677 0.24174424948845771 0 0.0038858066017371838 0.24701664192213149 0 0.001075375111205677 0.24174424948845771 0 0.00059610376430076911 0.2360956407657859 0 0.0097466044974914914 0.23699758190822601 0 0.0054206033171348041 0.23306164759197009 0 0.00059610376430076911 0.2360956407657859 0 0.001075375111205677 0.24174424948845771 0 0.0097466044974914914 0.23699758190822601 0 -0.00070589218395681339 0.23840257749217331 0 0.00059610376430076911 0.2360956407657859 0 0.00066277402891192199 0.2296529712618455 0 -0.00070589218395681339 0.23840257749217331 0 0.001075375111205677 0.24174424948845771 0 -0.00070589218395681339 0.23840257749217331 0 0.00059610376430076911 0.2360956407657859 0 0.001075375111205677 0.24174424948845771 0 0.018147486044665428 0.24301209948230251 0 0.0097466044974914914 0.23699758190822601 0 0.018285648049168188 0.23186094764767071 0 0.0097466044974914914 0.23699758190822601 0 0.0089183276013548116 0.22806462387347581 0 0.0054206033171348041 0.23306164759197009 0 0.0089183276013548116 0.22806462387347581 0 0.01732812614641353 0.22255887122421311 0 0.018285648049168188 0.23186094764767071 0 0.0097466044974914914 0.23699758190822601 0 0.0089183276013548116 0.22806462387347581 0 0.018285648049168188 0.23186094764767071 0 0.0089183276013548116 0.22806462387347581 0 0.0054206033171348041 0.23306164759197009 0 0.00066277402891192199 0.2296529712618455 0 0.0089183276013548116 0.22806462387347581 0 0.00066277402891192199 0.2296529712618455 0 0.0034165958285795649 0.22343383821244431 0 0.00059610376430076911 0.2360956407657859 0 0.0054206033171348041 0.23306164759197009 0 0.00066277402891192199 0.2296529712618455 0 0.0089183276013548116 0.22806462387347581 0 0.0034165958285795649 0.22343383821244431 0 0.0079032179111760501 0.21730032924584269 0 -0.002086922477541876 0.22382617073466241 0 0.0034165958285795649 0.22343383821244431 0 0.0017531838798161691 0.21857897502398921 0 -0.002086922477541876 0.22382617073466241 0 0.00066277402891192199 0.2296529712618455 0 0.0034165958285795649 0.22343383821244431 0 0.0034165958285795649 0.22343383821244431 0 0.0079032179111760501 0.21730032924584269 0 0.0017531838798161691 0.21857897502398921 0 0.0089183276013548116 0.22806462387347581 0 0.01732812614641353 0.22255887122421311 0 0.0079032179111760501 0.21730032924584269 0 0.01732812614641353 0.22255887122421311 0 0.027817191944343681 0.2238853473177512 0 0.02023059101628635 0.2135554039094725 0 0.01732812614641353 0.22255887122421311 0 0.018285648049168188 0.23186094764767071 0 0.027817191944343681 0.2238853473177512 0 0.0277561520607402 0.2366471620800556 0 0.018285648049168188 0.23186094764767071 0 0.027817191944343681 0.2238853473177512 0 0.027817191944343681 0.2238853473177512 0 0.02023059101628635 0.2135554039094725 0 0.035348568469910871 0.21081770337392039 0 0.02023059101628635 0.2135554039094725 0 0.02350800242527459 0.2027189189720254 0 0.035348568469910871 0.21081770337392039 0 0.02023059101628635 0.2135554039094725 0 0.0094784392005993756 0.20405125332308219 0 0.02350800242527459 0.2027189189720254 0 0.02023059101628635 0.2135554039094725 0 0.0079032179111760501 0.21730032924584269 0 0.0094784392005993756 0.20405125332308219 0 -0.0039684215854149446 0.19571921135371431 0 -0.0014517666341171409 0.2126412530505721 0 0.0094784392005993756 0.20405125332308219 0 0.01732812614641353 0.22255887122421311 0 0.02023059101628635 0.2135554039094725 0 0.0079032179111760501 0.21730032924584269 0 -0.0014517666341171409 0.2126412530505721 0 0.0079032179111760501 0.21730032924584269 0 0.0094784392005993756 0.20405125332308219 0 -0.0014517666341171409 0.2126412530505721 0 0.0079032179111760501 0.21730032924584269 0 0.0017531838798161691 0.21857897502398921 0 0.01641867457413335 0.18686507288932069 0 0.0094784392005993756 0.20405125332308219 0 0.0072515955251371486 0.19084634548344831 0 -0.0039684215854149446 0.19571921135371431 0 0.0094784392005993756 0.20405125332308219 0 0.0072515955251371486 0.19084634548344831 0 -0.0039684215854149446 0.19571921135371431 0 0.0072515955251371486 0.19084634548344831 0 0.01641867457413335 0.18686507288932069 0 0.0072515955251371486 0.19084634548344831 0 0.01641867457413335 0.18686507288932069 0 0.02350800242527459 0.2027189189720254 0 0.031391888709460539 0.19102960139719929 0 0.01641867457413335 0.18686507288932069 0 0.0094784392005993756 0.20405125332308219 0 0.02350800242527459 0.2027189189720254 0 0.049813388496148629 0.18643456069437689 0 0.031391888709460539 0.19102960139719929 0 0.043164504341944958 0.19878855296792669 0 0.02350800242527459 0.2027189189720254 0 0.031391888709460539 0.19102960139719929 0 0.043164504341944958 0.19878855296792669 0 0.02350800242527459 0.2027189189720254 0 0.043164504341944958 0.19878855296792669 0 0.049813388496148629 0.18643456069437689 0 0.043164504341944958 0.19878855296792669 0 0.062821006258615447 0.19485818696382809 0 0.043164504341944958 0.19878855296792669 0 0.062821006258615447 0.19485818696382809 0 0.049813388496148629 0.18643456069437689 0 0.062821006258615447 0.19485818696382809 0 0.043164504341944958 0.19878855296792669 0 0.053488072017114419 0.22015557179034029 0 0.062821006258615447 0.19485818696382809 0 0.053488072017114419 0.22015557179034029 0 0.062821006258615447 0.19485818696382809 0 0.053488072017114419 0.22015557179034029 0 0.06834637000487781 0.2103369913858692 0 0.062821006258615447 0.19485818696382809 0 0.043164504341944958 0.19878855296792669 0 0.035348568469910871 0.21081770337392039 0 0.053488072017114419 0.22015557179034029 0 0.02350800242527459 0.2027189189720254 0 0.043164504341944958 0.19878855296792669 0 0.035348568469910871 0.21081770337392039 0 0.035348568469910871 0.21081770337392039 0 0.038718531141916049 0.2214777301963127 0 0.053488072017114419 0.22015557179034029 0 0.027817191944343681 0.2238853473177512 0 0.035348568469910871 0.21081770337392039 0 0.038718531141916049 0.2214777301963127 0 0.038220292136295228 0.2310522983032389 0 0.053488072017114419 0.22015557179034029 0 0.043266614698450417 0.24487755638058531 0 0.027817191944343681 0.2238853473177512 0 0.038718531141916049 0.2214777301963127 0 0.038220292136295228 0.2310522983032389 0 0.0277561520607402 0.2366471620800556 0 0.027817191944343681 0.2238853473177512 0 0.038220292136295228 0.2310522983032389 0 0.038718531141916049 0.2214777301963127 0 0.038220292136295228 0.2310522983032389 0 0.053488072017114419 0.22015557179034029 0 0.053488072017114419 0.22015557179034029 0 0.060051603146963707 0.23183355716107101 0 0.047257557382846677 0.24517394132545531 0 0.053488072017114419 0.22015557179034029 0 0.043266614698450417 0.24487755638058531 0 0.053488072017114419 0.22015557179034029 0 0.060051603146963707 0.23183355716107101 0 0.072572501162481096 0.22074534469301421 0 0.060051603146963707 0.23183355716107101 0 0.056089914221113729 0.24496176923693691 0 0.047257557382846677 0.24517394132545531 0 0.053488072017114419 0.22015557179034029 0 0.047257557382846677 0.24517394132545531 0 0.043266614698450417 0.24487755638058531 0 0.060051603146963707 0.23183355716107101 0 0.056089914221113729 0.24496176923693691 0 0.064906879439047591 0.24537137174524101 0 0.056089914221113729 0.24496176923693691 0 0.052056269767059488 0.24973518429608971 0 0.056340343509317187 0.25329890119982751 0 0.056089914221113729 0.24496176923693691 0 0.064906879439047591 0.24537137174524101 0 0.056340343509317187 0.25329890119982751 0 0.056089914221113729 0.24496176923693691 0 0.052056269767059488 0.24973518429608971 0 0.047257557382846677 0.24517394132545531 0 0.043266614698450417 0.24487755638058531 0 0.035219596978125163 0.24427994947614681 0 0.039977514057722902 0.24386439312072589 0 0.043266614698450417 0.24487755638058531 0 0.035219596978125163 0.24427994947614681 0 0.047257557382846677 0.24517394132545531 0 0.043266614698450417 0.24487755638058531 0 0.048537263954960358 0.25550612542213902 0 0.039977514057722902 0.24386439312072589 0 0.043266614698450417 0.24487755638058531 0 0.037117602592385703 0.238565495467217 0 0.047257557382846677 0.24517394132545531 0 0.043266614698450417 0.24487755638058531 0 0.038220292136295228 0.2310522983032389 0 0.043266614698450417 0.24487755638058531 0 0.037117602592385703 0.238565495467217 0 0.0277561520607402 0.2366471620800556 0 0.038220292136295228 0.2310522983032389 0 0.037117602592385703 0.238565495467217 0 0.0277561520607402 0.2366471620800556 0 0.037117602592385703 0.238565495467217 0 0.035219596978125163 0.24427994947614681 0 0.039977514057722902 0.24386439312072589 0 0.037117602592385703 0.238565495467217 0 0.035219596978125163 0.24427994947614681 0 0.039977514057722902 0.24386439312072589 0 0.035219596978125163 0.24427994947614681 0 0.081816188966174083 0.24123695037180731 0 0.1012024686794499 0.24514295656717061 0 0.087608092015237171 0.25288097681756239 0 0.081816188966174083 0.24123695037180731 0 0.073280449384348523 0.25430993563771132 0 0.087608092015237171 0.25288097681756239 0 0.081816188966174083 0.24123695037180731 0 0.064906879439047591 0.24537137174524101 0 0.073280449384348523 0.25430993563771132 0 0.060051603146963707 0.23183355716107101 0 0.081816188966174083 0.24123695037180731 0 0.064906879439047591 0.24537137174524101 0 0.060051603146963707 0.23183355716107101 0 0.081816188966174083 0.24123695037180731 0 0.072572501162481096 0.22074534469301421 0 0.081816188966174083 0.24123695037180731 0 0.088394248572197687 0.21483320263799141 0 0.09884979751993779 0.23104834505936619 0 0.081816188966174083 0.24123695037180731 0 0.088394248572197687 0.21483320263799141 0 0.081816188966174083 0.24123695037180731 0 0.072572501162481096 0.22074534469301421 0 0.088394248572197687 0.21483320263799141 0 0.088394248572197687 0.21483320263799141 0 0.082877102206591058 0.20784634972930319 0 0.094972308178221165 0.18842945490417529 0 0.072572501162481096 0.22074534469301421 0 0.088394248572197687 0.21483320263799141 0 0.082877102206591058 0.20784634972930319 0 0.053488072017114419 0.22015557179034029 0 0.072572501162481096 0.22074534469301421 0 0.06834637000487781 0.2103369913858692 0 0.072572501162481096 0.22074534469301421 0 0.082877102206591058 0.20784634972930319 0 0.06834637000487781 0.2103369913858692 0 0.082877102206591058 0.20784634972930319 0 0.06834637000487781 0.2103369913858692 0 0.062821006258615447 0.19485818696382809 0 0.082877102206591058 0.20784634972930319 0 0.062821006258615447 0.19485818696382809 0 0.062821006258615447 0.19485818696382809 0 0.079510628092550037 0.1915210559445123 0 0.082877102206591058 0.20784634972930319 0 0.062821006258615447 0.19485818696382809 0 0.079510628092550037 0.1915210559445123 0 0.088394248572197687 0.21483320263799141 0 0.094972308178221165 0.18842945490417529 0 0.082877102206591058 0.20784634972930319 0 0.079510628092550037 0.1915210559445123 0 0.094972308178221165 0.18842945490417529 0 0.079510628092550037 0.1915210559445123 0 0.094972308178221165 0.18842945490417529 0 0.088394248572197687 0.21483320263799141 0 0.1039044636555107 0.20309558014077961 0 0.094972308178221165 0.18842945490417529 0 0.1039044636555107 0.20309558014077961 0 0.094972308178221165 0.18842945490417529 0 0.1110883931902614 0.1852070039859488 0 0.1039044636555107 0.20309558014077961 0 0.122898260577421 0.20558403843500589 0 0.1110883931902614 0.1852070039859488 0 0.122898260577421 0.20558403843500589 0 0.1110883931902614 0.1852070039859488 0 0.1272044782023018 0.1819845530677229 0 0.1039044636555107 0.20309558014077961 0 0.122898260577421 0.20558403843500589 0 0.1065277626555215 0.21674893801508641 0 0.122898260577421 0.20558403843500589 0 0.1065277626555215 0.21674893801508641 0 0.1185920429525401 0.2291835238022889 0 0.122898260577421 0.20558403843500589 0 0.1185920429525401 0.2291835238022889 0 0.088394248572197687 0.21483320263799141 0 0.1039044636555107 0.20309558014077961 0 0.1065277626555215 0.21674893801508641 0 0.1065277626555215 0.21674893801508641 0 0.09884979751993779 0.23104834505936619 0 0.1185920429525401 0.2291835238022889 0 0.088394248572197687 0.21483320263799141 0 0.1065277626555215 0.21674893801508641 0 0.09884979751993779 0.23104834505936619 0 0.1185920429525401 0.2291835238022889 0 0.1012024686794499 0.24514295656717061 0 0.1142858253276592 0.25278300916957203 0 0.1185920429525401 0.2291835238022889 0 0.13637960325121459 0.23405500250524669 0 0.1142858253276592 0.25278300916957203 0 0.1185920429525401 0.2291835238022889 0 0.1142858253276592 0.25278300916957203 0 0.081816188966174083 0.24123695037180731 0 0.09884979751993779 0.23104834505936619 0 0.1012024686794499 0.24514295656717061 0 0.09884979751993779 0.23104834505936619 0 0.1185920429525401 0.2291835238022889 0 0.1012024686794499 0.24514295656717061 0 0.083458314839718675 0.14766846372663789 0 0.090014862491354125 0.16180648796889421 0 0.095660959804740986 0.1473850715954973 0 0.083458314839718675 0.14766846372663789 0 0.095660959804740986 0.1473850715954973 0 0.095710321917596916 0.13557852172903961 0 0.093162998256136331 0.1241963670975304 0 0.083458314839718675 0.14766846372663789 0 0.072407381218146202 0.1338548844673659 0 0.093162998256136331 0.1241963670975304 0 0.083458314839718675 0.14766846372663789 0 0.095710321917596916 0.13557852172903961 0 0.093162998256136331 0.1241963670975304 0 0.083458314839718675 0.14766846372663789 0 0.066100536032717025 0.112281302438183 0 0.05041335121502992 0.14180488457339169 0 0.072407381218146202 0.1338548844673659 0 0.083458314839718675 0.14766846372663789 0 0.066929270391673679 0.14972388196993699 0 0.073753631423299992 0.17114056035574471 0 0.05041335121502992 0.14180488457339169 0 0.072407381218146202 0.1338548844673659 0 0.066929270391673679 0.14972388196993699 0 0.083458314839718675 0.14766846372663789 0 0.072407381218146202 0.1338548844673659 0 0.066929270391673679 0.14972388196993699 0 0.057274170411231319 0.16056039084828741 0 0.066929270391673679 0.14972388196993699 0 0.073753631423299992 0.17114056035574471 0 0.062821006258615447 0.19485818696382809 0 0.079510628092550037 0.1915210559445123 0 0.073753631423299992 0.17114056035574471 0 0.054798808724612937 0.17600131707032279 0 0.062821006258615447 0.19485818696382809 0 0.073753631423299992 0.17114056035574471 0 0.062821006258615447 0.19485818696382809 0 0.073753631423299992 0.17114056035574471 0 0.079510628092550037 0.1915210559445123 0 0.073753631423299992 0.17114056035574471 0 0.087469291979700353 0.1769557551107758 0 0.079510628092550037 0.1915210559445123 0 0.094972308178221165 0.18842945490417529 0 0.087469291979700353 0.1769557551107758 0 0.073753631423299992 0.17114056035574471 0 0.087469291979700353 0.1769557551107758 0 0.090014862491354125 0.16180648796889421 0 0.083458314839718675 0.14766846372663789 0 0.073753631423299992 0.17114056035574471 0 0.083458314839718675 0.14766846372663789 0 0.073753631423299992 0.17114056035574471 0 0.090014862491354125 0.16180648796889421 0 0.087469291979700353 0.1769557551107758 0 0.090014862491354125 0.16180648796889421 0 0.09909502971307646 0.1718812163805527 0 0.09909502971307646 0.1718812163805527 0 0.1155192942417383 0.1670213027616286 0 0.1032177512479316 0.15533297785693009 0 0.09909502971307646 0.1718812163805527 0 0.1032177512479316 0.15533297785693009 0 0.090014862491354125 0.16180648796889421 0 0.09909502971307646 0.1718812163805527 0 0.1032177512479316 0.15533297785693009 0 0.09909502971307646 0.1718812163805527 0 0.1110883931902614 0.1852070039859488 0 0.1155192942417383 0.1670213027616286 0 0.094972308178221165 0.18842945490417529 0 0.087469291979700353 0.1769557551107758 0 0.09909502971307646 0.1718812163805527 0 0.094972308178221165 0.18842945490417529 0 0.1110883931902614 0.1852070039859488 0 0.094972308178221165 0.18842945490417529 0 0.09909502971307646 0.1718812163805527 0 0.094972308178221165 0.18842945490417529 0 0.09909502971307646 0.1718812163805527 0 0.1110883931902614 0.1852070039859488 0 0.1110883931902614 0.1852070039859488 0 0.1272044782023018 0.1819845530677229 0 0.1110883931902614 0.1852070039859488 0 0.1155192942417383 0.1670213027616286 0 0.1272044782023018 0.1819845530677229 0 0.1155192942417383 0.1670213027616286 0 0.1163926165001576 0.15133259959457099 0 0.13232833694797941 0.15390412610695459 0 0.1155192942417383 0.1670213027616286 0 0.1163926165001576 0.15133259959457099 0 0.1032177512479316 0.15533297785693009 0 0.1163926165001576 0.15133259959457099 0 0.1061729730633013 0.13959022436578081 0 0.1221422126460876 0.13787587359298051 0 0.1163926165001576 0.15133259959457099 0 0.1221422126460876 0.13787587359298051 0 0.13232833694797941 0.15390412610695459 0 0.1163926165001576 0.15133259959457099 0 0.1032177512479316 0.15533297785693009 0 0.1061729730633013 0.13959022436578081 0 0.1032177512479316 0.15533297785693009 0 0.095660959804740986 0.1473850715954973 0 0.1061729730633013 0.13959022436578081 0 0.095660959804740986 0.1473850715954973 0 0.095710321917596916 0.13557852172903961 0 0.1061729730633013 0.13959022436578081 0 0.090014862491354125 0.16180648796889421 0 0.1032177512479316 0.15533297785693009 0 0.095660959804740986 0.1473850715954973 0 0.093162998256136331 0.1241963670975304 0 0.09745033578185866 0.12940643628101009 0 0.095710321917596916 0.13557852172903961 0 0.09745033578185866 0.12940643628101009 0 0.095710321917596916 0.13557852172903961 0 0.1028282210092059 0.13040291573373039 0 0.10262549360193481 0.12298499605864981 0 0.099980036765157404 0.12674688537044221 0 0.095660805844260066 0.12529610217238801 0 0.099980036765157404 0.12674688537044221 0 0.095660805844260066 0.12529610217238801 0 0.09745033578185866 0.12940643628101009 0 0.099980036765157404 0.12674688537044221 0 0.09745033578185866 0.12940643628101009 0 0.1028282210092059 0.13040291573373039 0 0.093162998256136331 0.1241963670975304 0 0.095660805844260066 0.12529610217238801 0 0.09745033578185866 0.12940643628101009 0 0.095710321917596916 0.13557852172903961 0 0.1061729730633013 0.13959022436578081 0 0.1028282210092059 0.13040291573373039 0 0.10262549360193481 0.12298499605864981 0 0.1118384908630341 0.1247669536496753 0 0.1028282210092059 0.13040291573373039 0 0.1118384908630341 0.1247669536496753 0 0.1061729730633013 0.13959022436578081 0 0.1028282210092059 0.13040291573373039 0 0.10262549360193481 0.12298499605864981 0 0.099980036765157404 0.12674688537044221 0 0.1028282210092059 0.13040291573373039 0 0.1118384908630341 0.1247669536496753 0 0.1061729730633013 0.13959022436578081 0 0.1221422126460876 0.13787587359298051 0 0.1118384908630341 0.1247669536496753 0 0.1221422126460876 0.13787587359298051 0 0.12591725066788861 0.1224849421901677 0 0.1221422126460876 0.13787587359298051 0 0.13745219569365461 0.1258236991461858 0 0.13232833694797941 0.15390412610695459 0 0.13745219569365461 0.1258236991461858 0 0.13232833694797941 0.15390412610695459 0 0.1221422126460876 0.13787587359298051 0 0.13745219569365461 0.1258236991461858 0 0.1221422126460876 0.13787587359298051 0 0.13745219569365461 0.1258236991461858 0 0.12591725066788861 0.1224849421901677 0 0.1540132314401286 0.14769103185109689 0 0.14486492495547579 0.11998832324061739 0 0.13745219569365461 0.1258236991461858 0 0.1540132314401286 0.14769103185109689 0 0.14486492495547579 0.11998832324061739 0 0.1539850195189634 0.12941322016359741 0 0.1540132314401286 0.14769103185109689 0 0.14486492495547579 0.11998832324061739 0 0.13745219569365461 0.1258236991461858 0 0.1540132314401286 0.14769103185109689 0 0.13232833694797941 0.15390412610695459 0 0.1540132314401286 0.14769103185109689 0 0.13232833694797941 0.15390412610695459 0 0.1463944733060952 0.1620488742904074 0 0.13232833694797941 0.15390412610695459 0 0.1272044782023018 0.1819845530677229 0 0.1155192942417383 0.1670213027616286 0 0.13232833694797941 0.15390412610695459 0 0.1272044782023018 0.1819845530677229 0 0.13232833694797941 0.15390412610695459 0 0.1272044782023018 0.1819845530677229 0 0.1463944733060952 0.1620488742904074 0 0.1272044782023018 0.1819845530677229 0 0.14569291205842949 0.17828774515117651 0 0.1272044782023018 0.1819845530677229 0 0.14569291205842949 0.17828774515117651 0 0.1386264915501787 0.1910277198831454 0 0.1272044782023018 0.1819845530677229 0 0.14569291205842949 0.17828774515117651 0 0.1463944733060952 0.1620488742904074 0 0.14569291205842949 0.17828774515117651 0 0.16418134591455719 0.17459093723463001 0 0.14569291205842949 0.17828774515117651 0 0.15622730400227819 0.18702681509838509 0 0.16418134591455719 0.17459093723463001 0 0.14569291205842949 0.17828774515117651 0 0.15622730400227819 0.18702681509838509 0 0.1386264915501787 0.1910277198831454 0 0.1540132314401286 0.14769103185109689 0 0.1463944733060952 0.1620488742904074 0 0.16418134591455719 0.17459093723463001 0 0.14569291205842949 0.17828774515117651 0 0.1463944733060952 0.1620488742904074 0 0.16418134591455719 0.17459093723463001 0 0.1540132314401286 0.14769103185109689 0 0.16418134591455719 0.17459093723463001 0 0.1540132314401286 0.14769103185109689 0 0.16418134591455719 0.17459093723463001 0 0.18252296049673619 0.1487964474718973 0 0.15622730400227819 0.18702681509838509 0 0.16418134591455719 0.17459093723463001 0 0.1715731297458396 0.19414601661310821 0 0.16418134591455719 0.17459093723463001 0 0.1715731297458396 0.19414601661310821 0 0.16418134591455719 0.17459093723463001 0 0.1860620182394721 0.17021584287566241 0 0.16418134591455719 0.17459093723463001 0 0.1860620182394721 0.17021584287566241 0 0.1715731297458396 0.19414601661310821 0 0.1860620182394721 0.17021584287566241 0 0.1715731297458396 0.19414601661310821 0 0.1934325787367652 0.1898311453390174 0 0.16418134591455719 0.17459093723463001 0 0.1860620182394721 0.17021584287566241 0 0.18252296049673619 0.1487964474718973 0 0.18252296049673619 0.1487964474718973 0 0.173216804714551 0.12918239909511001 0 0.20156868447362611 0.1383764749496029 0 0.173216804714551 0.12918239909511001 0 0.20156868447362611 0.1383764749496029 0 0.1539850195189634 0.12941322016359741 0 0.173216804714551 0.12918239909511001 0 0.14486492495547579 0.11998832324061739 0 0.1539850195189634 0.12941322016359741 0 0.1540132314401286 0.14769103185109689 0 0.173216804714551 0.12918239909511001 0 0.1540132314401286 0.14769103185109689 0 0.18252296049673619 0.1487964474718973 0 0.173216804714551 0.12918239909511001 0 0.13637960325121459 0.23405500250524669 0 0.16048528187025701 0.23476608104578439 0 0.14383041430382559 0.2509255099306516 0 0.16048528187025701 0.23476608104578439 0 0.14383041430382559 0.2509255099306516 0 0.15460578323957749 0.26216636583925079 0 0.13637960325121459 0.23405500250524669 0 0.14383041430382559 0.2509255099306516 0 0.13155980613391771 0.2555871695969536 0 0.13637960325121459 0.23405500250524669 0 0.1142858253276592 0.25278300916957203 0 0.13155980613391771 0.2555871695969536 0 0.122898260577421 0.20558403843500589 0 0.1185920429525401 0.2291835238022889 0 0.13637960325121459 0.23405500250524669 0 0.122898260577421 0.20558403843500589 0 0.13637960325121459 0.23405500250524669 0 0.14802246745494699 0.21812669230714141 0 0.13637960325121459 0.23405500250524669 0 0.14802246745494699 0.21812669230714141 0 0.16048528187025701 0.23476608104578439 0 0.14802246745494699 0.21812669230714141 0 0.15011542548371751 0.20108357462722931 0 0.16183224362637619 0.21236469211697009 0 0.122898260577421 0.20558403843500589 0 0.14802246745494699 0.21812669230714141 0 0.15011542548371751 0.20108357462722931 0 0.122898260577421 0.20558403843500589 0 0.1386264915501787 0.1910277198831454 0 0.15011542548371751 0.20108357462722931 0 0.122898260577421 0.20558403843500589 0 0.1272044782023018 0.1819845530677229 0 0.1386264915501787 0.1910277198831454 0 0.122898260577421 0.20558403843500589 0 0.1272044782023018 0.1819845530677229 0 0.15622730400227819 0.18702681509838509 0 0.1386264915501787 0.1910277198831454 0 0.15011542548371751 0.20108357462722931 0 0.15622730400227819 0.18702681509838509 0 0.15011542548371751 0.20108357462722931 0 0.1715731297458396 0.19414601661310821 0 0.15011542548371751 0.20108357462722931 0 0.1715731297458396 0.19414601661310821 0 0.16183224362637619 0.21236469211697009 0 0.1715731297458396 0.19414601661310821 0 0.17896491357711969 0.21370109599158729 0 0.1934325787367652 0.1898311453390174 0 0.1715731297458396 0.19414601661310821 0 0.17896491357711969 0.21370109599158729 0 0.1715731297458396 0.19414601661310821 0 0.17896491357711969 0.21370109599158729 0 0.16183224362637619 0.21236469211697009 0 0.17896491357711969 0.21370109599158729 0 0.16183224362637619 0.21236469211697009 0 0.16048528187025701 0.23476608104578439 0 0.14802246745494699 0.21812669230714141 0 0.16183224362637619 0.21236469211697009 0 0.16048528187025701 0.23476608104578439 0 0.17896491357711969 0.21370109599158729 0 0.18635669740839689 0.2332561753700674 0 0.17896491357711969 0.21370109599158729 0 0.18635669740839689 0.2332561753700674 0 0.16048528187025701 0.23476608104578439 0 0.18635669740839689 0.2332561753700674 0 0.16048528187025701 0.23476608104578439 0 0.17314797272478011 0.2550259744686178 0 0.18635669740839689 0.2332561753700674 0 0.17314797272478011 0.2550259744686178 0 0.18231411620178309 0.25385363295164209 0 0.18635669740839689 0.2332561753700674 0 0.18231411620178309 0.25385363295164209 0 0.189551943328616 0.25174004900009123 0 0.18635669740839689 0.2332561753700674 0 0.17314797272478011 0.2550259744686178 0 0.21672450977678229 0.23720686088802539 0 0.2045968088131998 0.23304822964118921 0 0.19623040412247419 0.25678864196592399 0 0.18635669740839689 0.2332561753700674 0 0.19623040412247419 0.25678864196592399 0 0.18635669740839689 0.2332561753700674 0 0.2045968088131998 0.23304822964118921 0 0.19623040412247419 0.25678864196592399 0 0.2045968088131998 0.23304822964118921 0 0.19623040412247419 0.25678864196592399 0 0.18635669740839689 0.2332561753700674 0 0.189551943328616 0.25174004900009123 0 0.19623040412247419 0.25678864196592399 0 0.18635669740839689 0.2332561753700674 0 0.20080313923405621 0.2094464478023729 0 0.18635669740839689 0.2332561753700674 0 0.2045968088131998 0.23304822964118921 0 0.20080313923405621 0.2094464478023729 0 0.17896491357711969 0.21370109599158729 0 0.18635669740839689 0.2332561753700674 0 0.20080313923405621 0.2094464478023729 0 0.2045968088131998 0.23304822964118921 0 0.21296321350392591 0.20930781731645479 0 0.2045968088131998 0.23304822964118921 0 0.21472552396665931 0.2232732931635277 0 0.21296321350392591 0.20930781731645479 0 0.21672450977678229 0.23720686088802539 0 0.2045968088131998 0.23304822964118921 0 0.21472552396665931 0.2232732931635277 0 0.2045968088131998 0.23304822964118921 0 0.21296321350392591 0.20930781731645479 0 0.20080313923405621 0.2094464478023729 0 0.21472552396665931 0.2232732931635277 0 0.21296321350392591 0.20930781731645479 0 0.2279184293619739 0.21059458948927071 0 0.17896491357711969 0.21370109599158729 0 0.20080313923405621 0.2094464478023729 0 0.1934325787367652 0.1898311453390174 0 0.20080313923405621 0.2094464478023729 0 0.1934325787367652 0.1898311453390174 0 0.215249581059717 0.18563672023467931 0 0.20080313923405621 0.2094464478023729 0 0.215249581059717 0.18563672023467931 0 0.21296321350392591 0.20930781731645479 0 0.22132961819465199 0.18556740499172031 0 0.21296321350392591 0.20930781731645479 0 0.215249581059717 0.18563672023467931 0 0.22132961819465199 0.18556740499172031 0 0.21296321350392591 0.20930781731645479 0 0.20080313923405621 0.2094464478023729 0 0.215249581059717 0.18563672023467931 0 0.2279184293619739 0.21059458948927071 0 0.23911234894716549 0.18398231809051591 0 0.21296321350392591 0.20930781731645479 0 0.2279184293619739 0.21059458948927071 0 0.22132961819465199 0.18556740499172031 0 0.2279184293619739 0.21059458948927071 0 0.22132961819465199 0.18556740499172031 0 0.23911234894716549 0.18398231809051591 0 0.2279184293619739 0.21059458948927071 0 0.23911234894716549 0.18398231809051591 0 0.25828688890745899 0.20523855093014351 0 0.2279184293619739 0.21059458948927071 0 0.25207482369939532 0.22432082290178659 0 0.25828688890745899 0.20523855093014351 0 0.21672450977678229 0.23720686088802539 0 0.2279184293619739 0.21059458948927071 0 0.21672450977678229 0.23720686088802539 0 0.21472552396665931 0.2232732931635277 0 0.2279184293619739 0.21059458948927071 0 0.21672450977678229 0.23720686088802539 0 0.2279184293619739 0.21059458948927071 0 0.2369380556066662 0.2338402391918703 0 0.2369380556066662 0.2338402391918703 0 0.25178732403818582 0.24038390480915409 0 0.25207482369939532 0.22432082290178659 0 0.2279184293619739 0.21059458948927071 0 0.2369380556066662 0.2338402391918703 0 0.25207482369939532 0.22432082290178659 0 0.2369380556066662 0.2338402391918703 0 0.2393105250387596 0.2522611276579797 0 0.25178732403818582 0.24038390480915409 0 0.21672450977678229 0.23720686088802539 0 0.2369380556066662 0.2338402391918703 0 0.2393105250387596 0.2522611276579797 0 0.20156868447362611 0.1383764749496029 0 0.20794269056438691 0.16584074851669439 0 0.22130014363195219 0.1430289090114607 0 0.20156868447362611 0.1383764749496029 0 0.22130014363195219 0.1430289090114607 0 0.21737186285805241 0.1219470289354936 0 0.173216804714551 0.12918239909511001 0 0.20156868447362611 0.1383764749496029 0 0.19526257351409601 0.109833233972427 0 0.18252296049673619 0.1487964474718973 0 0.20156868447362611 0.1383764749496029 0 0.20794269056438691 0.16584074851669439 0 0.1860620182394721 0.17021584287566241 0 0.18252296049673619 0.1487964474718973 0 0.20794269056438691 0.16584074851669439 0 0.1860620182394721 0.17021584287566241 0 0.20794269056438691 0.16584074851669439 0 0.1860620182394721 0.17021584287566241 0 0.1934325787367652 0.1898311453390174 0 0.20794269056438691 0.16584074851669439 0 0.1934325787367652 0.1898311453390174 0 0.215249581059717 0.18563672023467931 0 0.20794269056438691 0.16584074851669439 0 0.215249581059717 0.18563672023467931 0 0.20794269056438691 0.16584074851669439 0 0.22969602288537799 0.1618269926669858 0 0.20794269056438691 0.16584074851669439 0 0.22969602288537799 0.1618269926669858 0 0.22130014363195219 0.1430289090114607 0 0.20794269056438691 0.16584074851669439 0 0.22969602288537799 0.1618269926669858 0 0.22969602288537799 0.1618269926669858 0 0.22132961819465199 0.18556740499172031 0 0.215249581059717 0.18563672023467931 0 0.22969602288537799 0.1618269926669858 0 0.215249581059717 0.18563672023467931 0 0.22969602288537799 0.1618269926669858 0 0.22132961819465199 0.18556740499172031 0 0.22969602288537799 0.1618269926669858 0 0.22132961819465199 0.18556740499172031 0 0.23911234894716549 0.18398231809051591 0 0.23911234894716549 0.18398231809051591 0 0.25030626853235921 0.15737004669176199 0 0.22969602288537799 0.1618269926669858 0 0.25030626853235921 0.15737004669176199 0 0.22969602288537799 0.1618269926669858 0 0.23911234894716549 0.18398231809051591 0 0.25030626853235921 0.15737004669176199 0 0.23911234894716549 0.18398231809051591 0 0.25030626853235921 0.15737004669176199 0 0.25987944224844078 0.17121165013060241 0 0.22969602288537799 0.1618269926669858 0 0.2447811059941758 0.13696469622811419 0 0.22969602288537799 0.1618269926669858 0 0.23948115220200791 0.13406082389856189 0 0.2447811059941758 0.13696469622811419 0 0.24876803286489191 0.1391491542580969 0 0.25030626853235921 0.15737004669176199 0 0.22969602288537799 0.1618269926669858 0 0.23948115220200791 0.13406082389856189 0 0.2447811059941758 0.13696469622811419 0 0.22969602288537799 0.1618269926669858 0 0.2447811059941758 0.13696469622811419 0 0.25030626853235921 0.15737004669176199 0 0.22969602288537799 0.1618269926669858 0 0.22130014363195219 0.1430289090114607 0 0.23948115220200791 0.13406082389856189 0 0.23948115220200791 0.13406082389856189 0 0.2349934011527062 0.12407489059266311 0 0.21737186285805241 0.1219470289354936 0 0.23948115220200791 0.13406082389856189 0 0.21737186285805241 0.1219470289354936 0 0.22130014363195219 0.1430289090114607 0 0.23948115220200791 0.13406082389856189 0 0.21737186285805241 0.1219470289354936 0 0.2403047459846524 0.13172380379125731 0 0.23948115220200791 0.13406082389856189 0 0.2349934011527062 0.12407489059266311 0 0.2403047459846524 0.13172380379125731 0 0.2447811059941758 0.13696469622811419 0 0.24467337365317851 0.12048232705927329 0 0.2403047459846524 0.13172380379125731 0 0.24467337365317851 0.12048232705927329 0 0.2349934011527062 0.12407489059266311 0 0.2403047459846524 0.13172380379125731 0 0.23948115220200791 0.13406082389856189 0 0.2447811059941758 0.13696469622811419 0 0.23948115220200791 0.13406082389856189 0 0.2447811059941758 0.13696469622811419 0 0.2403047459846524 0.13172380379125731 0 0.23948115220200791 0.13406082389856189 0 0.2447811059941758 0.13696469622811419 0 0.24876803286489191 0.1391491542580969 0 0.25526460598084039 0.13421800131591349 0 0.2447811059941758 0.13696469622811419 0 0.24876803286489191 0.1391491542580969 0 0.2447811059941758 0.13696469622811419 0 0.24467337365317851 0.12048232705927329 0 0.25729942365779379 0.1163327830709826 0 0.24467337365317851 0.12048232705927329 0 0.24659215389021069 0.1074838069439971 0 0.25729942365779379 0.1163327830709826 0 0.24467337365317851 0.12048232705927329 0 0.24659215389021069 0.1074838069439971 0 0.23313587106563899 0.1121604692787314 0 0.24467337365317851 0.12048232705927329 0 0.2349934011527062 0.12407489059266311 0 0.23313587106563899 0.1121604692787314 0 0.24659215389021069 0.1074838069439971 0 0.23574177984504169 0.097576267928121158 0 0.24861496505675079 0.093352472871679887 0 0.24659215389021069 0.1074838069439971 0 0.23574177984504169 0.097576267928121158 0 0.23313587106563899 0.1121604692787314 0 0.23574177984504169 0.097576267928121158 0 0.21919281441997071 0.1025335143195001 0 0.2270510856863108 0.084965352711788622 0 0.23574177984504169 0.097576267928121158 0 0.21919281441997071 0.1025335143195001 0 0.23313587106563899 0.1121604692787314 0 0.2349934011527062 0.12407489059266311 0 0.23313587106563899 0.1121604692787314 0 0.21737186285805241 0.1219470289354936 0 0.21919281441997071 0.1025335143195001 0 0.23313587106563899 0.1121604692787314 0 0.21737186285805241 0.1219470289354936 0 0.21737186285805241 0.1219470289354936 0 0.19526257351409601 0.109833233972427 0 0.21919281441997071 0.1025335143195001 0 0.21737186285805241 0.1219470289354936 0 0.19526257351409601 0.109833233972427 0 0.20156868447362611 0.1383764749496029 0 0.21737186285805241 0.1219470289354936 0 0.19526257351409601 0.109833233972427 0 0.21919281441997071 0.1025335143195001 0 0.2040021308314352 0.095118588900652348 0 0.19526257351409601 0.109833233972427 0 0.2040021308314352 0.095118588900652348 0 0.19526257351409601 0.109833233972427 0 0.19090309910878731 0.083746604070590883 0 0.19866524742871161 0.069582044471591165 0 0.19090309910878731 0.083746604070590883 0 0.18556921111166311 0.06086404877186341 0 0.19866524742871161 0.069582044471591165 0 0.19090309910878731 0.083746604070590883 0 0.2102818571146359 0.081270074471160553 0 0.2040021308314352 0.095118588900652348 0 0.19090309910878731 0.083746604070590883 0 0.2102818571146359 0.081270074471160553 0 0.21919281441997071 0.1025335143195001 0 0.2040021308314352 0.095118588900652348 0 0.2102818571146359 0.081270074471160553 0 0.19866524742871161 0.069582044471591165 0 0.2102818571146359 0.081270074471160553 0 0.21234115429724071 0.062130096294675773 0 0.2102818571146359 0.081270074471160553 0 0.222464206303921 0.071762141620959161 0 0.21234115429724071 0.062130096294675773 0 0.222464206303921 0.071762141620959161 0 0.231826429871302 0.058136797672779253 0 0.21234115429724071 0.062130096294675773 0 0.222464206303921 0.071762141620959161 0 0.2270510856863108 0.084965352711788622 0 0.23545122929913359 0.072627590506357823 0 0.222464206303921 0.071762141620959161 0 0.23545122929913359 0.072627590506357823 0 0.231826429871302 0.058136797672779253 0 0.21919281441997071 0.1025335143195001 0 0.2102818571146359 0.081270074471160553 0 0.2270510856863108 0.084965352711788622 0 0.2102818571146359 0.081270074471160553 0 0.222464206303921 0.071762141620959161 0 0.2270510856863108 0.084965352711788622 0 0.23574177984504169 0.097576267928121158 0 0.2270510856863108 0.084965352711788622 0 0.2406853680990842 0.084370528581440327 0 0.23574177984504169 0.097576267928121158 0 0.2406853680990842 0.084370528581440327 0 0.24861496505675079 0.093352472871679887 0 0.2270510856863108 0.084965352711788622 0 0.2406853680990842 0.084370528581440327 0 0.23545122929913359 0.072627590506357823 0 0.2406853680990842 0.084370528581440327 0 0.2480843117095122 0.072951059513355856 0 0.25209511555709518 0.083968923794558142 0 0.2406853680990842 0.084370528581440327 0 0.24861496505675079 0.093352472871679887 0 0.25209511555709518 0.083968923794558142 0 0.24190042697664649 0.065155229115515412 0 0.2480843117095122 0.072951059513355856 0 0.2522397370266381 0.056905468769568722 0 0.24190042697664649 0.065155229115515412 0 0.23545122929913359 0.072627590506357823 0 0.2480843117095122 0.072951059513355856 0 0.24190042697664649 0.065155229115515412 0 0.23545122929913359 0.072627590506357823 0 0.231826429871302 0.058136797672779253 0 0.2406853680990842 0.084370528581440327 0 0.23545122929913359 0.072627590506357823 0 0.2480843117095122 0.072951059513355856 0 0.23976497237292541 0.034986271741545859 0 0.231826429871302 0.058136797672779253 0 0.2522397370266381 0.056905468769568722 0 0.24190042697664649 0.065155229115515412 0 0.231826429871302 0.058136797672779253 0 0.2522397370266381 0.056905468769568722 0 0.23976497237292541 0.034986271741545859 0 0.2522397370266381 0.056905468769568722 0 0.23976497237292541 0.034986271741545859 0 0.21987643413602531 0.044525355683167789 0 0.231826429871302 0.058136797672779253 0 0.23976497237292541 0.034986271741545859 0 0.21987643413602531 0.044525355683167789 0 0.22080552875751741 0.028141572872842711 0 0.21987643413602531 0.044525355683167789 0 0.231826429871302 0.058136797672779253 0 0.21234115429724071 0.062130096294675773 0 0.24746525984786619 0.0085428549208306503 0 0.22539929913979101 -0.003291469267495586 0 0.23976497237292541 0.034986271741545859 0 0.24746525984786619 0.0085428549208306503 0 0.2595383551476918 0.037251251118012321 0 0.23976497237292541 0.034986271741545859 0 0.24746525984786619 0.0085428549208306503 0 0.2272902077192126 0.01306707471352297 0 0.23976497237292541 0.034986271741545859 0 0.2272902077192126 0.01306707471352297 0 0.23976497237292541 0.034986271741545859 0 0.22080552875751741 0.028141572872842711 0 0.2272902077192126 0.01306707471352297 0 0.22080552875751741 0.028141572872842711 0 0.2272902077192126 0.01306707471352297 0 0.2108662649403521 0.01430331909166002 0 0.2272902077192126 0.01306707471352297 0 0.21511281489557749 0.002430141183518409 0 0.22539929913979101 -0.003291469267495586 0 0.24746525984786619 0.0085428549208306503 0 0.2272902077192126 0.01306707471352297 0 0.22539929913979101 -0.003291469267495586 0 0.2272902077192126 0.01306707471352297 0 0.2108662649403521 0.01430331909166002 0 0.21511281489557749 0.002430141183518409 0 0.2108662649403521 0.01430331909166002 0 0.19918713171845051 0.01400601335626447 0 0.19968136566923081 -0.0029061045851367742 0 0.2108662649403521 0.01430331909166002 0 0.21511281489557749 0.002430141183518409 0 0.19968136566923081 -0.0029061045851367742 0 0.22080552875751741 0.028141572872842711 0 0.2108662649403521 0.01430331909166002 0 0.20491645712208181 0.032243884240301439 0 0.2108662649403521 0.01430331909166002 0 0.19918713171845051 0.01400601335626447 0 0.20491645712208181 0.032243884240301439 0 0.19047337004628709 0.020255445266243691 0 0.19918713171845051 0.01400601335626447 0 0.20491645712208181 0.032243884240301439 0 0.19047337004628709 0.020255445266243691 0 0.20491645712208181 0.032243884240301439 0 0.19276851334568451 0.031561646922317659 0 0.19047337004628709 0.020255445266243691 0 0.20491645712208181 0.032243884240301439 0 0.19047337004628709 0.020255445266243691 0 0.19276851334568451 0.031561646922317659 0 0.18002189129298329 0.022905470073567549 0 0.19918713171845051 0.01400601335626447 0 0.18999820081430099 0.0061335227682539793 0 0.19968136566923081 -0.0029061045851367742 0 0.19047337004628709 0.020255445266243691 0 0.19918713171845051 0.01400601335626447 0 0.18999820081430099 0.0061335227682539793 0 0.21987643413602531 0.044525355683167789 0 0.21234115429724071 0.062130096294675773 0 0.19767401172005 0.047550071283078012 0 0.21987643413602531 0.044525355683167789 0 0.22080552875751741 0.028141572872842711 0 0.20491645712208181 0.032243884240301439 0 0.21987643413602531 0.044525355683167789 0 0.20491645712208181 0.032243884240301439 0 0.19767401172005 0.047550071283078012 0 0.20491645712208181 0.032243884240301439 0 0.19276851334568451 0.031561646922317659 0 0.19767401172005 0.047550071283078012 0 0.19276851334568451 0.031561646922317659 0 0.19767401172005 0.047550071283078012 0 0.18401349961547361 0.037543933854949689 0 0.19767401172005 0.047550071283078012 0 0.18556921111166311 0.06086404877186341 0 0.18401349961547361 0.037543933854949689 0 0.19866524742871161 0.069582044471591165 0 0.19767401172005 0.047550071283078012 0 0.18556921111166311 0.06086404877186341 0 0.19866524742871161 0.069582044471591165 0 0.21234115429724071 0.062130096294675773 0 0.19767401172005 0.047550071283078012 0 0.1727222064039039 0.050787185464868149 0 0.18556921111166311 0.06086404877186341 0 0.18401349961547361 0.037543933854949689 0 0.1727222064039039 0.050787185464868149 0 0.18556921111166311 0.06086404877186341 0 0.16676116418316281 0.062861904398928969 0 0.1727222064039039 0.050787185464868149 0 0.18401349961547361 0.037543933854949689 0 0.16846834898467131 0.034682362107571703 0 0.18401349961547361 0.037543933854949689 0 0.16846834898467131 0.034682362107571703 0 0.18002189129298329 0.022905470073567549 0 0.16846834898467131 0.034682362107571703 0 0.15589022238822861 0.0247772637161718 0 0.1506246951124936 0.053634080700235481 0 0.1727222064039039 0.050787185464868149 0 0.16846834898467131 0.034682362107571703 0 0.1506246951124936 0.053634080700235481 0 0.1727222064039039 0.050787185464868149 0 0.1506246951124936 0.053634080700235481 0 0.16676116418316281 0.062861904398928969 0 0.18999820081430099 0.0061335227682539793 0 0.1760302829704927 0.0082670062921855296 0 0.185053587794585 -0.0054068720776893706 0 0.19047337004628709 0.020255445266243691 0 0.18999820081430099 0.0061335227682539793 0 0.1760302829704927 0.0082670062921855296 0 0.19047337004628709 0.020255445266243691 0 0.1760302829704927 0.0082670062921855296 0 0.1760302829704927 0.0082670062921855296 0 0.18002189129298329 0.022905470073567549 0 0.16846834898467131 0.034682362107571703 0 0.18002189129298329 0.022905470073567549 0 0.16831329906006801 0.017310509784320929 0 0.1760302829704927 0.0082670062921855296 0 0.18002189129298329 0.022905470073567549 0 0.16831329906006801 0.017310509784320929 0 0.19047337004628709 0.020255445266243691 0 0.1760302829704927 0.0082670062921855296 0 0.18002189129298329 0.022905470073567549 0 0.19276851334568451 0.031561646922317659 0 0.18401349961547361 0.037543933854949689 0 0.18002189129298329 0.022905470073567549 0 0.18401349961547361 0.037543933854949689 0 0.18002189129298329 0.022905470073567549 0 0.16846834898467131 0.034682362107571703 0 0.16831329906006801 0.017310509784320929 0 0.15589022238822861 0.0247772637161718 0 0.16831329906006801 0.017310509784320929 0 0.15589022238822861 0.0247772637161718 0 0.16115574966396809 -0.0040795532678909443 0 0.15589022238822861 0.0247772637161718 0 0.16115574966396809 -0.0040795532678909443 0 0.1760302829704927 0.0082670062921855296 0 0.16831329906006801 0.017310509784320929 0 0.16115574966396809 -0.0040795532678909443 0 0.1760302829704927 0.0082670062921855296 0 0.16115574966396809 -0.0040795532678909443 0 0.1494657066715751 0.010137863502540241 0 0.15589022238822861 0.0247772637161718 0 0.16115574966396809 -0.0040795532678909443 0 0.14361256430973879 0.002177230718157321 0 0.1494657066715751 0.010137863502540241 0 0.16115574966396809 -0.0040795532678909443 0 0.14361256430973879 0.002177230718157321 0 0.1494657066715751 0.010137863502540241 0 0.13720429032436421 0.01767651284372147 0 0.15589022238822861 0.0247772637161718 0 0.13720429032436421 0.01767651284372147 0 0.1385785349272684 0.046081831913429377 0 0.1494657066715751 0.010137863502540241 0 0.15589022238822861 0.0247772637161718 0 0.13720429032436421 0.01767651284372147 0 0.13720429032436421 0.01767651284372147 0 0.12875803810089551 0.038104922492593063 0 0.12598116292572639 0.02421784844981693 0 0.13720429032436421 0.01767651284372147 0 0.12875803810089551 0.038104922492593063 0 0.12598116292572639 0.02421784844981693 0 0.13647851187805399 0.002674839708144514 0 0.1191620246975521 0.0084359164153180715 0 0.13647851187805399 0.002674839708144514 0 0.12052097409862091 -0.0066076135460219889 0 0.12598116292572639 0.02421784844981693 0 0.13720429032436421 0.01767651284372147 0 0.13647851187805399 0.002674839708144514 0 0.1191620246975521 0.0084359164153180715 0 0.12598116292572639 0.02421784844981693 0 0.13647851187805399 0.002674839708144514 0 0.14361256430973879 0.002177230718157321 0 0.13720429032436421 0.01767651284372147 0 0.13720429032436421 0.01767651284372147 0 0.13647851187805399 0.002674839708144514 0 0.14361256430973879 0.002177230718157321 0 0.13720429032436421 0.01767651284372147 0 0.13647851187805399 0.002674839708144514 0 0.1506246951124936 0.053634080700235481 0 0.1385785349272684 0.046081831913429377 0 0.1361611143486135 0.058161042103930929 0 0.1506246951124936 0.053634080700235481 0 0.1361611143486135 0.058161042103930929 0 0.1385004678327916 0.066808064961385485 0 0.15589022238822861 0.0247772637161718 0 0.1506246951124936 0.053634080700235481 0 0.1385785349272684 0.046081831913429377 0 0.15589022238822861 0.0247772637161718 0 0.1506246951124936 0.053634080700235481 0 0.13720429032436421 0.01767651284372147 0 0.1385785349272684 0.046081831913429377 0 0.13720429032436421 0.01767651284372147 0 0.1385785349272684 0.046081831913429377 0 0.12875803810089551 0.038104922492593063 0 0.1385785349272684 0.046081831913429377 0 0.12875803810089551 0.038104922492593063 0 0.13025329660627899 0.052076322378381917 0 0.1203117858774304 0.058533332141466138 0 0.12875803810089551 0.038104922492593063 0 0.13025329660627899 0.052076322378381917 0 0.1385785349272684 0.046081831913429377 0 0.13025329660627899 0.052076322378381917 0 0.1361611143486135 0.058161042103930929 0 0.1361611143486135 0.058161042103930929 0 0.12802629524595011 0.059896385033824252 0 0.1307098378877822 0.065871898262859829 0 0.1203117858774304 0.058533332141466138 0 0.13025329660627899 0.052076322378381917 0 0.12802629524595011 0.059896385033824252 0 0.13025329660627899 0.052076322378381917 0 0.1361611143486135 0.058161042103930929 0 0.12802629524595011 0.059896385033824252 0 0.12269544150965531 0.064839330282485258 0 0.12964752397831039 0.073882406055600564 0 0.13142414888542589 0.087931261743246267 0 0.12964752397831039 0.073882406055600564 0 0.1385004678327916 0.066808064961385485 0 0.1453591678367602 0.082490897684299597 0 0.12269544150965531 0.064839330282485258 0 0.12802629524595011 0.059896385033824252 0 0.1307098378877822 0.065871898262859829 0 0.12269544150965531 0.064839330282485258 0 0.1307098378877822 0.065871898262859829 0 0.12964752397831039 0.073882406055600564 0 0.12269544150965531 0.064839330282485258 0 0.13142414888542589 0.087931261743246267 0 0.12269544150965531 0.064839330282485258 0 0.12964752397831039 0.073882406055600564 0 0.12964752397831039 0.073882406055600564 0 0.13531246325865129 0.081251201721248986 0 0.1307098378877822 0.065871898262859829 0 0.12964752397831039 0.073882406055600564 0 0.1385004678327916 0.066808064961385485 0 0.1361611143486135 0.058161042103930929 0 0.1307098378877822 0.065871898262859829 0 0.1385004678327916 0.066808064961385485 0 0.1506246951124936 0.053634080700235481 0 0.1453591678367602 0.082490897684299597 0 0.15999791395868729 0.075103843159336492 0 0.1506246951124936 0.053634080700235481 0 0.1453591678367602 0.082490897684299597 0 0.1506246951124936 0.053634080700235481 0 0.1385004678327916 0.066808064961385485 0 0.1453591678367602 0.082490897684299597 0 0.1453591678367602 0.082490897684299597 0 0.15925622600344999 0.090105168346829745 0 0.1453591678367602 0.082490897684299597 0 0.15999791395868729 0.075103843159336492 0 0.15925622600344999 0.090105168346829745 0 0.12964752397831039 0.073882406055600564 0 0.1453591678367602 0.082490897684299597 0 0.13531246325865129 0.081251201721248986 0 0.12964752397831039 0.073882406055600564 0 0.1453591678367602 0.082490897684299597 0 0.1453591678367602 0.082490897684299597 0 0.13531246325865129 0.081251201721248986 0 0.13142414888542589 0.087931261743246267 0 0.12964752397831039 0.073882406055600564 0 0.13531246325865129 0.081251201721248986 0 0.13142414888542589 0.087931261743246267 0 0.1162760973220357 0.10023178141298671 0 0.13142414888542589 0.087931261743246267 0 0.12869506425262761 0.1049951383488585 0 0.1453591678367602 0.082490897684299597 0 0.13142414888542589 0.087931261743246267 0 0.14015285626118951 0.1110231932040099 0 0.13142414888542589 0.087931261743246267 0 0.14015285626118951 0.1110231932040099 0 0.13142414888542589 0.087931261743246267 0 0.12869506425262761 0.1049951383488585 0 0.14015285626118951 0.1110231932040099 0 0.1178100177304227 0.11121483550798129 0 0.12869506425262761 0.1049951383488585 0 0.13887162018464491 0.11804478725107651 0 0.1178100177304227 0.11121483550798129 0 0.12591725066788861 0.1224849421901677 0 0.13887162018464491 0.11804478725107651 0 0.1178100177304227 0.11121483550798129 0 0.13887162018464491 0.11804478725107651 0 0.12869506425262761 0.1049951383488585 0 0.14015285626118951 0.1110231932040099 0 0.13887162018464491 0.11804478725107651 0 0.14015285626118951 0.1110231932040099 0 0.13887162018464491 0.11804478725107651 0 0.13745219569365461 0.1258236991461858 0 0.12591725066788861 0.1224849421901677 0 0.13887162018464491 0.11804478725107651 0 0.13745219569365461 0.1258236991461858 0 0.13887162018464491 0.11804478725107651 0 0.13745219569365461 0.1258236991461858 0 0.13887162018464491 0.11804478725107651 0 0.14335679368229659 0.1194992596073709 0 0.14015285626118951 0.1110231932040099 0 0.14486492495547579 0.11998832324061739 0 0.15900910456280759 0.1088538811249882 0 0.13745219569365461 0.1258236991461858 0 0.14335679368229659 0.1194992596073709 0 0.14486492495547579 0.11998832324061739 0 0.13745219569365461 0.1258236991461858 0 0.14486492495547579 0.11998832324061739 0 0.13887162018464491 0.11804478725107651 0 0.14335679368229659 0.1194992596073709 0 0.14335679368229659 0.1194992596073709 0 0.14486492495547579 0.11998832324061739 0 0.14015285626118951 0.1110231932040099 0 0.14335679368229659 0.1194992596073709 0 0.14015285626118951 0.1110231932040099 0 0.14335679368229659 0.1194992596073709 0 0.14486492495547579 0.11998832324061739 0 0.14015285626118951 0.1110231932040099 0 0.13887162018464491 0.11804478725107651 0 0.14335679368229659 0.1194992596073709 0 0.14486492495547579 0.11998832324061739 0 0.15900910456280759 0.1088538811249882 0 0.14015285626118951 0.1110231932040099 0 0.15900910456280759 0.1088538811249882 0 0.15925622600344999 0.090105168346829745 0 0.1453591678367602 0.082490897684299597 0 0.14015285626118951 0.1110231932040099 0 0.15925622600344999 0.090105168346829745 0 0.1453591678367602 0.082490897684299597 0 0.14015285626118951 0.1110231932040099 0 0.15900910456280759 0.1088538811249882 0 0.17485208074188999 0.1119834873141744 0 0.17315328417013981 0.097719439009359754 0 0.15900910456280759 0.1088538811249882 0 0.17315328417013981 0.097719439009359754 0 0.15925622600344999 0.090105168346829745 0 0.15900910456280759 0.1088538811249882 0 0.17315328417013981 0.097719439009359754 0 0.17315328417013981 0.097719439009359754 0 0.15925622600344999 0.090105168346829745 0 0.173216804714551 0.12918239909511001 0 0.14486492495547579 0.11998832324061739 0 0.15900910456280759 0.1088538811249882 0 0.173216804714551 0.12918239909511001 0 0.15900910456280759 0.1088538811249882 0 0.17485208074188999 0.1119834873141744 0 0.173216804714551 0.12918239909511001 0 0.14486492495547579 0.11998832324061739 0 0.173216804714551 0.12918239909511001 0 0.19526257351409601 0.109833233972427 0 0.17485208074188999 0.1119834873141744 0 0.19526257351409601 0.109833233972427 0 0.19090309910878731 0.083746604070590883 0 0.17315328417013981 0.097719439009359754 0 0.19526257351409601 0.109833233972427 0 0.17315328417013981 0.097719439009359754 0 0.19526257351409601 0.109833233972427 0 0.17485208074188999 0.1119834873141744 0 0.17315328417013981 0.097719439009359754 0 0.19090309910878731 0.083746604070590883 0 0.1739648914840515 0.073898621891626867 0 0.17089924521466621 0.08523452945460519 0 0.19090309910878731 0.083746604070590883 0 0.17315328417013981 0.097719439009359754 0 0.17089924521466621 0.08523452945460519 0 0.19090309910878731 0.083746604070590883 0 0.17315328417013981 0.097719439009359754 0 0.18556921111166311 0.06086404877186341 0 0.1739648914840515 0.073898621891626867 0 0.16676116418316281 0.062861904398928969 0 0.19090309910878731 0.083746604070590883 0 0.18556921111166311 0.06086404877186341 0 0.1739648914840515 0.073898621891626867 0 0.1739648914840515 0.073898621891626867 0 0.16676116418316281 0.062861904398928969 0 0.15999791395868729 0.075103843159336492 0 0.1506246951124936 0.053634080700235481 0 0.16676116418316281 0.062861904398928969 0 0.15999791395868729 0.075103843159336492 0 0.1739648914840515 0.073898621891626867 0 0.15999791395868729 0.075103843159336492 0 0.17089924521466621 0.08523452945460519 0 0.15999791395868729 0.075103843159336492 0 0.15925622600344999 0.090105168346829745 0 0.17089924521466621 0.08523452945460519 0 0.17315328417013981 0.097719439009359754 0 0.15925622600344999 0.090105168346829745 0 0.17089924521466621 0.08523452945460519 0 0.1095986504424994 0.48036225317159897 0 0.098719335235949959 0.4663610050451546 0 0.090867580320622809 0.47429750451713859 0 0.1095986504424994 0.48036225317159897 0 0.090867580320622809 0.47429750451713859 0 0.086717908386922365 0.48603496083916059 0 0.1095986504424994 0.48036225317159897 0 0.1128148027898503 0.4617472099399591 0 0.098719335235949959 0.4663610050451546 0 0.096752070421184722 0.5 0 0.1095986504424994 0.48036225317159897 0 0.086717908386922365 0.48603496083916059 0 0.12432820441761661 0.5 0 0.1095986504424994 0.48036225317159897 0 0.13396438461794399 0.48549093095616741 0 0.096752070421184722 0.5 0 0.12432820441761661 0.5 0 0.1095986504424994 0.48036225317159897 0 0.1095986504424994 0.48036225317159897 0 0.12739285513161719 0.46936070920994732 0 0.13396438461794399 0.48549093095616741 0 0.1095986504424994 0.48036225317159897 0 0.1128148027898503 0.4617472099399591 0 0.12739285513161719 0.46936070920994732 0 0.1128148027898503 0.4617472099399591 0 0.12581727049103361 0.45184727258381452 0 0.12739285513161719 0.46936070920994732 0 0.1128148027898503 0.4617472099399591 0 0.1122207517955528 0.44622979507619492 0 0.12581727049103361 0.45184727258381452 0 0.1122207517955528 0.44622979507619492 0 0.1240675572909157 0.43647709985435379 0 0.12581727049103361 0.45184727258381452 0 0.1122207517955528 0.44622979507619492 0 0.11105916273292871 0.43284062951532037 0 0.1240675572909157 0.43647709985435379 0 0.097092730371080987 0.43939020630234787 0 0.1024729870975076 0.45507635226137372 0 0.089248045979560764 0.45630093074522871 0 0.1122207517955528 0.44622979507619492 0 0.097092730371080987 0.43939020630234787 0 0.1024729870975076 0.45507635226137372 0 0.1122207517955528 0.44622979507619492 0 0.097092730371080987 0.43939020630234787 0 0.11105916273292871 0.43284062951532037 0 0.1128148027898503 0.4617472099399591 0 0.1024729870975076 0.45507635226137372 0 0.098719335235949959 0.4663610050451546 0 0.1128148027898503 0.4617472099399591 0 0.1122207517955528 0.44622979507619492 0 0.1024729870975076 0.45507635226137372 0 0.1024729870975076 0.45507635226137372 0 0.098719335235949959 0.4663610050451546 0 0.089248045979560764 0.45630093074522871 0 0.089248045979560764 0.45630093074522871 0 0.079623299033476466 0.44274502533573201 0 0.075318621692991972 0.46633606943918687 0 0.098719335235949959 0.4663610050451546 0 0.089248045979560764 0.45630093074522871 0 0.083722133774500052 0.4680190827886217 0 0.083722133774500052 0.4680190827886217 0 0.075318621692991972 0.46633606943918687 0 0.089248045979560764 0.45630093074522871 0 0.083722133774500052 0.4680190827886217 0 0.075318621692991972 0.46633606943918687 0 0.097092730371080987 0.43939020630234787 0 0.089248045979560764 0.45630093074522871 0 0.079623299033476466 0.44274502533573201 0 0.074406143004535102 0.44304363552662829 0 0.075318621692991972 0.46633606943918687 0 0.05726110456407138 0.447960061856507 0 0.079623299033476466 0.44274502533573201 0 0.074406143004535102 0.44304363552662829 0 0.075318621692991972 0.46633606943918687 0 0.079623299033476466 0.44274502533573201 0 0.074406143004535102 0.44304363552662829 0 0.071383979533768779 0.42796147058037781 0 0.079623299033476466 0.44274502533573201 0 0.075318621692991972 0.46633606943918687 0 0.075318621692991972 0.46633606943918687 0 0.072247279058871267 0.48316803471958708 0 0.060075200374656162 0.47513033385441372 0 0.075318621692991972 0.46633606943918687 0 0.072247279058871267 0.48316803471958708 0 0.081743627220159903 0.47637422822242842 0 0.075318621692991972 0.46633606943918687 0 0.072247279058871267 0.48316803471958708 0 0.072247279058871267 0.48316803471958708 0 0.060075200374656162 0.47513033385441372 0 0.058340999978783288 0.48436331939784172 0 0.083722133774500052 0.4680190827886217 0 0.081743627220159903 0.47637422822242842 0 0.090867580320622809 0.47429750451713859 0 0.083722133774500052 0.4680190827886217 0 0.075318621692991972 0.46633606943918687 0 0.081743627220159903 0.47637422822242842 0 0.072247279058871267 0.48316803471958708 0 0.081743627220159903 0.47637422822242842 0 0.086717908386922365 0.48603496083916059 0 0.081743627220159903 0.47637422822242842 0 0.090867580320622809 0.47429750451713859 0 0.086717908386922365 0.48603496083916059 0 0.098719335235949959 0.4663610050451546 0 0.083722133774500052 0.4680190827886217 0 0.090867580320622809 0.47429750451713859 0 0.096752070421184722 0.5 0 0.086717908386922365 0.48603496083916059 0 0.06917593642475274 0.49999999999998779 0 0.072247279058871267 0.48316803471958708 0 0.06917593642475274 0.49999999999998779 0 0.06288892177307169 0.49172107139198229 0 0.072247279058871267 0.48316803471958708 0 0.06917593642475274 0.49999999999998779 0 0.072247279058871267 0.48316803471958708 0 0.086717908386922365 0.48603496083916059 0 0.06917593642475274 0.49999999999998779 0 0.072247279058871267 0.48316803471958708 0 0.06288892177307169 0.49172107139198229 0 0.058340999978783288 0.48436331939784172 0 0.06917593642475274 0.49999999999998779 0 0.053127905570023518 0.49756580693482122 0 0.0435223129831393 0.5 0 0.06917593642475274 0.49999999999998779 0 0.06288892177307169 0.49172107139198229 0 0.053127905570023518 0.49756580693482122 0 0.053127905570023518 0.49756580693482122 0 0.058340999978783288 0.48436331939784172 0 0.045392924034403863 0.48070388176339718 0 0.06288892177307169 0.49172107139198229 0 0.053127905570023518 0.49756580693482122 0 0.058340999978783288 0.48436331939784172 0 0.060075200374656162 0.47513033385441372 0 0.045392924034403863 0.48070388176339718 0 0.049076177108230458 0.46108036395205548 0 0.060075200374656162 0.47513033385441372 0 0.058340999978783288 0.48436331939784172 0 0.045392924034403863 0.48070388176339718 0 0.032574517141213753 0.47332198547068971 0 0.045392924034403863 0.48070388176339718 0 0.027853062682991672 0.49230898582413418 0 0.032574517141213753 0.47332198547068971 0 0.045392924034403863 0.48070388176339718 0 0.049076177108230458 0.46108036395205548 0 0.053127905570023518 0.49756580693482122 0 0.0435223129831393 0.5 0 0.027853062682991672 0.49230898582413418 0 0.053127905570023518 0.49756580693482122 0 0.045392924034403863 0.48070388176339718 0 0.027853062682991672 0.49230898582413418 0 0.053127905570023518 0.49756580693482122 0 0.027853062682991672 0.49230898582413418 0 0.0435223129831393 0.5 0 0.027853062682991672 0.49230898582413418 0 0.017868689541525751 0.50000000000000144 0 0.027853062682991672 0.49230898582413418 0 0.017716689356973989 0.476692037348937 0 0.0025782197959596351 0.48705216471344781 0 0.027853062682991672 0.49230898582413418 0 0.017868689541525751 0.50000000000000144 0 0.0025782197959596351 0.48705216471344781 0 0.032574517141213753 0.47332198547068971 0 0.027853062682991672 0.49230898582413418 0 0.017716689356973989 0.476692037348937 0 0.017716689356973989 0.476692037348937 0 0.0025782197959596351 0.48705216471344781 0 0.00474029898156135 0.46867440512690051 0 -0.0043479113537027896 0.47213461157433478 0 0.0025782197959596351 0.48705216471344781 0 0.00474029898156135 0.46867440512690051 0 0.027853062682991672 0.49230898582413418 0 0.0025782197959596351 0.48705216471344781 0 -0.0093043341943110924 0.5 0 0.017868689541525751 0.50000000000000144 0 0.0025782197959596351 0.48705216471344781 0 0.017868689541525751 0.50000000000000144 0 0.0025782197959596351 0.48705216471344781 0 -0.00055649961999283334 0.44146950287698272 0 0.02283373252346876 0.45582465846492409 0 0.017709044554186228 0.43480097630436543 0 -0.0034087120612929442 0.45056895297779281 0 -0.00055649961999283334 0.44146950287698272 0 0.02283373252346876 0.45582465846492409 0 -0.0034087120612929442 0.45056895297779281 0 0.0039172354096816339 0.45918515846397029 0 0.02283373252346876 0.45582465846492409 0 0.017716689356973989 0.476692037348937 0 0.00474029898156135 0.46867440512690051 0 0.02283373252346876 0.45582465846492409 0 0.0039172354096816339 0.45918515846397029 0 0.00474029898156135 0.46867440512690051 0 0.02283373252346876 0.45582465846492409 0 -0.0034087120612929442 0.45056895297779281 0 0.02283373252346876 0.45582465846492409 0 -0.0084963778050106287 0.4616726172862638 0 0.0039172354096816339 0.45918515846397029 0 0.00474029898156135 0.46867440512690051 0 0.032574517141213753 0.47332198547068971 0 0.017716689356973989 0.476692037348937 0 0.02283373252346876 0.45582465846492409 0 0.02283373252346876 0.45582465846492409 0 0.037631048449795632 0.44251567791554891 0 0.017709044554186228 0.43480097630436543 0 0.02283373252346876 0.45582465846492409 0 0.037631048449795632 0.44251567791554891 0 0.049076177108230458 0.46108036395205548 0 0.032574517141213753 0.47332198547068971 0 0.02283373252346876 0.45582465846492409 0 0.049076177108230458 0.46108036395205548 0 0.02283373252346876 0.45582465846492409 0 0.049076177108230458 0.46108036395205548 0 0.075318621692991972 0.46633606943918687 0 0.060075200374656162 0.47513033385441372 0 0.049076177108230458 0.46108036395205548 0 0.075318621692991972 0.46633606943918687 0 0.049076177108230458 0.46108036395205548 0 0.05726110456407138 0.447960061856507 0 0.075318621692991972 0.46633606943918687 0 0.049076177108230458 0.46108036395205548 0 0.037631048449795632 0.44251567791554891 0 0.049076177108230458 0.46108036395205548 0 0.05726110456407138 0.447960061856507 0 0.037631048449795632 0.44251567791554891 0 0.05726110456407138 0.447960061856507 0 0.049873532564803771 0.42682456244911521 0 0.074406143004535102 0.44304363552662829 0 0.05726110456407138 0.447960061856507 0 0.049873532564803771 0.42682456244911521 0 0.074406143004535102 0.44304363552662829 0 0.049873532564803771 0.42682456244911521 0 0.037631048449795632 0.44251567791554891 0 0.049873532564803771 0.42682456244911521 0 0.02534092212507244 0.41060548937160207 0 0.049873532564803771 0.42682456244911521 0 0.04640925572198866 0.40477711665710059 0 0.069088946692067596 0.40804014835813612 0 0.049873532564803771 0.42682456244911521 0 0.02534092212507244 0.41060548937160207 0 0.04640925572198866 0.40477711665710059 0 0.049873532564803771 0.42682456244911521 0 0.02534092212507244 0.41060548937160207 0 0.037631048449795632 0.44251567791554891 0 0.017709044554186228 0.43480097630436543 0 0.02534092212507244 0.41060548937160207 0 0.02534092212507244 0.41060548937160207 0 0.005058598613043204 0.40980309247480551 0 0.0032960192925871388 0.42358955289276901 0 -0.00055649961999283334 0.44146950287698272 0 0.017709044554186228 0.43480097630436543 0 0.0032960192925871388 0.42358955289276901 0 0.017709044554186228 0.43480097630436543 0 0.02534092212507244 0.41060548937160207 0 0.0032960192925871388 0.42358955289276901 0 -0.0077465772954661768 0.3815284444822295 0 0.014495243569886081 0.38295097737104289 0 0.00080831168534120645 0.3943864162940891 0 -0.0077465772954661768 0.3815284444822295 0 0.014495243569886081 0.38295097737104289 0 0.0026724101620130801 0.3695972521235823 0 0.02534092212507244 0.41060548937160207 0 0.014495243569886081 0.38295097737104289 0 0.00080831168534120645 0.3943864162940891 0 0.02534092212507244 0.41060548937160207 0 0.005058598613043204 0.40980309247480551 0 0.00080831168534120645 0.3943864162940891 0 0.02534092212507244 0.41060548937160207 0 0.00080831168534120645 0.3943864162940891 0 0.02534092212507244 0.41060548937160207 0 0.014495243569886081 0.38295097737104289 0 0.037027686481781771 0.38636737854444309 0 0.014495243569886081 0.38295097737104289 0 0.037027686481781771 0.38636737854444309 0 0.023740261302617159 0.36769873114642448 0 0.037027686481781771 0.38636737854444309 0 0.058555314658644567 0.37700817978135542 0 0.044808112443221408 0.36580021016926878 0 0.02534092212507244 0.41060548937160207 0 0.037027686481781771 0.38636737854444309 0 0.04640925572198866 0.40477711665710059 0 0.04640925572198866 0.40477711665710059 0 0.057901777373880053 0.39325632863180487 0 0.069088946692067596 0.40804014835813612 0 0.037027686481781771 0.38636737854444309 0 0.04640925572198866 0.40477711665710059 0 0.057901777373880053 0.39325632863180487 0 0.037027686481781771 0.38636737854444309 0 0.057901777373880053 0.39325632863180487 0 0.058555314658644567 0.37700817978135542 0 0.057901777373880053 0.39325632863180487 0 0.058555314658644567 0.37700817978135542 0 0.074085308185031173 0.38182878843226831 0 0.058555314658644567 0.37700817978135542 0 0.074085308185031173 0.38182878843226831 0 0.071633039884127392 0.37089468371823409 0 0.088232653714445525 0.39556293712882262 0 0.092537331054925065 0.37197189302536682 0 0.088232653714445525 0.39556293712882262 0 0.094521917650538592 0.37301904553552701 0 0.092537331054925065 0.37197189302536682 0 0.074085308185031173 0.38182878843226831 0 0.088232653714445525 0.39556293712882262 0 0.092537331054925065 0.37197189302536682 0 0.074085308185031173 0.38182878843226831 0 0.092537331054925065 0.37197189302536682 0 0.080635891402685955 0.37189196226740873 0 0.057901777373880053 0.39325632863180487 0 0.074085308185031173 0.38182878843226831 0 0.069088946692067596 0.40804014835813612 0 0.074085308185031173 0.38182878843226831 0 0.088232653714445525 0.39556293712882262 0 0.069088946692067596 0.40804014835813612 0 0.069088946692067596 0.40804014835813612 0 0.071383979533768779 0.42796147058037781 0 0.083927976373960989 0.41915398123227732 0 0.049873532564803771 0.42682456244911521 0 0.069088946692067596 0.40804014835813612 0 0.071383979533768779 0.42796147058037781 0 0.074406143004535102 0.44304363552662829 0 0.049873532564803771 0.42682456244911521 0 0.071383979533768779 0.42796147058037781 0 0.079623299033476466 0.44274502533573201 0 0.083927976373960989 0.41915398123227732 0 0.079623299033476466 0.44274502533573201 0 0.071383979533768779 0.42796147058037781 0 0.083927976373960989 0.41915398123227732 0 0.097092730371080987 0.43939020630234787 0 0.079623299033476466 0.44274502533573201 0 0.083927976373960989 0.41915398123227732 0 0.088232653714445525 0.39556293712882262 0 0.083927976373960989 0.41915398123227732 0 0.088232653714445525 0.39556293712882262 0 0.083927976373960989 0.41915398123227732 0 0.097372286503530914 0.40749404176717019 0 0.088232653714445525 0.39556293712882262 0 0.069088946692067596 0.40804014835813612 0 0.083927976373960989 0.41915398123227732 0 0.083927976373960989 0.41915398123227732 0 0.097372286503530914 0.40749404176717019 0 0.1026914341997598 0.42143212398888291 0 0.097372286503530914 0.40749404176717019 0 0.1026914341997598 0.42143212398888291 0 0.11133994704289329 0.40940327336556692 0 0.097092730371080987 0.43939020630234787 0 0.083927976373960989 0.41915398123227732 0 0.1026914341997598 0.42143212398888291 0 0.097092730371080987 0.43939020630234787 0 0.1026914341997598 0.42143212398888291 0 0.11105916273292871 0.43284062951532037 0 0.11105916273292871 0.43284062951532037 0 0.1240675572909157 0.43647709985435379 0 0.1207841289584564 0.41861445094320349 0 0.1026914341997598 0.42143212398888291 0 0.11105916273292871 0.43284062951532037 0 0.1207841289584564 0.41861445094320349 0 0.1026914341997598 0.42143212398888291 0 0.11133994704289329 0.40940327336556692 0 0.1207841289584564 0.41861445094320349 0 0.11133994704289329 0.40940327336556692 0 0.1207841289584564 0.41861445094320349 0 0.12523198865508839 0.40452397943286489 0 0.11133994704289329 0.40940327336556692 0 0.1170633646186576 0.39543608672047031 0 0.12523198865508839 0.40452397943286489 0 0.11133994704289329 0.40940327336556692 0 0.1170633646186576 0.39543608672047031 0 0.1029309323467166 0.39121115945054658 0 0.1170633646186576 0.39543608672047031 0 0.13153493247113179 0.39254869038096368 0 0.12523198865508839 0.40452397943286489 0 0.1130284250608348 0.38278386795824609 0 0.121260272565483 0.36424145571470951 0 0.13515494786428409 0.38574963395918899 0 0.1170633646186576 0.39543608672047031 0 0.1130284250608348 0.38278386795824609 0 0.13153493247113179 0.39254869038096368 0 0.1130284250608348 0.38278386795824609 0 0.13153493247113179 0.39254869038096368 0 0.1170633646186576 0.39543608672047031 0 0.1130284250608348 0.38278386795824609 0 0.1029309323467166 0.39121115945054658 0 0.1130284250608348 0.38278386795824609 0 0.094521917650538592 0.37301904553552701 0 0.10736553642766281 0.37324863915463807 0 0.1029309323467166 0.39121115945054658 0 0.094521917650538592 0.37301904553552701 0 0.088232653714445525 0.39556293712882262 0 0.1029309323467166 0.39121115945054658 0 0.094521917650538592 0.37301904553552701 0 0.1130284250608348 0.38278386795824609 0 0.1029309323467166 0.39121115945054658 0 0.094521917650538592 0.37301904553552701 0 0.1130284250608348 0.38278386795824609 0 0.094521917650538592 0.37301904553552701 0 0.088232653714445525 0.39556293712882262 0 0.097372286503530914 0.40749404176717019 0 0.1029309323467166 0.39121115945054658 0 0.097372286503530914 0.40749404176717019 0 0.11133994704289329 0.40940327336556692 0 0.1029309323467166 0.39121115945054658 0 0.11133994704289329 0.40940327336556692 0 0.1029309323467166 0.39121115945054658 0 0.1066693993723055 0.3566321911821192 0 0.096962293468820349 0.3477216472565488 0 0.1008273209387785 0.36564904005381482 0 0.096962293468820349 0.3477216472565488 0 0.092962033720196374 0.36964438308334108 0 0.1066693993723055 0.3566321911821192 0 0.096962293468820349 0.3477216472565488 0 0.107365597266682 0.34273327747022991 0 0.096962293468820349 0.3477216472565488 0 0.1008273209387785 0.36564904005381482 0 0.092962033720196374 0.36964438308334108 0 0.1008273209387785 0.36564904005381482 0 0.094521917650538592 0.37301904553552701 0 0.10736553642766281 0.37324863915463807 0 0.1008273209387785 0.36564904005381482 0 0.094521917650538592 0.37301904553552701 0 0.092962033720196374 0.36964438308334108 0 0.1008273209387785 0.36564904005381482 0 0.10736553642766281 0.37324863915463807 0 0.10819905093193941 0.3653694265948752 0 0.1066693993723055 0.3566321911821192 0 0.1008273209387785 0.36564904005381482 0 0.10819905093193941 0.3653694265948752 0 0.1066693993723055 0.3566321911821192 0 0.10819905093193941 0.3653694265948752 0 0.121260272565483 0.36424145571470951 0 0.1130284250608348 0.38278386795824609 0 0.10736553642766281 0.37324863915463807 0 0.121260272565483 0.36424145571470951 0 0.10736553642766281 0.37324863915463807 0 0.10819905093193941 0.3653694265948752 0 0.121260272565483 0.36424145571470951 0 0.1066693993723055 0.3566321911821192 0 0.121260272565483 0.36424145571470951 0 0.107365597266682 0.34273327747022991 0 0.121260272565483 0.36424145571470951 0 0.107365597266682 0.34273327747022991 0 0.1273382652159849 0.34507276573136542 0 0.121260272565483 0.36424145571470951 0 0.107365597266682 0.34273327747022991 0 0.12118616471353801 0.32592773165605221 0 0.10096255321744289 0.32579891142975609 0 0.107365597266682 0.34273327747022991 0 0.12118616471353801 0.32592773165605221 0 0.107365597266682 0.34273327747022991 0 0.1273382652159849 0.34507276573136542 0 0.12118616471353801 0.32592773165605221 0 0.10096255321744289 0.32579891142975609 0 0.12118616471353801 0.32592773165605221 0 0.1179258657302 0.31121682662562039 0 0.13290408152121899 0.31029981655808381 0 0.12118616471353801 0.32592773165605221 0 0.10096255321744289 0.32579891142975609 0 0.1179258657302 0.31121682662562039 0 0.10096255321744289 0.32579891142975609 0 0.093194125689663079 0.30913187248504392 0 0.105052065890159 0.30338704029689911 0 0.10096255321744289 0.32579891142975609 0 0.105052065890159 0.30338704029689911 0 0.1179258657302 0.31121682662562039 0 0.10096255321744289 0.32579891142975609 0 0.105052065890159 0.30338704029689911 0 0.096962293468820349 0.3477216472565488 0 0.10096255321744289 0.32579891142975609 0 0.088794772649910633 0.33624228770793102 0 0.096962293468820349 0.3477216472565488 0 0.10096255321744289 0.32579891142975609 0 0.107365597266682 0.34273327747022991 0 0.096962293468820349 0.3477216472565488 0 0.10096255321744289 0.32579891142975609 0 0.10096255321744289 0.32579891142975609 0 0.088794772649910633 0.33624228770793102 0 0.072611688838739252 0.32561832228198417 0 0.088794772649910633 0.33624228770793102 0 0.072611688838739252 0.32561832228198417 0 0.082786861279466703 0.3476313526826631 0 0.10096255321744289 0.32579891142975609 0 0.086135382526474444 0.31616756073427699 0 0.072611688838739252 0.32561832228198417 0 0.10096255321744289 0.32579891142975609 0 0.072611688838739252 0.32561832228198417 0 0.086135382526474444 0.31616756073427699 0 0.072611688838739252 0.32561832228198417 0 0.077773162360052564 0.30412113674032432 0 0.10096255321744289 0.32579891142975609 0 0.086135382526474444 0.31616756073427699 0 0.093194125689663079 0.30913187248504392 0 0.072611688838739252 0.32561832228198417 0 0.064841350485462856 0.32556882683230842 0 0.061697137537306032 0.30200571512393709 0 0.072611688838739252 0.32561832228198417 0 0.061697137537306032 0.30200571512393709 0 0.072611688838739252 0.32561832228198417 0 0.064841350485462856 0.32556882683230842 0 0.062361298675659822 0.33309125936536821 0 0.072611688838739252 0.32561832228198417 0 0.064841350485462856 0.32556882683230842 0 0.072611688838739252 0.32561832228198417 0 0.082786861279466703 0.3476313526826631 0 0.072611688838739252 0.32561832228198417 0 0.067802491976296925 0.34201954141111618 0 0.082786861279466703 0.3476313526826631 0 0.072611688838739252 0.32561832228198417 0 0.067802491976296925 0.34201954141111618 0 0.062361298675659822 0.33309125936536821 0 0.068180952938850681 0.35244167088081307 0 0.073852175522189714 0.36211280823575692 0 0.055167019989462288 0.35225372344613182 0 0.073852175522189714 0.36211280823575692 0 0.055167019989462288 0.35225372344613182 0 0.067802491976296925 0.34201954141111618 0 0.068180952938850681 0.35244167088081307 0 0.055167019989462288 0.35225372344613182 0 0.068180952938850681 0.35244167088081307 0 0.076769823424558528 0.35437299673631228 0 0.073852175522189714 0.36211280823575692 0 0.067802491976296925 0.34201954141111618 0 0.076769823424558528 0.35437299673631228 0 0.082786861279466703 0.3476313526826631 0 0.067802491976296925 0.34201954141111618 0 0.068180952938850681 0.35244167088081307 0 0.076769823424558528 0.35437299673631228 0 0.082786861279466703 0.3476313526826631 0 0.092962033720196374 0.36964438308334108 0 0.096962293468820349 0.3477216472565488 0 0.082786861279466703 0.3476313526826631 0 0.092962033720196374 0.36964438308334108 0 0.076769823424558528 0.35437299673631228 0 0.082786861279466703 0.3476313526826631 0 0.092962033720196374 0.36964438308334108 0 0.096962293468820349 0.3477216472565488 0 0.088794772649910633 0.33624228770793102 0 0.082786861279466703 0.3476313526826631 0 0.092537331054925065 0.37197189302536682 0 0.092962033720196374 0.36964438308334108 0 0.073852175522189714 0.36211280823575692 0 0.076769823424558528 0.35437299673631228 0 0.092962033720196374 0.36964438308334108 0 0.073852175522189714 0.36211280823575692 0 0.092537331054925065 0.37197189302536682 0 0.073852175522189714 0.36211280823575692 0 0.092537331054925065 0.37197189302536682 0 0.080635891402685955 0.37189196226740873 0 0.073852175522189714 0.36211280823575692 0 0.094521917650538592 0.37301904553552701 0 0.092537331054925065 0.37197189302536682 0 0.092962033720196374 0.36964438308334108 0 0.094521917650538592 0.37301904553552701 0 0.092962033720196374 0.36964438308334108 0 0.094521917650538592 0.37301904553552701 0 0.092537331054925065 0.37197189302536682 0 0.092537331054925065 0.37197189302536682 0 0.092962033720196374 0.36964438308334108 0 0.080635891402685955 0.37189196226740873 0 0.071633039884127392 0.37089468371823409 0 0.073852175522189714 0.36211280823575692 0 0.074085308185031173 0.38182878843226831 0 0.080635891402685955 0.37189196226740873 0 0.071633039884127392 0.37089468371823409 0 0.073852175522189714 0.36211280823575692 0 0.065875963583825636 0.36390168919211308 0 0.055167019989462288 0.35225372344613182 0 0.071633039884127392 0.37089468371823409 0 0.073852175522189714 0.36211280823575692 0 0.065875963583825636 0.36390168919211308 0 0.058555314658644567 0.37700817978135542 0 0.071633039884127392 0.37089468371823409 0 0.065875963583825636 0.36390168919211308 0 0.065875963583825636 0.36390168919211308 0 0.055167019989462288 0.35225372344613182 0 0.044808112443221408 0.36580021016926878 0 0.058555314658644567 0.37700817978135542 0 0.065875963583825636 0.36390168919211308 0 0.044808112443221408 0.36580021016926878 0 0.065875963583825636 0.36390168919211308 0 0.044808112443221408 0.36580021016926878 0 0.055167019989462288 0.35225372344613182 0 0.03648186445673491 0.34239463865650682 0 0.053006622790175727 0.33669398698370978 0 0.055167019989462288 0.35225372344613182 0 0.03648186445673491 0.34239463865650682 0 0.055167019989462288 0.35225372344613182 0 0.033366300336564229 0.35668582465186821 0 0.044808112443221408 0.36580021016926878 0 0.055167019989462288 0.35225372344613182 0 0.033366300336564229 0.35668582465186821 0 0.03648186445673491 0.34239463865650682 0 0.044808112443221408 0.36580021016926878 0 0.023740261302617159 0.36769873114642448 0 0.033366300336564229 0.35668582465186821 0 0.044808112443221408 0.36580021016926878 0 0.023740261302617159 0.36769873114642448 0 0.037027686481781771 0.38636737854444309 0 0.044808112443221408 0.36580021016926878 0 0.023740261302617159 0.36769873114642448 0 0.023740261302617159 0.36769873114642448 0 0.022347319287112581 0.34706673979036867 0 0.0026724101620130801 0.3695972521235823 0 0.033366300336564229 0.35668582465186821 0 0.023740261302617159 0.36769873114642448 0 0.022347319287112581 0.34706673979036867 0 0.033366300336564229 0.35668582465186821 0 0.022347319287112581 0.34706673979036867 0 0.03648186445673491 0.34239463865650682 0 0.022347319287112581 0.34706673979036867 0 0.0026724101620130801 0.3695972521235823 0 0.022347319287112581 0.34706673979036867 0 4.0509382391099018e-05 0.34942577061310842 0 0.0026724101620130801 0.3695972521235823 0 0.014495243569886081 0.38295097737104289 0 0.023740261302617159 0.36769873114642448 0 0.0026724101620130801 0.3695972521235823 0 0.023740261302617159 0.36769873114642448 0 0.0026724101620130801 0.3695972521235823 0 -0.0078697945137191361 0.31546547343540748 0 0.0088051504294338334 0.32822729429521302 0 0.01756979147647493 0.30702881797731713 0 0.0088051504294338334 0.32822729429521302 0 0.01756979147647493 0.30702881797731713 0 4.0509382391099018e-05 0.34942577061310842 0 0.0088051504294338334 0.32822729429521302 0 0.022347319287112581 0.34706673979036867 0 4.0509382391099018e-05 0.34942577061310842 0 0.0088051504294338334 0.32822729429521302 0 0.022347319287112581 0.34706673979036867 0 0.0088051504294338334 0.32822729429521302 0 0.024982899832100891 0.32250494910589439 0 0.022347319287112581 0.34706673979036867 0 0.024982899832100891 0.32250494910589439 0 0.042022228412209803 0.32453622745715338 0 0.0088051504294338334 0.32822729429521302 0 0.024982899832100891 0.32250494910589439 0 0.01756979147647493 0.30702881797731713 0 0.024982899832100891 0.32250494910589439 0 0.042022228412209803 0.32453622745715338 0 0.037707430732410632 0.30035047328227399 0 0.022347319287112581 0.34706673979036867 0 0.042022228412209803 0.32453622745715338 0 0.022347319287112581 0.34706673979036867 0 0.042022228412209803 0.32453622745715338 0 0.03648186445673491 0.34239463865650682 0 0.042022228412209803 0.32453622745715338 0 0.03648186445673491 0.34239463865650682 0 0.053006622790175727 0.33669398698370978 0 0.042022228412209803 0.32453622745715338 0 0.053006622790175727 0.33669398698370978 0 0.05464382359812376 0.324919395935311 0 0.053006622790175727 0.33669398698370978 0 0.062361298675659822 0.33309125936536821 0 0.05464382359812376 0.324919395935311 0 0.067802491976296925 0.34201954141111618 0 0.055167019989462288 0.35225372344613182 0 0.053006622790175727 0.33669398698370978 0 0.067802491976296925 0.34201954141111618 0 0.053006622790175727 0.33669398698370978 0 0.062361298675659822 0.33309125936536821 0 0.064841350485462856 0.32556882683230842 0 0.05464382359812376 0.324919395935311 0 0.061697137537306032 0.30200571512393709 0 0.042022228412209803 0.32453622745715338 0 0.061697137537306032 0.30200571512393709 0 0.042022228412209803 0.32453622745715338 0 0.05464382359812376 0.324919395935311 0 0.061697137537306032 0.30200571512393709 0 0.064841350485462856 0.32556882683230842 0 0.062361298675659822 0.33309125936536821 0 0.05464382359812376 0.324919395935311 0 0.057845069988346882 0.29367212858723241 0 0.037707430732410632 0.30035047328227399 0 0.042022228412209803 0.32453622745715338 0 0.061697137537306032 0.30200571512393709 0 0.037707430732410632 0.30035047328227399 0 0.061697137537306032 0.30200571512393709 0 0.057845069988346882 0.29367212858723241 0 0.037707430732410632 0.30035047328227399 0 0.061697137537306032 0.30200571512393709 0 0.057845069988346882 0.29367212858723241 0 0.057845069988346882 0.29367212858723241 0 0.052894500101847479 0.28296203536306941 0 0.063705043357013602 0.28214295185395932 0 0.057845069988346882 0.29367212858723241 0 0.052894500101847479 0.28296203536306941 0 0.057845069988346882 0.29367212858723241 0 0.052894500101847479 0.28296203536306941 0 0.042706758505679433 0.2886210559850087 0 0.042706758505679433 0.2886210559850087 0 0.026135399217135299 0.28631173077840733 0 0.041174334479937423 0.27805722943819611 0 0.042706758505679433 0.2886210559850087 0 0.037707430732410632 0.30035047328227399 0 0.026135399217135299 0.28631173077840733 0 0.057845069988346882 0.29367212858723241 0 0.042706758505679433 0.2886210559850087 0 0.037707430732410632 0.30035047328227399 0 0.052894500101847479 0.28296203536306941 0 0.042706758505679433 0.2886210559850087 0 0.041174334479937423 0.27805722943819611 0 0.024982899832100891 0.32250494910589439 0 0.037707430732410632 0.30035047328227399 0 0.01756979147647493 0.30702881797731713 0 0.037707430732410632 0.30035047328227399 0 0.01756979147647493 0.30702881797731713 0 0.037707430732410632 0.30035047328227399 0 0.01756979147647493 0.30702881797731713 0 0.026135399217135299 0.28631173077840733 0 0.01756979147647493 0.30702881797731713 0 0.026135399217135299 0.28631173077840733 0 0.01756979147647493 0.30702881797731713 0 0.026135399217135299 0.28631173077840733 0 0.016602305708361471 0.29437469659486082 0 0.02351957976052195 0.28384976074951179 0 0.015937280241268149 0.28369046741748272 0 0.01462937807394929 0.2767639442938441 0 0.026135399217135299 0.28631173077840733 0 0.02351957976052195 0.28384976074951179 0 0.018970721517315801 0.28739742139373858 0 0.018970721517315801 0.28739742139373858 0 0.015937280241268149 0.28369046741748272 0 0.01265904265929213 0.28876045142843038 0 0.02351957976052195 0.28384976074951179 0 0.018970721517315801 0.28739742139373858 0 0.015937280241268149 0.28369046741748272 0 0.026135399217135299 0.28631173077840733 0 0.018970721517315801 0.28739742139373858 0 0.016602305708361471 0.29437469659486082 0 0.018970721517315801 0.28739742139373858 0 0.016602305708361471 0.29437469659486082 0 0.01265904265929213 0.28876045142843038 0 0.016602305708361471 0.29437469659486082 0 0.01265904265929213 0.28876045142843038 0 0.010167076674657971 0.29825243278197971 0 0.01265904265929213 0.28876045142843038 0 0.0049443039259697008 0.28761687874266101 0 0.010167076674657971 0.29825243278197971 0 0.015937280241268149 0.28369046741748272 0 0.01265904265929213 0.28876045142843038 0 0.0099766012844644258 0.28185619953908009 0 0.01265904265929213 0.28876045142843038 0 0.0099766012844644258 0.28185619953908009 0 0.0049443039259697008 0.28761687874266101 0 0.0099766012844644258 0.28185619953908009 0 0.0049443039259697008 0.28761687874266101 0 0.0034427418201543052 0.27993256641229641 0 -0.001660643000739298 0.28540143448832911 0 0.0049443039259697008 0.28761687874266101 0 0.0034427418201543052 0.27993256641229641 0 -0.0042868264351340014 0.29199423495856552 0 0.0049443039259697008 0.28761687874266101 0 0.010167076674657971 0.29825243278197971 0 -0.0089709971350864174 0.30579241992498002 0 0.010167076674657971 0.29825243278197971 0 -0.0078697945137191361 0.31546547343540748 0 0.01756979147647493 0.30702881797731713 0 -0.0078697945137191361 0.31546547343540748 0 0.01756979147647493 0.30702881797731713 0 0.010167076674657971 0.29825243278197971 0 0.01756979147647493 0.30702881797731713 0 0.016602305708361471 0.29437469659486082 0 0.010167076674657971 0.29825243278197971 0 0.0038858066017371838 0.24701664192213149 0 0.013702693181129381 0.26543320133582182 0 -0.0052839620752209932 0.24651421377050101 0 0.0045767526390982759 0.25757465709898492 0 0.005432461206957475 0.27008104065747518 0 0.0038858066017371838 0.24701664192213149 0 0.013702693181129381 0.26543320133582182 0 0.0045767526390982759 0.25757465709898492 0 0.0038858066017371838 0.24701664192213149 0 0.013702693181129381 0.26543320133582182 0 0.01534911090579608 0.25416688120580838 0 -0.0052839620752209932 0.24651421377050101 0 0.005432461206957475 0.27008104065747518 0 0.013702693181129381 0.26543320133582182 0 0.0045767526390982759 0.25757465709898492 0 0.005432461206957475 0.27008104065747518 0 -0.0052839620752209932 0.24651421377050101 0 0.0038858066017371838 0.24701664192213149 0 0.0045767526390982759 0.25757465709898492 0 0.005432461206957475 0.27008104065747518 0 0.0034427418201543052 0.27993256641229641 0 0.0091890197507344031 0.27597430631063519 0 0.0099766012844644258 0.28185619953908009 0 0.0034427418201543052 0.27993256641229641 0 0.0091890197507344031 0.27597430631063519 0 0.0099766012844644258 0.28185619953908009 0 0.0091890197507344031 0.27597430631063519 0 0.01462937807394929 0.2767639442938441 0 0.0091890197507344031 0.27597430631063519 0 0.01462937807394929 0.2767639442938441 0 0.010738388053192639 0.27206312314944398 0 0.015937280241268149 0.28369046741748272 0 0.0099766012844644258 0.28185619953908009 0 0.01462937807394929 0.2767639442938441 0 0.013702693181129381 0.26543320133582182 0 0.005432461206957475 0.27008104065747518 0 0.010738388053192639 0.27206312314944398 0 0.013702693181129381 0.26543320133582182 0 0.01462937807394929 0.2767639442938441 0 0.010738388053192639 0.27206312314944398 0 0.005432461206957475 0.27008104065747518 0 0.0091890197507344031 0.27597430631063519 0 0.010738388053192639 0.27206312314944398 0 0.026135399217135299 0.28631173077840733 0 0.034701006957794017 0.26559464357949669 0 0.026135399217135299 0.28631173077840733 0 0.024462784233393441 0.27195174446187581 0 0.034701006957794017 0.26559464357949669 0 0.02351957976052195 0.28384976074951179 0 0.013702693181129381 0.26543320133582182 0 0.024462784233393441 0.27195174446187581 0 0.02351957976052195 0.28384976074951179 0 0.013702693181129381 0.26543320133582182 0 0.02351957976052195 0.28384976074951179 0 0.013702693181129381 0.26543320133582182 0 0.01462937807394929 0.2767639442938441 0 0.026135399217135299 0.28631173077840733 0 0.02351957976052195 0.28384976074951179 0 0.024462784233393441 0.27195174446187581 0 0.024462784233393441 0.27195174446187581 0 0.023831315674361551 0.25784578595971469 0 0.034701006957794017 0.26559464357949669 0 0.013702693181129381 0.26543320133582182 0 0.01534911090579608 0.25416688120580838 0 0.023831315674361551 0.25784578595971469 0 0.013702693181129381 0.26543320133582182 0 0.024462784233393441 0.27195174446187581 0 0.023831315674361551 0.25784578595971469 0 0.019552701789931199 0.2456482956991394 0 0.01534911090579608 0.25416688120580838 0 0.023831315674361551 0.25784578595971469 0 0.043266614698450417 0.24487755638058531 0 0.034701006957794017 0.26559464357949669 0 0.048537263954960358 0.25550612542213902 0 0.035219596978125163 0.24427994947614681 0 0.023831315674361551 0.25784578595971469 0 0.034701006957794017 0.26559464357949669 0 0.043266614698450417 0.24487755638058531 0 0.034701006957794017 0.26559464357949669 0 0.043266614698450417 0.24487755638058531 0 0.035219596978125163 0.24427994947614681 0 0.034701006957794017 0.26559464357949669 0 0.034701006957794017 0.26559464357949669 0 0.049422484883533013 0.26899032943675621 0 0.048537263954960358 0.25550612542213902 0 0.026135399217135299 0.28631173077840733 0 0.034701006957794017 0.26559464357949669 0 0.041174334479937423 0.27805722943819611 0 0.034701006957794017 0.26559464357949669 0 0.041174334479937423 0.27805722943819611 0 0.049422484883533013 0.26899032943675621 0 0.052894500101847479 0.28296203536306941 0 0.041174334479937423 0.27805722943819611 0 0.049422484883533013 0.26899032943675621 0 0.049422484883533013 0.26899032943675621 0 0.06176382660997895 0.27122544433225582 0 0.056879652625385517 0.26147643127976178 0 0.052894500101847479 0.28296203536306941 0 0.049422484883533013 0.26899032943675621 0 0.06176382660997895 0.27122544433225582 0 0.052894500101847479 0.28296203536306941 0 0.06176382660997895 0.27122544433225582 0 0.063705043357013602 0.28214295185395932 0 0.052056269767059488 0.24973518429608971 0 0.047257557382846677 0.24517394132545531 0 0.048537263954960358 0.25550612542213902 0 0.048537263954960358 0.25550612542213902 0 0.056879652625385517 0.26147643127976178 0 0.056340343509317187 0.25329890119982751 0 0.052056269767059488 0.24973518429608971 0 0.048537263954960358 0.25550612542213902 0 0.056340343509317187 0.25329890119982751 0 0.049422484883533013 0.26899032943675621 0 0.048537263954960358 0.25550612542213902 0 0.056879652625385517 0.26147643127976178 0 0.056879652625385517 0.26147643127976178 0 0.064329910563781179 0.25385838807599909 0 0.065186910011170635 0.26140319433681392 0 0.06176382660997895 0.27122544433225582 0 0.056879652625385517 0.26147643127976178 0 0.065186910011170635 0.26140319433681392 0 0.064906879439047591 0.24537137174524101 0 0.056340343509317187 0.25329890119982751 0 0.064329910563781179 0.25385838807599909 0 0.056879652625385517 0.26147643127976178 0 0.056340343509317187 0.25329890119982751 0 0.064329910563781179 0.25385838807599909 0 0.064329910563781179 0.25385838807599909 0 0.065186910011170635 0.26140319433681392 0 0.073280449384348523 0.25430993563771132 0 0.064906879439047591 0.24537137174524101 0 0.064329910563781179 0.25385838807599909 0 0.073280449384348523 0.25430993563771132 0 0.065186910011170635 0.26140319433681392 0 0.073280449384348523 0.25430993563771132 0 0.071308311850700343 0.265761078679979 0 0.073280449384348523 0.25430993563771132 0 0.080165326977007512 0.2628909879736227 0 0.071308311850700343 0.265761078679979 0 0.080165326977007512 0.2628909879736227 0 0.087608092015237171 0.25288097681756239 0 0.098775260401848738 0.25954609819862212 0 0.080165326977007512 0.2628909879736227 0 0.086143399180358043 0.27401133934574501 0 0.098775260401848738 0.25954609819862212 0 0.073280449384348523 0.25430993563771132 0 0.080165326977007512 0.2628909879736227 0 0.087608092015237171 0.25288097681756239 0 0.086143399180358043 0.27401133934574501 0 0.091745572830825503 0.28242953751486571 0 0.097928807276843804 0.27224337160379841 0 0.086143399180358043 0.27401133934574501 0 0.098775260401848738 0.25954609819862212 0 0.080165326977007512 0.2628909879736227 0 0.086143399180358043 0.27401133934574501 0 0.07251028212602223 0.27437857049436287 0 0.086143399180358043 0.27401133934574501 0 0.073511537958870887 0.28847658049287089 0 0.086143399180358043 0.27401133934574501 0 0.07251028212602223 0.27437857049436287 0 0.073511537958870887 0.28847658049287089 0 0.080165326977007512 0.2628909879736227 0 0.07251028212602223 0.27437857049436287 0 0.071308311850700343 0.265761078679979 0 0.06176382660997895 0.27122544433225582 0 0.07251028212602223 0.27437857049436287 0 0.071308311850700343 0.265761078679979 0 0.06176382660997895 0.27122544433225582 0 0.065186910011170635 0.26140319433681392 0 0.071308311850700343 0.265761078679979 0 0.06176382660997895 0.27122544433225582 0 0.07251028212602223 0.27437857049436287 0 0.063705043357013602 0.28214295185395932 0 0.061697137537306032 0.30200571512393709 0 0.057845069988346882 0.29367212858723241 0 0.073511537958870887 0.28847658049287089 0 0.057845069988346882 0.29367212858723241 0 0.073511537958870887 0.28847658049287089 0 0.057845069988346882 0.29367212858723241 0 0.063705043357013602 0.28214295185395932 0 0.073511537958870887 0.28847658049287089 0 0.07251028212602223 0.27437857049436287 0 0.063705043357013602 0.28214295185395932 0 0.073511537958870887 0.28847658049287089 0 0.061697137537306032 0.30200571512393709 0 0.073511537958870887 0.28847658049287089 0 0.061697137537306032 0.30200571512393709 0 0.073511537958870887 0.28847658049287089 0 0.077773162360052564 0.30412113674032432 0 0.072611688838739252 0.32561832228198417 0 0.061697137537306032 0.30200571512393709 0 0.077773162360052564 0.30412113674032432 0 0.077773162360052564 0.30412113674032432 0 0.093194125689663079 0.30913187248504392 0 0.09345159598273263 0.29525243421805308 0 0.086135382526474444 0.31616756073427699 0 0.077773162360052564 0.30412113674032432 0 0.093194125689663079 0.30913187248504392 0 0.086143399180358043 0.27401133934574501 0 0.073511537958870887 0.28847658049287089 0 0.091745572830825503 0.28242953751486571 0 0.073511537958870887 0.28847658049287089 0 0.091745572830825503 0.28242953751486571 0 0.073511537958870887 0.28847658049287089 0 0.09345159598273263 0.29525243421805308 0 0.091745572830825503 0.28242953751486571 0 0.073511537958870887 0.28847658049287089 0 0.077773162360052564 0.30412113674032432 0 0.09345159598273263 0.29525243421805308 0 0.09345159598273263 0.29525243421805308 0 0.105052065890159 0.30338704029689911 0 0.1099796077027783 0.27638249453685509 0 0.09345159598273263 0.29525243421805308 0 0.091745572830825503 0.28242953751486571 0 0.1099796077027783 0.27638249453685509 0 0.105052065890159 0.30338704029689911 0 0.1099796077027783 0.27638249453685509 0 0.093194125689663079 0.30913187248504392 0 0.105052065890159 0.30338704029689911 0 0.093194125689663079 0.30913187248504392 0 0.09345159598273263 0.29525243421805308 0 0.105052065890159 0.30338704029689911 0 0.105052065890159 0.30338704029689911 0 0.123347793273833 0.29452328472033279 0 0.105052065890159 0.30338704029689911 0 0.1179258657302 0.31121682662562039 0 0.123347793273833 0.29452328472033279 0 0.1179258657302 0.31121682662562039 0 0.123347793273833 0.29452328472033279 0 0.13290408152121899 0.31029981655808381 0 0.105052065890159 0.30338704029689911 0 0.119830279307533 0.28412445454142882 0 0.1099796077027783 0.27638249453685509 0 0.105052065890159 0.30338704029689911 0 0.123347793273833 0.29452328472033279 0 0.119830279307533 0.28412445454142882 0 0.1099796077027783 0.27638249453685509 0 0.12307966925931189 0.2720380564679783 0 0.1142858253276592 0.25278300916957203 0 0.119830279307533 0.28412445454142882 0 0.1099796077027783 0.27638249453685509 0 0.12307966925931189 0.2720380564679783 0 0.1099796077027783 0.27638249453685509 0 0.12307966925931189 0.2720380564679783 0 0.1099796077027783 0.27638249453685509 0 0.1142858253276592 0.25278300916957203 0 0.12307966925931189 0.2720380564679783 0 0.1142858253276592 0.25278300916957203 0 0.13155980613391771 0.2555871695969536 0 0.1099796077027783 0.27638249453685509 0 0.1142858253276592 0.25278300916957203 0 0.098775260401848738 0.25954609819862212 0 0.1012024686794499 0.24514295656717061 0 0.1142858253276592 0.25278300916957203 0 0.098775260401848738 0.25954609819862212 0 0.1012024686794499 0.24514295656717061 0 0.087608092015237171 0.25288097681756239 0 0.098775260401848738 0.25954609819862212 0 0.1099796077027783 0.27638249453685509 0 0.098775260401848738 0.25954609819862212 0 0.097928807276843804 0.27224337160379841 0 0.086143399180358043 0.27401133934574501 0 0.098775260401848738 0.25954609819862212 0 0.097928807276843804 0.27224337160379841 0 0.091745572830825503 0.28242953751486571 0 0.1099796077027783 0.27638249453685509 0 0.091745572830825503 0.28242953751486571 0 0.1099796077027783 0.27638249453685509 0 0.097928807276843804 0.27224337160379841 0 0.15460578323957749 0.26216636583925079 0 0.14022351852757739 0.26813426991131961 0 0.15993924804116641 0.27679577356717028 0 0.14022351852757739 0.26813426991131961 0 0.14164352065750019 0.28565952914375259 0 0.15993924804116641 0.27679577356717028 0 0.14164352065750019 0.28565952914375259 0 0.15993924804116641 0.27679577356717028 0 0.14383041430382559 0.2509255099306516 0 0.15460578323957749 0.26216636583925079 0 0.14022351852757739 0.26813426991131961 0 0.12307966925931189 0.2720380564679783 0 0.13155980613391771 0.2555871695969536 0 0.14022351852757739 0.26813426991131961 0 0.14383041430382559 0.2509255099306516 0 0.13155980613391771 0.2555871695969536 0 0.14022351852757739 0.26813426991131961 0 0.12307966925931189 0.2720380564679783 0 0.14022351852757739 0.26813426991131961 0 0.14164352065750019 0.28565952914375259 0 0.119830279307533 0.28412445454142882 0 0.12307966925931189 0.2720380564679783 0 0.14164352065750019 0.28565952914375259 0 0.123347793273833 0.29452328472033279 0 0.14688925378863149 0.29830396303434059 0 0.14164352065750019 0.28565952914375259 0 0.123347793273833 0.29452328472033279 0 0.119830279307533 0.28412445454142882 0 0.14164352065750019 0.28565952914375259 0 0.123347793273833 0.29452328472033279 0 0.14164352065750019 0.28565952914375259 0 0.123347793273833 0.29452328472033279 0 0.13290408152121899 0.31029981655808381 0 0.14688925378863149 0.29830396303434059 0 0.13290408152121899 0.31029981655808381 0 0.1460220099428802 0.31143794252409279 0 0.14688925378863149 0.29830396303434059 0 0.1460220099428802 0.31143794252409279 0 0.14688925378863149 0.29830396303434059 0 0.16119137620701521 0.30075713334268439 0 0.1460220099428802 0.31143794252409279 0 0.16119137620701521 0.30075713334268439 0 0.15933708749110659 0.31556273425360942 0 0.14688925378863149 0.29830396303434059 0 0.16119137620701521 0.30075713334268439 0 0.15993924804116641 0.27679577356717028 0 0.14688925378863149 0.29830396303434059 0 0.15993924804116641 0.27679577356717028 0 0.14688925378863149 0.29830396303434059 0 0.14164352065750019 0.28565952914375259 0 0.15993924804116641 0.27679577356717028 0 0.16119137620701521 0.30075713334268439 0 0.17198566490255299 0.28978446771594402 0 0.15993924804116641 0.27679577356717028 0 0.17198566490255299 0.28978446771594402 0 0.17492623113893049 0.27885868973688638 0 0.15993924804116641 0.27679577356717028 0 0.16119137620701521 0.30075713334268439 0 0.17847099086289661 0.30718254580075333 0 0.15933708749110659 0.31556273425360942 0 0.16119137620701521 0.30075713334268439 0 0.17847099086289661 0.30718254580075333 0 0.17198566490255299 0.28978446771594402 0 0.17847099086289661 0.30718254580075333 0 0.18735069749268521 0.2819855938833386 0 0.19357693924923489 0.29223757862838012 0 0.17847099086289661 0.30718254580075333 0 0.18735069749268521 0.2819855938833386 0 0.17847099086289661 0.30718254580075333 0 0.17198566490255299 0.28978446771594402 0 0.18735069749268521 0.2819855938833386 0 0.17198566490255299 0.28978446771594402 0 0.18735069749268521 0.2819855938833386 0 0.17492623113893049 0.27885868973688638 0 0.18735069749268521 0.2819855938833386 0 0.18042931411931901 0.26686892378109361 0 0.17492623113893049 0.27885868973688638 0 0.18735069749268521 0.2819855938833386 0 0.18042931411931901 0.26686892378109361 0 0.18930722703480479 0.26056568242568617 0 0.18042931411931901 0.26686892378109361 0 0.15993924804116641 0.27679577356717028 0 0.15993924804116641 0.27679577356717028 0 0.17314797272478011 0.2550259744686178 0 0.18042931411931901 0.26686892378109361 0 0.17492623113893049 0.27885868973688638 0 0.15993924804116641 0.27679577356717028 0 0.18042931411931901 0.26686892378109361 0 0.15993924804116641 0.27679577356717028 0 0.17314797272478011 0.2550259744686178 0 0.15460578323957749 0.26216636583925079 0 0.15993924804116641 0.27679577356717028 0 0.17314797272478011 0.2550259744686178 0 0.16048528187025701 0.23476608104578439 0 0.15460578323957749 0.26216636583925079 0 0.17314797272478011 0.2550259744686178 0 0.18042931411931901 0.26686892378109361 0 0.17314797272478011 0.2550259744686178 0 0.18231411620178309 0.25385363295164209 0 0.18042931411931901 0.26686892378109361 0 0.18231411620178309 0.25385363295164209 0 0.18930722703480479 0.26056568242568617 0 0.18231411620178309 0.25385363295164209 0 0.189551943328616 0.25174004900009123 0 0.18930722703480479 0.26056568242568617 0 0.189551943328616 0.25174004900009123 0 0.18930722703480479 0.26056568242568617 0 0.19623040412247419 0.25678864196592399 0 0.189551943328616 0.25174004900009123 0 0.19623040412247419 0.25678864196592399 0 0.19623040412247419 0.25678864196592399 0 0.19721116492219409 0.27080348688121392 0 0.2055305901915892 0.26381913228677961 0 0.19623040412247419 0.25678864196592399 0 0.2055305901915892 0.26381913228677961 0 0.18735069749268521 0.2819855938833386 0 0.18930722703480479 0.26056568242568617 0 0.19623040412247419 0.25678864196592399 0 0.18735069749268521 0.2819855938833386 0 0.19623040412247419 0.25678864196592399 0 0.19721116492219409 0.27080348688121392 0 0.18735069749268521 0.2819855938833386 0 0.19623040412247419 0.25678864196592399 0 0.18735069749268521 0.2819855938833386 0 0.19721116492219409 0.27080348688121392 0 0.2004291431558152 0.27594724273185972 0 0.2004291431558152 0.27594724273185972 0 0.2055305901915892 0.26381913228677961 0 0.19721116492219409 0.27080348688121392 0 0.2004291431558152 0.27594724273185972 0 0.2055305901915892 0.26381913228677961 0 0.19721116492219409 0.27080348688121392 0 0.2004291431558152 0.27594724273185972 0 0.2055305901915892 0.26381913228677961 0 0.22368476840064311 0.26088578410735508 0 0.22485030542561929 0.27842390147582369 0 0.2055305901915892 0.26381913228677961 0 0.22485030542561929 0.27842390147582369 0 0.2004291431558152 0.27594724273185972 0 0.2055305901915892 0.26381913228677961 0 0.22485030542561929 0.27842390147582369 0 0.21672450977678229 0.23720686088802539 0 0.19623040412247419 0.25678864196592399 0 0.2055305901915892 0.26381913228677961 0 0.21672450977678229 0.23720686088802539 0 0.2055305901915892 0.26381913228677961 0 0.22368476840064311 0.26088578410735508 0 0.21672450977678229 0.23720686088802539 0 0.2055305901915892 0.26381913228677961 0 0.21672450977678229 0.23720686088802539 0 0.22368476840064311 0.26088578410735508 0 0.2393105250387596 0.2522611276579797 0 0.22368476840064311 0.26088578410735508 0 0.22485030542561929 0.27842390147582369 0 0.2442711053158253 0.27071593300353508 0 0.22485030542561929 0.27842390147582369 0 0.2442711053158253 0.27071593300353508 0 0.24417002065964971 0.2930286706648676 0 0.2442711053158253 0.27071593300353508 0 0.2393105250387596 0.2522611276579797 0 0.2630771961758292 0.25483384150313898 0 0.22368476840064311 0.26088578410735508 0 0.2442711053158253 0.27071593300353508 0 0.2393105250387596 0.2522611276579797 0 0.24417002065964971 0.2930286706648676 0 0.23237089805861141 0.30492030095977007 0 0.24614155513057029 0.31445964941925542 0 0.22485030542561929 0.27842390147582369 0 0.24417002065964971 0.2930286706648676 0 0.22485030542561929 0.27842390147582369 0 0.24417002065964971 0.2930286706648676 0 0.23237089805861141 0.30492030095977007 0 0.22485030542561929 0.27842390147582369 0 0.23237089805861141 0.30492030095977007 0 0.21461125876163861 0.29861655085823158 0 0.23237089805861141 0.30492030095977007 0 0.21461125876163861 0.29861655085823158 0 0.22879337436746039 0.32128585898460432 0 0.21461125876163861 0.29861655085823158 0 0.21420168428208169 0.31487021677087879 0 0.22879337436746039 0.32128585898460432 0 0.21461125876163861 0.29861655085823158 0 0.22879337436746039 0.32128585898460432 0 0.21461125876163861 0.29861655085823158 0 0.19886043272573889 0.31268479918417552 0 0.21420168428208169 0.31487021677087879 0 0.2004291431558152 0.27594724273185972 0 0.21461125876163861 0.29861655085823158 0 0.2004291431558152 0.27594724273185972 0 0.22485030542561929 0.27842390147582369 0 0.21461125876163861 0.29861655085823158 0 0.18735069749268521 0.2819855938833386 0 0.2004291431558152 0.27594724273185972 0 0.19357693924923489 0.29223757862838012 0 0.2004291431558152 0.27594724273185972 0 0.19357693924923489 0.29223757862838012 0 0.2004291431558152 0.27594724273185972 0 0.21461125876163861 0.29861655085823158 0 0.19357693924923489 0.29223757862838012 0 0.21461125876163861 0.29861655085823158 0 0.19357693924923489 0.29223757862838012 0 0.19886043272573889 0.31268479918417552 0 0.17847099086289661 0.30718254580075333 0 0.19357693924923489 0.29223757862838012 0 0.19886043272573889 0.31268479918417552 0 0.19886043272573889 0.31268479918417552 0 0.19266229599868659 0.33380722811631719 0 0.2145416712734893 0.32689365805650339 0 0.19886043272573889 0.31268479918417552 0 0.19266229599868659 0.33380722811631719 0 0.18489625095510751 0.32151351770485348 0 0.19266229599868659 0.33380722811631719 0 0.2079829991553841 0.34032791117179262 0 0.19499117037187219 0.35478863043576497 0 0.19266229599868659 0.33380722811631719 0 0.2079829991553841 0.34032791117179262 0 0.2145416712734893 0.32689365805650339 0 0.2079829991553841 0.34032791117179262 0 0.22440054341317939 0.33558652322654148 0 0.2205724084329713 0.34839029982279901 0 0.2079829991553841 0.34032791117179262 0 0.2145416712734893 0.32689365805650339 0 0.22440054341317939 0.33558652322654148 0 0.19886043272573889 0.31268479918417552 0 0.2145416712734893 0.32689365805650339 0 0.21420168428208169 0.31487021677087879 0 0.2145416712734893 0.32689365805650339 0 0.22879337436746039 0.32128585898460432 0 0.2145416712734893 0.32689365805650339 0 0.21420168428208169 0.31487021677087879 0 0.22879337436746039 0.32128585898460432 0 0.2145416712734893 0.32689365805650339 0 0.22879337436746039 0.32128585898460432 0 0.22440054341317939 0.33558652322654148 0 0.22879337436746039 0.32128585898460432 0 0.22440054341317939 0.33558652322654148 0 0.24214058251549189 0.34262061485208378 0 0.22440054341317939 0.33558652322654148 0 0.24214058251549189 0.34262061485208378 0 0.2205724084329713 0.34839029982279901 0 0.22879337436746039 0.32128585898460432 0 0.24214058251549189 0.34262061485208378 0 0.246531437400972 0.32887974404432718 0 0.22879337436746039 0.32128585898460432 0 0.24214058251549189 0.34262061485208378 0 0.24214058251549189 0.34262061485208378 0 0.246531437400972 0.32887974404432718 0 0.2567373432211304 0.34209573919306951 0 0.22879337436746039 0.32128585898460432 0 0.246531437400972 0.32887974404432718 0 0.24614155513057029 0.31445964941925542 0 0.22879337436746039 0.32128585898460432 0 0.24614155513057029 0.31445964941925542 0 0.23237089805861141 0.30492030095977007 0 0.22879337436746039 0.32128585898460432 0 0.24614155513057029 0.31445964941925542 0 0.2369073015839207 0.37014984782797261 0 0.24573168072093279 0.36697096956990921 0 0.24156975365787209 0.35782017280483153 0 0.2369073015839207 0.37014984782797261 0 0.24156975365787209 0.35782017280483153 0 0.22932643485065751 0.35903597765923401 0 0.2369073015839207 0.37014984782797261 0 0.24645995420460509 0.37498275800661462 0 0.24573168072093279 0.36697096956990921 0 0.24645995420460509 0.37498275800661462 0 0.24573168072093279 0.36697096956990921 0 0.25548779066352317 0.36395537071956358 0 0.24573168072093279 0.36697096956990921 0 0.24156975365787209 0.35782017280483153 0 0.25548779066352317 0.36395537071956358 0 0.24214058251549189 0.34262061485208378 0 0.25548779066352317 0.36395537071956358 0 0.24214058251549189 0.34262061485208378 0 0.24156975365787209 0.35782017280483153 0 0.22932643485065751 0.35903597765923401 0 0.24214058251549189 0.34262061485208378 0 0.24156975365787209 0.35782017280483153 0 0.25548779066352317 0.36395537071956358 0 0.24214058251549189 0.34262061485208378 0 0.2205724084329713 0.34839029982279901 0 0.22932643485065751 0.35903597765923401 0 0.2369073015839207 0.37014984782797261 0 0.22932643485065751 0.35903597765923401 0 0.22096051859306981 0.37071348885167282 0 0.2205724084329713 0.34839029982279901 0 0.22932643485065751 0.35903597765923401 0 0.22096051859306981 0.37071348885167282 0 0.2205724084329713 0.34839029982279901 0 0.22096051859306981 0.37071348885167282 0 0.205233903287172 0.36855661440033322 0 0.2079829991553841 0.34032791117179262 0 0.2205724084329713 0.34839029982279901 0 0.19499117037187219 0.35478863043576497 0 0.2205724084329713 0.34839029982279901 0 0.205233903287172 0.36855661440033322 0 0.19499117037187219 0.35478863043576497 0 0.19266229599868659 0.33380722811631719 0 0.19499117037187219 0.35478863043576497 0 0.1768477852604565 0.34909990856557083 0 0.205233903287172 0.36855661440033322 0 0.19499117037187219 0.35478863043576497 0 0.19050330334353779 0.38010237645982292 0 0.19499117037187219 0.35478863043576497 0 0.17291717288253741 0.37146220523714107 0 0.19050330334353779 0.38010237645982292 0 0.17291717288253741 0.37146220523714107 0 0.16071157760331961 0.35757644963558283 0 0.1768477852604565 0.34909990856557083 0 0.17291717288253741 0.37146220523714107 0 0.16071157760331961 0.35757644963558283 0 0.1601569517168607 0.38484007952827187 0 0.16071157760331961 0.35757644963558283 0 0.1768477852604565 0.34909990856557083 0 0.1695912842331081 0.3323794977181681 0 0.16071157760331961 0.35757644963558283 0 0.1695912842331081 0.3323794977181681 0 0.16071157760331961 0.35757644963558283 0 0.1695912842331081 0.3323794977181681 0 0.14706696348368481 0.34476596070091831 0 0.19499117037187219 0.35478863043576497 0 0.17291717288253741 0.37146220523714107 0 0.1768477852604565 0.34909990856557083 0 0.19266229599868659 0.33380722811631719 0 0.18489625095510751 0.32151351770485348 0 0.1695912842331081 0.3323794977181681 0 0.19266229599868659 0.33380722811631719 0 0.1768477852604565 0.34909990856557083 0 0.1695912842331081 0.3323794977181681 0 0.17847099086289661 0.30718254580075333 0 0.19886043272573889 0.31268479918417552 0 0.18489625095510751 0.32151351770485348 0 0.17847099086289661 0.30718254580075333 0 0.18489625095510751 0.32151351770485348 0 0.1695912842331081 0.3323794977181681 0 0.17847099086289661 0.30718254580075333 0 0.1695912842331081 0.3323794977181681 0 0.15933708749110659 0.31556273425360942 0 0.1695912842331081 0.3323794977181681 0 0.1414097762096331 0.32605655188234828 0 0.17847099086289661 0.30718254580075333 0 0.15933708749110659 0.31556273425360942 0 0.1695912842331081 0.3323794977181681 0 0.1695912842331081 0.3323794977181681 0 0.1414097762096331 0.32605655188234828 0 0.14706696348368481 0.34476596070091831 0 0.1460220099428802 0.31143794252409279 0 0.15933708749110659 0.31556273425360942 0 0.1414097762096331 0.32605655188234828 0 0.12118616471353801 0.32592773165605221 0 0.1414097762096331 0.32605655188234828 0 0.12118616471353801 0.32592773165605221 0 0.13290408152121899 0.31029981655808381 0 0.1414097762096331 0.32605655188234828 0 0.13290408152121899 0.31029981655808381 0 0.1460220099428802 0.31143794252409279 0 0.1414097762096331 0.32605655188234828 0 0.1414097762096331 0.32605655188234828 0 0.1273382652159849 0.34507276573136542 0 0.14706696348368481 0.34476596070091831 0 0.12118616471353801 0.32592773165605221 0 0.1414097762096331 0.32605655188234828 0 0.1273382652159849 0.34507276573136542 0 0.1273382652159849 0.34507276573136542 0 0.14076522463041469 0.36439376089645759 0 0.14706696348368481 0.34476596070091831 0 0.121260272565483 0.36424145571470951 0 0.1273382652159849 0.34507276573136542 0 0.14076522463041469 0.36439376089645759 0 0.121260272565483 0.36424145571470951 0 0.14076522463041469 0.36439376089645759 0 0.13515494786428409 0.38574963395918899 0 0.121260272565483 0.36424145571470951 0 0.13515494786428409 0.38574963395918899 0 0.16071157760331961 0.35757644963558283 0 0.14076522463041469 0.36439376089645759 0 0.14718564380204599 0.37893335384407878 0 0.16071157760331961 0.35757644963558283 0 0.14718564380204599 0.37893335384407878 0 0.1601569517168607 0.38484007952827187 0 0.16071157760331961 0.35757644963558283 0 0.14076522463041469 0.36439376089645759 0 0.14706696348368481 0.34476596070091831 0 0.14964046358361799 0.39122972072295742 0 0.13515494786428409 0.38574963395918899 0 0.14904962316308509 0.40725781220366858 0 0.13515494786428409 0.38574963395918899 0 0.14904962316308509 0.40725781220366858 0 0.14964046358361799 0.39122972072295742 0 0.14904962316308509 0.40725781220366858 0 0.1582962660670221 0.39775169579284869 0 0.14904962316308509 0.40725781220366858 0 0.15983056781224211 0.40985649332909219 0 0.1582962660670221 0.39775169579284869 0 0.14964046358361799 0.39122972072295742 0 0.1582962660670221 0.39775169579284869 0 0.1601569517168607 0.38484007952827187 0 0.14964046358361799 0.39122972072295742 0 0.14718564380204599 0.37893335384407878 0 0.1601569517168607 0.38484007952827187 0 0.14076522463041469 0.36439376089645759 0 0.14718564380204599 0.37893335384407878 0 0.13515494786428409 0.38574963395918899 0 0.14964046358361799 0.39122972072295742 0 0.14718564380204599 0.37893335384407878 0 0.13515494786428409 0.38574963395918899 0 0.1130284250608348 0.38278386795824609 0 0.13515494786428409 0.38574963395918899 0 0.13153493247113179 0.39254869038096368 0 0.13515494786428409 0.38574963395918899 0 0.13153493247113179 0.39254869038096368 0 0.13708271848542311 0.40165838548715571 0 0.13515494786428409 0.38574963395918899 0 0.13708271848542311 0.40165838548715571 0 0.14904962316308509 0.40725781220366858 0 0.13153493247113179 0.39254869038096368 0 0.13708271848542311 0.40165838548715571 0 0.12523198865508839 0.40452397943286489 0 0.13708271848542311 0.40165838548715571 0 0.12523198865508839 0.40452397943286489 0 0.1325679823741974 0.41086208693633752 0 0.1207841289584564 0.41861445094320349 0 0.12523198865508839 0.40452397943286489 0 0.1325679823741974 0.41086208693633752 0 0.1207841289584564 0.41861445094320349 0 0.1325679823741974 0.41086208693633752 0 0.1339456159494716 0.42332276326867851 0 0.1325679823741974 0.41086208693633752 0 0.1339456159494716 0.42332276326867851 0 0.14073722149729331 0.41401875881578593 0 0.13708271848542311 0.40165838548715571 0 0.1325679823741974 0.41086208693633752 0 0.14073722149729331 0.41401875881578593 0 0.1240675572909157 0.43647709985435379 0 0.1207841289584564 0.41861445094320349 0 0.1339456159494716 0.42332276326867851 0 0.1240675572909157 0.43647709985435379 0 0.1339456159494716 0.42332276326867851 0 0.13628188343751171 0.43739005957489852 0 0.1339456159494716 0.42332276326867851 0 0.13628188343751171 0.43739005957489852 0 0.14738843085669609 0.42357316863437511 0 0.13628188343751171 0.43739005957489852 0 0.14738843085669609 0.42357316863437511 0 0.1484216496450079 0.44235481117325598 0 0.14738843085669609 0.42357316863437511 0 0.1629442984618861 0.42876599044814812 0 0.1484216496450079 0.44235481117325598 0 0.14738843085669609 0.42357316863437511 0 0.14073722149729331 0.41401875881578593 0 0.14904962316308509 0.40725781220366858 0 0.14904962316308509 0.40725781220366858 0 0.1629442984618861 0.42876599044814812 0 0.14738843085669609 0.42357316863437511 0 0.14904962316308509 0.40725781220366858 0 0.1629442984618861 0.42876599044814812 0 0.13708271848542311 0.40165838548715571 0 0.14073722149729331 0.41401875881578593 0 0.14904962316308509 0.40725781220366858 0 0.1339456159494716 0.42332276326867851 0 0.14738843085669609 0.42357316863437511 0 0.14073722149729331 0.41401875881578593 0 0.1714615001018549 0.41765239655405961 0 0.15983056781224211 0.40985649332909219 0 0.1629442984618861 0.42876599044814812 0 0.1714615001018549 0.41765239655405961 0 0.15983056781224211 0.40985649332909219 0 0.182497705599652 0.40903515446456179 0 0.15983056781224211 0.40985649332909219 0 0.182497705599652 0.40903515446456179 0 0.14904962316308509 0.40725781220366858 0 0.15983056781224211 0.40985649332909219 0 0.1629442984618861 0.42876599044814812 0 0.1629442984618861 0.42876599044814812 0 0.1895568179496834 0.42949122936062889 0 0.17683897376068711 0.45027416869262771 0 0.1714615001018549 0.41765239655405961 0 0.1629442984618861 0.42876599044814812 0 0.1895568179496834 0.42949122936062889 0 0.1714615001018549 0.41765239655405961 0 0.182497705599652 0.40903515446456179 0 0.1895568179496834 0.42949122936062889 0 0.17280372405930469 0.39557437318025379 0 0.19050330334353779 0.38010237645982292 0 0.19339536104055369 0.39659423695225487 0 0.182497705599652 0.40903515446456179 0 0.17280372405930469 0.39557437318025379 0 0.19339536104055369 0.39659423695225487 0 0.15983056781224211 0.40985649332909219 0 0.182497705599652 0.40903515446456179 0 0.17280372405930469 0.39557437318025379 0 0.17280372405930469 0.39557437318025379 0 0.1582962660670221 0.39775169579284869 0 0.1601569517168607 0.38484007952827187 0 0.15983056781224211 0.40985649332909219 0 0.17280372405930469 0.39557437318025379 0 0.1582962660670221 0.39775169579284869 0 0.17291717288253741 0.37146220523714107 0 0.17280372405930469 0.39557437318025379 0 0.1601569517168607 0.38484007952827187 0 0.17291717288253741 0.37146220523714107 0 0.17280372405930469 0.39557437318025379 0 0.19050330334353779 0.38010237645982292 0 0.19050330334353779 0.38010237645982292 0 0.19339536104055369 0.39659423695225487 0 0.21097159065292889 0.38832741591240488 0 0.205233903287172 0.36855661440033322 0 0.19050330334353779 0.38010237645982292 0 0.21097159065292889 0.38832741591240488 0 0.182497705599652 0.40903515446456179 0 0.19339536104055369 0.39659423695225487 0 0.20516484338706201 0.40821381560003139 0 0.19339536104055369 0.39659423695225487 0 0.21097159065292889 0.38832741591240488 0 0.20516484338706201 0.40821381560003139 0 0.21097159065292889 0.38832741591240488 0 0.22783198117447201 0.40739247673550111 0 0.20516484338706201 0.40821381560003139 0 0.22096051859306981 0.37071348885167282 0 0.205233903287172 0.36855661440033322 0 0.21097159065292889 0.38832741591240488 0 0.22096051859306981 0.37071348885167282 0 0.21097159065292889 0.38832741591240488 0 0.23617569769432689 0.38662288977905118 0 0.2369073015839207 0.37014984782797261 0 0.22096051859306981 0.37071348885167282 0 0.23617569769432689 0.38662288977905118 0 0.21097159065292889 0.38832741591240488 0 0.23617569769432689 0.38662288977905118 0 0.22783198117447201 0.40739247673550111 0 0.23617569769432689 0.38662288977905118 0 0.25049911896188198 0.40657113787097038 0 0.25299345481270241 0.38526325429526698 0 0.23617569769432689 0.38662288977905118 0 0.22783198117447201 0.40739247673550111 0 0.25049911896188198 0.40657113787097038 0 0.24645995420460509 0.37498275800661462 0 0.23617569769432689 0.38662288977905118 0 0.25299345481270241 0.38526325429526698 0 0.2369073015839207 0.37014984782797261 0 0.24645995420460509 0.37498275800661462 0 0.23617569769432689 0.38662288977905118 0 0.24703841110162819 0.43613426191922339 0 0.23840931675243229 0.42004477541745061 0 0.22826775577174699 0.43008122514410763 0 0.24703841110162819 0.43613426191922339 0 0.24977140174778059 0.42499340612939768 0 0.25049911896188198 0.40657113787097038 0 0.23840931675243229 0.42004477541745061 0 0.22783198117447201 0.40739247673550111 0 0.25049911896188198 0.40657113787097038 0 0.24703841110162819 0.43613426191922339 0 0.23840931675243229 0.42004477541745061 0 0.25049911896188198 0.40657113787097038 0 0.22783198117447201 0.40739247673550111 0 0.25049911896188198 0.40657113787097038 0 0.24703841110162819 0.43613426191922339 0 0.25049911896188198 0.40657113787097038 0 0.23840931675243229 0.42004477541745061 0 0.22783198117447201 0.40739247673550111 0 0.22826775577174699 0.43008122514410763 0 0.22783198117447201 0.40739247673550111 0 0.22826775577174699 0.43008122514410763 0 0.20969744763210471 0.42549714019907531 0 0.20969744763210471 0.42549714019907531 0 0.1895568179496834 0.42949122936062889 0 0.21207820348607001 0.44320560743940701 0 0.22826775577174699 0.43008122514410763 0 0.20969744763210471 0.42549714019907531 0 0.21207820348607001 0.44320560743940701 0 0.22783198117447201 0.40739247673550111 0 0.20516484338706201 0.40821381560003139 0 0.22783198117447201 0.40739247673550111 0 0.20969744763210471 0.42549714019907531 0 0.20516484338706201 0.40821381560003139 0 0.182497705599652 0.40903515446456179 0 0.20516484338706201 0.40821381560003139 0 0.20969744763210471 0.42549714019907531 0 0.20516484338706201 0.40821381560003139 0 0.1895568179496834 0.42949122936062889 0 0.182497705599652 0.40903515446456179 0 0.20516484338706201 0.40821381560003139 0 0.1895568179496834 0.42949122936062889 0 0.1895568179496834 0.42949122936062889 0 0.19577157116815061 0.45328556148712001 0 0.21207820348607001 0.44320560743940701 0 0.19577157116815061 0.45328556148712001 0 0.19073364905948831 0.47178234693710741 0 0.17683897376068711 0.45027416869262771 0 0.19577157116815061 0.45328556148712001 0 0.21342708824301951 0.46377853475217912 0 0.19073364905948831 0.47178234693710741 0 0.19577157116815061 0.45328556148712001 0 0.21342708824301951 0.46377853475217912 0 0.21207820348607001 0.44320560743940701 0 0.22826775577174699 0.43008122514410763 0 0.21207820348607001 0.44320560743940701 0 0.23124048585414439 0.4477303040589366 0 0.21342708824301951 0.46377853475217912 0 0.21207820348607001 0.44320560743940701 0 0.23124048585414439 0.4477303040589366 0 0.21342708824301951 0.46377853475217912 0 0.23124048585414439 0.4477303040589366 0 0.2359903679092803 0.46516770797114437 0 0.23124048585414439 0.4477303040589366 0 0.2359903679092803 0.46516770797114437 0 0.24458969723878921 0.44935745629110391 0 0.2359903679092803 0.46516770797114437 0 0.24458969723878921 0.44935745629110391 0 0.25614129822204601 0.45794934120878678 0 0.2359903679092803 0.46516770797114437 0 0.25188265884249778 0.47641603613978911 0 0.25614129822204601 0.45794934120878678 0 0.24703841110162819 0.43613426191922339 0 0.22826775577174699 0.43008122514410763 0 0.23124048585414439 0.4477303040589366 0 0.24703841110162819 0.43613426191922339 0 0.23124048585414439 0.4477303040589366 0 0.24458969723878921 0.44935745629110391 0 0.24703841110162819 0.43613426191922339 0 0.24458969723878921 0.44935745629110391 0 0.2574224563510934 0.44408838631983127 0 0.2346327404033445 0.5 0 0.25188265884249778 0.47641603613978911 0 0.26220887439977653 0.5 0 0.2346327404033445 0.5 0 0.22470632831416351 0.48122104021392981 0 0.25188265884249778 0.47641603613978911 0 0.2359903679092803 0.46516770797114437 0 0.22470632831416351 0.48122104021392981 0 0.25188265884249778 0.47641603613978911 0 0.21342708824301951 0.46377853475217912 0 0.2359903679092803 0.46516770797114437 0 0.22470632831416351 0.48122104021392981 0 0.2346327404033445 0.5 0 0.22470632831416351 0.48122104021392981 0 0.20705660640691259 0.5 0 0.22470632831416351 0.48122104021392981 0 0.20705660640691259 0.5 0 0.20524850807992651 0.48196396242046607 0 0.21342708824301951 0.46377853475217912 0 0.22470632831416351 0.48122104021392981 0 0.20524850807992651 0.48196396242046607 0 0.21342708824301951 0.46377853475217912 0 0.20524850807992651 0.48196396242046607 0 0.19073364905948831 0.47178234693710741 0 0.20705660640691259 0.5 0 0.20524850807992651 0.48196396242046607 0 0.1794804724104806 0.5 0 0.20524850807992651 0.48196396242046607 0 0.19073364905948831 0.47178234693710741 0 0.1794804724104806 0.5 0 0.1794804724104806 0.5 0 0.1673941017168043 0.47584471746468321 0 0.1519043384140486 0.5 0 0.1673941017168043 0.47584471746468321 0 0.15719674266903 0.45759138842742958 0 0.14657059951423521 0.47492675656492561 0 0.19073364905948831 0.47178234693710741 0 0.1794804724104806 0.5 0 0.1673941017168043 0.47584471746468321 0 0.19073364905948831 0.47178234693710741 0 0.1673941017168043 0.47584471746468321 0 0.17683897376068711 0.45027416869262771 0 0.19073364905948831 0.47178234693710741 0 0.17683897376068711 0.45027416869262771 0 0.1895568179496834 0.42949122936062889 0 0.19577157116815061 0.45328556148712001 0 0.17683897376068711 0.45027416869262771 0 0.17683897376068711 0.45027416869262771 0 0.16135041613415271 0.44474658968536529 0 0.15719674266903 0.45759138842742958 0 0.1629442984618861 0.42876599044814812 0 0.16135041613415271 0.44474658968536529 0 0.1484216496450079 0.44235481117325598 0 0.1629442984618861 0.42876599044814812 0 0.17683897376068711 0.45027416869262771 0 0.1629442984618861 0.42876599044814812 0 0.17683897376068711 0.45027416869262771 0 0.16135041613415271 0.44474658968536529 0 0.1673941017168043 0.47584471746468321 0 0.17683897376068711 0.45027416869262771 0 0.15719674266903 0.45759138842742958 0 0.15719674266903 0.45759138842742958 0 0.14025858460544499 0.4554931804949508 0 0.14657059951423521 0.47492675656492561 0 0.15719674266903 0.45759138842742958 0 0.1484216496450079 0.44235481117325598 0 0.14025858460544499 0.4554931804949508 0 0.13628188343751171 0.43739005957489852 0 0.1484216496450079 0.44235481117325598 0 0.14025858460544499 0.4554931804949508 0 0.16135041613415271 0.44474658968536529 0 0.15719674266903 0.45759138842742958 0 0.1484216496450079 0.44235481117325598 0 0.13628188343751171 0.43739005957489852 0 0.12581727049103361 0.45184727258381452 0 0.14025858460544499 0.4554931804949508 0 0.1240675572909157 0.43647709985435379 0 0.13628188343751171 0.43739005957489852 0 0.12581727049103361 0.45184727258381452 0 0.12581727049103361 0.45184727258381452 0 0.14025858460544499 0.4554931804949508 0 0.12739285513161719 0.46936070920994732 0 0.14025858460544499 0.4554931804949508 0 0.12739285513161719 0.46936070920994732 0 0.14657059951423521 0.47492675656492561 0 0.12739285513161719 0.46936070920994732 0 0.13396438461794399 0.48549093095616741 0 0.14657059951423521 0.47492675656492561 0 0.12432820441761661 0.5 0 0.13396438461794399 0.48549093095616741 0 0.1519043384140486 0.5 0 0.13396438461794399 0.48549093095616741 0 0.1519043384140486 0.5 0 0.14657059951423521 0.47492675656492561 0 0.1673941017168043 0.47584471746468321 0 0.1519043384140486 0.5 0 0.14657059951423521 0.47492675656492561 0 0.36438320113356992 0.48171160779965699 0 0.35852646383378539 0.45796088912983413 0 0.33836762456761282 0.47343897738958879 0 0.3449372763890724 0.5 0 0.36438320113356992 0.48171160779965699 0 0.33836762456761282 0.47343897738958879 0 0.3449372763890724 0.5 0 0.37251341038550451 0.5 0 0.36438320113356992 0.48171160779965699 0 0.37251341038550451 0.5 0 0.36438320113356992 0.48171160779965699 0 0.38512274335116659 0.48632708492225468 0 0.36438320113356992 0.48171160779965699 0 0.35852646383378539 0.45796088912983413 0 0.38363947782250851 0.47138225664371558 0 0.35852646383378539 0.45796088912983413 0 0.38568593820516062 0.45938274722044248 0 0.37288563135531327 0.44378361071592748 0 0.35852646383378539 0.45796088912983413 0 0.38568593820516062 0.45938274722044248 0 0.37288563135531327 0.44378361071592748 0 0.35755202935170849 0.43752509956600361 0 0.35852646383378539 0.45796088912983413 0 0.35755202935170849 0.43752509956600361 0 0.35852646383378539 0.45796088912983413 0 0.34137671152026888 0.44446280267119309 0 0.35852646383378539 0.45796088912983413 0 0.34137671152026888 0.44446280267119309 0 0.33836762456761282 0.47343897738958879 0 0.34137671152026888 0.44446280267119309 0 0.32347400806073923 0.45610103953313369 0 0.33836762456761282 0.47343897738958879 0 0.34137671152026888 0.44446280267119309 0 0.31994301121587793 0.44035076744256801 0 0.32347400806073923 0.45610103953313369 0 0.31994301121587793 0.44035076744256801 0 0.32347400806073923 0.45610103953313369 0 0.30241563052774117 0.45039956135922471 0 0.32347400806073923 0.45610103953313369 0 0.31526706247219538 0.47185308880309412 0 0.30241563052774117 0.45039956135922471 0 0.32347400806073923 0.45610103953313369 0 0.31526706247219538 0.47185308880309412 0 0.33836762456761282 0.47343897738958879 0 0.31526706247219538 0.47185308880309412 0 0.33836762456761282 0.47343897738958879 0 0.31736114239264052 0.5 0 0.3449372763890724 0.5 0 0.33836762456761282 0.47343897738958879 0 0.31736114239264052 0.5 0 0.31736114239264052 0.5 0 0.29345135449705412 0.47694543670536732 0 0.28978500839620852 0.5 0 0.31526706247219538 0.47185308880309412 0 0.31736114239264052 0.5 0 0.29345135449705412 0.47694543670536732 0 0.29345135449705412 0.47694543670536732 0 0.27510084469771912 0.47898352549656809 0 0.283693437542825 0.45783876934347728 0 0.29345135449705412 0.47694543670536732 0 0.28978500839620852 0.5 0 0.27510084469771912 0.47898352549656809 0 0.28978500839620852 0.5 0 0.27510084469771912 0.47898352549656809 0 0.26220887439977653 0.5 0 0.27510084469771912 0.47898352549656809 0 0.25188265884249778 0.47641603613978911 0 0.26962359662561391 0.46315503069427572 0 0.27510084469771912 0.47898352549656809 0 0.25188265884249778 0.47641603613978911 0 0.26220887439977653 0.5 0 0.2574224563510934 0.44408838631983127 0 0.25614129822204601 0.45794934120878678 0 0.26992748931122862 0.44987598510729632 0 0.24458969723878921 0.44935745629110391 0 0.2574224563510934 0.44408838631983127 0 0.25614129822204601 0.45794934120878678 0 0.25188265884249778 0.47641603613978911 0 0.25614129822204601 0.45794934120878678 0 0.26962359662561391 0.46315503069427572 0 0.25614129822204601 0.45794934120878678 0 0.26962359662561391 0.46315503069427572 0 0.26992748931122862 0.44987598510729632 0 0.27510084469771912 0.47898352549656809 0 0.26962359662561391 0.46315503069427572 0 0.283693437542825 0.45783876934347728 0 0.26962359662561391 0.46315503069427572 0 0.26992748931122862 0.44987598510729632 0 0.283693437542825 0.45783876934347728 0 0.26992748931122862 0.44987598510729632 0 0.28315432113935018 0.44264395593315919 0 0.283693437542825 0.45783876934347728 0 0.2574224563510934 0.44408838631983127 0 0.26992748931122862 0.44987598510729632 0 0.26971319072201932 0.43554880772301752 0 0.26992748931122862 0.44987598510729632 0 0.28315432113935018 0.44264395593315919 0 0.26971319072201932 0.43554880772301752 0 0.28315432113935018 0.44264395593315919 0 0.30241563052774117 0.45039956135922471 0 0.29216144437218361 0.43286913471290023 0 0.28315432113935018 0.44264395593315919 0 0.283693437542825 0.45783876934347728 0 0.30241563052774117 0.45039956135922471 0 0.29345135449705412 0.47694543670536732 0 0.283693437542825 0.45783876934347728 0 0.30241563052774117 0.45039956135922471 0 0.31526706247219538 0.47185308880309412 0 0.29345135449705412 0.47694543670536732 0 0.30241563052774117 0.45039956135922471 0 0.31994301121587793 0.44035076744256801 0 0.30241563052774117 0.45039956135922471 0 0.30776444085891208 0.42382042549937399 0 0.30241563052774117 0.45039956135922471 0 0.30776444085891208 0.42382042549937399 0 0.29216144437218361 0.43286913471290023 0 0.30776444085891208 0.42382042549937399 0 0.29543816685855723 0.40842312416925702 0 0.31827154941394542 0.4001379831891867 0 0.30776444085891208 0.42382042549937399 0 0.29543816685855723 0.40842312416925702 0 0.28954835400095158 0.42166438213460528 0 0.29543816685855723 0.40842312416925702 0 0.28954835400095158 0.42166438213460528 0 0.27260478430316892 0.41670826514932741 0 0.29543816685855723 0.40842312416925702 0 0.27260478430316892 0.41670826514932741 0 0.27669591934792409 0.40562190244101931 0 0.29543816685855723 0.40842312416925702 0 0.27260478430316892 0.41670826514932741 0 0.30776444085891208 0.42382042549937399 0 0.28954835400095158 0.42166438213460528 0 0.29216144437218361 0.43286913471290023 0 0.28954835400095158 0.42166438213460528 0 0.29216144437218361 0.43286913471290023 0 0.28101473436010388 0.42933147735303928 0 0.28315432113935018 0.44264395593315919 0 0.29216144437218361 0.43286913471290023 0 0.28101473436010388 0.42933147735303928 0 0.28315432113935018 0.44264395593315919 0 0.26971319072201932 0.43554880772301752 0 0.28101473436010388 0.42933147735303928 0 0.26971319072201932 0.43554880772301752 0 0.27260478430316892 0.41670826514932741 0 0.25931004884513809 0.43149462544815947 0 0.26971319072201932 0.43554880772301752 0 0.28101473436010388 0.42933147735303928 0 0.27260478430316892 0.41670826514932741 0 0.28954835400095158 0.42166438213460528 0 0.28101473436010388 0.42933147735303928 0 0.27260478430316892 0.41670826514932741 0 0.27260478430316892 0.41670826514932741 0 0.26239280609018889 0.41347367789767869 0 0.27669591934792409 0.40562190244101931 0 0.24977140174778059 0.42499340612939768 0 0.27260478430316892 0.41670826514932741 0 0.24977140174778059 0.42499340612939768 0 0.25049911896188198 0.40657113787097038 0 0.26239280609018889 0.41347367789767869 0 0.24977140174778059 0.42499340612939768 0 0.27260478430316892 0.41670826514932741 0 0.26239280609018889 0.41347367789767869 0 0.25049911896188198 0.40657113787097038 0 0.26239280609018889 0.41347367789767869 0 0.27669591934792409 0.40562190244101931 0 0.24977140174778059 0.42499340612939768 0 0.27260478430316892 0.41670826514932741 0 0.25931004884513809 0.43149462544815947 0 0.24703841110162819 0.43613426191922339 0 0.2574224563510934 0.44408838631983127 0 0.25931004884513809 0.43149462544815947 0 0.24703841110162819 0.43613426191922339 0 0.24977140174778059 0.42499340612939768 0 0.25931004884513809 0.43149462544815947 0 0.2574224563510934 0.44408838631983127 0 0.26971319072201932 0.43554880772301752 0 0.25931004884513809 0.43149462544815947 0 0.26459095578761332 0.37850626431392431 0 0.25299345481270241 0.38526325429526698 0 0.25548779066352317 0.36395537071956358 0 0.26459095578761332 0.37850626431392431 0 0.25299345481270241 0.38526325429526698 0 0.26595056748614548 0.39324027757425323 0 0.25049911896188198 0.40657113787097038 0 0.25299345481270241 0.38526325429526698 0 0.25049911896188198 0.40657113787097038 0 0.27669591934792409 0.40562190244101931 0 0.25049911896188198 0.40657113787097038 0 0.25299345481270241 0.38526325429526698 0 0.26595056748614548 0.39324027757425323 0 0.25049911896188198 0.40657113787097038 0 0.26595056748614548 0.39324027757425323 0 0.27669591934792409 0.40562190244101931 0 0.26595056748614548 0.39324027757425323 0 0.27669591934792409 0.40562190244101931 0 0.28079065191256752 0.39205403840979453 0 0.28079065191256752 0.39205403840979453 0 0.27219331634106281 0.38542284876725069 0 0.27832884403912411 0.37731467770205851 0 0.26595056748614548 0.39324027757425323 0 0.28079065191256752 0.39205403840979453 0 0.27219331634106281 0.38542284876725069 0 0.26459095578761332 0.37850626431392431 0 0.26595056748614548 0.39324027757425323 0 0.27219331634106281 0.38542284876725069 0 0.26459095578761332 0.37850626431392431 0 0.27219331634106281 0.38542284876725069 0 0.27832884403912411 0.37731467770205851 0 0.28079065191256752 0.39205403840979453 0 0.27832884403912411 0.37731467770205851 0 0.29265931324547578 0.37796853508972289 0 0.28079065191256752 0.39205403840979453 0 0.29265931324547578 0.37796853508972289 0 0.29965212442465 0.39119166895696239 0 0.29543816685855723 0.40842312416925702 0 0.28079065191256752 0.39205403840979453 0 0.29965212442465 0.39119166895696239 0 0.29543816685855723 0.40842312416925702 0 0.27669591934792409 0.40562190244101931 0 0.28079065191256752 0.39205403840979453 0 0.29543816685855723 0.40842312416925702 0 0.31827154941394542 0.4001379831891867 0 0.29543816685855723 0.40842312416925702 0 0.29965212442465 0.39119166895696239 0 0.31827154941394542 0.4001379831891867 0 0.29965212442465 0.39119166895696239 0 0.31110094069270439 0.37737466392685121 0 0.31827154941394542 0.4001379831891867 0 0.29265931324547578 0.37796853508972289 0 0.29965212442465 0.39119166895696239 0 0.31110094069270439 0.37737466392685121 0 0.31110094069270439 0.37737466392685121 0 0.32917956152606132 0.37856252095522608 0 0.31827154941394542 0.4001379831891867 0 0.32917956152606132 0.37856252095522608 0 0.34110493196933372 0.39185284220911631 0 0.34384859879851359 0.36838084895401352 0 0.32917956152606132 0.37856252095522608 0 0.34110493196933372 0.39185284220911631 0 0.31827154941394542 0.4001379831891867 0 0.34110493196933372 0.39185284220911631 0 0.31827154941394542 0.4001379831891867 0 0.34110493196933372 0.39185284220911631 0 0.31827154941394542 0.4001379831891867 0 0.33974780678612548 0.40877076594805462 0 0.30776444085891208 0.42382042549937399 0 0.31827154941394542 0.4001379831891867 0 0.32957929577189288 0.42333249826749247 0 0.31994301121587793 0.44035076744256801 0 0.30776444085891208 0.42382042549937399 0 0.32957929577189288 0.42333249826749247 0 0.34137671152026888 0.44446280267119309 0 0.31994301121587793 0.44035076744256801 0 0.32957929577189288 0.42333249826749247 0 0.34137671152026888 0.44446280267119309 0 0.32957929577189288 0.42333249826749247 0 0.34847055176180858 0.42261230871572902 0 0.32957929577189288 0.42333249826749247 0 0.33974780678612548 0.40877076594805462 0 0.34847055176180858 0.42261230871572902 0 0.31827154941394542 0.4001379831891867 0 0.32957929577189288 0.42333249826749247 0 0.33974780678612548 0.40877076594805462 0 0.33974780678612548 0.40877076594805462 0 0.34847055176180858 0.42261230871572902 0 0.35750929886480892 0.40623832508104818 0 0.34847055176180858 0.42261230871572902 0 0.36725657112224458 0.42555379464928023 0 0.35750929886480892 0.40623832508104818 0 0.35755202935170849 0.43752509956600361 0 0.34137671152026888 0.44446280267119309 0 0.34847055176180858 0.42261230871572902 0 0.35755202935170849 0.43752509956600361 0 0.34847055176180858 0.42261230871572902 0 0.36725657112224458 0.42555379464928023 0 0.37288563135531327 0.44378361071592748 0 0.35755202935170849 0.43752509956600361 0 0.36725657112224458 0.42555379464928023 0 0.36725657112224458 0.42555379464928023 0 0.35750929886480892 0.40623832508104818 0 0.37704240093825642 0.41032944556453849 0 0.36395209324018812 0.38734997565451762 0 0.3792969771823943 0.39517810647831442 0 0.37704240093825642 0.41032944556453849 0 0.36395209324018812 0.38734997565451762 0 0.35750929886480892 0.40623832508104818 0 0.37704240093825642 0.41032944556453849 0 0.36395209324018812 0.38734997565451762 0 0.37704240093825642 0.41032944556453849 0 0.36393831452472042 0.38356770122904132 0 0.36772638076209568 0.37167641941316942 0 0.38540191497717541 0.37577958857175092 0 0.36393831452472042 0.38356770122904132 0 0.3792969771823943 0.39517810647831442 0 0.36395209324018812 0.38734997565451762 0 0.36393831452472042 0.38356770122904132 0 0.3792969771823943 0.39517810647831442 0 0.36393831452472042 0.38356770122904132 0 0.38540191497717541 0.37577958857175092 0 0.36393831452472042 0.38356770122904132 0 0.34384859879851359 0.36838084895401352 0 0.34110493196933372 0.39185284220911631 0 0.36393831452472042 0.38356770122904132 0 0.34384859879851359 0.36838084895401352 0 0.34110493196933372 0.39185284220911631 0 0.36393831452472042 0.38356770122904132 0 0.34110493196933372 0.39185284220911631 0 0.36395209324018812 0.38734997565451762 0 0.36393831452472042 0.38356770122904132 0 0.34110493196933372 0.39185284220911631 0 0.36395209324018812 0.38734997565451762 0 0.35750929886480892 0.40623832508104818 0 0.34110493196933372 0.39185284220911631 0 0.33974780678612548 0.40877076594805462 0 0.35750929886480892 0.40623832508104818 0 0.34987788566541272 0.3497562454731773 0 0.34384859879851359 0.36838084895401352 0 0.35608846178720038 0.35946995799006182 0 0.34987788566541272 0.3497562454731773 0 0.36487591595878671 0.35403474841109522 0 0.34987788566541272 0.3497562454731773 0 0.35608846178720038 0.35946995799006182 0 0.36487591595878671 0.35403474841109522 0 0.34987788566541272 0.3497562454731773 0 0.36004923054921051 0.3460129734744668 0 0.35150808801235067 0.34113111086926301 0 0.34987788566541272 0.3497562454731773 0 0.36487591595878671 0.35403474841109522 0 0.36004923054921051 0.3460129734744668 0 0.34987788566541272 0.3497562454731773 0 0.35150808801235067 0.34113111086926301 0 0.33867086241765632 0.34040130645430727 0 0.36393831452472042 0.38356770122904132 0 0.34384859879851359 0.36838084895401352 0 0.35901961078927042 0.36803415870977008 0 0.34384859879851359 0.36838084895401352 0 0.35901961078927042 0.36803415870977008 0 0.35608846178720038 0.35946995799006182 0 0.35901961078927042 0.36803415870977008 0 0.35608846178720038 0.35946995799006182 0 0.36429349216857732 0.36352638439915852 0 0.36393831452472042 0.38356770122904132 0 0.35901961078927042 0.36803415870977008 0 0.36772638076209568 0.37167641941316942 0 0.35901961078927042 0.36803415870977008 0 0.36429349216857732 0.36352638439915852 0 0.36772638076209568 0.37167641941316942 0 0.36429349216857732 0.36352638439915852 0 0.36772638076209568 0.37167641941316942 0 0.37375709154553338 0.36441663747169639 0 0.36429349216857732 0.36352638439915852 0 0.37375709154553338 0.36441663747169639 0 0.36487591595878671 0.35403474841109522 0 0.37375709154553338 0.36441663747169639 0 0.36487591595878671 0.35403474841109522 0 0.37987394625216042 0.35831325134901421 0 0.36487591595878671 0.35403474841109522 0 0.37632644483499522 0.34718883729116617 0 0.37987394625216042 0.35831325134901421 0 0.36487591595878671 0.35403474841109522 0 0.37987394625216042 0.35831325134901421 0 0.36487591595878671 0.35403474841109522 0 0.36004923054921051 0.3460129734744668 0 0.37632644483499522 0.34718883729116617 0 0.35608846178720038 0.35946995799006182 0 0.36429349216857732 0.36352638439915852 0 0.36487591595878671 0.35403474841109522 0 0.36086961065215739 0.33403420307743548 0 0.36560583160821619 0.32501119334595041 0 0.38346080841866259 0.3327386168018337 0 0.36004923054921051 0.3460129734744668 0 0.38346080841866259 0.3327386168018337 0 0.37632644483499522 0.34718883729116617 0 0.36004923054921051 0.3460129734744668 0 0.38346080841866259 0.3327386168018337 0 0.36004923054921051 0.3460129734744668 0 0.36086961065215739 0.33403420307743548 0 0.38346080841866259 0.3327386168018337 0 0.36086961065215739 0.33403420307743548 0 0.36560583160821619 0.32501119334595041 0 0.3556838859205137 0.32563825151132703 0 0.37457942136784322 0.31709133299994607 0 0.36560583160821619 0.32501119334595041 0 0.38346080841866259 0.3327386168018337 0 0.37457942136784322 0.31709133299994607 0 0.36560583160821619 0.32501119334595041 0 0.35620673879379372 0.31402699033205428 0 0.35620673879379372 0.31402699033205428 0 0.34726039358059618 0.32226803335584758 0 0.33957096848936152 0.31218120618761158 0 0.35620673879379372 0.31402699033205428 0 0.3556838859205137 0.32563825151132703 0 0.34726039358059618 0.32226803335584758 0 0.36560583160821619 0.32501119334595041 0 0.35620673879379372 0.31402699033205428 0 0.3556838859205137 0.32563825151132703 0 0.3556838859205137 0.32563825151132703 0 0.34726039358059618 0.32226803335584758 0 0.34847685496780478 0.33285083744534738 0 0.34726039358059618 0.32226803335584758 0 0.34847685496780478 0.33285083744534738 0 0.33599499323131721 0.32813299976032761 0 0.36086961065215739 0.33403420307743548 0 0.34847685496780478 0.33285083744534738 0 0.35150808801235067 0.34113111086926301 0 0.36004923054921051 0.3460129734744668 0 0.36086961065215739 0.33403420307743548 0 0.35150808801235067 0.34113111086926301 0 0.36086961065215739 0.33403420307743548 0 0.3556838859205137 0.32563825151132703 0 0.34847685496780478 0.33285083744534738 0 0.34847685496780478 0.33285083744534738 0 0.35150808801235067 0.34113111086926301 0 0.33867086241765632 0.34040130645430727 0 0.33867086241765632 0.34040130645430727 0 0.32333572133047978 0.3336606133753367 0 0.32375888307230521 0.35319399667898799 0 0.34847685496780478 0.33285083744534738 0 0.33867086241765632 0.34040130645430727 0 0.33599499323131721 0.32813299976032761 0 0.33867086241765632 0.34040130645430727 0 0.33599499323131721 0.32813299976032761 0 0.32333572133047978 0.3336606133753367 0 0.33599499323131721 0.32813299976032761 0 0.32704631426555142 0.31950268778041119 0 0.33957096848936152 0.31218120618761158 0 0.34726039358059618 0.32226803335584758 0 0.33599499323131721 0.32813299976032761 0 0.33957096848936152 0.31218120618761158 0 0.33599499323131721 0.32813299976032761 0 0.32704631426555142 0.31950268778041119 0 0.32333572133047978 0.3336606133753367 0 0.32704631426555142 0.31950268778041119 0 0.32333572133047978 0.3336606133753367 0 0.31087410764995271 0.32272554517402391 0 0.32704631426555142 0.31950268778041119 0 0.31087410764995271 0.32272554517402391 0 0.32771165531365792 0.29810539701464711 0 0.32333572133047978 0.3336606133753367 0 0.30366916734609678 0.33800714440396251 0 0.31087410764995271 0.32272554517402391 0 0.32333572133047978 0.3336606133753367 0 0.32375888307230521 0.35319399667898799 0 0.30366916734609678 0.33800714440396251 0 0.32375888307230521 0.35319399667898799 0 0.30366916734609678 0.33800714440396251 0 0.34987788566541272 0.3497562454731773 0 0.33867086241765632 0.34040130645430727 0 0.32375888307230521 0.35319399667898799 0 0.34987788566541272 0.3497562454731773 0 0.34384859879851359 0.36838084895401352 0 0.32375888307230521 0.35319399667898799 0 0.34384859879851359 0.36838084895401352 0 0.32375888307230521 0.35319399667898799 0 0.32917956152606132 0.37856252095522608 0 0.34384859879851359 0.36838084895401352 0 0.32375888307230521 0.35319399667898799 0 0.31110094069270439 0.37737466392685121 0 0.32917956152606132 0.37856252095522608 0 0.32375888307230521 0.35319399667898799 0 0.31110094069270439 0.37737466392685121 0 0.32375888307230521 0.35319399667898799 0 0.29977717643570079 0.3608407176491224 0 0.29265931324547578 0.37796853508972289 0 0.31110094069270439 0.37737466392685121 0 0.29977717643570079 0.3608407176491224 0 0.32375888307230521 0.35319399667898799 0 0.29977717643570079 0.3608407176491224 0 0.30366916734609678 0.33800714440396251 0 0.29977717643570079 0.3608407176491224 0 0.28540402627182088 0.3500017177851365 0 0.28622336555042799 0.36594937186087961 0 0.29977717643570079 0.3608407176491224 0 0.28540402627182088 0.3500017177851365 0 0.30366916734609678 0.33800714440396251 0 0.28540402627182088 0.3500017177851365 0 0.28622336555042799 0.36594937186087961 0 0.27407030756084672 0.36362692210267161 0 0.29265931324547578 0.37796853508972289 0 0.29977717643570079 0.3608407176491224 0 0.28622336555042799 0.36594937186087961 0 0.27832884403912411 0.37731467770205851 0 0.29265931324547578 0.37796853508972289 0 0.28622336555042799 0.36594937186087961 0 0.27832884403912411 0.37731467770205851 0 0.28622336555042799 0.36594937186087961 0 0.27407030756084672 0.36362692210267161 0 0.26459095578761332 0.37850626431392431 0 0.27407030756084672 0.36362692210267161 0 0.26462977074038152 0.36134635491871958 0 0.26459095578761332 0.37850626431392431 0 0.27832884403912411 0.37731467770205851 0 0.27407030756084672 0.36362692210267161 0 0.28540402627182088 0.3500017177851365 0 0.26792142715046469 0.35199429809804972 0 0.27034958451059549 0.3381985939264201 0 0.28540402627182088 0.3500017177851365 0 0.27407030756084672 0.36362692210267161 0 0.26792142715046469 0.35199429809804972 0 0.27407030756084672 0.36362692210267161 0 0.26792142715046469 0.35199429809804972 0 0.26462977074038152 0.36134635491871958 0 0.26792142715046469 0.35199429809804972 0 0.25633753059801367 0.35669646066228128 0 0.26462977074038152 0.36134635491871958 0 0.24214058251549189 0.34262061485208378 0 0.25633753059801367 0.35669646066228128 0 0.25548779066352317 0.36395537071956358 0 0.26792142715046469 0.35199429809804972 0 0.25633753059801367 0.35669646066228128 0 0.2567373432211304 0.34209573919306951 0 0.26792142715046469 0.35199429809804972 0 0.2567373432211304 0.34209573919306951 0 0.27034958451059549 0.3381985939264201 0 0.24214058251549189 0.34262061485208378 0 0.25633753059801367 0.35669646066228128 0 0.2567373432211304 0.34209573919306951 0 0.24645995420460509 0.37498275800661462 0 0.25299345481270241 0.38526325429526698 0 0.25548779066352317 0.36395537071956358 0 0.25299345481270241 0.38526325429526698 0 0.25548779066352317 0.36395537071956358 0 0.26459095578761332 0.37850626431392431 0 0.25548779066352317 0.36395537071956358 0 0.26462977074038152 0.36134635491871958 0 0.25633753059801367 0.35669646066228128 0 0.25548779066352317 0.36395537071956358 0 0.26459095578761332 0.37850626431392431 0 0.25548779066352317 0.36395537071956358 0 0.25633753059801367 0.35669646066228128 0 0.25548779066352317 0.36395537071956358 0 0.26462977074038152 0.36134635491871958 0 0.24614155513057029 0.31445964941925542 0 0.26113818462947291 0.32568124309431962 0 0.26348973589368141 0.30763343985390962 0 0.246531437400972 0.32887974404432718 0 0.24614155513057029 0.31445964941925542 0 0.26113818462947291 0.32568124309431962 0 0.246531437400972 0.32887974404432718 0 0.26113818462947291 0.32568124309431962 0 0.2567373432211304 0.34209573919306951 0 0.26113818462947291 0.32568124309431962 0 0.2567373432211304 0.34209573919306951 0 0.27034958451059549 0.3381985939264201 0 0.28540402627182088 0.3500017177851365 0 0.27034958451059549 0.3381985939264201 0 0.2835794516198884 0.32282029212893693 0 0.26113818462947291 0.32568124309431962 0 0.27034958451059549 0.3381985939264201 0 0.2835794516198884 0.32282029212893693 0 0.26113818462947291 0.32568124309431962 0 0.2835794516198884 0.32282029212893693 0 0.26348973589368141 0.30763343985390962 0 0.2835794516198884 0.32282029212893693 0 0.26348973589368141 0.30763343985390962 0 0.2835794516198884 0.32282029212893693 0 0.30366916734609678 0.33800714440396251 0 0.29719119159589058 0.31252073392435042 0 0.2835794516198884 0.32282029212893693 0 0.30366916734609678 0.33800714440396251 0 0.28540402627182088 0.3500017177851365 0 0.2835794516198884 0.32282029212893693 0 0.30366916734609678 0.33800714440396251 0 0.29719119159589058 0.31252073392435042 0 0.31087410764995271 0.32272554517402391 0 0.31052154660535919 0.30603409592549169 0 0.30366916734609678 0.33800714440396251 0 0.29719119159589058 0.31252073392435042 0 0.31087410764995271 0.32272554517402391 0 0.29719119159589058 0.31252073392435042 0 0.31052154660535919 0.30603409592549169 0 0.30630923186193559 0.29078470758894542 0 0.30630923186193559 0.29078470758894542 0 0.28789484859892378 0.28031410957179592 0 0.30192681414922129 0.27453899307834151 0 0.30630923186193559 0.29078470758894542 0 0.28489948387780839 0.29920907372142691 0 0.28789484859892378 0.28031410957179592 0 0.30630923186193559 0.29078470758894542 0 0.28489948387780839 0.29920907372142691 0 0.2835794516198884 0.32282029212893693 0 0.29719119159589058 0.31252073392435042 0 0.28489948387780839 0.29920907372142691 0 0.29719119159589058 0.31252073392435042 0 0.30630923186193559 0.29078470758894542 0 0.28489948387780839 0.29920907372142691 0 0.2835794516198884 0.32282029212893693 0 0.28489948387780839 0.29920907372142691 0 0.26348973589368141 0.30763343985390962 0 0.28489948387780839 0.29920907372142691 0 0.26348973589368141 0.30763343985390962 0 0.28489948387780839 0.29920907372142691 0 0.26623206212990502 0.27929056966389088 0 0.28789484859892378 0.28031410957179592 0 0.28489948387780839 0.29920907372142691 0 0.26348973589368141 0.30763343985390962 0 0.26623206212990502 0.27929056966389088 0 0.24417002065964971 0.2930286706648676 0 0.26348973589368141 0.30763343985390962 0 0.26623206212990502 0.27929056966389088 0 0.24417002065964971 0.2930286706648676 0 0.24614155513057029 0.31445964941925542 0 0.26348973589368141 0.30763343985390962 0 0.24417002065964971 0.2930286706648676 0 0.26348973589368141 0.30763343985390962 0 0.24614155513057029 0.31445964941925542 0 0.26348973589368141 0.30763343985390962 0 0.2442711053158253 0.27071593300353508 0 0.2630771961758292 0.25483384150313898 0 0.26623206212990502 0.27929056966389088 0 0.2442711053158253 0.27071593300353508 0 0.24417002065964971 0.2930286706648676 0 0.26623206212990502 0.27929056966389088 0 0.26623206212990502 0.27929056966389088 0 0.27674113366463071 0.26523451207930021 0 0.28789484859892378 0.28031410957179592 0 0.2630771961758292 0.25483384150313898 0 0.26623206212990502 0.27929056966389088 0 0.27674113366463071 0.26523451207930021 0 0.2630771961758292 0.25483384150313898 0 0.27674113366463071 0.26523451207930021 0 0.28445948182574871 0.2487690486917552 0 0.2909169145616794 0.26661947130739783 0 0.30135459129844822 0.25763952472011981 0 0.28445948182574871 0.2487690486917552 0 0.27674113366463071 0.26523451207930021 0 0.2909169145616794 0.26661947130739783 0 0.28445948182574871 0.2487690486917552 0 0.27674113366463071 0.26523451207930021 0 0.28789484859892378 0.28031410957179592 0 0.2909169145616794 0.26661947130739783 0 0.28789484859892378 0.28031410957179592 0 0.2909169145616794 0.26661947130739783 0 0.30192681414922129 0.27453899307834151 0 0.2909169145616794 0.26661947130739783 0 0.30192681414922129 0.27453899307834151 0 0.30135459129844822 0.25763952472011981 0 0.30192681414922129 0.27453899307834151 0 0.30135459129844822 0.25763952472011981 0 0.31861315377206512 0.27267167297839701 0 0.30630923186193559 0.29078470758894542 0 0.30192681414922129 0.27453899307834151 0 0.31861315377206512 0.27267167297839701 0 0.30135459129844822 0.25763952472011981 0 0.31861315377206512 0.27267167297839701 0 0.31437302155916219 0.24615086979874731 0 0.31861315377206512 0.27267167297839701 0 0.31437302155916219 0.24615086979874731 0 0.33208811001678562 0.25691794732956041 0 0.31861315377206512 0.27267167297839701 0 0.31437302155916219 0.24615086979874731 0 0.33129319472773539 0.26987778391811018 0 0.32771897984606291 0.28236034145646388 0 0.34454920297736308 0.27348524885527031 0 0.33208811001678562 0.25691794732956041 0 0.33129319472773539 0.26987778391811018 0 0.34454920297736308 0.27348524885527031 0 0.33129319472773539 0.26987778391811018 0 0.31861315377206512 0.27267167297839701 0 0.32771897984606291 0.28236034145646388 0 0.33208811001678562 0.25691794732956041 0 0.33129319472773539 0.26987778391811018 0 0.31861315377206512 0.27267167297839701 0 0.30630923186193559 0.29078470758894542 0 0.32771897984606291 0.28236034145646388 0 0.30630923186193559 0.29078470758894542 0 0.32771897984606291 0.28236034145646388 0 0.32771165531365792 0.29810539701464711 0 0.30630923186193559 0.29078470758894542 0 0.31861315377206512 0.27267167297839701 0 0.32771897984606291 0.28236034145646388 0 0.31087410764995271 0.32272554517402391 0 0.32771165531365792 0.29810539701464711 0 0.31052154660535919 0.30603409592549169 0 0.30630923186193559 0.29078470758894542 0 0.32771165531365792 0.29810539701464711 0 0.31087410764995271 0.32272554517402391 0 0.31052154660535919 0.30603409592549169 0 0.32771165531365792 0.29810539701464711 0 0.32771165531365792 0.29810539701464711 0 0.33957096848936152 0.31218120618761158 0 0.34723751741214431 0.29621186484151729 0 0.32704631426555142 0.31950268778041119 0 0.32771165531365792 0.29810539701464711 0 0.33957096848936152 0.31218120618761158 0 0.32771165531365792 0.29810539701464711 0 0.34723751741214431 0.29621186484151729 0 0.34454920297736308 0.27348524885527031 0 0.32771897984606291 0.28236034145646388 0 0.32771165531365792 0.29810539701464711 0 0.34454920297736308 0.27348524885527031 0 0.32771165531365792 0.29810539701464711 0 0.34454920297736308 0.27348524885527031 0 0.34723751741214431 0.29621186484151729 0 0.36240062794362199 0.2887825139727857 0 0.34454920297736308 0.27348524885527031 0 0.34723751741214431 0.29621186484151729 0 0.36703247047710569 0.30295364588881601 0 0.36240062794362199 0.2887825139727857 0 0.35620673879379372 0.31402699033205428 0 0.34723751741214431 0.29621186484151729 0 0.36703247047710569 0.30295364588881601 0 0.35620673879379372 0.31402699033205428 0 0.33957096848936152 0.31218120618761158 0 0.34723751741214431 0.29621186484151729 0 0.37457942136784322 0.31709133299994607 0 0.35620673879379372 0.31402699033205428 0 0.36703247047710569 0.30295364588881601 0 0.36240062794362199 0.2887825139727857 0 0.38333854324872829 0.27826227255104541 0 0.37752682944964278 0.29448616838113828 0 0.36703247047710569 0.30295364588881601 0 0.36240062794362199 0.2887825139727857 0 0.37752682944964278 0.29448616838113828 0 0.36410905782432612 0.27121392887136392 0 0.37554482271017747 0.26184587428777711 0 0.38333854324872829 0.27826227255104541 0 0.36240062794362199 0.2887825139727857 0 0.36410905782432612 0.27121392887136392 0 0.38333854324872829 0.27826227255104541 0 0.38478262156910109 0.2516570865505221 0 0.37554482271017747 0.26184587428777711 0 0.36138675064106829 0.2488651006958936 0 0.36410905782432612 0.27121392887136392 0 0.37554482271017747 0.26184587428777711 0 0.36138675064106829 0.2488651006958936 0 0.33208811001678562 0.25691794732956041 0 0.34454920297736308 0.27348524885527031 0 0.36138675064106829 0.2488651006958936 0 0.34454920297736308 0.27348524885527031 0 0.36138675064106829 0.2488651006958936 0 0.36410905782432612 0.27121392887136392 0 0.34454920297736308 0.27348524885527031 0 0.36138675064106829 0.2488651006958936 0 0.36240062794362199 0.2887825139727857 0 0.36410905782432612 0.27121392887136392 0 0.34454920297736308 0.27348524885527031 0 0.38744446946732852 0.25681666577303658 0 0.38333854324872829 0.27826227255104541 0 0.40687911569572582 0.2719360777224516 0 0.38333854324872829 0.27826227255104541 0 0.39254117278905309 0.29252943183919861 0 0.40687911569572582 0.2719360777224516 0 0.38744446946732852 0.25681666577303658 0 0.40687911569572582 0.2719360777224516 0 0.40688248039953212 0.24817198651907729 0 0.38744446946732852 0.25681666577303658 0 0.38478262156910109 0.2516570865505221 0 0.37554482271017747 0.26184587428777711 0 0.38744446946732852 0.25681666577303658 0 0.37554482271017747 0.26184587428777711 0 0.38333854324872829 0.27826227255104541 0 0.38744446946732852 0.25681666577303658 0 0.38333854324872829 0.27826227255104541 0 0.38333854324872829 0.27826227255104541 0 0.37752682944964278 0.29448616838113828 0 0.39254117278905309 0.29252943183919861 0 0.37457942136784322 0.31709133299994607 0 0.36703247047710569 0.30295364588881601 0 0.38424368789558871 0.30712300480545413 0 0.36703247047710569 0.30295364588881601 0 0.37752682944964278 0.29448616838113828 0 0.38424368789558871 0.30712300480545413 0 0.37752682944964278 0.29448616838113828 0 0.38424368789558871 0.30712300480545413 0 0.39254117278905309 0.29252943183919861 0 0.38424368789558871 0.30712300480545413 0 0.39638310945271388 0.30766889864927649 0 0.38910788268458429 0.31681722267714207 0 0.39638310945271388 0.30766889864927649 0 0.40687575099191953 0.29570016892582568 0 0.40687238628811462 0.31946426012919987 0 0.38424368789558871 0.30712300480545413 0 0.39638310945271388 0.30766889864927649 0 0.39254117278905309 0.29252943183919861 0 0.39638310945271388 0.30766889864927649 0 0.39254117278905309 0.29252943183919861 0 0.40687575099191953 0.29570016892582568 0 0.39254117278905309 0.29252943183919861 0 0.40687575099191953 0.29570016892582568 0 0.40687911569572582 0.2719360777224516 0 0.40687575099191953 0.29570016892582568 0 0.4290981504955641 0.28879696678697042 0 0.40687911569572582 0.2719360777224516 0 0.40687575099191953 0.29570016892582568 0 0.40687911569572582 0.2719360777224516 0 0.40687575099191953 0.29570016892582568 0 0.42685697471639789 0.30813300530169258 0 0.40687238628811462 0.31946426012919987 0 0.40687575099191953 0.29570016892582568 0 0.40687238628811462 0.31946426012919987 0 0.40687575099191953 0.29570016892582568 0 0.42685697471639789 0.30813300530169258 0 0.4290981504955641 0.28879696678697042 0 0.42685697471639789 0.30813300530169258 0 0.43350023875984889 0.30436627685327339 0 0.4290981504955641 0.28879696678697042 0 0.42685697471639789 0.30813300530169258 0 0.43350023875984889 0.30436627685327339 0 0.42026491263757759 0.31801122105044211 0 0.43350023875984889 0.30436627685327339 0 0.42026491263757759 0.31801122105044211 0 0.42685697471639789 0.30813300530169258 0 0.43350023875984889 0.30436627685327339 0 0.43350023875984889 0.30436627685327339 0 0.4290981504955641 0.28879696678697042 0 0.44684156314468099 0.29680175047418489 0 0.4290981504955641 0.28879696678697042 0 0.42709654002746389 0.26504892902868171 0 0.4473105996553956 0.28192587153828641 0 0.42709654002746389 0.26504892902868171 0 0.4473105996553956 0.28192587153828641 0 0.4290981504955641 0.28879696678697042 0 0.40687911569572582 0.2719360777224516 0 0.42709654002746389 0.26504892902868171 0 0.40687911569572582 0.2719360777224516 0 0.40688248039953212 0.24817198651907729 0 0.42709654002746389 0.26504892902868171 0 0.40688248039953212 0.24817198651907729 0 0.40687911569572582 0.2719360777224516 0 0.42709654002746389 0.26504892902868171 0 0.40688248039953212 0.24817198651907729 0 0.42709654002746389 0.26504892902868171 0 0.43177874053093152 0.248062112012498 0 0.40688248039953212 0.24817198651907729 0 0.42709654002746389 0.26504892902868171 0 0.4478275402056564 0.26553067656501872 0 0.43177874053093152 0.248062112012498 0 0.4478275402056564 0.26553067656501872 0 0.45962883625395112 0.25782747246785809 0 0.44834448075591737 0.249135481591751 0 0.4478275402056564 0.26553067656501872 0 0.43177874053093152 0.248062112012498 0 0.44834448075591737 0.249135481591751 0 0.4478275402056564 0.26553067656501872 0 0.44834448075591737 0.249135481591751 0 0.42709654002746389 0.26504892902868171 0 0.4478275402056564 0.26553067656501872 0 0.4473105996553956 0.28192587153828641 0 0.4478275402056564 0.26553067656501872 0 0.4473105996553956 0.28192587153828641 0 0.4478275402056564 0.26553067656501872 0 0.46437529864175109 0.27425817449699308 0 0.45962883625395112 0.25782747246785809 0 0.4478275402056564 0.26553067656501872 0 0.46437529864175109 0.27425817449699308 0 0.4473105996553956 0.28192587153828641 0 0.45962883625395112 0.25782747246785809 0 0.46427494519719698 0.244682470428701 0 0.44834448075591737 0.249135481591751 0 0.46437529864175109 0.27425817449699308 0 0.45962883625395112 0.25782747246785809 0 0.47479196790678913 0.2562030606507627 0 0.45962883625395112 0.25782747246785809 0 0.47479196790678913 0.2562030606507627 0 0.46427494519719698 0.244682470428701 0 0.46437529864175109 0.27425817449699308 0 0.47479196790678913 0.2562030606507627 0 0.48423353321256002 0.26920583227359168 0 0.46437529864175109 0.27425817449699308 0 0.48423353321256002 0.26920583227359168 0 0.48200039951425988 0.28863326183228821 0 0.48423353321256002 0.26920583227359168 0 0.5 0.27595723297260089 0 0.48200039951425988 0.28863326183228821 0 0.47479196790678913 0.2562030606507627 0 0.48423353321256002 0.26920583227359168 0 0.5 0.25097743141531381 0 0.48423353321256002 0.26920583227359168 0 0.5 0.27595723297260089 0 0.5 0.25097743141531381 0 0.5 0.30093703452988801 0 0.48200039951425988 0.28863326183228821 0 0.48243686655180013 0.31125318123754492 0 0.5 0.27595723297260089 0 0.5 0.30093703452988801 0 0.48200039951425988 0.28863326183228821 0 0.46437529864175109 0.27425817449699308 0 0.48200039951425988 0.28863326183228821 0 0.46487373310359792 0.29658952638791558 0 0.48243686655180013 0.31125318123754492 0 0.46487373310359792 0.29658952638791558 0 0.46760426052891207 0.31861154180170059 0 0.48200039951425988 0.28863326183228821 0 0.48243686655180013 0.31125318123754492 0 0.46487373310359792 0.29658952638791558 0 0.48243686655180013 0.31125318123754492 0 0.46487373310359792 0.29658952638791558 0 0.45530678295152471 0.30686568561377192 0 0.46487373310359792 0.29658952638791558 0 0.46760426052891207 0.31861154180170059 0 0.45530678295152471 0.30686568561377192 0 0.46487373310359792 0.29658952638791558 0 0.45106581751846653 0.29440659968399707 0 0.46487373310359792 0.29658952638791558 0 0.4473105996553956 0.28192587153828641 0 0.45106581751846653 0.29440659968399707 0 0.46487373310359792 0.29658952638791558 0 0.4473105996553956 0.28192587153828641 0 0.46437529864175109 0.27425817449699308 0 0.46487373310359792 0.29658952638791558 0 0.4473105996553956 0.28192587153828641 0 0.4290981504955641 0.28879696678697042 0 0.4473105996553956 0.28192587153828641 0 0.44684156314468099 0.29680175047418489 0 0.4473105996553956 0.28192587153828641 0 0.44684156314468099 0.29680175047418489 0 0.4473105996553956 0.28192587153828641 0 0.45106581751846653 0.29440659968399707 0 0.44684156314468099 0.29680175047418489 0 0.45106581751846653 0.29440659968399707 0 0.44684156314468099 0.29680175047418489 0 0.45530678295152471 0.30686568561377192 0 0.44684156314468099 0.29680175047418489 0 0.44593759247240722 0.32547192427767041 0 0.44684156314468099 0.29680175047418489 0 0.44593759247240722 0.32547192427767041 0 0.43350023875984889 0.30436627685327339 0 0.44684156314468099 0.29680175047418489 0 0.44593759247240722 0.32547192427767041 0 0.45530678295152471 0.30686568561377192 0 0.45106581751846653 0.29440659968399707 0 0.44684156314468099 0.29680175047418489 0 0.43350023875984889 0.30436627685327339 0 0.44684156314468099 0.29680175047418489 0 0.44593759247240722 0.32547192427767041 0 0.44503362180013178 0.35414209808115571 0 0.44593759247240722 0.32547192427767041 0 0.44503362180013178 0.35414209808115571 0 0.42877574669215529 0.34073843584652619 0 0.44593759247240722 0.32547192427767041 0 0.46760426052891207 0.31861154180170059 0 0.47251681090007153 0.34416976499723068 0 0.44593759247240722 0.32547192427767041 0 0.47251681090007153 0.34416976499723068 0 0.44503362180013178 0.35414209808115571 0 0.45530678295152471 0.30686568561377192 0 0.44593759247240722 0.32547192427767041 0 0.46760426052891207 0.31861154180170059 0 0.48243686655180013 0.31125318123754492 0 0.46760426052891207 0.31861154180170059 0 0.48455377719407128 0.32731916829607011 0 0.46760426052891207 0.31861154180170059 0 0.48455377719407128 0.32731916829607011 0 0.47251681090007153 0.34416976499723068 0 0.5000000000000111 0.3341974319133052 0 0.47251681090007153 0.34416976499723068 0 0.5000000000000111 0.3341974319133052 0 0.48455377719407128 0.32731916829607011 0 0.47251681090007153 0.34416976499723068 0 0.5000000000000111 0.3341974319133052 0 0.50000000000000167 0.32591683608717498 0 0.48455377719407128 0.32731916829607011 0 0.48243686655180013 0.31125318123754492 0 0.50000000000000167 0.32591683608717498 0 0.5 0.30093703452988801 0 0.48243686655180013 0.31125318123754492 0 0.50000000000000167 0.32591683608717498 0 0.48243686655180013 0.31125318123754492 0 0.50000000000000167 0.32591683608717498 0 0.48455377719407128 0.32731916829607011 0 0.5 0.36338958072213012 0 0.47251681090007153 0.34416976499723068 0 0.46680681176433858 0.36460802085425781 0 0.5 0.36338958072213012 0 0.46680681176433858 0.36460802085425781 0 0.47216120870716211 0.38464013000057601 0 0.5000000000000111 0.3341974319133052 0 0.5 0.36338958072213012 0 0.47251681090007153 0.34416976499723068 0 0.47251681090007153 0.34416976499723068 0 0.44503362180013178 0.35414209808115571 0 0.47251681090007153 0.34416976499723068 0 0.46680681176433858 0.36460802085425781 0 0.44503362180013178 0.35414209808115571 0 0.44503362180013178 0.35414209808115571 0 0.42747575471768379 0.3605130071540652 0 0.44432241741432671 0.37669853047019591 0 0.44503362180013178 0.35414209808115571 0 0.44432241741432671 0.37669853047019591 0 0.46680681176433858 0.36460802085425781 0 0.44503362180013178 0.35414209808115571 0 0.44432241741432671 0.37669853047019591 0 0.42712015252478192 0.37179122334858877 0 0.44432241741432671 0.37669853047019591 0 0.42712015252478192 0.37179122334858877 0 0.42747575471768379 0.3605130071540652 0 0.44432241741432671 0.37669853047019591 0 0.42747575471768379 0.3605130071540652 0 0.40991788763523768 0.3668839162269798 0 0.42712015252478192 0.37179122334858877 0 0.42747575471768379 0.3605130071540652 0 0.40991788763523768 0.3668839162269798 0 0.42747575471768379 0.3605130071540652 0 0.40991788763523768 0.3668839162269798 0 0.41608472219815379 0.3564996638200153 0 0.42712015252478192 0.37179122334858877 0 0.40991788763523768 0.3668839162269798 0 0.41395334180241761 0.3768082936852124 0 0.42712015252478192 0.37179122334858877 0 0.40991788763523768 0.3668839162269798 0 0.40991788763523768 0.3668839162269798 0 0.40686579552315982 0.36601324289102438 0 0.41608472219815379 0.3564996638200153 0 0.40991788763523768 0.3668839162269798 0 0.40686579552315982 0.36601324289102438 0 0.40686579552315982 0.36601324289102438 0 0.4068655154296289 0.36799147591445669 0 0.40991788763523768 0.3668839162269798 0 0.40686579552315982 0.36601324289102438 0 0.4068655154296289 0.36799147591445669 0 0.40991788763523768 0.3668839162269798 0 0.4068655154296289 0.36799147591445669 0 0.41395334180241761 0.3768082936852124 0 0.40991788763523768 0.3668839162269798 0 0.4068655154296289 0.36799147591445669 0 0.41608472219815379 0.3564996638200153 0 0.42877574669215529 0.34073843584652619 0 0.41524818239343958 0.34109247471991722 0 0.40686579552315982 0.36601324289102438 0 0.40686824763165452 0.34869459219042498 0 0.41608472219815379 0.3564996638200153 0 0.40686579552315982 0.36601324289102438 0 0.40686824763165452 0.34869459219042498 0 0.40686824763165452 0.34869459219042498 0 0.41608472219815379 0.3564996638200153 0 0.41524818239343958 0.34109247471991722 0 0.44503362180013178 0.35414209808115571 0 0.42747575471768379 0.3605130071540652 0 0.42877574669215529 0.34073843584652619 0 0.42747575471768379 0.3605130071540652 0 0.41608472219815379 0.3564996638200153 0 0.42877574669215529 0.34073843584652619 0 0.44503362180013178 0.35414209808115571 0 0.42747575471768379 0.3605130071540652 0 0.42877574669215529 0.34073843584652619 0 0.43173993240810571 0.32116894549517849 0 0.42031276758617647 0.33026616158696109 0 0.44593759247240722 0.32547192427767041 0 0.42877574669215529 0.34073843584652619 0 0.43173993240810571 0.32116894549517849 0 0.43350023875984889 0.30436627685327339 0 0.43173993240810571 0.32116894549517849 0 0.42026491263757759 0.31801122105044211 0 0.43350023875984889 0.30436627685327339 0 0.44593759247240722 0.32547192427767041 0 0.43173993240810571 0.32116894549517849 0 0.43173993240810571 0.32116894549517849 0 0.42026491263757759 0.31801122105044211 0 0.42031276758617647 0.33026616158696109 0 0.42685697471639789 0.30813300530169258 0 0.42026491263757759 0.31801122105044211 0 0.40687238628811462 0.31946426012919987 0 0.42685697471639789 0.30813300530169258 0 0.40687238628811462 0.31946426012919987 0 0.42026491263757759 0.31801122105044211 0 0.42031276758617647 0.33026616158696109 0 0.40687069974015039 0.33137594148982552 0 0.42026491263757759 0.31801122105044211 0 0.40687238628811462 0.31946426012919987 0 0.40687069974015039 0.33137594148982552 0 0.40687238628811462 0.31946426012919987 0 0.40687069974015039 0.33137594148982552 0 0.42026491263757759 0.31801122105044211 0 0.40687069974015039 0.33137594148982552 0 0.40686824763165452 0.34869459219042498 0 0.41524818239343958 0.34109247471991722 0 0.40687069974015039 0.33137594148982552 0 0.40686824763165452 0.34869459219042498 0 0.40687069974015039 0.33137594148982552 0 0.42877574669215529 0.34073843584652619 0 0.41524818239343958 0.34109247471991722 0 0.42031276758617647 0.33026616158696109 0 0.41524818239343958 0.34109247471991722 0 0.42031276758617647 0.33026616158696109 0 0.40687069974015039 0.33137594148982552 0 0.40687069974015039 0.33137594148982552 0 0.39337232299615571 0.34484459641942011 0 0.40686824763165452 0.34869459219042498 0 0.40687069974015039 0.33137594148982552 0 0.39337232299615571 0.34484459641942011 0 0.40687069974015039 0.33137594148982552 0 0.39764405436077049 0.33210585371006979 0 0.39337232299615571 0.34484459641942011 0 0.39764405436077049 0.33210585371006979 0 0.38346080841866259 0.3327386168018337 0 0.39337232299615571 0.34484459641942011 0 0.40687238628811462 0.31946426012919987 0 0.39764405436077049 0.33210585371006979 0 0.38346080841866259 0.3327386168018337 0 0.40687238628811462 0.31946426012919987 0 0.38910788268458429 0.31681722267714207 0 0.38346080841866259 0.3327386168018337 0 0.40687238628811462 0.31946426012919987 0 0.38346080841866259 0.3327386168018337 0 0.39638310945271388 0.30766889864927649 0 0.40687238628811462 0.31946426012919987 0 0.38910788268458429 0.31681722267714207 0 0.40687238628811462 0.31946426012919987 0 0.40687069974015039 0.33137594148982552 0 0.39764405436077049 0.33210585371006979 0 0.37457942136784322 0.31709133299994607 0 0.38910788268458429 0.31681722267714207 0 0.38346080841866259 0.3327386168018337 0 0.37457942136784322 0.31709133299994607 0 0.38424368789558871 0.30712300480545413 0 0.38910788268458429 0.31681722267714207 0 0.38346080841866259 0.3327386168018337 0 0.37632644483499522 0.34718883729116617 0 0.39337232299615571 0.34484459641942011 0 0.37632644483499522 0.34718883729116617 0 0.37987394625216042 0.35831325134901421 0 0.39337232299615571 0.34484459641942011 0 0.37987394625216042 0.35831325134901421 0 0.39337232299615571 0.34484459641942011 0 0.37375709154553338 0.36441663747169639 0 0.37987394625216042 0.35831325134901421 0 0.38540191497717541 0.37577958857175092 0 0.36772638076209568 0.37167641941316942 0 0.37375709154553338 0.36441663747169639 0 0.38540191497717541 0.37577958857175092 0 0.37375709154553338 0.36441663747169639 0 0.37987394625216042 0.35831325134901421 0 0.40686579552315982 0.36601324289102438 0 0.37987394625216042 0.35831325134901421 0 0.38540191497717541 0.37577958857175092 0 0.4068655154296289 0.36799147591445669 0 0.38540191497717541 0.37577958857175092 0 0.40686579552315982 0.36601324289102438 0 0.37987394625216042 0.35831325134901421 0 0.40686579552315982 0.36601324289102438 0 0.4068655154296289 0.36799147591445669 0 0.38540191497717541 0.37577958857175092 0 0.4068655154296289 0.36799147591445669 0 0.39912311769864522 0.38059326108080599 0 0.38540191497717541 0.37577958857175092 0 0.40686579552315982 0.36601324289102438 0 0.40686824763165452 0.34869459219042498 0 0.39337232299615571 0.34484459641942011 0 0.40686579552315982 0.36601324289102438 0 0.37987394625216042 0.35831325134901421 0 0.39337232299615571 0.34484459641942011 0 0.39912311769864522 0.38059326108080599 0 0.39465563984006619 0.40678851172759001 0 0.40686256833714679 0.38880607909128317 0 0.39912311769864522 0.38059326108080599 0 0.39465563984006619 0.40678851172759001 0 0.39912311769864522 0.38059326108080599 0 0.38897291089034108 0.38756332845543778 0 0.39465563984006619 0.40678851172759001 0 0.39465563984006619 0.40678851172759001 0 0.40685962124466452 0.40962068226810971 0 0.40686256833714679 0.38880607909128317 0 0.4068655154296289 0.36799147591445669 0 0.39912311769864522 0.38059326108080599 0 0.40686256833714679 0.38880607909128317 0 0.39912311769864522 0.38059326108080599 0 0.38897291089034108 0.38756332845543778 0 0.38540191497717541 0.37577958857175092 0 0.36393831452472042 0.38356770122904132 0 0.38540191497717541 0.37577958857175092 0 0.3792969771823943 0.39517810647831442 0 0.38897291089034108 0.38756332845543778 0 0.38540191497717541 0.37577958857175092 0 0.3792969771823943 0.39517810647831442 0 0.38897291089034108 0.38756332845543778 0 0.3792969771823943 0.39517810647831442 0 0.39465563984006619 0.40678851172759001 0 0.3792969771823943 0.39517810647831442 0 0.37704240093825642 0.41032944556453849 0 0.39465563984006619 0.40678851172759001 0 0.3792969771823943 0.39517810647831442 0 0.39465563984006619 0.40678851172759001 0 0.37704240093825642 0.41032944556453849 0 0.39013270863632449 0.4333089154745593 0 0.39465563984006619 0.40678851172759001 0 0.37704240093825642 0.41032944556453849 0 0.39013270863632449 0.4333089154745593 0 0.37288563135531327 0.44378361071592748 0 0.36725657112224458 0.42555379464928023 0 0.39013270863632449 0.4333089154745593 0 0.36725657112224458 0.42555379464928023 0 0.37704240093825642 0.41032944556453849 0 0.39013270863632449 0.4333089154745593 0 0.39013270863632449 0.4333089154745593 0 0.40483991394661611 0.43293907795713082 0 0.39465563984006619 0.40678851172759001 0 0.39013270863632449 0.4333089154745593 0 0.39465563984006619 0.40678851172759001 0 0.40483991394661611 0.43293907795713082 0 0.39465563984006619 0.40678851172759001 0 0.41839025897793392 0.42473073448291471 0 0.39465563984006619 0.40678851172759001 0 0.40685962124466452 0.40962068226810971 0 0.41839025897793392 0.42473073448291471 0 0.39465563984006619 0.40678851172759001 0 0.41839025897793392 0.42473073448291471 0 0.40685962124466452 0.40962068226810971 0 0.41898130323061072 0.40989902825842928 0 0.4152434458568266 0.39933313096042422 0 0.40685962124466452 0.40962068226810971 0 0.41898130323061072 0.40989902825842928 0 0.41839025897793392 0.42473073448291471 0 0.40483991394661611 0.43293907795713082 0 0.41839025897793392 0.42473073448291471 0 0.4121913192474741 0.44546425723051442 0 0.41839025897793392 0.42473073448291471 0 0.43659335858211518 0.42449101373685388 0 0.44212487811580181 0.44267295723823857 0 0.41839025897793392 0.42473073448291471 0 0.44212487811580181 0.44267295723823857 0 0.41839025897793392 0.42473073448291471 0 0.43659335858211518 0.42449101373685388 0 0.4296108023953219 0.41355072887368671 0 0.41898130323061072 0.40989902825842928 0 0.4296108023953219 0.41355072887368671 0 0.42466194828918802 0.40009384167753742 0 0.41898130323061072 0.40989902825842928 0 0.41839025897793392 0.42473073448291471 0 0.4296108023953219 0.41355072887368671 0 0.43659335858211518 0.42449101373685388 0 0.4296108023953219 0.41355072887368671 0 0.44269807510895881 0.41000035760898912 0 0.4296108023953219 0.41355072887368671 0 0.43553093930180242 0.3996131048276278 0 0.44269807510895881 0.41000035760898912 0 0.4296108023953219 0.41355072887368671 0 0.43553093930180242 0.3996131048276278 0 0.42466194828918802 0.40009384167753742 0 0.43553093930180242 0.3996131048276278 0 0.43249806398552848 0.38782375797727803 0 0.44387397004867141 0.39092140772654482 0 0.43553093930180242 0.3996131048276278 0 0.42466194828918802 0.40009384167753742 0 0.43249806398552848 0.38782375797727803 0 0.42466194828918802 0.40009384167753742 0 0.41900058508529309 0.3885687738447523 0 0.43249806398552848 0.38782375797727803 0 0.40685962124466452 0.40962068226810971 0 0.40686256833714679 0.38880607909128317 0 0.40685962124466452 0.40962068226810971 0 0.4152434458568266 0.39933313096042422 0 0.40686256833714679 0.38880607909128317 0 0.41898130323061072 0.40989902825842928 0 0.42466194828918802 0.40009384167753742 0 0.4152434458568266 0.39933313096042422 0 0.42466194828918802 0.40009384167753742 0 0.4152434458568266 0.39933313096042422 0 0.41900058508529309 0.3885687738447523 0 0.4152434458568266 0.39933313096042422 0 0.40686256833714679 0.38880607909128317 0 0.41900058508529309 0.3885687738447523 0 0.42712015252478192 0.37179122334858877 0 0.41395334180241761 0.3768082936852124 0 0.41900058508529309 0.3885687738447523 0 0.4068655154296289 0.36799147591445669 0 0.40686256833714679 0.38880607909128317 0 0.4068655154296289 0.36799147591445669 0 0.41395334180241761 0.3768082936852124 0 0.40686256833714679 0.38880607909128317 0 0.41395334180241761 0.3768082936852124 0 0.40686256833714679 0.38880607909128317 0 0.41900058508529309 0.3885687738447523 0 0.42712015252478192 0.37179122334858877 0 0.43249806398552848 0.38782375797727803 0 0.44432241741432671 0.37669853047019591 0 0.42712015252478192 0.37179122334858877 0 0.41900058508529309 0.3885687738447523 0 0.43249806398552848 0.38782375797727803 0 0.44432241741432671 0.37669853047019591 0 0.44387397004867141 0.39092140772654482 0 0.43249806398552848 0.38782375797727803 0 0.44432241741432671 0.37669853047019591 0 0.44387397004867141 0.39092140772654482 0 0.43553093930180242 0.3996131048276278 0 0.44387397004867141 0.39092140772654482 0 0.44269807510895881 0.41000035760898912 0 0.44387397004867141 0.39092140772654482 0 0.4597990660012885 0.40746277537802139 0 0.44269807510895881 0.41000035760898912 0 0.44387397004867141 0.39092140772654482 0 0.47216120870716211 0.38464013000057601 0 0.4597990660012885 0.40746277537802139 0 0.46680681176433858 0.36460802085425781 0 0.44432241741432671 0.37669853047019591 0 0.47216120870716211 0.38464013000057601 0 0.44432241741432671 0.37669853047019591 0 0.47216120870716211 0.38464013000057601 0 0.44432241741432671 0.37669853047019591 0 0.44387397004867141 0.39092140772654482 0 0.47216120870716211 0.38464013000057601 0 0.47216120870716211 0.38464013000057601 0 0.48065950990263429 0.40823149075827142 0 0.4597990660012885 0.40746277537802139 0 0.47216120870716211 0.38464013000057601 0 0.49999999999999778 0.39258172953095499 0 0.48065950990263429 0.40823149075827142 0 0.49999999999999778 0.39258172953095499 0 0.5 0.41684359943464522 0 0.48065950990263429 0.40823149075827142 0 0.47216120870716211 0.38464013000057601 0 0.49999999999999778 0.39258172953095499 0 0.5 0.36338958072213012 0 0.47216120870716211 0.38464013000057601 0 0.49999999999999778 0.39258172953095499 0 0.4860130570169397 0.42578690866427232 0 0.47659798984247659 0.4385776767811263 0 0.5 0.4411054693383355 0 0.4860130570169397 0.42578690866427232 0 0.5 0.41684359943464522 0 0.5 0.4411054693383355 0 0.4860130570169397 0.42578690866427232 0 0.5 0.41684359943464522 0 0.48065950990263429 0.40823149075827142 0 0.4860130570169397 0.42578690866427232 0 0.48065950990263429 0.40823149075827142 0 0.46926001175861531 0.42391901531006537 0 0.48065950990263429 0.40823149075827142 0 0.46926001175861531 0.42391901531006537 0 0.4597990660012885 0.40746277537802139 0 0.4860130570169397 0.42578690866427232 0 0.46926001175861531 0.42391901531006537 0 0.47659798984247659 0.4385776767811263 0 0.46926001175861531 0.42391901531006537 0 0.4523854925163287 0.42452250468027442 0 0.46010495527202422 0.43893273559842733 0 0.46926001175861531 0.42391901531006537 0 0.46010495527202422 0.43893273559842733 0 0.47659798984247659 0.4385776767811263 0 0.46926001175861531 0.42391901531006537 0 0.4597990660012885 0.40746277537802139 0 0.4523854925163287 0.42452250468027442 0 0.4597990660012885 0.40746277537802139 0 0.44269807510895881 0.41000035760898912 0 0.4523854925163287 0.42452250468027442 0 0.43659335858211518 0.42449101373685388 0 0.44269807510895881 0.41000035760898912 0 0.4523854925163287 0.42452250468027442 0 0.4523854925163287 0.42452250468027442 0 0.44212487811580181 0.44267295723823857 0 0.46010495527202422 0.43893273559842733 0 0.4523854925163287 0.42452250468027442 0 0.44212487811580181 0.44267295723823857 0 0.43659335858211518 0.42449101373685388 0 0.4523854925163287 0.42452250468027442 0 0.44212487811580181 0.44267295723823857 0 0.44212487811580181 0.44267295723823857 0 0.46010495527202422 0.43893273559842733 0 0.45494433495668168 0.45236384584720762 0 0.44212487811580181 0.44267295723823857 0 0.45494433495668168 0.45236384584720762 0 0.43132790169949481 0.46177220418040682 0 0.44212487811580181 0.44267295723823857 0 0.45494433495668168 0.45236384584720762 0 0.45421860113299628 0.46297058253428047 0 0.44040623365337311 0.47989502753348812 0 0.43132790169949481 0.46177220418040682 0 0.45421860113299628 0.46297058253428047 0 0.43132790169949481 0.46177220418040682 0 0.45421860113299628 0.46297058253428047 0 0.45494433495668168 0.45236384584720762 0 0.43132790169949481 0.46177220418040682 0 0.45421860113299628 0.46297058253428047 0 0.46776379179756239 0.46205473445617562 0 0.47710930056649792 0.46416896088815313 0 0.45421860113299628 0.46297058253428047 0 0.47710930056649792 0.46416896088815313 0 0.45421860113299628 0.46297058253428047 0 0.47710930056649792 0.46416896088815313 0 0.46269075233132217 0.47787667683214152 0 0.45421860113299628 0.46297058253428047 0 0.46776379179756239 0.46205473445617562 0 0.45494433495668168 0.45236384584720762 0 0.46776379179756239 0.46205473445617562 0 0.45494433495668168 0.45236384584720762 0 0.46756089647688098 0.4489986675502437 0 0.46776379179756239 0.46205473445617562 0 0.45494433495668168 0.45236384584720762 0 0.46010495527202422 0.43893273559842733 0 0.46756089647688098 0.4489986675502437 0 0.47659798984247659 0.4385776767811263 0 0.46010495527202422 0.43893273559842733 0 0.45494433495668168 0.45236384584720762 0 0.46756089647688098 0.4489986675502437 0 0.46756089647688098 0.4489986675502437 0 0.47659798984247659 0.4385776767811263 0 0.48111290868883327 0.45105893235759359 0 0.46776379179756239 0.46205473445617562 0 0.48111290868883327 0.45105893235759359 0 0.47710930056649792 0.46416896088815313 0 0.46776379179756239 0.46205473445617562 0 0.46756089647688098 0.4489986675502437 0 0.48111290868883327 0.45105893235759359 0 0.47710930056649792 0.46416896088815313 0 0.49999999999999939 0.46536733924202572 0 0.48111290868883327 0.45105893235759359 0 0.47710930056649792 0.46416896088815313 0 0.49999999999999939 0.46536733924202572 0 0.47659798984247659 0.4385776767811263 0 0.48111290868883327 0.45105893235759359 0 0.5 0.4411054693383355 0 0.48111290868883327 0.45105893235759359 0 0.49999999999999939 0.46536733924202572 0 0.5 0.4411054693383355 0 0.5 0.5 0 0.48371866712403971 0.4823488132047854 0 0.45800095917970368 0.5 0 0.49999999999999939 0.46536733924202572 0 0.5 0.5 0 0.48371866712403971 0.4823488132047854 0 0.47710930056649792 0.46416896088815313 0 0.49999999999999939 0.46536733924202572 0 0.48371866712403971 0.4823488132047854 0 0.47710930056649792 0.46416896088815313 0 0.48371866712403971 0.4823488132047854 0 0.46269075233132217 0.47787667683214152 0 0.45800095917970368 0.5 0 0.46269075233132217 0.47787667683214152 0 0.44040623365337311 0.47989502753348812 0 0.48371866712403971 0.4823488132047854 0 0.45800095917970368 0.5 0 0.46269075233132217 0.47787667683214152 0 0.45421860113299628 0.46297058253428047 0 0.46269075233132217 0.47787667683214152 0 0.44040623365337311 0.47989502753348812 0 0.45800095917970368 0.5 0 0.44040623365337311 0.47989502753348812 0 0.41230242124080591 0.49542721420012142 0 0.44040623365337311 0.47989502753348812 0 0.41230242124080591 0.49542721420012142 0 0.42181516147014919 0.47859970919026351 0 0.45800095917970368 0.5 0 0.41230242124080591 0.49542721420012142 0 0.40008954438193639 0.49999999999999978 0 0.41230242124080591 0.49542721420012142 0 0.42181516147014919 0.47859970919026351 0 0.41306907112146091 0.47357270939975937 0 0.40008954438193639 0.49999999999999978 0 0.41230242124080591 0.49542721420012142 0 0.4154721650149113 0.47779123696146791 0 0.40008954438193639 0.49999999999999978 0 0.41230242124080591 0.49542721420012142 0 0.42181516147014919 0.47859970919026351 0 0.4154721650149113 0.47779123696146791 0 0.41306907112146091 0.47357270939975937 0 0.4154721650149113 0.47779123696146791 0 0.40008954438193639 0.49999999999999978 0 0.41306907112146091 0.47357270939975937 0 0.4154721650149113 0.47779123696146791 0 0.42106566455724959 0.46978187633337348 0 0.42181516147014919 0.47859970919026351 0 0.4154721650149113 0.47779123696146791 0 0.42106566455724959 0.46978187633337348 0 0.41306907112146091 0.47357270939975937 0 0.4154721650149113 0.47779123696146791 0 0.42181516147014919 0.47859970919026351 0 0.42106566455724959 0.46978187633337348 0 0.43132790169949481 0.46177220418040682 0 0.42181516147014919 0.47859970919026351 0 0.43132790169949481 0.46177220418040682 0 0.44040623365337311 0.47989502753348812 0 0.42181516147014919 0.47859970919026351 0 0.43132790169949481 0.46177220418040682 0 0.43132790169949481 0.46177220418040682 0 0.42653333294144641 0.44615846179466262 0 0.41917720588368151 0.4611360885871536 0 0.42653333294144641 0.44615846179466262 0 0.41917720588368151 0.4611360885871536 0 0.42106566455724959 0.46978187633337348 0 0.43132790169949481 0.46177220418040682 0 0.41917720588368151 0.4611360885871536 0 0.43132790169949481 0.46177220418040682 0 0.41917720588368151 0.4611360885871536 0 0.41839025897793392 0.42473073448291471 0 0.44212487811580181 0.44267295723823857 0 0.42653333294144641 0.44615846179466262 0 0.44212487811580181 0.44267295723823857 0 0.43132790169949481 0.46177220418040682 0 0.42653333294144641 0.44615846179466262 0 0.44212487811580181 0.44267295723823857 0 0.43132790169949481 0.46177220418040682 0 0.42653333294144641 0.44615846179466262 0 0.4121913192474741 0.44546425723051442 0 0.41917720588368151 0.4611360885871536 0 0.41839025897793392 0.42473073448291471 0 0.42653333294144641 0.44615846179466262 0 0.4121913192474741 0.44546425723051442 0 0.4121913192474741 0.44546425723051442 0 0.41917720588368151 0.4611360885871536 0 0.40557898807436499 0.46042419204064161 0 0.41306907112146091 0.47357270939975937 0 0.42106566455724959 0.46978187633337348 0 0.41917720588368151 0.4611360885871536 0 0.41306907112146091 0.47357270939975937 0 0.41917720588368151 0.4611360885871536 0 0.41917720588368151 0.4611360885871536 0 0.40557898807436499 0.46042419204064161 0 0.41306907112146091 0.47357270939975937 0 0.40557898807436499 0.46042419204064161 0 0.41306907112146091 0.47357270939975937 0 0.41917720588368151 0.4611360885871536 0 0.40557898807436499 0.46042419204064161 0 0.40557898807436499 0.46042419204064161 0 0.39302247163476511 0.46693428780712448 0 0.38568593820516062 0.45938274722044248 0 0.40557898807436499 0.46042419204064161 0 0.39302247163476511 0.46693428780712448 0 0.39718548243702623 0.47654795532369842 0 0.40557898807436499 0.46042419204064161 0 0.38568593820516062 0.45938274722044248 0 0.40557898807436499 0.46042419204064161 0 0.39785584835534488 0.44686655375760043 0 0.38568593820516062 0.45938274722044248 0 0.40557898807436499 0.46042419204064161 0 0.39785584835534488 0.44686655375760043 0 0.39013270863632449 0.4333089154745593 0 0.39785584835534488 0.44686655375760043 0 0.38568593820516062 0.45938274722044248 0 0.40483991394661611 0.43293907795713082 0 0.4121913192474741 0.44546425723051442 0 0.39785584835534488 0.44686655375760043 0 0.4121913192474741 0.44546425723051442 0 0.40557898807436499 0.46042419204064161 0 0.39785584835534488 0.44686655375760043 0 0.39013270863632449 0.4333089154745593 0 0.40483991394661611 0.43293907795713082 0 0.39785584835534488 0.44686655375760043 0 0.39013270863632449 0.4333089154745593 0 0.39785584835534488 0.44686655375760043 0 0.39013270863632449 0.4333089154745593 0 0.38568593820516062 0.45938274722044248 0 0.37288563135531327 0.44378361071592748 0 0.39013270863632449 0.4333089154745593 0 0.38568593820516062 0.45938274722044248 0 0.35852646383378539 0.45796088912983413 0 0.38568593820516062 0.45938274722044248 0 0.38363947782250851 0.47138225664371558 0 0.39302247163476511 0.46693428780712448 0 0.38568593820516062 0.45938274722044248 0 0.38363947782250851 0.47138225664371558 0 0.38568593820516062 0.45938274722044248 0 0.38363947782250851 0.47138225664371558 0 0.36438320113356992 0.48171160779965699 0 0.38363947782250851 0.47138225664371558 0 0.38512274335116659 0.48632708492225468 0 0.38363947782250851 0.47138225664371558 0 0.38512274335116659 0.48632708492225468 0 0.39718548243702623 0.47654795532369842 0 0.37251341038550451 0.5 0 0.38512274335116659 0.48632708492225468 0 0.40008954438193639 0.49999999999999978 0 0.38512274335116659 0.48632708492225468 0 0.40008954438193639 0.49999999999999978 0 0.39718548243702623 0.47654795532369842 0 0.41306907112146091 0.47357270939975937 0 0.40557898807436499 0.46042419204064161 0 0.39718548243702623 0.47654795532369842 0 0.41306907112146091 0.47357270939975937 0 0.40008954438193639 0.49999999999999978 0 0.39718548243702623 0.47654795532369842 0 0.39302247163476511 0.46693428780712448 0 0.38363947782250851 0.47138225664371558 0 0.39718548243702623 0.47654795532369842 0 0.33955391792553691 0.088186011862377386 0 0.31893868095076239 0.087698136774640112 0 0.32612338373751182 0.10245195394161991 0 0.33955391792553691 0.088186011862377386 0 0.32785340947143482 0.070032792760977486 0 0.31893868095076239 0.087698136774640112 0 0.33955391792553691 0.088186011862377386 0 0.32785340947143482 0.070032792760977486 0 0.35051428120030359 0.070013409569901028 0 0.32785340947143482 0.070032792760977486 0 0.35051428120030359 0.070013409569901028 0 0.32785340947143482 0.070032792760977486 0 0.31893868095076239 0.087698136774640112 0 0.30519253774256622 0.07005217595205393 0 0.32785340947143482 0.070032792760977486 0 0.30519253774256622 0.07005217595205393 0 0.31893868095076239 0.087698136774640112 0 0.32612338373751182 0.10245195394161991 0 0.31069103804889719 0.10502805118424161 0 0.32612338373751182 0.10245195394161991 0 0.31862673215692089 0.1137404204204388 0 0.31069103804889719 0.10502805118424161 0 0.31467364624284633 0.1212307821100541 0 0.31862673215692089 0.1137404204204388 0 0.32147480965151781 0.12537623458101749 0 0.31467364624284633 0.1212307821100541 0 0.31862673215692089 0.1137404204204388 0 0.30716244024823341 0.1181597317648078 0 0.31467364624284633 0.1212307821100541 0 0.31143060291471308 0.12764674167395221 0 0.32147480965151781 0.12537623458101749 0 0.32612338373751182 0.10245195394161991 0 0.31862673215692089 0.1137404204204388 0 0.32955127447461019 0.1152524210907486 0 0.32955127447461019 0.1152524210907486 0 0.33103593653502589 0.12554019720050741 0 0.32147480965151781 0.12537623458101749 0 0.31862673215692089 0.1137404204204388 0 0.32955127447461019 0.1152524210907486 0 0.32147480965151781 0.12537623458101749 0 0.32955127447461019 0.1152524210907486 0 0.34013736707093628 0.12275915985272989 0 0.33103593653502589 0.12554019720050741 0 0.34013736707093628 0.12275915985272989 0 0.33967914497528212 0.1072160922803579 0 0.34966170998679391 0.1177990503262981 0 0.32955127447461019 0.1152524210907486 0 0.34013736707093628 0.12275915985272989 0 0.33967914497528212 0.1072160922803579 0 0.33955391792553691 0.088186011862377386 0 0.32612338373751182 0.10245195394161991 0 0.33967914497528212 0.1072160922803579 0 0.32612338373751182 0.10245195394161991 0 0.32955127447461019 0.1152524210907486 0 0.33967914497528212 0.1072160922803579 0 0.33967914497528212 0.1072160922803579 0 0.35537205641283959 0.096953736858369444 0 0.34966170998679391 0.1177990503262981 0 0.33955391792553691 0.088186011862377386 0 0.33967914497528212 0.1072160922803579 0 0.35537205641283959 0.096953736858369444 0 0.35537205641283959 0.096953736858369444 0 0.34966170998679391 0.1177990503262981 0 0.36002838906270479 0.12672705334189591 0 0.35537205641283959 0.096953736858369444 0 0.36002838906270479 0.12672705334189591 0 0.34966170998679391 0.1177990503262981 0 0.34861093313886832 0.12754848915366729 0 0.35319092988301348 0.1253767182915437 0 0.34013736707093628 0.12275915985272989 0 0.34966170998679391 0.1177990503262981 0 0.34861093313886832 0.12754848915366729 0 0.34966170998679391 0.1177990503262981 0 0.35319092988301348 0.1253767182915437 0 0.36002838906270479 0.12672705334189591 0 0.36462904193439089 0.1210825720403283 0 0.36319195466750198 0.1072844018983974 0 0.36002838906270479 0.12672705334189591 0 0.35537205641283959 0.096953736858369444 0 0.36319195466750198 0.1072844018983974 0 0.36002838906270479 0.12672705334189591 0 0.36462904193439089 0.1210825720403283 0 0.38061762841208691 0.13131396911547899 0 0.37614435479736957 0.1069545841330323 0 0.36462904193439089 0.1210825720403283 0 0.36002838906270479 0.12672705334189591 0 0.36462904193439089 0.1210825720403283 0 0.37614435479736957 0.1069545841330323 0 0.36462904193439089 0.1210825720403283 0 0.36319195466750198 0.1072844018983974 0 0.37614435479736957 0.1069545841330323 0 0.35537205641283959 0.096953736858369444 0 0.36319195466750198 0.1072844018983974 0 0.3718500718099455 0.083569899554369831 0 0.3718500718099455 0.083569899554369831 0 0.37614435479736957 0.1069545841330323 0 0.36319195466750198 0.1072844018983974 0 0.3718500718099455 0.083569899554369831 0 0.37614435479736957 0.1069545841330323 0 0.35537205641283959 0.096953736858369444 0 0.3718500718099455 0.083569899554369831 0 0.35732198168114387 0.081919336875894311 0 0.33955391792553691 0.088186011862377386 0 0.35732198168114387 0.081919336875894311 0 0.35051428120030359 0.070013409569901028 0 0.33955391792553691 0.088186011862377386 0 0.35537205641283959 0.096953736858369444 0 0.35732198168114387 0.081919336875894311 0 0.35732198168114387 0.081919336875894311 0 0.35051428120030359 0.070013409569901028 0 0.36755578882252182 0.060185214975707363 0 0.3718500718099455 0.083569899554369831 0 0.36755578882252182 0.060185214975707363 0 0.38029075433068271 0.064925872639936613 0 0.3718500718099455 0.083569899554369831 0 0.36755578882252182 0.060185214975707363 0 0.3718500718099455 0.083569899554369831 0 0.35732198168114387 0.081919336875894311 0 0.36755578882252182 0.060185214975707363 0 0.36755578882252182 0.060185214975707363 0 0.37077682834232761 0.039021008922369503 0 0.3808681944261707 0.051274931688473309 0 0.36755578882252182 0.060185214975707363 0 0.37077682834232761 0.039021008922369503 0 0.35643203206974861 0.048283979350633922 0 0.37077682834232761 0.039021008922369503 0 0.35643203206974861 0.048283979350633922 0 0.35414911931832771 0.02521153708800743 0 0.35643203206974861 0.048283979350633922 0 0.35414911931832771 0.02521153708800743 0 0.33916414266526229 0.04698872619718425 0 0.35051428120030359 0.070013409569901028 0 0.35643203206974861 0.048283979350633922 0 0.33916414266526229 0.04698872619718425 0 0.35051428120030359 0.070013409569901028 0 0.36755578882252182 0.060185214975707363 0 0.35643203206974861 0.048283979350633922 0 0.36290153503243161 0.011170950009298901 0 0.37194384359057009 5.2896986445487987e-05 0 0.37454864260371062 0.01887543306276827 0 0.36290153503243161 0.011170950009298901 0 0.37194384359057009 5.2896986445487987e-05 0 0.35096453461711818 0.00054393289997440794 0 0.36290153503243161 0.011170950009298901 0 0.37454864260371062 0.01887543306276827 0 0.35414911931832771 0.02521153708800743 0 0.37077682834232761 0.039021008922369503 0 0.37454864260371062 0.01887543306276827 0 0.35414911931832771 0.02521153708800743 0 0.35414911931832771 0.02521153708800743 0 0.35096453461711818 0.00054393289997440794 0 0.33311282974394713 0.009365580851112049 0 0.35414911931832771 0.02521153708800743 0 0.35096453461711818 0.00054393289997440794 0 0.36290153503243161 0.011170950009298901 0 0.35414911931832771 0.02521153708800743 0 0.35096453461711818 0.00054393289997440794 0 0.33311282974394713 0.009365580851112049 0 0.3344978178951411 0.027733600522858028 0 0.31891144874692662 0.01905626157563356 0 0.35414911931832771 0.02521153708800743 0 0.33311282974394713 0.009365580851112049 0 0.3344978178951411 0.027733600522858028 0 0.3344978178951411 0.027733600522858028 0 0.31891144874692662 0.01905626157563356 0 0.313663141972092 0.044045827485809437 0 0.33311282974394713 0.009365580851112049 0 0.31891144874692662 0.01905626157563356 0 0.31204676142463961 0.00073078847262742224 0 0.32785340947143482 0.070032792760977486 0 0.35051428120030359 0.070013409569901028 0 0.33916414266526229 0.04698872619718425 0 0.3344978178951411 0.027733600522858028 0 0.33916414266526229 0.04698872619718425 0 0.313663141972092 0.044045827485809437 0 0.35414911931832771 0.02521153708800743 0 0.3344978178951411 0.027733600522858028 0 0.33916414266526229 0.04698872619718425 0 0.32785340947143482 0.070032792760977486 0 0.33916414266526229 0.04698872619718425 0 0.313663141972092 0.044045827485809437 0 0.32785340947143482 0.070032792760977486 0 0.313663141972092 0.044045827485809437 0 0.30519253774256622 0.07005217595205393 0 0.313663141972092 0.044045827485809437 0 0.29085687672214411 0.052049626586114603 0 0.30519253774256622 0.07005217595205393 0 0.313663141972092 0.044045827485809437 0 0.29159718126401668 0.032211503297483172 0 0.313663141972092 0.044045827485809437 0 0.29159718126401668 0.032211503297483172 0 0.29085687672214411 0.052049626586114603 0 0.29159718126401668 0.032211503297483172 0 0.29085687672214411 0.052049626586114603 0 0.27635577502270159 0.039250152863872623 0 0.31204676142463961 0.00073078847262742224 0 0.30354689486854519 0.015292107044039559 0 0.29232541252341099 0.0057153733471674018 0 0.31891144874692662 0.01905626157563356 0 0.31204676142463961 0.00073078847262742224 0 0.30354689486854519 0.015292107044039559 0 0.31891144874692662 0.01905626157563356 0 0.313663141972092 0.044045827485809437 0 0.30354689486854519 0.015292107044039559 0 0.313663141972092 0.044045827485809437 0 0.29159718126401668 0.032211503297483172 0 0.30354689486854519 0.015292107044039559 0 0.29159718126401668 0.032211503297483172 0 0.30354689486854519 0.015292107044039559 0 0.29232541252341099 0.0057153733471674018 0 0.29159718126401668 0.032211503297483172 0 0.29232541252341099 0.0057153733471674018 0 0.26953122055594142 0.020377179109156911 0 0.29232541252341099 0.0057153733471674018 0 0.27916872667575549 0.00020771242004494539 0 0.26953122055594142 0.020377179109156911 0 0.27916872667575549 0.00020771242004494539 0 0.26953122055594142 0.020377179109156911 0 0.26719303569965269 -0.001809782501044328 0 0.29159718126401668 0.032211503297483172 0 0.26953122055594142 0.020377179109156911 0 0.29159718126401668 0.032211503297483172 0 0.26953122055594142 0.020377179109156911 0 0.27635577502270159 0.039250152863872623 0 0.24746525984786619 0.0085428549208306503 0 0.26953122055594142 0.020377179109156911 0 0.2595383551476918 0.037251251118012321 0 0.24746525984786619 0.0085428549208306503 0 0.2540330741481821 -0.0041517063591771696 0 0.26719303569965269 -0.001809782501044328 0 0.24746525984786619 0.0085428549208306503 0 0.26953122055594142 0.020377179109156911 0 0.24746525984786619 0.0085428549208306503 0 0.26953122055594142 0.020377179109156911 0 0.26719303569965269 -0.001809782501044328 0 0.29085687672214411 0.052049626586114603 0 0.27025524142371432 0.054361204208596109 0 0.27635577502270159 0.039250152863872623 0 0.29085687672214411 0.052049626586114603 0 0.27025524142371432 0.054361204208596109 0 0.28253166601369739 0.070071559143130374 0 0.27025524142371432 0.054361204208596109 0 0.27635577502270159 0.039250152863872623 0 0.2595383551476918 0.037251251118012321 0 0.26953122055594142 0.020377179109156911 0 0.27635577502270159 0.039250152863872623 0 0.2595383551476918 0.037251251118012321 0 0.23976497237292541 0.034986271741545859 0 0.2595383551476918 0.037251251118012321 0 0.2522397370266381 0.056905468769568722 0 0.27025524142371432 0.054361204208596109 0 0.2595383551476918 0.037251251118012321 0 0.2522397370266381 0.056905468769568722 0 0.27025524142371432 0.054361204208596109 0 0.2522397370266381 0.056905468769568722 0 0.25977496128766708 0.070145483295909028 0 0.2522397370266381 0.056905468769568722 0 0.25977496128766708 0.070145483295909028 0 0.2480843117095122 0.072951059513355856 0 0.2522397370266381 0.056905468769568722 0 0.25977496128766708 0.070145483295909028 0 0.2480843117095122 0.072951059513355856 0 0.25977496128766708 0.070145483295909028 0 0.26471450168035088 0.078824665797591634 0 0.25977496128766708 0.070145483295909028 0 0.26471450168035088 0.078824665797591634 0 0.2480843117095122 0.072951059513355856 0 0.25209511555709518 0.083968923794558142 0 0.26471450168035088 0.078824665797591634 0 0.26471450168035088 0.078824665797591634 0 0.25907783811034701 0.090287369103362144 0 0.26981774132141167 0.095700869913850919 0 0.24861496505675079 0.093352472871679887 0 0.25209511555709518 0.083968923794558142 0 0.25907783811034701 0.090287369103362144 0 0.25209511555709518 0.083968923794558142 0 0.26471450168035088 0.078824665797591634 0 0.25907783811034701 0.090287369103362144 0 0.26471450168035088 0.078824665797591634 0 0.27718926633406371 0.10074386282561459 0 0.26981774132141167 0.095700869913850919 0 0.26471450168035088 0.078824665797591634 0 0.27718926633406371 0.10074386282561459 0 0.26471450168035088 0.078824665797591634 0 0.27748567389677109 0.087147000252177365 0 0.27718926633406371 0.10074386282561459 0 0.26471450168035088 0.078824665797591634 0 0.27472498210222612 0.078412261127114913 0 0.27748567389677109 0.087147000252177365 0 0.27472498210222612 0.078412261127114913 0 0.27748567389677109 0.087147000252177365 0 0.28902227463548241 0.085927138108468359 0 0.27025524142371432 0.054361204208596109 0 0.25977496128766708 0.070145483295909028 0 0.28253166601369739 0.070071559143130374 0 0.25977496128766708 0.070145483295909028 0 0.27472498210222612 0.078412261127114913 0 0.28253166601369739 0.070071559143130374 0 0.25977496128766708 0.070145483295909028 0 0.28253166601369739 0.070071559143130374 0 0.25977496128766708 0.070145483295909028 0 0.26471450168035088 0.078824665797591634 0 0.27472498210222612 0.078412261127114913 0 0.28253166601369739 0.070071559143130374 0 0.30519253774256622 0.07005217595205393 0 0.29085687672214411 0.052049626586114603 0 0.28253166601369739 0.070071559143130374 0 0.30519253774256622 0.07005217595205393 0 0.28253166601369739 0.070071559143130374 0 0.28902227463548241 0.085927138108468359 0 0.30519253774256622 0.07005217595205393 0 0.27472498210222612 0.078412261127114913 0 0.28253166601369739 0.070071559143130374 0 0.28902227463548241 0.085927138108468359 0 0.28902227463548241 0.085927138108468359 0 0.28236253707532499 0.094330663043065061 0 0.28855257946442309 0.098566517397138467 0 0.27748567389677109 0.087147000252177365 0 0.28902227463548241 0.085927138108468359 0 0.28236253707532499 0.094330663043065061 0 0.31893868095076239 0.087698136774640112 0 0.30460847936444918 0.090055896631801011 0 0.30519253774256622 0.07005217595205393 0 0.28902227463548241 0.085927138108468359 0 0.30460847936444918 0.090055896631801011 0 0.30519253774256622 0.07005217595205393 0 0.28902227463548241 0.085927138108468359 0 0.30460847936444918 0.090055896631801011 0 0.29917585880638992 0.10107900019483899 0 0.29881360637008481 0.11190111083715649 0 0.30716244024823341 0.1181597317648078 0 0.29655542096659898 0.1194587011894222 0 0.30071128801505509 0.1243108032121915 0 0.30716244024823341 0.1181597317648078 0 0.30547289595369731 0.12710347173382319 0 0.30071128801505509 0.1243108032121915 0 0.30716244024823341 0.1181597317648078 0 0.29655542096659898 0.1194587011894222 0 0.30071128801505509 0.1243108032121915 0 0.2955248419015698 0.12454284648065619 0 0.29655542096659898 0.1194587011894222 0 0.30716244024823341 0.1181597317648078 0 0.31143060291471308 0.12764674167395221 0 0.30547289595369731 0.12710347173382319 0 0.31467364624284633 0.1212307821100541 0 0.30716244024823341 0.1181597317648078 0 0.31143060291471308 0.12764674167395221 0 0.31862673215692089 0.1137404204204388 0 0.30716244024823341 0.1181597317648078 0 0.31069103804889719 0.10502805118424161 0 0.29881360637008481 0.11190111083715649 0 0.30716244024823341 0.1181597317648078 0 0.31069103804889719 0.10502805118424161 0 0.31893868095076239 0.087698136774640112 0 0.30460847936444918 0.090055896631801011 0 0.31069103804889719 0.10502805118424161 0 0.30460847936444918 0.090055896631801011 0 0.31069103804889719 0.10502805118424161 0 0.29917585880638992 0.10107900019483899 0 0.29881360637008481 0.11190111083715649 0 0.31069103804889719 0.10502805118424161 0 0.29917585880638992 0.10107900019483899 0 0.29881360637008481 0.11190111083715649 0 0.29917585880638992 0.10107900019483899 0 0.29237609339628301 0.10669547895038579 0 0.29917585880638992 0.10107900019483899 0 0.29237609339628301 0.10669547895038579 0 0.28855257946442309 0.098566517397138467 0 0.28902227463548241 0.085927138108468359 0 0.29917585880638992 0.10107900019483899 0 0.28855257946442309 0.098566517397138467 0 0.28236253707532499 0.094330663043065061 0 0.28855257946442309 0.098566517397138467 0 0.28356472493352169 0.1035661065143348 0 0.29237609339628301 0.10669547895038579 0 0.28356472493352169 0.1035661065143348 0 0.28623200896357298 0.1105785179792005 0 0.29237609339628301 0.10669547895038579 0 0.28855257946442309 0.098566517397138467 0 0.28356472493352169 0.1035661065143348 0 0.28356472493352169 0.1035661065143348 0 0.28623200896357298 0.1105785179792005 0 0.27609258341241222 0.1088381904127729 0 0.28391189819730278 0.1164863318917234 0 0.28623200896357298 0.1105785179792005 0 0.27609258341241222 0.1088381904127729 0 0.28391189819730278 0.1164863318917234 0 0.28623200896357298 0.1105785179792005 0 0.29147949655227928 0.11533511060300571 0 0.29237609339628301 0.10669547895038579 0 0.28623200896357298 0.1105785179792005 0 0.29147949655227928 0.11533511060300571 0 0.29881360637008481 0.11190111083715649 0 0.29237609339628301 0.10669547895038579 0 0.29147949655227928 0.11533511060300571 0 0.29881360637008481 0.11190111083715649 0 0.29147949655227928 0.11533511060300571 0 0.29655542096659898 0.1194587011894222 0 0.2955248419015698 0.12454284648065619 0 0.29655542096659898 0.1194587011894222 0 0.29019877065842498 0.122424981218258 0 0.29147949655227928 0.11533511060300571 0 0.29655542096659898 0.1194587011894222 0 0.29019877065842498 0.122424981218258 0 0.28391189819730278 0.1164863318917234 0 0.29019877065842498 0.122424981218258 0 0.28212701182482047 0.12344827276776139 0 0.29019877065842498 0.122424981218258 0 0.28212701182482047 0.12344827276776139 0 0.28737965130483067 0.12748900281737041 0 0.28391189819730278 0.1164863318917234 0 0.29147949655227928 0.11533511060300571 0 0.29019877065842498 0.122424981218258 0 0.28212701182482047 0.12344827276776139 0 0.27522332008128092 0.11777410716127421 0 0.27234495171852419 0.12533147151330859 0 0.27522332008128092 0.11777410716127421 0 0.25729942365779379 0.1163327830709826 0 0.27234495171852419 0.12533147151330859 0 0.27522332008128092 0.11777410716127421 0 0.27609258341241222 0.1088381904127729 0 0.25729942365779379 0.1163327830709826 0 0.28391189819730278 0.1164863318917234 0 0.28212701182482047 0.12344827276776139 0 0.27522332008128092 0.11777410716127421 0 0.28391189819730278 0.1164863318917234 0 0.27522332008128092 0.11777410716127421 0 0.27609258341241222 0.1088381904127729 0 0.27609258341241222 0.1088381904127729 0 0.26981774132141167 0.095700869913850919 0 0.25729942365779379 0.1163327830709826 0 0.28236253707532499 0.094330663043065061 0 0.28356472493352169 0.1035661065143348 0 0.27718926633406371 0.10074386282561459 0 0.27748567389677109 0.087147000252177365 0 0.28236253707532499 0.094330663043065061 0 0.27718926633406371 0.10074386282561459 0 0.28356472493352169 0.1035661065143348 0 0.27718926633406371 0.10074386282561459 0 0.27609258341241222 0.1088381904127729 0 0.27718926633406371 0.10074386282561459 0 0.27609258341241222 0.1088381904127729 0 0.26981774132141167 0.095700869913850919 0 0.26981774132141167 0.095700869913850919 0 0.25657327715003803 0.10096738815572991 0 0.25729942365779379 0.1163327830709826 0 0.26981774132141167 0.095700869913850919 0 0.25729942365779379 0.1163327830709826 0 0.25907783811034701 0.090287369103362144 0 0.26981774132141167 0.095700869913850919 0 0.25657327715003803 0.10096738815572991 0 0.24659215389021069 0.1074838069439971 0 0.25657327715003803 0.10096738815572991 0 0.25729942365779379 0.1163327830709826 0 0.24861496505675079 0.093352472871679887 0 0.25907783811034701 0.090287369103362144 0 0.25657327715003803 0.10096738815572991 0 0.24659215389021069 0.1074838069439971 0 0.24861496505675079 0.093352472871679887 0 0.25657327715003803 0.10096738815572991 0 0.25729942365779379 0.1163327830709826 0 0.26424761707784972 0.12959117529461731 0 0.27234495171852419 0.12533147151330859 0 0.25729942365779379 0.1163327830709826 0 0.25526460598084039 0.13421800131591349 0 0.26424761707784972 0.12959117529461731 0 0.2447811059941758 0.13696469622811419 0 0.25729942365779379 0.1163327830709826 0 0.2447811059941758 0.13696469622811419 0 0.25729942365779379 0.1163327830709826 0 0.25526460598084039 0.13421800131591349 0 0.24876803286489191 0.1391491542580969 0 0.25526460598084039 0.13421800131591349 0 0.25666496425427848 0.1422529704070849 0 0.25526460598084039 0.13421800131591349 0 0.26424761707784972 0.12959117529461731 0 0.26645856981613952 0.1390008167617906 0 0.25526460598084039 0.13421800131591349 0 0.26645856981613952 0.1390008167617906 0 0.25666496425427848 0.1422529704070849 0 0.26424761707784972 0.12959117529461731 0 0.27234495171852419 0.12533147151330859 0 0.27408777335703172 0.1339379461683291 0 0.26645856981613952 0.1390008167617906 0 0.27408777335703172 0.1339379461683291 0 0.2745798134969345 0.14158924269317141 0 0.26424761707784972 0.12959117529461731 0 0.26645856981613952 0.1390008167617906 0 0.27408777335703172 0.1339379461683291 0 0.27408777335703172 0.1339379461683291 0 0.2745798134969345 0.14158924269317141 0 0.28330285671992123 0.140879769628596 0 0.27408777335703172 0.1339379461683291 0 0.28220121841389328 0.13138569642939449 0 0.28330285671992123 0.140879769628596 0 0.27234495171852419 0.12533147151330859 0 0.27408777335703172 0.1339379461683291 0 0.28220121841389328 0.13138569642939449 0 0.28212701182482047 0.12344827276776139 0 0.27234495171852419 0.12533147151330859 0 0.28220121841389328 0.13138569642939449 0 0.26645856981613952 0.1390008167617906 0 0.27447005409464559 0.15253843821397009 0 0.25666496425427848 0.1422529704070849 0 0.27447005409464559 0.15253843821397009 0 0.2745798134969345 0.14158924269317141 0 0.28330285671992123 0.140879769628596 0 0.26645856981613952 0.1390008167617906 0 0.27447005409464559 0.15253843821397009 0 0.2745798134969345 0.14158924269317141 0 0.24876803286489191 0.1391491542580969 0 0.25666496425427848 0.1422529704070849 0 0.25030626853235921 0.15737004669176199 0 0.27447005409464559 0.15253843821397009 0 0.25030626853235921 0.15737004669176199 0 0.27447005409464559 0.15253843821397009 0 0.25666496425427848 0.1422529704070849 0 0.25030626853235921 0.15737004669176199 0 0.25666496425427848 0.1422529704070849 0 0.25030626853235921 0.15737004669176199 0 0.27447005409464559 0.15253843821397009 0 0.25030626853235921 0.15737004669176199 0 0.25987944224844078 0.17121165013060241 0 0.23911234894716549 0.18398231809051591 0 0.25987944224844078 0.17121165013060241 0 0.26073382819428947 0.18647186586626771 0 0.25987944224844078 0.17121165013060241 0 0.26073382819428947 0.18647186586626771 0 0.27477471147374399 0.1756955817904948 0 0.27477471147374399 0.1756955817904948 0 0.27168477620901998 0.19262902074940319 0 0.28358951704613289 0.18953966750446799 0 0.26073382819428947 0.18647186586626771 0 0.27477471147374399 0.1756955817904948 0 0.27168477620901998 0.19262902074940319 0 0.27447005409464559 0.15253843821397009 0 0.27477471147374399 0.1756955817904948 0 0.28764980724909162 0.16368871781641681 0 0.27447005409464559 0.15253843821397009 0 0.25987944224844078 0.17121165013060241 0 0.27477471147374399 0.1756955817904948 0 0.28764980724909162 0.16368871781641681 0 0.30164918955177189 0.16656697302023041 0 0.29863383965693208 0.14770682973617719 0 0.28764980724909162 0.16368871781641681 0 0.29095110927996282 0.17829964050373129 0 0.30164918955177189 0.16656697302023041 0 0.27477471147374399 0.1756955817904948 0 0.28764980724909162 0.16368871781641681 0 0.29095110927996282 0.17829964050373129 0 0.27477471147374399 0.1756955817904948 0 0.29095110927996282 0.17829964050373129 0 0.28358951704613289 0.18953966750446799 0 0.29095110927996282 0.17829964050373129 0 0.28358951704613289 0.18953966750446799 0 0.29547691908157508 0.19145088892969889 0 0.30466453944660798 0.18542711630428421 0 0.30164918955177189 0.16656697302023041 0 0.31117196998955959 0.16891117725204369 0 0.30466453944660798 0.18542711630428421 0 0.30164918955177189 0.16656697302023041 0 0.30466453944660798 0.18542711630428421 0 0.31117196998955959 0.16891117725204369 0 0.31842084544008659 0.1743143866605513 0 0.29095110927996282 0.17829964050373129 0 0.30466453944660798 0.18542711630428421 0 0.30164918955177189 0.16656697302023041 0 0.30466453944660798 0.18542711630428421 0 0.30590612373216841 0.19310712639458469 0 0.32081364376527699 0.17483911542322469 0 0.29095110927996282 0.17829964050373129 0 0.30466453944660798 0.18542711630428421 0 0.29547691908157508 0.19145088892969889 0 0.30164918955177189 0.16656697302023041 0 0.29863383965693208 0.14770682973617719 0 0.30164918955177189 0.16656697302023041 0 0.30709609403636318 0.1546972524473097 0 0.29863383965693208 0.14770682973617719 0 0.30164918955177189 0.16656697302023041 0 0.31117196998955959 0.16891117725204369 0 0.31499555159807763 0.15970208050312401 0 0.30164918955177189 0.16656697302023041 0 0.30709609403636318 0.1546972524473097 0 0.31499555159807763 0.15970208050312401 0 0.30709609403636318 0.1546972524473097 0 0.29863383965693208 0.14770682973617719 0 0.31310579533867278 0.14481312652970571 0 0.30709609403636318 0.1546972524473097 0 0.31310579533867278 0.14481312652970571 0 0.31499555159807763 0.15970208050312401 0 0.30067032505985902 0.14382774302161869 0 0.29820700035333447 0.14208698373214529 0 0.3010599724016792 0.14010210393321701 0 0.30067032505985902 0.14382774302161869 0 0.29820700035333447 0.14208698373214529 0 0.29863383965693208 0.14770682973617719 0 0.30067032505985902 0.14382774302161869 0 0.29863383965693208 0.14770682973617719 0 0.30451359722466143 0.14259902187050039 0 0.30067032505985902 0.14382774302161869 0 0.30451359722466143 0.14259902187050039 0 0.3010599724016792 0.14010210393321701 0 0.30843421299037682 0.14112051349670399 0 0.31018173231588542 0.13654248097221741 0 0.31310579533867278 0.14481312652970571 0 0.29863383965693208 0.14770682973617719 0 0.30451359722466143 0.14259902187050039 0 0.31310579533867278 0.14481312652970571 0 0.30451359722466143 0.14259902187050039 0 0.30843421299037682 0.14112051349670399 0 0.31310579533867278 0.14481312652970571 0 0.29863383965693208 0.14770682973617719 0 0.31310579533867278 0.14481312652970571 0 0.30843421299037682 0.14112051349670399 0 0.31310579533867278 0.14481312652970571 0 0.31018173231588542 0.13654248097221741 0 0.30522295142713007 0.13808340976808731 0 0.30589071772586002 0.1327342517771013 0 0.30451359722466143 0.14259902187050039 0 0.30843421299037682 0.14112051349670399 0 0.30522295142713007 0.13808340976808731 0 0.30843421299037682 0.14112051349670399 0 0.31018173231588542 0.13654248097221741 0 0.30522295142713007 0.13808340976808731 0 0.31018173231588542 0.13654248097221741 0 0.31143060291471308 0.12764674167395221 0 0.30589071772586002 0.1327342517771013 0 0.31143060291471308 0.12764674167395221 0 0.30589071772586002 0.1327342517771013 0 0.30547289595369731 0.12710347173382319 0 0.30071128801505509 0.1243108032121915 0 0.30547289595369731 0.12710347173382319 0 0.30147889186756921 0.13070800019543211 0 0.30589071772586002 0.1327342517771013 0 0.30547289595369731 0.12710347173382319 0 0.30147889186756921 0.13070800019543211 0 0.30147889186756921 0.13070800019543211 0 0.29759519153457797 0.12847001153016099 0 0.29751373389721097 0.1337850144949756 0 0.30071128801505509 0.1243108032121915 0 0.30147889186756921 0.13070800019543211 0 0.29759519153457797 0.12847001153016099 0 0.30071128801505509 0.1243108032121915 0 0.2955248419015698 0.12454284648065619 0 0.29759519153457797 0.12847001153016099 0 0.30451359722466143 0.14259902187050039 0 0.30522295142713007 0.13808340976808731 0 0.3010599724016792 0.14010210393321701 0 0.30522295142713007 0.13808340976808731 0 0.3010599724016792 0.14010210393321701 0 0.30141825354566842 0.13558796678634341 0 0.30589071772586002 0.1327342517771013 0 0.30147889186756921 0.13070800019543211 0 0.30141825354566842 0.13558796678634341 0 0.30522295142713007 0.13808340976808731 0 0.30589071772586002 0.1327342517771013 0 0.30141825354566842 0.13558796678634341 0 0.30141825354566842 0.13558796678634341 0 0.29751373389721097 0.1337850144949756 0 0.29734325395456118 0.1381150205492469 0 0.30147889186756921 0.13070800019543211 0 0.30141825354566842 0.13558796678634341 0 0.29751373389721097 0.1337850144949756 0 0.3010599724016792 0.14010210393321701 0 0.30141825354566842 0.13558796678634341 0 0.29734325395456118 0.1381150205492469 0 0.29820700035333447 0.14208698373214529 0 0.3010599724016792 0.14010210393321701 0 0.29734325395456118 0.1381150205492469 0 0.29820700035333447 0.14208698373214529 0 0.29734325395456118 0.1381150205492469 0 0.29345611684931527 0.14148699033403681 0 0.29734325395456118 0.1381150205492469 0 0.2927009437436221 0.13546944812283551 0 0.29345611684931527 0.14148699033403681 0 0.29751373389721097 0.1337850144949756 0 0.2927009437436221 0.13546944812283551 0 0.292795534533141 0.12925435590289211 0 0.29751373389721097 0.1337850144949756 0 0.29734325395456118 0.1381150205492469 0 0.2927009437436221 0.13546944812283551 0 0.2927009437436221 0.13546944812283551 0 0.28772577859054038 0.13205803829591831 0 0.2875155341299177 0.13711853907816349 0 0.2927009437436221 0.13546944812283551 0 0.2875155341299177 0.13711853907816349 0 0.29345611684931527 0.14148699033403681 0 0.2955248419015698 0.12454284648065619 0 0.29759519153457797 0.12847001153016099 0 0.292795534533141 0.12925435590289211 0 0.29759519153457797 0.12847001153016099 0 0.29751373389721097 0.1337850144949756 0 0.292795534533141 0.12925435590289211 0 0.2927009437436221 0.13546944812283551 0 0.292795534533141 0.12925435590289211 0 0.28772577859054038 0.13205803829591831 0 0.292795534533141 0.12925435590289211 0 0.28737965130483067 0.12748900281737041 0 0.28772577859054038 0.13205803829591831 0 0.2955248419015698 0.12454284648065619 0 0.29019877065842498 0.122424981218258 0 0.292795534533141 0.12925435590289211 0 0.29019877065842498 0.122424981218258 0 0.292795534533141 0.12925435590289211 0 0.28737965130483067 0.12748900281737041 0 0.28212701182482047 0.12344827276776139 0 0.28737965130483067 0.12748900281737041 0 0.28220121841389328 0.13138569642939449 0 0.28737965130483067 0.12748900281737041 0 0.28772577859054038 0.13205803829591831 0 0.28220121841389328 0.13138569642939449 0 0.28220121841389328 0.13138569642939449 0 0.2875155341299177 0.13711853907816349 0 0.28330285671992123 0.140879769628596 0 0.2875155341299177 0.13711853907816349 0 0.28330285671992123 0.140879769628596 0 0.29345611684931527 0.14148699033403681 0 0.28772577859054038 0.13205803829591831 0 0.28220121841389328 0.13138569642939449 0 0.2875155341299177 0.13711853907816349 0 0.27447005409464559 0.15253843821397009 0 0.28764980724909162 0.16368871781641681 0 0.29863383965693208 0.14770682973617719 0 0.27447005409464559 0.15253843821397009 0 0.29863383965693208 0.14770682973617719 0 0.28330285671992123 0.140879769628596 0 0.27447005409464559 0.15253843821397009 0 0.29863383965693208 0.14770682973617719 0 0.29863383965693208 0.14770682973617719 0 0.28330285671992123 0.140879769628596 0 0.29345611684931527 0.14148699033403681 0 0.29820700035333447 0.14208698373214529 0 0.29863383965693208 0.14770682973617719 0 0.29345611684931527 0.14148699033403681 0 0.26753601967027851 0.23666349279099499 0 0.28255117011413039 0.23023024448762111 0 0.28445948182574871 0.2487690486917552 0 0.2630771961758292 0.25483384150313898 0 0.26753601967027851 0.23666349279099499 0 0.28445948182574871 0.2487690486917552 0 0.2393105250387596 0.2522611276579797 0 0.2630771961758292 0.25483384150313898 0 0.25178732403818582 0.24038390480915409 0 0.2630771961758292 0.25483384150313898 0 0.26753601967027851 0.23666349279099499 0 0.25178732403818582 0.24038390480915409 0 0.26753601967027851 0.23666349279099499 0 0.25207482369939532 0.22432082290178659 0 0.27118450044170772 0.21949733489450621 0 0.26753601967027851 0.23666349279099499 0 0.25178732403818582 0.24038390480915409 0 0.25207482369939532 0.22432082290178659 0 0.26753601967027851 0.23666349279099499 0 0.27118450044170772 0.21949733489450621 0 0.28255117011413039 0.23023024448762111 0 0.27118450044170772 0.21949733489450621 0 0.27633622174300149 0.2040002982520889 0 0.25828688890745899 0.20523855093014351 0 0.27118450044170772 0.21949733489450621 0 0.27633622174300149 0.2040002982520889 0 0.29052597644850098 0.21834093794684559 0 0.25207482369939532 0.22432082290178659 0 0.27118450044170772 0.21949733489450621 0 0.25828688890745899 0.20523855093014351 0 0.26073382819428947 0.18647186586626771 0 0.25828688890745899 0.20523855093014351 0 0.27168477620901998 0.19262902074940319 0 0.23911234894716549 0.18398231809051591 0 0.26073382819428947 0.18647186586626771 0 0.25828688890745899 0.20523855093014351 0 0.27633622174300149 0.2040002982520889 0 0.25828688890745899 0.20523855093014351 0 0.27168477620901998 0.19262902074940319 0 0.27633622174300149 0.2040002982520889 0 0.27168477620901998 0.19262902074940319 0 0.28358951704613289 0.18953966750446799 0 0.27633622174300149 0.2040002982520889 0 0.29547691908157508 0.19145088892969889 0 0.29032050430315481 0.2044578445285406 0 0.27633622174300149 0.2040002982520889 0 0.28358951704613289 0.18953966750446799 0 0.29547691908157508 0.19145088892969889 0 0.27633622174300149 0.2040002982520889 0 0.29547691908157508 0.19145088892969889 0 0.29681316764317911 0.20028375905400109 0 0.29547691908157508 0.19145088892969889 0 0.29032050430315481 0.2044578445285406 0 0.28358951704613289 0.18953966750446799 0 0.29547691908157508 0.19145088892969889 0 0.30466453944660798 0.18542711630428421 0 0.29547691908157508 0.19145088892969889 0 0.29547691908157508 0.19145088892969889 0 0.30590612373216841 0.19310712639458469 0 0.29547691908157508 0.19145088892969889 0 0.30590612373216841 0.19310712639458469 0 0.30241141147775918 0.1974165753948971 0 0.30466453944660798 0.18542711630428421 0 0.29794520787855 0.19054687039932611 0 0.30590612373216841 0.19310712639458469 0 0.30590612373216841 0.19310712639458469 0 0.30241141147775918 0.1974165753948971 0 0.30170777833488432 0.21010991077901489 0 0.29794520787855 0.19054687039932611 0 0.30590612373216841 0.19310712639458469 0 0.30466453944660798 0.18542711630428421 0 0.29547691908157508 0.19145088892969889 0 0.29794520787855 0.19054687039932611 0 0.29547691908157508 0.19145088892969889 0 0.29794520787855 0.19054687039932611 0 0.30590612373216841 0.19310712639458469 0 0.30590612373216841 0.19310712639458469 0 0.30241141147775918 0.1974165753948971 0 0.30466453944660798 0.18542711630428421 0 0.30590612373216841 0.19310712639458469 0 0.29681316764317911 0.20028375905400109 0 0.29547691908157508 0.19145088892969889 0 0.30241141147775918 0.1974165753948971 0 0.29681316764317911 0.20028375905400109 0 0.30241141147775918 0.1974165753948971 0 0.30170777833488432 0.21010991077901489 0 0.30590612373216841 0.19310712639458469 0 0.30170777833488432 0.21010991077901489 0 0.31013288934625932 0.21963006661909759 0 0.30590612373216841 0.19310712639458469 0 0.31013288934625932 0.21963006661909759 0 0.30170777833488432 0.21010991077901489 0 0.29052597644850098 0.21834093794684559 0 0.31013288934625932 0.21963006661909759 0 0.30170777833488432 0.21010991077901489 0 0.29052597644850098 0.21834093794684559 0 0.29032050430315481 0.2044578445285406 0 0.29681316764317911 0.20028375905400109 0 0.30170777833488432 0.21010991077901489 0 0.29032050430315481 0.2044578445285406 0 0.27633622174300149 0.2040002982520889 0 0.29052597644850098 0.21834093794684559 0 0.29032050430315481 0.2044578445285406 0 0.27118450044170772 0.21949733489450621 0 0.29052597644850098 0.21834093794684559 0 0.28255117011413039 0.23023024448762111 0 0.29052597644850098 0.21834093794684559 0 0.28255117011413039 0.23023024448762111 0 0.29783816192281293 0.23708709246608031 0 0.31013288934625932 0.21963006661909759 0 0.31437302155916219 0.24615086979874731 0 0.31013288934625932 0.21963006661909759 0 0.29783816192281293 0.23708709246608031 0 0.31437302155916219 0.24615086979874731 0 0.29052597644850098 0.21834093794684559 0 0.31013288934625932 0.21963006661909759 0 0.29783816192281293 0.23708709246608031 0 0.30135459129844822 0.25763952472011981 0 0.29783816192281293 0.23708709246608031 0 0.31437302155916219 0.24615086979874731 0 0.28255117011413039 0.23023024448762111 0 0.29783816192281293 0.23708709246608031 0 0.28445948182574871 0.2487690486917552 0 0.30135459129844822 0.25763952472011981 0 0.29783816192281293 0.23708709246608031 0 0.28445948182574871 0.2487690486917552 0 0.33208811001678562 0.25691794732956041 0 0.31437302155916219 0.24615086979874731 0 0.34035604248352791 0.22985227759774809 0 0.31013288934625932 0.21963006661909759 0 0.31437302155916219 0.24615086979874731 0 0.34035604248352791 0.22985227759774809 0 0.31013288934625932 0.21963006661909759 0 0.34035604248352791 0.22985227759774809 0 0.33427430093633997 0.20205331686583089 0 0.30590612373216841 0.19310712639458469 0 0.31013288934625932 0.21963006661909759 0 0.33427430093633997 0.20205331686583089 0 0.30590612373216841 0.19310712639458469 0 0.33427430093633997 0.20205331686583089 0 0.30590612373216841 0.19310712639458469 0 0.32779977345821582 0.19664766208710521 0 0.30590612373216841 0.19310712639458469 0 0.32779977345821582 0.19664766208710521 0 0.33427430093633997 0.20205331686583089 0 0.30590612373216841 0.19310712639458469 0 0.31810201014352141 0.1883328619099105 0 0.32779977345821582 0.19664766208710521 0 0.31810201014352141 0.1883328619099105 0 0.32779977345821582 0.19664766208710521 0 0.33470602886921019 0.1879110668698003 0 0.32779977345821582 0.19664766208710521 0 0.34931286078660378 0.20010647279294499 0 0.32779977345821582 0.19664766208710521 0 0.33427430093633997 0.20205331686583089 0 0.34931286078660378 0.20010647279294499 0 0.32779977345821582 0.19664766208710521 0 0.33470602886921019 0.1879110668698003 0 0.34931286078660378 0.20010647279294499 0 0.33470602886921019 0.1879110668698003 0 0.34931286078660378 0.20010647279294499 0 0.33470602886921019 0.1879110668698003 0 0.34931286078660378 0.20010647279294499 0 0.3561984040286752 0.18968098606523731 0 0.34931286078660378 0.20010647279294499 0 0.3561984040286752 0.18968098606523731 0 0.36124660487053012 0.1957220942996076 0 0.34931286078660378 0.20010647279294499 0 0.36952575518518183 0.2033562423157742 0 0.3561984040286752 0.18968098606523731 0 0.36989471232635329 0.18981386159770461 0 0.36124660487053012 0.1957220942996076 0 0.34931286078660378 0.20010647279294499 0 0.36124660487053012 0.1957220942996076 0 0.36952575518518183 0.2033562423157742 0 0.36989471232635329 0.18981386159770461 0 0.37707160809602153 0.195374366007945 0 0.36989471232635329 0.18981386159770461 0 0.36952575518518183 0.2033562423157742 0 0.37707160809602153 0.195374366007945 0 0.36989471232635329 0.18981386159770461 0 0.36124660487053012 0.1957220942996076 0 0.36952575518518183 0.2033562423157742 0 0.36226191574285249 0.21091778235039541 0 0.36952575518518183 0.2033562423157742 0 0.38145479684634648 0.21699670809192231 0 0.36226191574285249 0.21091778235039541 0 0.378224298304771 0.224244952536515 0 0.36226191574285249 0.21091778235039541 0 0.378224298304771 0.224244952536515 0 0.38145479684634648 0.21699670809192231 0 0.36226191574285249 0.21091778235039541 0 0.38145479684634648 0.21699670809192231 0 0.34931286078660378 0.20010647279294499 0 0.36226191574285249 0.21091778235039541 0 0.36952575518518183 0.2033562423157742 0 0.33427430093633997 0.20205331686583089 0 0.36226191574285249 0.21091778235039541 0 0.34035604248352791 0.22985227759774809 0 0.33427430093633997 0.20205331686583089 0 0.36226191574285249 0.21091778235039541 0 0.33427430093633997 0.20205331686583089 0 0.34931286078660378 0.20010647279294499 0 0.36226191574285249 0.21091778235039541 0 0.34931286078660378 0.20010647279294499 0 0.36226191574285249 0.21091778235039541 0 0.34035604248352791 0.22985227759774809 0 0.36226191574285249 0.21091778235039541 0 0.36003005032826729 0.22981387560716299 0 0.36003005032826729 0.22981387560716299 0 0.36138675064106829 0.2488651006958936 0 0.378224298304771 0.224244952536515 0 0.36226191574285249 0.21091778235039541 0 0.36003005032826729 0.22981387560716299 0 0.378224298304771 0.224244952536515 0 0.36138675064106829 0.2488651006958936 0 0.378224298304771 0.224244952536515 0 0.34035604248352791 0.22985227759774809 0 0.36003005032826729 0.22981387560716299 0 0.36138675064106829 0.2488651006958936 0 0.33208811001678562 0.25691794732956041 0 0.34035604248352791 0.22985227759774809 0 0.36138675064106829 0.2488651006958936 0 0.33232934167285838 0.14096933106139389 0 0.33267754365668328 0.1602834506146785 0 0.35155288800704482 0.13712553559308541 0 0.33267754365668328 0.1602834506146785 0 0.35155288800704482 0.13712553559308541 0 0.33232934167285838 0.14096933106139389 0 0.35155288800704482 0.13712553559308541 0 0.34013736707093628 0.12275915985272989 0 0.33232934167285838 0.14096933106139389 0 0.33103593653502589 0.12554019720050741 0 0.34013736707093628 0.12275915985272989 0 0.33232934167285838 0.14096933106139389 0 0.34861093313886832 0.12754848915366729 0 0.33232934167285838 0.14096933106139389 0 0.33103593653502589 0.12554019720050741 0 0.32147480965151781 0.12537623458101749 0 0.33232934167285838 0.14096933106139389 0 0.32147480965151781 0.12537623458101749 0 0.317006113498561 0.13485684258775679 0 0.33232934167285838 0.14096933106139389 0 0.317006113498561 0.13485684258775679 0 0.31310579533867278 0.14481312652970571 0 0.31143060291471308 0.12764674167395221 0 0.32147480965151781 0.12537623458101749 0 0.317006113498561 0.13485684258775679 0 0.31018173231588542 0.13654248097221741 0 0.31143060291471308 0.12764674167395221 0 0.317006113498561 0.13485684258775679 0 0.31018173231588542 0.13654248097221741 0 0.317006113498561 0.13485684258775679 0 0.31310579533867278 0.14481312652970571 0 0.31310579533867278 0.14481312652970571 0 0.31499555159807763 0.15970208050312401 0 0.33267754365668328 0.1602834506146785 0 0.33232934167285838 0.14096933106139389 0 0.31310579533867278 0.14481312652970571 0 0.33232934167285838 0.14096933106139389 0 0.31310579533867278 0.14481312652970571 0 0.33267754365668328 0.1602834506146785 0 0.31310579533867278 0.14481312652970571 0 0.33267754365668328 0.1602834506146785 0 0.31499555159807763 0.15970208050312401 0 0.31961591088993702 0.16761004209072461 0 0.33267754365668328 0.1602834506146785 0 0.31117196998955959 0.16891117725204369 0 0.31499555159807763 0.15970208050312401 0 0.31961591088993702 0.16761004209072461 0 0.31117196998955959 0.16891117725204369 0 0.31961591088993702 0.16761004209072461 0 0.31842084544008659 0.1743143866605513 0 0.32081364376527699 0.17483911542322469 0 0.33267754365668328 0.1602834506146785 0 0.31961591088993702 0.16761004209072461 0 0.32081364376527699 0.17483911542322469 0 0.33267754365668328 0.1602834506146785 0 0.30466453944660798 0.18542711630428421 0 0.32081364376527699 0.17483911542322469 0 0.30466453944660798 0.18542711630428421 0 0.31842084544008659 0.1743143866605513 0 0.32081364376527699 0.17483911542322469 0 0.30590612373216841 0.19310712639458469 0 0.31810201014352141 0.1883328619099105 0 0.32081364376527699 0.17483911542322469 0 0.31810201014352141 0.1883328619099105 0 0.33470602886921019 0.1879110668698003 0 0.32081364376527699 0.17483911542322469 0 0.30590612373216841 0.19310712639458469 0 0.32081364376527699 0.17483911542322469 0 0.31961591088993702 0.16761004209072461 0 0.31842084544008659 0.1743143866605513 0 0.32081364376527699 0.17483911542322469 0 0.31842084544008659 0.1743143866605513 0 0.32081364376527699 0.17483911542322469 0 0.33470602886921019 0.1879110668698003 0 0.32081364376527699 0.17483911542322469 0 0.33324817522753741 0.1757496968180188 0 0.3373641500682697 0.16398793929233149 0 0.35365677477496499 0.17686630765840231 0 0.33470602886921019 0.1879110668698003 0 0.33324817522753741 0.1757496968180188 0 0.35365677477496499 0.17686630765840231 0 0.33470602886921019 0.1879110668698003 0 0.32081364376527699 0.17483911542322469 0 0.33324817522753741 0.1757496968180188 0 0.32081364376527699 0.17483911542322469 0 0.33324817522753741 0.1757496968180188 0 0.3373641500682697 0.16398793929233149 0 0.33267754365668328 0.1602834506146785 0 0.3373641500682697 0.16398793929233149 0 0.35028506032531193 0.1555164719907372 0 0.32081364376527699 0.17483911542322469 0 0.33267754365668328 0.1602834506146785 0 0.3373641500682697 0.16398793929233149 0 0.32081364376527699 0.17483911542322469 0 0.3373641500682697 0.16398793929233149 0 0.33267754365668328 0.1602834506146785 0 0.3373641500682697 0.16398793929233149 0 0.3373641500682697 0.16398793929233149 0 0.35517428418122921 0.16478264970034801 0 0.35028506032531193 0.1555164719907372 0 0.3373641500682697 0.16398793929233149 0 0.35517428418122921 0.16478264970034801 0 0.35365677477496499 0.17686630765840231 0 0.3373641500682697 0.16398793929233149 0 0.35028506032531193 0.1555164719907372 0 0.3373641500682697 0.16398793929233149 0 0.35365677477496499 0.17686630765840231 0 0.35517428418122921 0.16478264970034801 0 0.35365677477496499 0.17686630765840231 0 0.36655034145435161 0.16842943314342321 0 0.33470602886921019 0.1879110668698003 0 0.3561984040286752 0.18968098606523731 0 0.35365677477496499 0.17686630765840231 0 0.36989471232635329 0.18981386159770461 0 0.36955549856246178 0.17670389986338139 0 0.36655034145435161 0.16842943314342321 0 0.36989471232635329 0.18981386159770461 0 0.36655034145435161 0.16842943314342321 0 0.3561984040286752 0.18968098606523731 0 0.36989471232635329 0.18981386159770461 0 0.35365677477496499 0.17686630765840231 0 0.36989471232635329 0.18981386159770461 0 0.35365677477496499 0.17686630765840231 0 0.36655034145435161 0.16842943314342321 0 0.36989471232635329 0.18981386159770461 0 0.35365677477496499 0.17686630765840231 0 0.36989471232635329 0.18981386159770461 0 0.36955549856246178 0.17670389986338139 0 0.38021879505415562 0.18584380546120249 0 0.35517428418122921 0.16478264970034801 0 0.36655034145435161 0.16842943314342321 0 0.36320597058235321 0.14704500468914139 0 0.36655034145435161 0.16842943314342321 0 0.36320597058235321 0.14704500468914139 0 0.36655034145435161 0.16842943314342321 0 0.37362381498027281 0.15766578270041159 0 0.36320597058235321 0.14704500468914139 0 0.36655034145435161 0.16842943314342321 0 0.37362381498027281 0.15766578270041159 0 0.37695630763708149 0.16767397336244819 0 0.36955549856246178 0.17670389986338139 0 0.36655034145435161 0.16842943314342321 0 0.37695630763708149 0.16767397336244819 0 0.37362381498027281 0.15766578270041159 0 0.36320597058235321 0.14704500468914139 0 0.37609558478149402 0.14830930164959921 0 0.36320597058235321 0.14704500468914139 0 0.37709661486536272 0.13793774084312191 0 0.36320597058235321 0.14704500468914139 0 0.37709661486536272 0.13793774084312191 0 0.37609558478149402 0.14830930164959921 0 0.36320597058235321 0.14704500468914139 0 0.36134832263960021 0.1351669142962556 0 0.33267754365668328 0.1602834506146785 0 0.35028506032531193 0.1555164719907372 0 0.35155288800704482 0.13712553559308541 0 0.36320597058235321 0.14704500468914139 0 0.35028506032531193 0.1555164719907372 0 0.35517428418122921 0.16478264970034801 0 0.36320597058235321 0.14704500468914139 0 0.35028506032531193 0.1555164719907372 0 0.36320597058235321 0.14704500468914139 0 0.35028506032531193 0.1555164719907372 0 0.35155288800704482 0.13712553559308541 0 0.33232934167285838 0.14096933106139389 0 0.34861093313886832 0.12754848915366729 0 0.35155288800704482 0.13712553559308541 0 0.35155288800704482 0.13712553559308541 0 0.35689595948406111 0.13057019053965471 0 0.35155288800704482 0.13712553559308541 0 0.35689595948406111 0.13057019053965471 0 0.36134832263960021 0.1351669142962556 0 0.35155288800704482 0.13712553559308541 0 0.36134832263960021 0.1351669142962556 0 0.36320597058235321 0.14704500468914139 0 0.35155288800704482 0.13712553559308541 0 0.36134832263960021 0.1351669142962556 0 0.35689595948406111 0.13057019053965471 0 0.36002838906270479 0.12672705334189591 0 0.36085526418888042 0.132014221737107 0 0.34861093313886832 0.12754848915366729 0 0.35155288800704482 0.13712553559308541 0 0.35689595948406111 0.13057019053965471 0 0.34861093313886832 0.12754848915366729 0 0.35689595948406111 0.13057019053965471 0 0.35319092988301348 0.1253767182915437 0 0.35689595948406111 0.13057019053965471 0 0.36085526418888042 0.132014221737107 0 0.34861093313886832 0.12754848915366729 0 0.35689595948406111 0.13057019053965471 0 0.35689595948406111 0.13057019053965471 0 0.35319092988301348 0.1253767182915437 0 0.36002838906270479 0.12672705334189591 0 0.35689595948406111 0.13057019053965471 0 0.36002838906270479 0.12672705334189591 0 0.36462904193439089 0.1210825720403283 0 0.36002838906270479 0.12672705334189591 0 0.36558619835258099 0.12904670499636711 0 0.36462904193439089 0.1210825720403283 0 0.37625372212520553 0.13218654293292301 0 0.38061762841208691 0.13131396911547899 0 0.35689595948406111 0.13057019053965471 0 0.36085526418888042 0.132014221737107 0 0.36134832263960021 0.1351669142962556 0 0.36002838906270479 0.12672705334189591 0 0.36085526418888042 0.132014221737107 0 0.36558619835258099 0.12904670499636711 0 0.36002838906270479 0.12672705334189591 0 0.36085526418888042 0.132014221737107 0 0.36085526418888042 0.132014221737107 0 0.36558619835258099 0.12904670499636711 0 0.36661309787753088 0.13411420951173841 0 0.36320597058235321 0.14704500468914139 0 0.36134832263960021 0.1351669142962556 0 0.36661309787753088 0.13411420951173841 0 0.36085526418888042 0.132014221737107 0 0.36134832263960021 0.1351669142962556 0 0.36661309787753088 0.13411420951173841 0 0.36085526418888042 0.132014221737107 0 0.36134832263960021 0.1351669142962556 0 0.36085526418888042 0.132014221737107 0 0.36661309787753088 0.13411420951173841 0 0.36134832263960021 0.1351669142962556 0 0.36661309787753088 0.13411420951173841 0 0.36661309787753088 0.13411420951173841 0 0.37709661486536272 0.13793774084312191 0 0.36661309787753088 0.13411420951173841 0 0.37625372212520553 0.13218654293292301 0 0.36320597058235321 0.14704500468914139 0 0.36661309787753088 0.13411420951173841 0 0.37709661486536272 0.13793774084312191 0 0.36661309787753088 0.13411420951173841 0 0.37625372212520553 0.13218654293292301 0 0.37709661486536272 0.13793774084312191 0 0.36462904193439089 0.1210825720403283 0 0.37625372212520553 0.13218654293292301 0 0.36558619835258099 0.12904670499636711 0 0.36661309787753088 0.13411420951173841 0 0.37625372212520553 0.13218654293292301 0 0.36462904193439089 0.1210825720403283 0 0.36558619835258099 0.12904670499636711 0 0.37625372212520553 0.13218654293292301 0 0.37625372212520553 0.13218654293292301 0 0.38061762841208691 0.13131396911547899 0 0.37709661486536272 0.13793774084312191 0 0.38016708781723069 0.13592461555281979 0 0.37625372212520553 0.13218654293292301 0 0.38016708781723069 0.13592461555281979 0 0.37625372212520553 0.13218654293292301 0 0.37709661486536272 0.13793774084312191 0 0.38016708781723069 0.13592461555281979 0 0.37625372212520553 0.13218654293292301 0 0.38061762841208691 0.13131396911547899 0 0.38016708781723069 0.13592461555281979 0 0.38061762841208691 0.13131396911547899 0 0.38016708781723069 0.13592461555281979 0 0.38016708781723069 0.13592461555281979 0 0.38174026378244658 0.13742732357058449 0 0.37709661486536272 0.13793774084312191 0 0.38217406013912092 0.1397895784573612 0 0.37709661486536272 0.13793774084312191 0 0.38174026378244658 0.13742732357058449 0 0.38217406013912092 0.1397895784573612 0 0.37709661486536272 0.13793774084312191 0 0.38016708781723069 0.13592461555281979 0 0.38174026378244658 0.13742732357058449 0 0.38174026378244658 0.13742732357058449 0 0.38217406013912092 0.1397895784573612 0 0.38174026378244658 0.13742732357058449 0 0.39008739082820543 0.12942046678098409 0 0.38547283865732951 0.14099270361414751 0 0.38016708781723069 0.13592461555281979 0 0.38174026378244658 0.13742732357058449 0 0.39008739082820543 0.12942046678098409 0 0.38174026378244658 0.13742732357058449 0 0.38547283865732951 0.14099270361414751 0 0.38217406013912092 0.1397895784573612 0 0.38547283865732951 0.14099270361414751 0 0.38174026378244658 0.13742732357058449 0 0.38217406013912092 0.1397895784573612 0 0.38547283865732951 0.14099270361414751 0 0.38016708781723069 0.13592461555281979 0 0.39008739082820543 0.12942046678098409 0 0.38061762841208691 0.13131396911547899 0 0.38016708781723069 0.13592461555281979 0 0.39008739082820543 0.12942046678098409 0 0.38061762841208691 0.13131396911547899 0 0.39008739082820543 0.12942046678098409 0 0.39008739082820543 0.12942046678098409 0 0.41268694011442708 0.1249730644070905 0 0.39008739082820543 0.12942046678098409 0 0.39944049845369811 0.13802253731345279 0 0.41149935834458917 0.13117590642049559 0 0.39008739082820543 0.12942046678098409 0 0.41149935834458917 0.13117590642049559 0 0.41268694011442708 0.1249730644070905 0 0.39008739082820543 0.12942046678098409 0 0.39944049845369811 0.13802253731345279 0 0.38547283865732951 0.14099270361414751 0 0.38547283865732951 0.14099270361414751 0 0.4076007759080052 0.15153853874154791 0 0.40940638287599151 0.1497217070866875 0 0.38547283865732951 0.14099270361414751 0 0.40940638287599151 0.1497217070866875 0 0.38547283865732951 0.14099270361414751 0 0.40220116799831079 0.1569717137060353 0 0.39271484255498401 0.15605801794272239 0 0.38547283865732951 0.14099270361414751 0 0.40220116799831079 0.1569717137060353 0 0.38547283865732951 0.14099270361414751 0 0.40220116799831079 0.1569717137060353 0 0.4076007759080052 0.15153853874154791 0 0.39944049845369811 0.13802253731345279 0 0.38547283865732951 0.14099270361414751 0 0.40940638287599151 0.1497217070866875 0 0.40220116799831079 0.1569717137060353 0 0.4076007759080052 0.15153853874154791 0 0.39271484255498401 0.15605801794272239 0 0.38547283865732951 0.14099270361414751 0 0.3853108704460827 0.1568712006574447 0 0.38217406013912092 0.1397895784573612 0 0.3853108704460827 0.1568712006574447 0 0.38217406013912092 0.1397895784573612 0 0.38547283865732951 0.14099270361414751 0 0.3853108704460827 0.1568712006574447 0 0.38217406013912092 0.1397895784573612 0 0.37609558478149402 0.14830930164959921 0 0.3853108704460827 0.1568712006574447 0 0.37709661486536272 0.13793774084312191 0 0.38217406013912092 0.1397895784573612 0 0.37609558478149402 0.14830930164959921 0 0.37362381498027281 0.15766578270041159 0 0.37609558478149402 0.14830930164959921 0 0.3853108704460827 0.1568712006574447 0 0.37695630763708149 0.16767397336244819 0 0.3853108704460827 0.1568712006574447 0 0.38844768075304531 0.173952822857528 0 0.3853108704460827 0.1568712006574447 0 0.38844768075304531 0.173952822857528 0 0.39243028267026597 0.16406551392755039 0 0.3853108704460827 0.1568712006574447 0 0.38844768075304531 0.173952822857528 0 0.37362381498027281 0.15766578270041159 0 0.37695630763708149 0.16767397336244819 0 0.3853108704460827 0.1568712006574447 0 0.39271484255498401 0.15605801794272239 0 0.3853108704460827 0.1568712006574447 0 0.39243028267026597 0.16406551392755039 0 0.36955549856246178 0.17670389986338139 0 0.38021879505415562 0.18584380546120249 0 0.39309876289250328 0.17606205299393921 0 0.36955549856246178 0.17670389986338139 0 0.38844768075304531 0.173952822857528 0 0.39309876289250328 0.17606205299393921 0 0.36955549856246178 0.17670389986338139 0 0.39309876289250328 0.17606205299393921 0 0.36955549856246178 0.17670389986338139 0 0.37695630763708149 0.16767397336244819 0 0.38844768075304531 0.173952822857528 0 0.38021879505415562 0.18584380546120249 0 0.39309876289250328 0.17606205299393921 0 0.39141870623813119 0.19133403241627339 0 0.41151969820481932 0.17555985332032381 0 0.39968993742641762 0.19285753044477111 0 0.40295701683214291 0.17579329292139201 0 0.41151969820481932 0.17555985332032381 0 0.39968993742641762 0.19285753044477111 0 0.40295701683214291 0.17579329292139201 0 0.39968993742641762 0.19285753044477111 0 0.39679110584729882 0.18401172719409409 0 0.40295701683214291 0.17579329292139201 0 0.39968993742641762 0.19285753044477111 0 0.39309876289250328 0.17606205299393921 0 0.39141870623813119 0.19133403241627339 0 0.39679110584729882 0.18401172719409409 0 0.39309876289250328 0.17606205299393921 0 0.39141870623813119 0.19133403241627339 0 0.39309876289250328 0.17606205299393921 0 0.40295701683214291 0.17579329292139201 0 0.39679110584729882 0.18401172719409409 0 0.39309876289250328 0.17606205299393921 0 0.40295701683214291 0.17579329292139201 0 0.39309876289250328 0.17606205299393921 0 0.40295701683214291 0.17579329292139201 0 0.39364174200957702 0.17112628735703289 0 0.39309876289250328 0.17606205299393921 0 0.39364174200957702 0.17112628735703289 0 0.38844768075304531 0.173952822857528 0 0.39309876289250328 0.17606205299393921 0 0.39364174200957702 0.17112628735703289 0 0.39271484255498401 0.15605801794272239 0 0.39869149769430801 0.16050320213041419 0 0.40220116799831079 0.1569717137060353 0 0.39271484255498401 0.15605801794272239 0 0.39243028267026597 0.16406551392755039 0 0.39869149769430801 0.16050320213041419 0 0.39243028267026597 0.16406551392755039 0 0.39577506256359929 0.16588155262016019 0 0.39869149769430801 0.16050320213041419 0 0.38844768075304531 0.173952822857528 0 0.39243028267026597 0.16406551392755039 0 0.39364174200957702 0.17112628735703289 0 0.39243028267026597 0.16406551392755039 0 0.39364174200957702 0.17112628735703289 0 0.39577506256359929 0.16588155262016019 0 0.39577506256359929 0.16588155262016019 0 0.39939037620585421 0.16675927224626799 0 0.39869149769430801 0.16050320213041419 0 0.39364174200957702 0.17112628735703289 0 0.39577506256359929 0.16588155262016019 0 0.39939037620585421 0.16675927224626799 0 0.40295701683214291 0.17579329292139201 0 0.39364174200957702 0.17112628735703289 0 0.39939037620585421 0.16675927224626799 0 0.40295701683214291 0.17579329292139201 0 0.40588656192964451 0.16049202620233971 0 0.40816062666988379 0.17072158578677149 0 0.40295701683214291 0.17579329292139201 0 0.39939037620585421 0.16675927224626799 0 0.40588656192964451 0.16049202620233971 0 0.40295701683214291 0.17579329292139201 0 0.40588656192964451 0.16049202620233971 0 0.40588656192964451 0.16049202620233971 0 0.40220116799831079 0.1569717137060353 0 0.4076007759080052 0.15153853874154791 0 0.39939037620585421 0.16675927224626799 0 0.40588656192964451 0.16049202620233971 0 0.39869149769430801 0.16050320213041419 0 0.40588656192964451 0.16049202620233971 0 0.39869149769430801 0.16050320213041419 0 0.40220116799831079 0.1569717137060353 0 0.39869149769430801 0.16050320213041419 0 0.40220116799831079 0.1569717137060353 0 0.40588656192964451 0.16049202620233971 0 0.40220116799831079 0.1569717137060353 0 0.40588656192964451 0.16049202620233971 0 0.41298955132569709 0.15625734303972089 0 0.41062637125849538 0.16178116986723071 0 0.41062637125849538 0.16178116986723071 0 0.43093143636592929 0.1681291230784708 0 0.41062637125849538 0.16178116986723071 0 0.41735563344263682 0.17144735866352881 0 0.43093143636592929 0.1681291230784708 0 0.41298955132569709 0.15625734303972089 0 0.41062637125849538 0.16178116986723071 0 0.43142766465635018 0.15775327330079919 0 0.40588656192964451 0.16049202620233971 0 0.41062637125849538 0.16178116986723071 0 0.41735563344263682 0.17144735866352881 0 0.40588656192964451 0.16049202620233971 0 0.41519394477586341 0.17018730758148401 0 0.41735563344263682 0.17144735866352881 0 0.40588656192964451 0.16049202620233971 0 0.41735563344263682 0.17144735866352881 0 0.40588656192964451 0.16049202620233971 0 0.41096382392444641 0.16772156473981681 0 0.41519394477586341 0.17018730758148401 0 0.40588656192964451 0.16049202620233971 0 0.40816062666988379 0.17072158578677149 0 0.41096382392444641 0.16772156473981681 0 0.41150777150950257 0.1714714672392548 0 0.41096382392444641 0.16772156473981681 0 0.41519394477586341 0.17018730758148401 0 0.41096382392444641 0.16772156473981681 0 0.41519394477586341 0.17018730758148401 0 0.40816062666988379 0.17072158578677149 0 0.41150777150950257 0.1714714672392548 0 0.41096382392444641 0.16772156473981681 0 0.41519394477586341 0.17018730758148401 0 0.41735563344263682 0.17144735866352881 0 0.42137956983779562 0.17529104914550761 0 0.41702781005415129 0.18533157036413911 0 0.42678758959270718 0.1953566163022579 0 0.41151969820481932 0.17555985332032381 0 0.39968993742641762 0.19285753044477111 0 0.41048603813207102 0.1884621777418852 0 0.41151969820481932 0.17555985332032381 0 0.41702781005415129 0.18533157036413911 0 0.41048603813207102 0.1884621777418852 0 0.40295701683214291 0.17579329292139201 0 0.40816062666988379 0.17072158578677149 0 0.41151969820481932 0.17555985332032381 0 0.40295701683214291 0.17579329292139201 0 0.41151969820481932 0.17555985332032381 0 0.41519394477586341 0.17018730758148401 0 0.41151969820481932 0.17555985332032381 0 0.41150777150950257 0.1714714672392548 0 0.41519394477586341 0.17018730758148401 0 0.41151969820481932 0.17555985332032381 0 0.40816062666988379 0.17072158578677149 0 0.41150777150950257 0.1714714672392548 0 0.41151969820481932 0.17555985332032381 0 0.41151969820481932 0.17555985332032381 0 0.42137956983779562 0.17529104914550761 0 0.41702781005415129 0.18533157036413911 0 0.41735563344263682 0.17144735866352881 0 0.41151969820481932 0.17555985332032381 0 0.42137956983779562 0.17529104914550761 0 0.41151969820481932 0.17555985332032381 0 0.42137956983779562 0.17529104914550761 0 0.41519394477586341 0.17018730758148401 0 0.41735563344263682 0.17144735866352881 0 0.41151969820481932 0.17555985332032381 0 0.41735563344263682 0.17144735866352881 0 0.42137956983779562 0.17529104914550761 0 0.42383486630957468 0.17522411176877359 0 0.41735563344263682 0.17144735866352881 0 0.42383486630957468 0.17522411176877359 0 0.41735563344263682 0.17144735866352881 0 0.42137956983779562 0.17529104914550761 0 0.42383486630957468 0.17522411176877359 0 0.43093143636592929 0.1681291230784708 0 0.45123650147336308 0.17447707628971151 0 0.42137956983779562 0.17529104914550761 0 0.42678758959270718 0.1953566163022579 0 0.43828400512138221 0.19143827679079289 0 0.42383486630957468 0.17522411176877359 0 0.44916625347027861 0.18998980966605189 0 0.42137956983779562 0.17529104914550761 0 0.43828400512138221 0.19143827679079289 0 0.42137956983779562 0.17529104914550761 0 0.42383486630957468 0.17522411176877359 0 0.43828400512138221 0.19143827679079289 0 0.42383486630957468 0.17522411176877359 0 0.43828400512138221 0.19143827679079289 0 0.44916625347027861 0.18998980966605189 0 0.42137956983779562 0.17529104914550761 0 0.42383486630957468 0.17522411176877359 0 0.41062637125849538 0.16178116986723071 0 0.43142766465635018 0.15775327330079919 0 0.43093143636592929 0.1681291230784708 0 0.41735563344263682 0.17144735866352881 0 0.42383486630957468 0.17522411176877359 0 0.43093143636592929 0.1681291230784708 0 0.43142766465635018 0.15775327330079919 0 0.42477854598962272 0.13425398180445139 0 0.4493677092550642 0.14404668587817729 0 0.42477854598962272 0.13425398180445139 0 0.44015070910325421 0.1187862565222155 0 0.41149935834458917 0.13117590642049559 0 0.40940638287599151 0.1497217070866875 0 0.39944049845369811 0.13802253731345279 0 0.41149935834458917 0.13117590642049559 0 0.40940638287599151 0.1497217070866875 0 0.42477854598962272 0.13425398180445139 0 0.41149935834458917 0.13117590642049559 0 0.40940638287599151 0.1497217070866875 0 0.41149935834458917 0.13117590642049559 0 0.42493576185118281 0.1202398756582692 0 0.41268694011442708 0.1249730644070905 0 0.42477854598962272 0.13425398180445139 0 0.41149935834458917 0.13117590642049559 0 0.42493576185118281 0.1202398756582692 0 0.41149935834458917 0.13117590642049559 0 0.41268694011442708 0.1249730644070905 0 0.43142766465635018 0.15775327330079919 0 0.42477854598962272 0.13425398180445139 0 0.40940638287599151 0.1497217070866875 0 0.43142766465635018 0.15775327330079919 0 0.40940638287599151 0.1497217070866875 0 0.41298955132569709 0.15625734303972089 0 0.43142766465635018 0.15775327330079919 0 0.40940638287599151 0.1497217070866875 0 0.40588656192964451 0.16049202620233971 0 0.4076007759080052 0.15153853874154791 0 0.40588656192964451 0.16049202620233971 0 0.41298955132569709 0.15625734303972089 0 0.4076007759080052 0.15153853874154791 0 0.4076007759080052 0.15153853874154791 0 0.40940638287599151 0.1497217070866875 0 0.41298955132569709 0.15625734303972089 0 0.4076007759080052 0.15153853874154791 0 0.40940638287599151 0.1497217070866875 0 0.42477854598962272 0.13425398180445139 0 0.40940638287599151 0.1497217070866875 0 0.38744446946732852 0.25681666577303658 0 0.39155039568592481 0.235371058995027 0 0.40688248039953212 0.24817198651907729 0 0.39155039568592481 0.235371058995027 0 0.4068852278214779 0.22876760816889599 0 0.40688248039953212 0.24817198651907729 0 0.39155039568592481 0.235371058995027 0 0.40688248039953212 0.24817198651907729 0 0.38478262156910109 0.2516570865505221 0 0.38699283475207119 0.23156590083875569 0 0.36138675064106829 0.2488651006958936 0 0.38699283475207119 0.23156590083875569 0 0.378224298304771 0.224244952536515 0 0.38478262156910109 0.2516570865505221 0 0.39155039568592481 0.235371058995027 0 0.38699283475207119 0.23156590083875569 0 0.38744446946732852 0.25681666577303658 0 0.39155039568592481 0.235371058995027 0 0.38744446946732852 0.25681666577303658 0 0.38478262156910109 0.2516570865505221 0 0.39155039568592481 0.235371058995027 0 0.38478262156910109 0.2516570865505221 0 0.36138675064106829 0.2488651006958936 0 0.38699283475207119 0.23156590083875569 0 0.38699283475207119 0.23156590083875569 0 0.3897386495837592 0.20660601183860761 0 0.38699283475207119 0.23156590083875569 0 0.378224298304771 0.224244952536515 0 0.3897386495837592 0.20660601183860761 0 0.39155039568592481 0.235371058995027 0 0.38699283475207119 0.23156590083875569 0 0.38699283475207119 0.23156590083875569 0 0.378224298304771 0.224244952536515 0 0.39155039568592481 0.235371058995027 0 0.38699283475207119 0.23156590083875569 0 0.39683911837020219 0.20774760426000541 0 0.39155039568592481 0.235371058995027 0 0.39683911837020219 0.20774760426000541 0 0.4068852278214779 0.22876760816889599 0 0.39155039568592481 0.235371058995027 0 0.39683911837020219 0.20774760426000541 0 0.38699283475207119 0.23156590083875569 0 0.39683911837020219 0.20774760426000541 0 0.3897386495837592 0.20660601183860761 0 0.39683911837020219 0.20774760426000541 0 0.40688797524342329 0.20936322981871461 0 0.4068852278214779 0.22876760816889599 0 0.39683911837020219 0.20774760426000541 0 0.40688797524342329 0.20936322981871461 0 0.39683911837020219 0.20774760426000541 0 0.4068887736713851 0.2037241257587569 0 0.40688797524342329 0.20936322981871461 0 0.39683911837020219 0.20774760426000541 0 0.3897386495837592 0.20660601183860761 0 0.36952575518518183 0.2033562423157742 0 0.38145479684634648 0.21699670809192231 0 0.3897386495837592 0.20660601183860761 0 0.36952575518518183 0.2033562423157742 0 0.3897386495837592 0.20660601183860761 0 0.378224298304771 0.224244952536515 0 0.38145479684634648 0.21699670809192231 0 0.3897386495837592 0.20660601183860761 0 0.378224298304771 0.224244952536515 0 0.3897386495837592 0.20660601183860761 0 0.36952575518518183 0.2033562423157742 0 0.3897386495837592 0.20660601183860761 0 0.37707160809602153 0.195374366007945 0 0.3897386495837592 0.20660601183860761 0 0.37707160809602153 0.195374366007945 0 0.39141870623813119 0.19133403241627339 0 0.3897386495837592 0.20660601183860761 0 0.39141870623813119 0.19133403241627339 0 0.36989471232635329 0.18981386159770461 0 0.38021879505415562 0.18584380546120249 0 0.37707160809602153 0.195374366007945 0 0.38021879505415562 0.18584380546120249 0 0.37707160809602153 0.195374366007945 0 0.39141870623813119 0.19133403241627339 0 0.39679110584729882 0.18401172719409409 0 0.39141870623813119 0.19133403241627339 0 0.39968993742641762 0.19285753044477111 0 0.3897386495837592 0.20660601183860761 0 0.39141870623813119 0.19133403241627339 0 0.39968993742641762 0.19285753044477111 0 0.39683911837020219 0.20774760426000541 0 0.3897386495837592 0.20660601183860761 0 0.39968993742641762 0.19285753044477111 0 0.3897386495837592 0.20660601183860761 0 0.39968993742641762 0.19285753044477111 0 0.39683911837020219 0.20774760426000541 0 0.39968993742641762 0.19285753044477111 0 0.39683911837020219 0.20774760426000541 0 0.39968993742641762 0.19285753044477111 0 0.4068887736713851 0.2037241257587569 0 0.39968993742641762 0.19285753044477111 0 0.40867140257681478 0.19493845986770311 0 0.4068887736713851 0.2037241257587569 0 0.39968993742641762 0.19285753044477111 0 0.41048603813207102 0.1884621777418852 0 0.40867140257681478 0.19493845986770311 0 0.41048603813207102 0.1884621777418852 0 0.40867140257681478 0.19493845986770311 0 0.41552134239815158 0.19362347471248989 0 0.40867140257681478 0.19493845986770311 0 0.41152231375001452 0.20059130836234901 0 0.4068887736713851 0.2037241257587569 0 0.40867140257681478 0.19493845986770311 0 0.41152231375001452 0.20059130836234901 0 0.41552134239815158 0.19362347471248989 0 0.41826600351299847 0.20228543675990809 0 0.41552134239815158 0.19362347471248989 0 0.42678758959270718 0.1953566163022579 0 0.41152231375001452 0.20059130836234901 0 0.41826600351299847 0.20228543675990809 0 0.41552134239815158 0.19362347471248989 0 0.41702781005415129 0.18533157036413911 0 0.41048603813207102 0.1884621777418852 0 0.41552134239815158 0.19362347471248989 0 0.41702781005415129 0.18533157036413911 0 0.41552134239815158 0.19362347471248989 0 0.42678758959270718 0.1953566163022579 0 0.42678758959270718 0.1953566163022579 0 0.43966270641506638 0.20986098856407431 0 0.43828400512138221 0.19143827679079289 0 0.42413697242516413 0.21213647269206701 0 0.44555013217404349 0.21557921733650939 0 0.43966270641506638 0.20986098856407431 0 0.42678758959270718 0.1953566163022579 0 0.42413697242516413 0.21213647269206701 0 0.43966270641506638 0.20986098856407431 0 0.42413697242516413 0.21213647269206701 0 0.43256562532617659 0.22075881174464801 0 0.44555013217404349 0.21557921733650939 0 0.42413697242516413 0.21213647269206701 0 0.44555013217404349 0.21557921733650939 0 0.41826600351299847 0.20228543675990809 0 0.42678758959270718 0.1953566163022579 0 0.42413697242516413 0.21213647269206701 0 0.42413697242516413 0.21213647269206701 0 0.43966270641506638 0.20986098856407431 0 0.42413697242516413 0.21213647269206701 0 0.42359445487476749 0.21813067970453501 0 0.43256562532617659 0.22075881174464801 0 0.42413697242516413 0.21213647269206701 0 0.42359445487476749 0.21813067970453501 0 0.42135465563917113 0.2125442548741984 0 0.42413697242516413 0.21213647269206701 0 0.42135465563917113 0.2125442548741984 0 0.41826600351299847 0.20228543675990809 0 0.42413697242516413 0.21213647269206701 0 0.40688797524342329 0.20936322981871461 0 0.42413697242516413 0.21213647269206701 0 0.42135465563917113 0.2125442548741984 0 0.40688797524342329 0.20936322981871461 0 0.42135465563917113 0.2125442548741984 0 0.40688797524342329 0.20936322981871461 0 0.41611518025447197 0.22141695949702581 0 0.42359445487476749 0.21813067970453501 0 0.42135465563917113 0.2125442548741984 0 0.41611518025447197 0.22141695949702581 0 0.42413697242516413 0.21213647269206701 0 0.40688797524342329 0.20936322981871461 0 0.41152231375001452 0.20059130836234901 0 0.41826600351299847 0.20228543675990809 0 0.40688797524342329 0.20936322981871461 0 0.41152231375001452 0.20059130836234901 0 0.4068887736713851 0.2037241257587569 0 0.40688797524342329 0.20936322981871461 0 0.4068887736713851 0.2037241257587569 0 0.40688797524342329 0.20936322981871461 0 0.40688797524342329 0.20936322981871461 0 0.4068852278214779 0.22876760816889599 0 0.41611518025447197 0.22141695949702581 0 0.40688797524342329 0.20936322981871461 0 0.4068852278214779 0.22876760816889599 0 0.41611518025447197 0.22141695949702581 0 0.42440829858245549 0.22523527916049749 0 0.41925830285235283 0.23475098140272621 0 0.4068852278214779 0.22876760816889599 0 0.41611518025447197 0.22141695949702581 0 0.41925830285235283 0.23475098140272621 0 0.42359445487476749 0.21813067970453501 0 0.41611518025447197 0.22141695949702581 0 0.42440829858245549 0.22523527916049749 0 0.42359445487476749 0.21813067970453501 0 0.42440829858245549 0.22523527916049749 0 0.43256562532617659 0.22075881174464801 0 0.42440829858245549 0.22523527916049749 0 0.43256562532617659 0.22075881174464801 0 0.4318103626461976 0.23329730420820721 0 0.43256562532617659 0.22075881174464801 0 0.4318103626461976 0.23329730420820721 0 0.44196209441378181 0.2271851983590859 0 0.42440829858245549 0.22523527916049749 0 0.4318103626461976 0.23329730420820721 0 0.41925830285235283 0.23475098140272621 0 0.4318103626461976 0.23329730420820721 0 0.43177874053093152 0.248062112012498 0 0.41925830285235283 0.23475098140272621 0 0.4318103626461976 0.23329730420820721 0 0.43177874053093152 0.248062112012498 0 0.44192699069336661 0.23861813516144101 0 0.43177874053093152 0.248062112012498 0 0.41925830285235283 0.23475098140272621 0 0.40688248039953212 0.24817198651907729 0 0.4068852278214779 0.22876760816889599 0 0.40688248039953212 0.24817198651907729 0 0.4068852278214779 0.22876760816889599 0 0.41925830285235283 0.23475098140272621 0 0.40688248039953212 0.24817198651907729 0 0.46427494519719698 0.244682470428701 0 0.44834448075591737 0.249135481591751 0 0.45441679542514202 0.23348966720517461 0 0.46427494519719698 0.244682470428701 0 0.45441679542514202 0.23348966720517461 0 0.46934022165809047 0.23178680643577201 0 0.44834448075591737 0.249135481591751 0 0.44192699069336661 0.23861813516144101 0 0.45441679542514202 0.23348966720517461 0 0.43177874053093152 0.248062112012498 0 0.44834448075591737 0.249135481591751 0 0.44192699069336661 0.23861813516144101 0 0.44192699069336661 0.23861813516144101 0 0.44196209441378181 0.2271851983590859 0 0.45441679542514202 0.23348966720517461 0 0.44196209441378181 0.2271851983590859 0 0.45222307848397247 0.22381901122043071 0 0.45441679542514202 0.23348966720517461 0 0.4318103626461976 0.23329730420820721 0 0.44192699069336661 0.23861813516144101 0 0.44196209441378181 0.2271851983590859 0 0.43256562532617659 0.22075881174464801 0 0.44196209441378181 0.2271851983590859 0 0.44555013217404349 0.21557921733650939 0 0.44196209441378181 0.2271851983590859 0 0.45222307848397247 0.22381901122043071 0 0.44555013217404349 0.21557921733650939 0 0.45222307848397247 0.22381901122043071 0 0.45441679542514202 0.23348966720517461 0 0.46696329192292269 0.219021961980953 0 0.45222307848397247 0.22381901122043071 0 0.46696329192292269 0.219021961980953 0 0.44555013217404349 0.21557921733650939 0 0.45441679542514202 0.23348966720517461 0 0.46696329192292269 0.219021961980953 0 0.46934022165809047 0.23178680643577201 0 0.46696329192292269 0.219021961980953 0 0.45518844040496842 0.2075855044360784 0 0.47449764063098182 0.20475550756333161 0 0.46696329192292269 0.219021961980953 0 0.45264465237162499 0.21205468089387719 0 0.44555013217404349 0.21557921733650939 0 0.46696329192292269 0.219021961980953 0 0.44555013217404349 0.21557921733650939 0 0.45518844040496842 0.2075855044360784 0 0.47449764063098182 0.20475550756333161 0 0.46696329192292269 0.219021961980953 0 0.45518844040496842 0.2075855044360784 0 0.45264465237162499 0.21205468089387719 0 0.45264465237162499 0.21205468089387719 0 0.44555013217404349 0.21557921733650939 0 0.43966270641506638 0.20986098856407431 0 0.45518844040496842 0.2075855044360784 0 0.45264465237162499 0.21205468089387719 0 0.43966270641506638 0.20986098856407431 0 0.45518844040496842 0.2075855044360784 0 0.43966270641506638 0.20986098856407431 0 0.45518844040496842 0.2075855044360784 0 0.43828400512138221 0.19143827679079289 0 0.45518844040496842 0.2075855044360784 0 0.43966270641506638 0.20986098856407431 0 0.43828400512138221 0.19143827679079289 0 0.45518844040496842 0.2075855044360784 0 0.43828400512138221 0.19143827679079289 0 0.44916625347027861 0.18998980966605189 0 0.44916625347027861 0.18998980966605189 0 0.46903013439277252 0.19107689753856519 0 0.46135747718003361 0.18491535650662139 0 0.44916625347027861 0.18998980966605189 0 0.46903013439277252 0.19107689753856519 0 0.47449764063098182 0.20475550756333161 0 0.44916625347027861 0.18998980966605189 0 0.47449764063098182 0.20475550756333161 0 0.45518844040496842 0.2075855044360784 0 0.44916625347027861 0.18998980966605189 0 0.47449764063098182 0.20475550756333161 0 0.46903013439277252 0.19107689753856519 0 0.48483411259118392 0.19372529332959901 0 0.47529518809138432 0.18199852062722119 0 0.46903013439277252 0.19107689753856519 0 0.48483411259118392 0.19372529332959901 0 0.47449764063098182 0.20475550756333161 0 0.48483411259118392 0.19372529332959901 0 0.49999999999999861 0.18951996496473139 0 0.47529518809138432 0.18199852062722119 0 0.48483411259118392 0.19372529332959901 0 0.49999999999999761 0.20101782830073989 0 0.47449764063098182 0.20475550756333161 0 0.49999999999999761 0.20101782830073989 0 0.47449764063098182 0.20475550756333161 0 0.48483411259118392 0.19372529332959901 0 0.49999999999999861 0.18951996496473139 0 0.49999999999999761 0.20101782830073989 0 0.49999999999999761 0.20101782830073989 0 0.49035667801912292 0.21399976069204221 0 0.5 0.22599762985802679 0 0.49999999999999761 0.20101782830073989 0 0.49035667801912292 0.21399976069204221 0 0.47449764063098182 0.20475550756333161 0 0.46696329192292269 0.219021961980953 0 0.47449764063098182 0.20475550756333161 0 0.48004098371603288 0.22291744526335891 0 0.49035667801912292 0.21399976069204221 0 0.47449764063098182 0.20475550756333161 0 0.48004098371603288 0.22291744526335891 0 0.49035667801912292 0.21399976069204221 0 0.47449764063098182 0.20475550756333161 0 0.46934022165809047 0.23178680643577201 0 0.48004098371603288 0.22291744526335891 0 0.48100509202915798 0.2388224873006726 0 0.46696329192292269 0.219021961980953 0 0.46934022165809047 0.23178680643577201 0 0.48004098371603288 0.22291744526335891 0 0.48004098371603288 0.22291744526335891 0 0.5 0.22599762985802679 0 0.48100509202915798 0.2388224873006726 0 0.49035667801912292 0.21399976069204221 0 0.48004098371603288 0.22291744526335891 0 0.5 0.22599762985802679 0 0.5 0.25097743141531381 0 0.5 0.22599762985802679 0 0.48100509202915798 0.2388224873006726 0 0.47479196790678913 0.2562030606507627 0 0.5 0.25097743141531381 0 0.48100509202915798 0.2388224873006726 0 0.47479196790678913 0.2562030606507627 0 0.46427494519719698 0.244682470428701 0 0.48100509202915798 0.2388224873006726 0 0.46427494519719698 0.244682470428701 0 0.46934022165809047 0.23178680643577201 0 0.48100509202915798 0.2388224873006726 0 0.4493677092550642 0.14404668587817729 0 0.4668399884443204 0.1592150352718488 0 0.47172381206838648 0.1441629586695331 0 0.45691161617533438 0.12511403876967819 0 0.4493677092550642 0.14404668587817729 0 0.47172381206838648 0.1441629586695331 0 0.45691161617533438 0.12511403876967819 0 0.47172381206838648 0.1441629586695331 0 0.47462028775366522 0.1223989356443751 0 0.42477854598962272 0.13425398180445139 0 0.4493677092550642 0.14404668587817729 0 0.44015070910325421 0.1187862565222155 0 0.45691161617533438 0.12511403876967819 0 0.4493677092550642 0.14404668587817729 0 0.44015070910325421 0.1187862565222155 0 0.43142766465635018 0.15775327330079919 0 0.4493677092550642 0.14404668587817729 0 0.45344894643670902 0.16578483951491019 0 0.43142766465635018 0.15775327330079919 0 0.45344894643670902 0.16578483951491019 0 0.43093143636592929 0.1681291230784708 0 0.45123650147336308 0.17447707628971151 0 0.45344894643670902 0.16578483951491019 0 0.43142766465635018 0.15775327330079919 0 0.43093143636592929 0.1681291230784708 0 0.45344894643670902 0.16578483951491019 0 0.43093143636592929 0.1681291230784708 0 0.45123650147336308 0.17447707628971151 0 0.42383486630957468 0.17522411176877359 0 0.45123650147336308 0.17447707628971151 0 0.42383486630957468 0.17522411176877359 0 0.44916625347027861 0.18998980966605189 0 0.45123650147336308 0.17447707628971151 0 0.45123650147336308 0.17447707628971151 0 0.47529518809138432 0.18199852062722119 0 0.45123650147336308 0.17447707628971151 0 0.47529518809138432 0.18199852062722119 0 0.47547022821706753 0.17381640572902241 0 0.45123650147336308 0.17447707628971151 0 0.46135747718003361 0.18491535650662139 0 0.47529518809138432 0.18199852062722119 0 0.45123650147336308 0.17447707628971151 0 0.47547022821706753 0.17381640572902241 0 0.44916625347027861 0.18998980966605189 0 0.45123650147336308 0.17447707628971151 0 0.46135747718003361 0.18491535650662139 0 0.46903013439277252 0.19107689753856519 0 0.46135747718003361 0.18491535650662139 0 0.47529518809138432 0.18199852062722119 0 0.45344894643670902 0.16578483951491019 0 0.47547022821706753 0.17381640572902241 0 0.4493677092550642 0.14404668587817729 0 0.45344894643670902 0.16578483951491019 0 0.4668399884443204 0.1592150352718488 0 0.45123650147336308 0.17447707628971151 0 0.45344894643670902 0.16578483951491019 0 0.47547022821706753 0.17381640572902241 0 0.45344894643670902 0.16578483951491019 0 0.4668399884443204 0.1592150352718488 0 0.47547022821706753 0.17381640572902241 0 0.4668399884443204 0.1592150352718488 0 0.48360388242143099 0.16175145197999019 0 0.47547022821706753 0.17381640572902241 0 0.48360388242143099 0.16175145197999019 0 0.47547022821706753 0.17381640572902241 0 0.48729658388734021 0.17349399039793509 0 0.47529518809138432 0.18199852062722119 0 0.47547022821706753 0.17381640572902241 0 0.49540911796391152 0.1810884852943653 0 0.47547022821706753 0.17381640572902241 0 0.48729658388734021 0.17349399039793509 0 0.47547022821706753 0.17381640572902241 0 0.48729658388734021 0.17349399039793509 0 0.49540911796391152 0.1810884852943653 0 0.49999999999999861 0.18951996496473139 0 0.47529518809138432 0.18199852062722119 0 0.49540911796391152 0.1810884852943653 0 0.49999999999999861 0.18951996496473139 0 0.47529518809138432 0.18199852062722119 0 0.49999999999999861 0.18951996496473139 0 0.5 0.1725272442728453 0 0.49540911796391152 0.1810884852943653 0 0.47547022821706753 0.17381640572902241 0 0.49540911796391152 0.1810884852943653 0 0.48729658388734021 0.17349399039793509 0 0.5 0.1725272442728453 0 0.49540911796391152 0.1810884852943653 0 0.48360388242143099 0.16175145197999019 0 0.48729658388734021 0.17349399039793509 0 0.5 0.1725272442728453 0 0.48360388242143099 0.16175145197999019 0 0.5 0.1725272442728453 0 0.5 0.14403666024495071 0 0.48360388242143099 0.16175145197999019 0 0.5 0.14403666024495071 0 0.47172381206838648 0.1441629586695331 0 0.4668399884443204 0.1592150352718488 0 0.48360388242143099 0.16175145197999019 0 0.47172381206838648 0.1441629586695331 0 0.5 0.14403666024495071 0 0.47172381206838648 0.1441629586695331 0 0.47462028775366522 0.1223989356443751 0 0.5 0.14403666024495071 0 0.5 0.115546076217056 0 0.47462028775366522 0.1223989356443751 0 0.5 0.115546076217056 0 0.48579002957104273 0.1013007842031087 0 0.47462028775366522 0.1223989356443751 0 0.5 0.115546076217056 0 0.48579002957104273 0.1013007842031087 0 0.5 0.087055492189161421 0 0.48579002957104273 0.1013007842031087 0 0.47034858147792108 0.088400656880407782 0 0.45552287221688559 0.1033185312399796 0 0.48579002957104273 0.1013007842031087 0 0.47462028775366522 0.1223989356443751 0 0.45552287221688559 0.1033185312399796 0 0.48517429073895663 0.073482782520835982 0 0.5 0.087055492189161421 0 0.49999999999999473 0.058564908161266797 0 0.48517429073895663 0.073482782520835982 0 0.49457593965729879 0.060913580873753578 0 0.49999999999999473 0.058564908161266797 0 0.48517429073895663 0.073482782520835982 0 0.49999999999999473 0.058564908161266797 0 0.48579002957104273 0.1013007842031087 0 0.48517429073895663 0.073482782520835982 0 0.5 0.087055492189161421 0 0.48579002957104273 0.1013007842031087 0 0.48517429073895663 0.073482782520835982 0 0.47034858147792108 0.088400656880407782 0 0.48517429073895663 0.073482782520835982 0 0.47034858147792108 0.088400656880407782 0 0.46997305046774512 0.077044222380257946 0 0.48517429073895663 0.073482782520835982 0 0.47034858147792108 0.088400656880407782 0 0.46997305046774512 0.077044222380257946 0 0.46357679969211352 0.062849403317552191 0 0.47687359947815011 0.061367455412039501 0 0.48517429073895663 0.073482782520835982 0 0.46997305046774512 0.077044222380257946 0 0.49457593965729879 0.060913580873753578 0 0.46997305046774512 0.077044222380257946 0 0.49457593965729879 0.060913580873753578 0 0.46997305046774512 0.077044222380257946 0 0.47687359947815011 0.061367455412039501 0 0.49457593965729879 0.060913580873753578 0 0.46997305046774512 0.077044222380257946 0 0.46357679969211352 0.062849403317552191 0 0.44909424428436889 0.070776179220002594 0 0.46997305046774512 0.077044222380257946 0 0.44537016127819129 0.093174863886762022 0 0.47034858147792108 0.088400656880407782 0 0.46997305046774512 0.077044222380257946 0 0.44537016127819129 0.093174863886762022 0 0.46997305046774512 0.077044222380257946 0 0.44537016127819129 0.093174863886762022 0 0.44909424428436889 0.070776179220002594 0 0.44537016127819129 0.093174863886762022 0 0.44909424428436889 0.070776179220002594 0 0.43103392795243722 0.078851400643034864 0 0.44537016127819129 0.093174863886762022 0 0.43103392795243722 0.078851400643034864 0 0.44909424428436889 0.070776179220002594 0 0.43103392795243722 0.078851400643034864 0 0.43277734026870002 0.062770194969384796 0 0.47462028775366522 0.1223989356443751 0 0.45552287221688559 0.1033185312399796 0 0.45691161617533438 0.12511403876967819 0 0.47462028775366522 0.1223989356443751 0 0.45552287221688559 0.1033185312399796 0 0.47034858147792108 0.088400656880407782 0 0.44537016127819129 0.093174863886762022 0 0.45552287221688559 0.1033185312399796 0 0.47034858147792108 0.088400656880407782 0 0.45552287221688559 0.1033185312399796 0 0.44280095640812073 0.1046067133094033 0 0.44015070910325421 0.1187862565222155 0 0.43016008303415132 0.1031472015886558 0 0.45552287221688559 0.1033185312399796 0 0.44280095640812073 0.1046067133094033 0 0.44015070910325421 0.1187862565222155 0 0.44537016127819129 0.093174863886762022 0 0.45552287221688559 0.1033185312399796 0 0.44537016127819129 0.093174863886762022 0 0.45552287221688559 0.1033185312399796 0 0.44280095640812073 0.1046067133094033 0 0.44537016127819129 0.093174863886762022 0 0.43016008303415132 0.1031472015886558 0 0.44537016127819129 0.093174863886762022 0 0.44280095640812073 0.1046067133094033 0 0.43016008303415132 0.1031472015886558 0 0.45691161617533438 0.12511403876967819 0 0.45552287221688559 0.1033185312399796 0 0.44015070910325421 0.1187862565222155 0 0.45552287221688559 0.1033185312399796 0 0.44015070910325421 0.1187862565222155 0 0.42477854598962272 0.13425398180445139 0 0.44015070910325421 0.1187862565222155 0 0.42493576185118281 0.1202398756582692 0 0.42493576185118281 0.1202398756582692 0 0.41495494574704972 0.11312707537124379 0 0.43016008303415132 0.1031472015886558 0 0.44015070910325421 0.1187862565222155 0 0.42493576185118281 0.1202398756582692 0 0.43016008303415132 0.1031472015886558 0 0.42493576185118281 0.1202398756582692 0 0.41495494574704972 0.11312707537124379 0 0.41268694011442708 0.1249730644070905 0 0.41495494574704972 0.11312707537124379 0 0.41268694011442708 0.1249730644070905 0 0.41495494574704972 0.11312707537124379 0 0.41446214858850378 0.098626580389546886 0 0.39683131069100819 0.1054185583381443 0 0.41495494574704972 0.11312707537124379 0 0.41446214858850378 0.098626580389546886 0 0.43016008303415132 0.1031472015886558 0 0.41446214858850378 0.098626580389546886 0 0.43016008303415132 0.1031472015886558 0 0.42743555963591889 0.091315050754336047 0 0.44537016127819129 0.093174863886762022 0 0.43016008303415132 0.1031472015886558 0 0.42743555963591889 0.091315050754336047 0 0.41495494574704972 0.11312707537124379 0 0.43016008303415132 0.1031472015886558 0 0.43103392795243722 0.078851400643034864 0 0.42743555963591889 0.091315050754336047 0 0.41513278924984498 0.088840294411285048 0 0.44537016127819129 0.093174863886762022 0 0.43103392795243722 0.078851400643034864 0 0.42743555963591889 0.091315050754336047 0 0.43103392795243722 0.078851400643034864 0 0.43277734026870002 0.062770194969384796 0 0.41669769462668488 0.064527937399305985 0 0.43103392795243722 0.078851400643034864 0 0.41669769462668488 0.064527937399305985 0 0.43103392795243722 0.078851400643034864 0 0.41669769462668488 0.064527937399305985 0 0.40957146437727282 0.07090441204062492 0 0.43103392795243722 0.078851400643034864 0 0.40957146437727282 0.07090441204062492 0 0.41073766005874007 0.080925810399997355 0 0.40957146437727282 0.07090441204062492 0 0.41073766005874007 0.080925810399997355 0 0.40072044745372931 0.076802494998418736 0 0.40957146437727282 0.07090441204062492 0 0.4105501976390018 0.064827917298123455 0 0.40260858374900688 0.065037193561942985 0 0.4105501976390018 0.064827917298123455 0 0.40260858374900688 0.065037193561942985 0 0.41084469906165788 0.058680155423641377 0 0.41669769462668488 0.064527937399305985 0 0.40957146437727282 0.07090441204062492 0 0.41669769462668488 0.064527937399305985 0 0.40957146437727282 0.07090441204062492 0 0.4105501976390018 0.064827917298123455 0 0.41669769462668488 0.064527937399305985 0 0.4105501976390018 0.064827917298123455 0 0.41084469906165788 0.058680155423641377 0 0.43103392795243722 0.078851400643034864 0 0.41513278924984498 0.088840294411285048 0 0.41073766005874007 0.080925810399997355 0 0.41446214858850378 0.098626580389546886 0 0.42743555963591889 0.091315050754336047 0 0.41513278924984498 0.088840294411285048 0 0.41446214858850378 0.098626580389546886 0 0.41513278924984498 0.088840294411285048 0 0.40219144592640821 0.090345716272695373 0 0.41513278924984498 0.088840294411285048 0 0.41073766005874007 0.080925810399997355 0 0.40219144592640821 0.090345716272695373 0 0.40072044745372931 0.076802494998418736 0 0.38557474467503239 0.075316157177642729 0 0.38843240112554972 0.091878539565725698 0 0.41073766005874007 0.080925810399997355 0 0.40219144592640821 0.090345716272695373 0 0.40072044745372931 0.076802494998418736 0 0.40072044745372931 0.076802494998418736 0 0.38843240112554972 0.091878539565725698 0 0.40219144592640821 0.090345716272695373 0 0.40072044745372931 0.076802494998418736 0 0.38843240112554972 0.091878539565725698 0 0.40957146437727282 0.07090441204062492 0 0.40260858374900688 0.065037193561942985 0 0.40072044745372931 0.076802494998418736 0 0.40072044745372931 0.076802494998418736 0 0.39171945007091208 0.067980217530684769 0 0.38557474467503239 0.075316157177642729 0 0.40260858374900688 0.065037193561942985 0 0.40072044745372931 0.076802494998418736 0 0.39171945007091208 0.067980217530684769 0 0.40260858374900688 0.065037193561942985 0 0.39171945007091208 0.067980217530684769 0 0.39050071257606578 0.059203939519756117 0 0.3718500718099455 0.083569899554369831 0 0.38557474467503239 0.075316157177642729 0 0.38029075433068271 0.064925872639936613 0 0.39171945007091208 0.067980217530684769 0 0.38029075433068271 0.064925872639936613 0 0.39050071257606578 0.059203939519756117 0 0.39171945007091208 0.067980217530684769 0 0.38557474467503239 0.075316157177642729 0 0.38029075433068271 0.064925872639936613 0 0.3718500718099455 0.083569899554369831 0 0.38557474467503239 0.075316157177642729 0 0.38843240112554972 0.091878539565725698 0 0.38843240112554972 0.091878539565725698 0 0.37614435479736957 0.1069545841330323 0 0.39683131069100819 0.1054185583381443 0 0.38843240112554972 0.091878539565725698 0 0.37614435479736957 0.1069545841330323 0 0.3718500718099455 0.083569899554369831 0 0.38843240112554972 0.091878539565725698 0 0.37614435479736957 0.1069545841330323 0 0.38061762841208691 0.13131396911547899 0 0.37614435479736957 0.1069545841330323 0 0.38061762841208691 0.13131396911547899 0 0.39008739082820543 0.12942046678098409 0 0.37614435479736957 0.1069545841330323 0 0.39008739082820543 0.12942046678098409 0 0.37614435479736957 0.1069545841330323 0 0.39683131069100819 0.1054185583381443 0 0.39008739082820543 0.12942046678098409 0 0.41495494574704972 0.11312707537124379 0 0.39683131069100819 0.1054185583381443 0 0.39008739082820543 0.12942046678098409 0 0.41495494574704972 0.11312707537124379 0 0.39008739082820543 0.12942046678098409 0 0.41495494574704972 0.11312707537124379 0 0.41268694011442708 0.1249730644070905 0 0.41446214858850378 0.098626580389546886 0 0.40219144592640821 0.090345716272695373 0 0.39683131069100819 0.1054185583381443 0 0.40219144592640821 0.090345716272695373 0 0.38843240112554972 0.091878539565725698 0 0.39683131069100819 0.1054185583381443 0 0.39738024081517059 0.027124817638595519 0 0.40009304455852102 0.01303864361100044 0 0.38878706597869839 0.018820078121378508 0 0.39738024081517059 0.027124817638595519 0 0.4092741216168892 0.034194243094224808 0 0.41006252491247308 0.02044923755511947 0 0.39738024081517059 0.027124817638595519 0 0.40009304455852102 0.01303864361100044 0 0.41006252491247308 0.02044923755511947 0 0.40009304455852102 0.01303864361100044 0 0.40098280180780022 0.00038686880303394241 0 0.40981488909933989 0.01101742529942807 0 0.40009304455852102 0.01303864361100044 0 0.40098280180780022 0.00038686880303394241 0 0.38802553366166959 0.0073243690446029089 0 0.40098280180780022 0.00038686880303394241 0 0.38802553366166959 0.0073243690446029089 0 0.38867548818917508 -0.0070555593225876088 0 0.40009304455852102 0.01303864361100044 0 0.38802553366166959 0.0073243690446029089 0 0.38878706597869839 0.018820078121378508 0 0.37454864260371062 0.01887543306276827 0 0.38802553366166959 0.0073243690446029089 0 0.38878706597869839 0.018820078121378508 0 0.37194384359057009 5.2896986445487987e-05 0 0.37454864260371062 0.01887543306276827 0 0.38802553366166959 0.0073243690446029089 0 0.37194384359057009 5.2896986445487987e-05 0 0.38802553366166959 0.0073243690446029089 0 0.38867548818917508 -0.0070555593225876088 0 0.37077682834232761 0.039021008922369503 0 0.37454864260371062 0.01887543306276827 0 0.38392734681780533 0.028036592741606151 0 0.37454864260371062 0.01887543306276827 0 0.38878706597869839 0.018820078121378508 0 0.38392734681780533 0.028036592741606151 0 0.39738024081517059 0.027124817638595519 0 0.38878706597869839 0.018820078121378508 0 0.38392734681780533 0.028036592741606151 0 0.37077682834232761 0.039021008922369503 0 0.38848820942183809 0.038952965050375057 0 0.3808681944261707 0.051274931688473309 0 0.37077682834232761 0.039021008922369503 0 0.38392734681780533 0.028036592741606151 0 0.38848820942183809 0.038952965050375057 0 0.38848820942183809 0.038952965050375057 0 0.3808681944261707 0.051274931688473309 0 0.39369760848941993 0.048836606839789617 0 0.39738024081517059 0.027124817638595519 0 0.38392734681780533 0.028036592741606151 0 0.38848820942183809 0.038952965050375057 0 0.36755578882252182 0.060185214975707363 0 0.38029075433068271 0.064925872639936613 0 0.3808681944261707 0.051274931688473309 0 0.3808681944261707 0.051274931688473309 0 0.39050071257606578 0.059203939519756117 0 0.39369760848941993 0.048836606839789617 0 0.38029075433068271 0.064925872639936613 0 0.3808681944261707 0.051274931688473309 0 0.39050071257606578 0.059203939519756117 0 0.40260858374900688 0.065037193561942985 0 0.39050071257606578 0.059203939519756117 0 0.40180311413149622 0.054756924952893478 0 0.39050071257606578 0.059203939519756117 0 0.39369760848941993 0.048836606839789617 0 0.40180311413149622 0.054756924952893478 0 0.39369760848941993 0.048836606839789617 0 0.40180311413149622 0.054756924952893478 0 0.4038402606515693 0.045306599479421478 0 0.40180311413149622 0.054756924952893478 0 0.4038402606515693 0.045306599479421478 0 0.4094473646030421 0.050839564013102592 0 0.40260858374900688 0.065037193561942985 0 0.40180311413149622 0.054756924952893478 0 0.41084469906165788 0.058680155423641377 0 0.39738024081517059 0.027124817638595519 0 0.38848820942183809 0.038952965050375057 0 0.39836764463407309 0.038303197666791369 0 0.38848820942183809 0.038952965050375057 0 0.39369760848941993 0.048836606839789617 0 0.39836764463407309 0.038303197666791369 0 0.39369760848941993 0.048836606839789617 0 0.39836764463407309 0.038303197666791369 0 0.4038402606515693 0.045306599479421478 0 0.39836764463407309 0.038303197666791369 0 0.4038402606515693 0.045306599479421478 0 0.4092741216168892 0.034194243094224808 0 0.39738024081517059 0.027124817638595519 0 0.39836764463407309 0.038303197666791369 0 0.4092741216168892 0.034194243094224808 0 0.4092741216168892 0.034194243094224808 0 0.41660686266238622 0.047074644578566367 0 0.42674836812724348 0.02933751913884337 0 0.4038402606515693 0.045306599479421478 0 0.4092741216168892 0.034194243094224808 0 0.41660686266238622 0.047074644578566367 0 0.41669769462668488 0.064527937399305985 0 0.41084469906165788 0.058680155423641377 0 0.41660686266238622 0.047074644578566367 0 0.40180311413149622 0.054756924952893478 0 0.41084469906165788 0.058680155423641377 0 0.4094473646030421 0.050839564013102592 0 0.41669769462668488 0.064527937399305985 0 0.41084469906165788 0.058680155423641377 0 0.4038402606515693 0.045306599479421478 0 0.4094473646030421 0.050839564013102592 0 0.41660686266238622 0.047074644578566367 0 0.41084469906165788 0.058680155423641377 0 0.4094473646030421 0.050839564013102592 0 0.41660686266238622 0.047074644578566367 0 0.43277734026870002 0.062770194969384796 0 0.41669769462668488 0.064527937399305985 0 0.43630447583167381 0.046983999191328223 0 0.41669769462668488 0.064527937399305985 0 0.43630447583167381 0.046983999191328223 0 0.41669769462668488 0.064527937399305985 0 0.41660686266238622 0.047074644578566367 0 0.43630447583167381 0.046983999191328223 0 0.41660686266238622 0.047074644578566367 0 0.43630447583167381 0.046983999191328223 0 0.42674836812724348 0.02933751913884337 0 0.42674836812724348 0.02933751913884337 0 0.42143239708190883 0.013963201177992031 0 0.43764693774871122 0.013257247391322139 0 0.42674836812724348 0.02933751913884337 0 0.41006252491247308 0.02044923755511947 0 0.42143239708190883 0.013963201177992031 0 0.4092741216168892 0.034194243094224808 0 0.42674836812724348 0.02933751913884337 0 0.41006252491247308 0.02044923755511947 0 0.40098280180780022 0.00038686880303394241 0 0.41356261962683438 0.001542681643661086 0 0.40981488909933989 0.01101742529942807 0 0.41006252491247308 0.02044923755511947 0 0.40981488909933989 0.01101742529942807 0 0.42143239708190883 0.013963201177992031 0 0.40009304455852102 0.01303864361100044 0 0.41006252491247308 0.02044923755511947 0 0.40981488909933989 0.01101742529942807 0 0.41356261962683438 0.001542681643661086 0 0.40981488909933989 0.01101742529942807 0 0.42143239708190883 0.013963201177992031 0 0.41356261962683438 0.001542681643661086 0 0.42143239708190883 0.013963201177992031 0 0.42611408248641952 0.0037284257675162941 0 0.42143239708190883 0.013963201177992031 0 0.42611408248641952 0.0037284257675162941 0 0.43764693774871122 0.013257247391322139 0 0.42611408248641952 0.0037284257675162941 0 0.43764693774871122 0.013257247391322139 0 0.4373460866551811 -0.0017888244212357031 0 0.43764693774871122 0.013257247391322139 0 0.45513474110023239 0.0050379888500904912 0 0.4373460866551811 -0.0017888244212357031 0 0.43764693774871122 0.013257247391322139 0 0.4559112570366628 0.029440060983350589 0 0.45513474110023239 0.0050379888500904912 0 0.42674836812724348 0.02933751913884337 0 0.43764693774871122 0.013257247391322139 0 0.4559112570366628 0.029440060983350589 0 0.4559112570366628 0.029440060983350589 0 0.47332813657041012 0.034373622792053943 0 0.47551803824165201 0.01189612277537285 0 0.4559112570366628 0.029440060983350589 0 0.47551803824165201 0.01189612277537285 0 0.4559112570366628 0.029440060983350589 0 0.45513474110023239 0.0050379888500904912 0 0.47551803824165201 0.01189612277537285 0 0.45513474110023239 0.0050379888500904912 0 0.47551803824165201 0.01189612277537285 0 0.47015772734411071 -0.01272860484371466 0 0.44909424428436889 0.070776179220002594 0 0.43277734026870002 0.062770194969384796 0 0.45432191070970801 0.050486866541127627 0 0.43277734026870002 0.062770194969384796 0 0.43630447583167381 0.046983999191328223 0 0.45432191070970801 0.050486866541127627 0 0.43630447583167381 0.046983999191328223 0 0.4559112570366628 0.029440060983350589 0 0.43630447583167381 0.046983999191328223 0 0.42674836812724348 0.02933751913884337 0 0.4559112570366628 0.029440060983350589 0 0.43630447583167381 0.046983999191328223 0 0.4559112570366628 0.029440060983350589 0 0.45432191070970801 0.050486866541127627 0 0.45432191070970801 0.050486866541127627 0 0.47213611879175321 0.051294396722318843 0 0.47332813657041012 0.034373622792053943 0 0.4559112570366628 0.029440060983350589 0 0.45432191070970801 0.050486866541127627 0 0.47332813657041012 0.034373622792053943 0 0.46357679969211352 0.062849403317552191 0 0.44909424428436889 0.070776179220002594 0 0.45432191070970801 0.050486866541127627 0 0.46357679969211352 0.062849403317552191 0 0.45432191070970801 0.050486866541127627 0 0.47213611879175321 0.051294396722318843 0 0.48360207447031139 0.054970585386308349 0 0.47687359947815011 0.061367455412039501 0 0.47213611879175321 0.051294396722318843 0 0.46357679969211352 0.062849403317552191 0 0.47687359947815011 0.061367455412039501 0 0.47213611879175321 0.051294396722318843 0 0.48360207447031139 0.054970585386308349 0 0.47213611879175321 0.051294396722318843 0 0.48730663611682379 0.047945651998195712 0 0.47213611879175321 0.051294396722318843 0 0.47332813657041012 0.034373622792053943 0 0.48730663611682379 0.047945651998195712 0 0.47332813657041012 0.034373622792053943 0 0.48730663611682379 0.047945651998195712 0 0.5 0.02857761168557571 0 0.48730663611682379 0.047945651998195712 0 0.49999999999999473 0.058564908161266797 0 0.5 0.02857761168557571 0 0.48360207447031139 0.054970585386308349 0 0.47687359947815011 0.061367455412039501 0 0.49457593965729879 0.060913580873753578 0 0.48360207447031139 0.054970585386308349 0 0.48730663611682379 0.047945651998195712 0 0.49457593965729879 0.060913580873753578 0 0.48730663611682379 0.047945651998195712 0 0.49457593965729879 0.060913580873753578 0 0.49999999999999473 0.058564908161266797 0 0.47332813657041012 0.034373622792053943 0 0.47551803824165201 0.01189612277537285 0 0.5 0.02857761168557571 0 0.47551803824165201 0.01189612277537285 0 0.49512481944664111 -0.0056478154326048483 0 0.47551803824165201 0.01189612277537285 0 0.49512481944664111 -0.0056478154326048483 0 0.5 -0.001409684790115495 0 0.47551803824165201 0.01189612277537285 0 0.5 0.02857761168557571 0 0.5 -0.001409684790115495 0 0.49512481944664111 -0.0056478154326048483 0 0.5 -0.001409684790115495 0 0.5 -0.031396981265806811 0 0.49512481944664111 -0.0056478154326048483 0 0.48189153099520893 -0.0067617263863316039 0 0.48676553894843189 -0.02056660804437976 0 0.47551803824165201 0.01189612277537285 0 0.47015772734411071 -0.01272860484371466 0 0.48189153099520893 -0.0067617263863316039 0 0.47551803824165201 0.01189612277537285 0 0.49512481944664111 -0.0056478154326048483 0 0.48189153099520893 -0.0067617263863316039 0 0.47015772734411071 -0.01272860484371466 0 0.48189153099520893 -0.0067617263863316039 0 0.48676553894843189 -0.02056660804437976 0 0.47015772734411071 -0.01272860484371466 0 0.47747883380445227 -0.03203739839364908 0 0.45900505201414732 -0.031229106484138059 0 0.47015772734411071 -0.01272860484371466 0 0.48676553894843189 -0.02056660804437976 0 0.47747883380445227 -0.03203739839364908 0 0.48676553894843189 -0.02056660804437976 0 0.5 -0.031396981265806811 0 0.47747883380445227 -0.03203739839364908 0 0.49512481944664111 -0.0056478154326048483 0 0.48676553894843189 -0.02056660804437976 0 0.5 -0.031396981265806811 0 0.5 -0.031396981265806811 0 0.47804273358786159 -0.050613081568822681 0 0.47747883380445227 -0.03203739839364908 0 0.5 -0.031396981265806811 0 0.5 -0.061384277741498183 0 0.47804273358786159 -0.050613081568822681 0 0.5 -0.061384277741498183 0 0.47804273358786159 -0.050613081568822681 0 0.48264340653765031 -0.068854418585297283 0 0.47804273358786159 -0.050613081568822681 0 0.47747883380445227 -0.03203739839364908 0 0.45900505201414732 -0.031229106484138059 0 0.47804273358786159 -0.050613081568822681 0 0.45536732161460808 -0.053898995634840893 0 0.45900505201414732 -0.031229106484138059 0 0.47804273358786159 -0.050613081568822681 0 0.45536732161460808 -0.053898995634840893 0 0.46907662151694762 -0.068656634631070523 0 0.45536732161460808 -0.053898995634840893 0 0.43825728228719429 -0.051342266974974057 0 0.44194208144232999 -0.067080918030965275 0 0.45536732161460808 -0.053898995634840893 0 0.43825728228719429 -0.051342266974974057 0 0.44480941738583613 -0.038895932174427009 0 0.45536732161460808 -0.053898995634840893 0 0.44480941738583613 -0.038895932174427009 0 0.45900505201414732 -0.031229106484138059 0 0.44480941738583613 -0.038895932174427009 0 0.43848991431886331 -0.025276403518542771 0 0.45900505201414732 -0.031229106484138059 0 0.43825728228719429 -0.051342266974974057 0 0.44480941738583613 -0.038895932174427009 0 0.43041911923231191 -0.037082323536509323 0 0.44480941738583613 -0.038895932174427009 0 0.43848991431886331 -0.025276403518542771 0 0.43041911923231191 -0.037082323536509323 0 0.43848991431886331 -0.025276403518542771 0 0.44866007482767201 -0.01334278610958878 0 0.45900505201414732 -0.031229106484138059 0 0.43848991431886331 -0.025276403518542771 0 0.44866007482767201 -0.01334278610958878 0 0.43077820240684628 -0.015146368834675459 0 0.44866007482767201 -0.01334278610958878 0 0.4373460866551811 -0.0017888244212357031 0 0.43077820240684628 -0.015146368834675459 0 0.45513474110023239 0.0050379888500904912 0 0.44866007482767201 -0.01334278610958878 0 0.4373460866551811 -0.0017888244212357031 0 0.45513474110023239 0.0050379888500904912 0 0.47015772734411071 -0.01272860484371466 0 0.44866007482767201 -0.01334278610958878 0 0.47015772734411071 -0.01272860484371466 0 0.44866007482767201 -0.01334278610958878 0 0.45900505201414732 -0.031229106484138059 0 0.47010271720424512 -0.1171333114937244 0 0.48100451572853908 -0.1076410799749397 0 0.4751489153602223 -0.13191230484234981 0 0.46694262696062189 -0.11668713561765059 0 0.4751489153602223 -0.13191230484234981 0 0.47010271720424512 -0.1171333114937244 0 0.46694262696062189 -0.11668713561765059 0 0.4751489153602223 -0.13191230484234981 0 0.48100451572853908 -0.1076410799749397 0 0.46596642395285848 -0.1148759811386544 0 0.47010271720424512 -0.1171333114937244 0 0.48100451572853908 -0.1076410799749397 0 0.46596642395285848 -0.1148759811386544 0 0.50000000000001454 -0.1213588706928808 0 0.48100451572853908 -0.1076410799749397 0 0.4751489153602223 -0.13191230484234981 0 0.50000000000001454 -0.1213588706928808 0 0.49604260750422102 -0.10040617881122781 0 0.48100451572853908 -0.1076410799749397 0 0.49604260750422102 -0.10040617881122781 0 0.48100451572853908 -0.1076410799749397 0 0.50000000000001454 -0.1213588706928808 0 0.49604260750422102 -0.10040617881122781 0 0.5 -0.0913715742171895 0 0.49604260750422102 -0.10040617881122781 0 0.4840075395410135 -0.094636859222539518 0 0.5 -0.0913715742171895 0 0.49604260750422102 -0.10040617881122781 0 0.4840075395410135 -0.094636859222539518 0 0.48100451572853908 -0.1076410799749397 0 0.4840075395410135 -0.094636859222539518 0 0.48100451572853908 -0.1076410799749397 0 0.46974527066391081 -0.10348434578120549 0 0.48100451572853908 -0.1076410799749397 0 0.46974527066391081 -0.10348434578120549 0 0.46596642395285848 -0.1148759811386544 0 0.4840075395410135 -0.094636859222539518 0 0.46974527066391081 -0.10348434578120549 0 0.46936451334166679 -0.091251452936834371 0 0.46936451334166679 -0.091251452936834371 0 0.47678118709922102 -0.082017908002199075 0 0.46446867274319842 -0.080634597338661879 0 0.4840075395410135 -0.094636859222539518 0 0.47678118709922102 -0.082017908002199075 0 0.48931649048422099 -0.081600190982895976 0 0.4840075395410135 -0.094636859222539518 0 0.46936451334166679 -0.091251452936834371 0 0.47678118709922102 -0.082017908002199075 0 0.4840075395410135 -0.094636859222539518 0 0.5 -0.0913715742171895 0 0.48931649048422099 -0.081600190982895976 0 0.5 -0.061384277741498183 0 0.48931649048422099 -0.081600190982895976 0 0.48264340653765031 -0.068854418585297283 0 0.5 -0.061384277741498183 0 0.5 -0.0913715742171895 0 0.48931649048422099 -0.081600190982895976 0 0.47804273358786159 -0.050613081568822681 0 0.48264340653765031 -0.068854418585297283 0 0.46907662151694762 -0.068656634631070523 0 0.47678118709922102 -0.082017908002199075 0 0.48931649048422099 -0.081600190982895976 0 0.48264340653765031 -0.068854418585297283 0 0.47678118709922102 -0.082017908002199075 0 0.48264340653765031 -0.068854418585297283 0 0.46907662151694762 -0.068656634631070523 0 0.47678118709922102 -0.082017908002199075 0 0.46907662151694762 -0.068656634631070523 0 0.46446867274319842 -0.080634597338661879 0 0.45536732161460808 -0.053898995634840893 0 0.46907662151694762 -0.068656634631070523 0 0.45518386433691221 -0.071649747217923665 0 0.46907662151694762 -0.068656634631070523 0 0.45518386433691221 -0.071649747217923665 0 0.46446867274319842 -0.080634597338661879 0 0.45518386433691221 -0.071649747217923665 0 0.45521470670277592 -0.081922860594812158 0 0.46446867274319842 -0.080634597338661879 0 0.45536732161460808 -0.053898995634840893 0 0.45518386433691221 -0.071649747217923665 0 0.44194208144232999 -0.067080918030965275 0 0.45518386433691221 -0.071649747217923665 0 0.44194208144232999 -0.067080918030965275 0 0.44175299525488593 -0.08340185062861713 0 0.44194208144232999 -0.067080918030965275 0 0.44175299525488593 -0.08340185062861713 0 0.43330307822065101 -0.074388661489166369 0 0.45518386433691221 -0.071649747217923665 0 0.44175299525488593 -0.08340185062861713 0 0.45518386433691221 -0.071649747217923665 0 0.44648869134766528 -0.083871113628926464 0 0.45521470670277592 -0.081922860594812158 0 0.45033787933470848 -0.085880261641557251 0 0.44648869134766528 -0.083871113628926464 0 0.45521470670277592 -0.081922860594812158 0 0.45518386433691221 -0.071649747217923665 0 0.44648869134766528 -0.083871113628926464 0 0.44175299525488593 -0.08340185062861713 0 0.44648869134766528 -0.083871113628926464 0 0.44175299525488593 -0.08340185062861713 0 0.44175299525488593 -0.08340185062861713 0 0.4465104341692292 -0.091116370940837382 0 0.43972562537829241 -0.094684899687803831 0 0.44648869134766528 -0.083871113628926464 0 0.44175299525488593 -0.08340185062861713 0 0.4465104341692292 -0.091116370940837382 0 0.45033787933470848 -0.085880261641557251 0 0.4465104341692292 -0.091116370940837382 0 0.45815215164378342 -0.1003781213901058 0 0.45033787933470848 -0.085880261641557251 0 0.44648869134766528 -0.083871113628926464 0 0.4465104341692292 -0.091116370940837382 0 0.45033787933470848 -0.085880261641557251 0 0.45815215164378342 -0.1003781213901058 0 0.45033787933470848 -0.085880261641557251 0 0.45959442575139459 -0.08757858314699149 0 0.45815215164378342 -0.1003781213901058 0 0.45033787933470848 -0.085880261641557251 0 0.45959442575139459 -0.08757858314699149 0 0.45521470670277592 -0.081922860594812158 0 0.45959442575139459 -0.08757858314699149 0 0.45521470670277592 -0.081922860594812158 0 0.46446867274319842 -0.080634597338661879 0 0.46936451334166679 -0.091251452936834371 0 0.45959442575139459 -0.08757858314699149 0 0.45815215164378342 -0.1003781213901058 0 0.46936451334166679 -0.091251452936834371 0 0.45959442575139459 -0.08757858314699149 0 0.46446867274319842 -0.080634597338661879 0 0.46974527066391081 -0.10348434578120549 0 0.46936451334166679 -0.091251452936834371 0 0.45815215164378342 -0.1003781213901058 0 0.45815215164378342 -0.1003781213901058 0 0.46596642395285848 -0.1148759811386544 0 0.46974527066391081 -0.10348434578120549 0 0.45815215164378342 -0.1003781213901058 0 0.46596642395285848 -0.1148759811386544 0 0.45815215164378342 -0.1003781213901058 0 0.45641186395941469 -0.10989980735498441 0 0.46596642395285848 -0.1148759811386544 0 0.45815215164378342 -0.1003781213901058 0 0.44914193023709997 -0.10441263917700699 0 0.45641186395941469 -0.10989980735498441 0 0.4465104341692292 -0.091116370940837382 0 0.45815215164378342 -0.1003781213901058 0 0.4458406350034736 -0.097876937499814756 0 0.45815215164378342 -0.1003781213901058 0 0.4458406350034736 -0.097876937499814756 0 0.44914193023709997 -0.10441263917700699 0 0.4465104341692292 -0.091116370940837382 0 0.4458406350034736 -0.097876937499814756 0 0.43972562537829241 -0.094684899687803831 0 0.43972562537829241 -0.094684899687803831 0 0.4428661011898678 -0.10245075028163531 0 0.43410097361520678 -0.1016166292265487 0 0.4458406350034736 -0.097876937499814756 0 0.43972562537829241 -0.094684899687803831 0 0.4428661011898678 -0.10245075028163531 0 0.44552134171526558 -0.1136626458170029 0 0.43410097361520678 -0.1016166292265487 0 0.4428661011898678 -0.10245075028163531 0 0.44552134171526558 -0.1136626458170029 0 0.43410097361520678 -0.1016166292265487 0 0.44914193023709997 -0.10441263917700699 0 0.44552134171526558 -0.1136626458170029 0 0.45641186395941469 -0.10989980735498441 0 0.4428661011898678 -0.10245075028163531 0 0.44914193023709997 -0.10441263917700699 0 0.44552134171526558 -0.1136626458170029 0 0.4458406350034736 -0.097876937499814756 0 0.4428661011898678 -0.10245075028163531 0 0.44914193023709997 -0.10441263917700699 0 0.4462779008257588 -0.12434822808386339 0 0.44927561270296579 -0.1176225891574174 0 0.46327747224806548 -0.11616964925215439 0 0.44552134171526558 -0.1136626458170029 0 0.44927561270296579 -0.1176225891574174 0 0.46327747224806548 -0.11616964925215439 0 0.44552134171526558 -0.1136626458170029 0 0.44927561270296579 -0.1176225891574174 0 0.44552134171526558 -0.1136626458170029 0 0.44014736509398777 -0.11290388940748849 0 0.4462779008257588 -0.12434822808386339 0 0.44552134171526558 -0.1136626458170029 0 0.44014736509398777 -0.11290388940748849 0 0.43410097361520678 -0.1016166292265487 0 0.44552134171526558 -0.1136626458170029 0 0.44014736509398777 -0.11290388940748849 0 0.44014736509398777 -0.11290388940748849 0 0.4462779008257588 -0.12434822808386339 0 0.44014736509398777 -0.11290388940748849 0 0.4462779008257588 -0.12434822808386339 0 0.43446529261901312 -0.1227567697685831 0 0.44552134171526558 -0.1136626458170029 0 0.4462779008257588 -0.12434822808386339 0 0.44927561270296579 -0.1176225891574174 0 0.44552134171526558 -0.1136626458170029 0 0.45641186395941469 -0.10989980735498441 0 0.46327747224806548 -0.11616964925215439 0 0.44552134171526558 -0.1136626458170029 0 0.46327747224806548 -0.11616964925215439 0 0.4462779008257588 -0.12434822808386339 0 0.46327747224806548 -0.11616964925215439 0 0.4462779008257588 -0.12434822808386339 0 0.46327747224806548 -0.11616964925215439 0 0.46131528255232651 -0.12592322821421659 0 0.45641186395941469 -0.10989980735498441 0 0.46327747224806548 -0.11616964925215439 0 0.46596642395285848 -0.1148759811386544 0 0.46327747224806548 -0.11616964925215439 0 0.46596642395285848 -0.1148759811386544 0 0.47010271720424512 -0.1171333114937244 0 0.46596642395285848 -0.1148759811386544 0 0.46694262696062189 -0.11668713561765059 0 0.46327747224806548 -0.11616964925215439 0 0.46694262696062189 -0.11668713561765059 0 0.46327747224806548 -0.11616964925215439 0 0.46596642395285848 -0.1148759811386544 0 0.46694262696062189 -0.11668713561765059 0 0.46596642395285848 -0.1148759811386544 0 0.46694262696062189 -0.11668713561765059 0 0.47010271720424512 -0.1171333114937244 0 0.46694262696062189 -0.11668713561765059 0 0.46327747224806548 -0.11616964925215439 0 0.46694262696062189 -0.11668713561765059 0 0.46131528255232651 -0.12592322821421659 0 0.46694262696062189 -0.11668713561765059 0 0.46131528255232651 -0.12592322821421659 0 0.4751489153602223 -0.13191230484234981 0 0.41252858618920729 -0.11689268901783061 0 0.41653615251652421 -0.12671802851918071 0 0.40673205896942438 -0.12593210900504589 0 0.41252858618920729 -0.11689268901783061 0 0.40419048013085002 -0.11626931135712559 0 0.40673205896942438 -0.12593210900504589 0 0.41252858618920729 -0.11689268901783061 0 0.40419048013085002 -0.11626931135712559 0 0.41252858618920729 -0.11689268901783061 0 0.41249812039608691 -0.10900006862238459 0 0.40419048013085002 -0.11626931135712559 0 0.41249812039608691 -0.10900006862238459 0 0.40419048013085002 -0.11626931135712559 0 0.41252858618920729 -0.11689268901783061 0 0.42451386117456219 -0.1201145336778088 0 0.41249812039608691 -0.10900006862238459 0 0.41252858618920729 -0.11689268901783061 0 0.42451386117456219 -0.1201145336778088 0 0.41653615251652421 -0.12671802851918071 0 0.44014736509398777 -0.11290388940748849 0 0.42451386117456219 -0.1201145336778088 0 0.43446529261901312 -0.1227567697685831 0 0.44014736509398777 -0.11290388940748849 0 0.42451386117456219 -0.1201145336778088 0 0.41249812039608691 -0.10900006862238459 0 0.44014736509398777 -0.11290388940748849 0 0.41249812039608691 -0.10900006862238459 0 0.44014736509398777 -0.11290388940748849 0 0.42846663136057772 -0.1012731042009925 0 0.41249812039608691 -0.10900006862238459 0 0.42846663136057772 -0.1012731042009925 0 0.42488681696769848 -0.098159873371871417 0 0.41249812039608691 -0.10900006862238459 0 0.44014736509398777 -0.11290388940748849 0 0.43410097361520678 -0.1016166292265487 0 0.44014736509398777 -0.11290388940748849 0 0.43410097361520678 -0.1016166292265487 0 0.42846663136057772 -0.1012731042009925 0 0.43410097361520678 -0.1016166292265487 0 0.42989961783356012 -0.093773637917336186 0 0.43972562537829241 -0.094684899687803831 0 0.43410097361520678 -0.1016166292265487 0 0.42989961783356012 -0.093773637917336186 0 0.43410097361520678 -0.1016166292265487 0 0.42989961783356012 -0.093773637917336186 0 0.42813182475074169 -0.095320469100864461 0 0.43410097361520678 -0.1016166292265487 0 0.42813182475074169 -0.095320469100864461 0 0.42846663136057772 -0.1012731042009925 0 0.43410097361520678 -0.1016166292265487 0 0.42813182475074169 -0.095320469100864461 0 0.42989961783356012 -0.093773637917336186 0 0.42813182475074169 -0.095320469100864461 0 0.42813182475074169 -0.095320469100864461 0 0.42488681696769848 -0.098159873371871417 0 0.42813182475074169 -0.095320469100864461 0 0.42846663136057772 -0.1012731042009925 0 0.42488681696769848 -0.098159873371871417 0 0.42846663136057772 -0.1012731042009925 0 0.42488681696769848 -0.098159873371871417 0 0.42488681696769848 -0.098159873371871417 0 0.41249812039608691 -0.10900006862238459 0 0.40551575104399828 -0.097011703174781472 0 0.42488681696769848 -0.098159873371871417 0 0.41249812039608691 -0.10900006862238459 0 0.42488681696769848 -0.098159873371871417 0 0.40356589962074157 -0.079617868143409432 0 0.40551575104399828 -0.097011703174781472 0 0.42488681696769848 -0.098159873371871417 0 0.40356589962074157 -0.079617868143409432 0 0.42488681696769848 -0.098159873371871417 0 0.41424834010324763 -0.080676397654852017 0 0.40356589962074157 -0.079617868143409432 0 0.41424834010324763 -0.080676397654852017 0 0.40356589962074157 -0.079617868143409432 0 0.41424834010324763 -0.080676397654852017 0 0.4233677180503973 -0.081580042350923504 0 0.41424834010324763 -0.080676397654852017 0 0.4233677180503973 -0.081580042350923504 0 0.41371611207815723 -0.073760088148922126 0 0.42813182475074169 -0.095320469100864461 0 0.41424834010324763 -0.080676397654852017 0 0.42989961783356012 -0.093773637917336186 0 0.4233677180503973 -0.081580042350923504 0 0.44175299525488593 -0.08340185062861713 0 0.42989961783356012 -0.093773637917336186 0 0.4233677180503973 -0.081580042350923504 0 0.42989961783356012 -0.093773637917336186 0 0.42813182475074169 -0.095320469100864461 0 0.4233677180503973 -0.081580042350923504 0 0.42813182475074169 -0.095320469100864461 0 0.42488681696769848 -0.098159873371871417 0 0.41424834010324763 -0.080676397654852017 0 0.44175299525488593 -0.08340185062861713 0 0.4233677180503973 -0.081580042350923504 0 0.44175299525488593 -0.08340185062861713 0 0.4233677180503973 -0.081580042350923504 0 0.43330307822065101 -0.074388661489166369 0 0.44175299525488593 -0.08340185062861713 0 0.42989961783356012 -0.093773637917336186 0 0.44175299525488593 -0.08340185062861713 0 0.43972562537829241 -0.094684899687803831 0 0.42989961783356012 -0.093773637917336186 0 0.42813182475074169 -0.095320469100864461 0 0.41424834010324763 -0.080676397654852017 0 0.4233677180503973 -0.081580042350923504 0 0.4233677180503973 -0.081580042350923504 0 0.43330307822065101 -0.074388661489166369 0 0.42708617261150927 -0.065153737915346899 0 0.44194208144232999 -0.067080918030965275 0 0.43330307822065101 -0.074388661489166369 0 0.42708617261150927 -0.065153737915346899 0 0.4233677180503973 -0.081580042350923504 0 0.42708617261150927 -0.065153737915346899 0 0.41352890322223618 -0.063213176224686002 0 0.4233677180503973 -0.081580042350923504 0 0.41352890322223618 -0.063213176224686002 0 0.4233677180503973 -0.081580042350923504 0 0.41371611207815723 -0.073760088148922126 0 0.41352890322223618 -0.063213176224686002 0 0.41424834010324763 -0.080676397654852017 0 0.40371948693674942 -0.069570736365225677 0 0.41424834010324763 -0.080676397654852017 0 0.41371611207815723 -0.073760088148922126 0 0.40371948693674942 -0.069570736365225677 0 0.41424834010324763 -0.080676397654852017 0 0.40371948693674942 -0.069570736365225677 0 0.40356589962074157 -0.079617868143409432 0 0.41371611207815723 -0.073760088148922126 0 0.41352890322223618 -0.063213176224686002 0 0.40371948693674942 -0.069570736365225677 0 0.41352890322223618 -0.063213176224686002 0 0.40371948693674942 -0.069570736365225677 0 0.4035322780808282 -0.059023824440989768 0 0.3921035362979437 -0.069649479016281435 0 0.38021120906777162 -0.077303637680672249 0 0.40356589962074157 -0.079617868143409432 0 0.40371948693674942 -0.069570736365225677 0 0.3931906337702506 -0.058465075075599747 0 0.40371948693674942 -0.069570736365225677 0 0.3921035362979437 -0.069649479016281435 0 0.40356589962074157 -0.079617868143409432 0 0.3921035362979437 -0.069649479016281435 0 0.40356589962074157 -0.079617868143409432 0 0.40371948693674942 -0.069570736365225677 0 0.3921035362979437 -0.069649479016281435 0 0.3931906337702506 -0.058465075075599747 0 0.3921035362979437 -0.069649479016281435 0 0.38064117297514682 -0.059681089889152293 0 0.3921035362979437 -0.069649479016281435 0 0.38021120906777162 -0.077303637680672249 0 0.38064117297514682 -0.059681089889152293 0 0.3921035362979437 -0.069649479016281435 0 0.3931906337702506 -0.058465075075599747 0 0.38064117297514682 -0.059681089889152293 0 0.38021120906777162 -0.077303637680672249 0 0.38025050422239293 -0.092304808113782971 0 0.36899480441760618 -0.091795679767456964 0 0.38021120906777162 -0.077303637680672249 0 0.38025050422239293 -0.092304808113782971 0 0.3918300511757587 -0.09177975119929202 0 0.3918300511757587 -0.09177975119929202 0 0.40356589962074157 -0.079617868143409432 0 0.40551575104399828 -0.097011703174781472 0 0.38021120906777162 -0.077303637680672249 0 0.40356589962074157 -0.079617868143409432 0 0.38021120906777162 -0.077303637680672249 0 0.3918300511757587 -0.09177975119929202 0 0.40356589962074157 -0.079617868143409432 0 0.41249812039608691 -0.10900006862238459 0 0.40551575104399828 -0.097011703174781472 0 0.39479786705970638 -0.1065009545369496 0 0.41249812039608691 -0.10900006862238459 0 0.39479786705970638 -0.1065009545369496 0 0.3918300511757587 -0.09177975119929202 0 0.40551575104399828 -0.097011703174781472 0 0.39479786705970638 -0.1065009545369496 0 0.3918300511757587 -0.09177975119929202 0 0.39479786705970638 -0.1065009545369496 0 0.38583373110680891 -0.099726387077228112 0 0.39479786705970638 -0.1065009545369496 0 0.38583373110680891 -0.099726387077228112 0 0.37709761372332568 -0.104001840451515 0 0.38025050422239293 -0.092304808113782971 0 0.3918300511757587 -0.09177975119929202 0 0.38583373110680891 -0.099726387077228112 0 0.39479786705970638 -0.1065009545369496 0 0.37709761372332568 -0.104001840451515 0 0.39479786705970638 -0.1065009545369496 0 0.37709761372332568 -0.104001840451515 0 0.3878804987637578 -0.1150499363624042 0 0.38025050422239293 -0.092304808113782971 0 0.37804041518861708 -0.1023252761338256 0 0.36899480441760618 -0.091795679767456964 0 0.38025050422239293 -0.092304808113782971 0 0.38583373110680891 -0.099726387077228112 0 0.37804041518861708 -0.1023252761338256 0 0.38583373110680891 -0.099726387077228112 0 0.37804041518861708 -0.1023252761338256 0 0.37709761372332568 -0.104001840451515 0 0.37804041518861708 -0.1023252761338256 0 0.37709761372332568 -0.104001840451515 0 0.37709761372332568 -0.104001840451515 0 0.3878804987637578 -0.1150499363624042 0 0.37157051739666508 -0.11383056136768779 0 0.3878804987637578 -0.1150499363624042 0 0.37157051739666508 -0.11383056136768779 0 0.3878804987637578 -0.1150499363624042 0 0.39486538839856561 -0.12442883116800681 0 0.37861921626728889 -0.1292376646998222 0 0.3878804987637578 -0.1150499363624042 0 0.37157051739666508 -0.11383056136768779 0 0.37861921626728889 -0.1292376646998222 0 0.3878804987637578 -0.1150499363624042 0 0.40419048013085002 -0.11626931135712559 0 0.41249812039608691 -0.10900006862238459 0 0.39479786705970638 -0.1065009545369496 0 0.40419048013085002 -0.11626931135712559 0 0.39479786705970638 -0.1065009545369496 0 0.3878804987637578 -0.1150499363624042 0 0.40419048013085002 -0.11626931135712559 0 0.3878804987637578 -0.1150499363624042 0 0.39486538839856561 -0.12442883116800681 0 0.40419048013085002 -0.11626931135712559 0 0.39486538839856561 -0.12442883116800681 0 0.40419048013085002 -0.11626931135712559 0 0.39486538839856561 -0.12442883116800681 0 0.40419048013085002 -0.11626931135712559 0 0.40673205896942438 -0.12593210900504589 0 0.41989926172422809 -0.023664714847859199 0 0.407137385972346 -0.031799202741483512 0 0.40415014985531389 -0.0212729398019623 0 0.41989926172422809 -0.023664714847859199 0 0.40902971940734428 -0.01080324471337514 0 0.40415014985531389 -0.0212729398019623 0 0.41989926172422809 -0.023664714847859199 0 0.41788551605819813 -0.035709826250740408 0 0.407137385972346 -0.031799202741483512 0 0.40098280180780022 0.00038686880303394241 0 0.41356261962683438 0.001542681643661086 0 0.40902971940734428 -0.01080324471337514 0 0.41356261962683438 0.001542681643661086 0 0.42611408248641952 0.0037284257675162941 0 0.42058237131946252 -0.008332176954158086 0 0.41356261962683438 0.001542681643661086 0 0.40902971940734428 -0.01080324471337514 0 0.42058237131946252 -0.008332176954158086 0 0.41989926172422809 -0.023664714847859199 0 0.40902971940734428 -0.01080324471337514 0 0.42058237131946252 -0.008332176954158086 0 0.42611408248641952 0.0037284257675162941 0 0.42058237131946252 -0.008332176954158086 0 0.4373460866551811 -0.0017888244212357031 0 0.42058237131946252 -0.008332176954158086 0 0.4373460866551811 -0.0017888244212357031 0 0.43077820240684628 -0.015146368834675459 0 0.43848991431886331 -0.025276403518542771 0 0.41989926172422809 -0.023664714847859199 0 0.43077820240684628 -0.015146368834675459 0 0.43848991431886331 -0.025276403518542771 0 0.41989926172422809 -0.023664714847859199 0 0.43041911923231191 -0.037082323536509323 0 0.41989926172422809 -0.023664714847859199 0 0.42058237131946252 -0.008332176954158086 0 0.43077820240684628 -0.015146368834675459 0 0.43825728228719429 -0.051342266974974057 0 0.43041911923231191 -0.037082323536509323 0 0.42191912488852401 -0.049779515090947503 0 0.43041911923231191 -0.037082323536509323 0 0.42191912488852401 -0.049779515090947503 0 0.41788551605819813 -0.035709826250740408 0 0.41989926172422809 -0.023664714847859199 0 0.43041911923231191 -0.037082323536509323 0 0.41788551605819813 -0.035709826250740408 0 0.43825728228719429 -0.051342266974974057 0 0.44194208144232999 -0.067080918030965275 0 0.42708617261150927 -0.065153737915346899 0 0.43825728228719429 -0.051342266974974057 0 0.42708617261150927 -0.065153737915346899 0 0.42191912488852401 -0.049779515090947503 0 0.41352890322223618 -0.063213176224686002 0 0.42191912488852401 -0.049779515090947503 0 0.4036900883940765 -0.04484631009844782 0 0.41352890322223618 -0.063213176224686002 0 0.4036900883940765 -0.04484631009844782 0 0.41352890322223618 -0.063213176224686002 0 0.4036900883940765 -0.04484631009844782 0 0.4035322780808282 -0.059023824440989768 0 0.42708617261150927 -0.065153737915346899 0 0.41352890322223618 -0.063213176224686002 0 0.42191912488852401 -0.049779515090947503 0 0.42191912488852401 -0.049779515090947503 0 0.41788551605819813 -0.035709826250740408 0 0.4036900883940765 -0.04484631009844782 0 0.41788551605819813 -0.035709826250740408 0 0.4036900883940765 -0.04484631009844782 0 0.41788551605819813 -0.035709826250740408 0 0.407137385972346 -0.031799202741483512 0 0.4036900883940765 -0.04484631009844782 0 0.407137385972346 -0.031799202741483512 0 0.39925796577333289 -0.036572528728227187 0 0.39879354991000571 -0.02821320434619801 0 0.407137385972346 -0.031799202741483512 0 0.39925796577333289 -0.036572528728227187 0 0.4036900883940765 -0.04484631009844782 0 0.39925796577333289 -0.036572528728227187 0 0.4036900883940765 -0.04484631009844782 0 0.39925796577333289 -0.036572528728227187 0 0.4036900883940765 -0.04484631009844782 0 0.39141981350216892 -0.039399658741712661 0 0.4036900883940765 -0.04484631009844782 0 0.39141981350216892 -0.039399658741712661 0 0.38854660958546872 -0.047354969893144479 0 0.39925796577333289 -0.036572528728227187 0 0.39141981350216892 -0.039399658741712661 0 0.3903139964510941 -0.03076429884644458 0 0.39925796577333289 -0.036572528728227187 0 0.3903139964510941 -0.03076429884644458 0 0.39879354991000571 -0.02821320434619801 0 0.4036900883940765 -0.04484631009844782 0 0.38064117297514682 -0.059681089889152293 0 0.4036900883940765 -0.04484631009844782 0 0.38854660958546872 -0.047354969893144479 0 0.38064117297514682 -0.059681089889152293 0 0.4036900883940765 -0.04484631009844782 0 0.3931906337702506 -0.058465075075599747 0 0.38064117297514682 -0.059681089889152293 0 0.40371948693674942 -0.069570736365225677 0 0.4035322780808282 -0.059023824440989768 0 0.3931906337702506 -0.058465075075599747 0 0.4036900883940765 -0.04484631009844782 0 0.4035322780808282 -0.059023824440989768 0 0.3931906337702506 -0.058465075075599747 0 0.38854660958546872 -0.047354969893144479 0 0.38064117297514682 -0.059681089889152293 0 0.37917633464966838 -0.045041328738165957 0 0.38064117297514682 -0.059681089889152293 0 0.37917633464966838 -0.045041328738165957 0 0.36823228605153779 -0.048889544550238237 0 0.39141981350216892 -0.039399658741712661 0 0.37989091210332582 -0.033987392855839363 0 0.3903139964510941 -0.03076429884644458 0 0.39141981350216892 -0.039399658741712661 0 0.37917633464966838 -0.045041328738165957 0 0.37989091210332582 -0.033987392855839363 0 0.39141981350216892 -0.039399658741712661 0 0.38854660958546872 -0.047354969893144479 0 0.37917633464966838 -0.045041328738165957 0 0.37917633464966838 -0.045041328738165957 0 0.37989091210332582 -0.033987392855839363 0 0.37059520767247078 -0.038334721973531952 0 0.37989091210332582 -0.033987392855839363 0 0.37947116177194778 -0.018922819134477079 0 0.3664058115903292 -0.028020672367795391 0 0.37989091210332582 -0.033987392855839363 0 0.37947116177194778 -0.018922819134477079 0 0.3903139964510941 -0.03076429884644458 0 0.37947116177194778 -0.018922819134477079 0 0.3903139964510941 -0.03076429884644458 0 0.39310825149794182 -0.020657051612872498 0 0.3903139964510941 -0.03076429884644458 0 0.39310825149794182 -0.020657051612872498 0 0.39879354991000571 -0.02821320434619801 0 0.39310825149794182 -0.020657051612872498 0 0.40415014985531389 -0.0212729398019623 0 0.39879354991000571 -0.02821320434619801 0 0.39310825149794182 -0.020657051612872498 0 0.40415014985531389 -0.0212729398019623 0 0.39868193058654039 -0.01190628132943942 0 0.407137385972346 -0.031799202741483512 0 0.40415014985531389 -0.0212729398019623 0 0.39879354991000571 -0.02821320434619801 0 0.40098280180780022 0.00038686880303394241 0 0.40902971940734428 -0.01080324471337514 0 0.39868193058654039 -0.01190628132943942 0 0.40902971940734428 -0.01080324471337514 0 0.40415014985531389 -0.0212729398019623 0 0.39868193058654039 -0.01190628132943942 0 0.39310825149794182 -0.020657051612872498 0 0.39868193058654039 -0.01190628132943942 0 0.38867548818917508 -0.0070555593225876088 0 0.40098280180780022 0.00038686880303394241 0 0.39868193058654039 -0.01190628132943942 0 0.38867548818917508 -0.0070555593225876088 0 0.37194384359057009 5.2896986445487987e-05 0 0.37947116177194778 -0.018922819134477079 0 0.38867548818917508 -0.0070555593225876088 0 0.37947116177194778 -0.018922819134477079 0 0.39310825149794182 -0.020657051612872498 0 0.38867548818917508 -0.0070555593225876088 0 0.37194384359057009 5.2896986445487987e-05 0 0.37947116177194778 -0.018922819134477079 0 0.36244380452277608 -0.01383772020197052 0 0.37194384359057009 5.2896986445487987e-05 0 0.35096453461711818 0.00054393289997440794 0 0.36244380452277608 -0.01383772020197052 0 0.37947116177194778 -0.018922819134477079 0 0.36244380452277608 -0.01383772020197052 0 0.3664058115903292 -0.028020672367795391 0 0.3664058115903292 -0.028020672367795391 0 0.34777994991590883 -0.02412367128805868 0 0.35582339912792899 -0.038097999211323917 0 0.36244380452277608 -0.01383772020197052 0 0.3664058115903292 -0.028020672367795391 0 0.34777994991590883 -0.02412367128805868 0 0.35096453461711818 0.00054393289997440794 0 0.34777994991590883 -0.02412367128805868 0 0.35096453461711818 0.00054393289997440794 0 0.36244380452277608 -0.01383772020197052 0 0.34777994991590883 -0.02412367128805868 0 0.35096453461711818 0.00054393289997440794 0 0.34777994991590883 -0.02412367128805868 0 0.33680323436175491 -0.018522799483293169 0 0.35096453461711818 0.00054393289997440794 0 0.33311282974394713 0.009365580851112049 0 0.32672122099330081 -0.01035154374193327 0 0.35096453461711818 0.00054393289997440794 0 0.33680323436175491 -0.018522799483293169 0 0.32672122099330081 -0.01035154374193327 0 0.33680323436175491 -0.018522799483293169 0 0.32506415431111801 -0.02613682293518442 0 0.32672122099330081 -0.01035154374193327 0 0.34777994991590883 -0.02412367128805868 0 0.33680323436175491 -0.018522799483293169 0 0.33412432631481198 -0.031795454891294109 0 0.33680323436175491 -0.018522799483293169 0 0.32506415431111801 -0.02613682293518442 0 0.33412432631481198 -0.031795454891294109 0 0.32506415431111801 -0.02613682293518442 0 0.31538659411855369 -0.019685896482243202 0 0.32672122099330081 -0.01035154374193327 0 0.32506415431111801 -0.02613682293518442 0 0.31538659411855369 -0.019685896482243202 0 0.31133669078501691 -0.033799797093317582 0 0.33311282974394713 0.009365580851112049 0 0.31204676142463961 0.00073078847262742224 0 0.32672122099330081 -0.01035154374193327 0 0.31204676142463961 0.00073078847262742224 0 0.31538659411855369 -0.019685896482243202 0 0.32672122099330081 -0.01035154374193327 0 0.32084232991582068 -0.053557382313559658 0 0.31133669078501691 -0.033799797093317582 0 0.3069969538888121 -0.045608511430141718 0 0.32084232991582068 -0.053557382313559658 0 0.32754409371762983 -0.040864396015097802 0 0.31133669078501691 -0.033799797093317582 0 0.32084232991582068 -0.053557382313559658 0 0.31133669078501691 -0.033799797093317582 0 0.32506415431111801 -0.02613682293518442 0 0.32754409371762983 -0.040864396015097802 0 0.31133669078501691 -0.033799797093317582 0 0.34777994991590883 -0.02412367128805868 0 0.33837474325646683 -0.040098257025234667 0 0.34459536521469919 -0.048791275476091883 0 0.32754409371762983 -0.040864396015097802 0 0.33837474325646683 -0.040098257025234667 0 0.33902258758589598 -0.051965246801062903 0 0.34777994991590883 -0.02412367128805868 0 0.33412432631481198 -0.031795454891294109 0 0.33837474325646683 -0.040098257025234667 0 0.32506415431111801 -0.02613682293518442 0 0.32754409371762983 -0.040864396015097802 0 0.33412432631481198 -0.031795454891294109 0 0.32754409371762983 -0.040864396015097802 0 0.33412432631481198 -0.031795454891294109 0 0.33837474325646683 -0.040098257025234667 0 0.34459536521469919 -0.048791275476091883 0 0.33660731696377671 -0.063113105950805784 0 0.34141078051348622 -0.073458879664124566 0 0.33902258758589598 -0.051965246801062903 0 0.34459536521469919 -0.048791275476091883 0 0.33660731696377671 -0.063113105950805784 0 0.33837474325646683 -0.040098257025234667 0 0.33902258758589598 -0.051965246801062903 0 0.34459536521469919 -0.048791275476091883 0 0.32084232991582068 -0.053557382313559658 0 0.33902258758589598 -0.051965246801062903 0 0.32084232991582068 -0.053557382313559658 0 0.33902258758589598 -0.051965246801062903 0 0.33660731696377671 -0.063113105950805784 0 0.34459536521469919 -0.048791275476091883 0 0.34141078051348622 -0.073458879664124566 0 0.32084232991582068 -0.053557382313559658 0 0.32754409371762983 -0.040864396015097802 0 0.33902258758589598 -0.051965246801062903 0 0.34981628768612871 -0.062201850935926693 0 0.34459536521469919 -0.048791275476091883 0 0.34141078051348622 -0.073458879664124566 0 0.34981628768612871 -0.062201850935926693 0 0.34459536521469919 -0.048791275476091883 0 0.35571132304392161 -0.052089292001197947 0 0.34459536521469919 -0.048791275476091883 0 0.35571132304392161 -0.052089292001197947 0 0.35097750932561472 -0.040775559494168112 0 0.34777994991590883 -0.02412367128805868 0 0.34459536521469919 -0.048791275476091883 0 0.34777994991590883 -0.02412367128805868 0 0.34459536521469919 -0.048791275476091883 0 0.35097750932561472 -0.040775559494168112 0 0.34777994991590883 -0.02412367128805868 0 0.35097750932561472 -0.040775559494168112 0 0.35582339912792899 -0.038097999211323917 0 0.35571132304392161 -0.052089292001197947 0 0.35097750932561472 -0.040775559494168112 0 0.35582339912792899 -0.038097999211323917 0 0.3664058115903292 -0.028020672367795391 0 0.35582339912792899 -0.038097999211323917 0 0.37059520767247078 -0.038334721973531952 0 0.35571132304392161 -0.052089292001197947 0 0.35582339912792899 -0.038097999211323917 0 0.36823228605153779 -0.048889544550238237 0 0.35582339912792899 -0.038097999211323917 0 0.37059520767247078 -0.038334721973531952 0 0.36823228605153779 -0.048889544550238237 0 0.35582339912792899 -0.038097999211323917 0 0.36823228605153779 -0.048889544550238237 0 0.37917633464966838 -0.045041328738165957 0 0.37059520767247078 -0.038334721973531952 0 0.36823228605153779 -0.048889544550238237 0 0.37989091210332582 -0.033987392855839363 0 0.3664058115903292 -0.028020672367795391 0 0.37059520767247078 -0.038334721973531952 0 0.38064117297514682 -0.059681089889152293 0 0.36823228605153779 -0.048889544550238237 0 0.35685651851480149 -0.074989407217935733 0 0.35571132304392161 -0.052089292001197947 0 0.36823228605153779 -0.048889544550238237 0 0.35685651851480149 -0.074989407217935733 0 0.38064117297514682 -0.059681089889152293 0 0.36823228605153779 -0.048889544550238237 0 0.38021120906777162 -0.077303637680672249 0 0.35685651851480149 -0.074989407217935733 0 0.38021120906777162 -0.077303637680672249 0 0.38064117297514682 -0.059681089889152293 0 0.35685651851480149 -0.074989407217935733 0 0.38064117297514682 -0.059681089889152293 0 0.35685651851480149 -0.074989407217935733 0 0.38021120906777162 -0.077303637680672249 0 0.36899480441760618 -0.091795679767456964 0 0.35685651851480149 -0.074989407217935733 0 0.35685651851480149 -0.074989407217935733 0 0.33979557032547592 -0.085970201967237619 0 0.35685651851480149 -0.074989407217935733 0 0.34141078051348622 -0.073458879664124566 0 0.33979557032547592 -0.085970201967237619 0 0.36899480441760618 -0.091795679767456964 0 0.35133021724621732 -0.090358624288707848 0 0.35685651851480149 -0.074989407217935733 0 0.35133021724621732 -0.090358624288707848 0 0.35685651851480149 -0.074989407217935733 0 0.33979557032547592 -0.085970201967237619 0 0.35133021724621732 -0.090358624288707848 0 0.34278072963215761 -0.099156609890653571 0 0.33908492326713102 -0.091474831926053518 0 0.35685651851480149 -0.074989407217935733 0 0.34141078051348622 -0.073458879664124566 0 0.34981628768612871 -0.062201850935926693 0 0.35571132304392161 -0.052089292001197947 0 0.35685651851480149 -0.074989407217935733 0 0.34981628768612871 -0.062201850935926693 0 0.35685651851480149 -0.074989407217935733 0 0.34141078051348622 -0.073458879664124566 0 0.37157051739666508 -0.11383056136768779 0 0.34902979160698289 -0.11214536033820049 0 0.37157051739666508 -0.11383056136768779 0 0.35985975451134489 -0.13465556844418089 0 0.37157051739666508 -0.11383056136768779 0 0.34902979160698289 -0.11214536033820049 0 0.35985975451134489 -0.13465556844418089 0 0.36899480441760618 -0.091795679767456964 0 0.35133021724621732 -0.090358624288707848 0 0.35993917167774181 -0.10157922517108341 0 0.37709761372332568 -0.104001840451515 0 0.37157051739666508 -0.11383056136768779 0 0.35993917167774181 -0.10157922517108341 0 0.37157051739666508 -0.11383056136768779 0 0.35993917167774181 -0.10157922517108341 0 0.34902979160698289 -0.11214536033820049 0 0.37709761372332568 -0.104001840451515 0 0.36899480441760618 -0.091795679767456964 0 0.35993917167774181 -0.10157922517108341 0 0.37709761372332568 -0.104001840451515 0 0.35993917167774181 -0.10157922517108341 0 0.37709761372332568 -0.104001840451515 0 0.37157051739666508 -0.11383056136768779 0 0.37804041518861708 -0.1023252761338256 0 0.37709761372332568 -0.104001840451515 0 0.36899480441760618 -0.091795679767456964 0 0.35133021724621732 -0.090358624288707848 0 0.35993917167774181 -0.10157922517108341 0 0.34278072963215761 -0.099156609890653571 0 0.35993917167774181 -0.10157922517108341 0 0.34278072963215761 -0.099156609890653571 0 0.35993917167774181 -0.10157922517108341 0 0.34902979160698289 -0.11214536033820049 0 0.34278072963215761 -0.099156609890653571 0 0.34902979160698289 -0.11214536033820049 0 0.34278072963215761 -0.099156609890653571 0 0.34902979160698289 -0.11214536033820049 0 0.33768404495202858 -0.12802866298445509 0 0.35985975451134489 -0.13465556844418089 0 0.34902979160698289 -0.11214536033820049 0 0.35985975451134489 -0.13465556844418089 0 0.34902979160698289 -0.11214536033820049 0 0.32882617587675039 -0.1106348875013685 0 0.32882617587675039 -0.1106348875013685 0 0.32234267619794671 -0.1209311329733736 0 0.33768404495202858 -0.12802866298445509 0 0.34902979160698289 -0.11214536033820049 0 0.32882617587675039 -0.1106348875013685 0 0.33768404495202858 -0.12802866298445509 0 0.34902979160698289 -0.11214536033820049 0 0.32882617587675039 -0.1106348875013685 0 0.33762028453198378 -0.10281983668706331 0 0.32882617587675039 -0.1106348875013685 0 0.33762028453198378 -0.10281983668706331 0 0.32353062642851288 -0.096438671161299783 0 0.34902979160698289 -0.11214536033820049 0 0.33762028453198378 -0.10281983668706331 0 0.34278072963215761 -0.099156609890653571 0 0.33762028453198378 -0.10281983668706331 0 0.33817711998985522 -0.0985066222615327 0 0.33762028453198378 -0.10281983668706331 0 0.33817711998985522 -0.0985066222615327 0 0.34278072963215761 -0.099156609890653571 0 0.33817711998985522 -0.0985066222615327 0 0.34278072963215761 -0.099156609890653571 0 0.33817711998985522 -0.0985066222615327 0 0.34278072963215761 -0.099156609890653571 0 0.33908492326713102 -0.091474831926053518 0 0.34278072963215761 -0.099156609890653571 0 0.33908492326713102 -0.091474831926053518 0 0.33817711998985522 -0.0985066222615327 0 0.33908492326713102 -0.091474831926053518 0 0.33817711998985522 -0.0985066222615327 0 0.32353062642851288 -0.096438671161299783 0 0.33908492326713102 -0.091474831926053518 0 0.33762028453198378 -0.10281983668706331 0 0.33817711998985522 -0.0985066222615327 0 0.32353062642851288 -0.096438671161299783 0 0.33817711998985522 -0.0985066222615327 0 0.32353062642851288 -0.096438671161299783 0 0.32353062642851288 -0.096438671161299783 0 0.30543051805773053 -0.093883101197545032 0 0.32882617587675039 -0.1106348875013685 0 0.32353062642851288 -0.096438671161299783 0 0.30862256014651779 -0.10912441466453721 0 0.32353062642851288 -0.096438671161299783 0 0.30805217285453879 -0.1064009381963008 0 0.32353062642851288 -0.096438671161299783 0 0.30805217285453879 -0.1064009381963008 0 0.30862256014651779 -0.10912441466453721 0 0.32882617587675039 -0.1106348875013685 0 0.30862256014651779 -0.10912441466453721 0 0.32882617587675039 -0.1106348875013685 0 0.32234267619794671 -0.1209311329733736 0 0.30862256014651779 -0.10912441466453721 0 0.32234267619794671 -0.1209311329733736 0 0.30862256014651779 -0.10912441466453721 0 0.31423792381648968 -0.13593656674313839 0 0.32084232991582068 -0.053557382313559658 0 0.32986686453542391 -0.072314986022926742 0 0.33660731696377671 -0.063113105950805784 0 0.32986686453542391 -0.072314986022926742 0 0.34141078051348622 -0.073458879664124566 0 0.32986686453542391 -0.072314986022926742 0 0.33660731696377671 -0.063113105950805784 0 0.34141078051348622 -0.073458879664124566 0 0.32986686453542391 -0.072314986022926742 0 0.34141078051348622 -0.073458879664124566 0 0.33979557032547592 -0.085970201967237619 0 0.32986686453542391 -0.072314986022926742 0 0.33723077396210871 -0.087620960303014098 0 0.32004442123786758 -0.083632571487218088 0 0.34141078051348622 -0.073458879664124566 0 0.33979557032547592 -0.085970201967237619 0 0.35133021724621732 -0.090358624288707848 0 0.33979557032547592 -0.085970201967237619 0 0.33908492326713102 -0.091474831926053518 0 0.33979557032547592 -0.085970201967237619 0 0.33723077396210871 -0.087620960303014098 0 0.33908492326713102 -0.091474831926053518 0 0.33979557032547592 -0.085970201967237619 0 0.33908492326713102 -0.091474831926053518 0 0.33979557032547592 -0.085970201967237619 0 0.33723077396210871 -0.087620960303014098 0 0.33723077396210871 -0.087620960303014098 0 0.33908492326713102 -0.091474831926053518 0 0.32353062642851288 -0.096438671161299783 0 0.33723077396210871 -0.087620960303014098 0 0.32353062642851288 -0.096438671161299783 0 0.33723077396210871 -0.087620960303014098 0 0.33908492326713102 -0.091474831926053518 0 0.32986686453542391 -0.072314986022926742 0 0.33723077396210871 -0.087620960303014098 0 0.32986686453542391 -0.072314986022926742 0 0.33979557032547592 -0.085970201967237619 0 0.33723077396210871 -0.087620960303014098 0 0.32353062642851288 -0.096438671161299783 0 0.33723077396210871 -0.087620960303014098 0 0.32004442123786758 -0.083632571487218088 0 0.32353062642851288 -0.096438671161299783 0 0.32004442123786758 -0.083632571487218088 0 0.30543051805773053 -0.093883101197545032 0 0.32004442123786758 -0.083632571487218088 0 0.31394424182365688 -0.070737203673695792 0 0.31026350261977348 -0.080800506564827818 0 0.32084232991582068 -0.053557382313559658 0 0.32986686453542391 -0.072314986022926742 0 0.32986686453542391 -0.072314986022926742 0 0.31394424182365688 -0.070737203673695792 0 0.32986686453542391 -0.072314986022926742 0 0.32004442123786758 -0.083632571487218088 0 0.31394424182365688 -0.070737203673695792 0 0.32084232991582068 -0.053557382313559658 0 0.32986686453542391 -0.072314986022926742 0 0.31394424182365688 -0.070737203673695792 0 0.30142258433507679 -0.074746080906766502 0 0.29741465061242572 -0.05560906061598743 0 0.31394424182365688 -0.070737203673695792 0 0.30142258433507679 -0.074746080906766502 0 0.29741465061242572 -0.05560906061598743 0 0.31394424182365688 -0.070737203673695792 0 0.30142258433507679 -0.074746080906766502 0 0.31026350261977348 -0.080800506564827818 0 0.30142258433507679 -0.074746080906766502 0 0.30543051805773053 -0.093883101197545032 0 0.30142258433507679 -0.074746080906766502 0 0.31026350261977348 -0.080800506564827818 0 0.30543051805773053 -0.093883101197545032 0 0.32004442123786758 -0.083632571487218088 0 0.31026350261977348 -0.080800506564827818 0 0.30543051805773053 -0.093883101197545032 0 0.28345985036459298 -0.090781043613686788 0 0.30543051805773053 -0.093883101197545032 0 0.28345985036459298 -0.090781043613686788 0 0.28803309209182409 -0.070449480019151703 0 0.27581712213493131 -0.07415670526576916 0 0.30142258433507679 -0.074746080906766502 0 0.28345985036459298 -0.090781043613686788 0 0.30543051805773053 -0.093883101197545032 0 0.30142258433507679 -0.074746080906766502 0 0.28345985036459298 -0.090781043613686788 0 0.28803309209182409 -0.070449480019151703 0 0.28803309209182409 -0.070449480019151703 0 0.27581712213493131 -0.07415670526576916 0 0.28205125301209422 -0.056954509693548573 0 0.30142258433507679 -0.074746080906766502 0 0.28803309209182409 -0.070449480019151703 0 0.29741465061242572 -0.05560906061598743 0 0.30536218204837401 -0.1238013459188816 0 0.30862256014651779 -0.10912441466453721 0 0.31423792381648968 -0.13593656674313839 0 0.30536218204837401 -0.1238013459188816 0 0.30432041864432702 -0.1088027758071106 0 0.28363845923331232 -0.1221141315879057 0 0.30862256014651779 -0.10912441466453721 0 0.31423792381648968 -0.13593656674313839 0 0.30536218204837401 -0.1238013459188816 0 0.30432041864432702 -0.1088027758071106 0 0.30862256014651779 -0.10912441466453721 0 0.32353062642851288 -0.096438671161299783 0 0.30805217285453879 -0.1064009381963008 0 0.30543051805773053 -0.093883101197545032 0 0.30432041864432702 -0.1088027758071106 0 0.29799983668222252 -0.10150110424386589 0 0.28873622348992362 -0.1076376624046876 0 0.30432041864432702 -0.1088027758071106 0 0.30805217285453879 -0.1064009381963008 0 0.29799983668222252 -0.10150110424386589 0 0.30432041864432702 -0.1088027758071106 0 0.30862256014651779 -0.10912441466453721 0 0.30432041864432702 -0.1088027758071106 0 0.30805217285453879 -0.1064009381963008 0 0.30432041864432702 -0.1088027758071106 0 0.30805217285453879 -0.1064009381963008 0 0.30862256014651779 -0.10912441466453721 0 0.30805217285453879 -0.1064009381963008 0 0.30862256014651779 -0.10912441466453721 0 0.30805217285453879 -0.1064009381963008 0 0.30543051805773053 -0.093883101197545032 0 0.30805217285453879 -0.1064009381963008 0 0.30543051805773053 -0.093883101197545032 0 0.29799983668222252 -0.10150110424386589 0 0.28345985036459298 -0.090781043613686788 0 0.28873622348992362 -0.1076376624046876 0 0.27315202833552032 -0.1064725490022623 0 0.28345985036459298 -0.090781043613686788 0 0.30543051805773053 -0.093883101197545032 0 0.29799983668222252 -0.10150110424386589 0 0.28345985036459298 -0.090781043613686788 0 0.29799983668222252 -0.10150110424386589 0 0.28873622348992362 -0.1076376624046876 0 0.30432041864432702 -0.1088027758071106 0 0.28873622348992362 -0.1076376624046876 0 0.30432041864432702 -0.1088027758071106 0 0.28873622348992362 -0.1076376624046876 0 0.28363845923331232 -0.1221141315879057 0 0.28873622348992362 -0.1076376624046876 0 0.28363845923331232 -0.1221141315879057 0 0.27315202833552032 -0.1064725490022623 0 0.30432041864432702 -0.1088027758071106 0 0.28363845923331232 -0.1221141315879057 0 0.28363845923331232 -0.1221141315879057 0 0.26758386373240017 -0.1188235101163498 0 0.26770215369203071 -0.13237108203808209 0 0.28363845923331232 -0.1221141315879057 0 0.27315202833552032 -0.1064725490022623 0 0.28363845923331232 -0.1221141315879057 0 0.26758386373240017 -0.1188235101163498 0 0.27315202833552032 -0.1064725490022623 0 0.26758386373240017 -0.1188235101163498 0 0.27315202833552032 -0.1064725490022623 0 0.25835932526306737 -0.1053666095272399 0 0.28345985036459298 -0.090781043613686788 0 0.27315202833552032 -0.1064725490022623 0 0.26148918267145549 -0.087678986029829237 0 0.27315202833552032 -0.1064725490022623 0 0.26148918267145549 -0.087678986029829237 0 0.27315202833552032 -0.1064725490022623 0 0.25835932526306737 -0.1053666095272399 0 0.28873622348992362 -0.1076376624046876 0 0.27315202833552032 -0.1064725490022623 0 0.25835932526306737 -0.1053666095272399 0 0.26148918267145549 -0.087678986029829237 0 0.27315202833552032 -0.1064725490022623 0 0.25835932526306737 -0.1053666095272399 0 0.26148918267145549 -0.087678986029829237 0 0.25190825320178373 -0.094092801933563605 0 0.25835932526306737 -0.1053666095272399 0 0.26148918267145549 -0.087678986029829237 0 0.25835932526306737 -0.1053666095272399 0 0.25506258670690901 -0.12399732100774979 0 0.26758386373240017 -0.1188235101163498 0 0.25835932526306737 -0.1053666095272399 0 0.25506258670690901 -0.12399732100774979 0 0.25835932526306737 -0.1053666095272399 0 0.25506258670690901 -0.12399732100774979 0 0.24288030337081251 -0.1174706778130729 0 0.27581712213493131 -0.07415670526576916 0 0.26148918267145549 -0.087678986029829237 0 0.2666878554117631 -0.058299958771113318 0 0.27581712213493131 -0.07415670526576916 0 0.2666878554117631 -0.058299958771113318 0 0.28205125301209422 -0.056954509693548573 0 0.28345985036459298 -0.090781043613686788 0 0.26148918267145549 -0.087678986029829237 0 0.28345985036459298 -0.090781043613686788 0 0.27581712213493131 -0.07415670526576916 0 0.26148918267145549 -0.087678986029829237 0 0.25190825320178373 -0.094092801933563605 0 0.26148918267145549 -0.087678986029829237 0 0.24276161978024891 -0.085034825219369198 0 0.25948947644266368 -0.086528332817218612 0 0.25147290036700071 -0.081915505751528714 0 0.24276161978024891 -0.085034825219369198 0 0.26148918267145549 -0.087678986029829237 0 0.25948947644266368 -0.086528332817218612 0 0.24276161978024891 -0.085034825219369198 0 0.26148918267145549 -0.087678986029829237 0 0.24276161978024891 -0.085034825219369198 0 0.26148918267145549 -0.087678986029829237 0 0.25948947644266368 -0.086528332817218612 0 0.25948947644266368 -0.086528332817218612 0 0.25147290036700071 -0.081915505751528714 0 0.25065970406686261 -0.073467612945337865 0 0.25948947644266368 -0.086528332817218612 0 0.25065970406686261 -0.073467612945337865 0 0.25597708818948028 -0.066422215774475754 0 0.26148918267145549 -0.087678986029829237 0 0.2666878554117631 -0.058299958771113318 0 0.26148918267145549 -0.087678986029829237 0 0.25948947644266368 -0.086528332817218612 0 0.2666878554117631 -0.058299958771113318 0 0.25948947644266368 -0.086528332817218612 0 0.25597708818948028 -0.066422215774475754 0 0.2666878554117631 -0.058299958771113318 0 0.25065970406686261 -0.073467612945337865 0 0.25597708818948028 -0.066422215774475754 0 0.2485243504590314 -0.062024440556852127 0 0.25176466448051432 -0.052825527365289733 0 0.25936162910718807 -0.058941552816903109 0 0.2485243504590314 -0.062024440556852127 0 0.25597708818948028 -0.066422215774475754 0 0.25936162910718807 -0.058941552816903109 0 0.2485243504590314 -0.062024440556852127 0 0.25176466448051432 -0.052825527365289733 0 0.2666878554117631 -0.058299958771113318 0 0.25247179156595462 -0.04401350787044235 0 0.25176466448051432 -0.052825527365289733 0 0.25936162910718807 -0.058941552816903109 0 0.2666878554117631 -0.058299958771113318 0 0.25597708818948028 -0.066422215774475754 0 0.25936162910718807 -0.058941552816903109 0 0.2666878554117631 -0.058299958771113318 0 0.25936162910718807 -0.058941552816903109 0 0.2666878554117631 -0.058299958771113318 0 0.2666878554117631 -0.058299958771113318 0 0.28205125301209422 -0.056954509693548573 0 0.28223273125458398 -0.043959146735371872 0 0.2666878554117631 -0.058299958771113318 0 0.28205125301209422 -0.056954509693548573 0 0.2666878554117631 -0.058299958771113318 0 0.27097710371201289 -0.034060321266074063 0 0.28223273125458398 -0.043959146735371872 0 0.2666878554117631 -0.058299958771113318 0 0.27097710371201289 -0.034060321266074063 0 0.2666878554117631 -0.058299958771113318 0 0.27097710371201289 -0.034060321266074063 0 0.25887357373799319 -0.033530490055644513 0 0.2666878554117631 -0.058299958771113318 0 0.25887357373799319 -0.033530490055644513 0 0.25247179156595462 -0.04401350787044235 0 0.25887357373799319 -0.033530490055644513 0 0.25247179156595462 -0.04401350787044235 0 0.24520535596676671 -0.032188486861168993 0 0.25887357373799319 -0.033530490055644513 0 0.25099995325346047 -0.01825638509775002 0 0.27027222851675531 -0.016714099098370461 0 0.25887357373799319 -0.033530490055644513 0 0.25099995325346047 -0.01825638509775002 0 0.24520535596676671 -0.032188486861168993 0 0.25099995325346047 -0.01825638509775002 0 0.2540330741481821 -0.0041517063591771696 0 0.27027222851675531 -0.016714099098370461 0 0.2540330741481821 -0.0041517063591771696 0 0.26719303569965269 -0.001809782501044328 0 0.27027222851675531 -0.016714099098370461 0 0.27916872667575549 0.00020771242004494539 0 0.27027222851675531 -0.016714099098370461 0 0.28787969275142122 -0.010081690483467021 0 0.27916872667575549 0.00020771242004494539 0 0.26719303569965269 -0.001809782501044328 0 0.27027222851675531 -0.016714099098370461 0 0.27097710371201289 -0.034060321266074063 0 0.27027222851675531 -0.016714099098370461 0 0.29264717168192328 -0.032845375549727232 0 0.27097710371201289 -0.034060321266074063 0 0.25887357373799319 -0.033530490055644513 0 0.27027222851675531 -0.016714099098370461 0 0.28787969275142122 -0.010081690483467021 0 0.29264717168192328 -0.032845375549727232 0 0.27027222851675531 -0.016714099098370461 0 0.28787969275142122 -0.010081690483467021 0 0.29264717168192328 -0.032845375549727232 0 0.28787969275142122 -0.010081690483467021 0 0.30183105165421398 -0.01404221187307512 0 0.29264717168192328 -0.032845375549727232 0 0.29232541252341099 0.0057153733471674018 0 0.28787969275142122 -0.010081690483467021 0 0.30183105165421398 -0.01404221187307512 0 0.29232541252341099 0.0057153733471674018 0 0.27916872667575549 0.00020771242004494539 0 0.28787969275142122 -0.010081690483467021 0 0.29232541252341099 0.0057153733471674018 0 0.30183105165421398 -0.01404221187307512 0 0.31204676142463961 0.00073078847262742224 0 0.29232541252341099 0.0057153733471674018 0 0.30183105165421398 -0.01404221187307512 0 0.31204676142463961 0.00073078847262742224 0 0.31538659411855369 -0.019685896482243202 0 0.30183105165421398 -0.01404221187307512 0 0.30183105165421398 -0.01404221187307512 0 0.31133669078501691 -0.033799797093317582 0 0.31538659411855369 -0.019685896482243202 0 0.30183105165421398 -0.01404221187307512 0 0.31133669078501691 -0.033799797093317582 0 0.30183105165421398 -0.01404221187307512 0 0.31133669078501691 -0.033799797093317582 0 0.29264717168192328 -0.032845375549727232 0 0.3069969538888121 -0.045608511430141718 0 0.29741465061242572 -0.05560906061598743 0 0.29264717168192328 -0.032845375549727232 0 0.31133669078501691 -0.033799797093317582 0 0.3069969538888121 -0.045608511430141718 0 0.29264717168192328 -0.032845375549727232 0 0.32084232991582068 -0.053557382313559658 0 0.29741465061242572 -0.05560906061598743 0 0.32084232991582068 -0.053557382313559658 0 0.31394424182365688 -0.070737203673695792 0 0.29741465061242572 -0.05560906061598743 0 0.32084232991582068 -0.053557382313559658 0 0.3069969538888121 -0.045608511430141718 0 0.29741465061242572 -0.05560906061598743 0 0.28803309209182409 -0.070449480019151703 0 0.29741465061242572 -0.05560906061598743 0 0.28205125301209422 -0.056954509693548573 0 0.29741465061242572 -0.05560906061598743 0 0.28205125301209422 -0.056954509693548573 0 0.29741465061242572 -0.05560906061598743 0 0.28205125301209422 -0.056954509693548573 0 0.28223273125458398 -0.043959146735371872 0 0.29741465061242572 -0.05560906061598743 0 0.29264717168192328 -0.032845375549727232 0 0.27097710371201289 -0.034060321266074063 0 0.29264717168192328 -0.032845375549727232 0 0.28223273125458398 -0.043959146735371872 0 0.29741465061242572 -0.05560906061598743 0 0.29264717168192328 -0.032845375549727232 0 0.28223273125458398 -0.043959146735371872 0 0.30264469691374413 -0.20516914398109479 0 0.27741867256549568 -0.2158818026304421 0 0.28376517631092962 -0.19341864280931129 0 0.30264469691374413 -0.20516914398109479 0 0.27741867256549568 -0.2158818026304421 0 0.30264469691374413 -0.20516914398109479 0 0.30371652514202918 -0.2236972479087278 0 0.27741867256549568 -0.2158818026304421 0 0.28376517631092962 -0.19341864280931129 0 0.30264469691374413 -0.20516914398109479 0 0.30012330169263468 -0.18494912760054949 0 0.30264469691374413 -0.20516914398109479 0 0.30012330169263468 -0.18494912760054949 0 0.31370514809449479 -0.18700856853637371 0 0.30264469691374413 -0.20516914398109479 0 0.30371652514202918 -0.2236972479087278 0 0.3230470462356273 -0.21374598862295929 0 0.30371652514202918 -0.2236972479087278 0 0.30810940478727539 -0.24903311324244709 0 0.32166963204975052 -0.23107998909141961 0 0.30371652514202918 -0.2236972479087278 0 0.30810940478727539 -0.24903311324244709 0 0.29260129125555778 -0.23817732966625749 0 0.30371652514202918 -0.2236972479087278 0 0.29260129125555778 -0.23817732966625749 0 0.27741867256549568 -0.2158818026304421 0 0.29260129125555778 -0.23817732966625749 0 0.27256432356151272 -0.2355997262784349 0 0.27741867256549568 -0.2158818026304421 0 0.27256432356151272 -0.2355997262784349 0 0.25219264821724702 -0.22659446127978849 0 0.27741867256549568 -0.2158818026304421 0 0.27256432356151272 -0.2355997262784349 0 0.256245679646319 -0.24611908193733029 0 0.27357446709181082 -0.25407131709457892 0 0.29260129125555778 -0.23817732966625749 0 0.27256432356151272 -0.2355997262784349 0 0.27357446709181082 -0.25407131709457892 0 0.27256432356151272 -0.2355997262784349 0 0.256245679646319 -0.24611908193733029 0 0.25219264821724702 -0.22659446127978849 0 0.25219264821724702 -0.22659446127978849 0 0.27741867256549568 -0.2158818026304421 0 0.25219264821724702 -0.22659446127978849 0 0.25511191075464718 -0.22189969397475109 0 0.27741867256549568 -0.2158818026304421 0 0.25219264821724702 -0.22659446127978849 0 0.25511191075464718 -0.22189969397475109 0 0.25219264821724702 -0.22659446127978849 0 0.25511191075464718 -0.22189969397475109 0 0.2450380159957985 -0.21752151142907489 0 0.25251779905789978 -0.2079424461389496 0 0.27741867256549568 -0.2158818026304421 0 0.25910563198202208 -0.1916843197808239 0 0.25511191075464718 -0.22189969397475109 0 0.25251779905789978 -0.2079424461389496 0 0.27741867256549568 -0.2158818026304421 0 0.25511191075464718 -0.22189969397475109 0 0.25251779905789978 -0.2079424461389496 0 0.2450380159957985 -0.21752151142907489 0 0.28376517631092962 -0.19341864280931129 0 0.27741867256549568 -0.2158818026304421 0 0.25910563198202208 -0.1916843197808239 0 0.28376517631092962 -0.19341864280931129 0 0.25910563198202208 -0.1916843197808239 0 0.2747524536029215 -0.18191482849548299 0 0.25910563198202208 -0.1916843197808239 0 0.26446818679923739 -0.17555199170699279 0 0.25227843415052947 -0.17040338943778449 0 0.25227843415052947 -0.17040338943778449 0 0.25953764221489528 -0.16309025082606429 0 0.2536205121116894 -0.15529966459265671 0 0.25953764221489528 -0.16309025082606429 0 0.27020145188101541 -0.16271914743514229 0 0.26282900273906629 -0.15172473663815811 0 0.25953764221489528 -0.16309025082606429 0 0.2536205121116894 -0.15529966459265671 0 0.26282900273906629 -0.15172473663815811 0 0.26446818679923739 -0.17555199170699279 0 0.25953764221489528 -0.16309025082606429 0 0.27020145188101541 -0.16271914743514229 0 0.26446818679923739 -0.17555199170699279 0 0.25227843415052947 -0.17040338943778449 0 0.25953764221489528 -0.16309025082606429 0 0.26446818679923739 -0.17555199170699279 0 0.27020145188101541 -0.16271914743514229 0 0.27814831123761963 -0.17080806609602481 0 0.27020145188101541 -0.16271914743514229 0 0.28017111215021279 -0.15908181104886471 0 0.27414818343191377 -0.15020974719233629 0 0.27020145188101541 -0.16271914743514229 0 0.28017111215021279 -0.15908181104886471 0 0.27814831123761963 -0.17080806609602481 0 0.25910563198202208 -0.1916843197808239 0 0.26446818679923739 -0.17555199170699279 0 0.2747524536029215 -0.18191482849548299 0 0.27814831123761963 -0.17080806609602481 0 0.2747524536029215 -0.18191482849548299 0 0.28827496168479882 -0.17811112208426219 0 0.26446818679923739 -0.17555199170699279 0 0.27814831123761963 -0.17080806609602481 0 0.2747524536029215 -0.18191482849548299 0 0.25506258670690901 -0.12399732100774979 0 0.25176584815074948 -0.14262803248825939 0 0.26770215369203071 -0.13237108203808209 0 0.25506258670690901 -0.12399732100774979 0 0.25176584815074948 -0.14262803248825939 0 0.2453101778497572 -0.1297840502599068 0 0.25559655317644719 -0.14345312535800109 0 0.25176584815074948 -0.14262803248825939 0 0.26770215369203071 -0.13237108203808209 0 0.25506258670690901 -0.12399732100774979 0 0.25176584815074948 -0.14262803248825939 0 0.25176584815074948 -0.14262803248825939 0 0.26770215369203071 -0.13237108203808209 0 0.26758386373240017 -0.1188235101163498 0 0.25506258670690901 -0.12399732100774979 0 0.26770215369203071 -0.13237108203808209 0 0.25559655317644719 -0.14345312535800109 0 0.2679008589821848 -0.14349956620253601 0 0.26770215369203071 -0.13237108203808209 0 0.25559655317644719 -0.14345312535800109 0 0.26282900273906629 -0.15172473663815811 0 0.2679008589821848 -0.14349956620253601 0 0.25559655317644719 -0.14345312535800109 0 0.25176584815074948 -0.14262803248825939 0 0.25141789005461213 -0.1445944325488028 0 0.25176584815074948 -0.14262803248825939 0 0.25141789005461213 -0.1445944325488028 0 0.25559655317644719 -0.14345312535800109 0 0.2536205121116894 -0.15529966459265671 0 0.26282900273906629 -0.15172473663815811 0 0.25559655317644719 -0.14345312535800109 0 0.2536205121116894 -0.15529966459265671 0 0.24231788049098391 -0.1530996084253301 0 0.26282900273906629 -0.15172473663815811 0 0.27414818343191377 -0.15020974719233629 0 0.2679008589821848 -0.14349956620253601 0 0.27020145188101541 -0.16271914743514229 0 0.26282900273906629 -0.15172473663815811 0 0.27414818343191377 -0.15020974719233629 0 0.28017111215021279 -0.15908181104886471 0 0.27414818343191377 -0.15020974719233629 0 0.2843337814866051 -0.15072537874417519 0 0.27414818343191377 -0.15020974719233629 0 0.27922840187146603 -0.13973913978610239 0 0.2843337814866051 -0.15072537874417519 0 0.27414818343191377 -0.15020974719233629 0 0.2679008589821848 -0.14349956620253601 0 0.27922840187146603 -0.13973913978610239 0 0.28363845923331232 -0.1221141315879057 0 0.26770215369203071 -0.13237108203808209 0 0.28363845923331232 -0.1221141315879057 0 0.27922840187146603 -0.13973913978610239 0 0.26770215369203071 -0.13237108203808209 0 0.2679008589821848 -0.14349956620253601 0 0.27922840187146603 -0.13973913978610239 0 0.26770215369203071 -0.13237108203808209 0 0.30536218204837401 -0.1238013459188816 0 0.28363845923331232 -0.1221141315879057 0 0.29737381664808832 -0.1426018198624662 0 0.28363845923331232 -0.1221141315879057 0 0.27922840187146603 -0.13973913978610239 0 0.29737381664808832 -0.1426018198624662 0 0.28363845923331232 -0.1221141315879057 0 0.29737381664808832 -0.1426018198624662 0 0.29737381664808832 -0.1426018198624662 0 0.29074739333134447 -0.1619943758311064 0 0.30000895086526758 -0.15967065879449441 0 0.2843337814866051 -0.15072537874417519 0 0.29737381664808832 -0.1426018198624662 0 0.29074739333134447 -0.1619943758311064 0 0.27922840187146603 -0.13973913978610239 0 0.2843337814866051 -0.15072537874417519 0 0.29737381664808832 -0.1426018198624662 0 0.29737381664808832 -0.1426018198624662 0 0.31019123379448621 -0.15015304180115779 0 0.31110917406286442 -0.16308950813702669 0 0.29737381664808832 -0.1426018198624662 0 0.30000895086526758 -0.15967065879449441 0 0.31110917406286442 -0.16308950813702669 0 0.29737381664808832 -0.1426018198624662 0 0.31110917406286442 -0.16308950813702669 0 0.29737381664808832 -0.1426018198624662 0 0.31019123379448621 -0.15015304180115779 0 0.31423792381648968 -0.13593656674313839 0 0.30536218204837401 -0.1238013459188816 0 0.29737381664808832 -0.1426018198624662 0 0.31423792381648968 -0.13593656674313839 0 0.28376517631092962 -0.19341864280931129 0 0.28827496168479882 -0.17811112208426219 0 0.30012330169263468 -0.18494912760054949 0 0.28827496168479882 -0.17811112208426219 0 0.30080541941877298 -0.1709969313473779 0 0.30012330169263468 -0.18494912760054949 0 0.28376517631092962 -0.19341864280931129 0 0.2747524536029215 -0.18191482849548299 0 0.28827496168479882 -0.17811112208426219 0 0.28827496168479882 -0.17811112208426219 0 0.29074739333134447 -0.1619943758311064 0 0.30080541941877298 -0.1709969313473779 0 0.27814831123761963 -0.17080806609602481 0 0.28827496168479882 -0.17811112208426219 0 0.29074739333134447 -0.1619943758311064 0 0.28017111215021279 -0.15908181104886471 0 0.27814831123761963 -0.17080806609602481 0 0.29074739333134447 -0.1619943758311064 0 0.28017111215021279 -0.15908181104886471 0 0.2843337814866051 -0.15072537874417519 0 0.29074739333134447 -0.1619943758311064 0 0.30080541941877298 -0.1709969313473779 0 0.30000895086526758 -0.15967065879449441 0 0.31110917406286442 -0.16308950813702669 0 0.29074739333134447 -0.1619943758311064 0 0.30080541941877298 -0.1709969313473779 0 0.30000895086526758 -0.15967065879449441 0 0.30080541941877298 -0.1709969313473779 0 0.31110917406286442 -0.16308950813702669 0 0.31015811703391749 -0.1777711101454823 0 0.30080541941877298 -0.1709969313473779 0 0.31015811703391749 -0.1777711101454823 0 0.30012330169263468 -0.18494912760054949 0 0.31015811703391749 -0.1777711101454823 0 0.30012330169263468 -0.18494912760054949 0 0.31370514809449479 -0.18700856853637371 0 0.32484453147764042 -0.18357719641158729 0 0.31985328748647812 -0.16274871882173611 0 0.33070105671280919 -0.17079274692950919 0 0.31110917406286442 -0.16308950813702669 0 0.31015811703391749 -0.1777711101454823 0 0.32484453147764042 -0.18357719641158729 0 0.31015811703391749 -0.1777711101454823 0 0.31370514809449479 -0.18700856853637371 0 0.32484453147764042 -0.18357719641158729 0 0.31110917406286442 -0.16308950813702669 0 0.32484453147764042 -0.18357719641158729 0 0.31110917406286442 -0.16308950813702669 0 0.32484453147764042 -0.18357719641158729 0 0.31985328748647812 -0.16274871882173611 0 0.31019123379448621 -0.15015304180115779 0 0.31110917406286442 -0.16308950813702669 0 0.31985328748647812 -0.16274871882173611 0 0.31985328748647812 -0.16274871882173611 0 0.33277750783514581 -0.15878795521691849 0 0.32511060224050692 -0.15057820738693919 0 0.31985328748647812 -0.16274871882173611 0 0.33070105671280919 -0.17079274692950919 0 0.33277750783514581 -0.15878795521691849 0 0.33070105671280919 -0.17079274692950919 0 0.33277750783514581 -0.15878795521691849 0 0.34042167467936452 -0.1692219031927398 0 0.33277750783514581 -0.15878795521691849 0 0.34042167467936452 -0.1692219031927398 0 0.35014071459535812 -0.15193873581846229 0 0.33560828208541749 -0.17962796100456441 0 0.35309674561024113 -0.1837438266824003 0 0.32787072126199263 -0.19445648533174761 0 0.34042167467936452 -0.1692219031927398 0 0.33560828208541749 -0.17962796100456441 0 0.35309674561024113 -0.1837438266824003 0 0.32484453147764042 -0.18357719641158729 0 0.33560828208541749 -0.17962796100456441 0 0.32787072126199263 -0.19445648533174761 0 0.32484453147764042 -0.18357719641158729 0 0.33070105671280919 -0.17079274692950919 0 0.33560828208541749 -0.17962796100456441 0 0.33070105671280919 -0.17079274692950919 0 0.34042167467936452 -0.1692219031927398 0 0.33560828208541749 -0.17962796100456441 0 0.32234267619794671 -0.1209311329733736 0 0.31423792381648968 -0.13593656674313839 0 0.33768404495202858 -0.12802866298445509 0 0.31423792381648968 -0.13593656674313839 0 0.32511060224050692 -0.15057820738693919 0 0.33357368982391411 -0.14483958876596401 0 0.31985328748647812 -0.16274871882173611 0 0.31423792381648968 -0.13593656674313839 0 0.32511060224050692 -0.15057820738693919 0 0.31019123379448621 -0.15015304180115779 0 0.31985328748647812 -0.16274871882173611 0 0.31423792381648968 -0.13593656674313839 0 0.31985328748647812 -0.16274871882173611 0 0.31423792381648968 -0.13593656674313839 0 0.33357368982391411 -0.14483958876596401 0 0.34531455097066038 -0.1398656390032661 0 0.35014071459535812 -0.15193873581846229 0 0.33277750783514581 -0.15878795521691849 0 0.33357368982391411 -0.14483958876596401 0 0.35014071459535812 -0.15193873581846229 0 0.33277750783514581 -0.15878795521691849 0 0.32511060224050692 -0.15057820738693919 0 0.33357368982391411 -0.14483958876596401 0 0.31423792381648968 -0.13593656674313839 0 0.33357368982391411 -0.14483958876596401 0 0.33768404495202858 -0.12802866298445509 0 0.33357368982391411 -0.14483958876596401 0 0.33768404495202858 -0.12802866298445509 0 0.34531455097066038 -0.1398656390032661 0 0.33768404495202858 -0.12802866298445509 0 0.34531455097066038 -0.1398656390032661 0 0.35985975451134489 -0.13465556844418089 0 0.35014071459535812 -0.15193873581846229 0 0.35985975451134489 -0.13465556844418089 0 0.36586625159449387 -0.1607178951995159 0 0.35014071459535812 -0.15193873581846229 0 0.35985975451134489 -0.13465556844418089 0 0.34531455097066038 -0.1398656390032661 0 0.35014071459535812 -0.15193873581846229 0 0.35985975451134489 -0.13465556844418089 0 0.35985975451134489 -0.13465556844418089 0 0.37292778743867933 -0.16181763200139621 0 0.35985975451134489 -0.13465556844418089 0 0.36586625159449387 -0.1607178951995159 0 0.37292778743867933 -0.16181763200139621 0 0.35985975451134489 -0.13465556844418089 0 0.37292778743867933 -0.16181763200139621 0 0.38010300670973779 -0.1438345891798338 0 0.37157051739666508 -0.11383056136768779 0 0.35985975451134489 -0.13465556844418089 0 0.37861921626728889 -0.1292376646998222 0 0.35985975451134489 -0.13465556844418089 0 0.37861921626728889 -0.1292376646998222 0 0.38010300670973779 -0.1438345891798338 0 0.34042167467936452 -0.1692219031927398 0 0.35309674561024113 -0.1837438266824003 0 0.35615475651844358 -0.1686309016582018 0 0.34042167467936452 -0.1692219031927398 0 0.35014071459535812 -0.15193873581846229 0 0.35615475651844358 -0.1686309016582018 0 0.34042167467936452 -0.1692219031927398 0 0.35014071459535812 -0.15193873581846229 0 0.35014071459535812 -0.15193873581846229 0 0.35615475651844358 -0.1686309016582018 0 0.36586625159449387 -0.1607178951995159 0 0.35615475651844358 -0.1686309016582018 0 0.36586625159449387 -0.1607178951995159 0 0.37832276995848901 -0.17303116803305249 0 0.36586625159449387 -0.1607178951995159 0 0.37292778743867933 -0.16181763200139621 0 0.36586625159449387 -0.1607178951995159 0 0.37292778743867933 -0.16181763200139621 0 0.37832276995848901 -0.17303116803305249 0 0.35309674561024113 -0.1837438266824003 0 0.37832276995848901 -0.17303116803305249 0 0.35309674561024113 -0.1837438266824003 0 0.35615475651844358 -0.1686309016582018 0 0.37832276995848901 -0.17303116803305249 0 0.35309674561024113 -0.1837438266824003 0 0.37246794302624248 -0.19049012032763671 0 0.37832276995848901 -0.17303116803305249 0 0.35309674561024113 -0.1837438266824003 0 0.37246794302624248 -0.19049012032763671 0 0.36334854304723541 -0.20343860916222459 0 0.37246794302624248 -0.19049012032763671 0 0.36334854304723541 -0.20343860916222459 0 0.37760902177244088 -0.202089045121564 0 0.36334854304723541 -0.20343860916222459 0 0.35321002797077272 -0.2174245096129773 0 0.37147110354400148 -0.2203371211194238 0 0.36334854304723541 -0.20343860916222459 0 0.37147110354400148 -0.2203371211194238 0 0.37760902177244088 -0.202089045121564 0 0.35321002797077272 -0.2174245096129773 0 0.34522349020742238 -0.20632395760301689 0 0.33746221881085042 -0.22279114526271371 0 0.36334854304723541 -0.20343860916222459 0 0.35321002797077272 -0.2174245096129773 0 0.34522349020742238 -0.20632395760301689 0 0.35309674561024113 -0.1837438266824003 0 0.36334854304723541 -0.20343860916222459 0 0.34522349020742238 -0.20632395760301689 0 0.35309674561024113 -0.1837438266824003 0 0.32787072126199263 -0.19445648533174761 0 0.35309674561024113 -0.1837438266824003 0 0.34522349020742238 -0.20632395760301689 0 0.32787072126199263 -0.19445648533174761 0 0.34522349020742238 -0.20632395760301689 0 0.3230470462356273 -0.21374598862295929 0 0.33746221881085042 -0.22279114526271371 0 0.34522349020742238 -0.20632395760301689 0 0.3230470462356273 -0.21374598862295929 0 0.32787072126199263 -0.19445648533174761 0 0.30264469691374413 -0.20516914398109479 0 0.3230470462356273 -0.21374598862295929 0 0.32787072126199263 -0.19445648533174761 0 0.30264469691374413 -0.20516914398109479 0 0.31370514809449479 -0.18700856853637371 0 0.32787072126199263 -0.19445648533174761 0 0.30264469691374413 -0.20516914398109479 0 0.32787072126199263 -0.19445648533174761 0 0.31370514809449479 -0.18700856853637371 0 0.32484453147764042 -0.18357719641158729 0 0.32787072126199263 -0.19445648533174761 0 0.30810940478727539 -0.24903311324244709 0 0.32755136014713548 -0.24757691142008681 0 0.32166963204975052 -0.23107998909141961 0 0.3230470462356273 -0.21374598862295929 0 0.32166963204975052 -0.23107998909141961 0 0.33746221881085042 -0.22279114526271371 0 0.30371652514202918 -0.2236972479087278 0 0.3230470462356273 -0.21374598862295929 0 0.32166963204975052 -0.23107998909141961 0 0.32166963204975052 -0.23107998909141961 0 0.33746221881085042 -0.22279114526271371 0 0.33560124491731258 -0.23653815703934161 0 0.33746221881085042 -0.22279114526271371 0 0.33560124491731258 -0.23653815703934161 0 0.34854478424435409 -0.23423171491750769 0 0.32755136014713548 -0.24757691142008681 0 0.32166963204975052 -0.23107998909141961 0 0.33560124491731258 -0.23653815703934161 0 0.33560124491731258 -0.23653815703934161 0 0.3427782293344725 -0.24701102450498019 0 0.34854478424435409 -0.23423171491750769 0 0.32755136014713548 -0.24757691142008681 0 0.33560124491731258 -0.23653815703934161 0 0.3427782293344725 -0.24701102450498019 0 0.3427782293344725 -0.24701102450498019 0 0.34854478424435409 -0.23423171491750769 0 0.3626403313970481 -0.2448092221169777 0 0.3427782293344725 -0.24701102450498019 0 0.3626403313970481 -0.2448092221169777 0 0.35406298462651259 -0.25814883022067281 0 0.3427782293344725 -0.24701102450498019 0 0.3626403313970481 -0.2448092221169777 0 0.35321002797077272 -0.2174245096129773 0 0.34854478424435409 -0.23423171491750769 0 0.37147110354400148 -0.2203371211194238 0 0.35321002797077272 -0.2174245096129773 0 0.33746221881085042 -0.22279114526271371 0 0.34854478424435409 -0.23423171491750769 0 0.34854478424435409 -0.23423171491750769 0 0.3715153972186831 -0.23418244969809701 0 0.37147110354400148 -0.2203371211194238 0 0.34854478424435409 -0.23423171491750769 0 0.37147110354400148 -0.2203371211194238 0 0.3715153972186831 -0.23418244969809701 0 0.3626403313970481 -0.2448092221169777 0 0.38250243345962381 -0.24260741972897651 0 0.34854478424435409 -0.23423171491750769 0 0.3715153972186831 -0.23418244969809701 0 0.3626403313970481 -0.2448092221169777 0 0.3626403313970481 -0.2448092221169777 0 0.38250243345962381 -0.24260741972897651 0 0.3626403313970481 -0.2448092221169777 0 0.38250243345962381 -0.24260741972897651 0 0.36653462542462728 -0.25755987578933093 0 0.38250243345962381 -0.24260741972897651 0 0.3881870461995256 -0.24197725511366139 0 0.38847339792168017 -0.22457375572436991 0 0.3881870461995256 -0.24197725511366139 0 0.38073576329286218 -0.25621248965073501 0 0.39187191238393959 -0.25068644052127081 0 0.3881870461995256 -0.24197725511366139 0 0.38073576329286218 -0.25621248965073501 0 0.38250243345962381 -0.24260741972897651 0 0.3881870461995256 -0.24197725511366139 0 0.38073576329286218 -0.25621248965073501 0 0.38250243345962381 -0.24260741972897651 0 0.3881870461995256 -0.24197725511366139 0 0.3881870461995256 -0.24197725511366139 0 0.40102270897705361 -0.23388660232249031 0 0.41183746198109927 -0.23935550129419861 0 0.3881870461995256 -0.24197725511366139 0 0.40047080705360688 -0.24874975479372691 0 0.39187191238393959 -0.25068644052127081 0 0.3881870461995256 -0.24197725511366139 0 0.41183746198109927 -0.23935550129419861 0 0.3881870461995256 -0.24197725511366139 0 0.40047080705360688 -0.24874975479372691 0 0.41183746198109927 -0.23935550129419861 0 0.3881870461995256 -0.24197725511366139 0 0.39566696186846689 -0.2276873193806217 0 0.3881870461995256 -0.24197725511366139 0 0.40102270897705361 -0.23388660232249031 0 0.39566696186846689 -0.2276873193806217 0 0.3881870461995256 -0.24197725511366139 0 0.39566696186846689 -0.2276873193806217 0 0.38847339792168017 -0.22457375572436991 0 0.39566696186846689 -0.2276873193806217 0 0.40314687753740852 -0.21339738364758201 0 0.39899379308110272 -0.21599613812232199 0 0.39566696186846689 -0.2276873193806217 0 0.40314687753740852 -0.21339738364758201 0 0.40839936585912262 -0.2265263335014793 0 0.39566696186846689 -0.2276873193806217 0 0.40314687753740852 -0.21339738364758201 0 0.40102270897705361 -0.23388660232249031 0 0.39566696186846689 -0.2276873193806217 0 0.40839936585912262 -0.2265263335014793 0 0.39566696186846689 -0.2276873193806217 0 0.38847339792168017 -0.22457375572436991 0 0.39439462881374587 -0.21869932623676891 0 0.39566696186846689 -0.2276873193806217 0 0.39439462881374587 -0.21869932623676891 0 0.39899379308110272 -0.21599613812232199 0 0.3715153972186831 -0.23418244969809701 0 0.38250243345962381 -0.24260741972897651 0 0.38847339792168017 -0.22457375572436991 0 0.3715153972186831 -0.23418244969809701 0 0.37147110354400148 -0.2203371211194238 0 0.38847339792168017 -0.22457375572436991 0 0.38250243345962381 -0.24260741972897651 0 0.38847339792168017 -0.22457375572436991 0 0.37147110354400148 -0.2203371211194238 0 0.37760902177244088 -0.202089045121564 0 0.39444611483850389 -0.20645502143218639 0 0.37147110354400148 -0.2203371211194238 0 0.38847339792168017 -0.22457375572436991 0 0.39444611483850389 -0.20645502143218639 0 0.37147110354400148 -0.2203371211194238 0 0.39444611483850389 -0.20645502143218639 0 0.38636009640107549 -0.18973684767719379 0 0.39444611483850389 -0.20645502143218639 0 0.37760902177244088 -0.202089045121564 0 0.38636009640107549 -0.18973684767719379 0 0.39444611483850389 -0.20645502143218639 0 0.37246794302624248 -0.19049012032763671 0 0.37760902177244088 -0.202089045121564 0 0.38636009640107549 -0.18973684767719379 0 0.39444611483850389 -0.20645502143218639 0 0.41669889785200448 -0.19292662307656289 0 0.40098369102510062 -0.18678983926330159 0 0.39444611483850389 -0.20645502143218639 0 0.40098369102510062 -0.18678983926330159 0 0.38636009640107549 -0.18973684767719379 0 0.39444611483850389 -0.20645502143218639 0 0.40098369102510062 -0.18678983926330159 0 0.39444611483850389 -0.20645502143218639 0 0.41669889785200448 -0.19292662307656289 0 0.38847339792168017 -0.22457375572436991 0 0.39444611483850389 -0.20645502143218639 0 0.39444611483850389 -0.20645502143218639 0 0.40314687753740852 -0.21339738364758201 0 0.41480362238472729 -0.207116720939125 0 0.38847339792168017 -0.22457375572436991 0 0.39439462881374587 -0.21869932623676891 0 0.39444611483850389 -0.20645502143218639 0 0.39439462881374587 -0.21869932623676891 0 0.39444611483850389 -0.20645502143218639 0 0.39899379308110272 -0.21599613812232199 0 0.39444611483850389 -0.20645502143218639 0 0.39899379308110272 -0.21599613812232199 0 0.39444611483850389 -0.20645502143218639 0 0.40314687753740852 -0.21339738364758201 0 0.39899379308110272 -0.21599613812232199 0 0.40314687753740852 -0.21339738364758201 0 0.41480362238472729 -0.207116720939125 0 0.41531521936351012 -0.21794319792942571 0 0.41480362238472729 -0.207116720939125 0 0.41531521936351012 -0.21794319792942571 0 0.42665879443346882 -0.2141550444974499 0 0.39444611483850389 -0.20645502143218639 0 0.41480362238472729 -0.207116720939125 0 0.41669889785200448 -0.19292662307656289 0 0.41669889785200448 -0.19292662307656289 0 0.43521537826424922 -0.19932707110385089 0 0.43890123641588019 -0.17947080089766959 0 0.41480362238472729 -0.207116720939125 0 0.41669889785200448 -0.19292662307656289 0 0.43521537826424922 -0.19932707110385089 0 0.43521537826424922 -0.19932707110385089 0 0.42665879443346882 -0.2141550444974499 0 0.44320551358065552 -0.21911461713200561 0 0.41480362238472729 -0.207116720939125 0 0.43521537826424922 -0.19932707110385089 0 0.42665879443346882 -0.2141550444974499 0 0.42665879443346882 -0.2141550444974499 0 0.42353704382850299 -0.2274700575632137 0 0.44320551358065552 -0.21911461713200561 0 0.42353704382850299 -0.2274700575632137 0 0.43548787776267289 -0.23673374747473561 0 0.44320551358065552 -0.21911461713200561 0 0.42353704382850299 -0.2274700575632137 0 0.43548787776267289 -0.23673374747473561 0 0.41183746198109927 -0.23935550129419861 0 0.43548787776267289 -0.23673374747473561 0 0.41183746198109927 -0.23935550129419861 0 0.43548787776267289 -0.23673374747473561 0 0.44401305150407272 -0.24794507087017659 0 0.41754834808226132 -0.25350833136302892 0 0.43548787776267289 -0.23673374747473561 0 0.41183746198109927 -0.23935550129419861 0 0.41754834808226132 -0.25350833136302892 0 0.40047080705360688 -0.24874975479372691 0 0.41183746198109927 -0.23935550129419861 0 0.41754834808226132 -0.25350833136302892 0 0.40102270897705361 -0.23388660232249031 0 0.41183746198109927 -0.23935550129419861 0 0.40839936585912262 -0.2265263335014793 0 0.40314687753740852 -0.21339738364758201 0 0.41531521936351012 -0.21794319792942571 0 0.40839936585912262 -0.2265263335014793 0 0.41531521936351012 -0.21794319792942571 0 0.42353704382850299 -0.2274700575632137 0 0.40839936585912262 -0.2265263335014793 0 0.41531521936351012 -0.21794319792942571 0 0.42665879443346882 -0.2141550444974499 0 0.42353704382850299 -0.2274700575632137 0 0.42353704382850299 -0.2274700575632137 0 0.41183746198109927 -0.23935550129419861 0 0.40839936585912262 -0.2265263335014793 0 0.39486538839856561 -0.12442883116800681 0 0.39997418032044713 -0.13575691169619411 0 0.40673205896942438 -0.12593210900504589 0 0.39997418032044713 -0.13575691169619411 0 0.41198421286768239 -0.13699038299004529 0 0.40673205896942438 -0.12593210900504589 0 0.39997418032044713 -0.13575691169619411 0 0.40581244265960259 -0.14594892657702091 0 0.41198421286768239 -0.13699038299004529 0 0.39997418032044713 -0.13575691169619411 0 0.38932780510319581 -0.13573350364626099 0 0.39307723381993959 -0.1454095214874481 0 0.39486538839856561 -0.12442883116800681 0 0.39997418032044713 -0.13575691169619411 0 0.38932780510319581 -0.13573350364626099 0 0.39486538839856561 -0.12442883116800681 0 0.37861921626728889 -0.1292376646998222 0 0.38932780510319581 -0.13573350364626099 0 0.37861921626728889 -0.1292376646998222 0 0.38932780510319581 -0.13573350364626099 0 0.38010300670973779 -0.1438345891798338 0 0.38932780510319581 -0.13573350364626099 0 0.38010300670973779 -0.1438345891798338 0 0.39307723381993959 -0.1454095214874481 0 0.38010300670973779 -0.1438345891798338 0 0.38867395566344137 -0.15420858956983571 0 0.39307723381993959 -0.1454095214874481 0 0.37292778743867933 -0.16181763200139621 0 0.38010300670973779 -0.1438345891798338 0 0.38867395566344137 -0.15420858956983571 0 0.38867395566344137 -0.15420858956983571 0 0.39307723381993959 -0.1454095214874481 0 0.40106633112328499 -0.15453996047878649 0 0.39997418032044713 -0.13575691169619411 0 0.39307723381993959 -0.1454095214874481 0 0.40581244265960259 -0.14594892657702091 0 0.40581244265960259 -0.14594892657702091 0 0.40106633112328499 -0.15453996047878649 0 0.41165373949139189 -0.15456387808452801 0 0.39307723381993959 -0.1454095214874481 0 0.40581244265960259 -0.14594892657702091 0 0.40106633112328499 -0.15453996047878649 0 0.40106633112328499 -0.15453996047878649 0 0.39619541922556212 -0.16544124470170679 0 0.40999215969987968 -0.1595822250982076 0 0.39619541922556212 -0.16544124470170679 0 0.40999215969987968 -0.1595822250982076 0 0.39619541922556212 -0.16544124470170679 0 0.39238936525719881 -0.1772381072859231 0 0.40747082276207092 -0.16719723327114661 0 0.39619541922556212 -0.16544124470170679 0 0.40747082276207092 -0.16719723327114661 0 0.40999215969987968 -0.1595822250982076 0 0.39619541922556212 -0.16544124470170679 0 0.40747082276207092 -0.16719723327114661 0 0.38867395566344137 -0.15420858956983571 0 0.40106633112328499 -0.15453996047878649 0 0.39619541922556212 -0.16544124470170679 0 0.39619541922556212 -0.16544124470170679 0 0.37832276995848901 -0.17303116803305249 0 0.37292778743867933 -0.16181763200139621 0 0.38867395566344137 -0.15420858956983571 0 0.39619541922556212 -0.16544124470170679 0 0.37292778743867933 -0.16181763200139621 0 0.39619541922556212 -0.16544124470170679 0 0.37832276995848901 -0.17303116803305249 0 0.37292778743867933 -0.16181763200139621 0 0.39619541922556212 -0.16544124470170679 0 0.37292778743867933 -0.16181763200139621 0 0.37832276995848901 -0.17303116803305249 0 0.37246794302624248 -0.19049012032763671 0 0.38636009640107549 -0.18973684767719379 0 0.37832276995848901 -0.17303116803305249 0 0.38636009640107549 -0.18973684767719379 0 0.37832276995848901 -0.17303116803305249 0 0.38636009640107549 -0.18973684767719379 0 0.37832276995848901 -0.17303116803305249 0 0.39238936525719881 -0.1772381072859231 0 0.39619541922556212 -0.16544124470170679 0 0.37832276995848901 -0.17303116803305249 0 0.39238936525719881 -0.1772381072859231 0 0.39238936525719881 -0.1772381072859231 0 0.40098369102510062 -0.18678983926330159 0 0.40747082276207092 -0.16719723327114661 0 0.40098369102510062 -0.18678983926330159 0 0.40747082276207092 -0.16719723327114661 0 0.38636009640107549 -0.18973684767719379 0 0.39238936525719881 -0.1772381072859231 0 0.40098369102510062 -0.18678983926330159 0 0.40098369102510062 -0.18678983926330159 0 0.41725902805276383 -0.1782061667723378 0 0.40747082276207092 -0.16719723327114661 0 0.41669889785200448 -0.19292662307656289 0 0.40098369102510062 -0.18678983926330159 0 0.41725902805276383 -0.1782061667723378 0 0.41725902805276383 -0.1782061667723378 0 0.42993145744211148 -0.17069516730366399 0 0.40747082276207092 -0.16719723327114661 0 0.41669889785200448 -0.19292662307656289 0 0.43890123641588019 -0.17947080089766959 0 0.41725902805276383 -0.1782061667723378 0 0.42993145744211148 -0.17069516730366399 0 0.43890123641588019 -0.17947080089766959 0 0.41669889785200448 -0.19292662307656289 0 0.41725902805276383 -0.1782061667723378 0 0.43890123641588019 -0.17947080089766959 0 0.42993145744211148 -0.17069516730366399 0 0.40999215969987968 -0.1595822250982076 0 0.4324608285334211 -0.15004052418663649 0 0.42993145744211148 -0.17069516730366399 0 0.4324608285334211 -0.15004052418663649 0 0.44780825592158902 -0.15767563094066231 0 0.42993145744211148 -0.17069516730366399 0 0.40747082276207092 -0.16719723327114661 0 0.40999215969987968 -0.1595822250982076 0 0.42993145744211148 -0.17069516730366399 0 0.40747082276207092 -0.16719723327114661 0 0.40747082276207092 -0.16719723327114661 0 0.40999215969987968 -0.1595822250982076 0 0.40999215969987968 -0.1595822250982076 0 0.41165373949139189 -0.15456387808452801 0 0.40999215969987968 -0.1595822250982076 0 0.41165373949139189 -0.15456387808452801 0 0.4324608285334211 -0.15004052418663649 0 0.41165373949139189 -0.15456387808452801 0 0.41975696782634481 -0.14445477590185599 0 0.4324608285334211 -0.15004052418663649 0 0.40999215969987968 -0.1595822250982076 0 0.4324608285334211 -0.15004052418663649 0 0.40106633112328499 -0.15453996047878649 0 0.40999215969987968 -0.1595822250982076 0 0.41165373949139189 -0.15456387808452801 0 0.40581244265960259 -0.14594892657702091 0 0.41165373949139189 -0.15456387808452801 0 0.41230184071125542 -0.14548949088836249 0 0.40581244265960259 -0.14594892657702091 0 0.41230184071125542 -0.14548949088836249 0 0.41198421286768239 -0.13699038299004529 0 0.41165373949139189 -0.15456387808452801 0 0.41230184071125542 -0.14548949088836249 0 0.41975696782634481 -0.14445477590185599 0 0.41230184071125542 -0.14548949088836249 0 0.41975696782634481 -0.14445477590185599 0 0.41198421286768239 -0.13699038299004529 0 0.41975696782634481 -0.14445477590185599 0 0.4324608285334211 -0.15004052418663649 0 0.42692204338174439 -0.13366042790517299 0 0.4324608285334211 -0.15004052418663649 0 0.42692204338174439 -0.13366042790517299 0 0.44014756752697159 -0.1371370008626851 0 0.4462779008257588 -0.12434822808386339 0 0.43446529261901312 -0.1227567697685831 0 0.42692204338174439 -0.13366042790517299 0 0.4462779008257588 -0.12434822808386339 0 0.42692204338174439 -0.13366042790517299 0 0.42451386117456219 -0.1201145336778088 0 0.42692204338174439 -0.13366042790517299 0 0.41653615251652421 -0.12671802851918071 0 0.42451386117456219 -0.1201145336778088 0 0.43446529261901312 -0.1227567697685831 0 0.42692204338174439 -0.13366042790517299 0 0.42692204338174439 -0.13366042790517299 0 0.41653615251652421 -0.12671802851918071 0 0.41198421286768239 -0.13699038299004529 0 0.41975696782634481 -0.14445477590185599 0 0.42692204338174439 -0.13366042790517299 0 0.41198421286768239 -0.13699038299004529 0 0.41653615251652421 -0.12671802851918071 0 0.41198421286768239 -0.13699038299004529 0 0.40673205896942438 -0.12593210900504589 0 0.4462779008257588 -0.12434822808386339 0 0.45492949736696281 -0.14049882327506569 0 0.46131528255232651 -0.12592322821421659 0 0.45492949736696281 -0.14049882327506569 0 0.4751489153602223 -0.13191230484234981 0 0.45492949736696281 -0.14049882327506569 0 0.46131528255232651 -0.12592322821421659 0 0.4751489153602223 -0.13191230484234981 0 0.4462779008257588 -0.12434822808386339 0 0.45492949736696281 -0.14049882327506569 0 0.4462779008257588 -0.12434822808386339 0 0.45492949736696281 -0.14049882327506569 0 0.44014756752697159 -0.1371370008626851 0 0.4462779008257588 -0.12434822808386339 0 0.42692204338174439 -0.13366042790517299 0 0.44014756752697159 -0.1371370008626851 0 0.4324608285334211 -0.15004052418663649 0 0.45492949736696281 -0.14049882327506569 0 0.44780825592158902 -0.15767563094066231 0 0.4324608285334211 -0.15004052418663649 0 0.45492949736696281 -0.14049882327506569 0 0.44014756752697159 -0.1371370008626851 0 0.4324608285334211 -0.15004052418663649 0 0.45492949736696281 -0.14049882327506569 0 0.45492949736696281 -0.14049882327506569 0 0.46489111208458228 -0.1590949293218806 0 0.45492949736696281 -0.14049882327506569 0 0.46489111208458228 -0.1590949293218806 0 0.4751489153602223 -0.13191230484234981 0 0.45492949736696281 -0.14049882327506569 0 0.46489111208458228 -0.1590949293218806 0 0.44780825592158902 -0.15767563094066231 0 0.46489111208458228 -0.1590949293218806 0 0.45239209212215209 -0.17419310133618179 0 0.4748527268021927 -0.17769103536870051 0 0.46489111208458228 -0.1590949293218806 0 0.44780825592158902 -0.15767563094066231 0 0.45239209212215209 -0.17419310133618179 0 0.42993145744211148 -0.17069516730366399 0 0.44780825592158902 -0.15767563094066231 0 0.45239209212215209 -0.17419310133618179 0 0.42993145744211148 -0.17069516730366399 0 0.45239209212215209 -0.17419310133618179 0 0.43890123641588019 -0.17947080089766959 0 0.42993145744211148 -0.17069516730366399 0 0.45239209212215209 -0.17419310133618179 0 0.45239209212215209 -0.17419310133618179 0 0.43890123641588019 -0.17947080089766959 0 0.45015824044066072 -0.1894618757356096 0 0.45239209212215209 -0.17419310133618179 0 0.4748527268021927 -0.17769103536870051 0 0.45239209212215209 -0.17419310133618179 0 0.4748527268021927 -0.17769103536870051 0 0.4654513195201947 -0.19124635534344631 0 0.45239209212215209 -0.17419310133618179 0 0.45015824044066072 -0.1894618757356096 0 0.4654513195201947 -0.19124635534344631 0 0.4748527268021927 -0.17769103536870051 0 0.48611407880833513 -0.1794448356061189 0 0.48742636340109269 -0.20116320190150699 0 0.4748527268021927 -0.17769103536870051 0 0.48611407880833513 -0.1794448356061189 0 0.4748527268021927 -0.17769103536870051 0 0.48611407880833513 -0.1794448356061189 0 0.48249486098235339 -0.1684180656962535 0 0.50000000000000178 -0.17801865044390211 0 0.48611407880833513 -0.1794448356061189 0 0.48249486098235339 -0.1684180656962535 0 0.50000000000000178 -0.17801865044390211 0 0.48611407880833513 -0.1794448356061189 0 0.49338511055235768 -0.1899884243476585 0 0.50000000000000178 -0.17801865044390211 0 0.48757445768011293 -0.15496547764312549 0 0.50000000000000178 -0.17801865044390211 0 0.48249486098235339 -0.1684180656962535 0 0.48757445768011293 -0.15496547764312549 0 0.50000000000000178 -0.17801865044390211 0 0.48757445768011293 -0.15496547764312549 0 0.5 -0.14968876056839139 0 0.46489111208458228 -0.1590949293218806 0 0.4748527268021927 -0.17769103536870051 0 0.46489111208458228 -0.1590949293218806 0 0.48249486098235339 -0.1684180656962535 0 0.48757445768011293 -0.15496547764312549 0 0.46489111208458228 -0.1590949293218806 0 0.4748527268021927 -0.17769103536870051 0 0.48249486098235339 -0.1684180656962535 0 0.48757445768011293 -0.15496547764312549 0 0.4751489153602223 -0.13191230484234981 0 0.46489111208458228 -0.1590949293218806 0 0.48757445768011293 -0.15496547764312549 0 0.4751489153602223 -0.13191230484234981 0 0.48757445768011293 -0.15496547764312549 0 0.5 -0.14968876056839139 0 0.4751489153602223 -0.13191230484234981 0 0.50000000000001454 -0.1213588706928808 0 0.5 -0.14968876056839139 0 0.4751489153602223 -0.13191230484234981 0 0.50000000000001454 -0.1213588706928808 0 0.4751489153602223 -0.13191230484234981 0 0.45913829354424662 -0.23411199365527269 0 0.44320551358065552 -0.21911461713200561 0 0.46606020063026821 -0.21686281697836621 0 0.45913829354424662 -0.23411199365527269 0 0.46606020063026821 -0.21686281697836621 0 0.47578805318178591 -0.22474859970640601 0 0.44401305150407272 -0.24794507087017659 0 0.47047775492588401 -0.2423818103773242 0 0.45913829354424662 -0.23411199365527269 0 0.44401305150407272 -0.24794507087017659 0 0.47047775492588401 -0.2423818103773242 0 0.44401305150407272 -0.24794507087017659 0 0.47047775492588401 -0.2423818103773242 0 0.45736184061689439 -0.25548329675840448 0 0.43548787776267289 -0.23673374747473561 0 0.45913829354424662 -0.23411199365527269 0 0.44401305150407272 -0.24794507087017659 0 0.43548787776267289 -0.23673374747473561 0 0.45913829354424662 -0.23411199365527269 0 0.43548787776267289 -0.23673374747473561 0 0.45913829354424662 -0.23411199365527269 0 0.44320551358065552 -0.21911461713200561 0 0.43521537826424922 -0.19932707110385089 0 0.44320551358065552 -0.21911461713200561 0 0.45631061382685978 -0.20409113915287139 0 0.43521537826424922 -0.19932707110385089 0 0.43890123641588019 -0.17947080089766959 0 0.45015824044066072 -0.1894618757356096 0 0.43521537826424922 -0.19932707110385089 0 0.45015824044066072 -0.1894618757356096 0 0.45631061382685978 -0.20409113915287139 0 0.45015824044066072 -0.1894618757356096 0 0.4654513195201947 -0.19124635534344631 0 0.45631061382685978 -0.20409113915287139 0 0.4654513195201947 -0.19124635534344631 0 0.45631061382685978 -0.20409113915287139 0 0.47120826024258511 -0.20522524267982331 0 0.44320551358065552 -0.21911461713200561 0 0.45631061382685978 -0.20409113915287139 0 0.46606020063026821 -0.21686281697836621 0 0.45631061382685978 -0.20409113915287139 0 0.46606020063026821 -0.21686281697836621 0 0.47120826024258511 -0.20522524267982331 0 0.46606020063026821 -0.21686281697836621 0 0.48064296204883278 -0.21457414340376479 0 0.47578805318178591 -0.22474859970640601 0 0.46606020063026821 -0.21686281697836621 0 0.47120826024258511 -0.20522524267982331 0 0.48064296204883278 -0.21457414340376479 0 0.47120826024258511 -0.20522524267982331 0 0.48064296204883278 -0.21457414340376479 0 0.48742636340109269 -0.20116320190150699 0 0.4748527268021927 -0.17769103536870051 0 0.4654513195201947 -0.19124635534344631 0 0.48742636340109269 -0.20116320190150699 0 0.4748527268021927 -0.17769103536870051 0 0.48742636340109269 -0.20116320190150699 0 0.4654513195201947 -0.19124635534344631 0 0.47120826024258511 -0.20522524267982331 0 0.48742636340109269 -0.20116320190150699 0 0.50000000000000178 -0.17801865044390211 0 0.5 -0.20132700943910661 0 0.49338511055235768 -0.1899884243476585 0 0.48611407880833513 -0.1794448356061189 0 0.48742636340109269 -0.20116320190150699 0 0.49338511055235768 -0.1899884243476585 0 0.48742636340109269 -0.20116320190150699 0 0.5 -0.20132700943910661 0 0.49338511055235768 -0.1899884243476585 0 0.48742636340109269 -0.20116320190150699 0 0.5 -0.20132700943910661 0 0.49999999999999678 -0.22463536843431131 0 0.48742636340109269 -0.20116320190150699 0 0.49999999999999678 -0.22463536843431131 0 0.49001350887147199 -0.22153205923891259 0 0.48742636340109269 -0.20116320190150699 0 0.49999999999999678 -0.22463536843431131 0 0.48064296204883278 -0.21457414340376479 0 0.48742636340109269 -0.20116320190150699 0 0.49001350887147199 -0.22153205923891259 0 0.50000000000000422 -0.22958229168472069 0 0.49001350887147199 -0.22153205923891259 0 0.48279090692053922 -0.22909476735708639 0 0.49999999999999678 -0.22463536843431131 0 0.50000000000000422 -0.22958229168472069 0 0.49001350887147199 -0.22153205923891259 0 0.50000000000000422 -0.22958229168472069 0 0.48279090692053922 -0.22909476735708639 0 0.48278870932582008 -0.23149023983580841 0 0.50000000000000422 -0.22958229168472069 0 0.48278870932582008 -0.23149023983580841 0 0.48064296204883278 -0.21457414340376479 0 0.49001350887147199 -0.22153205923891259 0 0.48259411171718652 -0.22245031944985499 0 0.49001350887147199 -0.22153205923891259 0 0.48259411171718652 -0.22245031944985499 0 0.48279090692053922 -0.22909476735708639 0 0.45913829354424662 -0.23411199365527269 0 0.48278870932582008 -0.23149023983580841 0 0.47578805318178591 -0.22474859970640601 0 0.48064296204883278 -0.21457414340376479 0 0.48259411171718652 -0.22245031944985499 0 0.47578805318178591 -0.22474859970640601 0 0.45913829354424662 -0.23411199365527269 0 0.48278870932582008 -0.23149023983580841 0 0.48259411171718652 -0.22245031944985499 0 0.48279090692053922 -0.22909476735708639 0 0.47578805318178591 -0.22474859970640601 0 0.48279090692053922 -0.22909476735708639 0 0.48278870932582008 -0.23149023983580841 0 0.48279090692053922 -0.22909476735708639 0 0.48278870932582008 -0.23149023983580841 0 0.47578805318178591 -0.22474859970640601 0 0.48278870932582008 -0.23149023983580841 0 0.47047775492588401 -0.2423818103773242 0 0.48276473495922412 -0.25762332746698419 0 0.48278870932582008 -0.23149023983580841 0 0.48276473495922412 -0.25762332746698419 0 0.45913829354424662 -0.23411199365527269 0 0.48278870932582008 -0.23149023983580841 0 0.47047775492588401 -0.2423818103773242 0 0.50000000000000422 -0.22958229168472069 0 0.4913883610712621 -0.24359759223211491 0 0.5 -0.25569450994094428 0 0.50000000000000422 -0.22958229168472069 0 0.48278870932582008 -0.23149023983580841 0 0.4913883610712621 -0.24359759223211491 0 0.48278870932582008 -0.23149023983580841 0 0.4913883610712621 -0.24359759223211491 0 0.48276473495922412 -0.25762332746698419 0 0.4913883610712621 -0.24359759223211491 0 0.5 -0.25569450994094428 0 0.48276473495922412 -0.25762332746698419 0 0.5 -0.25569450994094428 0 0.49137637388796312 -0.26972024517581411 0 0.48276473495922412 -0.25762332746698419 0 0.49137637388796312 -0.26972024517581411 0 0.48274076059262822 -0.28375641509816008 0 0.5 -0.28180672819716779 0 0.49137637388796312 -0.26972024517581411 0 0.48276473495922412 -0.25762332746698419 0 0.48274076059262822 -0.28375641509816008 0 0.5 -0.25569450994094428 0 0.49137637388796312 -0.26972024517581411 0 0.5 -0.28180672819716779 0 0.46954242057377171 -0.27152477525682089 0 0.48276473495922412 -0.25762332746698419 0 0.48274076059262822 -0.28375641509816008 0 0.46954242057377171 -0.27152477525682089 0 0.46205245189388161 -0.28803593671117073 0 0.48274076059262822 -0.28375641509816008 0 0.48276473495922412 -0.25762332746698419 0 0.48274076059262822 -0.28375641509816008 0 0.46954242057377171 -0.27152477525682089 0 0.48276473495922412 -0.25762332746698419 0 0.46787891525744352 -0.2573104501722796 0 0.47047775492588401 -0.2423818103773242 0 0.48276473495922412 -0.25762332746698419 0 0.46787891525744352 -0.2573104501722796 0 0.47047775492588401 -0.2423818103773242 0 0.46787891525744352 -0.2573104501722796 0 0.45736184061689439 -0.25548329675840448 0 0.45736184061689439 -0.25548329675840448 0 0.45948204567119139 -0.26396961557896648 0 0.44495743572588048 -0.26580953679327579 0 0.46954242057377171 -0.27152477525682089 0 0.46787891525744352 -0.2573104501722796 0 0.45948204567119139 -0.26396961557896648 0 0.46787891525744352 -0.2573104501722796 0 0.45736184061689439 -0.25548329675840448 0 0.45948204567119139 -0.26396961557896648 0 0.46954242057377171 -0.27152477525682089 0 0.45749325129120938 -0.27384784515812471 0 0.46205245189388161 -0.28803593671117073 0 0.46954242057377171 -0.27152477525682089 0 0.45948204567119139 -0.26396961557896648 0 0.45749325129120938 -0.27384784515812471 0 0.45749325129120938 -0.27384784515812471 0 0.44953516552136069 -0.28081971195098121 0 0.46205245189388161 -0.28803593671117073 0 0.45948204567119139 -0.26396961557896648 0 0.45749325129120938 -0.27384784515812471 0 0.44495743572588048 -0.26580953679327579 0 0.45749325129120938 -0.27384784515812471 0 0.44953516552136069 -0.28081971195098121 0 0.44495743572588048 -0.26580953679327579 0 0.44953516552136069 -0.28081971195098121 0 0.4378097606404579 -0.28054398878617148 0 0.44495743572588048 -0.26580953679327579 0 0.44401305150407272 -0.24794507087017659 0 0.44495743572588048 -0.26580953679327579 0 0.43135824380852328 -0.26055192968469981 0 0.44401305150407272 -0.24794507087017659 0 0.45736184061689439 -0.25548329675840448 0 0.44495743572588048 -0.26580953679327579 0 0.44613773989927102 -0.29516380895268413 0 0.45713933468075368 -0.3054616434722443 0 0.44629586795297388 -0.31596060758427502 0 0.44613773989927102 -0.29516380895268413 0 0.44629586795297388 -0.31596060758427502 0 0.43239746491407322 -0.30986668592993749 0 0.44953516552136069 -0.28081971195098121 0 0.44613773989927102 -0.29516380895268413 0 0.46205245189388161 -0.28803593671117073 0 0.4378097606404579 -0.28054398878617148 0 0.44613773989927102 -0.29516380895268413 0 0.43218340902029939 -0.29345784577371647 0 0.44953516552136069 -0.28081971195098121 0 0.4378097606404579 -0.28054398878617148 0 0.44613773989927102 -0.29516380895268413 0 0.44613773989927102 -0.29516380895268413 0 0.46205245189388161 -0.28803593671117073 0 0.45713933468075368 -0.3054616434722443 0 0.46205245189388161 -0.28803593671117073 0 0.45713933468075368 -0.3054616434722443 0 0.47043578101764177 -0.30154694463200399 0 0.45713933468075368 -0.3054616434722443 0 0.47043578101764177 -0.30154694463200399 0 0.46752957169491322 -0.32059122514910859 0 0.47043578101764177 -0.30154694463200399 0 0.48271678622603231 -0.30988950272933619 0 0.46752957169491322 -0.32059122514910859 0 0.47043578101764177 -0.30154694463200399 0 0.48271678622603231 -0.30988950272933619 0 0.48274076059262822 -0.28375641509816008 0 0.48271678622603231 -0.30988950272933619 0 0.48274076059262822 -0.28375641509816008 0 0.46205245189388161 -0.28803593671117073 0 0.47043578101764177 -0.30154694463200399 0 0.48274076059262822 -0.28375641509816008 0 0.48271678622603231 -0.30988950272933619 0 0.48274076059262822 -0.28375641509816008 0 0.49136438670466509 -0.29584289811951392 0 0.48274076059262822 -0.28375641509816008 0 0.49136438670466509 -0.29584289811951392 0 0.5 -0.28180672819716779 0 0.49136438670466509 -0.29584289811951392 0 0.5 -0.28180672819716779 0 0.5 -0.30791894645339141 0 0.48271678622603231 -0.30988950272933619 0 0.49136438670466509 -0.29584289811951392 0 0.5 -0.30791894645339141 0 0.5 -0.30791894645339141 0 0.49135239952136722 -0.32196555106321367 0 0.5 -0.33403116470961491 0 0.48271678622603231 -0.30988950272933619 0 0.49135239952136722 -0.32196555106321367 0 0.48269281185943652 -0.3360225903605123 0 0.48271678622603231 -0.30988950272933619 0 0.5 -0.30791894645339141 0 0.49135239952136722 -0.32196555106321367 0 0.5 -0.33403116470961491 0 0.48269281185943652 -0.3360225903605123 0 0.48043310290668723 -0.35167249345008372 0 0.49135239952136722 -0.32196555106321367 0 0.5 -0.33403116470961491 0 0.48269281185943652 -0.3360225903605123 0 0.48269281185943652 -0.3360225903605123 0 0.46752957169491322 -0.32059122514910859 0 0.4663766610750647 -0.33686936013775559 0 0.48269281185943652 -0.3360225903605123 0 0.48043310290668723 -0.35167249345008372 0 0.4663766610750647 -0.33686936013775559 0 0.48271678622603231 -0.30988950272933619 0 0.48269281185943652 -0.3360225903605123 0 0.48271678622603231 -0.30988950272933619 0 0.48269281185943652 -0.3360225903605123 0 0.46752957169491322 -0.32059122514910859 0 0.5 -0.36014338296583848 0 0.48043310290668723 -0.35167249345008372 0 0.47787296913244848 -0.36833575078243541 0 0.5 -0.36014338296583848 0 0.47787296913244848 -0.36833575078243541 0 0.5 -0.38625560122206221 0 0.5 -0.33403116470961491 0 0.5 -0.36014338296583848 0 0.48043310290668723 -0.35167249345008372 0 0.48043310290668723 -0.35167249345008372 0 0.47787296913244848 -0.36833575078243541 0 0.46332705425638038 -0.35362868027347971 0 0.48043310290668723 -0.35167249345008372 0 0.46332705425638038 -0.35362868027347971 0 0.4663766610750647 -0.33686936013775559 0 0.47787296913244848 -0.36833575078243541 0 0.45746568047711089 -0.36847429474054771 0 0.46332705425638038 -0.35362868027347971 0 0.47787296913244848 -0.36833575078243541 0 0.45746568047711089 -0.36847429474054771 0 0.46454220975096722 -0.38321266287268613 0 0.46332705425638038 -0.35362868027347971 0 0.44490861196366799 -0.3548212895369014 0 0.45294207481177251 -0.3435161117556933 0 0.45746568047711089 -0.36847429474054771 0 0.46332705425638038 -0.35362868027347971 0 0.44490861196366799 -0.3548212895369014 0 0.46332705425638038 -0.35362868027347971 0 0.4663766610750647 -0.33686936013775559 0 0.45294207481177251 -0.3435161117556933 0 0.44490861196366799 -0.3548212895369014 0 0.45294207481177251 -0.3435161117556933 0 0.43824770794760631 -0.33800832600492059 0 0.44490861196366799 -0.3548212895369014 0 0.44223049685139859 -0.37305048370126942 0 0.43139321521326868 -0.36280711196215282 0 0.45746568047711089 -0.36847429474054771 0 0.44490861196366799 -0.3548212895369014 0 0.44223049685139859 -0.37305048370126942 0 0.45746568047711089 -0.36847429474054771 0 0.44223049685139859 -0.37305048370126942 0 0.45161329649306331 -0.38284012380922972 0 0.45713933468075368 -0.3054616434722443 0 0.46752957169491322 -0.32059122514910859 0 0.44629586795297388 -0.31596060758427502 0 0.46752957169491322 -0.32059122514910859 0 0.45214617718404682 -0.33100897544786001 0 0.44629586795297388 -0.31596060758427502 0 0.46752957169491322 -0.32059122514910859 0 0.4663766610750647 -0.33686936013775559 0 0.45214617718404682 -0.33100897544786001 0 0.4663766610750647 -0.33686936013775559 0 0.45214617718404682 -0.33100897544786001 0 0.45294207481177251 -0.3435161117556933 0 0.45214617718404682 -0.33100897544786001 0 0.45294207481177251 -0.3435161117556933 0 0.43824770794760631 -0.33800832600492059 0 0.45214617718404682 -0.33100897544786001 0 0.43824770794760631 -0.33800832600492059 0 0.43865831952170142 -0.32495482752539029 0 0.45214617718404682 -0.33100897544786001 0 0.43865831952170142 -0.32495482752539029 0 0.44629586795297388 -0.31596060758427502 0 0.43865831952170142 -0.32495482752539029 0 0.44629586795297388 -0.31596060758427502 0 0.43239746491407322 -0.30986668592993749 0 0.43865831952170142 -0.32495482752539029 0 0.42535151594346371 -0.32727541423950729 0 0.43239746491407322 -0.30986668592993749 0 0.42535151594346371 -0.32727541423950729 0 0.43239746491407322 -0.30986668592993749 0 0.41879507974885583 -0.31225338432178268 0 0.43824770794760631 -0.33800832600492059 0 0.42535151594346371 -0.32727541423950729 0 0.42579324069230329 -0.34729329685086913 0 0.43824770794760631 -0.33800832600492059 0 0.43865831952170142 -0.32495482752539029 0 0.42535151594346371 -0.32727541423950729 0 0.41299281698659879 -0.33437178054299271 0 0.42579324069230329 -0.34729329685086913 0 0.40451203736579622 -0.34680412819119039 0 0.42535151594346371 -0.32727541423950729 0 0.41299281698659879 -0.33437178054299271 0 0.42579324069230329 -0.34729329685086913 0 0.41299281698659879 -0.33437178054299271 0 0.40788639062985299 -0.32076770020844048 0 0.39935443608465149 -0.33078448185105119 0 0.42535151594346371 -0.32727541423950729 0 0.40788639062985299 -0.32076770020844048 0 0.41879507974885583 -0.31225338432178268 0 0.42535151594346371 -0.32727541423950729 0 0.41299281698659879 -0.33437178054299271 0 0.40788639062985299 -0.32076770020844048 0 0.43139321521326868 -0.36280711196215282 0 0.41549990745366272 -0.36381032428207932 0 0.42846357650974559 -0.37708822182410551 0 0.44223049685139859 -0.37305048370126942 0 0.43139321521326868 -0.36280711196215282 0 0.42846357650974559 -0.37708822182410551 0 0.44490861196366799 -0.3548212895369014 0 0.43824770794760631 -0.33800832600492059 0 0.42579324069230329 -0.34729329685086913 0 0.44490861196366799 -0.3548212895369014 0 0.43139321521326868 -0.36280711196215282 0 0.42579324069230329 -0.34729329685086913 0 0.43139321521326868 -0.36280711196215282 0 0.42579324069230329 -0.34729329685086913 0 0.41549990745366272 -0.36381032428207932 0 0.41549990745366272 -0.36381032428207932 0 0.40218037920214422 -0.36067843916195691 0 0.40451203736579622 -0.34680412819119039 0 0.42579324069230329 -0.34729329685086913 0 0.41549990745366272 -0.36381032428207932 0 0.40451203736579622 -0.34680412819119039 0 0.41549990745366272 -0.36381032428207932 0 0.42846357650974559 -0.37708822182410551 0 0.41673539260748882 -0.3838128686918183 0 0.38791474938904252 -0.35359919093076259 0 0.40079482260007537 -0.37850011324379529 0 0.41549990745366272 -0.36381032428207932 0 0.40218037920214422 -0.36067843916195691 0 0.40079482260007537 -0.37850011324379529 0 0.40218037920214422 -0.36067843916195691 0 0.38791474938904252 -0.35359919093076259 0 0.40079482260007537 -0.37850011324379529 0 0.40218037920214422 -0.36067843916195691 0 0.40451203736579622 -0.34680412819119039 0 0.38791474938904252 -0.35359919093076259 0 0.40451203736579622 -0.34680412819119039 0 0.38791474938904252 -0.35359919093076259 0 0.38861140585163201 -0.33838168293102572 0 0.38791474938904252 -0.35359919093076259 0 0.38861140585163201 -0.33838168293102572 0 0.36782299191996798 -0.3553788282075922 0 0.38861140585163201 -0.33838168293102572 0 0.36782299191996798 -0.3553788282075922 0 0.38791474938904252 -0.35359919093076259 0 0.38206362569321761 -0.37240728987031618 0 0.36782299191996798 -0.3553788282075922 0 0.38791474938904252 -0.35359919093076259 0 0.38206362569321761 -0.37240728987031618 0 0.40079482260007537 -0.37850011324379529 0 0.40788639062985299 -0.32076770020844048 0 0.39294651166966199 -0.31635128792804867 0 0.40764703668308327 -0.30381232453189722 0 0.39294651166966199 -0.31635128792804867 0 0.39935443608465149 -0.33078448185105119 0 0.38757347594899832 -0.32704018161300402 0 0.40788639062985299 -0.32076770020844048 0 0.39294651166966199 -0.31635128792804867 0 0.39935443608465149 -0.33078448185105119 0 0.41299281698659879 -0.33437178054299271 0 0.40451203736579622 -0.34680412819119039 0 0.39935443608465149 -0.33078448185105119 0 0.40451203736579622 -0.34680412819119039 0 0.39935443608465149 -0.33078448185105119 0 0.38861140585163201 -0.33838168293102572 0 0.39935443608465149 -0.33078448185105119 0 0.38861140585163201 -0.33838168293102572 0 0.38757347594899832 -0.32704018161300402 0 0.38861140585163201 -0.33838168293102572 0 0.37166975028776988 -0.33664462777591869 0 0.36782299191996798 -0.3553788282075922 0 0.38861140585163201 -0.33838168293102572 0 0.37928653318676298 -0.32940867301597648 0 0.37166975028776988 -0.33664462777591869 0 0.38861140585163201 -0.33838168293102572 0 0.37928653318676298 -0.32940867301597648 0 0.38757347594899832 -0.32704018161300402 0 0.37928653318676298 -0.32940867301597648 0 0.37994671867561691 -0.32033806446789542 0 0.38757347594899832 -0.32704018161300402 0 0.37928653318676298 -0.32940867301597648 0 0.37994671867561691 -0.32033806446789542 0 0.36863131516979752 -0.32463880829203873 0 0.39294651166966199 -0.31635128792804867 0 0.37994671867561691 -0.32033806446789542 0 0.38757347594899832 -0.32704018161300402 0 0.39294651166966199 -0.31635128792804867 0 0.37994671867561691 -0.32033806446789542 0 0.38314168426366901 -0.31008477914065391 0 0.37994671867561691 -0.32033806446789542 0 0.38314168426366901 -0.31008477914065391 0 0.37336379812188009 -0.31415628034038462 0 0.38314168426366901 -0.31008477914065391 0 0.37450707626122243 -0.30700713456631101 0 0.37336379812188009 -0.31415628034038462 0 0.38023146663690488 -0.30208471378605012 0 0.38314168426366901 -0.31008477914065391 0 0.37450707626122243 -0.30700713456631101 0 0.38023146663690488 -0.30208471378605012 0 0.37618272607635911 -0.2956291221182839 0 0.37146225775913599 -0.30134086049025122 0 0.38023146663690488 -0.30208471378605012 0 0.38537171812300219 -0.29329452202387202 0 0.37618272607635911 -0.2956291221182839 0 0.38023146663690488 -0.30208471378605012 0 0.37146225775913599 -0.30134086049025122 0 0.37450707626122243 -0.30700713456631101 0 0.38023146663690488 -0.30208471378605012 0 0.39148389104891829 -0.3028607694578046 0 0.38537171812300219 -0.29329452202387202 0 0.38023146663690488 -0.30208471378605012 0 0.38314168426366901 -0.31008477914065391 0 0.39148389104891829 -0.3028607694578046 0 0.39294651166966199 -0.31635128792804867 0 0.38314168426366901 -0.31008477914065391 0 0.39148389104891829 -0.3028607694578046 0 0.39294651166966199 -0.31635128792804867 0 0.39148389104891829 -0.3028607694578046 0 0.40764703668308327 -0.30381232453189722 0 0.39148389104891829 -0.3028607694578046 0 0.3998444166847962 -0.29518298193122711 0 0.40764703668308327 -0.30381232453189722 0 0.39148389104891829 -0.3028607694578046 0 0.3998444166847962 -0.29518298193122711 0 0.38537171812300219 -0.29329452202387202 0 0.39698175170414768 -0.28416488314340083 0 0.40710272512090212 -0.27996268507747257 0 0.41222798919276721 -0.28838108874109541 0 0.3998444166847962 -0.29518298193122711 0 0.39698175170414768 -0.28416488314340083 0 0.41222798919276721 -0.28838108874109541 0 0.3998444166847962 -0.29518298193122711 0 0.39698175170414768 -0.28416488314340083 0 0.38537171812300219 -0.29329452202387202 0 0.39698175170414768 -0.28416488314340083 0 0.38537171812300219 -0.29329452202387202 0 0.38222456059613541 -0.28440685670601512 0 0.38537171812300219 -0.29329452202387202 0 0.37680994162527082 -0.28991670159948929 0 0.38222456059613541 -0.28440685670601512 0 0.38537171812300219 -0.29329452202387202 0 0.37680994162527082 -0.28991670159948929 0 0.37618272607635911 -0.2956291221182839 0 0.37680994162527082 -0.28991670159948929 0 0.38222456059613541 -0.28440685670601512 0 0.36931767214637001 -0.28242838282719818 0 0.38786148004417281 -0.27262860269787809 0 0.36931767214637001 -0.28242838282719818 0 0.38786148004417281 -0.27262860269787809 0 0.37328448038619899 -0.2704477241878086 0 0.36931767214637001 -0.28242838282719818 0 0.38222456059613541 -0.28440685670601512 0 0.38786148004417281 -0.27262860269787809 0 0.36931767214637001 -0.28242838282719818 0 0.38786148004417281 -0.27262860269787809 0 0.38400113619652698 -0.26454967523213752 0 0.37328448038619899 -0.2704477241878086 0 0.39698175170414768 -0.28416488314340083 0 0.38222456059613541 -0.28440685670601512 0 0.38786148004417281 -0.27262860269787809 0 0.38250243345962381 -0.24260741972897651 0 0.38073576329286218 -0.25621248965073501 0 0.37328448038619899 -0.2704477241878086 0 0.38250243345962381 -0.24260741972897651 0 0.37328448038619899 -0.2704477241878086 0 0.38073576329286218 -0.25621248965073501 0 0.37328448038619899 -0.2704477241878086 0 0.38073576329286218 -0.25621248965073501 0 0.38400113619652698 -0.26454967523213752 0 0.37328448038619899 -0.2704477241878086 0 0.38786148004417281 -0.27262860269787809 0 0.38400113619652698 -0.26454967523213752 0 0.39108364466044993 -0.2590715918558813 0 0.38073576329286218 -0.25621248965073501 0 0.38400113619652698 -0.26454967523213752 0 0.39108364466044993 -0.2590715918558813 0 0.38073576329286218 -0.25621248965073501 0 0.39187191238393959 -0.25068644052127081 0 0.39108364466044993 -0.2590715918558813 0 0.40047080705360688 -0.24874975479372691 0 0.39108364466044993 -0.2590715918558813 0 0.41754834808226132 -0.25350833136302892 0 0.39108364466044993 -0.2590715918558813 0 0.41754834808226132 -0.25350833136302892 0 0.39108364466044993 -0.2590715918558813 0 0.40640528794197528 -0.26282882256855777 0 0.41754834808226132 -0.25350833136302892 0 0.38786148004417281 -0.27262860269787809 0 0.39108364466044993 -0.2590715918558813 0 0.40640528794197528 -0.26282882256855777 0 0.40047080705360688 -0.24874975479372691 0 0.39187191238393959 -0.25068644052127081 0 0.39108364466044993 -0.2590715918558813 0 0.38786148004417281 -0.27262860269787809 0 0.40190299216710551 -0.27420546462244982 0 0.40640528794197528 -0.26282882256855777 0 0.38786148004417281 -0.27262860269787809 0 0.40640528794197528 -0.26282882256855777 0 0.39698175170414768 -0.28416488314340083 0 0.38786148004417281 -0.27262860269787809 0 0.40190299216710551 -0.27420546462244982 0 0.39698175170414768 -0.28416488314340083 0 0.40190299216710551 -0.27420546462244982 0 0.40710272512090212 -0.27996268507747257 0 0.40710272512090212 -0.27996268507747257 0 0.41519413488203422 -0.27397171376999591 0 0.41222798919276721 -0.28838108874109541 0 0.40190299216710551 -0.27420546462244982 0 0.40710272512090212 -0.27996268507747257 0 0.41519413488203422 -0.27397171376999591 0 0.40190299216710551 -0.27420546462244982 0 0.41519413488203422 -0.27397171376999591 0 0.40640528794197528 -0.26282882256855777 0 0.41519413488203422 -0.27397171376999591 0 0.40640528794197528 -0.26282882256855777 0 0.4208008664694225 -0.26431850672480561 0 0.41519413488203422 -0.27397171376999591 0 0.4208008664694225 -0.26431850672480561 0 0.42916664140003591 -0.27121200540044282 0 0.40640528794197528 -0.26282882256855777 0 0.4208008664694225 -0.26431850672480561 0 0.41754834808226132 -0.25350833136302892 0 0.44401305150407272 -0.24794507087017659 0 0.41754834808226132 -0.25350833136302892 0 0.43135824380852328 -0.26055192968469981 0 0.44401305150407272 -0.24794507087017659 0 0.41754834808226132 -0.25350833136302892 0 0.4208008664694225 -0.26431850672480561 0 0.41754834808226132 -0.25350833136302892 0 0.43135824380852328 -0.26055192968469981 0 0.4208008664694225 -0.26431850672480561 0 0.43135824380852328 -0.26055192968469981 0 0.42916664140003591 -0.27121200540044282 0 0.44495743572588048 -0.26580953679327579 0 0.43135824380852328 -0.26055192968469981 0 0.42916664140003591 -0.27121200540044282 0 0.4378097606404579 -0.28054398878617148 0 0.44495743572588048 -0.26580953679327579 0 0.42916664140003591 -0.27121200540044282 0 0.41519413488203422 -0.27397171376999591 0 0.42916664140003591 -0.27121200540044282 0 0.42425551286975072 -0.28344048868896871 0 0.4378097606404579 -0.28054398878617148 0 0.42916664140003591 -0.27121200540044282 0 0.42425551286975072 -0.28344048868896871 0 0.4378097606404579 -0.28054398878617148 0 0.42425551286975072 -0.28344048868896871 0 0.43218340902029939 -0.29345784577371647 0 0.42425551286975072 -0.28344048868896871 0 0.43218340902029939 -0.29345784577371647 0 0.42069299057380583 -0.29954479669913142 0 0.43218340902029939 -0.29345784577371647 0 0.43239746491407322 -0.30986668592993749 0 0.42069299057380583 -0.29954479669913142 0 0.44613773989927102 -0.29516380895268413 0 0.43218340902029939 -0.29345784577371647 0 0.43239746491407322 -0.30986668592993749 0 0.43239746491407322 -0.30986668592993749 0 0.42069299057380583 -0.29954479669913142 0 0.41879507974885583 -0.31225338432178268 0 0.40788639062985299 -0.32076770020844048 0 0.41879507974885583 -0.31225338432178268 0 0.40764703668308327 -0.30381232453189722 0 0.42069299057380583 -0.29954479669913142 0 0.41879507974885583 -0.31225338432178268 0 0.40764703668308327 -0.30381232453189722 0 0.42069299057380583 -0.29954479669913142 0 0.40764703668308327 -0.30381232453189722 0 0.41222798919276721 -0.28838108874109541 0 0.3998444166847962 -0.29518298193122711 0 0.40764703668308327 -0.30381232453189722 0 0.41222798919276721 -0.28838108874109541 0 0.42425551286975072 -0.28344048868896871 0 0.42069299057380583 -0.29954479669913142 0 0.41222798919276721 -0.28838108874109541 0 0.41519413488203422 -0.27397171376999591 0 0.42425551286975072 -0.28344048868896871 0 0.41222798919276721 -0.28838108874109541 0 0.44845756455699548 -0.49999999999999489 0 0.4624409006857827 -0.47622560468084302 0 0.48310299509080512 -0.47646665625455642 0 0.45266149441555992 -0.4876327819851809 0 0.44304842384825172 -0.49884593719832621 0 0.44465536992462912 -0.47814317999533762 0 0.44304842384825172 -0.49884593719832621 0 0.44465536992462912 -0.47814317999533762 0 0.43580604127013278 -0.49762385487300831 0 0.44465536992462912 -0.47814317999533762 0 0.43580604127013278 -0.49762385487300831 0 0.44465536992462912 -0.47814317999533762 0 0.43322090971870059 -0.4846981733028643 0 0.43580604127013278 -0.49762385487300831 0 0.45266149441555992 -0.4876327819851809 0 0.44304842384825172 -0.49884593719832621 0 0.45266149441555992 -0.4876327819851809 0 0.44845756455699548 -0.49999999999999489 0 0.44304842384825172 -0.49884593719832621 0 0.44465536992462912 -0.47814317999533762 0 0.4624409006857827 -0.47622560468084302 0 0.45166438602519848 -0.4627137198409611 0 0.44465536992462912 -0.47814317999533762 0 0.45166438602519848 -0.4627137198409611 0 0.45266149441555992 -0.4876327819851809 0 0.44465536992462912 -0.47814317999533762 0 0.45266149441555992 -0.4876327819851809 0 0.44465536992462912 -0.47814317999533762 0 0.4624409006857827 -0.47622560468084302 0 0.45266149441555992 -0.4876327819851809 0 0.4624409006857827 -0.47622560468084302 0 0.44845756455699548 -0.49999999999999489 0 0.4624409006857827 -0.47622560468084302 0 0.45266149441555992 -0.4876327819851809 0 0.44845756455699548 -0.49999999999999489 0 0.4624409006857827 -0.47622560468084302 0 0.5 -0.5 0 0.48310299509080512 -0.47646665625455642 0 0.50000000000000422 -0.46457247800796558 0 0.44845756455699548 -0.49999999999999489 0 0.5 -0.5 0 0.48310299509080512 -0.47646665625455642 0 0.4624409006857827 -0.47622560468084302 0 0.48310299509080512 -0.47646665625455642 0 0.47970845524294148 -0.45608388533683181 0 0.4624409006857827 -0.47622560468084302 0 0.47970845524294148 -0.45608388533683181 0 0.4624409006857827 -0.47622560468084302 0 0.4753580315519304 -0.45426396600087282 0 0.4624409006857827 -0.47622560468084302 0 0.4753580315519304 -0.45426396600087282 0 0.47970845524294148 -0.45608388533683181 0 0.4753580315519304 -0.45426396600087282 0 0.47970845524294148 -0.45608388533683181 0 0.48310299509080512 -0.47646665625455642 0 0.47970845524294148 -0.45608388533683181 0 0.50000000000000422 -0.46457247800796558 0 0.47970845524294148 -0.45608388533683181 0 0.50000000000000422 -0.46457247800796558 0 0.47970845524294148 -0.45608388533683181 0 0.50000000000000422 -0.46457247800796558 0 0.5 -0.44849365703834998 0 0.5 -0.44849365703834998 0 0.48985422762147163 -0.44424936070278392 0 0.49999999999999972 -0.43241483606873438 0 0.47970845524294148 -0.45608388533683181 0 0.5 -0.44849365703834998 0 0.48985422762147163 -0.44424936070278392 0 0.48985422762147163 -0.44424936070278392 0 0.49999999999999972 -0.43241483606873438 0 0.47970845524294148 -0.45608388533683181 0 0.48985422762147163 -0.44424936070278392 0 0.4753580315519304 -0.45426396600087282 0 0.48985422762147163 -0.44424936070278392 0 0.48767901577596462 -0.43331589273957938 0 0.4753580315519304 -0.45426396600087282 0 0.48767901577596462 -0.43331589273957938 0 0.4753580315519304 -0.45426396600087282 0 0.47072036983299292 -0.441918330153662 0 0.48767901577596462 -0.43331589273957938 0 0.4753580315519304 -0.45426396600087282 0 0.47970845524294148 -0.45608388533683181 0 0.48985422762147163 -0.44424936070278392 0 0.47072036983299292 -0.441918330153662 0 0.4586734021257674 -0.44728425968658447 0 0.46683597544888511 -0.42931538958568688 0 0.4586734021257674 -0.44728425968658447 0 0.46683597544888511 -0.42931538958568688 0 0.45530676444132279 -0.43609177160672408 0 0.4586734021257674 -0.44728425968658447 0 0.46683597544888511 -0.42931538958568688 0 0.4753580315519304 -0.45426396600087282 0 0.47072036983299292 -0.441918330153662 0 0.4586734021257674 -0.44728425968658447 0 0.4753580315519304 -0.45426396600087282 0 0.4586734021257674 -0.44728425968658447 0 0.4624409006857827 -0.47622560468084302 0 0.46203418009716979 -0.46012188755231542 0 0.45166438602519848 -0.4627137198409611 0 0.4753580315519304 -0.45426396600087282 0 0.4586734021257674 -0.44728425968658447 0 0.46203418009716979 -0.46012188755231542 0 0.4624409006857827 -0.47622560468084302 0 0.4753580315519304 -0.45426396600087282 0 0.46203418009716979 -0.46012188755231542 0 0.4586734021257674 -0.44728425968658447 0 0.46203418009716979 -0.46012188755231542 0 0.45166438602519848 -0.4627137198409611 0 0.4586734021257674 -0.44728425968658447 0 0.45166438602519848 -0.4627137198409611 0 0.44465536992462912 -0.47814317999533762 0 0.44483229108141042 -0.46363732974478827 0 0.42952939274624219 -0.4602144676335812 0 0.4471947415724567 -0.45323370056126322 0 0.45166438602519848 -0.4627137198409611 0 0.44483229108141042 -0.46363732974478827 0 0.4586734021257674 -0.44728425968658447 0 0.4471947415724567 -0.45323370056126322 0 0.45166438602519848 -0.4627137198409611 0 0.44465536992462912 -0.47814317999533762 0 0.45166438602519848 -0.4627137198409611 0 0.44483229108141042 -0.46363732974478827 0 0.4471947415724567 -0.45323370056126322 0 0.44483229108141042 -0.46363732974478827 0 0.43752409190656533 -0.44950845819884833 0 0.44483229108141042 -0.46363732974478827 0 0.43752409190656533 -0.44950845819884833 0 0.4471947415724567 -0.45323370056126322 0 0.43752409190656533 -0.44950845819884833 0 0.44444464742874229 -0.44133192316974817 0 0.4586734021257674 -0.44728425968658447 0 0.44444464742874229 -0.44133192316974817 0 0.45530676444132279 -0.43609177160672408 0 0.4586734021257674 -0.44728425968658447 0 0.44444464742874229 -0.44133192316974817 0 0.4586734021257674 -0.44728425968658447 0 0.4471947415724567 -0.45323370056126322 0 0.44444464742874229 -0.44133192316974817 0 0.4476445852787006 -0.4236943689618683 0 0.44983324757757093 -0.43074406785716218 0 0.44056068596085279 -0.43033939631443241 0 0.4476445852787006 -0.4236943689618683 0 0.44983324757757093 -0.43074406785716218 0 0.45656268400271038 -0.42787074371625428 0 0.44444464742874229 -0.44133192316974817 0 0.44983324757757093 -0.43074406785716218 0 0.45530676444132279 -0.43609177160672408 0 0.44444464742874229 -0.44133192316974817 0 0.44983324757757093 -0.43074406785716218 0 0.44056068596085279 -0.43033939631443241 0 0.44444464742874229 -0.44133192316974817 0 0.44056068596085279 -0.43033939631443241 0 0.43021589273171851 -0.4353795866529091 0 0.4476445852787006 -0.4236943689618683 0 0.44056068596085279 -0.43033939631443241 0 0.43423494671919771 -0.42370141758089291 0 0.4476445852787006 -0.4236943689618683 0 0.43843387153909003 -0.41145457806332952 0 0.4631928472670731 -0.41950812056982972 0 0.43843387153909003 -0.41145457806332952 0 0.4631928472670731 -0.41950812056982972 0 0.45228497265491019 -0.40532761451264299 0 0.4476445852787006 -0.4236943689618683 0 0.43843387153909003 -0.41145457806332952 0 0.43423494671919771 -0.42370141758089291 0 0.43843387153909003 -0.41145457806332952 0 0.4631928472670731 -0.41950812056982972 0 0.4631928472670731 -0.41950812056982972 0 0.46683597544888511 -0.42931538958568688 0 0.47499854877200282 -0.4113465194847894 0 0.46355572738403522 -0.40741378947278473 0 0.4631928472670731 -0.41950812056982972 0 0.45228497265491019 -0.40532761451264299 0 0.46355572738403522 -0.40741378947278473 0 0.4631928472670731 -0.41950812056982972 0 0.47499854877200282 -0.4113465194847894 0 0.4631928472670731 -0.41950812056982972 0 0.46683597544888511 -0.42931538958568688 0 0.45656268400271038 -0.42787074371625428 0 0.4476445852787006 -0.4236943689618683 0 0.4631928472670731 -0.41950812056982972 0 0.45656268400271038 -0.42787074371625428 0 0.46683597544888511 -0.42931538958568688 0 0.45656268400271038 -0.42787074371625428 0 0.45530676444132279 -0.43609177160672408 0 0.44983324757757093 -0.43074406785716218 0 0.45656268400271038 -0.42787074371625428 0 0.45530676444132279 -0.43609177160672408 0 0.47072036983299292 -0.441918330153662 0 0.46683597544888511 -0.42931538958568688 0 0.47598091347267879 -0.43210266257582852 0 0.47072036983299292 -0.441918330153662 0 0.47598091347267879 -0.43210266257582852 0 0.48767901577596462 -0.43331589273957938 0 0.46683597544888511 -0.42931538958568688 0 0.47598091347267879 -0.43210266257582852 0 0.47868829283287229 -0.42386103782438539 0 0.47598091347267879 -0.43210266257582852 0 0.47868829283287229 -0.42386103782438539 0 0.48767901577596462 -0.43331589273957938 0 0.47868829283287229 -0.42386103782438539 0 0.48767901577596462 -0.43331589273957938 0 0.49999999999999861 -0.41236781947828588 0 0.48767901577596462 -0.43331589273957938 0 0.49999999999999861 -0.41236781947828588 0 0.48767901577596462 -0.43331589273957938 0 0.49999999999999972 -0.43241483606873438 0 0.49999999999999861 -0.41236781947828588 0 0.48985422762147163 -0.44424936070278392 0 0.48767901577596462 -0.43331589273957938 0 0.49999999999999972 -0.43241483606873438 0 0.47868829283287229 -0.42386103782438539 0 0.49999999999999861 -0.41236781947828588 0 0.47499854877200282 -0.4113465194847894 0 0.49999999999999861 -0.41236781947828588 0 0.47499854877200282 -0.4113465194847894 0 0.4872836199572762 -0.40096186515373372 0 0.46683597544888511 -0.42931538958568688 0 0.47868829283287229 -0.42386103782438539 0 0.47499854877200282 -0.4113465194847894 0 0.46683597544888511 -0.42931538958568688 0 0.47499854877200282 -0.4113465194847894 0 0.46355572738403522 -0.40741378947278473 0 0.47499854877200282 -0.4113465194847894 0 0.47113449031440829 -0.39781452018263558 0 0.47113449031440829 -0.39781452018263558 0 0.4872836199572762 -0.40096186515373372 0 0.47972301938935169 -0.38796255998922841 0 0.47499854877200282 -0.4113465194847894 0 0.47113449031440829 -0.39781452018263558 0 0.4872836199572762 -0.40096186515373372 0 0.49999999999999861 -0.41236781947828588 0 0.4872836199572762 -0.40096186515373372 0 0.5 -0.38625560122206221 0 0.4872836199572762 -0.40096186515373372 0 0.5 -0.38625560122206221 0 0.47972301938935169 -0.38796255998922841 0 0.47787296913244848 -0.36833575078243541 0 0.5 -0.38625560122206221 0 0.47972301938935169 -0.38796255998922841 0 0.47787296913244848 -0.36833575078243541 0 0.47972301938935169 -0.38796255998922841 0 0.46454220975096722 -0.38321266287268613 0 0.47113449031440829 -0.39781452018263558 0 0.47972301938935169 -0.38796255998922841 0 0.46454220975096722 -0.38321266287268613 0 0.45746568047711089 -0.36847429474054771 0 0.46454220975096722 -0.38321266287268613 0 0.45161329649306331 -0.38284012380922972 0 0.46454220975096722 -0.38321266287268613 0 0.45670381663281728 -0.39598972412259181 0 0.45161329649306331 -0.38284012380922972 0 0.47113449031440829 -0.39781452018263558 0 0.46454220975096722 -0.38321266287268613 0 0.45670381663281728 -0.39598972412259181 0 0.46355572738403522 -0.40741378947278473 0 0.47113449031440829 -0.39781452018263558 0 0.45670381663281728 -0.39598972412259181 0 0.46355572738403522 -0.40741378947278473 0 0.45670381663281728 -0.39598972412259181 0 0.45228497265491019 -0.40532761451264299 0 0.45670381663281728 -0.39598972412259181 0 0.43953860045153542 -0.39227186033467931 0 0.45228497265491019 -0.40532761451264299 0 0.43843387153909003 -0.41145457806332952 0 0.43953860045153542 -0.39227186033467931 0 0.45228497265491019 -0.40532761451264299 0 0.45670381663281728 -0.39598972412259181 0 0.43953860045153542 -0.39227186033467931 0 0.45161329649306331 -0.38284012380922972 0 0.44223049685139859 -0.37305048370126942 0 0.43953860045153542 -0.39227186033467931 0 0.45161329649306331 -0.38284012380922972 0 0.42846357650974559 -0.37708822182410551 0 0.42676197974923918 -0.39436540879647519 0 0.41673539260748882 -0.3838128686918183 0 0.43953860045153542 -0.39227186033467931 0 0.42846357650974559 -0.37708822182410551 0 0.42676197974923918 -0.39436540879647519 0 0.44223049685139859 -0.37305048370126942 0 0.43953860045153542 -0.39227186033467931 0 0.42846357650974559 -0.37708822182410551 0 0.43843387153909003 -0.41145457806332952 0 0.42676197974923918 -0.39436540879647519 0 0.41367489581110722 -0.40340103555682849 0 0.43843387153909003 -0.41145457806332952 0 0.43953860045153542 -0.39227186033467931 0 0.42676197974923918 -0.39436540879647519 0 0.42676197974923918 -0.39436540879647519 0 0.41367489581110722 -0.40340103555682849 0 0.41673539260748882 -0.3838128686918183 0 0.41367489581110722 -0.40340103555682849 0 0.40079482260007537 -0.37850011324379529 0 0.41367489581110722 -0.40340103555682849 0 0.41673539260748882 -0.3838128686918183 0 0.40079482260007537 -0.37850011324379529 0 0.41549990745366272 -0.36381032428207932 0 0.41673539260748882 -0.3838128686918183 0 0.40079482260007537 -0.37850011324379529 0 0.40079482260007537 -0.37850011324379529 0 0.38832186018305909 -0.38479860199605131 0 0.39470129608335008 -0.39722934680897432 0 0.38206362569321761 -0.37240728987031618 0 0.40079482260007537 -0.37850011324379529 0 0.38832186018305909 -0.38479860199605131 0 0.38206362569321761 -0.37240728987031618 0 0.38832186018305909 -0.38479860199605131 0 0.37572769635559339 -0.39105765806111931 0 0.37572769635559339 -0.39105765806111931 0 0.39470129608335008 -0.39722934680897432 0 0.38371251961521108 -0.41278509649458528 0 0.38832186018305909 -0.38479860199605131 0 0.37572769635559339 -0.39105765806111931 0 0.39470129608335008 -0.39722934680897432 0 0.37572769635559339 -0.39105765806111931 0 0.39470129608335008 -0.39722934680897432 0 0.37572769635559339 -0.39105765806111931 0 0.38371251961521108 -0.41278509649458528 0 0.36577029017610257 -0.40746317114727643 0 0.41367489581110722 -0.40340103555682849 0 0.40079482260007537 -0.37850011324379529 0 0.39470129608335008 -0.39722934680897432 0 0.41367489581110722 -0.40340103555682849 0 0.39470129608335008 -0.39722934680897432 0 0.41367489581110722 -0.40340103555682849 0 0.39470129608335008 -0.39722934680897432 0 0.39855804144292001 -0.41090975572942179 0 0.39855804144292001 -0.41090975572942179 0 0.39927743838946977 -0.42435704291006709 0 0.40915293172746109 -0.41730213976786729 0 0.39855804144292001 -0.41090975572942179 0 0.38371251961521108 -0.41278509649458528 0 0.39927743838946977 -0.42435704291006709 0 0.39470129608335008 -0.39722934680897432 0 0.39855804144292001 -0.41090975572942179 0 0.38371251961521108 -0.41278509649458528 0 0.38371251961521108 -0.41278509649458528 0 0.3865061637775975 -0.43292229522544179 0 0.39927743838946977 -0.42435704291006709 0 0.38371251961521108 -0.41278509649458528 0 0.3865061637775975 -0.43292229522544179 0 0.37441187472930959 -0.42473059936221258 0 0.3865061637775975 -0.43292229522544179 0 0.37441187472930959 -0.42473059936221258 0 0.37270565373674658 -0.43718361142086071 0 0.3865061637775975 -0.43292229522544179 0 0.39927743838946977 -0.42435704291006709 0 0.39916993373054421 -0.43932493378697451 0 0.39927743838946977 -0.42435704291006709 0 0.41440341556785598 -0.44228575527182412 0 0.39916993373054421 -0.43932493378697451 0 0.41391907089156083 -0.42856211247382092 0 0.43021589273171851 -0.4353795866529091 0 0.41440341556785598 -0.44228575527182412 0 0.39927743838946977 -0.42435704291006709 0 0.41391907089156083 -0.42856211247382092 0 0.41440341556785598 -0.44228575527182412 0 0.39927743838946977 -0.42435704291006709 0 0.41440341556785598 -0.44228575527182412 0 0.39927743838946977 -0.42435704291006709 0 0.41391907089156083 -0.42856211247382092 0 0.40915293172746109 -0.41730213976786729 0 0.41367489581110722 -0.40340103555682849 0 0.4219453942714142 -0.41939031110486807 0 0.41367489581110722 -0.40340103555682849 0 0.40915293172746109 -0.41730213976786729 0 0.4219453942714142 -0.41939031110486807 0 0.41367489581110722 -0.40340103555682849 0 0.39855804144292001 -0.41090975572942179 0 0.40915293172746109 -0.41730213976786729 0 0.41391907089156083 -0.42856211247382092 0 0.40915293172746109 -0.41730213976786729 0 0.4219453942714142 -0.41939031110486807 0 0.43843387153909003 -0.41145457806332952 0 0.4219453942714142 -0.41939031110486807 0 0.43423494671919771 -0.42370141758089291 0 0.43843387153909003 -0.41145457806332952 0 0.41367489581110722 -0.40340103555682849 0 0.4219453942714142 -0.41939031110486807 0 0.43843387153909003 -0.41145457806332952 0 0.41367489581110722 -0.40340103555682849 0 0.41391907089156083 -0.42856211247382092 0 0.4219453942714142 -0.41939031110486807 0 0.43021589273171851 -0.4353795866529091 0 0.4219453942714142 -0.41939031110486807 0 0.43021589273171851 -0.4353795866529091 0 0.41391907089156083 -0.42856211247382092 0 0.43021589273171851 -0.4353795866529091 0 0.4219453942714142 -0.41939031110486807 0 0.43423494671919771 -0.42370141758089291 0 0.43021589273171851 -0.4353795866529091 0 0.44056068596085279 -0.43033939631443241 0 0.43423494671919771 -0.42370141758089291 0 0.43021589273171851 -0.4353795866529091 0 0.42791819823809552 -0.44684706693929072 0 0.42952939274624219 -0.4602144676335812 0 0.41440341556785598 -0.44228575527182412 0 0.42952939274624219 -0.4602144676335812 0 0.41440341556785598 -0.44228575527182412 0 0.43021589273171851 -0.4353795866529091 0 0.42791819823809552 -0.44684706693929072 0 0.41440341556785598 -0.44228575527182412 0 0.43752409190656533 -0.44950845819884833 0 0.43021589273171851 -0.4353795866529091 0 0.42791819823809552 -0.44684706693929072 0 0.43752409190656533 -0.44950845819884833 0 0.44444464742874229 -0.44133192316974817 0 0.43021589273171851 -0.4353795866529091 0 0.43752409190656533 -0.44950845819884833 0 0.43021589273171851 -0.4353795866529091 0 0.44444464742874229 -0.44133192316974817 0 0.43021589273171851 -0.4353795866529091 0 0.43752409190656533 -0.44950845819884833 0 0.42791819823809552 -0.44684706693929072 0 0.42952939274624219 -0.4602144676335812 0 0.44483229108141042 -0.46363732974478827 0 0.43752409190656533 -0.44950845819884833 0 0.42952939274624219 -0.4602144676335812 0 0.42952939274624219 -0.4602144676335812 0 0.42047395238616181 -0.46909000847901738 0 0.43056865842902431 -0.47461882256790949 0 0.41102837568180922 -0.45817956635382429 0 0.39912307596846008 -0.4690185671930967 0 0.42047395238616181 -0.46909000847901738 0 0.42952939274624219 -0.4602144676335812 0 0.41102837568180922 -0.45817956635382429 0 0.42047395238616181 -0.46909000847901738 0 0.42952939274624219 -0.4602144676335812 0 0.41102837568180922 -0.45817956635382429 0 0.41440341556785598 -0.44228575527182412 0 0.41102837568180922 -0.45817956635382429 0 0.41440341556785598 -0.44228575527182412 0 0.40373610795844073 -0.45005904671061198 0 0.41440341556785598 -0.44228575527182412 0 0.39916993373054421 -0.43932493378697451 0 0.40373610795844073 -0.45005904671061198 0 0.40373610795844073 -0.45005904671061198 0 0.39192654295935708 -0.44700052881692748 0 0.3966223953693907 -0.45625674449811771 0 0.39916993373054421 -0.43932493378697451 0 0.40373610795844073 -0.45005904671061198 0 0.39192654295935708 -0.44700052881692748 0 0.3865061637775975 -0.43292229522544179 0 0.39916993373054421 -0.43932493378697451 0 0.39192654295935708 -0.44700052881692748 0 0.3865061637775975 -0.43292229522544179 0 0.39192654295935708 -0.44700052881692748 0 0.37859645983586321 -0.44813271668216231 0 0.39192654295935708 -0.44700052881692748 0 0.37859645983586321 -0.44813271668216231 0 0.38465791592938081 -0.45772280999240522 0 0.3865061637775975 -0.43292229522544179 0 0.37859645983586321 -0.44813271668216231 0 0.37270565373674658 -0.43718361142086071 0 0.38465791592938081 -0.45772280999240522 0 0.39912307596846008 -0.4690185671930967 0 0.37917146711693789 -0.47201570976042811 0 0.38465791592938081 -0.45772280999240522 0 0.37917146711693789 -0.47201570976042811 0 0.37171336415836659 -0.45707091889520163 0 0.37859645983586321 -0.44813271668216231 0 0.38465791592938081 -0.45772280999240522 0 0.37171336415836659 -0.45707091889520163 0 0.38465791592938081 -0.45772280999240522 0 0.3966223953693907 -0.45625674449811771 0 0.39912307596846008 -0.4690185671930967 0 0.39192654295935708 -0.44700052881692748 0 0.38465791592938081 -0.45772280999240522 0 0.3966223953693907 -0.45625674449811771 0 0.41102837568180922 -0.45817956635382429 0 0.40373610795844073 -0.45005904671061198 0 0.3966223953693907 -0.45625674449811771 0 0.41102837568180922 -0.45817956635382429 0 0.3966223953693907 -0.45625674449811771 0 0.39912307596846008 -0.4690185671930967 0 0.39912307596846008 -0.4690185671930967 0 0.3907626136597846 -0.48285097909950098 0 0.41025883625654241 -0.48497103303622452 0 0.3907626136597846 -0.48285097909950098 0 0.37917146711693789 -0.47201570976042811 0 0.37522037816839982 -0.48824958550775621 0 0.39912307596846008 -0.4690185671930967 0 0.3907626136597846 -0.48285097909950098 0 0.37917146711693789 -0.47201570976042811 0 0.3907626136597846 -0.48285097909950098 0 0.39003931078858273 -0.5 0 0.37522037816839982 -0.48824958550775621 0 0.39003931078858273 -0.5 0 0.37522037816839982 -0.48824958550775621 0 0.36083018390437621 -0.5 0 0.3907626136597846 -0.48285097909950098 0 0.39003931078858273 -0.5 0 0.41025883625654241 -0.48497103303622452 0 0.39003931078858273 -0.5 0 0.41025883625654241 -0.48497103303622452 0 0.41924843767278908 -0.5 0 0.41025883625654241 -0.48497103303622452 0 0.41924843767278908 -0.5 0 0.42604740240340028 -0.49124374132752902 0 0.41025883625654241 -0.48497103303622452 0 0.42496366736938762 -0.48094828342874668 0 0.42604740240340028 -0.49124374132752902 0 0.39912307596846008 -0.4690185671930967 0 0.41025883625654241 -0.48497103303622452 0 0.42047395238616181 -0.46909000847901738 0 0.41025883625654241 -0.48497103303622452 0 0.42047395238616181 -0.46909000847901738 0 0.42496366736938762 -0.48094828342874668 0 0.44465536992462912 -0.47814317999533762 0 0.42952939274624219 -0.4602144676335812 0 0.42496366736938762 -0.48094828342874668 0 0.43056865842902431 -0.47461882256790949 0 0.43322090971870059 -0.4846981733028643 0 0.44465536992462912 -0.47814317999533762 0 0.42952939274624219 -0.4602144676335812 0 0.43056865842902431 -0.47461882256790949 0 0.42047395238616181 -0.46909000847901738 0 0.42496366736938762 -0.48094828342874668 0 0.43056865842902431 -0.47461882256790949 0 0.44465536992462912 -0.47814317999533762 0 0.43056865842902431 -0.47461882256790949 0 0.43322090971870059 -0.4846981733028643 0 0.44304842384825172 -0.49884593719832621 0 0.41924843767278908 -0.5 0 0.43580604127013278 -0.49762385487300831 0 0.41924843767278908 -0.5 0 0.43580604127013278 -0.49762385487300831 0 0.42604740240340028 -0.49124374132752902 0 0.43322090971870059 -0.4846981733028643 0 0.43580604127013278 -0.49762385487300831 0 0.42604740240340028 -0.49124374132752902 0 0.44845756455699548 -0.49999999999999489 0 0.44304842384825172 -0.49884593719832621 0 0.41924843767278908 -0.5 0 0.42496366736938762 -0.48094828342874668 0 0.43322090971870059 -0.4846981733028643 0 0.42604740240340028 -0.49124374132752902 0 0.33162105702016959 -0.4999999999999965 0 0.3119851704874369 -0.47890521508752121 0 0.3075345477550937 -0.50000000000000178 0 0.32994116360329151 -0.47245372997615059 0 0.31643579321977539 -0.45781043017503947 0 0.3119851704874369 -0.47890521508752121 0 0.32994116360329151 -0.47245372997615059 0 0.33162105702016959 -0.4999999999999965 0 0.3119851704874369 -0.47890521508752121 0 0.32994116360329151 -0.47245372997615059 0 0.349537584166002 -0.49370129692023318 0 0.32994116360329151 -0.47245372997615059 0 0.349537584166002 -0.49370129692023318 0 0.35088786456792448 -0.47753266530870869 0 0.32994116360329151 -0.47245372997615059 0 0.35088786456792448 -0.47753266530870869 0 0.34095971726551488 -0.46599643560404919 0 0.32994116360329151 -0.47245372997615059 0 0.33162105702016959 -0.4999999999999965 0 0.349537584166002 -0.49370129692023318 0 0.32994116360329151 -0.47245372997615059 0 0.33162105702016959 -0.4999999999999965 0 0.33162105702016959 -0.4999999999999965 0 0.349537584166002 -0.49370129692023318 0 0.36083018390437621 -0.5 0 0.349537584166002 -0.49370129692023318 0 0.36081234576051763 -0.48822764530414992 0 0.35088786456792448 -0.47753266530870869 0 0.349537584166002 -0.49370129692023318 0 0.36083018390437621 -0.5 0 0.36081234576051763 -0.48822764530414992 0 0.37522037816839982 -0.48824958550775621 0 0.36083018390437621 -0.5 0 0.36081234576051763 -0.48822764530414992 0 0.37522037816839982 -0.48824958550775621 0 0.36081234576051763 -0.48822764530414992 0 0.366556035916075 -0.47903730870700728 0 0.36081234576051763 -0.48822764530414992 0 0.366556035916075 -0.47903730870700728 0 0.35088786456792448 -0.47753266530870869 0 0.366556035916075 -0.47903730870700728 0 0.35088786456792448 -0.47753266530870869 0 0.36323471281215008 -0.46695879882959512 0 0.37917146711693789 -0.47201570976042811 0 0.366556035916075 -0.47903730870700728 0 0.36323471281215008 -0.46695879882959512 0 0.37917146711693789 -0.47201570976042811 0 0.37522037816839982 -0.48824958550775621 0 0.366556035916075 -0.47903730870700728 0 0.35088786456792448 -0.47753266530870869 0 0.35152443043753367 -0.46389390753019277 0 0.36323471281215008 -0.46695879882959512 0 0.35088786456792448 -0.47753266530870869 0 0.35152443043753367 -0.46389390753019277 0 0.34095971726551488 -0.46599643560404919 0 0.35152443043753367 -0.46389390753019277 0 0.3421158938055413 -0.45478857262759081 0 0.34095971726551488 -0.46599643560404919 0 0.35152443043753367 -0.46389390753019277 0 0.35679264405969191 -0.45438962740572342 0 0.3421158938055413 -0.45478857262759081 0 0.35152443043753367 -0.46389390753019277 0 0.35679264405969191 -0.45438962740572342 0 0.36323471281215008 -0.46695879882959512 0 0.37917146711693789 -0.47201570976042811 0 0.36323471281215008 -0.46695879882959512 0 0.37171336415836659 -0.45707091889520163 0 0.35679264405969191 -0.45438962740572342 0 0.36323471281215008 -0.46695879882959512 0 0.37171336415836659 -0.45707091889520163 0 0.37859645983586321 -0.44813271668216231 0 0.36452008888894399 -0.44570425655054102 0 0.37270565373674658 -0.43718361142086071 0 0.37859645983586321 -0.44813271668216231 0 0.37171336415836659 -0.45707091889520163 0 0.36452008888894399 -0.44570425655054102 0 0.35679264405969191 -0.45438962740572342 0 0.37171336415836659 -0.45707091889520163 0 0.36452008888894399 -0.44570425655054102 0 0.36452008888894399 -0.44570425655054102 0 0.35940619367534649 -0.43451700542001948 0 0.37270565373674658 -0.43718361142086071 0 0.35679264405969191 -0.45438962740572342 0 0.36452008888894399 -0.44570425655054102 0 0.34864804979451502 -0.4436007846466255 0 0.36452008888894399 -0.44570425655054102 0 0.34864804979451502 -0.4436007846466255 0 0.35940619367534649 -0.43451700542001948 0 0.35679264405969191 -0.45438962740572342 0 0.34864804979451502 -0.4436007846466255 0 0.3421158938055413 -0.45478857262759081 0 0.33719733446072109 -0.44023359520588701 0 0.32864690703014782 -0.45123099007743211 0 0.32735265045700351 -0.43000825017871358 0 0.34864804979451502 -0.4436007846466255 0 0.33719733446072109 -0.44023359520588701 0 0.33658182449212909 -0.44846498281208769 0 0.33719733446072109 -0.44023359520588701 0 0.32864690703014782 -0.45123099007743211 0 0.33658182449212909 -0.44846498281208769 0 0.32864690703014782 -0.45123099007743211 0 0.33658182449212909 -0.44846498281208769 0 0.3421158938055413 -0.45478857262759081 0 0.34864804979451502 -0.4436007846466255 0 0.33658182449212909 -0.44846498281208769 0 0.3421158938055413 -0.45478857262759081 0 0.32994116360329151 -0.47245372997615059 0 0.32864690703014782 -0.45123099007743211 0 0.32864690703014782 -0.45123099007743211 0 0.3421158938055413 -0.45478857262759081 0 0.34095971726551488 -0.46599643560404919 0 0.32994116360329151 -0.47245372997615059 0 0.32864690703014782 -0.45123099007743211 0 0.34095971726551488 -0.46599643560404919 0 0.32864690703014782 -0.45123099007743211 0 0.31643579321977539 -0.45781043017503947 0 0.31746304111578438 -0.4529415444659593 0 0.32994116360329151 -0.47245372997615059 0 0.32864690703014782 -0.45123099007743211 0 0.31643579321977539 -0.45781043017503947 0 0.31643579321977539 -0.45781043017503947 0 0.3119851704874369 -0.47890521508752121 0 0.32994116360329151 -0.47245372997615059 0 0.31643579321977539 -0.45781043017503947 0 0.31643579321977539 -0.45781043017503947 0 0.31746304111578438 -0.4529415444659593 0 0.31643579321977539 -0.45781043017503947 0 0.31746304111578438 -0.4529415444659593 0 0.31085835201783069 -0.45176304744329432 0 0.31643579321977539 -0.45781043017503947 0 0.31085835201783069 -0.45176304744329432 0 0.32442285919735792 -0.44301971466116152 0 0.31085835201783069 -0.45176304744329432 0 0.31746304111578438 -0.4529415444659593 0 0.32099281626921261 -0.44956966521492259 0 0.31085835201783069 -0.45176304744329432 0 0.32864690703014782 -0.45123099007743211 0 0.32442285919735792 -0.44301971466116152 0 0.32735265045700351 -0.43000825017871358 0 0.32442285919735792 -0.44301971466116152 0 0.31171357279795259 -0.44123605987176828 0 0.31085835201783069 -0.45176304744329432 0 0.32864690703014782 -0.45123099007743211 0 0.32735265045700351 -0.43000825017871358 0 0.32442285919735792 -0.44301971466116152 0 0.32099281626921261 -0.44956966521492259 0 0.31085835201783069 -0.45176304744329432 0 0.32442285919735792 -0.44301971466116152 0 0.31380923587105047 -0.43259624900404098 0 0.31171357279795259 -0.44123605987176828 0 0.32864690703014782 -0.45123099007743211 0 0.32442285919735792 -0.44301971466116152 0 0.32099281626921261 -0.44956966521492259 0 0.32864690703014782 -0.45123099007743211 0 0.31746304111578438 -0.4529415444659593 0 0.32099281626921261 -0.44956966521492259 0 0.32442285919735792 -0.44301971466116152 0 0.32735265045700351 -0.43000825017871358 0 0.31380923587105047 -0.43259624900404098 0 0.32735265045700351 -0.43000825017871358 0 0.31380923587105047 -0.43259624900404098 0 0.31481791406057108 -0.41997242957656172 0 0.32735265045700351 -0.43000825017871358 0 0.32605839388385921 -0.40878551027999521 0 0.31481791406057108 -0.41997242957656172 0 0.32605839388385921 -0.40878551027999521 0 0.30545775012497611 -0.40637026403729182 0 0.32735265045700351 -0.43000825017871358 0 0.31481791406057108 -0.41997242957656172 0 0.32605839388385921 -0.40878551027999521 0 0.32735265045700351 -0.43000825017871358 0 0.32605839388385921 -0.40878551027999521 0 0.3348608635562062 -0.41961958958094903 0 0.3348608635562062 -0.41961958958094903 0 0.34127516935415192 -0.41182162955051088 0 0.34475724052981011 -0.42786296831457632 0 0.32605839388385921 -0.40878551027999521 0 0.3348608635562062 -0.41961958958094903 0 0.34127516935415192 -0.41182162955051088 0 0.32605839388385921 -0.40878551027999521 0 0.34127516935415192 -0.41182162955051088 0 0.33640457060503492 -0.39921042533973772 0 0.33719733446072109 -0.44023359520588701 0 0.32735265045700351 -0.43000825017871358 0 0.34475724052981011 -0.42786296831457632 0 0.34864804979451502 -0.4436007846466255 0 0.33719733446072109 -0.44023359520588701 0 0.34475724052981011 -0.42786296831457632 0 0.32735265045700351 -0.43000825017871358 0 0.3348608635562062 -0.41961958958094903 0 0.34475724052981011 -0.42786296831457632 0 0.34475724052981011 -0.42786296831457632 0 0.35940619367534649 -0.43451700542001948 0 0.36108019239789541 -0.42261688372808931 0 0.34864804979451502 -0.4436007846466255 0 0.34475724052981011 -0.42786296831457632 0 0.35940619367534649 -0.43451700542001948 0 0.35940619367534649 -0.43451700542001948 0 0.36108019239789541 -0.42261688372808931 0 0.37441187472930959 -0.42473059936221258 0 0.35940619367534649 -0.43451700542001948 0 0.37441187472930959 -0.42473059936221258 0 0.37270565373674658 -0.43718361142086071 0 0.36108019239789541 -0.42261688372808931 0 0.37441187472930959 -0.42473059936221258 0 0.36577029017610257 -0.40746317114727643 0 0.38371251961521108 -0.41278509649458528 0 0.37441187472930959 -0.42473059936221258 0 0.36577029017610257 -0.40746317114727643 0 0.36108019239789541 -0.42261688372808931 0 0.36577029017610257 -0.40746317114727643 0 0.35311843818036642 -0.41349546787216118 0 0.36577029017610257 -0.40746317114727643 0 0.35311843818036642 -0.41349546787216118 0 0.35050119158867432 -0.39931483416382341 0 0.34475724052981011 -0.42786296831457632 0 0.36108019239789541 -0.42261688372808931 0 0.35311843818036642 -0.41349546787216118 0 0.34127516935415192 -0.41182162955051088 0 0.34475724052981011 -0.42786296831457632 0 0.35311843818036642 -0.41349546787216118 0 0.34127516935415192 -0.41182162955051088 0 0.35311843818036642 -0.41349546787216118 0 0.35050119158867432 -0.39931483416382341 0 0.36577029017610257 -0.40746317114727643 0 0.35050119158867432 -0.39931483416382341 0 0.36121801915482182 -0.38943970914505271 0 0.37572769635559339 -0.39105765806111931 0 0.36577029017610257 -0.40746317114727643 0 0.36121801915482182 -0.38943970914505271 0 0.38206362569321761 -0.37240728987031618 0 0.37572769635559339 -0.39105765806111931 0 0.36705633966543411 -0.37698690886888581 0 0.37572769635559339 -0.39105765806111931 0 0.36121801915482182 -0.38943970914505271 0 0.36705633966543411 -0.37698690886888581 0 0.35050119158867432 -0.39931483416382341 0 0.36121801915482182 -0.38943970914505271 0 0.34703457798830412 -0.37237597348415868 0 0.36121801915482182 -0.38943970914505271 0 0.36705633966543411 -0.37698690886888581 0 0.34703457798830412 -0.37237597348415868 0 0.35050119158867432 -0.39931483416382341 0 0.33640457060503492 -0.39921042533973772 0 0.34703457798830412 -0.37237597348415868 0 0.32624616405664009 -0.38937311876072522 0 0.34703457798830412 -0.37237597348415868 0 0.32196601632466859 -0.36567223259080428 0 0.33640457060503492 -0.39921042533973772 0 0.32624616405664009 -0.38937311876072522 0 0.34703457798830412 -0.37237597348415868 0 0.32624616405664009 -0.38937311876072522 0 0.34703457798830412 -0.37237597348415868 0 0.32605839388385921 -0.40878551027999521 0 0.33640457060503492 -0.39921042533973772 0 0.32624616405664009 -0.38937311876072522 0 0.34127516935415192 -0.41182162955051088 0 0.35050119158867432 -0.39931483416382341 0 0.33640457060503492 -0.39921042533973772 0 0.32605839388385921 -0.40878551027999521 0 0.32624616405664009 -0.38937311876072522 0 0.30545775012497611 -0.40637026403729182 0 0.32624616405664009 -0.38937311876072522 0 0.30545775012497611 -0.40637026403729182 0 0.32624616405664009 -0.38937311876072522 0 0.30554447785528571 -0.38280138119441942 0 0.32196601632466859 -0.36567223259080428 0 0.32624616405664009 -0.38937311876072522 0 0.30554447785528571 -0.38280138119441942 0 0.30545775012497611 -0.40637026403729182 0 0.30554447785528571 -0.38280138119441942 0 0.28655597291391482 -0.39209121825807358 0 0.30545775012497611 -0.40637026403729182 0 0.28655597291391482 -0.39209121825807358 0 0.28677969795198388 -0.40744085218498122 0 0.30545775012497611 -0.40637026403729182 0 0.28655597291391482 -0.39209121825807358 0 0.27043573257573278 -0.40793451713070122 0 0.28677969795198388 -0.40744085218498122 0 0.28655597291391482 -0.39209121825807358 0 0.27432108574999597 -0.37571717524867382 0 0.29113915462604723 -0.37335122631889228 0 0.30554447785528571 -0.38280138119441942 0 0.28655597291391482 -0.39209121825807358 0 0.29113915462604723 -0.37335122631889228 0 0.28655597291391482 -0.39209121825807358 0 0.27432108574999597 -0.37571717524867382 0 0.27072284731306562 -0.38947089732293072 0 0.27432108574999597 -0.37571717524867382 0 0.27072284731306562 -0.38947089732293072 0 0.25962952209879769 -0.37802669142233292 0 0.25962952209879769 -0.37802669142233292 0 0.25620212895815159 -0.39250162494754598 0 0.24196852534057081 -0.37706873276439029 0 0.27072284731306562 -0.38947089732293072 0 0.25962952209879769 -0.37802669142233292 0 0.25620212895815159 -0.39250162494754598 0 0.25620212895815159 -0.39250162494754598 0 0.27043573257573278 -0.40793451713070122 0 0.25000496789787052 -0.40671545945853599 0 0.25620212895815159 -0.39250162494754598 0 0.27043573257573278 -0.40793451713070122 0 0.27072284731306562 -0.38947089732293072 0 0.25620212895815159 -0.39250162494754598 0 0.27043573257573278 -0.40793451713070122 0 0.28655597291391482 -0.39209121825807358 0 0.27072284731306562 -0.38947089732293072 0 0.27043573257573278 -0.40793451713070122 0 0.27043573257573278 -0.40793451713070122 0 0.25946564988289877 -0.42179907025938801 0 0.28466933619331197 -0.42336740931385819 0 0.27043573257573278 -0.40793451713070122 0 0.28466933619331197 -0.42336740931385819 0 0.28677969795198388 -0.40744085218498122 0 0.27043573257573278 -0.40793451713070122 0 0.28466933619331197 -0.42336740931385819 0 0.25946564988289877 -0.42179907025938801 0 0.25000496789787052 -0.40671545945853599 0 0.2417878809344047 -0.42154405506485948 0 0.27043573257573278 -0.40793451713070122 0 0.25946564988289877 -0.42179907025938801 0 0.25000496789787052 -0.40671545945853599 0 0.25946564988289877 -0.42179907025938801 0 0.26706226892172091 -0.43776340322148788 0 0.24016746684540019 -0.43755558954149459 0 0.28466933619331197 -0.42336740931385819 0 0.26706226892172091 -0.43776340322148788 0 0.25946564988289877 -0.42179907025938801 0 0.28466933619331197 -0.42336740931385819 0 0.26706226892172091 -0.43776340322148788 0 0.28466933619331197 -0.42336740931385819 0 0.28247042644397902 -0.44655216051086077 0 0.26706226892172091 -0.43776340322148788 0 0.28466933619331197 -0.42336740931385819 0 0.3033036160710964 -0.4239743160620657 0 0.297763844105572 -0.4375652283785757 0 0.28466933619331197 -0.42336740931385819 0 0.297763844105572 -0.4375652283785757 0 0.28247042644397902 -0.44655216051086077 0 0.28466933619331197 -0.42336740931385819 0 0.297763844105572 -0.4375652283785757 0 0.28466933619331197 -0.42336740931385819 0 0.28677969795198388 -0.40744085218498122 0 0.30545775012497611 -0.40637026403729182 0 0.28466933619331197 -0.42336740931385819 0 0.30545775012497611 -0.40637026403729182 0 0.28466933619331197 -0.42336740931385819 0 0.30545775012497611 -0.40637026403729182 0 0.3033036160710964 -0.4239743160620657 0 0.31481791406057108 -0.41997242957656172 0 0.30545775012497611 -0.40637026403729182 0 0.3033036160710964 -0.4239743160620657 0 0.31380923587105047 -0.43259624900404098 0 0.3033036160710964 -0.4239743160620657 0 0.297763844105572 -0.4375652283785757 0 0.31380923587105047 -0.43259624900404098 0 0.297763844105572 -0.4375652283785757 0 0.31171357279795259 -0.44123605987176828 0 0.31380923587105047 -0.43259624900404098 0 0.31481791406057108 -0.41997242957656172 0 0.3033036160710964 -0.4239743160620657 0 0.297763844105572 -0.4375652283785757 0 0.31085835201783069 -0.45176304744329432 0 0.28247042644397902 -0.44655216051086077 0 0.297763844105572 -0.4375652283785757 0 0.31085835201783069 -0.45176304744329432 0 0.297763844105572 -0.4375652283785757 0 0.31171357279795259 -0.44123605987176828 0 0.31085835201783069 -0.45176304744329432 0 0.31085835201783069 -0.45176304744329432 0 0.28693891838741309 -0.46718089974140642 0 0.31643579321977539 -0.45781043017503947 0 0.28693891838741309 -0.46718089974140642 0 0.3119851704874369 -0.47890521508752121 0 0.31643579321977539 -0.45781043017503947 0 0.31085835201783069 -0.45176304744329432 0 0.28693891838741309 -0.46718089974140642 0 0.31085835201783069 -0.45176304744329432 0 0.28693891838741309 -0.46718089974140642 0 0.28247042644397902 -0.44655216051086077 0 0.28247042644397902 -0.44655216051086077 0 0.26706226892172091 -0.43776340322148788 0 0.26800103590021668 -0.45842491983797001 0 0.26706226892172091 -0.43776340322148788 0 0.26800103590021668 -0.45842491983797001 0 0.2494552016501298 -0.4521593971291174 0 0.26706226892172091 -0.43776340322148788 0 0.2494552016501298 -0.4521593971291174 0 0.26706226892172091 -0.43776340322148788 0 0.24016746684540019 -0.43755558954149459 0 0.2494552016501298 -0.4521593971291174 0 0.26800103590021668 -0.45842491983797001 0 0.24400877227645179 -0.47228218742722128 0 0.2494552016501298 -0.4521593971291174 0 0.28693891838741309 -0.46718089974140642 0 0.28247042644397902 -0.44655216051086077 0 0.26800103590021668 -0.45842491983797001 0 0.28693891838741309 -0.46718089974140642 0 0.26800103590021668 -0.45842491983797001 0 0.26301948475699838 -0.48259875203952318 0 0.28693891838741309 -0.46718089974140642 0 0.26301948475699838 -0.48259875203952318 0 0.28693891838741309 -0.46718089974140642 0 0.26301948475699838 -0.48259875203952318 0 0.27866936513194762 -0.48716337077757438 0 0.26800103590021668 -0.45842491983797001 0 0.26301948475699838 -0.48259875203952318 0 0.24400877227645179 -0.47228218742722128 0 0.26301948475699838 -0.48259875203952318 0 0.26350528026175429 -0.5 0 0.24149064651508459 -0.49999999999999611 0 0.26301948475699838 -0.48259875203952318 0 0.23910005112658811 -0.49801660433764688 0 0.26350528026175429 -0.5 0 0.27866936513194762 -0.48716337077757438 0 0.28551991400842403 -0.5 0 0.26301948475699838 -0.48259875203952318 0 0.26350528026175429 -0.5 0 0.27866936513194762 -0.48716337077757438 0 0.29436322824514832 -0.48603720210694218 0 0.28551991400842403 -0.5 0 0.3075345477550937 -0.50000000000000178 0 0.27866936513194762 -0.48716337077757438 0 0.29436322824514832 -0.48603720210694218 0 0.28551991400842403 -0.5 0 0.28693891838741309 -0.46718089974140642 0 0.27866936513194762 -0.48716337077757438 0 0.29436322824514832 -0.48603720210694218 0 0.28693891838741309 -0.46718089974140642 0 0.29436322824514832 -0.48603720210694218 0 0.3119851704874369 -0.47890521508752121 0 0.29436322824514832 -0.48603720210694218 0 0.3119851704874369 -0.47890521508752121 0 0.3075345477550937 -0.50000000000000178 0 0.3119851704874369 -0.47890521508752121 0 0.3075345477550937 -0.50000000000000178 0 0.33381113220422592 -0.29133666001766922 0 0.3399537671449212 -0.28185056498982392 0 0.32428439865927511 -0.28289966250136178 0 0.33381113220422592 -0.29133666001766922 0 0.3399537671449212 -0.28185056498982392 0 0.34571283846040768 -0.29490274523358517 0 0.3252935245522996 -0.30569366734590619 0 0.34571283846040768 -0.29490274523358517 0 0.33381113220422592 -0.29133666001766922 0 0.3252935245522996 -0.30569366734590619 0 0.34571283846040768 -0.29490274523358517 0 0.33797464736695532 -0.30970509728391471 0 0.3252935245522996 -0.30569366734590619 0 0.34571283846040768 -0.29490274523358517 0 0.3252935245522996 -0.30569366734590619 0 0.30487421064419151 -0.31648458945822727 0 0.3252935245522996 -0.30569366734590619 0 0.32428439865927511 -0.28289966250136178 0 0.30358261992788899 -0.29217369110945879 0 0.32428439865927511 -0.28289966250136178 0 0.30358261992788899 -0.29217369110945879 0 0.31085622471197488 -0.27599066497129843 0 0.33381113220422592 -0.29133666001766922 0 0.3252935245522996 -0.30569366734590619 0 0.32428439865927511 -0.28289966250136178 0 0.32428439865927511 -0.28289966250136178 0 0.32054727682851908 -0.26306301855202258 0 0.31085622471197488 -0.27599066497129843 0 0.32428439865927511 -0.28289966250136178 0 0.32054727682851908 -0.26306301855202258 0 0.33364394376386741 -0.27163991754629219 0 0.30810940478727539 -0.24903311324244709 0 0.32755136014713548 -0.24757691142008681 0 0.32054727682851908 -0.26306301855202258 0 0.32054727682851908 -0.26306301855202258 0 0.33737381567679259 -0.25954066811224968 0 0.33364394376386741 -0.27163991754629219 0 0.32755136014713548 -0.24757691142008681 0 0.32054727682851908 -0.26306301855202258 0 0.33737381567679259 -0.25954066811224968 0 0.32755136014713548 -0.24757691142008681 0 0.3427782293344725 -0.24701102450498019 0 0.33737381567679259 -0.25954066811224968 0 0.3399537671449212 -0.28185056498982392 0 0.32428439865927511 -0.28289966250136178 0 0.33364394376386741 -0.27163991754629219 0 0.33737381567679259 -0.25954066811224968 0 0.33364394376386741 -0.27163991754629219 0 0.34606046050982903 -0.27084567357600309 0 0.3399537671449212 -0.28185056498982392 0 0.33364394376386741 -0.27163991754629219 0 0.34606046050982903 -0.27084567357600309 0 0.3399537671449212 -0.28185056498982392 0 0.34606046050982903 -0.27084567357600309 0 0.35167055773266248 -0.28077502425874201 0 0.34606046050982903 -0.27084567357600309 0 0.35406298462651259 -0.25814883022067281 0 0.36018289725374991 -0.27178618269221788 0 0.34606046050982903 -0.27084567357600309 0 0.35167055773266248 -0.28077502425874201 0 0.36018289725374991 -0.27178618269221788 0 0.35167055773266248 -0.28077502425874201 0 0.36018289725374991 -0.27178618269221788 0 0.36613215236851582 -0.28411182312126371 0 0.33737381567679259 -0.25954066811224968 0 0.34606046050982903 -0.27084567357600309 0 0.35406298462651259 -0.25814883022067281 0 0.3427782293344725 -0.24701102450498019 0 0.33737381567679259 -0.25954066811224968 0 0.35406298462651259 -0.25814883022067281 0 0.38250243345962381 -0.24260741972897651 0 0.36653462542462728 -0.25755987578933093 0 0.37328448038619899 -0.2704477241878086 0 0.3626403313970481 -0.2448092221169777 0 0.35406298462651259 -0.25814883022067281 0 0.36653462542462728 -0.25755987578933093 0 0.35406298462651259 -0.25814883022067281 0 0.36653462542462728 -0.25755987578933093 0 0.36018289725374991 -0.27178618269221788 0 0.36018289725374991 -0.27178618269221788 0 0.37328448038619899 -0.2704477241878086 0 0.36613215236851582 -0.28411182312126371 0 0.36653462542462728 -0.25755987578933093 0 0.36018289725374991 -0.27178618269221788 0 0.37328448038619899 -0.2704477241878086 0 0.37328448038619899 -0.2704477241878086 0 0.36931767214637001 -0.28242838282719818 0 0.37328448038619899 -0.2704477241878086 0 0.36931767214637001 -0.28242838282719818 0 0.36613215236851582 -0.28411182312126371 0 0.37328448038619899 -0.2704477241878086 0 0.36613215236851582 -0.28411182312126371 0 0.36931767214637001 -0.28242838282719818 0 0.37095303118448752 -0.29382462432207668 0 0.36256586314035189 -0.30282037407276841 0 0.37680994162527082 -0.28991670159948929 0 0.36931767214637001 -0.28242838282719818 0 0.37095303118448752 -0.29382462432207668 0 0.36613215236851582 -0.28411182312126371 0 0.35840866368689261 -0.29886709066438899 0 0.36256586314035189 -0.30282037407276841 0 0.36931767214637001 -0.28242838282719818 0 0.36256586314035189 -0.30282037407276841 0 0.36931767214637001 -0.28242838282719818 0 0.36613215236851582 -0.28411182312126371 0 0.36256586314035189 -0.30282037407276841 0 0.36931767214637001 -0.28242838282719818 0 0.36613215236851582 -0.28411182312126371 0 0.37680994162527082 -0.28991670159948929 0 0.37618272607635911 -0.2956291221182839 0 0.37095303118448752 -0.29382462432207668 0 0.36613215236851582 -0.28411182312126371 0 0.35840866368689261 -0.29886709066438899 0 0.36613215236851582 -0.28411182312126371 0 0.34571283846040768 -0.29490274523358517 0 0.35167055773266248 -0.28077502425874201 0 0.36613215236851582 -0.28411182312126371 0 0.34571283846040768 -0.29490274523358517 0 0.36613215236851582 -0.28411182312126371 0 0.34571283846040768 -0.29490274523358517 0 0.35840866368689261 -0.29886709066438899 0 0.3399537671449212 -0.28185056498982392 0 0.35167055773266248 -0.28077502425874201 0 0.34571283846040768 -0.29490274523358517 0 0.33797464736695532 -0.30970509728391471 0 0.34819533112988132 -0.3042743228473509 0 0.35068517500526969 -0.31362235820751461 0 0.33797464736695532 -0.30970509728391471 0 0.34571283846040768 -0.29490274523358517 0 0.34819533112988132 -0.3042743228473509 0 0.34571283846040768 -0.29490274523358517 0 0.34819533112988132 -0.3042743228473509 0 0.35840866368689261 -0.29886709066438899 0 0.34819533112988132 -0.3042743228473509 0 0.35840866368689261 -0.29886709066438899 0 0.35068517500526969 -0.31362235820751461 0 0.35840866368689261 -0.29886709066438899 0 0.36256586314035189 -0.30282037407276841 0 0.35068517500526969 -0.31362235820751461 0 0.35840866368689261 -0.29886709066438899 0 0.35068517500526969 -0.31362235820751461 0 0.36256586314035189 -0.30282037407276841 0 0.36919068974125813 -0.30799605213720149 0 0.36476530461971679 -0.31487284343820748 0 0.36256586314035189 -0.30282037407276841 0 0.37146225775913599 -0.30134086049025122 0 0.36919068974125813 -0.30799605213720149 0 0.37095303118448752 -0.29382462432207668 0 0.36256586314035189 -0.30282037407276841 0 0.37146225775913599 -0.30134086049025122 0 0.37618272607635911 -0.2956291221182839 0 0.37095303118448752 -0.29382462432207668 0 0.37146225775913599 -0.30134086049025122 0 0.36919068974125813 -0.30799605213720149 0 0.37336379812188009 -0.31415628034038462 0 0.36476530461971679 -0.31487284343820748 0 0.37146225775913599 -0.30134086049025122 0 0.36919068974125813 -0.30799605213720149 0 0.37450707626122243 -0.30700713456631101 0 0.36919068974125813 -0.30799605213720149 0 0.37450707626122243 -0.30700713456631101 0 0.37336379812188009 -0.31415628034038462 0 0.37336379812188009 -0.31415628034038462 0 0.36476530461971679 -0.31487284343820748 0 0.36863131516979752 -0.32463880829203873 0 0.36256586314035189 -0.30282037407276841 0 0.36476530461971679 -0.31487284343820748 0 0.35581405413433398 -0.32321236531833869 0 0.37994671867561691 -0.32033806446789542 0 0.37336379812188009 -0.31415628034038462 0 0.36863131516979752 -0.32463880829203873 0 0.36476530461971679 -0.31487284343820748 0 0.36863131516979752 -0.32463880829203873 0 0.35581405413433398 -0.32321236531833869 0 0.36863131516979752 -0.32463880829203873 0 0.35856212408185251 -0.33411931803844208 0 0.35581405413433398 -0.32321236531833869 0 0.37166975028776988 -0.33664462777591869 0 0.35856212408185251 -0.33411931803844208 0 0.36782299191996798 -0.3553788282075922 0 0.37928653318676298 -0.32940867301597648 0 0.36863131516979752 -0.32463880829203873 0 0.37166975028776988 -0.33664462777591869 0 0.36863131516979752 -0.32463880829203873 0 0.37166975028776988 -0.33664462777591869 0 0.35856212408185251 -0.33411931803844208 0 0.34878772416329062 -0.33018933347329699 0 0.34700209285303552 -0.34532405201718619 0 0.33585359197348319 -0.32637435262965347 0 0.35856212408185251 -0.33411931803844208 0 0.34878772416329062 -0.33018933347329699 0 0.35581405413433398 -0.32321236531833869 0 0.35856212408185251 -0.33411931803844208 0 0.34878772416329062 -0.33018933347329699 0 0.34700209285303552 -0.34532405201718619 0 0.36256586314035189 -0.30282037407276841 0 0.35068517500526969 -0.31362235820751461 0 0.35581405413433398 -0.32321236531833869 0 0.36256586314035189 -0.30282037407276841 0 0.35581405413433398 -0.32321236531833869 0 0.34878772416329062 -0.33018933347329699 0 0.34670675777374771 -0.32191657936286461 0 0.33585359197348319 -0.32637435262965347 0 0.34878772416329062 -0.33018933347329699 0 0.34670675777374771 -0.32191657936286461 0 0.35581405413433398 -0.32321236531833869 0 0.34670675777374771 -0.32191657936286461 0 0.35068517500526969 -0.31362235820751461 0 0.35581405413433398 -0.32321236531833869 0 0.33797464736695532 -0.30970509728391471 0 0.34670675777374771 -0.32191657936286461 0 0.35068517500526969 -0.31362235820751461 0 0.38206362569321761 -0.37240728987031618 0 0.36705633966543411 -0.37698690886888581 0 0.36782299191996798 -0.3553788282075922 0 0.36705633966543411 -0.37698690886888581 0 0.36782299191996798 -0.3553788282075922 0 0.34703457798830412 -0.37237597348415868 0 0.35856212408185251 -0.33411931803844208 0 0.36782299191996798 -0.3553788282075922 0 0.34700209285303552 -0.34532405201718619 0 0.36782299191996798 -0.3553788282075922 0 0.34700209285303552 -0.34532405201718619 0 0.34703457798830412 -0.37237597348415868 0 0.36782299191996798 -0.3553788282075922 0 0.34703457798830412 -0.37237597348415868 0 0.34703457798830412 -0.37237597348415868 0 0.33580667921539398 -0.35671120490123132 0 0.32196601632466859 -0.36567223259080428 0 0.34700209285303552 -0.34532405201718619 0 0.33580667921539398 -0.35671120490123132 0 0.32722402969556752 -0.34347256151277578 0 0.33580667921539398 -0.35671120490123132 0 0.32196601632466859 -0.36567223259080428 0 0.32722402969556752 -0.34347256151277578 0 0.34700209285303552 -0.34532405201718619 0 0.34703457798830412 -0.37237597348415868 0 0.33580667921539398 -0.35671120490123132 0 0.32196601632466859 -0.36567223259080428 0 0.32722402969556752 -0.34347256151277578 0 0.30696639525874803 -0.34484377480161149 0 0.33797464736695532 -0.30970509728391471 0 0.3252935245522996 -0.30569366734590619 0 0.33585359197348319 -0.32637435262965347 0 0.33797464736695532 -0.30970509728391471 0 0.34670675777374771 -0.32191657936286461 0 0.33585359197348319 -0.32637435262965347 0 0.34700209285303552 -0.34532405201718619 0 0.33585359197348319 -0.32637435262965347 0 0.32722402969556752 -0.34347256151277578 0 0.32722402969556752 -0.34347256151277578 0 0.32004235042485801 -0.32737378914963489 0 0.30696639525874803 -0.34484377480161149 0 0.33585359197348319 -0.32637435262965347 0 0.32722402969556752 -0.34347256151277578 0 0.32004235042485801 -0.32737378914963489 0 0.3252935245522996 -0.30569366734590619 0 0.32004235042485801 -0.32737378914963489 0 0.30487421064419151 -0.31648458945822727 0 0.3252935245522996 -0.30569366734590619 0 0.33585359197348319 -0.32637435262965347 0 0.32004235042485801 -0.32737378914963489 0 0.30487421064419151 -0.31648458945822727 0 0.28801891354579201 -0.33027688108161818 0 0.30696639525874803 -0.34484377480161149 0 0.32004235042485801 -0.32737378914963489 0 0.30487421064419151 -0.31648458945822727 0 0.30696639525874803 -0.34484377480161149 0 0.28801891354579201 -0.33027688108161818 0 0.30696639525874803 -0.34484377480161149 0 0.2838441666125201 -0.34721566226785872 0 0.30487421064419151 -0.31648458945822727 0 0.28801891354579201 -0.33027688108161818 0 0.28000276476017633 -0.30931671026250651 0 0.30554447785528571 -0.38280138119441942 0 0.30547827559977841 -0.36701656427882617 0 0.29113915462604723 -0.37335122631889228 0 0.30554447785528571 -0.38280138119441942 0 0.32196601632466859 -0.36567223259080428 0 0.30547827559977841 -0.36701656427882617 0 0.30547827559977841 -0.36701656427882617 0 0.30696639525874803 -0.34484377480161149 0 0.29394832566175499 -0.35926575932057531 0 0.32196601632466859 -0.36567223259080428 0 0.30547827559977841 -0.36701656427882617 0 0.30696639525874803 -0.34484377480161149 0 0.30696639525874803 -0.34484377480161149 0 0.2838441666125201 -0.34721566226785872 0 0.29394832566175499 -0.35926575932057531 0 0.2838441666125201 -0.34721566226785872 0 0.29394832566175499 -0.35926575932057531 0 0.2800284498290373 -0.36254698933190138 0 0.27432108574999597 -0.37571717524867382 0 0.29113915462604723 -0.37335122631889228 0 0.2800284498290373 -0.36254698933190138 0 0.30547827559977841 -0.36701656427882617 0 0.29394832566175499 -0.35926575932057531 0 0.29113915462604723 -0.37335122631889228 0 0.29394832566175499 -0.35926575932057531 0 0.29113915462604723 -0.37335122631889228 0 0.2800284498290373 -0.36254698933190138 0 0.27432108574999597 -0.37571717524867382 0 0.2800284498290373 -0.36254698933190138 0 0.26406028336562792 -0.3662592211507395 0 0.2800284498290373 -0.36254698933190138 0 0.26859409748736462 -0.35321781917693279 0 0.26406028336562792 -0.3662592211507395 0 0.27432108574999597 -0.37571717524867382 0 0.25962952209879769 -0.37802669142233292 0 0.26406028336562792 -0.3662592211507395 0 0.2838441666125201 -0.34721566226785872 0 0.26859409748736462 -0.35321781917693279 0 0.26510136515246691 -0.33311837369920227 0 0.2838441666125201 -0.34721566226785872 0 0.2800284498290373 -0.36254698933190138 0 0.26859409748736462 -0.35321781917693279 0 0.26859409748736462 -0.35321781917693279 0 0.25447182719916123 -0.35322659641414378 0 0.26510136515246691 -0.33311837369920227 0 0.26859409748736462 -0.35321781917693279 0 0.25447182719916123 -0.35322659641414378 0 0.26406028336562792 -0.3662592211507395 0 0.25962952209879769 -0.37802669142233292 0 0.25050226186537478 -0.3671424970997173 0 0.24196852534057081 -0.37706873276439029 0 0.25447182719916123 -0.35322659641414378 0 0.26406028336562792 -0.3662592211507395 0 0.25050226186537478 -0.3671424970997173 0 0.25962952209879769 -0.37802669142233292 0 0.26406028336562792 -0.3662592211507395 0 0.25050226186537478 -0.3671424970997173 0 0.28801891354579201 -0.33027688108161818 0 0.26510136515246691 -0.33311837369920227 0 0.28000276476017633 -0.30931671026250651 0 0.26510136515246691 -0.33311837369920227 0 0.25211550132978949 -0.31230508221712161 0 0.28000276476017633 -0.30931671026250651 0 0.28801891354579201 -0.33027688108161818 0 0.2838441666125201 -0.34721566226785872 0 0.26510136515246691 -0.33311837369920227 0 0.26510136515246691 -0.33311837369920227 0 0.24356683567866691 -0.32857967648828201 0 0.2430040836211563 -0.34323455692774107 0 0.25447182719916123 -0.35322659641414378 0 0.26510136515246691 -0.33311837369920227 0 0.2430040836211563 -0.34323455692774107 0 0.26510136515246691 -0.33311837369920227 0 0.25211550132978949 -0.31230508221712161 0 0.24356683567866691 -0.32857967648828201 0 0.25211550132978949 -0.31230508221712161 0 0.26280427424395653 -0.29118142160467803 0 0.28000276476017633 -0.30931671026250651 0 0.25211550132978949 -0.31230508221712161 0 0.26280427424395653 -0.29118142160467803 0 0.2367865219702798 -0.29427353671042011 0 0.26280427424395653 -0.29118142160467803 0 0.25117695740673363 -0.26898285771107461 0 0.2367865219702798 -0.29427353671042011 0 0.26280427424395653 -0.29118142160467803 0 0.28341808661712781 -0.28881693171155048 0 0.27420711325421898 -0.27336765428032972 0 0.26280427424395653 -0.29118142160467803 0 0.28000276476017633 -0.30931671026250651 0 0.28341808661712781 -0.28881693171155048 0 0.30487421064419151 -0.31648458945822727 0 0.28000276476017633 -0.30931671026250651 0 0.30358261992788899 -0.29217369110945879 0 0.28000276476017633 -0.30931671026250651 0 0.28341808661712781 -0.28881693171155048 0 0.30358261992788899 -0.29217369110945879 0 0.28341808661712781 -0.28881693171155048 0 0.30358261992788899 -0.29217369110945879 0 0.29501060343221619 -0.26582628772235029 0 0.3252935245522996 -0.30569366734590619 0 0.30487421064419151 -0.31648458945822727 0 0.30358261992788899 -0.29217369110945879 0 0.30810940478727539 -0.24903311324244709 0 0.32054727682851908 -0.26306301855202258 0 0.29501060343221619 -0.26582628772235029 0 0.30810940478727539 -0.24903311324244709 0 0.29260129125555778 -0.23817732966625749 0 0.29501060343221619 -0.26582628772235029 0 0.32054727682851908 -0.26306301855202258 0 0.31085622471197488 -0.27599066497129843 0 0.29501060343221619 -0.26582628772235029 0 0.30358261992788899 -0.29217369110945879 0 0.31085622471197488 -0.27599066497129843 0 0.29501060343221619 -0.26582628772235029 0 0.28341808661712781 -0.28881693171155048 0 0.29501060343221619 -0.26582628772235029 0 0.27420711325421898 -0.27336765428032972 0 0.29260129125555778 -0.23817732966625749 0 0.29501060343221619 -0.26582628772235029 0 0.27357446709181082 -0.25407131709457892 0 0.27357446709181082 -0.25407131709457892 0 0.27420711325421898 -0.27336765428032972 0 0.25117695740673363 -0.26898285771107461 0 0.29501060343221619 -0.26582628772235029 0 0.27357446709181082 -0.25407131709457892 0 0.27420711325421898 -0.27336765428032972 0 0.26280427424395653 -0.29118142160467803 0 0.27420711325421898 -0.27336765428032972 0 0.25117695740673363 -0.26898285771107461 0 0.256245679646319 -0.24611908193733029 0 0.27357446709181082 -0.25407131709457892 0 0.25117695740673363 -0.26898285771107461 0 0.25117695740673363 -0.26898285771107461 0 0.23706227252860421 -0.25092717962419769 0 0.22193189683996209 -0.2752598979686075 0 0.256245679646319 -0.24611908193733029 0 0.25117695740673363 -0.26898285771107461 0 0.23706227252860421 -0.25092717962419769 0 0.25117695740673363 -0.26898285771107461 0 0.22193189683996209 -0.2752598979686075 0 0.2367865219702798 -0.29427353671042011 0 0.23706227252860421 -0.25092717962419769 0 0.22193189683996209 -0.2752598979686075 0 0.23706227252860421 -0.25092717962419769 0 0.22193189683996209 -0.2752598979686075 0 0.2222054989257623 -0.25141229414652078 0 0.22193189683996209 -0.2752598979686075 0 0.2222054989257623 -0.25141229414652078 0 0.20551156573736071 -0.24641837388232249 0 0.22193189683996209 -0.2752598979686075 0 0.19726045400637399 -0.27585845025239419 0 0.20551156573736071 -0.24641837388232249 0 0.19726045400637399 -0.27585845025239419 0 0.18217102449741759 -0.25633033018358897 0 0.20551156573736071 -0.24641837388232249 0 0.18217102449741759 -0.25633033018358897 0 0.20551156573736071 -0.24641837388232249 0 0.20680152115132 -0.29959261631301731 0 0.20112566096510159 -0.31760135774177678 0 0.18251486040205819 -0.2956474832147144 0 0.20112566096510159 -0.31760135774177678 0 0.17988817940845839 -0.31995862265114161 0 0.18251486040205819 -0.2956474832147144 0 0.19726045400637399 -0.27585845025239419 0 0.20680152115132 -0.29959261631301731 0 0.18251486040205819 -0.2956474832147144 0 0.22193189683996209 -0.2752598979686075 0 0.19726045400637399 -0.27585845025239419 0 0.20680152115132 -0.29959261631301731 0 0.22193189683996209 -0.2752598979686075 0 0.20680152115132 -0.29959261631301731 0 0.20680152115132 -0.29959261631301731 0 0.21226398502161051 -0.31690398829889888 0 0.20112566096510159 -0.31760135774177678 0 0.20680152115132 -0.29959261631301731 0 0.22922142285058791 -0.31731947114714831 0 0.21226398502161051 -0.31690398829889888 0 0.20680152115132 -0.29959261631301731 0 0.2367865219702798 -0.29427353671042011 0 0.22922142285058791 -0.31731947114714831 0 0.22193189683996209 -0.2752598979686075 0 0.20680152115132 -0.29959261631301731 0 0.2367865219702798 -0.29427353671042011 0 0.25211550132978949 -0.31230508221712161 0 0.2367865219702798 -0.29427353671042011 0 0.22922142285058791 -0.31731947114714831 0 0.25211550132978949 -0.31230508221712161 0 0.24356683567866691 -0.32857967648828201 0 0.22922142285058791 -0.31731947114714831 0 0.2430040836211563 -0.34323455692774107 0 0.2283918054393341 -0.33692089845019679 0 0.23174884327683209 -0.35041566359629972 0 0.24356683567866691 -0.32857967648828201 0 0.2430040836211563 -0.34323455692774107 0 0.2283918054393341 -0.33692089845019679 0 0.2283918054393341 -0.33692089845019679 0 0.22922142285058791 -0.31731947114714831 0 0.21190733511943241 -0.33310250799365348 0 0.2283918054393341 -0.33692089845019679 0 0.21659692331614619 -0.34955938171900858 0 0.21190733511943241 -0.33310250799365348 0 0.24356683567866691 -0.32857967648828201 0 0.2283918054393341 -0.33692089845019679 0 0.22922142285058791 -0.31731947114714831 0 0.22922142285058791 -0.31731947114714831 0 0.21190733511943241 -0.33310250799365348 0 0.24146867967916591 -0.35904942364285208 0 0.22928272432835831 -0.36331405724169968 0 0.24196852534057081 -0.37706873276439029 0 0.25050226186537478 -0.3671424970997173 0 0.24146867967916591 -0.35904942364285208 0 0.24196852534057081 -0.37706873276439029 0 0.22928272432835831 -0.36331405724169968 0 0.24196852534057081 -0.37706873276439029 0 0.25050226186537478 -0.3671424970997173 0 0.24196852534057081 -0.37706873276439029 0 0.25447182719916123 -0.35322659641414378 0 0.25050226186537478 -0.3671424970997173 0 0.24146867967916591 -0.35904942364285208 0 0.2430040836211563 -0.34323455692774107 0 0.24146867967916591 -0.35904942364285208 0 0.23174884327683209 -0.35041566359629972 0 0.25447182719916123 -0.35322659641414378 0 0.2430040836211563 -0.34323455692774107 0 0.24146867967916591 -0.35904942364285208 0 0.2283918054393341 -0.33692089845019679 0 0.23174884327683209 -0.35041566359629972 0 0.21659692331614619 -0.34955938171900858 0 0.23174884327683209 -0.35041566359629972 0 0.22928272432835831 -0.36331405724169968 0 0.21659692331614619 -0.34955938171900858 0 0.22928272432835831 -0.36331405724169968 0 0.21659692331614619 -0.34955938171900858 0 0.24146867967916591 -0.35904942364285208 0 0.23174884327683209 -0.35041566359629972 0 0.22928272432835831 -0.36331405724169968 0 0.22928272432835831 -0.36331405724169968 0 0.20771389922926209 -0.37292152115529181 0 0.22538023029408269 -0.37964062092018769 0 0.22928272432835831 -0.36331405724169968 0 0.24196852534057081 -0.37706873276439029 0 0.22538023029408269 -0.37964062092018769 0 0.22928272432835831 -0.36331405724169968 0 0.20771389922926209 -0.37292152115529181 0 0.20530694117440981 -0.3586316115584241 0 0.20530694117440981 -0.3586316115584241 0 0.21659692331614619 -0.34955938171900858 0 0.1945932473882768 -0.34888554484015882 0 0.22928272432835831 -0.36331405724169968 0 0.20530694117440981 -0.3586316115584241 0 0.21659692331614619 -0.34955938171900858 0 0.21659692331614619 -0.34955938171900858 0 0.1945932473882768 -0.34888554484015882 0 0.21190733511943241 -0.33310250799365348 0 0.20530694117440981 -0.3586316115584241 0 0.1945932473882768 -0.34888554484015882 0 0.19483080500658981 -0.3649757090163796 0 0.20771389922926209 -0.37292152115529181 0 0.19483080500658981 -0.3649757090163796 0 0.1892607775838791 -0.37977128584135911 0 0.1945932473882768 -0.34888554484015882 0 0.19483080500658981 -0.3649757090163796 0 0.17727915965712121 -0.36466858168666422 0 0.20771389922926209 -0.37292152115529181 0 0.20530694117440981 -0.3586316115584241 0 0.19483080500658981 -0.3649757090163796 0 0.21226398502161051 -0.31690398829889888 0 0.21190733511943241 -0.33310250799365348 0 0.20112566096510159 -0.31760135774177678 0 0.22922142285058791 -0.31731947114714831 0 0.21226398502161051 -0.31690398829889888 0 0.21190733511943241 -0.33310250799365348 0 0.1945932473882768 -0.34888554484015882 0 0.21190733511943241 -0.33310250799365348 0 0.21190733511943241 -0.33310250799365348 0 0.20043707190005181 -0.33647080399228751 0 0.20112566096510159 -0.31760135774177678 0 0.20043707190005181 -0.33647080399228751 0 0.17988817940845839 -0.31995862265114161 0 0.186052817356469 -0.33728265970963339 0 0.20043707190005181 -0.33647080399228751 0 0.17988817940845839 -0.31995862265114161 0 0.1945932473882768 -0.34888554484015882 0 0.21190733511943241 -0.33310250799365348 0 0.20043707190005181 -0.33647080399228751 0 0.1945932473882768 -0.34888554484015882 0 0.20043707190005181 -0.33647080399228751 0 0.186052817356469 -0.33728265970963339 0 0.20043707190005181 -0.33647080399228751 0 0.20112566096510159 -0.31760135774177678 0 0.17988817940845839 -0.31995862265114161 0 0.1945932473882768 -0.34888554484015882 0 0.172618768503324 -0.34215987829289862 0 0.186052817356469 -0.33728265970963339 0 0.17988817940845839 -0.31995862265114161 0 0.172618768503324 -0.34215987829289862 0 0.186052817356469 -0.33728265970963339 0 0.172618768503324 -0.34215987829289862 0 0.1622193380081145 -0.32486175856108718 0 0.14938811683508921 -0.33889334135575971 0 0.17988817940845839 -0.31995862265114161 0 0.172618768503324 -0.34215987829289862 0 0.1622193380081145 -0.32486175856108718 0 0.17988817940845839 -0.31995862265114161 0 0.1622193380081145 -0.32486175856108718 0 0.15933928691686511 -0.30344644130999582 0 0.1622193380081145 -0.32486175856108718 0 0.14986233837683591 -0.31985050919564062 0 0.15933928691686511 -0.30344644130999582 0 0.19483080500658981 -0.3649757090163796 0 0.17727915965712121 -0.36466858168666422 0 0.1892607775838791 -0.37977128584135911 0 0.17727915965712121 -0.36466858168666422 0 0.1892607775838791 -0.37977128584135911 0 0.15996507192596571 -0.3804516185331695 0 0.1945932473882768 -0.34888554484015882 0 0.172618768503324 -0.34215987829289862 0 0.17727915965712121 -0.36466858168666422 0 0.1945932473882768 -0.34888554484015882 0 0.17727915965712121 -0.36466858168666422 0 0.172618768503324 -0.34215987829289862 0 0.15602519835391859 -0.35938502676453937 0 0.14938811683508921 -0.33889334135575971 0 0.172618768503324 -0.34215987829289862 0 0.17727915965712121 -0.36466858168666422 0 0.15602519835391859 -0.35938502676453937 0 0.17727915965712121 -0.36466858168666422 0 0.15996507192596571 -0.3804516185331695 0 0.17727915965712121 -0.36466858168666422 0 0.15602519835391859 -0.35938502676453937 0 0.15996507192596571 -0.3804516185331695 0 0.1441019828074532 -0.37332182027552241 0 0.15602519835391859 -0.35938502676453937 0 0.15996507192596571 -0.3804516185331695 0 0.1441019828074532 -0.37332182027552241 0 0.15602519835391859 -0.35938502676453937 0 0.13634587265708731 -0.35855661663982702 0 0.15602519835391859 -0.35938502676453937 0 0.13634587265708731 -0.35855661663982702 0 0.14938811683508921 -0.33889334135575971 0 0.13634587265708731 -0.35855661663982702 0 0.13046536660749419 -0.34167241986210062 0 0.1200564511942367 -0.35950438291440678 0 0.13634587265708731 -0.35855661663982702 0 0.14938811683508921 -0.33889334135575971 0 0.13046536660749419 -0.34167241986210062 0 0.13634587265708731 -0.35855661663982702 0 0.12655279757440099 -0.38274277953848551 0 0.1200564511942367 -0.35950438291440678 0 0.1441019828074532 -0.37332182027552241 0 0.13634587265708731 -0.35855661663982702 0 0.12655279757440099 -0.38274277953848551 0 0.1622193380081145 -0.32486175856108718 0 0.14986233837683591 -0.31985050919564062 0 0.14938811683508921 -0.33889334135575971 0 0.14986233837683591 -0.31985050919564062 0 0.14938811683508921 -0.33889334135575971 0 0.13796119854074879 -0.32742166836072789 0 0.14938811683508921 -0.33889334135575971 0 0.13046536660749419 -0.34167241986210062 0 0.13796119854074879 -0.32742166836072789 0 0.13046536660749419 -0.34167241986210062 0 0.12719797179517581 -0.32888293995090162 0 0.13796119854074879 -0.32742166836072789 0 0.14986233837683591 -0.31985050919564062 0 0.13796119854074879 -0.32742166836072789 0 0.13181805720030679 -0.31407903506422757 0 0.12719797179517581 -0.32888293995090162 0 0.13181805720030679 -0.31407903506422757 0 0.11924028588535671 -0.3182765773557118 0 0.12719797179517581 -0.32888293995090162 0 0.13796119854074879 -0.32742166836072789 0 0.13181805720030679 -0.31407903506422757 0 0.13181805720030679 -0.31407903506422757 0 0.1251151673466723 -0.30118436876075477 0 0.13872967355818211 -0.30209849750476758 0 0.14986233837683591 -0.31985050919564062 0 0.13181805720030679 -0.31407903506422757 0 0.13872967355818211 -0.30209849750476758 0 0.13181805720030679 -0.31407903506422757 0 0.1251151673466723 -0.30118436876075477 0 0.11924028588535671 -0.3182765773557118 0 0.1251151673466723 -0.30118436876075477 0 0.13872967355818211 -0.30209849750476758 0 0.12973139329597921 -0.28939044096510202 0 0.14986233837683591 -0.31985050919564062 0 0.13872967355818211 -0.30209849750476758 0 0.15933928691686511 -0.30344644130999582 0 0.13872967355818211 -0.30209849750476758 0 0.13879039442527161 -0.28693425996884969 0 0.15933928691686511 -0.30344644130999582 0 0.15166471087175479 -0.28366796994876692 0 0.13879039442527161 -0.28693425996884969 0 0.15933928691686511 -0.30344644130999582 0 0.13879039442527161 -0.28693425996884969 0 0.15933928691686511 -0.30344644130999582 0 0.13879039442527161 -0.28693425996884969 0 0.12973139329597921 -0.28939044096510202 0 0.14748257552252611 -0.27106136777450018 0 0.13872967355818211 -0.30209849750476758 0 0.13879039442527161 -0.28693425996884969 0 0.12973139329597921 -0.28939044096510202 0 0.12973139329597921 -0.28939044096510202 0 0.1330193197093949 -0.27720343440954831 0 0.11855606389626069 -0.28334550104458922 0 0.12973139329597921 -0.28939044096510202 0 0.14748257552252611 -0.27106136777450018 0 0.1330193197093949 -0.27720343440954831 0 0.11855606389626069 -0.28334550104458922 0 0.1330193197093949 -0.27720343440954831 0 0.12620251533772109 -0.26359640456691308 0 0.11855606389626069 -0.28334550104458922 0 0.12973139329597921 -0.28939044096510202 0 0.1330193197093949 -0.27720343440954831 0 0.14748257552252611 -0.27106136777450018 0 0.13724337169762299 -0.26712808156572282 0 0.1330193197093949 -0.27720343440954831 0 0.12620251533772109 -0.26359640456691308 0 0.13724337169762299 -0.26712808156572282 0 0.1330193197093949 -0.27720343440954831 0 0.14748257552252611 -0.27106136777450018 0 0.1330193197093949 -0.27720343440954831 0 0.14748257552252611 -0.27106136777450018 0 0.12620251533772109 -0.26359640456691308 0 0.11895464661316579 -0.25072187298028797 0 0.13384896677918601 -0.2438473080892388 0 0.13724337169762299 -0.26712808156572282 0 0.12620251533772109 -0.26359640456691308 0 0.14226907622085039 -0.25665111951193009 0 0.12620251533772109 -0.26359640456691308 0 0.13384896677918601 -0.2438473080892388 0 0.12620251533772109 -0.26359640456691308 0 0.14226907622085039 -0.25665111951193009 0 0.13384896677918601 -0.2438473080892388 0 0.1568388973409667 -0.2614004502527032 0 0.1491671577808075 -0.24274933093213399 0 0.14226907622085039 -0.25665111951193009 0 0.1568388973409667 -0.2614004502527032 0 0.1491671577808075 -0.24274933093213399 0 0.13724337169762299 -0.26712808156572282 0 0.14226907622085039 -0.25665111951193009 0 0.14748257552252611 -0.27106136777450018 0 0.14226907622085039 -0.25665111951193009 0 0.14748257552252611 -0.27106136777450018 0 0.1568388973409667 -0.2614004502527032 0 0.15166471087175479 -0.28366796994876692 0 0.13879039442527161 -0.28693425996884969 0 0.14748257552252611 -0.27106136777450018 0 0.14748257552252611 -0.27106136777450018 0 0.1588304832574744 -0.26624228648485559 0 0.14748257552252611 -0.27106136777450018 0 0.15569129221575501 -0.2751882931046154 0 0.1588304832574744 -0.26624228648485559 0 0.14748257552252611 -0.27106136777450018 0 0.1588304832574744 -0.26624228648485559 0 0.1568388973409667 -0.2614004502527032 0 0.14748257552252611 -0.27106136777450018 0 0.1568388973409667 -0.2614004502527032 0 0.15166471087175479 -0.28366796994876692 0 0.14748257552252611 -0.27106136777450018 0 0.15569129221575501 -0.2751882931046154 0 0.15569129221575501 -0.2751882931046154 0 0.1588304832574744 -0.26624228648485559 0 0.16424197207296359 -0.27939840613778533 0 0.15166471087175479 -0.28366796994876692 0 0.15569129221575501 -0.2751882931046154 0 0.16424197207296359 -0.27939840613778533 0 0.1588304832574744 -0.26624228648485559 0 0.16424197207296359 -0.27939840613778533 0 0.17624578529781751 -0.27792102905945348 0 0.1588304832574744 -0.26624228648485559 0 0.16424197207296359 -0.27939840613778533 0 0.1588304832574744 -0.26624228648485559 0 0.1568388973409667 -0.2614004502527032 0 0.18217102449741759 -0.25633033018358897 0 0.1634945539950747 -0.25208469443063591 0 0.1568388973409667 -0.2614004502527032 0 0.1491671577808075 -0.24274933093213399 0 0.1568388973409667 -0.2614004502527032 0 0.18217102449741759 -0.25633033018358897 0 0.17168713556925899 -0.24606882660282231 0 0.1588304832574744 -0.26624228648485559 0 0.18217102449741759 -0.25633033018358897 0 0.1634945539950747 -0.25208469443063591 0 0.1568388973409667 -0.2614004502527032 0 0.17168713556925899 -0.24606882660282231 0 0.1588304832574744 -0.26624228648485559 0 0.1568388973409667 -0.2614004502527032 0 0.1568388973409667 -0.2614004502527032 0 0.17168713556925899 -0.24606882660282231 0 0.1588304832574744 -0.26624228648485559 0 0.18217102449741759 -0.25633033018358897 0 0.17624578529781751 -0.27792102905945348 0 0.19726045400637399 -0.27585845025239419 0 0.18217102449741759 -0.25633033018358897 0 0.17624578529781751 -0.27792102905945348 0 0.19726045400637399 -0.27585845025239419 0 0.17624578529781751 -0.27792102905945348 0 0.18251486040205819 -0.2956474832147144 0 0.17624578529781751 -0.27792102905945348 0 0.18251486040205819 -0.2956474832147144 0 0.16522228901908609 -0.28895940186362867 0 0.17988817940845839 -0.31995862265114161 0 0.18251486040205819 -0.2956474832147144 0 0.15933928691686511 -0.30344644130999582 0 0.17988817940845839 -0.31995862265114161 0 0.15933928691686511 -0.30344644130999582 0 0.15166471087175479 -0.28366796994876692 0 0.15933928691686511 -0.30344644130999582 0 0.16522228901908609 -0.28895940186362867 0 0.18251486040205819 -0.2956474832147144 0 0.15933928691686511 -0.30344644130999582 0 0.16522228901908609 -0.28895940186362867 0 0.15166471087175479 -0.28366796994876692 0 0.16424197207296359 -0.27939840613778533 0 0.16522228901908609 -0.28895940186362867 0 0.16424197207296359 -0.27939840613778533 0 0.17624578529781751 -0.27792102905945348 0 0.16522228901908609 -0.28895940186362867 0 0.1976048685021872 -0.48297009663037899 0 0.20860487228547039 -0.5 0 0.18118675631870479 -0.5 0 0.1976048685021872 -0.48297009663037899 0 0.1972258127868618 -0.46327497340899498 0 0.17467967137221779 -0.47073165711161941 0 0.1976048685021872 -0.48297009663037899 0 0.21816293195672409 -0.48064578887332199 0 0.1972258127868618 -0.46327497340899498 0 0.21816293195672409 -0.48064578887332199 0 0.1972258127868618 -0.46327497340899498 0 0.1976048685021872 -0.48297009663037899 0 0.21816293195672409 -0.48064578887332199 0 0.20860487228547039 -0.5 0 0.21816293195672409 -0.48064578887332199 0 0.20860487228547039 -0.5 0 0.23602298825223619 -0.50000000000000078 0 0.21816293195672409 -0.48064578887332199 0 0.23910005112658811 -0.49801660433764688 0 0.21816293195672409 -0.48064578887332199 0 0.23602298825223619 -0.50000000000000078 0 0.23910005112658811 -0.49801660433764688 0 0.26301948475699838 -0.48259875203952318 0 0.23910005112658811 -0.49801660433764688 0 0.24149064651508459 -0.49999999999999611 0 0.23602298825223619 -0.50000000000000078 0 0.23910005112658811 -0.49801660433764688 0 0.23602298825223619 -0.50000000000000078 0 0.23910005112658811 -0.49801660433764688 0 0.24149064651508459 -0.49999999999999611 0 0.23910005112658811 -0.49801660433764688 0 0.24149064651508459 -0.49999999999999611 0 0.26301948475699838 -0.48259875203952318 0 0.23910005112658811 -0.49801660433764688 0 0.24400877227645179 -0.47228218742722128 0 0.21816293195672409 -0.48064578887332199 0 0.24400877227645179 -0.47228218742722128 0 0.22478161241444411 -0.45833332780062208 0 0.21816293195672409 -0.48064578887332199 0 0.23910005112658811 -0.49801660433764688 0 0.24400877227645179 -0.47228218742722128 0 0.24400877227645179 -0.47228218742722128 0 0.22478161241444411 -0.45833332780062208 0 0.2494552016501298 -0.4521593971291174 0 0.22478161241444411 -0.45833332780062208 0 0.24016746684540019 -0.43755558954149459 0 0.2494552016501298 -0.4521593971291174 0 0.22478161241444411 -0.45833332780062208 0 0.24016746684540019 -0.43755558954149459 0 0.22063801641470579 -0.44260492318451522 0 0.22478161241444411 -0.45833332780062208 0 0.22063801641470579 -0.44260492318451522 0 0.203898252532455 -0.44711952041871927 0 0.22063801641470579 -0.44260492318451522 0 0.203898252532455 -0.44711952041871927 0 0.20986335632702821 -0.43298805120130468 0 0.22478161241444411 -0.45833332780062208 0 0.203898252532455 -0.44711952041871927 0 0.1972258127868618 -0.46327497340899498 0 0.21816293195672409 -0.48064578887332199 0 0.22478161241444411 -0.45833332780062208 0 0.1972258127868618 -0.46327497340899498 0 0.203898252532455 -0.44711952041871927 0 0.1972258127868618 -0.46327497340899498 0 0.17628869361699939 -0.44590415794466809 0 0.203898252532455 -0.44711952041871927 0 0.19204067931982899 -0.43514359415615689 0 0.17628869361699939 -0.44590415794466809 0 0.203898252532455 -0.44711952041871927 0 0.19204067931982899 -0.43514359415615689 0 0.20986335632702821 -0.43298805120130468 0 0.19204067931982899 -0.43514359415615689 0 0.20868329466007751 -0.41578530702556921 0 0.19204067931982899 -0.43514359415615689 0 0.1923775291530212 -0.41265342552181078 0 0.20868329466007751 -0.41578530702556921 0 0.1923775291530212 -0.41265342552181078 0 0.20868329466007751 -0.41578530702556921 0 0.2042336815338559 -0.3946002980773653 0 0.19204067931982899 -0.43514359415615689 0 0.20868329466007751 -0.41578530702556921 0 0.20986335632702821 -0.43298805120130468 0 0.22063801641470579 -0.44260492318451522 0 0.20986335632702821 -0.43298805120130468 0 0.22405653870807379 -0.42428691122156331 0 0.20868329466007751 -0.41578530702556921 0 0.20986335632702821 -0.43298805120130468 0 0.22405653870807379 -0.42428691122156331 0 0.24016746684540019 -0.43755558954149459 0 0.22063801641470579 -0.44260492318451522 0 0.22405653870807379 -0.42428691122156331 0 0.24016746684540019 -0.43755558954149459 0 0.22405653870807379 -0.42428691122156331 0 0.2417878809344047 -0.42154405506485948 0 0.25946564988289877 -0.42179907025938801 0 0.24016746684540019 -0.43755558954149459 0 0.2417878809344047 -0.42154405506485948 0 0.25000496789787052 -0.40671545945853599 0 0.2417878809344047 -0.42154405506485948 0 0.22532591000032609 -0.39642701989498141 0 0.20868329466007751 -0.41578530702556921 0 0.22405653870807379 -0.42428691122156331 0 0.22532591000032609 -0.39642701989498141 0 0.22405653870807379 -0.42428691122156331 0 0.2417878809344047 -0.42154405506485948 0 0.22532591000032609 -0.39642701989498141 0 0.25000496789787052 -0.40671545945853599 0 0.22532591000032609 -0.39642701989498141 0 0.24208922296946531 -0.39308444581456581 0 0.25620212895815159 -0.39250162494754598 0 0.25000496789787052 -0.40671545945853599 0 0.24208922296946531 -0.39308444581456581 0 0.25620212895815159 -0.39250162494754598 0 0.24208922296946531 -0.39308444581456581 0 0.24196852534057081 -0.37706873276439029 0 0.22532591000032609 -0.39642701989498141 0 0.24208922296946531 -0.39308444581456581 0 0.24196852534057081 -0.37706873276439029 0 0.25620212895815159 -0.39250162494754598 0 0.24196852534057081 -0.37706873276439029 0 0.22532591000032609 -0.39642701989498141 0 0.24196852534057081 -0.37706873276439029 0 0.22532591000032609 -0.39642701989498141 0 0.24196852534057081 -0.37706873276439029 0 0.22538023029408269 -0.37964062092018769 0 0.20771389922926209 -0.37292152115529181 0 0.22538023029408269 -0.37964062092018769 0 0.2042336815338559 -0.3946002980773653 0 0.22532591000032609 -0.39642701989498141 0 0.22538023029408269 -0.37964062092018769 0 0.2042336815338559 -0.3946002980773653 0 0.20868329466007751 -0.41578530702556921 0 0.22532591000032609 -0.39642701989498141 0 0.2042336815338559 -0.3946002980773653 0 0.20868329466007751 -0.41578530702556921 0 0.22532591000032609 -0.39642701989498141 0 0.2042336815338559 -0.3946002980773653 0 0.1892607775838791 -0.37977128584135911 0 0.18069641487808169 -0.39888626300472912 0 0.1923775291530212 -0.41265342552181078 0 0.2042336815338559 -0.3946002980773653 0 0.18069641487808169 -0.39888626300472912 0 0.20771389922926209 -0.37292152115529181 0 0.2042336815338559 -0.3946002980773653 0 0.1892607775838791 -0.37977128584135911 0 0.1892607775838791 -0.37977128584135911 0 0.18069641487808169 -0.39888626300472912 0 0.15996507192596571 -0.3804516185331695 0 0.18069641487808169 -0.39888626300472912 0 0.1606807600026979 -0.40328679412498392 0 0.15996507192596571 -0.3804516185331695 0 0.1441019828074532 -0.37332182027552241 0 0.15996507192596571 -0.3804516185331695 0 0.14241944041749441 -0.39083445609506029 0 0.1441019828074532 -0.37332182027552241 0 0.12655279757440099 -0.38274277953848551 0 0.14241944041749441 -0.39083445609506029 0 0.12655279757440099 -0.38274277953848551 0 0.13304914395456521 -0.40598117616256407 0 0.14241944041749441 -0.39083445609506029 0 0.13304914395456521 -0.40598117616256407 0 0.13441445527727491 -0.41116252701601441 0 0.1134773361074127 -0.39379171155168757 0 0.12655279757440099 -0.38274277953848551 0 0.13304914395456521 -0.40598117616256407 0 0.13304914395456521 -0.40598117616256407 0 0.14451490615021759 -0.40573045021314669 0 0.14241944041749441 -0.39083445609506029 0 0.1606807600026979 -0.40328679412498392 0 0.15996507192596571 -0.3804516185331695 0 0.14241944041749441 -0.39083445609506029 0 0.1606807600026979 -0.40328679412498392 0 0.14451490615021759 -0.40573045021314669 0 0.14241944041749441 -0.39083445609506029 0 0.1606807600026979 -0.40328679412498392 0 0.14451490615021759 -0.40573045021314669 0 0.1553515744471371 -0.4285333424803412 0 0.13441445527727491 -0.41116252701601441 0 0.1553515744471371 -0.4285333424803412 0 0.14451490615021759 -0.40573045021314669 0 0.13441445527727491 -0.41116252701601441 0 0.1553515744471371 -0.4285333424803412 0 0.13304914395456521 -0.40598117616256407 0 0.14451490615021759 -0.40573045021314669 0 0.13441445527727491 -0.41116252701601441 0 0.13441445527727491 -0.41116252701601441 0 0.12582182905955031 -0.42380000499859949 0 0.13761670616035529 -0.42971339522259971 0 0.13441445527727491 -0.41116252701601441 0 0.12582182905955031 -0.42380000499859949 0 0.1221777985862009 -0.41427603169008981 0 0.12582182905955031 -0.42380000499859949 0 0.13761670616035529 -0.42971339522259971 0 0.12832906338193359 -0.4392464010565687 0 0.13441445527727491 -0.41116252701601441 0 0.13761670616035529 -0.42971339522259971 0 0.1553515744471371 -0.4285333424803412 0 0.13761670616035529 -0.42971339522259971 0 0.1553515744471371 -0.4285333424803412 0 0.14416660863588041 -0.44582470056147461 0 0.1553515744471371 -0.4285333424803412 0 0.17628869361699939 -0.44590415794466809 0 0.1553515744471371 -0.4285333424803412 0 0.17623357537326201 -0.41885166534523388 0 0.17628869361699939 -0.44590415794466809 0 0.1606807600026979 -0.40328679412498392 0 0.1553515744471371 -0.4285333424803412 0 0.17623357537326201 -0.41885166534523388 0 0.1923775291530212 -0.41265342552181078 0 0.18069641487808169 -0.39888626300472912 0 0.17623357537326201 -0.41885166534523388 0 0.18069641487808169 -0.39888626300472912 0 0.1606807600026979 -0.40328679412498392 0 0.17623357537326201 -0.41885166534523388 0 0.19204067931982899 -0.43514359415615689 0 0.1923775291530212 -0.41265342552181078 0 0.17623357537326201 -0.41885166534523388 0 0.19204067931982899 -0.43514359415615689 0 0.17623357537326201 -0.41885166534523388 0 0.17628869361699939 -0.44590415794466809 0 0.1972258127868618 -0.46327497340899498 0 0.17628869361699939 -0.44590415794466809 0 0.17467967137221779 -0.47073165711161941 0 0.1972258127868618 -0.46327497340899498 0 0.17628869361699939 -0.44590415794466809 0 0.15991463273436859 -0.45146185491420998 0 0.14908661559960801 -0.46631541647294672 0 0.17467967137221779 -0.47073165711161941 0 0.17628869361699939 -0.44590415794466809 0 0.15991463273436859 -0.45146185491420998 0 0.17467967137221779 -0.47073165711161941 0 0.1553515744471371 -0.4285333424803412 0 0.17628869361699939 -0.44590415794466809 0 0.15991463273436859 -0.45146185491420998 0 0.1553515744471371 -0.4285333424803412 0 0.15991463273436859 -0.45146185491420998 0 0.14416660863588041 -0.44582470056147461 0 0.14416660863588041 -0.44582470056147461 0 0.12832906338193359 -0.4392464010565687 0 0.13049674899993541 -0.4580096547171133 0 0.13761670616035529 -0.42971339522259971 0 0.14416660863588041 -0.44582470056147461 0 0.12832906338193359 -0.4392464010565687 0 0.13049674899993541 -0.4580096547171133 0 0.1348885740036522 -0.48010387881001187 0 0.1129420081040855 -0.46726069199786091 0 0.13049674899993541 -0.4580096547171133 0 0.14908661559960801 -0.46631541647294672 0 0.1348885740036522 -0.48010387881001187 0 0.15991463273436859 -0.45146185491420998 0 0.14416660863588041 -0.44582470056147461 0 0.14908661559960801 -0.46631541647294672 0 0.14416660863588041 -0.44582470056147461 0 0.13049674899993541 -0.4580096547171133 0 0.14908661559960801 -0.46631541647294672 0 0.14908661559960801 -0.46631541647294672 0 0.1348885740036522 -0.48010387881001187 0 0.15893401418303199 -0.48211435004875169 0 0.1348885740036522 -0.48010387881001187 0 0.12635052438517391 -0.5 0 0.15376864035193941 -0.5 0 0.1348885740036522 -0.48010387881001187 0 0.15376864035193941 -0.5 0 0.15893401418303199 -0.48211435004875169 0 0.15376864035193941 -0.5 0 0.15893401418303199 -0.48211435004875169 0 0.18118675631870479 -0.5 0 0.15893401418303199 -0.48211435004875169 0 0.17467967137221779 -0.47073165711161941 0 0.18118675631870479 -0.5 0 0.14908661559960801 -0.46631541647294672 0 0.15893401418303199 -0.48211435004875169 0 0.17467967137221779 -0.47073165711161941 0 0.1976048685021872 -0.48297009663037899 0 0.17467967137221779 -0.47073165711161941 0 0.18118675631870479 -0.5 0 0.07151429245164298 -0.5 0 0.090319257464045843 -0.47807022902008139 0 0.061934407888797192 -0.47944707207450271 0 0.090319257464045843 -0.47807022902008139 0 0.07680273117162599 -0.45922261646987628 0 0.061934407888797192 -0.47944707207450271 0 0.07151429245164298 -0.5 0 0.090319257464045843 -0.47807022902008139 0 0.098932408418408446 -0.5 0 0.090319257464045843 -0.47807022902008139 0 0.098932408418408446 -0.5 0 0.1126644705208126 -0.48603720248044141 0 0.1348885740036522 -0.48010387881001187 0 0.12635052438517391 -0.5 0 0.1126644705208126 -0.48603720248044141 0 0.12635052438517391 -0.5 0 0.098932408418408446 -0.5 0 0.1126644705208126 -0.48603720248044141 0 0.1348885740036522 -0.48010387881001187 0 0.1126644705208126 -0.48603720248044141 0 0.1129420081040855 -0.46726069199786091 0 0.090319257464045843 -0.47807022902008139 0 0.1126644705208126 -0.48603720248044141 0 0.1129420081040855 -0.46726069199786091 0 0.097467487811969733 -0.45353418416491997 0 0.1129420081040855 -0.46726069199786091 0 0.1140952989008612 -0.4476539402707741 0 0.090319257464045843 -0.47807022902008139 0 0.097467487811969733 -0.45353418416491997 0 0.1129420081040855 -0.46726069199786091 0 0.13049674899993541 -0.4580096547171133 0 0.1129420081040855 -0.46726069199786091 0 0.1140952989008612 -0.4476539402707741 0 0.12832906338193359 -0.4392464010565687 0 0.13049674899993541 -0.4580096547171133 0 0.1140952989008612 -0.4476539402707741 0 0.12832906338193359 -0.4392464010565687 0 0.1140952989008612 -0.4476539402707741 0 0.1141265847936488 -0.43110762647798351 0 0.1140952989008612 -0.4476539402707741 0 0.1013881701163236 -0.43670962535967678 0 0.1141265847936488 -0.43110762647798351 0 0.097467487811969733 -0.45353418416491997 0 0.1140952989008612 -0.4476539402707741 0 0.1013881701163236 -0.43670962535967678 0 0.097467487811969733 -0.45353418416491997 0 0.086146225442143259 -0.44258981798948699 0 0.1013881701163236 -0.43670962535967678 0 0.097467487811969733 -0.45353418416491997 0 0.086146225442143259 -0.44258981798948699 0 0.07680273117162599 -0.45922261646987628 0 0.086146225442143259 -0.44258981798948699 0 0.070398190252241269 -0.44533343665651959 0 0.079944080200991155 -0.43270522331485961 0 0.090319257464045843 -0.47807022902008139 0 0.097467487811969733 -0.45353418416491997 0 0.07680273117162599 -0.45922261646987628 0 0.07680273117162599 -0.45922261646987628 0 0.050124409566172819 -0.46008936110011972 0 0.061934407888797192 -0.47944707207450271 0 0.07680273117162599 -0.45922261646987628 0 0.070398190252241269 -0.44533343665651959 0 0.050124409566172819 -0.46008936110011972 0 0.086146225442143259 -0.44258981798948699 0 0.07680273117162599 -0.45922261646987628 0 0.070398190252241269 -0.44533343665651959 0 0.072261187276979055 -0.42823393143949312 0 0.070037300645118622 -0.40865875828023368 0 0.060080855105645717 -0.43437405969017667 0 0.070398190252241269 -0.44533343665651959 0 0.072261187276979055 -0.42823393143949312 0 0.060080855105645717 -0.43437405969017667 0 0.070398190252241269 -0.44533343665651959 0 0.072261187276979055 -0.42823393143949312 0 0.079944080200991155 -0.43270522331485961 0 0.072261187276979055 -0.42823393143949312 0 0.0808455101808985 -0.420098179255676 0 0.079944080200991155 -0.43270522331485961 0 0.070037300645118622 -0.40865875828023368 0 0.060080855105645717 -0.43437405969017667 0 0.072261187276979055 -0.42823393143949312 0 0.070037300645118622 -0.40865875828023368 0 0.0808455101808985 -0.420098179255676 0 0.070037300645118622 -0.40865875828023368 0 0.060380596565863573 -0.4179033690301428 0 0.060080855105645717 -0.43437405969017667 0 0.070037300645118622 -0.40865875828023368 0 0.059908671592143747 -0.40293636420507078 0 0.060380596565863573 -0.4179033690301428 0 0.085748713315111774 -0.40672421816413479 0 0.090617323857935125 -0.41630272037786198 0 0.1016824206040861 -0.40821240454675739 0 0.070037300645118622 -0.40865875828023368 0 0.0808455101808985 -0.420098179255676 0 0.085748713315111774 -0.40672421816413479 0 0.0808455101808985 -0.420098179255676 0 0.085748713315111774 -0.40672421816413479 0 0.090617323857935125 -0.41630272037786198 0 0.0808455101808985 -0.420098179255676 0 0.090617323857935125 -0.41630272037786198 0 0.090876693099707917 -0.42803382197106998 0 0.0808455101808985 -0.420098179255676 0 0.090876693099707917 -0.42803382197106998 0 0.079944080200991155 -0.43270522331485961 0 0.086146225442143259 -0.44258981798948699 0 0.090876693099707917 -0.42803382197106998 0 0.079944080200991155 -0.43270522331485961 0 0.086146225442143259 -0.44258981798948699 0 0.090876693099707917 -0.42803382197106998 0 0.1013881701163236 -0.43670962535967678 0 0.090617323857935125 -0.41630272037786198 0 0.090876693099707917 -0.42803382197106998 0 0.10178140368009821 -0.42282878561111248 0 0.090876693099707917 -0.42803382197106998 0 0.1013881701163236 -0.43670962535967678 0 0.10178140368009821 -0.42282878561111248 0 0.1013881701163236 -0.43670962535967678 0 0.10178140368009821 -0.42282878561111248 0 0.1141265847936488 -0.43110762647798351 0 0.10178140368009821 -0.42282878561111248 0 0.1141265847936488 -0.43110762647798351 0 0.11347968402486799 -0.41707215124990538 0 0.12582182905955031 -0.42380000499859949 0 0.1141265847936488 -0.43110762647798351 0 0.11347968402486799 -0.41707215124990538 0 0.12582182905955031 -0.42380000499859949 0 0.12832906338193359 -0.4392464010565687 0 0.1141265847936488 -0.43110762647798351 0 0.13441445527727491 -0.41116252701601441 0 0.1221777985862009 -0.41427603169008981 0 0.11604171217538491 -0.40702532192188617 0 0.1221777985862009 -0.41427603169008981 0 0.11347968402486799 -0.41707215124990538 0 0.11604171217538491 -0.40702532192188617 0 0.12582182905955031 -0.42380000499859949 0 0.1221777985862009 -0.41427603169008981 0 0.11347968402486799 -0.41707215124990538 0 0.11347968402486799 -0.41707215124990538 0 0.11604171217538491 -0.40702532192188617 0 0.1016824206040861 -0.40821240454675739 0 0.10178140368009821 -0.42282878561111248 0 0.11347968402486799 -0.41707215124990538 0 0.1016824206040861 -0.40821240454675739 0 0.090617323857935125 -0.41630272037786198 0 0.10178140368009821 -0.42282878561111248 0 0.1016824206040861 -0.40821240454675739 0 0.085748713315111774 -0.40672421816413479 0 0.1016824206040861 -0.40821240454675739 0 0.094469343169498926 -0.39749974055081633 0 0.094469343169498926 -0.39749974055081633 0 0.1134773361074127 -0.39379171155168757 0 0.092010272191835996 -0.38814373344091302 0 0.1016824206040861 -0.40821240454675739 0 0.094469343169498926 -0.39749974055081633 0 0.1134773361074127 -0.39379171155168757 0 0.12655279757440099 -0.38274277953848551 0 0.13304914395456521 -0.40598117616256407 0 0.1134773361074127 -0.39379171155168757 0 0.13441445527727491 -0.41116252701601441 0 0.11604171217538491 -0.40702532192188617 0 0.1134773361074127 -0.39379171155168757 0 0.11604171217538491 -0.40702532192188617 0 0.1016824206040861 -0.40821240454675739 0 0.1134773361074127 -0.39379171155168757 0 0.13441445527727491 -0.41116252701601441 0 0.1134773361074127 -0.39379171155168757 0 0.12655279757440099 -0.38274277953848551 0 0.1134773361074127 -0.39379171155168757 0 0.108256453999795 -0.3772843548431184 0 0.12655279757440099 -0.38274277953848551 0 0.108256453999795 -0.3772843548431184 0 0.1153530592497078 -0.37076033112409151 0 0.1134773361074127 -0.39379171155168757 0 0.092540216937550573 -0.37642089608736079 0 0.1134773361074127 -0.39379171155168757 0 0.108256453999795 -0.3772843548431184 0 0.092540216937550573 -0.37642089608736079 0 0.1134773361074127 -0.39379171155168757 0 0.092540216937550573 -0.37642089608736079 0 0.092010272191835996 -0.38814373344091302 0 0.092540216937550573 -0.37642089608736079 0 0.079993746184591527 -0.38294345687029069 0 0.092010272191835996 -0.38814373344091302 0 0.079993746184591527 -0.38294345687029069 0 0.092010272191835996 -0.38814373344091302 0 0.084256628839587164 -0.396524736688603 0 0.070037300645118622 -0.40865875828023368 0 0.085748713315111774 -0.40672421816413479 0 0.084256628839587164 -0.396524736688603 0 0.094469343169498926 -0.39749974055081633 0 0.092010272191835996 -0.38814373344091302 0 0.084256628839587164 -0.396524736688603 0 0.085748713315111774 -0.40672421816413479 0 0.094469343169498926 -0.39749974055081633 0 0.084256628839587164 -0.396524736688603 0 0.070037300645118622 -0.40865875828023368 0 0.079993746184591527 -0.38294345687029069 0 0.084256628839587164 -0.396524736688603 0 0.070037300645118622 -0.40865875828023368 0 0.079993746184591527 -0.38294345687029069 0 0.070037300645118622 -0.40865875828023368 0 0.079993746184591527 -0.38294345687029069 0 0.065519024092007355 -0.39259606270605563 0 0.070037300645118622 -0.40865875828023368 0 0.065519024092007355 -0.39259606270605563 0 0.059908671592143747 -0.40293636420507078 0 0.079993746184591527 -0.38294345687029069 0 0.062434002711576349 -0.38014586640644232 0 0.069715089943093764 -0.37182189594123838 0 0.079993746184591527 -0.38294345687029069 0 0.065519024092007355 -0.39259606270605563 0 0.062434002711576349 -0.38014586640644232 0 0.052678973488588132 -0.38199781846896552 0 0.044891726425512257 -0.38882037816110993 0 0.044956523250164651 -0.37815846292154948 0 0.052678973488588132 -0.38199781846896552 0 0.05567106163330466 -0.39103871151026492 0 0.044891726425512257 -0.38882037816110993 0 0.052678973488588132 -0.38199781846896552 0 0.044956523250164651 -0.37815846292154948 0 0.052949778305331971 -0.37296294300991928 0 0.052678973488588132 -0.38199781846896552 0 0.062434002711576349 -0.38014586640644232 0 0.052949778305331971 -0.37296294300991928 0 0.052678973488588132 -0.38199781846896552 0 0.062434002711576349 -0.38014586640644232 0 0.05567106163330466 -0.39103871151026492 0 0.065519024092007355 -0.39259606270605563 0 0.062434002711576349 -0.38014586640644232 0 0.05567106163330466 -0.39103871151026492 0 0.065519024092007355 -0.39259606270605563 0 0.05567106163330466 -0.39103871151026492 0 0.059908671592143747 -0.40293636420507078 0 0.05567106163330466 -0.39103871151026492 0 0.059908671592143747 -0.40293636420507078 0 0.050984392333055302 -0.40079176229491148 0 0.059908671592143747 -0.40293636420507078 0 0.050984392333055302 -0.40079176229491148 0 0.047865129367979042 -0.40970877444468629 0 0.05567106163330466 -0.39103871151026492 0 0.050984392333055302 -0.40079176229491148 0 0.044891726425512257 -0.38882037816110993 0 0.050984392333055302 -0.40079176229491148 0 0.040189692026126989 -0.40047835958632821 0 0.044891726425512257 -0.38882037816110993 0 0.050984392333055302 -0.40079176229491148 0 0.040189692026126989 -0.40047835958632821 0 0.047865129367979042 -0.40970877444468629 0 0.040189692026126989 -0.40047835958632821 0 0.027349383229546099 -0.40357456246621848 0 0.035550724457074939 -0.41176820675836873 0 0.040189692026126989 -0.40047835958632821 0 0.031743248061102472 -0.39080119150007581 0 0.044891726425512257 -0.38882037816110993 0 0.040189692026126989 -0.40047835958632821 0 0.031743248061102472 -0.39080119150007581 0 0.027349383229546099 -0.40357456246621848 0 0.031743248061102472 -0.39080119150007581 0 0.037554337852528603 -0.38196104410623521 0 0.031036825250665249 -0.37998929638777718 0 0.031743248061102472 -0.39080119150007581 0 0.044891726425512257 -0.38882037816110993 0 0.037554337852528603 -0.38196104410623521 0 0.044891726425512257 -0.38882037816110993 0 0.044956523250164651 -0.37815846292154948 0 0.037554337852528603 -0.38196104410623521 0 0.044956523250164651 -0.37815846292154948 0 0.037209988177515939 -0.37524999236774259 0 0.037554337852528603 -0.38196104410623521 0 0.037209988177515939 -0.37524999236774259 0 0.031036825250665249 -0.37998929638777718 0 0.028633206762856481 -0.37037155026774993 0 0.037209988177515939 -0.37524999236774259 0 0.037554337852528603 -0.38196104410623521 0 0.031036825250665249 -0.37998929638777718 0 0.031036825250665249 -0.37998929638777718 0 0.02017687255832426 -0.38415489922946983 0 0.028633206762856481 -0.37037155026774993 0 0.02017687255832426 -0.38415489922946983 0 0.004140655835305887 -0.38623577644633023 0 0.028633206762856481 -0.37037155026774993 0 0.004140655835305887 -0.38623577644633023 0 0.028633206762856481 -0.37037155026774993 0 0.031743248061102472 -0.39080119150007581 0 0.02017687255832426 -0.38415489922946983 0 0.01935904959257731 -0.39537382521732473 0 0.031743248061102472 -0.39080119150007581 0 0.031036825250665249 -0.37998929638777718 0 0.02017687255832426 -0.38415489922946983 0 0.02017687255832426 -0.38415489922946983 0 0.0128895052486829 -0.3905619822293866 0 0.01935904959257731 -0.39537382521732473 0 -0.0082329305185383367 -0.39318065125541718 0 0.004140655835305887 -0.38623577644633023 0 0.004491385456308495 -0.3701968475242281 0 0.02017687255832426 -0.38415489922946983 0 0.0128895052486829 -0.3905619822293866 0 0.004140655835305887 -0.38623577644633023 0 -0.0082329305185383367 -0.39318065125541718 0 0.004140655835305887 -0.38623577644633023 0 0.0078814430085241416 -0.39648342802442182 0 0.0128895052486829 -0.3905619822293866 0 0.004140655835305887 -0.38623577644633023 0 0.0078814430085241416 -0.39648342802442182 0 0.0128895052486829 -0.3905619822293866 0 0.0078814430085241416 -0.39648342802442182 0 0.01935904959257731 -0.39537382521732473 0 0.0078814430085241416 -0.39648342802442182 0 0.01935904959257731 -0.39537382521732473 0 0.01533136634525582 -0.40643637822028328 0 0.01935904959257731 -0.39537382521732473 0 0.027349383229546099 -0.40357456246621848 0 0.01533136634525582 -0.40643637822028328 0 0.031743248061102472 -0.39080119150007581 0 0.01935904959257731 -0.39537382521732473 0 0.027349383229546099 -0.40357456246621848 0 0.027349383229546099 -0.40357456246621848 0 0.021922218895139109 -0.41658941351493051 0 0.035550724457074939 -0.41176820675836873 0 0.027349383229546099 -0.40357456246621848 0 0.021922218895139109 -0.41658941351493051 0 0.01533136634525582 -0.40643637822028328 0 -0.003501012975338088 -0.40606038485500778 0 -9.0866128732218672e-05 -0.41964567598439279 0 0.0078814430085241416 -0.39648342802442182 0 -9.0866128732218672e-05 -0.41964567598439279 0 0.021922218895139109 -0.41658941351493051 0 0.01533136634525582 -0.40643637822028328 0 -9.0866128732218672e-05 -0.41964567598439279 0 0.0078814430085241416 -0.39648342802442182 0 -9.0866128732218672e-05 -0.41964567598439279 0 0.0078814430085241416 -0.39648342802442182 0 0.01533136634525582 -0.40643637822028328 0 -9.0866128732218672e-05 -0.41964567598439279 0 0.021922218895139109 -0.41658941351493051 0 0.01475141534462834 -0.43450640563962301 0 -9.0866128732218672e-05 -0.41964567598439279 0 -0.0080631752659889987 -0.44280792394436369 0 0.01475141534462834 -0.43450640563962301 0 0.01475141534462834 -0.43450640563962301 0 0.037566005955245931 -0.42620488733488288 0 0.029493618260312781 -0.44971442356173041 0 0.01475141534462834 -0.43450640563962301 0 0.037566005955245931 -0.42620488733488288 0 0.021922218895139109 -0.41658941351493051 0 0.01475141534462834 -0.43450640563962301 0 0.037566005955245931 -0.42620488733488288 0 0.037566005955245931 -0.42620488733488288 0 0.035550724457074939 -0.41176820675836873 0 0.047865129367979042 -0.40970877444468629 0 0.021922218895139109 -0.41658941351493051 0 0.037566005955245931 -0.42620488733488288 0 0.035550724457074939 -0.41176820675836873 0 0.040189692026126989 -0.40047835958632821 0 0.035550724457074939 -0.41176820675836873 0 0.047865129367979042 -0.40970877444468629 0 0.037566005955245931 -0.42620488733488288 0 0.047865129367979042 -0.40970877444468629 0 0.060380596565863573 -0.4179033690301428 0 0.059908671592143747 -0.40293636420507078 0 0.047865129367979042 -0.40970877444468629 0 0.060380596565863573 -0.4179033690301428 0 0.037566005955245931 -0.42620488733488288 0 0.060380596565863573 -0.4179033690301428 0 0.037566005955245931 -0.42620488733488288 0 0.060380596565863573 -0.4179033690301428 0 0.060080855105645717 -0.43437405969017667 0 0.037566005955245931 -0.42620488733488288 0 0.060080855105645717 -0.43437405969017667 0 0.044316222221844309 -0.44259568292172741 0 0.070398190252241269 -0.44533343665651959 0 0.060080855105645717 -0.43437405969017667 0 0.050124409566172819 -0.46008936110011972 0 0.060080855105645717 -0.43437405969017667 0 0.050124409566172819 -0.46008936110011972 0 0.044316222221844309 -0.44259568292172741 0 0.060080855105645717 -0.43437405969017667 0 0.050124409566172819 -0.46008936110011972 0 0.050124409566172819 -0.46008936110011972 0 0.029493618260312781 -0.44971442356173041 0 0.031628537833949193 -0.4689921925986042 0 0.050124409566172819 -0.46008936110011972 0 0.044316222221844309 -0.44259568292172741 0 0.029493618260312781 -0.44971442356173041 0 0.037566005955245931 -0.42620488733488288 0 0.044316222221844309 -0.44259568292172741 0 0.029493618260312781 -0.44971442356173041 0 0.01475141534462834 -0.43450640563962301 0 0.029493618260312781 -0.44971442356173041 0 0.01059683796866037 -0.45087464289258777 0 -0.0080631752659889987 -0.44280792394436369 0 0.01475141534462834 -0.43450640563962301 0 0.01059683796866037 -0.45087464289258777 0 -0.0080631752659889987 -0.44280792394436369 0 0.01059683796866037 -0.45087464289258777 0 0.00035831223976342429 -0.46213143315566829 0 -0.0080631752659889987 -0.44280792394436369 0 0.01475141534462834 -0.43450640563962301 0 0.01059683796866037 -0.45087464289258777 0 0.00035831223976342429 -0.46213143315566829 0 0.015656029534706611 -0.46591930215635952 0 0.029493618260312781 -0.44971442356173041 0 0.01059683796866037 -0.45087464289258777 0 0.015656029534706611 -0.46591930215635952 0 0.029493618260312781 -0.44971442356173041 0 0.015656029534706611 -0.46591930215635952 0 0.031628537833949193 -0.4689921925986042 0 0.015656029534706611 -0.46591930215635952 0 0.021458296887695669 -0.4812654430842217 0 0.031628537833949193 -0.4689921925986042 0 0.021458296887695669 -0.4812654430842217 0 0.04016796402669992 -0.4858046625100626 0 0.031628537833949193 -0.4689921925986042 0 0.00035831223976342429 -0.46213143315566829 0 0.015656029534706611 -0.46591930215635952 0 0.00067615073669454514 -0.48127551699502819 0 0.015656029534706611 -0.46591930215635952 0 0.021458296887695669 -0.4812654430842217 0 0.00067615073669454514 -0.48127551699502819 0 0.021458296887695669 -0.4812654430842217 0 0.00067615073669454514 -0.48127551699502819 0 0.016678060518111829 -0.5 0 -0.010740055448653699 -0.5 0 0.00067615073669454514 -0.48127551699502819 0 0.016678060518111829 -0.5 0 0.021458296887695669 -0.4812654430842217 0 0.016678060518111829 -0.5 0 0.04016796402669992 -0.4858046625100626 0 0.016678060518111829 -0.5 0 0.044096176484877403 -0.5 0 0.04016796402669992 -0.4858046625100626 0 0.044096176484877403 -0.5 0 0.04016796402669992 -0.4858046625100626 0 0.053161302627231788 -0.48985026095121897 0 0.050124409566172819 -0.46008936110011972 0 0.04016796402669992 -0.4858046625100626 0 0.050124409566172819 -0.46008936110011972 0 0.04016796402669992 -0.4858046625100626 0 0.031628537833949193 -0.4689921925986042 0 0.050124409566172819 -0.46008936110011972 0 0.04016796402669992 -0.4858046625100626 0 0.061934407888797192 -0.47944707207450271 0 0.04016796402669992 -0.4858046625100626 0 0.061934407888797192 -0.47944707207450271 0 0.053161302627231788 -0.48985026095121897 0 0.07151429245164298 -0.5 0 0.044096176484877403 -0.5 0 0.053161302627231788 -0.48985026095121897 0 0.07151429245164298 -0.5 0 0.061934407888797192 -0.47944707207450271 0 0.053161302627231788 -0.48985026095121897 0 0.089817385419012033 -0.29554986778546682 0 0.075628890294986442 -0.30157525263855528 0 0.073349467672947255 -0.28426293935955799 0 0.090376479684066341 -0.28558804420707801 0 0.089817385419012033 -0.29554986778546682 0 0.073349467672947255 -0.28426293935955799 0 0.090376479684066341 -0.28558804420707801 0 0.089817385419012033 -0.29554986778546682 0 0.090376479684066341 -0.28558804420707801 0 0.092231020262095467 -0.2945248768546237 0 0.090376479684066341 -0.28558804420707801 0 0.089817385419012033 -0.29554986778546682 0 0.092231020262095467 -0.2945248768546237 0 0.089817385419012033 -0.29554986778546682 0 0.092231020262095467 -0.2945248768546237 0 0.089817385419012033 -0.29554986778546682 0 0.088486940195069017 -0.31925545990124532 0 0.089817385419012033 -0.29554986778546682 0 0.092231020262095467 -0.2945248768546237 0 0.094538330248116142 -0.30564355684224942 0 0.089817385419012033 -0.29554986778546682 0 0.094538330248116142 -0.30564355684224942 0 0.088486940195069017 -0.31925545990124532 0 0.092231020262095467 -0.2945248768546237 0 0.094538330248116142 -0.30564355684224942 0 0.075628890294986442 -0.30157525263855528 0 0.088486940195069017 -0.31925545990124532 0 0.074259500140015824 -0.31599005950662112 0 0.089817385419012033 -0.29554986778546682 0 0.075628890294986442 -0.30157525263855528 0 0.088486940195069017 -0.31925545990124532 0 0.094538330248116142 -0.30564355684224942 0 0.088486940195069017 -0.31925545990124532 0 0.089817385419012033 -0.29554986778546682 0 0.075628890294986442 -0.30157525263855528 0 0.075628890294986442 -0.30157525263855528 0 0.073349467672947255 -0.28426293935955799 0 0.061440395170966111 -0.30760063749165589 0 0.075628890294986442 -0.30157525263855528 0 0.074259500140015824 -0.31599005950662112 0 0.061440395170966111 -0.30760063749165589 0 0.075628890294986442 -0.30157525263855528 0 0.061440395170966111 -0.30760063749165589 0 0.073349467672947255 -0.28426293935955799 0 0.054413464963880082 -0.28136390881681578 0 0.061440395170966111 -0.30760063749165589 0 0.073349467672947255 -0.28426293935955799 0 0.061440395170966111 -0.30760063749165589 0 0.073349467672947255 -0.28426293935955799 0 0.070807635688589929 -0.26797872466658063 0 0.054413464963880082 -0.28136390881681578 0 0.073349467672947255 -0.28426293935955799 0 0.070807635688589929 -0.26797872466658063 0 0.085258540174915035 -0.26092524122745331 0 0.05731577029569726 -0.26134764366520169 0 0.058330191768976081 -0.24860232186296641 0 0.078540914703067094 -0.24692156141729901 0 0.070807635688589929 -0.26797872466658063 0 0.05731577029569726 -0.26134764366520169 0 0.078540914703067094 -0.24692156141729901 0 0.05731577029569726 -0.26134764366520169 0 0.078540914703067094 -0.24692156141729901 0 0.070807635688589929 -0.26797872466658063 0 0.085258540174915035 -0.26092524122745331 0 0.078540914703067094 -0.24692156141729901 0 0.085258540174915035 -0.26092524122745331 0 0.082715310234125872 -0.2486696882164342 0 0.085258540174915035 -0.26092524122745331 0 0.082715310234125872 -0.2486696882164342 0 0.078540914703067094 -0.24692156141729901 0 0.085258540174915035 -0.26092524122745331 0 0.092512299642676557 -0.2467103601984254 0 0.085258540174915035 -0.26092524122745331 0 0.082715310234125872 -0.2486696882164342 0 0.092512299642676557 -0.2467103601984254 0 0.085258540174915035 -0.26092524122745331 0 0.091988891077532914 -0.25685843841160888 0 0.092512299642676557 -0.2467103601984254 0 0.073349467672947255 -0.28426293935955799 0 0.085258540174915035 -0.26092524122745331 0 0.090376479684066341 -0.28558804420707801 0 0.073349467672947255 -0.28426293935955799 0 0.085258540174915035 -0.26092524122745331 0 0.090376479684066341 -0.28558804420707801 0 0.085258540174915035 -0.26092524122745331 0 0.090376479684066341 -0.28558804420707801 0 0.091988891077532914 -0.25685843841160888 0 0.090376479684066341 -0.28558804420707801 0 0.091988891077532914 -0.25685843841160888 0 0.097040177279546072 -0.27717174996380789 0 0.090376479684066341 -0.28558804420707801 0 0.085258540174915035 -0.26092524122745331 0 0.091988891077532914 -0.25685843841160888 0 0.097040177279546072 -0.27717174996380789 0 0.1100616640161677 -0.27072561029593689 0 0.1008661499060414 -0.29085782274449662 0 0.1100616640161677 -0.27072561029593689 0 0.1008661499060414 -0.29085782274449662 0 0.091988891077532914 -0.25685843841160888 0 0.097040177279546072 -0.27717174996380789 0 0.1012923260813369 -0.26496469133742978 0 0.097040177279546072 -0.27717174996380789 0 0.1012923260813369 -0.26496469133742978 0 0.1100616640161677 -0.27072561029593689 0 0.091988891077532914 -0.25685843841160888 0 0.098619260441350165 -0.25137374290502063 0 0.092512299642676557 -0.2467103601984254 0 0.091988891077532914 -0.25685843841160888 0 0.098619260441350165 -0.25137374290502063 0 0.1006059268970087 -0.25762411715389821 0 0.098619260441350165 -0.25137374290502063 0 0.1006059268970087 -0.25762411715389821 0 0.1054350680331206 -0.25220871673219458 0 0.091988891077532914 -0.25685843841160888 0 0.1006059268970087 -0.25762411715389821 0 0.1012923260813369 -0.26496469133742978 0 0.1012923260813369 -0.26496469133742978 0 0.1072699263281599 -0.25924900169994952 0 0.1100616640161677 -0.27072561029593689 0 0.1006059268970087 -0.25762411715389821 0 0.1012923260813369 -0.26496469133742978 0 0.1072699263281599 -0.25924900169994952 0 0.1006059268970087 -0.25762411715389821 0 0.1072699263281599 -0.25924900169994952 0 0.1054350680331206 -0.25220871673219458 0 0.12620251533772109 -0.26359640456691308 0 0.11895464661316579 -0.25072187298028797 0 0.1100616640161677 -0.27072561029593689 0 0.1072699263281599 -0.25924900169994952 0 0.11895464661316579 -0.25072187298028797 0 0.1100616640161677 -0.27072561029593689 0 0.11895464661316579 -0.25072187298028797 0 0.1100616640161677 -0.27072561029593689 0 0.1072699263281599 -0.25924900169994952 0 0.1054350680331206 -0.25220871673219458 0 0.11895464661316579 -0.25072187298028797 0 0.12620251533772109 -0.26359640456691308 0 0.1100616640161677 -0.27072561029593689 0 0.11855606389626069 -0.28334550104458922 0 0.12620251533772109 -0.26359640456691308 0 0.11855606389626069 -0.28334550104458922 0 0.1251151673466723 -0.30118436876075477 0 0.12973139329597921 -0.28939044096510202 0 0.11855606389626069 -0.28334550104458922 0 0.1100616640161677 -0.27072561029593689 0 0.11855606389626069 -0.28334550104458922 0 0.1008661499060414 -0.29085782274449662 0 0.11855606389626069 -0.28334550104458922 0 0.1008661499060414 -0.29085782274449662 0 0.11280991116508279 -0.29818654535541861 0 0.11855606389626069 -0.28334550104458922 0 0.1008661499060414 -0.29085782274449662 0 0.1251151673466723 -0.30118436876075477 0 0.11855606389626069 -0.28334550104458922 0 0.11280991116508279 -0.29818654535541861 0 0.11855606389626069 -0.28334550104458922 0 0.11280991116508279 -0.29818654535541861 0 0.092231020262095467 -0.2945248768546237 0 0.1008661499060414 -0.29085782274449662 0 0.090376479684066341 -0.28558804420707801 0 0.092231020262095467 -0.2945248768546237 0 0.1008661499060414 -0.29085782274449662 0 0.090376479684066341 -0.28558804420707801 0 0.097040177279546072 -0.27717174996380789 0 0.1008661499060414 -0.29085782274449662 0 0.097040177279546072 -0.27717174996380789 0 0.1008661499060414 -0.29085782274449662 0 0.1008661499060414 -0.29085782274449662 0 0.11280991116508279 -0.29818654535541861 0 0.10706375843390881 -0.31302758966624927 0 0.1008661499060414 -0.29085782274449662 0 0.10706375843390881 -0.31302758966624927 0 0.1008661499060414 -0.29085782274449662 0 0.094538330248116142 -0.30564355684224942 0 0.10706375843390881 -0.31302758966624927 0 0.1008661499060414 -0.29085782274449662 0 0.094538330248116142 -0.30564355684224942 0 0.092231020262095467 -0.2945248768546237 0 0.1008661499060414 -0.29085782274449662 0 0.094538330248116142 -0.30564355684224942 0 0.11280991116508279 -0.29818654535541861 0 0.10706375843390881 -0.31302758966624927 0 0.1251151673466723 -0.30118436876075477 0 0.11280991116508279 -0.29818654535541861 0 0.11924028588535671 -0.3182765773557118 0 0.11280991116508279 -0.29818654535541861 0 0.11924028588535671 -0.3182765773557118 0 0.10706375843390881 -0.31302758966624927 0 0.11924028588535671 -0.3182765773557118 0 0.1135601048140724 -0.33626598629032822 0 0.10706375843390881 -0.31302758966624927 0 0.1135601048140724 -0.33626598629032822 0 0.10706375843390881 -0.31302758966624927 0 0.12719797179517581 -0.32888293995090162 0 0.11924028588535671 -0.3182765773557118 0 0.1135601048140724 -0.33626598629032822 0 0.13046536660749419 -0.34167241986210062 0 0.12719797179517581 -0.32888293995090162 0 0.1135601048140724 -0.33626598629032822 0 0.1135601048140724 -0.33626598629032822 0 0.099906637263539627 -0.33151285405040581 0 0.1032265857469704 -0.34751133062538031 0 0.099906637263539627 -0.33151285405040581 0 0.1032265857469704 -0.34751133062538031 0 0.1135601048140724 -0.33626598629032822 0 0.099906637263539627 -0.33151285405040581 0 0.10706375843390881 -0.31302758966624927 0 0.094538330248116142 -0.30564355684224942 0 0.099906637263539627 -0.33151285405040581 0 0.099906637263539627 -0.33151285405040581 0 0.10706375843390881 -0.31302758966624927 0 0.094538330248116142 -0.30564355684224942 0 0.099906637263539627 -0.33151285405040581 0 0.10706375843390881 -0.31302758966624927 0 0.094538330248116142 -0.30564355684224942 0 0.099906637263539627 -0.33151285405040581 0 0.088486940195069017 -0.31925545990124532 0 0.12655279757440099 -0.38274277953848551 0 0.1200564511942367 -0.35950438291440678 0 0.12655279757440099 -0.38274277953848551 0 0.1153530592497078 -0.37076033112409151 0 0.1200564511942367 -0.35950438291440678 0 0.108256453999795 -0.3772843548431184 0 0.1153530592497078 -0.37076033112409151 0 0.1065465342303983 -0.36350980720035542 0 0.1153530592497078 -0.37076033112409151 0 0.1200564511942367 -0.35950438291440678 0 0.1065465342303983 -0.36350980720035542 0 0.1135601048140724 -0.33626598629032822 0 0.1200564511942367 -0.35950438291440678 0 0.1135601048140724 -0.33626598629032822 0 0.1200564511942367 -0.35950438291440678 0 0.11084741899641951 -0.35169787675761771 0 0.13046536660749419 -0.34167241986210062 0 0.1135601048140724 -0.33626598629032822 0 0.1200564511942367 -0.35950438291440678 0 0.1200564511942367 -0.35950438291440678 0 0.11084741899641951 -0.35169787675761771 0 0.1065465342303983 -0.36350980720035542 0 0.099906637263539627 -0.33151285405040581 0 0.1032265857469704 -0.34751133062538031 0 0.089950191724064404 -0.35722815546034781 0 0.099906637263539627 -0.33151285405040581 0 0.089950191724064404 -0.35722815546034781 0 0.1032265857469704 -0.34751133062538031 0 0.099393457973085353 -0.35734360050058611 0 0.1065465342303983 -0.36350980720035542 0 0.1032265857469704 -0.34751133062538031 0 0.1065465342303983 -0.36350980720035542 0 0.11084741899641951 -0.35169787675761771 0 0.1032265857469704 -0.34751133062538031 0 0.1065465342303983 -0.36350980720035542 0 0.1135601048140724 -0.33626598629032822 0 0.11084741899641951 -0.35169787675761771 0 0.1032265857469704 -0.34751133062538031 0 0.1032265857469704 -0.34751133062538031 0 0.099393457973085353 -0.35734360050058611 0 0.089950191724064404 -0.35722815546034781 0 0.108256453999795 -0.3772843548431184 0 0.092540216937550573 -0.37642089608736079 0 0.098398236704816663 -0.366305565805987 0 0.099393457973085353 -0.35734360050058611 0 0.1065465342303983 -0.36350980720035542 0 0.098398236704816663 -0.366305565805987 0 0.099393457973085353 -0.35734360050058611 0 0.098398236704816663 -0.366305565805987 0 0.089950191724064404 -0.35722815546034781 0 0.108256453999795 -0.3772843548431184 0 0.1065465342303983 -0.36350980720035542 0 0.098398236704816663 -0.366305565805987 0 0.092540216937550573 -0.37642089608736079 0 0.079993746184591527 -0.38294345687029069 0 0.089950191724064404 -0.35722815546034781 0 0.092540216937550573 -0.37642089608736079 0 0.098398236704816663 -0.366305565805987 0 0.089950191724064404 -0.35722815546034781 0 0.079993746184591527 -0.38294345687029069 0 0.082195305262604573 -0.36250733033393351 0 0.089950191724064404 -0.35722815546034781 0 0.079993746184591527 -0.38294345687029069 0 0.089950191724064404 -0.35722815546034781 0 0.079993746184591527 -0.38294345687029069 0 0.082195305262604573 -0.36250733033393351 0 0.076806702024829282 -0.3687446695939301 0 0.082195305262604573 -0.36250733033393351 0 0.081633646537654037 -0.35611239827770452 0 0.073738674937817009 -0.36002416744766691 0 0.089950191724064404 -0.35722815546034781 0 0.086535315241223515 -0.35402910130056631 0 0.087511127718146411 -0.33664228060090567 0 0.086535315241223515 -0.35402910130056631 0 0.087511127718146411 -0.33664228060090567 0 0.086535315241223515 -0.35402910130056631 0 0.083836701332126562 -0.34515685169244598 0 0.087511127718146411 -0.33664228060090567 0 0.081633646537654037 -0.35611239827770452 0 0.081773416293022747 -0.35073364784569622 0 0.07774629175562503 -0.35212960647422031 0 0.081633646537654037 -0.35611239827770452 0 0.086535315241223515 -0.35402910130056631 0 0.081773416293022747 -0.35073364784569622 0 0.082195305262604573 -0.36250733033393351 0 0.085078614691386639 -0.35746924634313798 0 0.089950191724064404 -0.35722815546034781 0 0.082195305262604573 -0.36250733033393351 0 0.081633646537654037 -0.35611239827770452 0 0.085078614691386639 -0.35746924634313798 0 0.081633646537654037 -0.35611239827770452 0 0.085078614691386639 -0.35746924634313798 0 0.086535315241223515 -0.35402910130056631 0 0.085078614691386639 -0.35746924634313798 0 0.089950191724064404 -0.35722815546034781 0 0.086535315241223515 -0.35402910130056631 0 0.086535315241223515 -0.35402910130056631 0 0.083836701332126562 -0.34515685169244598 0 0.081773416293022747 -0.35073364784569622 0 0.081773416293022747 -0.35073364784569622 0 0.079115126598484575 -0.34624028148354402 0 0.07774629175562503 -0.35212960647422031 0 0.083836701332126562 -0.34515685169244598 0 0.079115126598484575 -0.34624028148354402 0 0.081665706955832362 -0.3405986748691614 0 0.083836701332126562 -0.34515685169244598 0 0.081773416293022747 -0.35073364784569622 0 0.079115126598484575 -0.34624028148354402 0 0.076695032085620549 -0.3392411192346112 0 0.053125757690406568 -0.35450732408916868 0 0.058012248125078561 -0.34606135572271413 0 0.071213938899831936 -0.35015081251460223 0 0.076695032085620549 -0.3392411192346112 0 0.053125757690406568 -0.35450732408916868 0 0.076695032085620549 -0.3392411192346112 0 0.053125757690406568 -0.35450732408916868 0 0.079115126598484575 -0.34624028148354402 0 0.071213938899831936 -0.35015081251460223 0 0.076695032085620549 -0.3392411192346112 0 0.079115126598484575 -0.34624028148354402 0 0.071213938899831936 -0.35015081251460223 0 0.07774629175562503 -0.35212960647422031 0 0.071213938899831936 -0.35015081251460223 0 0.062698919895186431 -0.35909907602553498 0 0.073738674937817009 -0.36002416744766691 0 0.081633646537654037 -0.35611239827770452 0 0.07774629175562503 -0.35212960647422031 0 0.073738674937817009 -0.36002416744766691 0 0.071213938899831936 -0.35015081251460223 0 0.07774629175562503 -0.35212960647422031 0 0.073738674937817009 -0.36002416744766691 0 0.082195305262604573 -0.36250733033393351 0 0.073738674937817009 -0.36002416744766691 0 0.076806702024829282 -0.3687446695939301 0 0.073738674937817009 -0.36002416744766691 0 0.069715089943093764 -0.37182189594123838 0 0.076806702024829282 -0.3687446695939301 0 0.062698919895186431 -0.35909907602553498 0 0.073738674937817009 -0.36002416744766691 0 0.061580381062066827 -0.36794010377183772 0 0.073738674937817009 -0.36002416744766691 0 0.069715089943093764 -0.37182189594123838 0 0.061580381062066827 -0.36794010377183772 0 0.062434002711576349 -0.38014586640644232 0 0.069715089943093764 -0.37182189594123838 0 0.061580381062066827 -0.36794010377183772 0 0.079993746184591527 -0.38294345687029069 0 0.069715089943093764 -0.37182189594123838 0 0.076806702024829282 -0.3687446695939301 0 0.088486940195069017 -0.31925545990124532 0 0.0811705470447837 -0.33571284133430002 0 0.078117128722877016 -0.32607591777069023 0 0.088486940195069017 -0.31925545990124532 0 0.0811705470447837 -0.33571284133430002 0 0.088486940195069017 -0.31925545990124532 0 0.087511127718146411 -0.33664228060090567 0 0.088486940195069017 -0.31925545990124532 0 0.078117128722877016 -0.32607591777069023 0 0.074259500140015824 -0.31599005950662112 0 0.088486940195069017 -0.31925545990124532 0 0.087511127718146411 -0.33664228060090567 0 0.0811705470447837 -0.33571284133430002 0 0.099906637263539627 -0.33151285405040581 0 0.088486940195069017 -0.31925545990124532 0 0.087511127718146411 -0.33664228060090567 0 0.099906637263539627 -0.33151285405040581 0 0.089950191724064404 -0.35722815546034781 0 0.087511127718146411 -0.33664228060090567 0 0.083836701332126562 -0.34515685169244598 0 0.087511127718146411 -0.33664228060090567 0 0.081665706955832362 -0.3405986748691614 0 0.087511127718146411 -0.33664228060090567 0 0.081665706955832362 -0.3405986748691614 0 0.0811705470447837 -0.33571284133430002 0 0.081665706955832362 -0.3405986748691614 0 0.0811705470447837 -0.33571284133430002 0 0.076695032085620549 -0.3392411192346112 0 0.079115126598484575 -0.34624028148354402 0 0.081665706955832362 -0.3405986748691614 0 0.076695032085620549 -0.3392411192346112 0 0.0811705470447837 -0.33571284133430002 0 0.075338301650444778 -0.33291747990280779 0 0.078117128722877016 -0.32607591777069023 0 0.075338301650444778 -0.33291747990280779 0 0.068360792600833428 -0.336049886115035 0 0.071330354584071498 -0.32650374820847711 0 0.076695032085620549 -0.3392411192346112 0 0.068360792600833428 -0.336049886115035 0 0.058012248125078561 -0.34606135572271413 0 0.075338301650444778 -0.33291747990280779 0 0.071330354584071498 -0.32650374820847711 0 0.078117128722877016 -0.32607591777069023 0 0.075338301650444778 -0.33291747990280779 0 0.076695032085620549 -0.3392411192346112 0 0.068360792600833428 -0.336049886115035 0 0.0811705470447837 -0.33571284133430002 0 0.075338301650444778 -0.33291747990280779 0 0.076695032085620549 -0.3392411192346112 0 0.068360792600833428 -0.336049886115035 0 0.061634974387052253 -0.33588104391870782 0 0.058012248125078561 -0.34606135572271413 0 0.068360792600833428 -0.336049886115035 0 0.062846290169987065 -0.32906295445309569 0 0.071330354584071498 -0.32650374820847711 0 0.068360792600833428 -0.336049886115035 0 0.062846290169987065 -0.32906295445309569 0 0.061634974387052253 -0.33588104391870782 0 0.062846290169987065 -0.32906295445309569 0 0.071330354584071498 -0.32650374820847711 0 0.064793190496030315 -0.31849887584590358 0 0.071330354584071498 -0.32650374820847711 0 0.074259500140015824 -0.31599005950662112 0 0.064793190496030315 -0.31849887584590358 0 0.071330354584071498 -0.32650374820847711 0 0.078117128722877016 -0.32607591777069023 0 0.074259500140015824 -0.31599005950662112 0 0.074259500140015824 -0.31599005950662112 0 0.064793190496030315 -0.31849887584590358 0 0.061440395170966111 -0.30760063749165589 0 0.062846290169987065 -0.32906295445309569 0 0.064793190496030315 -0.31849887584590358 0 0.048793293945138143 -0.3323846188307743 0 0.064793190496030315 -0.31849887584590358 0 0.048793293945138143 -0.3323846188307743 0 0.061440395170966111 -0.30760063749165589 0 0.048793293945138143 -0.3323846188307743 0 0.061440395170966111 -0.30760063749165589 0 0.048793293945138143 -0.3323846188307743 0 0.042361070047925643 -0.31570299617018133 0 0.061440395170966111 -0.30760063749165589 0 0.061634974387052253 -0.33588104391870782 0 0.053923864203400583 -0.33887173872382398 0 0.048793293945138143 -0.3323846188307743 0 0.062846290169987065 -0.32906295445309569 0 0.061634974387052253 -0.33588104391870782 0 0.048793293945138143 -0.3323846188307743 0 0.061634974387052253 -0.33588104391870782 0 0.048793293945138143 -0.3323846188307743 0 0.061634974387052253 -0.33588104391870782 0 0.053923864203400583 -0.33887173872382398 0 0.058012248125078561 -0.34606135572271413 0 0.053923864203400583 -0.33887173872382398 0 0.048793293945138143 -0.3323846188307743 0 0.041577449700426899 -0.34652519902485951 0 0.048793293945138143 -0.3323846188307743 0 0.026402605230432311 -0.3262882698278331 0 0.048793293945138143 -0.3323846188307743 0 0.034537757043934858 -0.33610732197446103 0 0.026402605230432311 -0.3262882698278331 0 0.048793293945138143 -0.3323846188307743 0 0.041577449700426899 -0.34652519902485951 0 0.048793293945138143 -0.3323846188307743 0 0.034537757043934858 -0.33610732197446103 0 0.041577449700426899 -0.34652519902485951 0 0.042361070047925643 -0.31570299617018133 0 0.023281744924889939 -0.32380535484871747 0 0.048793293945138143 -0.3323846188307743 0 0.042361070047925643 -0.31570299617018133 0 0.026402605230432311 -0.3262882698278331 0 0.052949778305331971 -0.37296294300991928 0 0.054747827295310622 -0.36443762417566189 0 0.044454335251511039 -0.36795860141532449 0 0.044956523250164651 -0.37815846292154948 0 0.052949778305331971 -0.37296294300991928 0 0.044454335251511039 -0.36795860141532449 0 0.062434002711576349 -0.38014586640644232 0 0.052949778305331971 -0.37296294300991928 0 0.061580381062066827 -0.36794010377183772 0 0.052949778305331971 -0.37296294300991928 0 0.061580381062066827 -0.36794010377183772 0 0.054747827295310622 -0.36443762417566189 0 0.062698919895186431 -0.35909907602553498 0 0.061580381062066827 -0.36794010377183772 0 0.054747827295310622 -0.36443762417566189 0 0.054747827295310622 -0.36443762417566189 0 0.053125757690406568 -0.35450732408916868 0 0.044454335251511039 -0.36795860141532449 0 0.058012248125078561 -0.34606135572271413 0 0.041577449700426899 -0.34652519902485951 0 0.071213938899831936 -0.35015081251460223 0 0.053125757690406568 -0.35450732408916868 0 0.053125757690406568 -0.35450732408916868 0 0.058012248125078561 -0.34606135572271413 0 0.041577449700426899 -0.34652519902485951 0 0.071213938899831936 -0.35015081251460223 0 0.062698919895186431 -0.35909907602553498 0 0.053125757690406568 -0.35450732408916868 0 0.053923864203400583 -0.33887173872382398 0 0.058012248125078561 -0.34606135572271413 0 0.041577449700426899 -0.34652519902485951 0 0.062698919895186431 -0.35909907602553498 0 0.054747827295310622 -0.36443762417566189 0 0.053125757690406568 -0.35450732408916868 0 0.053125757690406568 -0.35450732408916868 0 0.037760734050118289 -0.3540046528352529 0 0.0300785032056755 -0.36005822109546098 0 0.053125757690406568 -0.35450732408916868 0 0.0300785032056755 -0.36005822109546098 0 0.041577449700426899 -0.34652519902485951 0 0.037760734050118289 -0.3540046528352529 0 0.041577449700426899 -0.34652519902485951 0 0.037760734050118289 -0.3540046528352529 0 0.03013709728852098 -0.353024992375917 0 0.037760734050118289 -0.3540046528352529 0 0.0300785032056755 -0.36005822109546098 0 0.03013709728852098 -0.353024992375917 0 0.053125757690406568 -0.35450732408916868 0 0.041577449700426899 -0.34652519902485951 0 0.037760734050118289 -0.3540046528352529 0 0.053125757690406568 -0.35450732408916868 0 0.044454335251511039 -0.36795860141532449 0 0.028633206762856481 -0.37037155026774993 0 0.037209988177515939 -0.37524999236774259 0 0.044454335251511039 -0.36795860141532449 0 0.028633206762856481 -0.37037155026774993 0 0.053125757690406568 -0.35450732408916868 0 0.028633206762856481 -0.37037155026774993 0 0.053125757690406568 -0.35450732408916868 0 0.028633206762856481 -0.37037155026774993 0 0.0300785032056755 -0.36005822109546098 0 0.044956523250164651 -0.37815846292154948 0 0.037209988177515939 -0.37524999236774259 0 0.044454335251511039 -0.36795860141532449 0 0.0300785032056755 -0.36005822109546098 0 0.024052942134232449 -0.35732412676949538 0 0.0070312487209461139 -0.36560911810176072 0 0.0300785032056755 -0.36005822109546098 0 0.0070312487209461139 -0.36560911810176072 0 0.028633206762856481 -0.37037155026774993 0 0.0300785032056755 -0.36005822109546098 0 0.0085125744170690618 -0.36812678487812772 0 0.041577449700426899 -0.34652519902485951 0 0.03013709728852098 -0.353024992375917 0 0.01721585735215397 -0.34721276215451918 0 0.041577449700426899 -0.34652519902485951 0 0.01721585735215397 -0.34721276215451918 0 0.024052942134232449 -0.35732412676949538 0 0.01040599386537659 -0.3595133499523766 0 0.024052942134232449 -0.35732412676949538 0 0.01721585735215397 -0.34721276215451918 0 0.01040599386537659 -0.3595133499523766 0 0.024052942134232449 -0.35732412676949538 0 0.03013709728852098 -0.353024992375917 0 0.01721585735215397 -0.34721276215451918 0 0.0300785032056755 -0.36005822109546098 0 0.024052942134232449 -0.35732412676949538 0 0.03013709728852098 -0.353024992375917 0 -0.0040619637084774382 -0.34781329125918142 0 0.01721585735215397 -0.34721276215451918 0 0.01040599386537659 -0.3595133499523766 0 -0.0040619637084774382 -0.34781329125918142 0 0.01721585735215397 -0.34721276215451918 0 0.01721585735215397 -0.34721276215451918 0 0.01040599386537659 -0.3595133499523766 0 0.0300785032056755 -0.36005822109546098 0 0.0070312487209461139 -0.36560911810176072 0 0.0085125744170690618 -0.36812678487812772 0 0.024052942134232449 -0.35732412676949538 0 0.01040599386537659 -0.3595133499523766 0 0.0070312487209461139 -0.36560911810176072 0 -0.0092315767869633469 -0.36266357988516268 0 0.01040599386537659 -0.3595133499523766 0 0.004140655835305887 -0.38623577644633023 0 0.028633206762856481 -0.37037155026774993 0 0.0085125744170690618 -0.36812678487812772 0 0.004140655835305887 -0.38623577644633023 0 0.004491385456308495 -0.3701968475242281 0 0.0085125744170690618 -0.36812678487812772 0 -0.0092315767869633469 -0.36266357988516268 0 0.01040599386537659 -0.3595133499523766 0 0.0070312487209461139 -0.36560911810176072 0 0.01040599386537659 -0.3595133499523766 0 0.0070312487209461139 -0.36560911810176072 0 -0.005499767600076394 -0.36862719476803352 0 0.0070312487209461139 -0.36560911810176072 0 0.004491385456308495 -0.3701968475242281 0 0.0085125744170690618 -0.36812678487812772 0 0.0070312487209461139 -0.36560911810176072 0 0.004491385456308495 -0.3701968475242281 0 0.0085125744170690618 -0.36812678487812772 0 -0.005499767600076394 -0.36862719476803352 0 0.0070312487209461139 -0.36560911810176072 0 0.004491385456308495 -0.3701968475242281 0 0.0070312487209461139 -0.36560911810176072 0 0.004491385456308495 -0.3701968475242281 0 0.023281744924889939 -0.32380535484871747 0 0.026402605230432311 -0.3262882698278331 0 0.0040119165157269498 -0.32019192082489051 0 0.042361070047925643 -0.31570299617018133 0 0.023281744924889939 -0.32380535484871747 0 0.027487029514234079 -0.31401286545298618 0 0.042361070047925643 -0.31570299617018133 0 0.023281744924889939 -0.32380535484871747 0 0.026402605230432311 -0.3262882698278331 0 0.023281744924889939 -0.32380535484871747 0 0.021488966451138351 -0.31751140086506968 0 0.01481532855087715 -0.31733892995868168 0 0.01766801459935146 -0.31282753850777278 0 0.021488966451138351 -0.31751140086506968 0 0.027487029514234079 -0.31401286545298618 0 0.01766801459935146 -0.31282753850777278 0 0.021488966451138351 -0.31751140086506968 0 0.01481532855087715 -0.31733892995868168 0 0.023281744924889939 -0.32380535484871747 0 0.021488966451138351 -0.31751140086506968 0 0.027487029514234079 -0.31401286545298618 0 0.034537757043934858 -0.33610732197446103 0 0.041577449700426899 -0.34652519902485951 0 0.01721585735215397 -0.34721276215451918 0 0.034537757043934858 -0.33610732197446103 0 0.01721585735215397 -0.34721276215451918 0 0.025865693418340292 -0.33158865042660918 0 0.034537757043934858 -0.33610732197446103 0 0.026402605230432311 -0.3262882698278331 0 0.025865693418340292 -0.33158865042660918 0 0.01721585735215397 -0.34721276215451918 0 0.025865693418340292 -0.33158865042660918 0 0.01095063940592505 -0.33353778481797508 0 0.01721585735215397 -0.34721276215451918 0 0.025865693418340292 -0.33158865042660918 0 0.026402605230432311 -0.3262882698278331 0 0.025865693418340292 -0.33158865042660918 0 0.01095063940592505 -0.33353778481797508 0 -0.0040619637084774382 -0.34781329125918142 0 0.01721585735215397 -0.34721276215451918 0 0.01095063940592505 -0.33353778481797508 0 -0.0060755731424686037 -0.33147489451578949 0 -0.0040619637084774382 -0.34781329125918142 0 0.01095063940592505 -0.33353778481797508 0 -0.0060755731424686037 -0.33147489451578949 0 0.01095063940592505 -0.33353778481797508 0 0.0040119165157269498 -0.32019192082489051 0 0.026402605230432311 -0.3262882698278331 0 0.01095063940592505 -0.33353778481797508 0 0.0040119165157269498 -0.32019192082489051 0 0.023281744924889939 -0.32380535484871747 0 0.01481532855087715 -0.31733892995868168 0 0.0040119165157269498 -0.32019192082489051 0 0.026402605230432311 -0.3262882698278331 0 0.0040119165157269498 -0.32019192082489051 0 0.01766801459935146 -0.31282753850777278 0 0.01481532855087715 -0.31733892995868168 0 0.0069218991655704901 -0.31182173821255171 0 0.01481532855087715 -0.31733892995868168 0 0.0040119165157269498 -0.32019192082489051 0 0.0069218991655704901 -0.31182173821255171 0 -0.0063767584182884453 -0.31267072953001079 0 0.0040119165157269498 -0.32019192082489051 0 0.0069218991655704901 -0.31182173821255171 0 -0.0063596629264112857 -0.30462589040891103 0 0.0069218991655704901 -0.31182173821255171 0 -0.0063596629264112857 -0.30462589040891103 0 0.011628077543268049 -0.30481141212414281 0 0.01486548148095768 -0.2901998081610071 0 -0.0063596629264112857 -0.30462589040891103 0 0.01486548148095768 -0.2901998081610071 0 -0.0063596629264112857 -0.30462589040891103 0 0.0069218991655704901 -0.31182173821255171 0 0.011628077543268049 -0.30481141212414281 0 0.01766801459935146 -0.31282753850777278 0 0.0069218991655704901 -0.31182173821255171 0 0.011628077543268049 -0.30481141212414281 0 -0.0063596629264112857 -0.30462589040891103 0 -0.0017353971264607181 -0.28860223348569658 0 0.01486548148095768 -0.2901998081610071 0 -0.0017353971264607181 -0.28860223348569658 0 0.01486548148095768 -0.2901998081610071 0 0.01217519740530776 -0.2668565954612736 0 0.01486548148095768 -0.2901998081610071 0 0.039901926935972581 -0.29644633362160078 0 0.036090625888327448 -0.27577372591310451 0 0.01486548148095768 -0.2901998081610071 0 0.036090625888327448 -0.27577372591310451 0 0.01486548148095768 -0.2901998081610071 0 0.0250446553968727 -0.30458208533047271 0 0.039901926935972581 -0.29644633362160078 0 0.01766801459935146 -0.31282753850777278 0 0.011628077543268049 -0.30481141212414281 0 0.0250446553968727 -0.30458208533047271 0 0.01766801459935146 -0.31282753850777278 0 0.027487029514234079 -0.31401286545298618 0 0.0250446553968727 -0.30458208533047271 0 0.011628077543268049 -0.30481141212414281 0 0.01486548148095768 -0.2901998081610071 0 0.0250446553968727 -0.30458208533047271 0 0.027487029514234079 -0.31401286545298618 0 0.0250446553968727 -0.30458208533047271 0 0.03442681282355553 -0.3073151931435707 0 0.042361070047925643 -0.31570299617018133 0 0.03442681282355553 -0.3073151931435707 0 0.039901926935972581 -0.29644633362160078 0 0.042361070047925643 -0.31570299617018133 0 0.027487029514234079 -0.31401286545298618 0 0.03442681282355553 -0.3073151931435707 0 0.0250446553968727 -0.30458208533047271 0 0.03442681282355553 -0.3073151931435707 0 0.039901926935972581 -0.29644633362160078 0 0.039901926935972581 -0.29644633362160078 0 0.054413464963880082 -0.28136390881681578 0 0.036090625888327448 -0.27577372591310451 0 0.039901926935972581 -0.29644633362160078 0 0.054413464963880082 -0.28136390881681578 0 0.061440395170966111 -0.30760063749165589 0 0.042361070047925643 -0.31570299617018133 0 0.039901926935972581 -0.29644633362160078 0 0.061440395170966111 -0.30760063749165589 0 0.042361070047925643 -0.31570299617018133 0 0.061440395170966111 -0.30760063749165589 0 0.050331898211866621 -0.26215167502837872 0 0.045546368613526338 -0.2431557691174063 0 0.050331898211866621 -0.26215167502837872 0 0.045546368613526338 -0.2431557691174063 0 0.058330191768976081 -0.24860232186296641 0 0.050331898211866621 -0.26215167502837872 0 0.05731577029569726 -0.26134764366520169 0 0.058330191768976081 -0.24860232186296641 0 0.054413464963880082 -0.28136390881681578 0 0.05731577029569726 -0.26134764366520169 0 0.036090625888327448 -0.27577372591310451 0 0.070807635688589929 -0.26797872466658063 0 0.054413464963880082 -0.28136390881681578 0 0.05731577029569726 -0.26134764366520169 0 0.050331898211866621 -0.26215167502837872 0 0.05731577029569726 -0.26134764366520169 0 0.036090625888327448 -0.27577372591310451 0 0.05731577029569726 -0.26134764366520169 0 0.036090625888327448 -0.27577372591310451 0 0.050331898211866621 -0.26215167502837872 0 0.036090625888327448 -0.27577372591310451 0 0.031558627618753249 -0.25678036892406592 0 0.050331898211866621 -0.26215167502837872 0 0.031558627618753249 -0.25678036892406592 0 0.045546368613526338 -0.2431557691174063 0 0.031558627618753249 -0.25678036892406592 0 0.01217519740530776 -0.2668565954612736 0 0.018504558414158101 -0.23550154792479211 0 0.036090625888327448 -0.27577372591310451 0 0.031558627618753249 -0.25678036892406592 0 0.01217519740530776 -0.2668565954612736 0 0.01486548148095768 -0.2901998081610071 0 0.036090625888327448 -0.27577372591310451 0 0.01217519740530776 -0.2668565954612736 0 -0.0017353971264607181 -0.28860223348569658 0 -0.010305792251711691 -0.27429525117709919 0 0.01217519740530776 -0.2668565954612736 0 -0.0037517221868697478 -0.24684323264315031 0 0.01217519740530776 -0.2668565954612736 0 0.018504558414158101 -0.23550154792479211 0 -0.0037517221868697478 -0.24684323264315031 0 0.018504558414158101 -0.23550154792479211 0 -0.0037517221868697478 -0.24684323264315031 0 0.0082068293806228168 -0.22365460084151381 0 0.018504558414158101 -0.23550154792479211 0 0.018504558414158101 -0.23550154792479211 0 0.02335716778713114 -0.2179729299096462 0 0.040760839015186061 -0.22415986320643391 0 0.018504558414158101 -0.23550154792479211 0 0.040760839015186061 -0.22415986320643391 0 0.0082068293806228168 -0.22365460084151381 0 0.018504558414158101 -0.23550154792479211 0 0.02335716778713114 -0.2179729299096462 0 0.01265572841376569 -0.1885619907641998 0 0.0118853391263529 -0.1976199973689739 0 0.0016220851498990111 -0.18706253986558219 0 -0.00087008517443049169 -0.20676331926816319 0 0.0118853391263529 -0.1976199973689739 0 0.01165971287265314 -0.20404562522527461 0 -0.0076778747790505319 -0.2226872354148747 0 0.01165971287265314 -0.20404562522527461 0 -0.0076778747790505319 -0.2226872354148747 0 -0.00087008517443049169 -0.20676331926816319 0 0.01165971287265314 -0.20404562522527461 0 -0.0076778747790505319 -0.2226872354148747 0 0.0082068293806228168 -0.22365460084151381 0 0.01165971287265314 -0.20404562522527461 0 0.0082068293806228168 -0.22365460084151381 0 0.01165971287265314 -0.20404562522527461 0 0.02335716778713114 -0.2179729299096462 0 0.02335716778713114 -0.2179729299096462 0 0.025473312738478131 -0.20305112732291239 0 0.035879069769771448 -0.20478193912105441 0 0.01165971287265314 -0.20404562522527461 0 0.02335716778713114 -0.2179729299096462 0 0.025473312738478131 -0.20305112732291239 0 0.025473312738478131 -0.20305112732291239 0 0.035879069769771448 -0.20478193912105441 0 0.03099730052435681 -0.18540401503567469 0 0.01265572841376569 -0.1885619907641998 0 0.0118853391263529 -0.1976199973689739 0 0.03099730052435681 -0.18540401503567469 0 0.01165971287265314 -0.20404562522527461 0 0.025473312738478131 -0.20305112732291239 0 0.03099730052435681 -0.18540401503567469 0 0.01165971287265314 -0.20404562522527461 0 0.03099730052435681 -0.18540401503567469 0 0.0118853391263529 -0.1976199973689739 0 0.01165971287265314 -0.20404562522527461 0 0.03099730052435681 -0.18540401503567469 0 0.035879069769771448 -0.20478193912105441 0 0.050592033623411782 -0.18848331420610551 0 0.03099730052435681 -0.18540401503567469 0 0.035879069769771448 -0.20478193912105441 0 0.03099730052435681 -0.18540401503567469 0 0.02335716778713114 -0.2179729299096462 0 0.035879069769771448 -0.20478193912105441 0 0.040760839015186061 -0.22415986320643391 0 0.035879069769771448 -0.20478193912105441 0 0.040760839015186061 -0.22415986320643391 0 0.040760839015186061 -0.22415986320643391 0 0.066905441624138751 -0.21083670983714109 0 0.035879069769771448 -0.20478193912105441 0 0.040760839015186061 -0.22415986320643391 0 0.066905441624138751 -0.21083670983714109 0 0.035879069769771448 -0.20478193912105441 0 0.050592033623411782 -0.18848331420610551 0 0.066905441624138751 -0.21083670983714109 0 0.031558627618753249 -0.25678036892406592 0 0.018504558414158101 -0.23550154792479211 0 0.045546368613526338 -0.2431557691174063 0 0.045546368613526338 -0.2431557691174063 0 0.040760839015186061 -0.22415986320643391 0 0.018504558414158101 -0.23550154792479211 0 0.045546368613526338 -0.2431557691174063 0 0.040760839015186061 -0.22415986320643391 0 0.040760839015186061 -0.22415986320643391 0 0.059916007020723069 -0.22943496008654621 0 0.066905441624138751 -0.21083670983714109 0 0.045546368613526338 -0.2431557691174063 0 0.040760839015186061 -0.22415986320643391 0 0.059916007020723069 -0.22943496008654621 0 0.045546368613526338 -0.2431557691174063 0 0.059916007020723069 -0.22943496008654621 0 0.058330191768976081 -0.24860232186296641 0 0.059916007020723069 -0.22943496008654621 0 0.058330191768976081 -0.24860232186296641 0 0.078540914703067094 -0.24692156141729901 0 0.078540914703067094 -0.24692156141729901 0 0.092512299642676557 -0.2467103601984254 0 0.099766059110437649 -0.23249547916939731 0 0.078540914703067094 -0.24692156141729901 0 0.099766059110437649 -0.23249547916939731 0 0.082715310234125872 -0.2486696882164342 0 0.078540914703067094 -0.24692156141729901 0 0.092512299642676557 -0.2467103601984254 0 0.082099871799725416 -0.22288982406646271 0 0.099766059110437649 -0.23249547916939731 0 0.094420764106893554 -0.2201366774205441 0 0.078540914703067094 -0.24692156141729901 0 0.082099871799725416 -0.22288982406646271 0 0.099766059110437649 -0.23249547916939731 0 0.059916007020723069 -0.22943496008654621 0 0.082099871799725416 -0.22288982406646271 0 0.066905441624138751 -0.21083670983714109 0 0.059916007020723069 -0.22943496008654621 0 0.078540914703067094 -0.24692156141729901 0 0.082099871799725416 -0.22288982406646271 0 0.050592033623411782 -0.18848331420610551 0 0.066905441624138751 -0.21083670983714109 0 0.070906054221506171 -0.18431817258865421 0 0.066905441624138751 -0.21083670983714109 0 0.093050044233091489 -0.19751355646784849 0 0.070906054221506171 -0.18431817258865421 0 0.082099871799725416 -0.22288982406646271 0 0.093050044233091489 -0.19751355646784849 0 0.094420764106893554 -0.2201366774205441 0 0.066905441624138751 -0.21083670983714109 0 0.093050044233091489 -0.19751355646784849 0 0.082099871799725416 -0.22288982406646271 0 0.066905441624138751 -0.21083670983714109 0 0.093050044233091489 -0.19751355646784849 0 0.093050044233091489 -0.19751355646784849 0 0.1041879525049535 -0.21257632881812211 0 0.11161371319825911 -0.2043684308632564 0 0.093050044233091489 -0.19751355646784849 0 0.1041879525049535 -0.21257632881812211 0 0.094420764106893554 -0.2201366774205441 0 0.1041879525049535 -0.21257632881812211 0 0.094420764106893554 -0.2201366774205441 0 0.1066400148805068 -0.2205306154332303 0 0.093050044233091489 -0.19751355646784849 0 0.11609861071926381 -0.196147549167728 0 0.11161371319825911 -0.2043684308632564 0 0.093050044233091489 -0.19751355646784849 0 0.11919464684204401 -0.18419040309855589 0 0.093050044233091489 -0.19751355646784849 0 0.11609861071926381 -0.196147549167728 0 0.11919464684204401 -0.18419040309855589 0 0.11609861071926381 -0.196147549167728 0 0.11161371319825911 -0.2043684308632564 0 0.12138945923594451 -0.203631558129896 0 0.11609861071926381 -0.196147549167728 0 0.12138945923594451 -0.203631558129896 0 0.12930783881334909 -0.19446842608874171 0 0.11609861071926381 -0.196147549167728 0 0.11919464684204401 -0.18419040309855589 0 0.12930783881334909 -0.19446842608874171 0 0.1176226638148295 -0.21249286524349459 0 0.1145509265538211 -0.22244665643024261 0 0.1066400148805068 -0.2205306154332303 0 0.1041879525049535 -0.21257632881812211 0 0.1176226638148295 -0.21249286524349459 0 0.1066400148805068 -0.2205306154332303 0 0.11161371319825911 -0.2043684308632564 0 0.12138945923594451 -0.203631558129896 0 0.1176226638148295 -0.21249286524349459 0 0.1041879525049535 -0.21257632881812211 0 0.11161371319825911 -0.2043684308632564 0 0.1176226638148295 -0.21249286524349459 0 0.12138945923594451 -0.203631558129896 0 0.1176226638148295 -0.21249286524349459 0 0.1293357939972053 -0.21239783369108881 0 0.1145509265538211 -0.22244665643024261 0 0.1263330395909652 -0.22137451192945309 0 0.1293357939972053 -0.21239783369108881 0 0.1176226638148295 -0.21249286524349459 0 0.1145509265538211 -0.22244665643024261 0 0.1293357939972053 -0.21239783369108881 0 0.1145509265538211 -0.22244665643024261 0 0.1293357939972053 -0.21239783369108881 0 0.1145509265538211 -0.22244665643024261 0 0.1263330395909652 -0.22137451192945309 0 0.12784762921016379 -0.23071813566463911 0 0.1145509265538211 -0.22244665643024261 0 0.1136779421325847 -0.23706315596906399 0 0.12784762921016379 -0.23071813566463911 0 0.11895464661316579 -0.25072187298028797 0 0.1136779421325847 -0.23706315596906399 0 0.12784762921016379 -0.23071813566463911 0 0.11895464661316579 -0.25072187298028797 0 0.12784762921016379 -0.23071813566463911 0 0.11895464661316579 -0.25072187298028797 0 0.1103411570718805 -0.24552118873786299 0 0.1136779421325847 -0.23706315596906399 0 0.1054350680331206 -0.25220871673219458 0 0.11895464661316579 -0.25072187298028797 0 0.1103411570718805 -0.24552118873786299 0 0.1136779421325847 -0.23706315596906399 0 0.1025541165564121 -0.2434670820289758 0 0.099766059110437649 -0.23249547916939731 0 0.1103411570718805 -0.24552118873786299 0 0.1136779421325847 -0.23706315596906399 0 0.1025541165564121 -0.2434670820289758 0 0.1054350680331206 -0.25220871673219458 0 0.1103411570718805 -0.24552118873786299 0 0.1025541165564121 -0.2434670820289758 0 0.098619260441350165 -0.25137374290502063 0 0.1054350680331206 -0.25220871673219458 0 0.1025541165564121 -0.2434670820289758 0 0.098619260441350165 -0.25137374290502063 0 0.092512299642676557 -0.2467103601984254 0 0.1025541165564121 -0.2434670820289758 0 0.092512299642676557 -0.2467103601984254 0 0.1025541165564121 -0.2434670820289758 0 0.099766059110437649 -0.23249547916939731 0 0.092512299642676557 -0.2467103601984254 0 0.099766059110437649 -0.23249547916939731 0 0.099766059110437649 -0.23249547916939731 0 0.094420764106893554 -0.2201366774205441 0 0.1021250620227702 -0.22787264243281241 0 0.099766059110437649 -0.23249547916939731 0 0.1021250620227702 -0.22787264243281241 0 0.094420764106893554 -0.2201366774205441 0 0.1066400148805068 -0.2205306154332303 0 0.1021250620227702 -0.22787264243281241 0 0.1145509265538211 -0.22244665643024261 0 0.1066400148805068 -0.2205306154332303 0 0.1021250620227702 -0.22787264243281241 0 0.1145509265538211 -0.22244665643024261 0 0.099766059110437649 -0.23249547916939731 0 0.1021250620227702 -0.22787264243281241 0 0.1145509265538211 -0.22244665643024261 0 0.099766059110437649 -0.23249547916939731 0 0.1145509265538211 -0.22244665643024261 0 0.1136779421325847 -0.23706315596906399 0 0.099766059110437649 -0.23249547916939731 0 0.097773225334095104 -0.1468663500798785 0 0.11044196912907719 -0.15176831564942381 0 0.10482113254626831 -0.1627465974250048 0 0.097773225334095104 -0.1468663500798785 0 0.10482113254626831 -0.1627465974250048 0 0.085245688019217142 -0.1561351554723113 0 0.097773225334095104 -0.1468663500798785 0 0.1078042025487442 -0.1364010611634203 0 0.11044196912907719 -0.15176831564942381 0 0.093752669917462741 -0.130352948663398 0 0.1078042025487442 -0.1364010611634203 0 0.10462632680470051 -0.111781823244128 0 0.097773225334095104 -0.1468663500798785 0 0.093752669917462741 -0.130352948663398 0 0.1078042025487442 -0.1364010611634203 0 0.1078042025487442 -0.1364010611634203 0 0.1206433177034321 -0.1276047896024104 0 0.10462632680470051 -0.111781823244128 0 0.1078042025487442 -0.1364010611634203 0 0.1206433177034321 -0.1276047896024104 0 0.1234005852276296 -0.14771089094059309 0 0.1078042025487442 -0.1364010611634203 0 0.1234005852276296 -0.14771089094059309 0 0.11044196912907719 -0.15176831564942381 0 0.1234005852276296 -0.14771089094059309 0 0.11044196912907719 -0.15176831564942381 0 0.11811695268855479 -0.16220582295012551 0 0.1234005852276296 -0.14771089094059309 0 0.11811695268855479 -0.16220582295012551 0 0.13042071468721811 -0.1594269608098392 0 0.11811695268855479 -0.16220582295012551 0 0.1145037114591019 -0.1699672136981866 0 0.1213462227088546 -0.17511257455271501 0 0.11811695268855479 -0.16220582295012551 0 0.1213462227088546 -0.17511257455271501 0 0.13157192721459271 -0.16987146461401559 0 0.1145037114591019 -0.1699672136981866 0 0.10889363323769739 -0.1776097317346261 0 0.10482113254626831 -0.1627465974250048 0 0.11811695268855479 -0.16220582295012551 0 0.1145037114591019 -0.1699672136981866 0 0.10482113254626831 -0.1627465974250048 0 0.11044196912907719 -0.15176831564942381 0 0.11811695268855479 -0.16220582295012551 0 0.10482113254626831 -0.1627465974250048 0 0.11919464684204401 -0.18419040309855589 0 0.1213462227088546 -0.17511257455271501 0 0.12930783881334909 -0.19446842608874171 0 0.11919464684204401 -0.18419040309855589 0 0.1213462227088546 -0.17511257455271501 0 0.10889363323769739 -0.1776097317346261 0 0.1145037114591019 -0.1699672136981866 0 0.1213462227088546 -0.17511257455271501 0 0.10889363323769739 -0.1776097317346261 0 0.093050044233091489 -0.19751355646784849 0 0.11919464684204401 -0.18419040309855589 0 0.10889363323769739 -0.1776097317346261 0 0.093050044233091489 -0.19751355646784849 0 0.10889363323769739 -0.1776097317346261 0 0.097981032945318819 -0.1771151028879252 0 0.10889363323769739 -0.1776097317346261 0 0.097981032945318819 -0.1771151028879252 0 0.10482113254626831 -0.1627465974250048 0 0.097981032945318819 -0.1771151028879252 0 0.10482113254626831 -0.1627465974250048 0 0.084132234809424167 -0.17100179997525461 0 0.10482113254626831 -0.1627465974250048 0 0.084132234809424167 -0.17100179997525461 0 0.085245688019217142 -0.1561351554723113 0 0.084132234809424167 -0.17100179997525461 0 0.071223255244498906 -0.16307768837732911 0 0.085245688019217142 -0.1561351554723113 0 0.093050044233091489 -0.19751355646784849 0 0.084132234809424167 -0.17100179997525461 0 0.070906054221506171 -0.18431817258865421 0 0.093050044233091489 -0.19751355646784849 0 0.097981032945318819 -0.1771151028879252 0 0.084132234809424167 -0.17100179997525461 0 0.084132234809424167 -0.17100179997525461 0 0.070906054221506171 -0.18431817258865421 0 0.071223255244498906 -0.16307768837732911 0 0.070906054221506171 -0.18431817258865421 0 0.071223255244498906 -0.16307768837732911 0 0.05587568622878062 -0.17049057328450229 0 0.071223255244498906 -0.16307768837732911 0 0.07227295990526085 -0.14027619095722349 0 0.058498771762240012 -0.1542557361587143 0 0.071223255244498906 -0.16307768837732911 0 0.085245688019217142 -0.1561351554723113 0 0.07227295990526085 -0.14027619095722349 0 0.07227295990526085 -0.14027619095722349 0 0.059716377908374987 -0.14149126709443799 0 0.058498771762240012 -0.1542557361587143 0 0.085245688019217142 -0.1561351554723113 0 0.086244224673888648 -0.14065616392242891 0 0.07227295990526085 -0.14027619095722349 0 0.097773225334095104 -0.1468663500798785 0 0.085245688019217142 -0.1561351554723113 0 0.086244224673888648 -0.14065616392242891 0 0.097773225334095104 -0.1468663500798785 0 0.093752669917462741 -0.130352948663398 0 0.086244224673888648 -0.14065616392242891 0 0.093752669917462741 -0.130352948663398 0 0.082176580193407456 -0.12965017443933319 0 0.088553992269041704 -0.1161724992285468 0 0.093752669917462741 -0.130352948663398 0 0.086244224673888648 -0.14065616392242891 0 0.082176580193407456 -0.12965017443933319 0 0.086244224673888648 -0.14065616392242891 0 0.082176580193407456 -0.12965017443933319 0 0.07227295990526085 -0.14027619095722349 0 0.07227295990526085 -0.14027619095722349 0 0.056159612821167611 -0.12754510004381669 0 0.071729589031470808 -0.1176552112417848 0 0.082176580193407456 -0.12965017443933319 0 0.07227295990526085 -0.14027619095722349 0 0.071729589031470808 -0.1176552112417848 0 0.07227295990526085 -0.14027619095722349 0 0.056159612821167611 -0.12754510004381669 0 0.059716377908374987 -0.14149126709443799 0 0.056159612821167611 -0.12754510004381669 0 0.059716377908374987 -0.14149126709443799 0 0.049200920593509737 -0.14317907763733581 0 0.059716377908374987 -0.14149126709443799 0 0.058498771762240012 -0.1542557361587143 0 0.049200920593509737 -0.14317907763733581 0 0.058498771762240012 -0.1542557361587143 0 0.049200920593509737 -0.14317907763733581 0 0.042301199504670338 -0.15734010244414781 0 0.049200920593509737 -0.14317907763733581 0 0.03161589717602975 -0.137949585977199 0 0.042301199504670338 -0.15734010244414781 0 0.03161589717602975 -0.137949585977199 0 0.042301199504670338 -0.15734010244414781 0 0.024387052596798131 -0.15916498650189351 0 0.056159612821167611 -0.12754510004381669 0 0.03161589717602975 -0.137949585977199 0 0.056159612821167611 -0.12754510004381669 0 0.03161589717602975 -0.137949585977199 0 0.035698066588540127 -0.1134282353827256 0 0.056159612821167611 -0.12754510004381669 0 0.049200920593509737 -0.14317907763733581 0 0.03161589717602975 -0.137949585977199 0 0.050592033623411782 -0.18848331420610551 0 0.05587568622878062 -0.17049057328450229 0 0.041661945981536358 -0.17512319992037689 0 0.050592033623411782 -0.18848331420610551 0 0.070906054221506171 -0.18431817258865421 0 0.05587568622878062 -0.17049057328450229 0 0.058498771762240012 -0.1542557361587143 0 0.05587568622878062 -0.17049057328450229 0 0.042301199504670338 -0.15734010244414781 0 0.071223255244498906 -0.16307768837732911 0 0.058498771762240012 -0.1542557361587143 0 0.05587568622878062 -0.17049057328450229 0 0.042301199504670338 -0.15734010244414781 0 0.041661945981536358 -0.17512319992037689 0 0.024387052596798131 -0.15916498650189351 0 0.05587568622878062 -0.17049057328450229 0 0.042301199504670338 -0.15734010244414781 0 0.041661945981536358 -0.17512319992037689 0 0.050592033623411782 -0.18848331420610551 0 0.041661945981536358 -0.17512319992037689 0 0.03099730052435681 -0.18540401503567469 0 0.041661945981536358 -0.17512319992037689 0 0.03099730052435681 -0.18540401503567469 0 0.024387052596798131 -0.15916498650189351 0 0.041661945981536358 -0.17512319992037689 0 0.03099730052435681 -0.18540401503567469 0 0.01265572841376569 -0.1885619907641998 0 0.03099730052435681 -0.18540401503567469 0 0.012799101834937191 -0.1810099659542358 0 0.03099730052435681 -0.18540401503567469 0 0.01331226853566402 -0.16798655940407081 0 0.012799101834937191 -0.1810099659542358 0 0.03099730052435681 -0.18540401503567469 0 0.024387052596798131 -0.15916498650189351 0 0.03099730052435681 -0.18540401503567469 0 0.024387052596798131 -0.15916498650189351 0 0.01331226853566402 -0.16798655940407081 0 0.024387052596798131 -0.15916498650189351 0 0.01331226853566402 -0.16798655940407081 0 0.0070721815308918828 -0.14835407191058131 0 4.3932368462001469e-05 -0.16259256566360691 0 0.01331226853566402 -0.16798655940407081 0 0.0070721815308918828 -0.14835407191058131 0 4.3932368462001469e-05 -0.16259256566360691 0 0.01331226853566402 -0.16798655940407081 0 0.0032934927891920562 -0.17359131979549861 0 0.01331226853566402 -0.16798655940407081 0 0.0032934927891920562 -0.17359131979549861 0 0.012799101834937191 -0.1810099659542358 0 0.0032934927891920562 -0.17359131979549861 0 0.0016220851498990111 -0.18706253986558219 0 0.012799101834937191 -0.1810099659542358 0 0.01265572841376569 -0.1885619907641998 0 0.0016220851498990111 -0.18706253986558219 0 0.012799101834937191 -0.1810099659542358 0 0.03161589717602975 -0.137949585977199 0 0.0070721815308918828 -0.14835407191058131 0 0.0088244082276408946 -0.12923406822939981 0 0.03161589717602975 -0.137949585977199 0 0.0088244082276408946 -0.12923406822939981 0 0.02173542032009711 -0.12165178638358889 0 0.03161589717602975 -0.137949585977199 0 0.024387052596798131 -0.15916498650189351 0 0.0070721815308918828 -0.14835407191058131 0 0.03161589717602975 -0.137949585977199 0 0.0070721815308918828 -0.14835407191058131 0 -0.0098486782387315671 -0.13968786278958389 0 0.0070721815308918828 -0.14835407191058131 0 0.0088244082276408946 -0.12923406822939981 0 -0.0049910715658874252 -0.12520864677907331 0 0.0088244082276408946 -0.12923406822939981 0 0.010803309288177651 -0.1059952559450313 0 0.0088244082276408946 -0.12923406822939981 0 0.02173542032009711 -0.12165178638358889 0 0.010803309288177651 -0.1059952559450313 0 0.03161589717602975 -0.137949585977199 0 0.02173542032009711 -0.12165178638358889 0 0.035698066588540127 -0.1134282353827256 0 0.02173542032009711 -0.12165178638358889 0 0.010803309288177651 -0.1059952559450313 0 0.035698066588540127 -0.1134282353827256 0 0.010803309288177651 -0.1059952559450313 0 0.03424996421180411 -0.088611633246332935 0 0.035698066588540127 -0.1134282353827256 0 -0.01065999807502682 -0.1086257214281092 0 0.010803309288177651 -0.1059952559450313 0 0.0063309719484169009 -0.086524339565403285 0 0.0063309719484169009 -0.086524339565403285 0 0.017084666996278239 -0.072536231743430948 0 -0.001417147873282963 -0.070227706175478771 0 0.0063309719484169009 -0.086524339565403285 0 0.017084666996278239 -0.072536231743430948 0 -0.001417147873282963 -0.070227706175478771 0 0.017084666996278239 -0.072536231743430948 0 0.0083234155274403004 -0.050446337071338332 0 0.017084666996278239 -0.072536231743430948 0 0.03424996421180411 -0.088611633246332935 0 0.037971435015886908 -0.072102509093441 0 0.017084666996278239 -0.072536231743430948 0 0.037971435015886908 -0.072102509093441 0 0.027838362044138799 -0.058548123921458153 0 0.017084666996278239 -0.072536231743430948 0 0.027838362044138799 -0.058548123921458153 0 0.0063309719484169009 -0.086524339565403285 0 0.03424996421180411 -0.088611633246332935 0 0.010803309288177651 -0.1059952559450313 0 0.0063309719484169009 -0.086524339565403285 0 0.03424996421180411 -0.088611633246332935 0 0.0063309719484169009 -0.086524339565403285 0 0.017084666996278239 -0.072536231743430948 0 0.03424996421180411 -0.088611633246332935 0 0.054724874805090147 -0.069710275728834425 0 0.027838362044138799 -0.058548123921458153 0 0.037971435015886908 -0.072102509093441 0 0.054724874805090147 -0.069710275728834425 0 0.027838362044138799 -0.058548123921458153 0 0.03424996421180411 -0.088611633246332935 0 0.037971435015886908 -0.072102509093441 0 0.054724874805090147 -0.069710275728834425 0 0.054724874805090147 -0.069710275728834425 0 0.066436392431400287 -0.074572406374113984 0 0.054724874805090147 -0.069710275728834425 0 0.062053439556375413 -0.059248039425774758 0 0.066436392431400287 -0.074572406374113984 0 0.03424996421180411 -0.088611633246332935 0 0.054724874805090147 -0.069710275728834425 0 0.062168956475191453 -0.090698926927261669 0 0.054724874805090147 -0.069710275728834425 0 0.062168956475191453 -0.090698926927261669 0 0.054724874805090147 -0.069710275728834425 0 0.062168956475191453 -0.090698926927261669 0 0.066436392431400287 -0.074572406374113984 0 0.03424996421180411 -0.088611633246332935 0 0.062168956475191453 -0.090698926927261669 0 0.062168956475191453 -0.090698926927261669 0 0.053443805870123109 -0.1080023351216501 0 0.071729589031470808 -0.1176552112417848 0 0.03424996421180411 -0.088611633246332935 0 0.062168956475191453 -0.090698926927261669 0 0.053443805870123109 -0.1080023351216501 0 0.056159612821167611 -0.12754510004381669 0 0.053443805870123109 -0.1080023351216501 0 0.071729589031470808 -0.1176552112417848 0 0.056159612821167611 -0.12754510004381669 0 0.053443805870123109 -0.1080023351216501 0 0.035698066588540127 -0.1134282353827256 0 0.03424996421180411 -0.088611633246332935 0 0.053443805870123109 -0.1080023351216501 0 0.035698066588540127 -0.1134282353827256 0 0.028349239989563391 0.0046560496035753726 0 0.034047580944343812 -0.01141047089012821 0 0.01651361521581661 -0.0058849639220075467 0 0.016323175706114499 -0.01758625992048149 0 0.034047580944343812 -0.01141047089012821 0 0.028349239989563391 0.0046560496035753726 0 0.01651361521581661 -0.0058849639220075467 0 0.034047580944343812 -0.01141047089012821 0 0.028349239989563391 0.0046560496035753726 0 0.01651361521581661 -0.0058849639220075467 0 0.014539710737812159 -0.00031952355959833159 0 0.028349239989563391 0.0046560496035753726 0 0.01651361521581661 -0.0058849639220075467 0 0.01651361521581661 -0.0058849639220075467 0 0.014539710737812159 -0.00031952355959833159 0 0.0046779904420720169 -0.016425977447592929 0 0.014539710737812159 -0.00031952355959833159 0 0.0046779904420720169 -0.016425977447592929 0 -0.0089631398119183643 -5.4210394797340562e-05 0 0.014539710737812159 -0.00031952355959833159 0 0.0046779904420720169 -0.016425977447592929 0 0.01651361521581661 -0.0058849639220075467 0 0.0046779904420720169 -0.016425977447592929 0 0.01651361521581661 -0.0058849639220075467 0 0.0046779904420720169 -0.016425977447592929 0 0.016323175706114499 -0.01758625992048149 0 0.0046779904420720169 -0.016425977447592929 0 0.0081436191453070055 -0.027385597780398611 0 0.016323175706114499 -0.01758625992048149 0 0.0081436191453070055 -0.027385597780398611 0 0.016323175706114499 -0.01758625992048149 0 0.018872425612890889 -0.034476807177149273 0 -0.0032567702735929551 -0.029385263834405598 0 0.0046779904420720169 -0.016425977447592929 0 -0.0032567702735929551 -0.029385263834405598 0 0.0046779904420720169 -0.016425977447592929 0 0.0081436191453070055 -0.027385597780398611 0 0.018872425612890889 -0.034476807177149273 0 0.039745921899126423 -0.027476991383830991 0 0.026659212330947181 -0.023074697051475659 0 0.016323175706114499 -0.01758625992048149 0 0.034047580944343812 -0.01141047089012821 0 0.026659212330947181 -0.023074697051475659 0 0.016323175706114499 -0.01758625992048149 0 0.018872425612890889 -0.034476807177149273 0 0.026659212330947181 -0.023074697051475659 0 0.018872425612890889 -0.034476807177149273 0 0.039745921899126423 -0.027476991383830991 0 0.02834534676157589 -0.042446046248233567 0 0.018872425612890889 -0.034476807177149273 0 0.039745921899126423 -0.027476991383830991 0 0.02834534676157589 -0.042446046248233567 0 0.018872425612890889 -0.034476807177149273 0 0.0083234155274403004 -0.050446337071338332 0 -0.01119153098925808 -0.042344550221218039 0 0.0041562439286982498 -0.037449416732748153 0 0.0083234155274403004 -0.050446337071338332 0 0.018872425612890889 -0.034476807177149273 0 0.0041562439286982498 -0.037449416732748153 0 0.0083234155274403004 -0.050446337071338332 0 0.0081436191453070055 -0.027385597780398611 0 0.018872425612890889 -0.034476807177149273 0 0.0041562439286982498 -0.037449416732748153 0 -0.0032567702735929551 -0.029385263834405598 0 0.0081436191453070055 -0.027385597780398611 0 0.0041562439286982498 -0.037449416732748153 0 0.017084666996278239 -0.072536231743430948 0 0.0083234155274403004 -0.050446337071338332 0 0.027838362044138799 -0.058548123921458153 0 0.02834534676157589 -0.042446046248233567 0 0.0083234155274403004 -0.050446337071338332 0 0.027838362044138799 -0.058548123921458153 0 0.0083234155274403004 -0.050446337071338332 0 0.027838362044138799 -0.058548123921458153 0 0.054724874805090147 -0.069710275728834425 0 0.027838362044138799 -0.058548123921458153 0 0.045669262250594173 -0.044177899578564397 0 0.027838362044138799 -0.058548123921458153 0 0.045669262250594173 -0.044177899578564397 0 0.040838339875845828 -0.043261999346758763 0 0.027838362044138799 -0.058548123921458153 0 0.043527729655482308 -0.038139830322901087 0 0.062053439556375413 -0.059248039425774758 0 0.062380577955919517 -0.047346217498179431 0 0.045669262250594173 -0.044177899578564397 0 0.054724874805090147 -0.069710275728834425 0 0.062053439556375413 -0.059248039425774758 0 0.045669262250594173 -0.044177899578564397 0 0.054724874805090147 -0.069710275728834425 0 0.045669262250594173 -0.044177899578564397 0 0.055640112321517401 -0.037242715540291668 0 0.043527729655482308 -0.038139830322901087 0 0.055886034552943033 -0.022064490578461771 0 0.055640112321517401 -0.037242715540291668 0 0.043527729655482308 -0.038139830322901087 0 0.045669262250594173 -0.044177899578564397 0 0.062380577955919517 -0.047346217498179431 0 0.055640112321517401 -0.037242715540291668 0 0.045669262250594173 -0.044177899578564397 0 0.062380577955919517 -0.047346217498179431 0 0.045669262250594173 -0.044177899578564397 0 0.062380577955919517 -0.047346217498179431 0 0.055640112321517401 -0.037242715540291668 0 0.069210527821497267 -0.033746759874229787 0 0.02834534676157589 -0.042446046248233567 0 0.027838362044138799 -0.058548123921458153 0 0.043527729655482308 -0.038139830322901087 0 0.043527729655482308 -0.038139830322901087 0 0.039745921899126423 -0.027476991383830991 0 0.027838362044138799 -0.058548123921458153 0 0.043527729655482308 -0.038139830322901087 0 0.040838339875845828 -0.043261999346758763 0 0.043527729655482308 -0.038139830322901087 0 0.045669262250594173 -0.044177899578564397 0 0.040838339875845828 -0.043261999346758763 0 0.043527729655482308 -0.038139830322901087 0 0.045669262250594173 -0.044177899578564397 0 0.045669262250594173 -0.044177899578564397 0 0.040838339875845828 -0.043261999346758763 0 0.02834534676157589 -0.042446046248233567 0 0.043527729655482308 -0.038139830322901087 0 0.039745921899126423 -0.027476991383830991 0 0.039745921899126423 -0.027476991383830991 0 0.047435595713041782 -0.011676995301832249 0 0.034047580944343812 -0.01141047089012821 0 0.043527729655482308 -0.038139830322901087 0 0.039745921899126423 -0.027476991383830991 0 0.055886034552943033 -0.022064490578461771 0 0.026659212330947181 -0.023074697051475659 0 0.039745921899126423 -0.027476991383830991 0 0.034047580944343812 -0.01141047089012821 0 0.039745921899126423 -0.027476991383830991 0 0.034047580944343812 -0.01141047089012821 0 0.043527729655482308 -0.038139830322901087 0 0.055886034552943033 -0.022064490578461771 0 0.039745921899126423 -0.027476991383830991 0 0.055886034552943033 -0.022064490578461771 0 0.039745921899126423 -0.027476991383830991 0 0.055886034552943033 -0.022064490578461771 0 0.047435595713041782 -0.011676995301832249 0 0.055640112321517401 -0.037242715540291668 0 0.055886034552943033 -0.022064490578461771 0 0.069210527821497267 -0.033746759874229787 0 0.047740627773719187 0.001996661195049852 0 0.047435595713041782 -0.011676995301832249 0 0.071777021100217678 -0.0013939366682484619 0 0.055886034552943033 -0.022064490578461771 0 0.047435595713041782 -0.011676995301832249 0 0.071777021100217678 -0.0013939366682484619 0 0.028349239989563391 0.0046560496035753726 0 0.047740627773719187 0.001996661195049852 0 0.034047580944343812 -0.01141047089012821 0 0.047740627773719187 0.001996661195049852 0 0.047435595713041782 -0.011676995301832249 0 0.034047580944343812 -0.01141047089012821 0 0.086294217375082277 0.0038891852048607129 0 0.075330809441605251 -0.015543788895489101 0 0.094775584330267032 -0.0090230872125153811 0 0.075330809441605251 -0.015543788895489101 0 0.094775584330267032 -0.0090230872125153811 0 0.086294217375082277 0.0038891852048607129 0 0.071777021100217678 -0.0013939366682484619 0 0.075330809441605251 -0.015543788895489101 0 0.055886034552943033 -0.022064490578461771 0 0.071777021100217678 -0.0013939366682484619 0 0.055886034552943033 -0.022064490578461771 0 0.071777021100217678 -0.0013939366682484619 0 0.075330809441605251 -0.015543788895489101 0 0.075330809441605251 -0.015543788895489101 0 0.086933738995754586 -0.029768811315157181 0 0.069210527821497267 -0.033746759874229787 0 0.055886034552943033 -0.022064490578461771 0 0.075330809441605251 -0.015543788895489101 0 0.069210527821497267 -0.033746759874229787 0 0.055886034552943033 -0.022064490578461771 0 0.075330809441605251 -0.015543788895489101 0 0.086933738995754586 -0.029768811315157181 0 0.094775584330267032 -0.0090230872125153811 0 0.086933738995754586 -0.029768811315157181 0 0.094022570512313289 -0.016448182874558941 0 0.094775584330267032 -0.0090230872125153811 0 0.086933738995754586 -0.029768811315157181 0 0.098633744816219657 -0.033146606035298128 0 0.094022570512313289 -0.016448182874558941 0 0.075330809441605251 -0.015543788895489101 0 0.086933738995754586 -0.029768811315157181 0 0.094775584330267032 -0.0090230872125153811 0 0.086933738995754586 -0.029768811315157181 0 0.079091893661243834 -0.050514535417799697 0 0.086933738995754586 -0.029768811315157181 0 0.069210527821497267 -0.033746759874229787 0 0.079091893661243834 -0.050514535417799697 0 0.086933738995754586 -0.029768811315157181 0 0.093469141862974142 -0.042544320646798847 0 0.079091893661243834 -0.050514535417799697 0 0.086933738995754586 -0.029768811315157181 0 0.093469141862974142 -0.042544320646798847 0 0.098633744816219657 -0.033146606035298128 0 0.062380577955919517 -0.047346217498179431 0 0.069210527821497267 -0.033746759874229787 0 0.079091893661243834 -0.050514535417799697 0 0.062380577955919517 -0.047346217498179431 0 0.079091893661243834 -0.050514535417799697 0 0.062380577955919517 -0.047346217498179431 0 0.070241703031573566 -0.055251009591041927 0 0.079091893661243834 -0.050514535417799697 0 0.070241703031573566 -0.055251009591041927 0 0.078265989834924374 -0.052699476867835632 0 0.079091893661243834 -0.050514535417799697 0 0.062053439556375413 -0.059248039425774758 0 0.062380577955919517 -0.047346217498179431 0 0.070241703031573566 -0.055251009591041927 0 0.062053439556375413 -0.059248039425774758 0 0.070241703031573566 -0.055251009591041927 0 0.072867826863675739 -0.064430427783914085 0 0.070241703031573566 -0.055251009591041927 0 0.075208008594622552 -0.058112710458750279 0 0.072867826863675739 -0.064430427783914085 0 0.070241703031573566 -0.055251009591041927 0 0.075208008594622552 -0.058112710458750279 0 0.078265989834924374 -0.052699476867835632 0 0.075208008594622552 -0.058112710458750279 0 0.080437928105396267 -0.059266071202089723 0 0.078265989834924374 -0.052699476867835632 0 0.075208008594622552 -0.058112710458750279 0 0.080437928105396267 -0.059266071202089723 0 0.072867826863675739 -0.064430427783914085 0 0.080437928105396267 -0.059266071202089723 0 0.079091893661243834 -0.050514535417799697 0 0.090987034011036805 -0.061673551258483998 0 0.079091893661243834 -0.050514535417799697 0 0.090987034011036805 -0.061673551258483998 0 0.102539593931098 -0.054960012377771428 0 0.079091893661243834 -0.050514535417799697 0 0.102539593931098 -0.054960012377771428 0 0.093469141862974142 -0.042544320646798847 0 0.079091893661243834 -0.050514535417799697 0 0.102539593931098 -0.054960012377771428 0 0.080437928105396267 -0.059266071202089723 0 0.078265989834924374 -0.052699476867835632 0 0.079091893661243834 -0.050514535417799697 0 0.078265989834924374 -0.052699476867835632 0 0.079091893661243834 -0.050514535417799697 0 0.102539593931098 -0.054960012377771428 0 0.1158000858203849 -0.049077722847754593 0 0.10480775022846479 -0.042993843263661187 0 0.102539593931098 -0.054960012377771428 0 0.12598729420095231 -0.059405489337742472 0 0.102539593931098 -0.054960012377771428 0 0.1158000858203849 -0.049077722847754593 0 0.12598729420095231 -0.059405489337742472 0 0.1159266908706026 -0.034571656998529682 0 0.12626478483700471 -0.033040688818699808 0 0.1316704637345292 -0.040384474484378818 0 0.1158000858203849 -0.049077722847754593 0 0.1159266908706026 -0.034571656998529682 0 0.10480775022846479 -0.042993843263661187 0 0.1158000858203849 -0.049077722847754593 0 0.1159266908706026 -0.034571656998529682 0 0.1378308112288906 -0.052695131122502077 0 0.1159266908706026 -0.034571656998529682 0 0.10480775022846479 -0.042993843263661187 0 0.098633744816219657 -0.033146606035298128 0 0.093469141862974142 -0.042544320646798847 0 0.10480775022846479 -0.042993843263661187 0 0.098633744816219657 -0.033146606035298128 0 0.093469141862974142 -0.042544320646798847 0 0.102539593931098 -0.054960012377771428 0 0.10480775022846479 -0.042993843263661187 0 0.1159266908706026 -0.034571656998529682 0 0.098633744816219657 -0.033146606035298128 0 0.094022570512313289 -0.016448182874558941 0 0.1159266908706026 -0.034571656998529682 0 0.094022570512313289 -0.016448182874558941 0 0.1159266908706026 -0.034571656998529682 0 0.094022570512313289 -0.016448182874558941 0 0.110860010373316 -0.02204685199991668 0 0.094022570512313289 -0.016448182874558941 0 0.110860010373316 -0.02204685199991668 0 0.1065611039806322 -0.01410922715592608 0 0.1159266908706026 -0.034571656998529682 0 0.1195575949053195 -0.02577547896755232 0 0.110860010373316 -0.02204685199991668 0 0.1159266908706026 -0.034571656998529682 0 0.1195575949053195 -0.02577547896755232 0 0.12626478483700471 -0.033040688818699808 0 0.1195575949053195 -0.02577547896755232 0 0.12593102595036551 -0.017710786191869211 0 0.12626478483700471 -0.033040688818699808 0 0.1195575949053195 -0.02577547896755232 0 0.1176586630558578 -0.017813399862838759 0 0.12593102595036551 -0.017710786191869211 0 0.1176586630558578 -0.017813399862838759 0 0.110860010373316 -0.02204685199991668 0 0.1065611039806322 -0.01410922715592608 0 0.1195575949053195 -0.02577547896755232 0 0.1176586630558578 -0.017813399862838759 0 0.110860010373316 -0.02204685199991668 0 0.1176586630558578 -0.017813399862838759 0 0.1131743541472939 -0.010783279770072131 0 0.12052097409862091 -0.0066076135460219889 0 0.1176586630558578 -0.017813399862838759 0 0.1131743541472939 -0.010783279770072131 0 0.1065611039806322 -0.01410922715592608 0 0.1176586630558578 -0.017813399862838759 0 0.12052097409862091 -0.0066076135460219889 0 0.12593102595036551 -0.017710786191869211 0 0.1131743541472939 -0.010783279770072131 0 0.12052097409862091 -0.0066076135460219889 0 0.1079566754540649 -0.0046028785155016946 0 0.1191620246975521 0.0084359164153180715 0 0.12052097409862091 -0.0066076135460219889 0 0.1079566754540649 -0.0046028785155016946 0 0.1079566754540649 -0.0046028785155016946 0 0.1065611039806322 -0.01410922715592608 0 0.094775584330267032 -0.0090230872125153811 0 0.1131743541472939 -0.010783279770072131 0 0.1079566754540649 -0.0046028785155016946 0 0.1065611039806322 -0.01410922715592608 0 0.094022570512313289 -0.016448182874558941 0 0.1065611039806322 -0.01410922715592608 0 0.094775584330267032 -0.0090230872125153811 0 0.1079566754540649 -0.0046028785155016946 0 0.094775584330267032 -0.0090230872125153811 0 0.088553992269041704 -0.1161724992285468 0 0.071729589031470808 -0.1176552112417848 0 0.092173721033759065 -0.092942158161045757 0 0.082176580193407456 -0.12965017443933319 0 0.088553992269041704 -0.1161724992285468 0 0.071729589031470808 -0.1176552112417848 0 0.062168956475191453 -0.090698926927261669 0 0.071729589031470808 -0.1176552112417848 0 0.092173721033759065 -0.092942158161045757 0 0.062168956475191453 -0.090698926927261669 0 0.071729589031470808 -0.1176552112417848 0 0.062168956475191453 -0.090698926927261669 0 0.07416898908179842 -0.088764959893301923 0 0.066436392431400287 -0.074572406374113984 0 0.062168956475191453 -0.090698926927261669 0 0.07416898908179842 -0.088764959893301923 0 0.092173721033759065 -0.092942158161045757 0 0.062168956475191453 -0.090698926927261669 0 0.092173721033759065 -0.092942158161045757 0 0.07416898908179842 -0.088764959893301923 0 0.066436392431400287 -0.074572406374113984 0 0.078769084541923037 -0.075149473377788711 0 0.062053439556375413 -0.059248039425774758 0 0.066436392431400287 -0.074572406374113984 0 0.072867826863675739 -0.064430427783914085 0 0.066436392431400287 -0.074572406374113984 0 0.072867826863675739 -0.064430427783914085 0 0.078769084541923037 -0.075149473377788711 0 0.084475026969717301 -0.067803570885365289 0 0.078769084541923037 -0.075149473377788711 0 0.1000781416413751 -0.074085224615521722 0 0.080437928105396267 -0.059266071202089723 0 0.090987034011036805 -0.061673551258483998 0 0.084475026969717301 -0.067803570885365289 0 0.080437928105396267 -0.059266071202089723 0 0.072867826863675739 -0.064430427783914085 0 0.084475026969717301 -0.067803570885365289 0 0.072867826863675739 -0.064430427783914085 0 0.084475026969717301 -0.067803570885365289 0 0.078769084541923037 -0.075149473377788711 0 0.090987034011036805 -0.061673551258483998 0 0.084475026969717301 -0.067803570885365289 0 0.1000781416413751 -0.074085224615521722 0 0.07416898908179842 -0.088764959893301923 0 0.092173721033759065 -0.092942158161045757 0 0.1000781416413751 -0.074085224615521722 0 0.07416898908179842 -0.088764959893301923 0 0.1000781416413751 -0.074085224615521722 0 0.07416898908179842 -0.088764959893301923 0 0.078769084541923037 -0.075149473377788711 0 0.1000781416413751 -0.074085224615521722 0 0.092173721033759065 -0.092942158161045757 0 0.1000781416413751 -0.074085224615521722 0 0.122178485592327 -0.095185389394827194 0 0.090987034011036805 -0.061673551258483998 0 0.102539593931098 -0.054960012377771428 0 0.1000781416413751 -0.074085224615521722 0 0.1000781416413751 -0.074085224615521722 0 0.12598729420095231 -0.059405489337742472 0 0.1000781416413751 -0.074085224615521722 0 0.1247346350803711 -0.074266459761600179 0 0.12598729420095231 -0.059405489337742472 0 0.102539593931098 -0.054960012377771428 0 0.1000781416413751 -0.074085224615521722 0 0.12598729420095231 -0.059405489337742472 0 0.1000781416413751 -0.074085224615521722 0 0.1247346350803711 -0.074266459761600179 0 0.122178485592327 -0.095185389394827194 0 0.122178485592327 -0.095185389394827194 0 0.1202178099745039 -0.1128753539085957 0 0.13038573360593561 -0.1074214559370776 0 0.122178485592327 -0.095185389394827194 0 0.10462632680470051 -0.111781823244128 0 0.1202178099745039 -0.1128753539085957 0 0.092173721033759065 -0.092942158161045757 0 0.122178485592327 -0.095185389394827194 0 0.10462632680470051 -0.111781823244128 0 0.092173721033759065 -0.092942158161045757 0 0.122178485592327 -0.095185389394827194 0 0.088553992269041704 -0.1161724992285468 0 0.092173721033759065 -0.092942158161045757 0 0.10462632680470051 -0.111781823244128 0 0.093752669917462741 -0.130352948663398 0 0.088553992269041704 -0.1161724992285468 0 0.10462632680470051 -0.111781823244128 0 0.1206433177034321 -0.1276047896024104 0 0.10462632680470051 -0.111781823244128 0 0.1202178099745039 -0.1128753539085957 0 0.1206433177034321 -0.1276047896024104 0 0.1202178099745039 -0.1128753539085957 0 0.13219614793526371 -0.1198706582489745 0 0.1202178099745039 -0.1128753539085957 0 0.13219614793526371 -0.1198706582489745 0 0.13038573360593561 -0.1074214559370776 0 0.13219614793526371 -0.1198706582489745 0 0.14258326476043851 -0.1105004934459923 0 0.13038573360593561 -0.1074214559370776 0 0.13219614793526371 -0.1198706582489745 0 0.14551430292066059 -0.12415072041672701 0 0.14258326476043851 -0.1105004934459923 0 0.14258326476043851 -0.1105004934459923 0 0.149825294421812 -0.1165422456238631 0 0.15124146381947859 -0.10960781319802709 0 0.14551430292066059 -0.12415072041672701 0 0.14258326476043851 -0.1105004934459923 0 0.149825294421812 -0.1165422456238631 0 0.15124146381947859 -0.10960781319802709 0 0.15550036702153769 -0.10724483285135369 0 0.156642860201301 -0.1138764643456612 0 0.149825294421812 -0.1165422456238631 0 0.15124146381947859 -0.10960781319802709 0 0.156642860201301 -0.1138764643456612 0 0.149825294421812 -0.1165422456238631 0 0.15671540388469579 -0.1248661284275529 0 0.156642860201301 -0.1138764643456612 0 0.14551430292066059 -0.12415072041672701 0 0.149825294421812 -0.1165422456238631 0 0.15671540388469579 -0.1248661284275529 0 0.14258326476043851 -0.1105004934459923 0 0.15218325015089471 -0.097428620628609491 0 0.13038573360593561 -0.1074214559370776 0 0.15218325015089471 -0.097428620628609491 0 0.15283029863170611 -0.1010179843956225 0 0.16030981215469681 -0.1060734835701594 0 0.15218325015089471 -0.097428620628609491 0 0.15283029863170611 -0.1010179843956225 0 0.14258326476043851 -0.1105004934459923 0 0.15124146381947859 -0.10960781319802709 0 0.15283029863170611 -0.1010179843956225 0 0.15283029863170611 -0.1010179843956225 0 0.15550036702153769 -0.10724483285135369 0 0.16030981215469681 -0.1060734835701594 0 0.15124146381947859 -0.10960781319802709 0 0.15283029863170611 -0.1010179843956225 0 0.15550036702153769 -0.10724483285135369 0 0.14258326476043851 -0.1105004934459923 0 0.15218325015089471 -0.097428620628609491 0 0.15283029863170611 -0.1010179843956225 0 0.122178485592327 -0.095185389394827194 0 0.15218325015089471 -0.097428620628609491 0 0.13038573360593561 -0.1074214559370776 0 0.122178485592327 -0.095185389394827194 0 0.15218325015089471 -0.097428620628609491 0 0.122178485592327 -0.095185389394827194 0 0.15218325015089471 -0.097428620628609491 0 0.1368561999439234 -0.083086785617502823 0 0.1247346350803711 -0.074266459761600179 0 0.122178485592327 -0.095185389394827194 0 0.1368561999439234 -0.083086785617502823 0 0.1247346350803711 -0.074266459761600179 0 0.13021460028234111 -0.064597361856088026 0 0.13648221190471271 -0.070434018967795164 0 0.1247346350803711 -0.074266459761600179 0 0.13021460028234111 -0.064597361856088026 0 0.12598729420095231 -0.059405489337742472 0 0.1247346350803711 -0.074266459761600179 0 0.1368561999439234 -0.083086785617502823 0 0.13648221190471271 -0.070434018967795164 0 0.13021460028234111 -0.064597361856088026 0 0.13648221190471271 -0.070434018967795164 0 0.1361286120960607 -0.062046457586577092 0 0.13648221190471271 -0.070434018967795164 0 0.1361286120960607 -0.062046457586577092 0 0.14522158383173059 -0.058810258040755993 0 0.1487024169913112 -0.078119439334682989 0 0.1591924596505592 -0.086196749820062327 0 0.15808015511883769 -0.069449442823400737 0 0.1487024169913112 -0.078119439334682989 0 0.15808015511883769 -0.069449442823400737 0 0.14522158383173059 -0.058810258040755993 0 0.1487024169913112 -0.078119439334682989 0 0.14522158383173059 -0.058810258040755993 0 0.13648221190471271 -0.070434018967795164 0 0.1487024169913112 -0.078119439334682989 0 0.14522158383173059 -0.058810258040755993 0 0.1368561999439234 -0.083086785617502823 0 0.13648221190471271 -0.070434018967795164 0 0.1487024169913112 -0.078119439334682989 0 0.15808015511883769 -0.069449442823400737 0 0.14522158383173059 -0.058810258040755993 0 0.15218325015089471 -0.097428620628609491 0 0.1487024169913112 -0.078119439334682989 0 0.1591924596505592 -0.086196749820062327 0 0.15218325015089471 -0.097428620628609491 0 0.1487024169913112 -0.078119439334682989 0 0.15218325015089471 -0.097428620628609491 0 0.1368561999439234 -0.083086785617502823 0 0.1487024169913112 -0.078119439334682989 0 0.1591924596505592 -0.086196749820062327 0 0.17093872640594529 -0.080088627606045043 0 0.1701222935274847 -0.098769788373083908 0 0.17093872640594529 -0.080088627606045043 0 0.1701222935274847 -0.098769788373083908 0 0.1591924596505592 -0.086196749820062327 0 0.17093872640594529 -0.080088627606045043 0 0.15808015511883769 -0.069449442823400737 0 0.15808015511883769 -0.069449442823400737 0 0.16735775273976239 -0.066553928382566588 0 0.16223596831391371 -0.061620046157060598 0 0.15808015511883769 -0.069449442823400737 0 0.1552783027132589 -0.056822037556565647 0 0.16223596831391371 -0.061620046157060598 0 0.17093872640594529 -0.080088627606045043 0 0.15808015511883769 -0.069449442823400737 0 0.17093872640594529 -0.080088627606045043 0 0.15808015511883769 -0.069449442823400737 0 0.17114167195762819 -0.075444940932018867 0 0.15808015511883769 -0.069449442823400737 0 0.17114167195762819 -0.075444940932018867 0 0.16735775273976239 -0.066553928382566588 0 0.17093872640594529 -0.080088627606045043 0 0.17114167195762819 -0.075444940932018867 0 0.16735775273976239 -0.066553928382566588 0 0.17551723640639719 -0.06781890374503366 0 0.16971027594543309 -0.060943634025892091 0 0.17114167195762819 -0.075444940932018867 0 0.16735775273976239 -0.066553928382566588 0 0.17551723640639719 -0.06781890374503366 0 0.16735775273976239 -0.066553928382566588 0 0.16223596831391371 -0.061620046157060598 0 0.16971027594543309 -0.060943634025892091 0 0.17093872640594529 -0.080088627606045043 0 0.17114167195762819 -0.075444940932018867 0 0.1793993549597086 -0.075941492738388114 0 0.17114167195762819 -0.075444940932018867 0 0.17551723640639719 -0.06781890374503366 0 0.1793993549597086 -0.075941492738388114 0 0.1793993549597086 -0.075941492738388114 0 0.18312440696711549 -0.080812636428453904 0 0.18907887126890999 -0.076437943698516336 0 0.1793993549597086 -0.075941492738388114 0 0.1849739824476726 -0.06830556229337878 0 0.18907887126890999 -0.076437943698516336 0 0.17551723640639719 -0.06781890374503366 0 0.1793993549597086 -0.075941492738388114 0 0.1849739824476726 -0.06830556229337878 0 0.17551723640639719 -0.06781890374503366 0 0.1849739824476726 -0.06830556229337878 0 0.18014674194670641 -0.058245326709067902 0 0.17093872640594529 -0.080088627606045043 0 0.18609537537780349 -0.086545920110805225 0 0.18862953803428989 -0.09472600913673114 0 0.17093872640594529 -0.080088627606045043 0 0.18862953803428989 -0.09472600913673114 0 0.17093872640594529 -0.080088627606045043 0 0.1701222935274847 -0.098769788373083908 0 0.18862953803428989 -0.09472600913673114 0 0.17093872640594529 -0.080088627606045043 0 0.1793993549597086 -0.075941492738388114 0 0.18312440696711549 -0.080812636428453904 0 0.17093872640594529 -0.080088627606045043 0 0.18312440696711549 -0.080812636428453904 0 0.18609537537780349 -0.086545920110805225 0 0.18312440696711549 -0.080812636428453904 0 0.18970772040866041 -0.083047553800424043 0 0.18907887126890999 -0.076437943698516336 0 0.18312440696711549 -0.080812636428453904 0 0.18609537537780349 -0.086545920110805225 0 0.18970772040866041 -0.083047553800424043 0 0.1701222935274847 -0.098769788373083908 0 0.19146776374546909 -0.1003656291069529 0 0.17947976175320851 -0.1105709914944366 0 0.1701222935274847 -0.098769788373083908 0 0.19146776374546909 -0.1003656291069529 0 0.1701222935274847 -0.098769788373083908 0 0.19146776374546909 -0.1003656291069529 0 0.18862953803428989 -0.09472600913673114 0 0.17947976175320851 -0.1105709914944366 0 0.18709332633086589 -0.1240913853495033 0 0.1692356634090143 -0.1190571631482054 0 0.17947976175320851 -0.1105709914944366 0 0.18709332633086589 -0.1240913853495033 0 0.19146776374546909 -0.1003656291069529 0 0.17947976175320851 -0.1105709914944366 0 0.1692356634090143 -0.1190571631482054 0 0.1701222935274847 -0.098769788373083908 0 0.1692356634090143 -0.1190571631482054 0 0.15671540388469579 -0.1248661284275529 0 0.156642860201301 -0.1138764643456612 0 0.1692356634090143 -0.1190571631482054 0 0.156642860201301 -0.1138764643456612 0 0.16030981215469681 -0.1060734835701594 0 0.15218325015089471 -0.097428620628609491 0 0.1701222935274847 -0.098769788373083908 0 0.16030981215469681 -0.1060734835701594 0 0.15550036702153769 -0.10724483285135369 0 0.156642860201301 -0.1138764643456612 0 0.16030981215469681 -0.1060734835701594 0 0.1692356634090143 -0.1190571631482054 0 0.1701222935274847 -0.098769788373083908 0 0.16030981215469681 -0.1060734835701594 0 0.1692356634090143 -0.1190571631482054 0 0.1701222935274847 -0.098769788373083908 0 0.15218325015089471 -0.097428620628609491 0 0.1701222935274847 -0.098769788373083908 0 0.15218325015089471 -0.097428620628609491 0 0.1591924596505592 -0.086196749820062327 0 0.1701222935274847 -0.098769788373083908 0 0.14361256430973879 0.002177230718157321 0 0.15002083829511301 -0.013322051407406979 0 0.16115574966396809 -0.0040795532678909443 0 0.15002083829511301 -0.013322051407406979 0 0.15608362904857209 -0.027985735352689181 0 0.16115574966396809 -0.0040795532678909443 0 0.13647851187805399 0.002674839708144514 0 0.14592854983424211 -0.016718842565716121 0 0.14361256430973879 0.002177230718157321 0 0.13647851187805399 0.002674839708144514 0 0.14592854983424211 -0.016718842565716121 0 0.14361256430973879 0.002177230718157321 0 0.15002083829511301 -0.013322051407406979 0 0.14592854983424211 -0.016718842565716121 0 0.15002083829511301 -0.013322051407406979 0 0.16115574966396809 -0.0040795532678909443 0 0.15002083829511301 -0.013322051407406979 0 0.14592854983424211 -0.016718842565716121 0 0.14361256430973879 0.002177230718157321 0 0.15002083829511301 -0.013322051407406979 0 0.13647851187805399 0.002674839708144514 0 0.1351056269273356 -0.025702375664247101 0 0.13647851187805399 0.002674839708144514 0 0.12593102595036551 -0.017710786191869211 0 0.1351056269273356 -0.025702375664247101 0 0.13647851187805399 0.002674839708144514 0 0.13697567281582709 -0.013067821261945729 0 0.14592854983424211 -0.016718842565716121 0 0.13647851187805399 0.002674839708144514 0 0.12052097409862091 -0.0066076135460219889 0 0.12593102595036551 -0.017710786191869211 0 0.13647851187805399 0.002674839708144514 0 0.13697567281582709 -0.013067821261945729 0 0.1351056269273356 -0.025702375664247101 0 0.13697567281582709 -0.013067821261945729 0 0.13871344107047931 -0.022707720888724751 0 0.1351056269273356 -0.025702375664247101 0 0.13697567281582709 -0.013067821261945729 0 0.13871344107047931 -0.022707720888724751 0 0.13697567281582709 -0.013067821261945729 0 0.13871344107047931 -0.022707720888724751 0 0.14592854983424211 -0.016718842565716121 0 0.1351056269273356 -0.025702375664247101 0 0.12626478483700471 -0.033040688818699808 0 0.12593102595036551 -0.017710786191869211 0 0.1351056269273356 -0.025702375664247101 0 0.12626478483700471 -0.033040688818699808 0 0.1351056269273356 -0.025702375664247101 0 0.13479357101824829 -0.0321524993514287 0 0.12626478483700471 -0.033040688818699808 0 0.1351056269273356 -0.025702375664247101 0 0.13479357101824829 -0.0321524993514287 0 0.13871344107047931 -0.022707720888724751 0 0.1351056269273356 -0.025702375664247101 0 0.13479357101824829 -0.0321524993514287 0 0.13871344107047931 -0.022707720888724751 0 0.1351056269273356 -0.025702375664247101 0 0.13871344107047931 -0.022707720888724751 0 0.14853982427284659 -0.02886330999559528 0 0.14784459848348061 -0.037546900887996858 0 0.13871344107047931 -0.022707720888724751 0 0.1476122507537197 -0.020174189605372119 0 0.14853982427284659 -0.02886330999559528 0 0.13871344107047931 -0.022707720888724751 0 0.14592854983424211 -0.016718842565716121 0 0.13871344107047931 -0.022707720888724751 0 0.14592854983424211 -0.016718842565716121 0 0.1476122507537197 -0.020174189605372119 0 0.15002083829511301 -0.013322051407406979 0 0.14592854983424211 -0.016718842565716121 0 0.1476122507537197 -0.020174189605372119 0 0.14592854983424211 -0.016718842565716121 0 0.1476122507537197 -0.020174189605372119 0 0.15002083829511301 -0.013322051407406979 0 0.1476122507537197 -0.020174189605372119 0 0.15608362904857209 -0.027985735352689181 0 0.15002083829511301 -0.013322051407406979 0 0.15608362904857209 -0.027985735352689181 0 0.1476122507537197 -0.020174189605372119 0 0.14853982427284659 -0.02886330999559528 0 0.15608362904857209 -0.027985735352689181 0 0.14853982427284659 -0.02886330999559528 0 0.15608362904857209 -0.027985735352689181 0 0.15385139277350571 -0.035964446059686572 0 0.13871344107047931 -0.022707720888724751 0 0.14353646071789899 -0.049462396130732923 0 0.13871344107047931 -0.022707720888724751 0 0.14784459848348061 -0.037546900887996858 0 0.14353646071789899 -0.049462396130732923 0 0.14853982427284659 -0.02886330999559528 0 0.15385139277350571 -0.035964446059686572 0 0.14784459848348061 -0.037546900887996858 0 0.15385139277350571 -0.035964446059686572 0 0.15464249226059251 -0.042776864764182201 0 0.14784459848348061 -0.037546900887996858 0 0.15464249226059251 -0.042776864764182201 0 0.14838959359806769 -0.046712684198436313 0 0.14784459848348061 -0.037546900887996858 0 0.15464249226059251 -0.042776864764182201 0 0.14838959359806769 -0.046712684198436313 0 0.15502343082784339 -0.049447038210165613 0 0.14838959359806769 -0.046712684198436313 0 0.14784459848348061 -0.037546900887996858 0 0.14353646071789899 -0.049462396130732923 0 0.1159266908706026 -0.034571656998529682 0 0.1316704637345292 -0.040384474484378818 0 0.1378308112288906 -0.052695131122502077 0 0.13479357101824829 -0.0321524993514287 0 0.1316704637345292 -0.040384474484378818 0 0.14353646071789899 -0.049462396130732923 0 0.13871344107047931 -0.022707720888724751 0 0.13479357101824829 -0.0321524993514287 0 0.14353646071789899 -0.049462396130732923 0 0.1159266908706026 -0.034571656998529682 0 0.1378308112288906 -0.052695131122502077 0 0.13479357101824829 -0.0321524993514287 0 0.12626478483700471 -0.033040688818699808 0 0.1316704637345292 -0.040384474484378818 0 0.1316704637345292 -0.040384474484378818 0 0.1378308112288906 -0.052695131122502077 0 0.14353646071789899 -0.049462396130732923 0 0.1158000858203849 -0.049077722847754593 0 0.1378308112288906 -0.052695131122502077 0 0.12598729420095231 -0.059405489337742472 0 0.1378308112288906 -0.052695131122502077 0 0.12598729420095231 -0.059405489337742472 0 0.13277410357870431 -0.059730431486232992 0 0.1378308112288906 -0.052695131122502077 0 0.12598729420095231 -0.059405489337742472 0 0.13021460028234111 -0.064597361856088026 0 0.12598729420095231 -0.059405489337742472 0 0.13277410357870431 -0.059730431486232992 0 0.1378308112288906 -0.052695131122502077 0 0.1361286120960607 -0.062046457586577092 0 0.14522158383173059 -0.058810258040755993 0 0.13021460028234111 -0.064597361856088026 0 0.13277410357870431 -0.059730431486232992 0 0.1361286120960607 -0.062046457586577092 0 0.1378308112288906 -0.052695131122502077 0 0.13277410357870431 -0.059730431486232992 0 0.1361286120960607 -0.062046457586577092 0 0.1378308112288906 -0.052695131122502077 0 0.14522158383173059 -0.058810258040755993 0 0.14522158383173059 -0.058810258040755993 0 0.14353646071789899 -0.049462396130732923 0 0.1378308112288906 -0.052695131122502077 0 0.14353646071789899 -0.049462396130732923 0 0.1378308112288906 -0.052695131122502077 0 0.14522158383173059 -0.058810258040755993 0 0.14353646071789899 -0.049462396130732923 0 0.14522158383173059 -0.058810258040755993 0 0.14353646071789899 -0.049462396130732923 0 0.14944111700838039 -0.052584836439779938 0 0.14838959359806769 -0.046712684198436313 0 0.14353646071789899 -0.049462396130732923 0 0.14944111700838039 -0.052584836439779938 0 0.14838959359806769 -0.046712684198436313 0 0.14353646071789899 -0.049462396130732923 0 0.14838959359806769 -0.046712684198436313 0 0.14944111700838039 -0.052584836439779938 0 0.15502343082784339 -0.049447038210165613 0 0.14944111700838039 -0.052584836439779938 0 0.15502343082784339 -0.049447038210165613 0 0.1552783027132589 -0.056822037556565647 0 0.15808015511883769 -0.069449442823400737 0 0.14522158383173059 -0.058810258040755993 0 0.1552783027132589 -0.056822037556565647 0 0.14522158383173059 -0.058810258040755993 0 0.14944111700838039 -0.052584836439779938 0 0.1552783027132589 -0.056822037556565647 0 0.16970876591240949 -0.050952888381073869 0 0.16971027594543309 -0.060943634025892091 0 0.16214641980203651 -0.042649419297969227 0 0.16971027594543309 -0.060943634025892091 0 0.16214641980203651 -0.042649419297969227 0 0.16141534150433051 -0.045330509805278738 0 0.16971027594543309 -0.060943634025892091 0 0.16214641980203651 -0.042649419297969227 0 0.1552783027132589 -0.056822037556565647 0 0.16223596831391371 -0.061620046157060598 0 0.16075335505227631 -0.05433118799687793 0 0.16075335505227631 -0.05433118799687793 0 0.16971027594543309 -0.060943634025892091 0 0.16141534150433051 -0.045330509805278738 0 0.15502343082784339 -0.049447038210165613 0 0.1552783027132589 -0.056822037556565647 0 0.16075335505227631 -0.05433118799687793 0 0.15502343082784339 -0.049447038210165613 0 0.16075335505227631 -0.05433118799687793 0 0.16141534150433051 -0.045330509805278738 0 0.16223596831391371 -0.061620046157060598 0 0.16075335505227631 -0.05433118799687793 0 0.16971027594543309 -0.060943634025892091 0 0.16970876591240949 -0.050952888381073869 0 0.16971027594543309 -0.060943634025892091 0 0.18014674194670641 -0.058245326709067902 0 0.17551723640639719 -0.06781890374503366 0 0.16971027594543309 -0.060943634025892091 0 0.18014674194670641 -0.058245326709067902 0 0.18014674194670641 -0.058245326709067902 0 0.19142612742655679 -0.050869046812617558 0 0.19081558797001669 -0.060801207563941868 0 0.1849739824476726 -0.06830556229337878 0 0.18014674194670641 -0.058245326709067902 0 0.19081558797001669 -0.060801207563941868 0 0.18014674194670641 -0.058245326709067902 0 0.18163747253771351 -0.047657717431241677 0 0.19142612742655679 -0.050869046812617558 0 0.16970876591240949 -0.050952888381073869 0 0.18014674194670641 -0.058245326709067902 0 0.18163747253771351 -0.047657717431241677 0 0.16970876591240949 -0.050952888381073869 0 0.18163747253771351 -0.047657717431241677 0 0.17704494742207341 -0.038712545491342357 0 0.18163747253771351 -0.047657717431241677 0 0.18835877923919739 -0.036929678022132699 0 0.19142612742655679 -0.050869046812617558 0 0.18163747253771351 -0.047657717431241677 0 0.17704494742207341 -0.038712545491342357 0 0.18835877923919739 -0.036929678022132699 0 0.17704494742207341 -0.038712545491342357 0 0.17766208083157559 -0.027107701490644419 0 0.18835877923919739 -0.036929678022132699 0 0.17704494742207341 -0.038712545491342357 0 0.16576928611768341 -0.029363246642308639 0 0.17766208083157559 -0.027107701490644419 0 0.16970876591240949 -0.050952888381073869 0 0.16576928611768341 -0.029363246642308639 0 0.16970876591240949 -0.050952888381073869 0 0.17704494742207341 -0.038712545491342357 0 0.16576928611768341 -0.029363246642308639 0 0.16970876591240949 -0.050952888381073869 0 0.16214641980203651 -0.042649419297969227 0 0.16576928611768341 -0.029363246642308639 0 0.15385139277350571 -0.035964446059686572 0 0.15464249226059251 -0.042776864764182201 0 0.16214641980203651 -0.042649419297969227 0 0.16214641980203651 -0.042649419297969227 0 0.16141534150433051 -0.045330509805278738 0 0.15464249226059251 -0.042776864764182201 0 0.15502343082784339 -0.049447038210165613 0 0.16141534150433051 -0.045330509805278738 0 0.15464249226059251 -0.042776864764182201 0 0.16214641980203651 -0.042649419297969227 0 0.16141534150433051 -0.045330509805278738 0 0.15608362904857209 -0.027985735352689181 0 0.16214641980203651 -0.042649419297969227 0 0.15608362904857209 -0.027985735352689181 0 0.15385139277350571 -0.035964446059686572 0 0.16214641980203651 -0.042649419297969227 0 0.16214641980203651 -0.042649419297969227 0 0.16576928611768341 -0.029363246642308639 0 0.15608362904857209 -0.027985735352689181 0 0.16214641980203651 -0.042649419297969227 0 0.16576928611768341 -0.029363246642308639 0 0.16576928611768341 -0.029363246642308639 0 0.17089978454408811 -0.01054812017506152 0 0.16576928611768341 -0.029363246642308639 0 0.16115574966396809 -0.0040795532678909443 0 0.15608362904857209 -0.027985735352689181 0 0.16576928611768341 -0.029363246642308639 0 0.16115574966396809 -0.0040795532678909443 0 0.16576928611768341 -0.029363246642308639 0 0.17766208083157559 -0.027107701490644419 0 0.17089978454408811 -0.01054812017506152 0 0.17766208083157559 -0.027107701490644419 0 0.17089978454408811 -0.01054812017506152 0 0.18784739638966519 -0.020275203722913068 0 0.17766208083157559 -0.027107701490644419 0 0.18784739638966519 -0.020275203722913068 0 0.18835877923919739 -0.036929678022132699 0 0.1760302829704927 0.0082670062921855296 0 0.17089978454408811 -0.01054812017506152 0 0.1760302829704927 0.0082670062921855296 0 0.185053587794585 -0.0054068720776893706 0 0.17089978454408811 -0.01054812017506152 0 0.185053587794585 -0.0054068720776893706 0 0.17089978454408811 -0.01054812017506152 0 0.18784739638966519 -0.020275203722913068 0 0.16576928611768341 -0.029363246642308639 0 0.17089978454408811 -0.01054812017506152 0 0.16115574966396809 -0.0040795532678909443 0 0.1760302829704927 0.0082670062921855296 0 0.17089978454408811 -0.01054812017506152 0 0.16115574966396809 -0.0040795532678909443 0 0.21232693700930111 -0.0090221140349585841 0 0.21819340512724769 -0.021783158466771039 0 0.22539929913979101 -0.003291469267495586 0 0.21232693700930111 -0.0090221140349585841 0 0.19968136566923081 -0.0029061045851367742 0 0.20359702001630581 -0.019461354832719279 0 0.21511281489557749 0.002430141183518409 0 0.21232693700930111 -0.0090221140349585841 0 0.22539929913979101 -0.003291469267495586 0 0.21511281489557749 0.002430141183518409 0 0.21232693700930111 -0.0090221140349585841 0 0.19968136566923081 -0.0029061045851367742 0 0.19968136566923081 -0.0029061045851367742 0 0.18784739638966519 -0.020275203722913068 0 0.20359702001630581 -0.019461354832719279 0 0.185053587794585 -0.0054068720776893706 0 0.19968136566923081 -0.0029061045851367742 0 0.18784739638966519 -0.020275203722913068 0 0.18999820081430099 0.0061335227682539793 0 0.185053587794585 -0.0054068720776893706 0 0.19968136566923081 -0.0029061045851367742 0 0.18784739638966519 -0.020275203722913068 0 0.1990756022369056 -0.031014239651202379 0 0.20359702001630581 -0.019461354832719279 0 0.18784739638966519 -0.020275203722913068 0 0.1990756022369056 -0.031014239651202379 0 0.18835877923919739 -0.036929678022132699 0 0.20946677574562289 -0.03081515261736276 0 0.20359702001630581 -0.019461354832719279 0 0.21819340512724769 -0.021783158466771039 0 0.1990756022369056 -0.031014239651202379 0 0.20946677574562289 -0.03081515261736276 0 0.20359702001630581 -0.019461354832719279 0 0.21232693700930111 -0.0090221140349585841 0 0.20359702001630581 -0.019461354832719279 0 0.21819340512724769 -0.021783158466771039 0 0.20946677574562289 -0.03081515261736276 0 0.21819340512724769 -0.021783158466771039 0 0.21907390207896771 -0.037388305381253012 0 0.20946677574562289 -0.03081515261736276 0 0.20462272260730649 -0.043016434855235437 0 0.21907390207896771 -0.037388305381253012 0 0.20462272260730649 -0.043016434855235437 0 0.21559517653524299 -0.051563585440778333 0 0.21907390207896771 -0.037388305381253012 0 0.1990756022369056 -0.031014239651202379 0 0.20946677574562289 -0.03081515261736276 0 0.20462272260730649 -0.043016434855235437 0 0.20462272260730649 -0.043016434855235437 0 0.18835877923919739 -0.036929678022132699 0 0.19142612742655679 -0.050869046812617558 0 0.1990756022369056 -0.031014239651202379 0 0.20462272260730649 -0.043016434855235437 0 0.18835877923919739 -0.036929678022132699 0 0.20462272260730649 -0.043016434855235437 0 0.19142612742655679 -0.050869046812617558 0 0.20222447825315451 -0.056851418448328243 0 0.19142612742655679 -0.050869046812617558 0 0.19081558797001669 -0.060801207563941868 0 0.20222447825315451 -0.056851418448328243 0 0.19081558797001669 -0.060801207563941868 0 0.20222447825315451 -0.056851418448328243 0 0.19761632216105751 -0.069419416401335435 0 0.20222447825315451 -0.056851418448328243 0 0.21559517653524299 -0.051563585440778333 0 0.2123151622649119 -0.066132098783109883 0 0.20462272260730649 -0.043016434855235437 0 0.20222447825315451 -0.056851418448328243 0 0.21559517653524299 -0.051563585440778333 0 0.21559517653524299 -0.051563585440778333 0 0.22522399793514741 -0.06139418143638118 0 0.2123151622649119 -0.066132098783109883 0 0.21559517653524299 -0.051563585440778333 0 0.22522399793514741 -0.06139418143638118 0 0.2284550820951865 -0.04834526931520295 0 0.22522399793514741 -0.06139418143638118 0 0.2284550820951865 -0.04834526931520295 0 0.23854313041020189 -0.056797007950708467 0 0.25176466448051432 -0.052825527365289733 0 0.23854313041020189 -0.056797007950708467 0 0.2485243504590314 -0.062024440556852127 0 0.25176466448051432 -0.052825527365289733 0 0.23854313041020189 -0.056797007950708467 0 0.2416799475621732 -0.045103446460497139 0 0.25176466448051432 -0.052825527365289733 0 0.25247179156595462 -0.04401350787044235 0 0.2416799475621732 -0.045103446460497139 0 0.2284550820951865 -0.04834526931520295 0 0.23854313041020189 -0.056797007950708467 0 0.2416799475621732 -0.045103446460497139 0 0.2284550820951865 -0.04834526931520295 0 0.2416799475621732 -0.045103446460497139 0 0.23363966085441551 -0.036450879400170368 0 0.25247179156595462 -0.04401350787044235 0 0.2416799475621732 -0.045103446460497139 0 0.24520535596676671 -0.032188486861168993 0 0.2416799475621732 -0.045103446460497139 0 0.24520535596676671 -0.032188486861168993 0 0.23363966085441551 -0.036450879400170368 0 0.2284550820951865 -0.04834526931520295 0 0.23363966085441551 -0.036450879400170368 0 0.21907390207896771 -0.037388305381253012 0 0.21559517653524299 -0.051563585440778333 0 0.2284550820951865 -0.04834526931520295 0 0.21907390207896771 -0.037388305381253012 0 0.23363966085441551 -0.036450879400170368 0 0.21907390207896771 -0.037388305381253012 0 0.22603091200532011 -0.029172774641285409 0 0.21819340512724769 -0.021783158466771039 0 0.22603091200532011 -0.029172774641285409 0 0.23439358296595991 -0.020635795495830452 0 0.23363966085441551 -0.036450879400170368 0 0.22603091200532011 -0.029172774641285409 0 0.23439358296595991 -0.020635795495830452 0 0.21819340512724769 -0.021783158466771039 0 0.21907390207896771 -0.037388305381253012 0 0.22603091200532011 -0.029172774641285409 0 0.24520535596676671 -0.032188486861168993 0 0.23363966085441551 -0.036450879400170368 0 0.23439358296595991 -0.020635795495830452 0 0.25099995325346047 -0.01825638509775002 0 0.24520535596676671 -0.032188486861168993 0 0.23439358296595991 -0.020635795495830452 0 0.24746525984786619 0.0085428549208306503 0 0.24245823387105189 -0.0075585002598845168 0 0.22539929913979101 -0.003291469267495586 0 0.25099995325346047 -0.01825638509775002 0 0.23439358296595991 -0.020635795495830452 0 0.24245823387105189 -0.0075585002598845168 0 0.24746525984786619 0.0085428549208306503 0 0.2540330741481821 -0.0041517063591771696 0 0.24245823387105189 -0.0075585002598845168 0 0.25099995325346047 -0.01825638509775002 0 0.2540330741481821 -0.0041517063591771696 0 0.24245823387105189 -0.0075585002598845168 0 0.21819340512724769 -0.021783158466771039 0 0.23439358296595991 -0.020635795495830452 0 0.22539929913979101 -0.003291469267495586 0 0.23439358296595991 -0.020635795495830452 0 0.24245823387105189 -0.0075585002598845168 0 0.22539929913979101 -0.003291469267495586 0 0.21498516376663621 -0.1021238487444335 0 0.20708837036672079 -0.1224379186744594 0 0.19146776374546909 -0.1003656291069529 0 0.21498516376663621 -0.1021238487444335 0 0.19146776374546909 -0.1003656291069529 0 0.21498516376663621 -0.1021238487444335 0 0.20492383247343879 -0.094104390631210386 0 0.19146776374546909 -0.1003656291069529 0 0.21498516376663621 -0.1021238487444335 0 0.20708837036672079 -0.1224379186744594 0 0.21498516376663621 -0.1021238487444335 0 0.20708837036672079 -0.1224379186744594 0 0.21928360117796711 -0.11410390344543681 0 0.215395417535405 -0.1247831092238256 0 0.20708837036672079 -0.1224379186744594 0 0.21928360117796711 -0.11410390344543681 0 0.18709332633086589 -0.1240913853495033 0 0.20708837036672079 -0.1224379186744594 0 0.19146776374546909 -0.1003656291069529 0 0.18709332633086589 -0.1240913853495033 0 0.19146776374546909 -0.1003656291069529 0 0.20492383247343879 -0.094104390631210386 0 0.19146776374546909 -0.1003656291069529 0 0.198271336323085 -0.093319797400168131 0 0.1922323919572764 -0.096218494092707524 0 0.19159115049153599 -0.091791865039997436 0 0.198271336323085 -0.093319797400168131 0 0.1922323919572764 -0.096218494092707524 0 0.19146776374546909 -0.1003656291069529 0 0.198271336323085 -0.093319797400168131 0 0.1922323919572764 -0.096218494092707524 0 0.19146776374546909 -0.1003656291069529 0 0.1922323919572764 -0.096218494092707524 0 0.19146776374546909 -0.1003656291069529 0 0.18862953803428989 -0.09472600913673114 0 0.1922323919572764 -0.096218494092707524 0 0.18862953803428989 -0.09472600913673114 0 0.19159115049153599 -0.091791865039997436 0 0.18609537537780349 -0.086545920110805225 0 0.18862953803428989 -0.09472600913673114 0 0.19159115049153599 -0.091791865039997436 0 0.19159115049153599 -0.091791865039997436 0 0.19272711076522511 -0.088149104459575162 0 0.198271336323085 -0.093319797400168131 0 0.18609537537780349 -0.086545920110805225 0 0.19159115049153599 -0.091791865039997436 0 0.19272711076522511 -0.088149104459575162 0 0.18970772040866041 -0.083047553800424043 0 0.19751283766424799 -0.083292164304769586 0 0.18907887126890999 -0.076437943698516336 0 0.18609537537780349 -0.086545920110805225 0 0.19272711076522511 -0.088149104459575162 0 0.18970772040866041 -0.083047553800424043 0 0.19272711076522511 -0.088149104459575162 0 0.18970772040866041 -0.083047553800424043 0 0.19751283766424799 -0.083292164304769586 0 0.20492383247343879 -0.094104390631210386 0 0.19751283766424799 -0.083292164304769586 0 0.198271336323085 -0.093319797400168131 0 0.19272711076522511 -0.088149104459575162 0 0.19751283766424799 -0.083292164304769586 0 0.198271336323085 -0.093319797400168131 0 0.1849739824476726 -0.06830556229337878 0 0.19081558797001669 -0.060801207563941868 0 0.19761632216105751 -0.069419416401335435 0 0.19751283766424799 -0.083292164304769586 0 0.18907887126890999 -0.076437943698516336 0 0.19761632216105751 -0.069419416401335435 0 0.1849739824476726 -0.06830556229337878 0 0.18907887126890999 -0.076437943698516336 0 0.19761632216105751 -0.069419416401335435 0 0.19751283766424799 -0.083292164304769586 0 0.19761632216105751 -0.069419416401335435 0 0.20864596543287209 -0.081570124553313084 0 0.2123151622649119 -0.066132098783109883 0 0.20864596543287209 -0.081570124553313084 0 0.22510857026319089 -0.076081938175620339 0 0.20222447825315451 -0.056851418448328243 0 0.19761632216105751 -0.069419416401335435 0 0.2123151622649119 -0.066132098783109883 0 0.19761632216105751 -0.069419416401335435 0 0.2123151622649119 -0.066132098783109883 0 0.20864596543287209 -0.081570124553313084 0 0.21498516376663621 -0.1021238487444335 0 0.20492383247343879 -0.094104390631210386 0 0.20864596543287209 -0.081570124553313084 0 0.21498516376663621 -0.1021238487444335 0 0.20864596543287209 -0.081570124553313084 0 0.22510857026319089 -0.076081938175620339 0 0.20492383247343879 -0.094104390631210386 0 0.19751283766424799 -0.083292164304769586 0 0.20864596543287209 -0.081570124553313084 0 0.21498516376663621 -0.1021238487444335 0 0.22988189958123201 -0.091746460318814671 0 0.22510857026319089 -0.076081938175620339 0 0.22988189958123201 -0.091746460318814671 0 0.22510857026319089 -0.076081938175620339 0 0.24276161978024891 -0.085034825219369198 0 0.21498516376663621 -0.1021238487444335 0 0.22510857026319089 -0.076081938175620339 0 0.22522399793514741 -0.06139418143638118 0 0.2123151622649119 -0.066132098783109883 0 0.22510857026319089 -0.076081938175620339 0 0.22522399793514741 -0.06139418143638118 0 0.22510857026319089 -0.076081938175620339 0 0.2402529623272128 -0.070946777182671519 0 0.22510857026319089 -0.076081938175620339 0 0.2402529623272128 -0.070946777182671519 0 0.24276161978024891 -0.085034825219369198 0 0.22522399793514741 -0.06139418143638118 0 0.23854313041020189 -0.056797007950708467 0 0.2402529623272128 -0.070946777182671519 0 0.25147290036700071 -0.081915505751528714 0 0.25065970406686261 -0.073467612945337865 0 0.2402529623272128 -0.070946777182671519 0 0.25065970406686261 -0.073467612945337865 0 0.2485243504590314 -0.062024440556852127 0 0.2402529623272128 -0.070946777182671519 0 0.23854313041020189 -0.056797007950708467 0 0.2485243504590314 -0.062024440556852127 0 0.2402529623272128 -0.070946777182671519 0 0.22988189958123201 -0.091746460318814671 0 0.24276161978024891 -0.085034825219369198 0 0.2366722445148518 -0.10374522913583629 0 0.25147290036700071 -0.081915505751528714 0 0.2402529623272128 -0.070946777182671519 0 0.24276161978024891 -0.085034825219369198 0 0.25835932526306737 -0.1053666095272399 0 0.2366722445148518 -0.10374522913583629 0 0.25190825320178373 -0.094092801933563605 0 0.25835932526306737 -0.1053666095272399 0 0.2366722445148518 -0.10374522913583629 0 0.25190825320178373 -0.094092801933563605 0 0.24276161978024891 -0.085034825219369198 0 0.2366722445148518 -0.10374522913583629 0 0.25835932526306737 -0.1053666095272399 0 0.2366722445148518 -0.10374522913583629 0 0.24288030337081251 -0.1174706778130729 0 0.21498516376663621 -0.1021238487444335 0 0.22988189958123201 -0.091746460318814671 0 0.2366722445148518 -0.10374522913583629 0 0.21498516376663621 -0.1021238487444335 0 0.2366722445148518 -0.10374522913583629 0 0.21498516376663621 -0.1021238487444335 0 0.2366722445148518 -0.10374522913583629 0 0.21928360117796711 -0.11410390344543681 0 0.2366722445148518 -0.10374522913583629 0 0.21928360117796711 -0.11410390344543681 0 0.22797601232910911 -0.1216123792447968 0 0.215395417535405 -0.1247831092238256 0 0.21928360117796711 -0.11410390344543681 0 0.22797601232910911 -0.1216123792447968 0 0.22797601232910911 -0.1216123792447968 0 0.24288030337081251 -0.1174706778130729 0 0.2360485552349019 -0.12855953309823381 0 0.2366722445148518 -0.10374522913583629 0 0.22797601232910911 -0.1216123792447968 0 0.24288030337081251 -0.1174706778130729 0 0.25506258670690901 -0.12399732100774979 0 0.24288030337081251 -0.1174706778130729 0 0.2453101778497572 -0.1297840502599068 0 0.25176584815074948 -0.14262803248825939 0 0.2453101778497572 -0.1297840502599068 0 0.24457797348782229 -0.13844073465964671 0 0.2453101778497572 -0.1297840502599068 0 0.24457797348782229 -0.13844073465964671 0 0.23806800105774001 -0.13496178867890421 0 0.24457797348782229 -0.13844073465964671 0 0.23806800105774001 -0.13496178867890421 0 0.23421388654476991 -0.14095598509746551 0 0.2453101778497572 -0.1297840502599068 0 0.23806800105774001 -0.13496178867890421 0 0.2360485552349019 -0.12855953309823381 0 0.23806800105774001 -0.13496178867890421 0 0.2360485552349019 -0.12855953309823381 0 0.2293049680019621 -0.13292976042626931 0 0.24288030337081251 -0.1174706778130729 0 0.2453101778497572 -0.1297840502599068 0 0.2360485552349019 -0.12855953309823381 0 0.24231788049098391 -0.1530996084253301 0 0.24306940483891179 -0.1482252512358084 0 0.22535047957302981 -0.15962953424304571 0 0.25141789005461213 -0.1445944325488028 0 0.24231788049098391 -0.1530996084253301 0 0.24306940483891179 -0.1482252512358084 0 0.24231788049098391 -0.1530996084253301 0 0.24306940483891179 -0.1482252512358084 0 0.24457797348782229 -0.13844073465964671 0 0.24306940483891179 -0.1482252512358084 0 0.25176584815074948 -0.14262803248825939 0 0.24457797348782229 -0.13844073465964671 0 0.24306940483891179 -0.1482252512358084 0 0.25176584815074948 -0.14262803248825939 0 0.25141789005461213 -0.1445944325488028 0 0.24306940483891179 -0.1482252512358084 0 0.25559655317644719 -0.14345312535800109 0 0.24231788049098391 -0.1530996084253301 0 0.25559655317644719 -0.14345312535800109 0 0.25141789005461213 -0.1445944325488028 0 0.24231788049098391 -0.1530996084253301 0 0.25176584815074948 -0.14262803248825939 0 0.24306940483891179 -0.1482252512358084 0 0.24306940483891179 -0.1482252512358084 0 0.23421388654476991 -0.14095598509746551 0 0.22866547549919 -0.1481682463651133 0 0.24457797348782229 -0.13844073465964671 0 0.24306940483891179 -0.1482252512358084 0 0.23421388654476991 -0.14095598509746551 0 0.24306940483891179 -0.1482252512358084 0 0.22535047957302981 -0.15962953424304571 0 0.24306940483891179 -0.1482252512358084 0 0.22866547549919 -0.1481682463651133 0 0.22535047957302981 -0.15962953424304571 0 0.23421388654476991 -0.14095598509746551 0 0.22866547549919 -0.1481682463651133 0 0.2223347812567194 -0.14065844883927531 0 0.22866547549919 -0.1481682463651133 0 0.2223347812567194 -0.14065844883927531 0 0.21835882528251921 -0.1513720124099715 0 0.22866547549919 -0.1481682463651133 0 0.21835882528251921 -0.1513720124099715 0 0.22535047957302981 -0.15962953424304571 0 0.22797601232910911 -0.1216123792447968 0 0.2360485552349019 -0.12855953309823381 0 0.2293049680019621 -0.13292976042626931 0 0.23421388654476991 -0.14095598509746551 0 0.2223347812567194 -0.14065844883927531 0 0.2293049680019621 -0.13292976042626931 0 0.23806800105774001 -0.13496178867890421 0 0.23421388654476991 -0.14095598509746551 0 0.2293049680019621 -0.13292976042626931 0 0.2223347812567194 -0.14065844883927531 0 0.2293049680019621 -0.13292976042626931 0 0.22027301348548489 -0.1310749440614376 0 0.215395417535405 -0.1247831092238256 0 0.22797601232910911 -0.1216123792447968 0 0.22027301348548489 -0.1310749440614376 0 0.22797601232910911 -0.1216123792447968 0 0.2293049680019621 -0.13292976042626931 0 0.22027301348548489 -0.1310749440614376 0 0.215395417535405 -0.1247831092238256 0 0.22027301348548489 -0.1310749440614376 0 0.21304832756300099 -0.13559947477791329 0 0.215395417535405 -0.1247831092238256 0 0.2087255215243061 -0.12958514059854789 0 0.21304832756300099 -0.13559947477791329 0 0.20708837036672079 -0.1224379186744594 0 0.1991915769668037 -0.14275198860448471 0 0.20708837036672079 -0.1224379186744594 0 0.2087255215243061 -0.12958514059854789 0 0.1991915769668037 -0.14275198860448471 0 0.215395417535405 -0.1247831092238256 0 0.20708837036672079 -0.1224379186744594 0 0.2087255215243061 -0.12958514059854789 0 0.2087255215243061 -0.12958514059854789 0 0.21304832756300099 -0.13559947477791329 0 0.1991915769668037 -0.14275198860448471 0 0.2087255215243061 -0.12958514059854789 0 0.1991915769668037 -0.14275198860448471 0 0.2223347812567194 -0.14065844883927531 0 0.21304832756300099 -0.13559947477791329 0 0.21236965460928731 -0.14474321733990861 0 0.2223347812567194 -0.14065844883927531 0 0.22027301348548489 -0.1310749440614376 0 0.21304832756300099 -0.13559947477791329 0 0.21236965460928731 -0.14474321733990861 0 0.1991915769668037 -0.14275198860448471 0 0.20832857791557341 -0.15869455076035299 0 0.2223347812567194 -0.14065844883927531 0 0.21236965460928731 -0.14474321733990861 0 0.21835882528251921 -0.1513720124099715 0 0.21236965460928731 -0.14474321733990861 0 0.21835882528251921 -0.1513720124099715 0 0.20832857791557341 -0.15869455076035299 0 0.21304832756300099 -0.13559947477791329 0 0.21236965460928731 -0.14474321733990861 0 0.1991915769668037 -0.14275198860448471 0 0.1991915769668037 -0.14275198860448471 0 0.19192442837041071 -0.16144633165017611 0 0.20832857791557341 -0.15869455076035299 0 0.1991915769668037 -0.14275198860448471 0 0.1887680142342392 -0.15714744321954599 0 0.18271888891626989 -0.14781714159205511 0 0.1991915769668037 -0.14275198860448471 0 0.19192442837041071 -0.16144633165017611 0 0.1887680142342392 -0.15714744321954599 0 0.1991915769668037 -0.14275198860448471 0 0.19192442837041071 -0.16144633165017611 0 0.1991915769668037 -0.14275198860448471 0 0.1887680142342392 -0.15714744321954599 0 0.18709332633086589 -0.1240913853495033 0 0.1991915769668037 -0.14275198860448471 0 0.18271888891626989 -0.14781714159205511 0 0.18709332633086589 -0.1240913853495033 0 0.20708837036672079 -0.1224379186744594 0 0.1991915769668037 -0.14275198860448471 0 0.19569056433370621 -0.18697269396938879 0 0.19741478864852219 -0.17107254665676211 0 0.18465727977401941 -0.18014067469586831 0 0.19569056433370621 -0.18697269396938879 0 0.19741478864852219 -0.17107254665676211 0 0.20510953832753681 -0.171693985645966 0 0.19741478864852219 -0.17107254665676211 0 0.18465727977401941 -0.18014067469586831 0 0.19192442837041071 -0.16144633165017611 0 0.18465727977401941 -0.18014067469586831 0 0.19192442837041071 -0.16144633165017611 0 0.19741478864852219 -0.17107254665676211 0 0.18465727977401941 -0.18014067469586831 0 0.19192442837041071 -0.16144633165017611 0 0.19741478864852219 -0.17107254665676211 0 0.20832857791557341 -0.15869455076035299 0 0.20832857791557341 -0.15869455076035299 0 0.22535047957302981 -0.15962953424304571 0 0.21900422241234541 -0.1700361511973599 0 0.19741478864852219 -0.17107254665676211 0 0.20510953832753681 -0.171693985645966 0 0.20832857791557341 -0.15869455076035299 0 0.20510953832753681 -0.171693985645966 0 0.20832857791557341 -0.15869455076035299 0 0.21900422241234541 -0.1700361511973599 0 0.21835882528251921 -0.1513720124099715 0 0.20832857791557341 -0.15869455076035299 0 0.22535047957302981 -0.15962953424304571 0 0.19569056433370621 -0.18697269396938879 0 0.21900422241234541 -0.1700361511973599 0 0.2193213409883279 -0.19401441713020709 0 0.19569056433370621 -0.18697269396938879 0 0.21900422241234541 -0.1700361511973599 0 0.19569056433370621 -0.18697269396938879 0 0.20510953832753681 -0.171693985645966 0 0.21900422241234541 -0.1700361511973599 0 0.21900422241234541 -0.1700361511973599 0 0.23846427268442899 -0.1780939562055748 0 0.2193213409883279 -0.19401441713020709 0 0.24231788049098391 -0.1530996084253301 0 0.21900422241234541 -0.1700361511973599 0 0.24231788049098391 -0.1530996084253301 0 0.21900422241234541 -0.1700361511973599 0 0.23846427268442899 -0.1780939562055748 0 0.24231788049098391 -0.1530996084253301 0 0.22535047957302981 -0.15962953424304571 0 0.21900422241234541 -0.1700361511973599 0 0.25227843415052947 -0.17040338943778449 0 0.2536205121116894 -0.15529966459265671 0 0.24231788049098391 -0.1530996084253301 0 0.25227843415052947 -0.17040338943778449 0 0.24231788049098391 -0.1530996084253301 0 0.23846427268442899 -0.1780939562055748 0 0.24231788049098391 -0.1530996084253301 0 0.23846427268442899 -0.1780939562055748 0 0.25910563198202208 -0.1916843197808239 0 0.25227843415052947 -0.17040338943778449 0 0.23846427268442899 -0.1780939562055748 0 0.25910563198202208 -0.1916843197808239 0 0.23846427268442899 -0.1780939562055748 0 0.2346106648778758 -0.2030883039858197 0 0.25251779905789978 -0.2079424461389496 0 0.25910563198202208 -0.1916843197808239 0 0.2346106648778758 -0.2030883039858197 0 0.23846427268442899 -0.1780939562055748 0 0.2346106648778758 -0.2030883039858197 0 0.2346106648778758 -0.2030883039858197 0 0.2450380159957985 -0.21752151142907489 0 0.23075705707132249 -0.2280826517660646 0 0.25251779905789978 -0.2079424461389496 0 0.2346106648778758 -0.2030883039858197 0 0.2450380159957985 -0.21752151142907489 0 0.2346106648778758 -0.2030883039858197 0 0.2212350981707383 -0.21442415339449419 0 0.2193213409883279 -0.19401441713020709 0 0.2346106648778758 -0.2030883039858197 0 0.23075705707132249 -0.2280826517660646 0 0.2346106648778758 -0.2030883039858197 0 0.2212350981707383 -0.21442415339449419 0 0.23075705707132249 -0.2280826517660646 0 0.23846427268442899 -0.1780939562055748 0 0.2346106648778758 -0.2030883039858197 0 0.2193213409883279 -0.19401441713020709 0 0.25219264821724702 -0.22659446127978849 0 0.23706227252860421 -0.25092717962419769 0 0.25219264821724702 -0.22659446127978849 0 0.23706227252860421 -0.25092717962419769 0 0.22885210697730399 -0.23650641758105601 0 0.256245679646319 -0.24611908193733029 0 0.25219264821724702 -0.22659446127978849 0 0.23706227252860421 -0.25092717962419769 0 0.25219264821724702 -0.22659446127978849 0 0.2450380159957985 -0.21752151142907489 0 0.23075705707132249 -0.2280826517660646 0 0.25219264821724702 -0.22659446127978849 0 0.23075705707132249 -0.2280826517660646 0 0.22885210697730399 -0.23650641758105601 0 0.25219264821724702 -0.22659446127978849 0 0.22885210697730399 -0.23650641758105601 0 0.2212350981707383 -0.21442415339449419 0 0.23075705707132249 -0.2280826517660646 0 0.2153492284381493 -0.22697181734637151 0 0.23075705707132249 -0.2280826517660646 0 0.22885210697730399 -0.23650641758105601 0 0.2153492284381493 -0.22697181734637151 0 0.2222054989257623 -0.25141229414652078 0 0.22885210697730399 -0.23650641758105601 0 0.20551156573736071 -0.24641837388232249 0 0.23706227252860421 -0.25092717962419769 0 0.2222054989257623 -0.25141229414652078 0 0.22885210697730399 -0.23650641758105601 0 0.22885210697730399 -0.23650641758105601 0 0.20551156573736071 -0.24641837388232249 0 0.2153492284381493 -0.22697181734637151 0 0.22885210697730399 -0.23650641758105601 0 0.20551156573736071 -0.24641837388232249 0 0.20551156573736071 -0.24641837388232249 0 0.2153492284381493 -0.22697181734637151 0 0.20066448112578639 -0.2255766984459118 0 0.2153492284381493 -0.22697181734637151 0 0.20066448112578639 -0.2255766984459118 0 0.2069232234508728 -0.21147124402860551 0 0.20551156573736071 -0.24641837388232249 0 0.20066448112578639 -0.2255766984459118 0 0.1865353737975512 -0.2307372029529412 0 0.20066448112578639 -0.2255766984459118 0 0.1890030142049981 -0.2122848540193186 0 0.1865353737975512 -0.2307372029529412 0 0.18217102449741759 -0.25633033018358897 0 0.20551156573736071 -0.24641837388232249 0 0.1844209718526682 -0.24354532372405019 0 0.20551156573736071 -0.24641837388232249 0 0.1844209718526682 -0.24354532372405019 0 0.1865353737975512 -0.2307372029529412 0 0.19569056433370621 -0.18697269396938879 0 0.2193213409883279 -0.19401441713020709 0 0.2069232234508728 -0.21147124402860551 0 0.2212350981707383 -0.21442415339449419 0 0.2193213409883279 -0.19401441713020709 0 0.2069232234508728 -0.21147124402860551 0 0.2212350981707383 -0.21442415339449419 0 0.2153492284381493 -0.22697181734637151 0 0.2069232234508728 -0.21147124402860551 0 0.19569056433370621 -0.18697269396938879 0 0.2069232234508728 -0.21147124402860551 0 0.1890030142049981 -0.2122848540193186 0 0.20066448112578639 -0.2255766984459118 0 0.2069232234508728 -0.21147124402860551 0 0.1890030142049981 -0.2122848540193186 0 0.19569056433370621 -0.18697269396938879 0 0.17237690625506649 -0.2039092367414167 0 0.17237690625506649 -0.2039092367414167 0 0.17556804554068489 -0.18660136703135141 0 0.17854839690839641 -0.19585544237965549 0 0.18465727977401941 -0.18014067469586831 0 0.17556804554068489 -0.18660136703135141 0 0.17854839690839641 -0.19585544237965549 0 0.17237690625506649 -0.2039092367414167 0 0.17556804554068489 -0.18660136703135141 0 0.19569056433370621 -0.18697269396938879 0 0.17854839690839641 -0.19585544237965549 0 0.17237690625506649 -0.2039092367414167 0 0.19569056433370621 -0.18697269396938879 0 0.17854839690839641 -0.19585544237965549 0 0.18465727977401941 -0.18014067469586831 0 0.17854839690839641 -0.19585544237965549 0 0.18465727977401941 -0.18014067469586831 0 0.19569056433370621 -0.18697269396938879 0 0.1890030142049981 -0.2122848540193186 0 0.17237690625506649 -0.2039092367414167 0 0.1890030142049981 -0.2122848540193186 0 0.17896275609567161 -0.21873206482492591 0 0.17237690625506649 -0.2039092367414167 0 0.17896275609567161 -0.21873206482492591 0 0.17237690625506649 -0.2039092367414167 0 0.16793573012506979 -0.2279969655860262 0 0.1650040282807079 -0.2092653701609129 0 0.16207819984221261 -0.1961900452932995 0 0.14858835414374141 -0.2057787235552494 0 0.17237690625506649 -0.2039092367414167 0 0.1650040282807079 -0.2092653701609129 0 0.17237690625506649 -0.2039092367414167 0 0.16793573012506979 -0.2279969655860262 0 0.17237690625506649 -0.2039092367414167 0 0.1650040282807079 -0.2092653701609129 0 0.16793573012506979 -0.2279969655860262 0 0.17237690625506649 -0.2039092367414167 0 0.16207819984221261 -0.1961900452932995 0 0.17556804554068489 -0.18660136703135141 0 0.16207819984221261 -0.1961900452932995 0 0.16389868659991999 -0.19149321217131371 0 0.1571815115646297 -0.1835844944736838 0 0.16207819984221261 -0.1961900452932995 0 0.16389868659991999 -0.19149321217131371 0 0.17556804554068489 -0.18660136703135141 0 0.16207819984221261 -0.1961900452932995 0 0.17556804554068489 -0.18660136703135141 0 0.17237690625506649 -0.2039092367414167 0 0.1650040282807079 -0.2092653701609129 0 0.16207819984221261 -0.1961900452932995 0 0.1865353737975512 -0.2307372029529412 0 0.16793573012506979 -0.2279969655860262 0 0.17168713556925899 -0.24606882660282231 0 0.18217102449741759 -0.25633033018358897 0 0.1844209718526682 -0.24354532372405019 0 0.17168713556925899 -0.24606882660282231 0 0.1844209718526682 -0.24354532372405019 0 0.1865353737975512 -0.2307372029529412 0 0.17168713556925899 -0.24606882660282231 0 0.1865353737975512 -0.2307372029529412 0 0.17168713556925899 -0.24606882660282231 0 0.1890030142049981 -0.2122848540193186 0 0.17896275609567161 -0.21873206482492591 0 0.1865353737975512 -0.2307372029529412 0 0.17896275609567161 -0.21873206482492591 0 0.1865353737975512 -0.2307372029529412 0 0.16793573012506979 -0.2279969655860262 0 0.1650040282807079 -0.2092653701609129 0 0.16793573012506979 -0.2279969655860262 0 0.1550870361619153 -0.21916237856871951 0 0.16793573012506979 -0.2279969655860262 0 0.1554359792567036 -0.23321831622581601 0 0.1550870361619153 -0.21916237856871951 0 0.1634945539950747 -0.25208469443063591 0 0.16793573012506979 -0.2279969655860262 0 0.1554359792567036 -0.23321831622581601 0 0.1634945539950747 -0.25208469443063591 0 0.16793573012506979 -0.2279969655860262 0 0.1634945539950747 -0.25208469443063591 0 0.16793573012506979 -0.2279969655860262 0 0.17168713556925899 -0.24606882660282231 0 0.1634945539950747 -0.25208469443063591 0 0.1491671577808075 -0.24274933093213399 0 0.1554359792567036 -0.23321831622581601 0 0.1491671577808075 -0.24274933093213399 0 0.1414954182206499 -0.2240982116115641 0 0.13384896677918601 -0.2438473080892388 0 0.14226907622085039 -0.25665111951193009 0 0.1491671577808075 -0.24274933093213399 0 0.13384896677918601 -0.2438473080892388 0 0.1491671577808075 -0.24274933093213399 0 0.1554359792567036 -0.23321831622581601 0 0.1414954182206499 -0.2240982116115641 0 0.1491671577808075 -0.24274933093213399 0 0.1414954182206499 -0.2240982116115641 0 0.1554359792567036 -0.23321831622581601 0 0.1550870361619153 -0.21916237856871951 0 0.1414954182206499 -0.2240982116115641 0 0.1414954182206499 -0.2240982116115641 0 0.12784762921016379 -0.23071813566463911 0 0.13384896677918601 -0.2438473080892388 0 0.1414954182206499 -0.2240982116115641 0 0.13384896677918601 -0.2438473080892388 0 0.1414954182206499 -0.2240982116115641 0 0.13726945491784359 -0.21382427762476841 0 0.1414954182206499 -0.2240982116115641 0 0.1341522635141488 -0.2160399994439087 0 0.12934497932981689 -0.21739146532378481 0 0.1414954182206499 -0.2240982116115641 0 0.1263330395909652 -0.22137451192945309 0 0.12784762921016379 -0.23071813566463911 0 0.1414954182206499 -0.2240982116115641 0 0.1263330395909652 -0.22137451192945309 0 0.12934497932981689 -0.21739146532378481 0 0.11895464661316579 -0.25072187298028797 0 0.12784762921016379 -0.23071813566463911 0 0.13384896677918601 -0.2438473080892388 0 0.16207819984221261 -0.1961900452932995 0 0.14858835414374141 -0.2057787235552494 0 0.1571815115646297 -0.1835844944736838 0 0.14386994519882121 -0.19082616179272241 0 0.14858835414374141 -0.2057787235552494 0 0.1571815115646297 -0.1835844944736838 0 0.14858835414374141 -0.2057787235552494 0 0.1571815115646297 -0.1835844944736838 0 0.14386994519882121 -0.19082616179272241 0 0.14858835414374141 -0.2057787235552494 0 0.1397588982684386 -0.20122439726537009 0 0.16207819984221261 -0.1961900452932995 0 0.14858835414374141 -0.2057787235552494 0 0.1650040282807079 -0.2092653701609129 0 0.1550870361619153 -0.21916237856871951 0 0.14858835414374141 -0.2057787235552494 0 0.1414954182206499 -0.2240982116115641 0 0.14858835414374141 -0.2057787235552494 0 0.13726945491784359 -0.21382427762476841 0 0.1414954182206499 -0.2240982116115641 0 0.14858835414374141 -0.2057787235552494 0 0.1550870361619153 -0.21916237856871951 0 0.1414954182206499 -0.2240982116115641 0 0.14858835414374141 -0.2057787235552494 0 0.14858835414374141 -0.2057787235552494 0 0.13726945491784359 -0.21382427762476841 0 0.1397588982684386 -0.20122439726537009 0 0.14858835414374141 -0.2057787235552494 0 0.13726945491784359 -0.21382427762476841 0 0.13726945491784359 -0.21382427762476841 0 0.12930783881334909 -0.19446842608874171 0 0.12138945923594451 -0.203631558129896 0 0.1293357939972053 -0.21239783369108881 0 0.12930783881334909 -0.19446842608874171 0 0.13726945491784359 -0.21382427762476841 0 0.1397588982684386 -0.20122439726537009 0 0.12930783881334909 -0.19446842608874171 0 0.13726945491784359 -0.21382427762476841 0 0.1293357939972053 -0.21239783369108881 0 0.12930783881334909 -0.19446842608874171 0 0.1414954182206499 -0.2240982116115641 0 0.13726945491784359 -0.21382427762476841 0 0.1341522635141488 -0.2160399994439087 0 0.13726945491784359 -0.21382427762476841 0 0.1341522635141488 -0.2160399994439087 0 0.1293357939972053 -0.21239783369108881 0 0.13726945491784359 -0.21382427762476841 0 0.1341522635141488 -0.2160399994439087 0 0.1263330395909652 -0.22137451192945309 0 0.12934497932981689 -0.21739146532378481 0 0.1293357939972053 -0.21239783369108881 0 0.1341522635141488 -0.2160399994439087 0 0.12934497932981689 -0.21739146532378481 0 0.1293357939972053 -0.21239783369108881 0 0.14386994519882121 -0.19082616179272241 0 0.1397588982684386 -0.20122439726537009 0 0.12930783881334909 -0.19446842608874171 0 0.14386994519882121 -0.19082616179272241 0 0.12930783881334909 -0.19446842608874171 0 0.13706605049635431 -0.1799619052883058 0 0.1213462227088546 -0.17511257455271501 0 0.13706605049635431 -0.1799619052883058 0 0.13157192721459271 -0.16987146461401559 0 0.1213462227088546 -0.17511257455271501 0 0.12930783881334909 -0.19446842608874171 0 0.1213462227088546 -0.17511257455271501 0 0.12930783881334909 -0.19446842608874171 0 0.13706605049635431 -0.1799619052883058 0 0.13706605049635431 -0.1799619052883058 0 0.1461397245945632 -0.1686506220179618 0 0.13157192721459271 -0.16987146461401559 0 0.14386994519882121 -0.19082616179272241 0 0.13706605049635431 -0.1799619052883058 0 0.14856365411290409 -0.1788762280064036 0 0.13706605049635431 -0.1799619052883058 0 0.14856365411290409 -0.1788762280064036 0 0.1461397245945632 -0.1686506220179618 0 0.14856365411290409 -0.1788762280064036 0 0.1571815115646297 -0.1835844944736838 0 0.15856103871015181 -0.1713579564593441 0 0.14856365411290409 -0.1788762280064036 0 0.1461397245945632 -0.1686506220179618 0 0.15856103871015181 -0.1713579564593441 0 0.14386994519882121 -0.19082616179272241 0 0.14856365411290409 -0.1788762280064036 0 0.1571815115646297 -0.1835844944736838 0 0.1489429190034357 -0.15714001933556099 0 0.15990347929834789 -0.15509900703282459 0 0.15716047280605819 -0.16275026311186649 0 0.1489429190034357 -0.15714001933556099 0 0.1461397245945632 -0.1686506220179618 0 0.15716047280605819 -0.16275026311186649 0 0.1461397245945632 -0.1686506220179618 0 0.15856103871015181 -0.1713579564593441 0 0.15716047280605819 -0.16275026311186649 0 0.1489429190034357 -0.15714001933556099 0 0.1461397245945632 -0.1686506220179618 0 0.1389925149372343 -0.1612162659943715 0 0.1489429190034357 -0.15714001933556099 0 0.1389925149372343 -0.1612162659943715 0 0.13788728918636201 -0.15099226319448009 0 0.1389925149372343 -0.1612162659943715 0 0.13157192721459271 -0.16987146461401559 0 0.13042071468721811 -0.1594269608098392 0 0.1389925149372343 -0.1612162659943715 0 0.13042071468721811 -0.1594269608098392 0 0.13788728918636201 -0.15099226319448009 0 0.1461397245945632 -0.1686506220179618 0 0.1389925149372343 -0.1612162659943715 0 0.13157192721459271 -0.16987146461401559 0 0.11811695268855479 -0.16220582295012551 0 0.13157192721459271 -0.16987146461401559 0 0.13042071468721811 -0.1594269608098392 0 0.1234005852276296 -0.14771089094059309 0 0.13042071468721811 -0.1594269608098392 0 0.13788728918636201 -0.15099226319448009 0 0.1234005852276296 -0.14771089094059309 0 0.13788728918636201 -0.15099226319448009 0 0.1345850191808067 -0.1358936965814854 0 0.13788728918636201 -0.15099226319448009 0 0.1345850191808067 -0.1358936965814854 0 0.14613847691443169 -0.14229739535750349 0 0.13219614793526371 -0.1198706582489745 0 0.14551430292066059 -0.12415072041672701 0 0.1345850191808067 -0.1358936965814854 0 0.1206433177034321 -0.1276047896024104 0 0.1234005852276296 -0.14771089094059309 0 0.1345850191808067 -0.1358936965814854 0 0.1206433177034321 -0.1276047896024104 0 0.13219614793526371 -0.1198706582489745 0 0.1345850191808067 -0.1358936965814854 0 0.14551430292066059 -0.12415072041672701 0 0.15537612369376999 -0.13670422300727211 0 0.14613847691443169 -0.14229739535750349 0 0.14551430292066059 -0.12415072041672701 0 0.1345850191808067 -0.1358936965814854 0 0.14613847691443169 -0.14229739535750349 0 0.14551430292066059 -0.12415072041672701 0 0.15671540388469579 -0.1248661284275529 0 0.15537612369376999 -0.13670422300727211 0 0.1489429190034357 -0.15714001933556099 0 0.13788728918636201 -0.15099226319448009 0 0.14613847691443169 -0.14229739535750349 0 0.15537612369376999 -0.13670422300727211 0 0.14613847691443169 -0.14229739535750349 0 0.1545252075015553 -0.14890344960949581 0 0.1489429190034357 -0.15714001933556099 0 0.14613847691443169 -0.14229739535750349 0 0.1545252075015553 -0.14890344960949581 0 0.1489429190034357 -0.15714001933556099 0 0.1545252075015553 -0.14890344960949581 0 0.15990347929834789 -0.15509900703282459 0 0.16834903329054349 -0.13934453792332691 0 0.16746240317207259 -0.1596319126984484 0 0.16834903329054349 -0.13934453792332691 0 0.17194678016621859 -0.14966483402748171 0 0.16746240317207259 -0.1596319126984484 0 0.15990347929834789 -0.15509900703282459 0 0.16112324939125791 -0.1479366260542736 0 0.16746240317207259 -0.1596319126984484 0 0.16112324939125791 -0.1479366260542736 0 0.16834903329054349 -0.13934453792332691 0 0.16746240317207259 -0.1596319126984484 0 0.1545252075015553 -0.14890344960949581 0 0.15990347929834789 -0.15509900703282459 0 0.16112324939125791 -0.1479366260542736 0 0.15537612369376999 -0.13670422300727211 0 0.16112324939125791 -0.1479366260542736 0 0.16834903329054349 -0.13934453792332691 0 0.15537612369376999 -0.13670422300727211 0 0.1545252075015553 -0.14890344960949581 0 0.16112324939125791 -0.1479366260542736 0 0.1692356634090143 -0.1190571631482054 0 0.16834903329054349 -0.13934453792332691 0 0.1692356634090143 -0.1190571631482054 0 0.15671540388469579 -0.1248661284275529 0 0.16834903329054349 -0.13934453792332691 0 0.15671540388469579 -0.1248661284275529 0 0.15537612369376999 -0.13670422300727211 0 0.16834903329054349 -0.13934453792332691 0 0.18709332633086589 -0.1240913853495033 0 0.16834903329054349 -0.13934453792332691 0 0.18271888891626989 -0.14781714159205511 0 0.18709332633086589 -0.1240913853495033 0 0.18271888891626989 -0.14781714159205511 0 0.18709332633086589 -0.1240913853495033 0 0.1692356634090143 -0.1190571631482054 0 0.16834903329054349 -0.13934453792332691 0 0.17194678016621859 -0.14966483402748171 0 0.18271888891626989 -0.14781714159205511 0 0.17171230031188159 -0.1631498425584518 0 0.16834903329054349 -0.13934453792332691 0 0.17194678016621859 -0.14966483402748171 0 0.18271888891626989 -0.14781714159205511 0 0.19192442837041071 -0.16144633165017611 0 0.1887680142342392 -0.15714744321954599 0 0.17834445150167411 -0.17154289783460691 0 0.19192442837041071 -0.16144633165017611 0 0.17834445150167411 -0.17154289783460691 0 0.18465727977401941 -0.18014067469586831 0 0.18271888891626989 -0.14781714159205511 0 0.17834445150167411 -0.17154289783460691 0 0.17171230031188159 -0.1631498425584518 0 0.18271888891626989 -0.14781714159205511 0 0.17834445150167411 -0.17154289783460691 0 0.1887680142342392 -0.15714744321954599 0 0.18271888891626989 -0.14781714159205511 0 0.17834445150167411 -0.17154289783460691 0 0.17834445150167411 -0.17154289783460691 0 0.1676084175364991 -0.17609089437759939 0 0.17171230031188159 -0.1631498425584518 0 0.1887680142342392 -0.15714744321954599 0 0.17834445150167411 -0.17154289783460691 0 0.16389868659991999 -0.19149321217131371 0 0.17834445150167411 -0.17154289783460691 0 0.17556804554068489 -0.18660136703135141 0 0.18465727977401941 -0.18014067469586831 0 0.17556804554068489 -0.18660136703135141 0 0.17834445150167411 -0.17154289783460691 0 0.17556804554068489 -0.18660136703135141 0 0.17834445150167411 -0.17154289783460691 0 0.18465727977401941 -0.18014067469586831 0 0.17556804554068489 -0.18660136703135141 0 0.1571815115646297 -0.1835844944736838 0 0.15856103871015181 -0.1713579564593441 0 0.16577466898551679 -0.1613902653921177 0 0.1571815115646297 -0.1835844944736838 0 0.16577466898551679 -0.1613902653921177 0 0.16389868659991999 -0.19149321217131371 0 0.17834445150167411 -0.17154289783460691 0 0.1676084175364991 -0.17609089437759939 0 0.16389868659991999 -0.19149321217131371 0 0.17834445150167411 -0.17154289783460691 0 0.1571815115646297 -0.1835844944736838 0 0.16577466898551679 -0.1613902653921177 0 0.1655692245996318 -0.1710538742004632 0 0.16389868659991999 -0.19149321217131371 0 0.1676084175364991 -0.17609089437759939 0 0.1571815115646297 -0.1835844944736838 0 0.1676084175364991 -0.17609089437759939 0 0.1571815115646297 -0.1835844944736838 0 0.1655692245996318 -0.1710538742004632 0 0.15856103871015181 -0.1713579564593441 0 0.16098390876922161 -0.16405746863549481 0 0.16577466898551679 -0.1613902653921177 0 0.15856103871015181 -0.1713579564593441 0 0.15716047280605819 -0.16275026311186649 0 0.16098390876922161 -0.16405746863549481 0 0.15990347929834789 -0.15509900703282459 0 0.15716047280605819 -0.16275026311186649 0 0.16243945457515971 -0.16073138957865071 0 0.15990347929834789 -0.15509900703282459 0 0.16243945457515971 -0.16073138957865071 0 0.16746240317207259 -0.1596319126984484 0 0.16243945457515971 -0.16073138957865071 0 0.16098390876922161 -0.16405746863549481 0 0.16577466898551679 -0.1613902653921177 0 0.15716047280605819 -0.16275026311186649 0 0.16243945457515971 -0.16073138957865071 0 0.16098390876922161 -0.16405746863549481 0 0.16243945457515971 -0.16073138957865071 0 0.16577466898551679 -0.1613902653921177 0 0.16746240317207259 -0.1596319126984484 0 0.17194678016621859 -0.14966483402748171 0 0.16746240317207259 -0.1596319126984484 0 0.17171230031188159 -0.1631498425584518 0 0.16577466898551679 -0.1613902653921177 0 0.16746240317207259 -0.1596319126984484 0 0.17171230031188159 -0.1631498425584518 0 0.1676084175364991 -0.17609089437759939 0 0.17171230031188159 -0.1631498425584518 0 0.1655692245996318 -0.1710538742004632 0 0.16577466898551679 -0.1613902653921177 0 0.17171230031188159 -0.1631498425584518 0 0.1655692245996318 -0.1710538742004632 0 
</DataArray>
</Points>
<Cells>
<DataArray type="UInt32" Name="connectivity" format="ascii">
0 1 2 3 4 5 6 7 8 9 10 11 12 13 14 15 16 17 18 19 20 21 22 23 24 25 26 27 28 29 30 31 32 33 34 35 36 37 38 39 40 41 42 43 44 45 46 47 48 49 50 51 52 53 54 55 56 57 58 59 60 61 62 63 64 65 66 67 68 69 70 71 72 73 74 75 76 77 78 79 80 81 82 83 84 85 86 87 88 89 90 91 92 93 94 95 96 97 98 99 100 101 102 103 104 105 106 107 108 109 110 111 112 113 114 115 116 117 118 119 120 121 122 123 124 125 126 127 128 129 130 131 132 133 134 135 136 137 138 139 140 141 142 143 144 145 146 147 148 149 150 151 152 153 154 155 156 157 158 159 160 161 162 163 164 165 166 167 168 169 170 171 172 173 174 175 176 177 178 179 180 181 182 183 184 185 186 187 188 189 190 191 192 193 194 195 196 197 198 199 200 201 202 203 204 205 206 207 208 209 210 211 212 213 214 215 216 217 218 219 220 221 222 223 224 225 226 227 228 229 230 231 232 233 234 235 236 237 238 239 240 241 242 243 244 245 246 247 248 249 250 251 252 253 254 255 256 257 258 259 260 261 262 263 264 265 266 267 268 269 270 271 272 273 274 275 276 277 278 279 280 281 282 283 284 285 286 287 288 289 290 291 292 293 294 295 296 297 298 299 300 301 302 303 304 305 306 307 308 309 310 311 312 313 314 315 316 317 318 319 320 321 322 323 324 325 326 327 328 329 330 331 332 333 334 335 336 337 338 339 340 341 342 343 344 345 346 347 348 349 350 351 352 353 354 355 356 357 358 359 360 361 362 363 364 365 366 367 368 369 370 371 372 373 374 375 376 377 378 379 380 381 382 383 384 385 386 387 388 389 390 391 392 393 394 395 396 397 398 399 400 401 402 403 404 405 406 407 408 409 410 411 412 413 414 415 416 417 418 419 420 421 422 423 424 425 426 427 428 429 430 431 432 433 434 435 436 437 438 439 440 441 442 443 444 445 446 447 448 449 450 451 452 453 454 455 456 457 458 459 460 461 462 463 464 465 466 467 468 469 470 471 472 473 474 475 476 477 478 479 480 481 482 483 484 485 486 487 488 489 490 491 492 493 494 495 496 497 498 499 500 501 502 503 504 505 506 507 508 509 510 511 512 513 514 515 516 517 518 519 520 521 522 523 524 525 526 527 528 529 530 531 532 533 534 535 536 537 538 539 540 541 542 543 544 545 546 547 548 549 550 551 552 553 554 555 556 557 558 559 560 561 562 563 564 565 566 567 568 569 570 571 572 573 574 575 576 577 578 579 580 581 582 583 584 585 586 587 588 589 590 591 592 593 594 595 596 597 598 599 600 601 602 603 604 605 606 607 608 609 610 611 612 613 614 615 616 617 618 619 620 621 622 623 624 625 626 627 628 629 630 631 632 633 634 635 636 637 638 639 640 641 642 643 644 645 646 647 648 649 650 651 652 653 654 655 656 657 658 659 660 661 662 663 664 665 666 667 668 669 670 671 672 673 674 675 676 677 678 679 680 681 682 683 684 685 686 687 688 689 690 691 692 693 694 695 696 697 698 699 700 701 702 703 704 705 706 707 708 709 710 711 712 713 714 715 716 717 718 719 720 721 722 723 724 725 726 727 728 729 730 731 732 733 734 735 736 737 738 739 740 741 742 743 744 745 746 747 748 749 750 751 752 753 754 755 756 757 758 759 760 761 762 763 764 765 766 767 768 769 770 771 772 773 774 775 776 777 778 779 780 781 782 783 784 785 786 787 788 789 790 791 792 793 794 795 796 797 798 799 800 801 802 803 804 805 806 807 808 809 810 811 812 813 814 815 816 817 818 819 820 821 822 823 824 825 826 827 828 829 830 831 832 833 834 835 836 837 838 839 840 841 842 843 844 845 846 847 848 849 850 851 852 853 854 855 856 857 858 859 860 861 862 863 864 865 866 867 868 869 870 871 872 873 874 875 876 877 878 879 880 881 882 883 884 885 886 887 888 889 890 891 892 893 894 895 896 897 898 899 900 901 902 903 904 905 906 907 908 909 910 911 912 913 914 915 916 917 918 919 920 921 922 923 924 925 926 927 928 929 930 931 932 933 934 935 936 937 938 939 940 941 942 943 944 945 946 947 948 949 950 951 952 953 954 955 956 957 958 959 960 961 962 963 964 965 966 967 968 969 970 971 972 973 974 975 976 977 978 979 980 981 982 983 984 985 986 987 988 989 990 991 992 993 994 995 996 997 998 999 1000 1001 1002 1003 1004 1005 1006 1007 1008 1009 1010 1011 1012 1013 1014 1015 1016 1017 1018 1019 1020 1021 1022 1023 1024 1025 1026 1027 1028 1029 1030 1031 1032 1033 1034 1035 1036 1037 1038 1039 1040 1041 1042 1043 1044 1045 1046 1047 1048 1049 1050 1051 1052 1053 1054 1055 1056 1057 1058 1059 1060 1061 1062 1063 1064 1065 1066 1067 1068 1069 1070 1071 1072 1073 1074 1075 1076 1077 1078 1079 1080 1081 1082 1083 1084 1085 1086 1087 1088 1089 1090 1091 1092 1093 1094 1095 1096 1097 1098 1099 1100 1101 1102 1103 1104 1105 1106 1107 1108 1109 1110 1111 1112 1113 1114 1115 1116 1117 1118 1119 1120 1121 1122 1123 1124 1125 1126 1127 1128 1129 1130 1131 1132 1133 1134 1135 1136 1137 1138 1139 1140 1141 1142 1143 1144 1145 1146 1147 1148 1149 1150 1151 1152 1153 1154 1155 1156 1157 1158 1159 1160 1161 1162 1163 1164 1165 1166 1167 1168 1169 1170 1171 1172 1173 1174 1175 1176 1177 1178 1179 1180 1181 1182 1183 1184 1185 1186 1187 1188 1189 1190 1191 1192 1193 1194 1195 1196 1197 1198 1199 1200 1201 1202 1203 1204 1205 1206 1207 1208 1209 1210 1211 1212 1213 1214 1215 1216 1217 1218 1219 1220 1221 1222 1223 1224 1225 1226 1227 1228 1229 1230 1231 1232 1233 1234 1235 1236 1237 1238 1239 1240 1241 1242 1243 1244 1245 1246 1247 1248 1249 1250 1251 1252 1253 1254 1255 1256 1257 1258 1259 1260 1261 1262 1263 1264 1265 1266 1267 1268 1269 1270 1271 1272 1273 1274 1275 1276 1277 1278 1279 1280 1281 1282 1283 1284 1285 1286 1287 1288 1289 1290 1291 1292 1293 1294 1295 1296 1297 1298 1299 1300 1301 1302 1303 1304 1305 1306 1307 1308 1309 1310 1311 1312 1313 1314 1315 1316 1317 1318 1319 1320 1321 1322 1323 1324 1325 1326 1327 1328 1329 1330 1331 1332 1333 1334 1335 1336 1337 1338 1339 1340 1341 1342 1343 1344 1345 1346 1347 1348 1349 1350 1351 1352 1353 1354 1355 1356 1357 1358 1359 1360 1361 1362 1363 1364 1365 1366 1367 1368 1369 1370 1371 1372 1373 1374 1375 1376 1377 1378 1379 1380 1381 1382 1383 1384 1385 1386 1387 1388 1389 1390 1391 1392 1393 1394 1395 1396 1397 1398 1399 1400 1401 1402 1403 1404 1405 1406 1407 1408 1409 1410 1411 1412 1413 1414 1415 1416 1417 1418 1419 1420 1421 1422 1423 1424 1425 1426 1427 1428 1429 1430 1431 1432 1433 1434 1435 1436 1437 1438 1439 1440 1441 1442 1443 1444 1445 1446 1447 1448 1449 1450 1451 1452 1453 1454 1455 1456 1457 1458 1459 1460 1461 1462 1463 1464 1465 1466 1467 1468 1469 1470 1471 1472 1473 1474 1475 1476 1477 1478 1479 1480 1481 1482 1483 1484 1485 1486 1487 1488 1489 1490 1491 1492 1493 1494 1495 1496 1497 1498 1499 1500 1501 1502 1503 1504 1505 1506 1507 1508 1509 1510 1511 1512 1513 1514 1515 1516 1517 1518 1519 1520 1521 1522 1523 1524 1525 1526 1527 1528 1529 1530 1531 1532 1533 1534 1535 1536 1537 1538 1539 1540 1541 1542 1543 1544 1545 1546 1547 1548 1549 1550 1551 1552 1553 1554 1555 1556 1557 1558 1559 1560 1561 1562 1563 1564 1565 1566 1567 1568 1569 1570 1571 1572 1573 1574 1575 1576 1577 1578 1579 1580 1581 1582 1583 1584 1585 1586 1587 1588 1589 1590 1591 1592 1593 1594 1595 1596 1597 1598 1599 1600 1601 1602 1603 1604 1605 1606 1607 1608 1609 1610 1611 1612 1613 1614 1615 1616 1617 1618 1619 1620 1621 1622 1623 1624 1625 1626 1627 1628 1629 1630 1631 1632 1633 1634 1635 1636 1637 1638 1639 1640 1641 1642 1643 1644 1645 1646 1647 1648 1649 1650 1651 1652 1653 1654 1655 1656 1657 1658 1659 1660 1661 1662 1663 1664 1665 1666 1667 1668 1669 1670 1671 1672 1673 1674 1675 1676 1677 1678 1679 1680 1681 1682 1683 1684 1685 1686 1687 1688 1689 1690 1691 1692 1693 1694 1695 1696 1697 1698 1699 1700 1701 1702 1703 1704 1705 1706 1707 1708 1709 1710 1711 1712 1713 1714 1715 1716 1717 1718 1719 1720 1721 1722 1723 1724 1725 1726 1727 1728 1729 1730 1731 1732 1733 1734 1735 1736 1737 1738 1739 1740 1741 1742 1743 1744 1745 1746 1747 1748 1749 1750 1751 1752 1753 1754 1755 1756 1757 1758 1759 1760 1761 1762 1763 1764 1765 1766 1767 1768 1769 1770 1771 1772 1773 1774 1775 1776 1777 1778 1779 1780 1781 1782 1783 1784 1785 1786 1787 1788 1789 1790 1791 1792 1793 1794 1795 1796 1797 1798 1799 1800 1801 1802 1803 1804 1805 1806 1807 1808 1809 1810 1811 1812 1813 1814 1815 1816 1817 1818 1819 1820 1821 1822 1823 1824 1825 1826 1827 1828 1829 1830 1831 1832 1833 1834 1835 1836 1837 1838 1839 1840 1841 1842 1843 1844 1845 1846 1847 1848 1849 1850 1851 1852 1853 1854 1855 1856 1857 1858 1859 1860 1861 1862 1863 1864 1865 1866 1867 1868 1869 1870 1871 1872 1873 1874 1875 1876 1877 1878 1879 1880 1881 1882 1883 1884 1885 1886 1887 1888 1889 1890 1891 1892 1893 1894 1895 1896 1897 1898 1899 1900 1901 1902 1903 1904 1905 1906 1907 1908 1909 1910 1911 1912 1913 1914 1915 1916 1917 1918 1919 1920 1921 1922 1923 1924 1925 1926 1927 1928 1929 1930 1931 1932 1933 1934 1935 1936 1937 1938 1939 1940 1941 1942 1943 1944 1945 1946 1947 1948 1949 1950 1951 1952 1953 1954 1955 1956 1957 1958 1959 1960 1961 1962 1963 1964 1965 1966 1967 1968 1969 1970 1971 1972 1973 1974 1975 1976 1977 1978 1979 1980 1981 1982 1983 1984 1985 1986 1987 1988 1989 1990 1991 1992 1993 1994 1995 1996 1997 1998 1999 2000 2001 2002 2003 2004 2005 2006 2007 2008 2009 2010 2011 2012 2013 2014 2015 2016 2017 2018 2019 2020 2021 2022 2023 2024 2025 2026 2027 2028 2029 2030 2031 2032 2033 2034 2035 2036 2037 2038 2039 2040 2041 2042 2043 2044 2045 2046 2047 2048 2049 2050 2051 2052 2053 2054 2055 2056 2057 2058 2059 2060 2061 2062 2063 2064 2065 2066 2067 2068 2069 2070 2071 2072 2073 2074 2075 2076 2077 2078 2079 2080 2081 2082 2083 2084 2085 2086 2087 2088 2089 2090 2091 2092 2093 2094 2095 2096 2097 2098 2099 2100 2101 2102 2103 2104 2105 2106 2107 2108 2109 2110 2111 2112 2113 2114 2115 2116 2117 2118 2119 2120 2121 2122 2123 2124 2125 2126 2127 2128 2129 2130 2131 2132 2133 2134 2135 2136 2137 2138 2139 2140 2141 2142 2143 2144 2145 2146 2147 2148 2149 2150 2151 2152 2153 2154 2155 2156 2157 2158 2159 2160 2161 2162 2163 2164 2165 2166 2167 2168 2169 2170 2171 2172 2173 2174 2175 2176 2177 2178 2179 2180 2181 2182 2183 2184 2185 2186 2187 2188 2189 2190 2191 2192 2193 2194 2195 2196 2197 2198 2199 2200 2201 2202 2203 2204 2205 2206 2207 2208 2209 2210 2211 2212 2213 2214 2215 2216 2217 2218 2219 2220 2221 2222 2223 2224 2225 2226 2227 2228 2229 2230 2231 2232 2233 2234 2235 2236 2237 2238 2239 2240 2241 2242 2243 2244 2245 2246 2247 2248 2249 2250 2251 2252 2253 2254 2255 2256 2257 2258 2259 2260 2261 2262 2263 2264 2265 2266 2267 2268 2269 2270 2271 2272 2273 2274 2275 2276 2277 2278 2279 2280 2281 2282 2283 2284 2285 2286 2287 2288 2289 2290 2291 2292 2293 2294 2295 2296 2297 2298 2299 2300 2301 2302 2303 2304 2305 2306 2307 2308 2309 2310 2311 2312 2313 2314 2315 2316 2317 2318 2319 2320 2321 2322 2323 2324 2325 2326 2327 2328 2329 2330 2331 2332 2333 2334 2335 2336 2337 2338 2339 2340 2341 2342 2343 2344 2345 2346 2347 2348 2349 2350 2351 2352 2353 2354 2355 2356 2357 2358 2359 2360 2361 2362 2363 2364 2365 2366 2367 2368 2369 2370 2371 2372 2373 2374 2375 2376 2377 2378 2379 2380 2381 2382 2383 2384 2385 2386 2387 2388 2389 2390 2391 2392 2393 2394 2395 2396 2397 2398 2399 2400 2401 2402 2403 2404 2405 2406 2407 2408 2409 2410 2411 2412 2413 2414 2415 2416 2417 2418 2419 2420 2421 2422 2423 2424 2425 2426 2427 2428 2429 2430 2431 2432 2433 2434 2435 2436 2437 2438 2439 2440 2441 2442 2443 2444 2445 2446 2447 2448 2449 2450 2451 2452 2453 2454 2455 2456 2457 2458 2459 2460 2461 2462 2463 2464 2465 2466 2467 2468 2469 2470 2471 2472 2473 2474 2475 2476 2477 2478 2479 2480 2481 2482 2483 2484 2485 2486 2487 2488 2489 2490 2491 2492 2493 2494 2495 2496 2497 2498 2499 2500 2501 2502 2503 2504 2505 2506 2507 2508 2509 2510 2511 2512 2513 2514 2515 2516 2517 2518 2519 2520 2521 2522 2523 2524 2525 2526 2527 2528 2529 2530 2531 2532 2533 2534 2535 2536 2537 2538 2539 2540 2541 2542 2543 2544 2545 2546 2547 2548 2549 2550 2551 2552 2553 2554 2555 2556 2557 2558 2559 2560 2561 2562 2563 2564 2565 2566 2567 2568 2569 2570 2571 2572 2573 2574 2575 2576 2577 2578 2579 2580 2581 2582 2583 2584 2585 2586 2587 2588 2589 2590 2591 2592 2593 2594 2595 2596 2597 2598 2599 2600 2601 2602 2603 2604 2605 2606 2607 2608 2609 2610 2611 2612 2613 2614 2615 2616 2617 2618 2619 2620 2621 2622 2623 2624 2625 2626 2627 2628 2629 2630 2631 2632 2633 2634 2635 2636 2637 2638 2639 2640 2641 2642 2643 2644 2645 2646 2647 2648 2649 2650 2651 2652 2653 2654 2655 2656 2657 2658 2659 2660 2661 2662 2663 2664 2665 2666 2667 2668 2669 2670 2671 2672 2673 2674 2675 2676 2677 2678 2679 2680 2681 2682 2683 2684 2685 2686 2687 2688 2689 2690 2691 2692 2693 2694 2695 2696 2697 2698 2699 2700 2701 2702 2703 2704 2705 2706 2707 2708 2709 2710 2711 2712 2713 2714 2715 2716 2717 2718 2719 2720 2721 2722 2723 2724 2725 2726 2727 2728 2729 2730 2731 2732 2733 2734 2735 2736 2737 2738 2739 2740 2741 2742 2743 2744 2745 2746 2747 2748 2749 2750 2751 2752 2753 2754 2755 2756 2757 2758 2759 2760 2761 2762 2763 2764 2765 2766 2767 2768 2769 2770 2771 2772 2773 2774 2775 2776 2777 2778 2779 2780 2781 2782 2783 2784 2785 2786 2787 2788 2789 2790 2791 2792 2793 2794 2795 2796 2797 2798 2799 2800 2801 2802 2803 2804 2805 2806 2807 2808 2809 2810 2811 2812 2813 2814 2815 2816 2817 2818 2819 2820 2821 2822 2823 2824 2825 2826 2827 2828 2829 2830 2831 2832 2833 2834 2835 2836 2837 2838 2839 2840 2841 2842 2843 2844 2845 2846 2847 2848 2849 2850 2851 2852 2853 2854 2855 2856 2857 2858 2859 2860 2861 2862 2863 2864 2865 2866 2867 2868 2869 2870 2871 2872 2873 2874 2875 2876 2877 2878 2879 2880 2881 2882 2883 2884 2885 2886 2887 2888 2889 2890 2891 2892 2893 2894 2895 2896 2897 2898 2899 2900 2901 2902 2903 2904 2905 2906 2907 2908 2909 2910 2911 2912 2913 2914 2915 2916 2917 2918 2919 2920 2921 2922 2923 2924 2925 2926 2927 2928 2929 2930 2931 2932 2933 2934 2935 2936 2937 2938 2939 2940 2941 2942 2943 2944 2945 2946 2947 2948 2949 2950 2951 2952 2953 2954 2955 2956 2957 2958 2959 2960 2961 2962 2963 2964 2965 2966 2967 2968 2969 2970 2971 2972 2973 2974 2975 2976 2977 2978 2979 2980 2981 2982 2983 2984 2985 2986 2987 2988 2989 2990 2991 2992 2993 2994 2995 2996 2997 2998 2999 3000 3001 3002 3003 3004 3005 3006 3007 3008 3009 3010 3011 3012 3013 3014 3015 3016 3017 3018 3019 3020 3021 3022 3023 3024 3025 3026 3027 3028 3029 3030 3031 3032 3033 3034 3035 3036 3037 3038 3039 3040 3041 3042 3043 3044 3045 3046 3047 3048 3049 3050 3051 3052 3053 3054 3055 3056 3057 3058 3059 3060 3061 3062 3063 3064 3065 3066 3067 3068 3069 3070 3071 3072 3073 3074 3075 3076 3077 3078 3079 3080 3081 3082 3083 3084 3085 3086 3087 3088 3089 3090 3091 3092 3093 3094 3095 3096 3097 3098 3099 3100 3101 3102 3103 3104 3105 3106 3107 3108 3109 3110 3111 3112 3113 3114 3115 3116 3117 3118 3119 3120 3121 3122 3123 3124 3125 3126 3127 3128 3129 3130 3131 3132 3133 3134 3135 3136 3137 3138 3139 3140 3141 3142 3143 3144 3145 3146 3147 3148 3149 3150 3151 3152 3153 3154 3155 3156 3157 3158 3159 3160 3161 3162 3163 3164 3165 3166 3167 3168 3169 3170 3171 3172 3173 3174 3175 3176 3177 3178 3179 3180 3181 3182 3183 3184 3185 3186 3187 3188 3189 3190 3191 3192 3193 3194 3195 3196 3197 3198 3199 3200 3201 3202 3203 3204 3205 3206 3207 3208 3209 3210 3211 3212 3213 3214 3215 3216 3217 3218 3219 3220 3221 3222 3223 3224 3225 3226 3227 3228 3229 3230 3231 3232 3233 3234 3235 3236 3237 3238 3239 3240 3241 3242 3243 3244 3245 3246 3247 3248 3249 3250 3251 3252 3253 3254 3255 3256 3257 3258 3259 3260 3261 3262 3263 3264 3265 3266 3267 3268 3269 3270 3271 3272 3273 3274 3275 3276 3277 3278 3279 3280 3281 3282 3283 3284 3285 3286 3287 3288 3289 3290 3291 3292 3293 3294 3295 3296 3297 3298 3299 3300 3301 3302 3303 3304 3305 3306 3307 3308 3309 3310 3311 3312 3313 3314 3315 3316 3317 3318 3319 3320 3321 3322 3323 3324 3325 3326 3327 3328 3329 3330 3331 3332 3333 3334 3335 3336 3337 3338 3339 3340 3341 3342 3343 3344 3345 3346 3347 3348 3349 3350 3351 3352 3353 3354 3355 3356 3357 3358 3359 3360 3361 3362 3363 3364 3365 3366 3367 3368 3369 3370 3371 3372 3373 3374 3375 3376 3377 3378 3379 3380 3381 3382 3383 3384 3385 3386 3387 3388 3389 3390 3391 3392 3393 3394 3395 3396 3397 3398 3399 3400 3401 3402 3403 3404 3405 3406 3407 3408 3409 3410 3411 3412 3413 3414 3415 3416 3417 3418 3419 3420 3421 3422 3423 3424 3425 3426 3427 3428 3429 3430 3431 3432 3433 3434 3435 3436 3437 3438 3439 3440 3441 3442 3443 3444 3445 3446 3447 3448 3449 3450 3451 3452 3453 3454 3455 3456 3457 3458 3459 3460 3461 3462 3463 3464 3465 3466 3467 3468 3469 3470 3471 3472 3473 3474 3475 3476 3477 3478 3479 3480 3481 3482 3483 3484 3485 3486 3487 3488 3489 3490 3491 3492 3493 3494 3495 3496 3497 3498 3499 3500 3501 3502 3503 3504 3505 3506 3507 3508 3509 3510 3511 3512 3513 3514 3515 3516 3517 3518 3519 3520 3521 3522 3523 3524 3525 3526 3527 3528 3529 3530 3531 3532 3533 3534 3535 3536 3537 3538 3539 3540 3541 3542 3543 3544 3545 3546 3547 3548 3549 3550 3551 3552 3553 3554 3555 3556 3557 3558 3559 3560 3561 3562 3563 3564 3565 3566 3567 3568 3569 3570 3571 3572 3573 3574 3575 3576 3577 3578 3579 3580 3581 3582 3583 3584 3585 3586 3587 3588 3589 3590 3591 3592 3593 3594 3595 3596 3597 3598 3599 3600 3601 3602 3603 3604 3605 3606 3607 3608 3609 3610 3611 3612 3613 3614 3615 3616 3617 3618 3619 3620 3621 3622 3623 3624 3625 3626 3627 3628 3629 3630 3631 3632 3633 3634 3635 3636 3637 3638 3639 3640 3641 3642 3643 3644 3645 3646 3647 3648 3649 3650 3651 3652 3653 3654 3655 3656 3657 3658 3659 3660 3661 3662 3663 3664 3665 3666 3667 3668 3669 3670 3671 3672 3673 3674 3675 3676 3677 3678 3679 3680 3681 3682 3683 3684 3685 3686 3687 3688 3689 3690 3691 3692 3693 3694 3695 3696 3697 3698 3699 3700 3701 3702 3703 3704 3705 3706 3707 3708 3709 3710 3711 3712 3713 3714 3715 3716 3717 3718 3719 3720 3721 3722 3723 3724 3725 3726 3727 3728 3729 3730 3731 3732 3733 3734 3735 3736 3737 3738 3739 3740 3741 3742 3743 3744 3745 3746 3747 3748 3749 3750 3751 3752 3753 3754 3755 3756 3757 3758 3759 3760 3761 3762 3763 3764 3765 3766 3767 3768 3769 3770 3771 3772 3773 3774 3775 3776 3777 3778 3779 3780 3781 3782 3783 3784 3785 3786 3787 3788 3789 3790 3791 3792 3793 3794 3795 3796 3797 3798 3799 3800 3801 3802 3803 3804 3805 3806 3807 3808 3809 3810 3811 3812 3813 3814 3815 3816 3817 3818 3819 3820 3821 3822 3823 3824 3825 3826 3827 3828 3829 3830 3831 3832 3833 3834 3835 3836 3837 3838 3839 3840 3841 3842 3843 3844 3845 3846 3847 3848 3849 3850 3851 3852 3853 3854 3855 3856 3857 3858 3859 3860 3861 3862 3863 3864 3865 3866 3867 3868 3869 3870 3871 3872 3873 3874 3875 3876 3877 3878 3879 3880 3881 3882 3883 3884 3885 3886 3887 3888 3889 3890 3891 3892 3893 3894 3895 3896 3897 3898 3899 3900 3901 3902 3903 3904 3905 3906 3907 3908 3909 3910 3911 3912 3913 3914 3915 3916 3917 3918 3919 3920 3921 3922 3923 3924 3925 3926 3927 3928 3929 3930 3931 3932 3933 3934 3935 3936 3937 3938 3939 3940 3941 3942 3943 3944 3945 3946 3947 3948 3949 3950 3951 3952 3953 3954 3955 3956 3957 3958 3959 3960 3961 3962 3963 3964 3965 3966 3967 3968 3969 3970 3971 3972 3973 3974 3975 3976 3977 3978 3979 3980 3981 3982 3983 3984 3985 3986 3987 3988 3989 3990 3991 3992 3993 3994 3995 3996 3997 3998 3999 4000 4001 4002 4003 4004 4005 4006 4007 4008 4009 4010 4011 4012 4013 4014 4015 4016 4017 4018 4019 4020 4021 4022 4023 4024 4025 4026 4027 4028 4029 4030 4031 4032 4033 4034 4035 4036 4037 4038 4039 4040 4041 4042 4043 4044 4045 4046 4047 4048 4049 4050 4051 4052 4053 4054 4055 4056 4057 4058 4059 4060 4061 4062 4063 4064 4065 4066 4067 4068 4069 4070 4071 4072 4073 4074 4075 4076 4077 4078 4079 4080 4081 4082 4083 4084 4085 4086 4087 4088 4089 4090 4091 4092 4093 4094 4095 4096 4097 4098 4099 4100 4101 4102 4103 4104 4105 4106 4107 4108 4109 4110 4111 4112 4113 4114 4115 4116 4117 4118 4119 4120 4121 4122 4123 4124 4125 4126 4127 4128 4129 4130 4131 4132 4133 4134 4135 4136 4137 4138 4139 4140 4141 4142 4143 4144 4145 4146 4147 4148 4149 4150 4151 4152 4153 4154 4155 4156 4157 4158 4159 4160 4161 4162 4163 4164 4165 4166 4167 4168 4169 4170 4171 4172 4173 4174 4175 4176 4177 4178 4179 4180 4181 4182 4183 4184 4185 4186 4187 4188 4189 4190 4191 4192 4193 4194 4195 4196 4197 4198 4199 4200 4201 4202 4203 4204 4205 4206 4207 4208 4209 4210 4211 4212 4213 4214 4215 4216 4217 4218 4219 4220 4221 4222 4223 4224 4225 4226 4227 4228 4229 4230 4231 4232 4233 4234 4235 4236 4237 4238 4239 4240 4241 4242 4243 4244 4245 4246 4247 4248 4249 4250 4251 4252 4253 4254 4255 4256 4257 4258 4259 4260 4261 4262 4263 4264 4265 4266 4267 4268 4269 4270 4271 4272 4273 4274 4275 4276 4277 4278 4279 4280 4281 4282 4283 4284 4285 4286 4287 4288 4289 4290 4291 4292 4293 4294 4295 4296 4297 4298 4299 4300 4301 4302 4303 4304 4305 4306 4307 4308 4309 4310 4311 4312 4313 4314 4315 4316 4317 4318 4319 4320 4321 4322 4323 4324 4325 4326 4327 4328 4329 4330 4331 4332 4333 4334 4335 4336 4337 4338 4339 4340 4341 4342 4343 4344 4345 4346 4347 4348 4349 4350 4351 4352 4353 4354 4355 4356 4357 4358 4359 4360 4361 4362 4363 4364 4365 4366 4367 4368 4369 4370 4371 4372 4373 4374 4375 4376 4377 4378 4379 4380 4381 4382 4383 4384 4385 4386 4387 4388 4389 4390 4391 4392 4393 4394 4395 4396 4397 4398 4399 4400 4401 4402 4403 4404 4405 4406 4407 4408 4409 4410 4411 4412 4413 4414 4415 4416 4417 4418 4419 4420 4421 4422 4423 4424 4425 4426 4427 4428 4429 4430 4431 4432 4433 4434 4435 4436 4437 4438 4439 4440 4441 4442 4443 4444 4445 4446 4447 4448 4449 4450 4451 4452 4453 4454 4455 4456 4457 4458 4459 4460 4461 4462 4463 4464 4465 4466 4467 4468 4469 4470 4471 4472 4473 4474 4475 4476 4477 4478 4479 4480 4481 4482 4483 4484 4485 4486 4487 4488 4489 4490 4491 4492 4493 4494 4495 4496 4497 4498 4499 4500 4501 4502 4503 4504 4505 4506 4507 4508 4509 4510 4511 4512 4513 4514 4515 4516 4517 4518 4519 4520 4521 4522 4523 4524 4525 4526 4527 4528 4529 4530 4531 4532 4533 4534 4535 4536 4537 4538 4539 4540 4541 4542 4543 4544 4545 4546 4547 4548 4549 4550 4551 4552 4553 4554 4555 4556 4557 4558 4559 4560 4561 4562 4563 4564 4565 4566 4567 4568 4569 4570 4571 4572 4573 4574 4575 4576 4577 4578 4579 4580 4581 4582 4583 4584 4585 4586 4587 4588 4589 4590 4591 4592 4593 4594 4595 4596 4597 4598 4599 4600 4601 4602 4603 4604 4605 4606 4607 4608 4609 4610 4611 4612 4613 4614 4615 4616 4617 4618 4619 4620 4621 4622 4623 4624 4625 4626 4627 4628 4629 4630 4631 4632 4633 4634 4635 4636 4637 4638 4639 4640 4641 4642 4643 4644 4645 4646 4647 4648 4649 4650 4651 4652 4653 4654 4655 4656 4657 4658 4659 4660 4661 4662 4663 4664 4665 4666 4667 4668 4669 4670 4671 4672 4673 4674 4675 4676 4677 4678 4679 4680 4681 4682 4683 4684 4685 4686 4687 4688 4689 4690 4691 4692 4693 4694 4695 4696 4697 4698 4699 4700 4701 4702 4703 4704 4705 4706 4707 4708 4709 4710 4711 4712 4713 4714 4715 4716 4717 4718 4719 4720 4721 4722 4723 4724 4725 4726 4727 4728 4729 4730 4731 4732 4733 4734 4735 4736 4737 4738 4739 4740 4741 4742 4743 4744 4745 4746 4747 4748 4749 4750 4751 4752 4753 4754 4755 4756 4757 4758 4759 4760 4761 4762 4763 4764 4765 4766 4767 4768 4769 4770 4771 4772 4773 4774 4775 4776 4777 4778 4779 4780 4781 4782 4783 4784 4785 4786 4787 4788 4789 4790 4791 4792 4793 4794 4795 4796 4797 4798 4799 4800 4801 4802 4803 4804 4805 4806 4807 4808 4809 4810 4811 4812 4813 4814 4815 4816 4817 4818 4819 4820 4821 4822 4823 4824 4825 4826 4827 4828 4829 4830 4831 4832 4833 4834 4835 4836 4837 4838 4839 4840 4841 4842 4843 4844 4845 4846 4847 4848 4849 4850 4851 4852 4853 4854 4855 4856 4857 4858 4859 4860 4861 4862 4863 4864 4865 4866 4867 4868 4869 4870 4871 4872 4873 4874 4875 4876 4877 4878 4879 4880 4881 4882 4883 4884 4885 4886 4887 4888 4889 4890 4891 4892 4893 4894 4895 4896 4897 4898 4899 4900 4901 4902 4903 4904 4905 4906 4907 4908 4909 4910 4911 4912 4913 4914 4915 4916 4917 4918 4919 4920 4921 4922 4923 4924 4925 4926 4927 4928 4929 4930 4931 4932 4933 4934 4935 4936 4937 4938 4939 4940 4941 4942 4943 4944 4945 4946 4947 4948 4949 4950 4951 4952 4953 4954 4955 4956 4957 4958 4959 4960 4961 4962 4963 4964 4965 4966 4967 4968 4969 4970 4971 4972 4973 4974 4975 4976 4977 4978 4979 4980 4981 4982 4983 4984 4985 4986 4987 4988 4989 4990 4991 4992 4993 4994 4995 4996 4997 4998 4999 5000 5001 5002 5003 5004 5005 5006 5007 5008 5009 5010 5011 5012 5013 5014 5015 5016 5017 5018 5019 5020 5021 5022 5023 5024 5025 5026 5027 5028 5029 5030 5031 5032 5033 5034 5035 5036 5037 5038 5039 5040 5041 5042 5043 5044 5045 5046 5047 5048 5049 5050 5051 5052 5053 5054 5055 5056 5057 5058 5059 5060 5061 5062 5063 5064 5065 5066 5067 5068 5069 5070 5071 5072 5073 5074 5075 5076 5077 5078 5079 5080 5081 5082 5083 5084 5085 5086 5087 5088 5089 5090 5091 5092 5093 5094 5095 5096 5097 5098 5099 5100 5101 5102 5103 5104 5105 5106 5107 5108 5109 5110 5111 5112 5113 5114 5115 5116 5117 5118 5119 5120 5121 5122 5123 5124 5125 5126 5127 5128 5129 5130 5131 5132 5133 5134 5135 5136 5137 5138 5139 5140 5141 5142 5143 5144 5145 5146 5147 5148 5149 5150 5151 5152 5153 5154 5155 5156 5157 5158 5159 5160 5161 5162 5163 5164 5165 5166 5167 5168 5169 5170 5171 5172 5173 5174 5175 5176 5177 5178 5179 5180 5181 5182 5183 5184 5185 5186 5187 5188 5189 5190 5191 5192 5193 5194 5195 5196 5197 5198 5199 5200 5201 5202 5203 5204 5205 5206 5207 5208 5209 5210 5211 5212 5213 5214 5215 5216 5217 5218 5219 5220 5221 5222 5223 5224 5225 5226 5227 5228 5229 5230 5231 5232 5233 5234 5235 5236 5237 5238 5239 5240 5241 5242 5243 5244 5245 5246 5247 5248 5249 5250 5251 5252 5253 5254 5255 5256 5257 5258 5259 5260 5261 5262 5263 5264 5265 5266 5267 5268 5269 5270 5271 5272 5273 5274 5275 5276 5277 5278 5279 5280 5281 5282 5283 5284 5285 5286 5287 5288 5289 5290 5291 5292 5293 5294 5295 5296 5297 5298 5299 5300 5301 5302 5303 5304 5305 5306 5307 5308 5309 5310 5311 5312 5313 5314 5315 5316 5317 5318 5319 5320 5321 5322 5323 5324 5325 5326 5327 5328 5329 5330 5331 5332 5333 5334 5335 5336 5337 5338 5339 5340 5341 5342 5343 5344 5345 5346 5347 5348 5349 5350 5351 5352 5353 5354 5355 5356 5357 5358 5359 5360 5361 5362 5363 5364 5365 5366 5367 5368 5369 5370 5371 5372 5373 5374 5375 5376 5377 5378 5379 5380 5381 5382 5383 5384 5385 5386 5387 5388 5389 5390 5391 5392 5393 5394 5395 5396 5397 5398 5399 5400 5401 5402 5403 5404 5405 5406 5407 5408 5409 5410 5411 5412 5413 5414 5415 5416 5417 5418 5419 5420 5421 5422 5423 5424 5425 5426 5427 5428 5429 5430 5431 5432 5433 5434 5435 5436 5437 5438 5439 5440 5441 5442 5443 5444 5445 5446 5447 5448 5449 5450 5451 5452 5453 5454 5455 5456 5457 5458 5459 5460 5461 5462 5463 5464 5465 5466 5467 5468 5469 5470 5471 5472 5473 5474 5475 5476 5477 5478 5479 5480 5481 5482 5483 5484 5485 5486 5487 5488 5489 5490 5491 5492 5493 5494 5495 5496 5497 5498 5499 5500 5501 5502 5503 5504 5505 5506 5507 5508 5509 5510 5511 5512 5513 5514 5515 5516 5517 5518 5519 5520 5521 5522 5523 5524 5525 5526 5527 5528 5529 5530 5531 5532 5533 5534 5535 5536 5537 5538 5539 5540 5541 5542 5543 5544 5545 5546 5547 5548 5549 5550 5551 5552 5553 5554 5555 5556 5557 5558 5559 5560 5561 5562 5563 5564 5565 5566 5567 5568 5569 5570 5571 5572 5573 5574 5575 5576 5577 5578 5579 5580 5581 5582 5583 5584 5585 5586 5587 5588 5589 5590 5591 5592 5593 5594 5595 5596 5597 5598 5599 5600 5601 5602 5603 5604 5605 5606 5607 5608 5609 5610 5611 5612 5613 5614 5615 5616 5617 5618 5619 5620 5621 5622 5623 5624 5625 5626 5627 5628 5629 5630 5631 5632 5633 5634 5635 5636 5637 5638 5639 5640 5641 5642 5643 5644 5645 5646 5647 5648 5649 5650 5651 5652 5653 5654 5655 5656 5657 5658 5659 5660 5661 5662 5663 5664 5665 5666 5667 5668 5669 5670 5671 5672 5673 5674 5675 5676 5677 5678 5679 5680 5681 5682 5683 5684 5685 5686 5687 5688 5689 5690 5691 5692 5693 5694 5695 5696 5697 5698 5699 5700 5701 5702 5703 5704 5705 5706 5707 5708 5709 5710 5711 5712 5713 5714 5715 5716 5717 5718 5719 5720 5721 5722 5723 5724 5725 5726 5727 5728 5729 5730 5731 5732 5733 5734 5735 5736 5737 5738 5739 5740 5741 5742 5743 5744 5745 5746 5747 5748 5749 5750 5751 5752 5753 5754 5755 5756 5757 5758 5759 5760 5761 5762 5763 5764 5765 5766 5767 5768 5769 5770 5771 5772 5773 5774 5775 5776 5777 5778 5779 5780 5781 5782 5783 5784 5785 5786 5787 5788 5789 5790 5791 5792 5793 5794 5795 5796 5797 5798 5799 5800 5801 5802 5803 5804 5805 5806 5807 5808 5809 5810 5811 5812 5813 5814 5815 5816 5817 5818 5819 5820 5821 5822 5823 5824 5825 5826 5827 5828 5829 5830 5831 5832 5833 5834 5835 5836 5837 5838 5839 5840 5841 5842 5843 5844 5845 5846 5847 5848 5849 5850 5851 5852 5853 5854 5855 5856 5857 5858 5859 5860 5861 5862 5863 5864 5865 5866 5867 5868 5869 5870 5871 5872 5873 5874 5875 5876 5877 5878 5879 5880 5881 5882 5883 5884 5885 5886 5887 5888 5889 5890 5891 5892 5893 5894 5895 5896 5897 5898 5899 5900 5901 5902 5903 5904 5905 5906 5907 5908 5909 5910 5911 5912 5913 5914 5915 5916 5917 5918 5919 5920 5921 5922 5923 5924 5925 5926 5927 5928 5929 5930 5931 5932 5933 5934 5935 5936 5937 5938 5939 5940 5941 5942 5943 5944 5945 5946 5947 5948 5949 5950 5951 5952 5953 5954 5955 5956 5957 5958 5959 5960 5961 5962 5963 5964 5965 5966 5967 5968 5969 5970 5971 5972 5973 5974 5975 5976 5977 5978 5979 5980 5981 5982 5983 5984 5985 5986 5987 5988 5989 5990 5991 5992 5993 5994 5995 5996 5997 5998 5999 6000 6001 6002 6003 6004 6005 6006 6007 6008 6009 6010 6011 6012 6013 6014 6015 6016 6017 6018 6019 6020 6021 6022 6023 6024 6025 6026 6027 6028 6029 6030 6031 6032 6033 6034 6035 6036 6037 6038 6039 6040 6041 6042 6043 6044 6045 6046 6047 6048 6049 6050 6051 6052 6053 6054 6055 6056 6057 6058 6059 6060 6061 6062 6063 6064 6065 6066 6067 6068 6069 6070 6071 6072 6073 6074 6075 6076 6077 6078 6079 6080 6081 6082 6083 6084 6085 6086 6087 6088 6089 6090 6091 6092 6093 6094 6095 6096 6097 6098 6099 6100 6101 6102 6103 6104 6105 6106 6107 6108 6109 6110 6111 6112 6113 6114 6115 6116 6117 6118 6119 6120 6121 6122 6123 6124 6125 6126 6127 6128 6129 6130 6131 6132 6133 6134 6135 6136 6137 6138 6139 6140 6141 6142 6143 6144 6145 6146 6147 6148 6149 6150 6151 6152 6153 6154 6155 6156 6157 6158 6159 6160 6161 6162 6163 6164 6165 6166 6167 6168 6169 6170 6171 6172 6173 6174 6175 6176 6177 6178 6179 6180 6181 6182 6183 6184 6185 6186 6187 6188 6189 6190 6191 6192 6193 6194 6195 6196 6197 6198 6199 6200 6201 6202 6203 6204 6205 6206 6207 6208 6209 6210 6211 6212 6213 6214 6215 6216 6217 6218 6219 6220 6221 6222 6223 6224 6225 6226 6227 6228 6229 6230 6231 6232 6233 6234 6235 6236 6237 6238 6239 6240 6241 6242 6243 6244 6245 6246 6247 6248 6249 6250 6251 6252 6253 6254 6255 6256 6257 6258 6259 6260 6261 6262 6263 6264 6265 6266 6267 6268 6269 6270 6271 6272 6273 6274 6275 6276 6277 6278 6279 6280 6281 6282 6283 6284 6285 6286 6287 6288 6289 6290 6291 6292 6293 6294 6295 6296 6297 6298 6299 6300 6301 6302 6303 6304 6305 6306 6307 6308 6309 6310 6311 6312 6313 6314 6315 6316 6317 6318 6319 6320 6321 6322 6323 6324 6325 6326 6327 6328 6329 6330 6331 6332 6333 6334 6335 6336 6337 6338 6339 6340 6341 6342 6343 6344 6345 6346 6347 6348 6349 6350 6351 6352 6353 6354 6355 6356 6357 6358 6359 6360 6361 6362 6363 6364 6365 6366 6367 6368 6369 6370 6371 6372 6373 6374 6375 6376 6377 6378 6379 6380 6381 6382 6383 6384 6385 6386 6387 6388 6389 6390 6391 6392 6393 6394 6395 6396 6397 6398 6399 6400 6401 6402 6403 6404 6405 6406 6407 6408 6409 6410 6411 6412 6413 6414 6415 6416 6417 6418 6419 6420 6421 6422 6423 6424 6425 6426 6427 6428 6429 6430 6431 6432 6433 6434 6435 6436 6437 6438 6439 6440 6441 6442 6443 6444 6445 6446 6447 6448 6449 6450 6451 6452 6453 6454 6455 6456 6457 6458 6459 6460 6461 6462 6463 6464 6465 6466 6467 6468 6469 6470 6471 6472 6473 6474 6475 6476 6477 6478 6479 6480 6481 6482 6483 6484 6485 6486 6487 6488 6489 6490 6491 6492 6493 6494 6495 6496 6497 6498 6499 6500 6501 6502 6503 6504 6505 6506 6507 6508 6509 6510 6511 6512 6513 6514 6515 6516 6517 6518 6519 6520 6521 6522 6523 6524 6525 6526 6527 6528 6529 6530 6531 6532 6533 6534 6535 6536 6537 6538 6539 6540 6541 6542 6543 6544 6545 6546 6547 6548 6549 6550 6551 6552 6553 6554 6555 6556 6557 6558 6559 6560 6561 6562 6563 6564 6565 6566 6567 6568 6569 6570 6571 6572 6573 6574 6575 6576 6577 6578 6579 6580 6581 6582 6583 6584 6585 6586 6587 6588 6589 6590 6591 6592 6593 6594 6595 6596 6597 6598 6599 6600 6601 6602 6603 6604 6605 6606 6607 6608 6609 6610 6611 6612 6613 6614 6615 6616 6617 6618 6619 6620 6621 6622 6623 6624 6625 6626 6627 6628 6629 6630 6631 6632 6633 6634 6635 6636 6637 6638 6639 6640 6641 6642 6643 6644 6645 6646 6647 6648 6649 6650 6651 6652 6653 6654 6655 6656 6657 6658 6659 6660 6661 6662 6663 6664 6665 6666 6667 6668 6669 6670 6671 6672 6673 6674 6675 6676 6677 6678 6679 6680 6681 6682 6683 6684 6685 6686 6687 6688 6689 6690 6691 6692 6693 6694 6695 6696 6697 6698 6699 6700 6701 6702 6703 6704 6705 6706 6707 6708 6709 6710 6711 6712 6713 6714 6715 6716 6717 6718 6719 6720 6721 6722 6723 6724 6725 6726 6727 6728 6729 6730 6731 6732 6733 6734 6735 6736 6737 6738 6739 6740 6741 6742 6743 6744 6745 6746 6747 6748 6749 6750 6751 6752 6753 6754 6755 6756 6757 6758 6759 6760 6761 6762 6763 6764 6765 6766 6767 6768 6769 6770 6771 6772 6773 6774 6775 6776 6777 6778 6779 6780 6781 6782 6783 6784 6785 6786 6787 6788 6789 6790 6791 6792 6793 6794 6795 6796 6797 6798 6799 6800 6801 6802 6803 6804 6805 6806 6807 6808 6809 6810 6811 6812 6813 6814 6815 6816 6817 6818 6819 6820 6821 6822 6823 6824 6825 6826 6827 6828 6829 6830 6831 6832 6833 6834 6835 6836 6837 6838 6839 6840 6841 6842 6843 6844 6845 6846 6847 6848 6849 6850 6851 6852 6853 6854 6855 6856 6857 6858 6859 6860 6861 6862 6863 6864 6865 6866 6867 6868 6869 6870 6871 6872 6873 6874 6875 6876 6877 6878 6879 6880 6881 6882 6883 6884 6885 6886 6887 6888 6889 6890 6891 6892 6893 6894 6895 6896 6897 6898 6899 6900 6901 6902 6903 6904 6905 6906 6907 6908 6909 6910 6911 6912 6913 6914 6915 6916 6917 6918 6919 6920 6921 6922 6923 6924 6925 6926 6927 6928 6929 6930 6931 6932 6933 6934 6935 6936 6937 6938 6939 6940 6941 6942 6943 6944 6945 6946 6947 6948 6949 6950 6951 6952 6953 6954 6955 6956 6957 6958 6959 6960 6961 6962 6963 6964 6965 6966 6967 6968 6969 6970 6971 6972 6973 6974 6975 6976 6977 6978 6979 6980 6981 6982 6983 6984 6985 6986 6987 6988 6989 6990 6991 6992 6993 6994 6995 6996 6997 6998 6999 7000 7001 7002 7003 7004 7005 7006 7007 7008 7009 7010 7011 7012 7013 7014 7015 7016 7017 7018 7019 7020 7021 7022 7023 7024 7025 7026 7027 7028 7029 7030 7031 7032 7033 7034 7035 7036 7037 7038 7039 7040 7041 7042 7043 7044 7045 7046 7047 7048 7049 7050 7051 7052 7053 7054 7055 7056 7057 7058 7059 7060 7061 7062 7063 7064 7065 7066 7067 7068 7069 7070 7071 7072 7073 7074 7075 7076 7077 7078 7079 7080 7081 7082 7083 7084 7085 7086 7087 7088 7089 7090 7091 7092 7093 7094 7095 7096 7097 7098 7099 7100 7101 7102 7103 7104 7105 7106 7107 7108 7109 7110 7111 7112 7113 7114 7115 7116 7117 7118 7119 7120 7121 7122 7123 7124 7125 7126 7127 7128 7129 7130 7131 7132 7133 7134 7135 7136 7137 7138 7139 7140 7141 7142 7143 7144 7145 7146 7147 7148 7149 7150 7151 7152 7153 7154 7155 7156 7157 7158 7159 7160 7161 7162 7163 7164 7165 7166 7167 7168 7169 7170 7171 7172 7173 7174 7175 7176 7177 7178 7179 7180 7181 7182 7183 7184 7185 7186 7187 7188 7189 7190 7191 7192 7193 7194 7195 7196 7197 7198 7199 7200 7201 7202 7203 7204 7205 7206 7207 7208 7209 7210 7211 7212 7213 7214 7215 7216 7217 7218 7219 7220 7221 7222 7223 7224 7225 7226 7227 7228 7229 7230 7231 7232 7233 7234 7235 7236 7237 7238 7239 7240 7241 7242 7243 7244 7245 7246 7247 7248 7249 7250 7251 7252 7253 7254 7255 7256 7257 7258 7259 7260 7261 7262 7263 7264 7265 7266 7267 7268 7269 7270 7271 7272 7273 7274 7275 7276 7277 7278 7279 7280 7281 7282 7283 7284 7285 7286 7287 7288 7289 7290 7291 7292 7293 7294 7295 7296 7297 7298 7299 7300 7301 7302 7303 7304 7305 7306 7307 7308 7309 7310 7311 7312 7313 7314 7315 7316 7317 7318 7319 7320 7321 7322 7323 7324 7325 7326 7327 7328 7329 7330 7331 7332 7333 7334 7335 7336 7337 7338 7339 7340 7341 7342 7343 7344 7345 7346 7347 7348 7349 7350 7351 7352 7353 7354 7355 7356 7357 7358 7359 7360 7361 7362 7363 7364 7365 7366 7367 7368 7369 7370 7371 7372 7373 7374 7375 7376 7377 7378 7379 7380 7381 7382 7383 7384 7385 7386 7387 7388 7389 7390 7391 7392 7393 7394 7395 7396 7397 7398 7399 7400 7401 7402 7403 7404 7405 7406 7407 7408 7409 7410 7411 7412 7413 7414 7415 7416 7417 7418 7419 7420 7421 7422 7423 7424 7425 7426 7427 7428 7429 7430 7431 7432 7433 7434 7435 7436 7437 7438 7439 7440 7441 7442 7443 7444 7445 7446 7447 7448 7449 7450 7451 7452 7453 7454 7455 7456 7457 7458 7459 7460 7461 7462 7463 7464 7465 7466 7467 7468 7469 7470 7471 7472 7473 7474 7475 7476 7477 7478 7479 7480 7481 7482 7483 7484 7485 7486 7487 7488 7489 7490 7491 7492 7493 7494 7495 7496 7497 7498 7499 7500 7501 7502 7503 7504 7505 7506 7507 7508 7509 7510 7511 7512 7513 7514 7515 7516 7517 7518 7519 7520 7521 7522 7523 7524 7525 7526 7527 7528 7529 7530 7531 7532 7533 7534 7535 7536 7537 7538 7539 7540 7541 7542 7543 7544 7545 7546 7547 7548 7549 7550 7551 7552 7553 7554 7555 7556 7557 7558 7559 7560 7561 7562 7563 7564 7565 7566 7567 7568 7569 7570 7571 7572 7573 7574 7575 7576 7577 7578 7579 7580 7581 7582 7583 7584 7585 7586 7587 7588 7589 7590 7591 7592 7593 7594 7595 7596 7597 7598 7599 7600 7601 7602 7603 7604 7605 7606 7607 7608 7609 7610 7611 7612 7613 7614 7615 7616 7617 7618 7619 7620 7621 7622 7623 7624 7625 7626 7627 7628 7629 7630 7631 7632 7633 7634 7635 7636 7637 7638 7639 7640 7641 7642 7643 7644 7645 7646 7647 7648 7649 7650 7651 7652 7653 7654 7655 7656 7657 7658 7659 7660 7661 7662 7663 7664 7665 7666 7667 7668 7669 7670 7671 7672 7673 7674 7675 7676 7677 7678 7679 7680 7681 7682 7683 7684 7685 7686 7687 7688 7689 7690 7691 7692 7693 7694 7695 7696 7697 7698 7699 7700 7701 7702 7703 7704 7705 7706 7707 7708 7709 7710 7711 7712 7713 7714 7715 7716 7717 7718 7719 7720 7721 7722 7723 7724 7725 7726 7727 7728 7729 7730 7731 7732 7733 7734 7735 7736 7737 7738 7739 7740 7741 7742 7743 7744 7745 7746 7747 7748 7749 7750 7751 7752 7753 7754 7755 7756 7757 7758 7759 7760 7761 7762 7763 7764 7765 7766 7767 7768 7769 7770 7771 7772 7773 7774 7775 7776 7777 7778 7779 7780 7781 7782 7783 7784 7785 7786 7787 7788 7789 7790 7791 7792 7793 7794 7795 7796 7797 7798 7799 7800 7801 7802 7803 7804 7805 7806 7807 7808 7809 7810 7811 7812 7813 7814 7815 7816 7817 7818 7819 7820 7821 7822 7823 7824 7825 7826 7827 7828 7829 7830 7831 7832 7833 7834 7835 7836 7837 7838 7839 7840 7841 7842 7843 7844 7845 7846 7847 7848 7849 7850 7851 7852 7853 7854 7855 7856 7857 7858 7859 7860 7861 7862 7863 7864 7865 7866 7867 7868 7869 7870 7871 7872 7873 7874 7875 7876 7877 7878 7879 7880 7881 7882 7883 7884 7885 7886 7887 7888 7889 7890 7891 7892 7893 7894 7895 7896 7897 7898 7899 7900 7901 7902 7903 7904 7905 7906 7907 7908 7909 7910 7911 7912 7913 7914 7915 7916 7917 7918 7919 7920 7921 7922 7923 7924 7925 7926 7927 7928 7929 7930 7931 7932 7933 7934 7935 7936 7937 7938 7939 7940 7941 7942 7943 7944 7945 7946 7947 7948 7949 7950 7951 7952 7953 7954 7955 7956 7957 7958 7959 7960 7961 7962 7963 7964 7965 7966 7967 7968 7969 7970 7971 7972 7973 7974 7975 7976 7977 7978 7979 7980 7981 7982 7983 7984 7985 7986 7987 7988 7989 7990 7991 7992 7993 7994 7995 7996 7997 7998 7999 8000 8001 8002 8003 8004 8005 8006 8007 8008 8009 8010 8011 8012 8013 8014 8015 8016 8017 8018 8019 8020 8021 8022 8023 8024 8025 8026 8027 8028 8029 8030 8031 8032 8033 8034 8035 8036 8037 8038 8039 8040 8041 8042 8043 8044 8045 8046 8047 8048 8049 8050 8051 8052 8053 8054 8055 8056 8057 8058 8059 8060 8061 8062 8063 8064 8065 8066 8067 8068 8069 8070 8071 8072 8073 8074 8075 8076 8077 8078 8079 8080 8081 8082 8083 8084 8085 8086 8087 8088 8089 8090 8091 8092 8093 8094 8095 8096 8097 8098 8099 8100 8101 8102 8103 8104 8105 8106 8107 8108 8109 8110 8111 8112 8113 8114 8115 8116 8117 8118 8119 8120 8121 8122 8123 8124 8125 8126 8127 8128 8129 8130 8131 8132 8133 8134 8135 8136 8137 8138 8139 8140 8141 8142 8143 8144 8145 8146 8147 8148 8149 8150 8151 8152 8153 8154 8155 8156 8157 8158 8159 8160 8161 8162 8163 8164 8165 8166 8167 8168 8169 8170 8171 8172 8173 8174 8175 8176 8177 8178 8179 8180 8181 8182 8183 8184 8185 8186 8187 8188 8189 8190 8191 8192 8193 8194 8195 8196 8197 8198 8199 8200 8201 8202 8203 8204 8205 8206 8207 8208 8209 8210 8211 8212 8213 8214 8215 8216 8217 8218 8219 8220 8221 8222 8223 8224 8225 8226 8227 8228 8229 8230 8231 8232 8233 8234 8235 8236 8237 8238 8239 8240 8241 8242 8243 8244 8245 8246 8247 8248 8249 8250 8251 8252 8253 8254 8255 8256 8257 8258 8259 8260 8261 8262 8263 8264 8265 8266 8267 8268 8269 8270 8271 8272 8273 8274 8275 8276 8277 8278 8279 8280 8281 8282 8283 8284 8285 8286 8287 8288 8289 8290 8291 8292 8293 8294 8295 8296 8297 8298 8299 8300 8301 8302 8303 8304 8305 8306 8307 8308 8309 8310 8311 8312 8313 8314 8315 8316 8317 8318 8319 8320 8321 8322 8323 8324 8325 8326 8327 8328 8329 8330 8331 8332 8333 8334 8335 8336 8337 8338 8339 8340 8341 8342 8343 8344 8345 8346 8347 8348 8349 8350 8351 8352 8353 8354 8355 8356 8357 8358 8359 8360 8361 8362 8363 8364 8365 8366 8367 8368 8369 8370 8371 8372 8373 8374 8375 8376 8377 8378 8379 8380 8381 8382 8383 8384 8385 8386 8387 8388 8389 8390 8391 8392 8393 8394 8395 8396 8397 8398 8399 8400 8401 8402 8403 8404 8405 8406 8407 8408 8409 8410 8411 8412 8413 8414 8415 8416 8417 8418 8419 8420 8421 8422 8423 8424 8425 8426 8427 8428 8429 8430 8431 8432 8433 8434 8435 8436 8437 8438 8439 8440 8441 8442 8443 8444 8445 8446 8447 8448 8449 8450 8451 8452 8453 8454 8455 8456 8457 8458 8459 8460 8461 8462 8463 8464 8465 8466 8467 8468 8469 8470 8471 8472 8473 8474 8475 8476 8477 8478 8479 8480 8481 8482 8483 8484 8485 8486 8487 8488 8489 8490 8491 8492 8493 8494 8495 8496 8497 8498 8499 8500 8501 8502 8503 8504 8505 8506 8507 8508 8509 8510 8511 8512 8513 8514 8515 8516 8517 8518 8519 8520 8521 8522 8523 8524 8525 8526 8527 8528 8529 8530 8531 8532 8533 8534 8535 8536 8537 8538 8539 8540 8541 8542 8543 8544 8545 8546 8547 8548 8549 8550 8551 8552 8553 8554 8555 8556 8557 8558 8559 8560 8561 8562 8563 8564 8565 8566 8567 8568 8569 8570 8571 8572 8573 8574 8575 8576 8577 8578 8579 8580 8581 8582 8583 8584 8585 8586 8587 8588 8589 8590 8591 8592 8593 8594 8595 8596 8597 8598 8599 8600 8601 8602 8603 8604 8605 8606 8607 8608 8609 8610 8611 8612 8613 8614 8615 8616 8617 8618 8619 8620 8621 8622 8623 8624 8625 8626 8627 8628 8629 8630 8631 8632 8633 8634 8635 8636 8637 8638 8639 8640 8641 8642 8643 8644 8645 8646 8647 8648 8649 8650 8651 8652 8653 8654 8655 8656 8657 8658 8659 8660 8661 8662 8663 8664 8665 8666 8667 8668 8669 8670 8671 8672 8673 8674 8675 8676 8677 8678 8679 8680 8681 8682 8683 8684 8685 8686 8687 8688 8689 8690 8691 8692 8693 8694 8695 8696 8697 8698 8699 8700 8701 8702 8703 8704 8705 8706 8707 8708 8709 8710 8711 8712 8713 8714 8715 8716 8717 8718 8719 8720 8721 8722 8723 8724 8725 8726 8727 8728 8729 8730 8731 8732 8733 8734 8735 8736 8737 8738 8739 8740 8741 8742 8743 8744 8745 8746 8747 8748 8749 8750 8751 8752 8753 8754 8755 8756 8757 8758 8759 8760 8761 8762 8763 8764 8765 8766 8767 8768 8769 8770 8771 8772 8773 8774 8775 8776 8777 8778 8779 8780 8781 8782 8783 8784 8785 8786 8787 8788 8789 8790 8791 8792 8793 8794 8795 8796 8797 8798 8799 8800 8801 8802 8803 8804 8805 8806 8807 8808 8809 8810 8811 8812 8813 8814 8815 8816 8817 8818 8819 8820 8821 8822 8823 8824 8825 8826 8827 8828 8829 8830 8831 8832 8833 8834 8835 8836 8837 8838 8839 8840 8841 8842 8843 8844 8845 8846 8847 8848 8849 8850 8851 8852 8853 8854 8855 8856 8857 8858 8859 8860 8861 8862 8863 8864 8865 8866 8867 8868 8869 8870 8871 8872 8873 8874 8875 8876 8877 8878 8879 8880 8881 8882 8883 8884 8885 8886 8887 8888 8889 8890 8891 8892 8893 8894 8895 8896 8897 8898 8899 8900 8901 8902 8903 8904 8905 8906 8907 8908 8909 8910 8911 8912 8913 8914 8915 8916 8917 8918 8919 8920 8921 8922 8923 8924 8925 8926 8927 8928 8929 8930 8931 8932 8933 8934 8935 8936 8937 8938 8939 8940 8941 8942 8943 8944 8945 8946 8947 8948 8949 8950 8951 8952 8953 8954 8955 8956 8957 8958 8959 8960 8961 8962 8963 8964 8965 8966 8967 8968 8969 8970 8971 8972 8973 8974 8975 8976 8977 8978 8979 8980 8981 8982 8983 8984 8985 8986 8987 8988 8989 8990 8991 8992 8993 8994 8995 8996 8997 8998 8999 9000 9001 9002 9003 9004 9005 9006 9007 9008 9009 9010 9011 9012 9013 9014 9015 9016 9017 9018 9019 9020 9021 9022 9023 9024 9025 9026 9027 9028 9029 9030 9031 9032 9033 9034 9035 9036 9037 9038 9039 9040 9041 9042 9043 9044 9045 9046 9047 9048 9049 9050 9051 9052 9053 9054 9055 9056 9057 9058 9059 9060 9061 9062 9063 9064 9065 9066 9067 9068 9069 9070 9071 9072 9073 9074 9075 9076 9077 9078 9079 9080 9081 9082 9083 9084 9085 9086 9087 9088 9089 9090 9091 9092 9093 9094 9095 9096 9097 9098 9099 9100 9101 9102 9103 9104 9105 9106 9107 9108 9109 9110 9111 9112 9113 9114 9115 9116 9117 9118 9119 9120 9121 9122 9123 9124 9125 9126 9127 9128 9129 9130 9131 9132 9133 9134 9135 9136 9137 9138 9139 9140 9141 9142 9143 9144 9145 9146 9147 9148 9149 9150 9151 9152 9153 9154 9155 9156 9157 9158 9159 9160 9161 9162 9163 9164 9165 9166 9167 9168 9169 9170 9171 9172 9173 9174 9175 9176 9177 9178 9179 9180 9181 9182 9183 9184 9185 9186 9187 9188 9189 9190 9191 9192 9193 9194 9195 9196 9197 9198 9199 9200 9201 9202 9203 9204 9205 9206 9207 9208 9209 9210 9211 9212 9213 9214 9215 9216 9217 9218 9219 9220 9221 9222 9223 9224 9225 9226 9227 9228 9229 9230 9231 9232 9233 9234 9235 9236 9237 9238 9239 9240 9241 9242 9243 9244 9245 9246 9247 9248 9249 9250 9251 9252 9253 9254 9255 9256 9257 9258 9259 9260 9261 9262 9263 9264 9265 9266 9267 9268 9269 9270 9271 9272 9273 9274 9275 9276 9277 9278 9279 9280 9281 9282 9283 9284 9285 9286 9287 9288 9289 9290 9291 9292 9293 9294 9295 9296 9297 9298 9299 9300 9301 9302 9303 9304 9305 9306 9307 9308 9309 9310 9311 9312 9313 9314 9315 9316 9317 9318 9319 9320 9321 9322 9323 9324 9325 9326 9327 9328 9329 9330 9331 9332 9333 9334 9335 9336 9337 9338 9339 9340 9341 9342 9343 9344 9345 9346 9347 9348 9349 9350 9351 9352 9353 9354 9355 9356 9357 9358 9359 9360 9361 9362 9363 9364 9365 9366 9367 9368 9369 9370 9371 9372 9373 9374 9375 9376 9377 9378 9379 9380 9381 9382 9383 9384 9385 9386 9387 9388 9389 9390 9391 9392 9393 9394 9395 9396 9397 9398 9399 9400 9401 9402 9403 9404 9405 9406 9407 9408 9409 9410 9411 9412 9413 9414 9415 9416 9417 9418 9419 9420 9421 9422 9423 9424 9425 9426 9427 9428 9429 9430 9431 9432 9433 9434 9435 9436 9437 9438 9439 9440 9441 9442 9443 9444 9445 9446 9447 9448 9449 9450 9451 9452 9453 9454 9455 9456 9457 9458 9459 9460 9461 9462 9463 9464 9465 9466 9467 9468 9469 9470 9471 9472 9473 9474 9475 9476 9477 9478 9479 9480 9481 9482 9483 9484 9485 9486 9487 9488 9489 9490 9491 9492 9493 9494 9495 9496 9497 9498 9499 9500 9501 9502 9503 9504 9505 9506 9507 9508 9509 9510 9511 9512 9513 9514 9515 9516 9517 9518 9519 9520 9521 9522 9523 9524 9525 9526 9527 9528 9529 9530 9531 9532 9533 9534 9535 9536 9537 9538 9539 9540 9541 9542 9543 9544 9545 9546 9547 9548 9549 9550 9551 9552 9553 9554 9555 9556 9557 9558 9559 9560 9561 9562 9563 9564 9565 9566 9567 9568 9569 9570 9571 9572 9573 9574 9575 9576 9577 9578 9579 9580 9581 9582 9583 9584 9585 9586 9587 9588 9589 9590 9591 9592 9593 9594 9595 9596 9597 9598 9599 9600 9601 9602 9603 9604 9605 9606 9607 9608 9609 9610 9611 9612 9613 9614 9615 9616 9617 9618 9619 9620 9621 9622 9623 9624 9625 9626 9627 9628 9629 9630 9631 9632 9633 9634 9635 9636 9637 9638 9639 9640 9641 9642 9643 9644 9645 9646 9647 9648 9649 9650 9651 9652 9653 9654 9655 9656 9657 9658 9659 9660 9661 9662 9663 9664 9665 9666 9667 9668 9669 9670 9671 9672 9673 9674 9675 9676 9677 9678 9679 9680 9681 9682 9683 9684 9685 9686 9687 9688 9689 9690 9691 9692 9693 9694 9695 9696 9697 9698 9699 9700 9701 9702 9703 9704 9705 9706 9707 9708 9709 9710 9711 9712 9713 9714 9715 9716 9717 9718 9719 9720 9721 9722 9723 9724 9725 9726 9727 9728 9729 9730 9731 9732 9733 9734 9735 9736 9737 9738 9739 9740 9741 9742 9743 9744 9745 9746 9747 9748 9749 9750 9751 9752 9753 9754 9755 9756 9757 9758 9759 9760 9761 9762 9763 9764 9765 9766 9767 9768 9769 9770 9771 9772 9773 9774 9775 9776 9777 9778 9779 9780 9781 9782 9783 9784 9785 9786 9787 9788 9789 9790 9791 9792 9793 9794 9795 9796 9797 9798 9799 9800 9801 9802 9803 9804 9805 9806 9807 9808 9809 9810 9811 9812 9813 9814 9815 9816 9817 9818 9819 9820 9821 9822 9823 9824 9825 9826 9827 9828 9829 9830 9831 9832 9833 9834 9835 9836 9837 9838 9839 9840 9841 9842 9843 9844 9845 9846 9847 9848 9849 9850 9851 9852 9853 9854 9855 9856 9857 9858 9859 9860 9861 9862 9863 9864 9865 9866 9867 9868 9869 9870 9871 9872 9873 9874 9875 9876 9877 9878 9879 9880 9881 9882 9883 9884 9885 9886 9887 9888 9889 9890 9891 9892 9893 9894 9895 9896 9897 9898 9899 9900 9901 9902 9903 9904 9905 9906 9907 9908 9909 9910 9911 9912 9913 9914 9915 9916 9917 9918 9919 9920 9921 9922 9923 9924 9925 9926 9927 9928 9929 9930 9931 9932 9933 9934 9935 9936 9937 9938 9939 9940 9941 9942 9943 9944 9945 9946 9947 9948 9949 9950 9951 9952 9953 9954 9955 9956 9957 9958 9959 9960 9961 9962 9963 9964 9965 9966 9967 9968 9969 9970 9971 9972 9973 9974 9975 9976 9977 9978 9979 9980 9981 9982 9983 9984 9985 9986 9987 9988 9989 9990 9991 9992 9993 9994 9995 9996 9997 9998 9999 10000 10001 10002 10003 10004 10005 10006 10007 10008 10009 10010 10011 10012 10013 10014 10015 10016 10017 10018 10019 10020 10021 10022 10023 10024 10025 10026 10027 10028 10029 10030 10031 10032 10033 10034 10035 10036 10037 10038 10039 10040 10041 10042 10043 10044 10045 10046 10047 10048 10049 10050 10051 10052 10053 10054 10055 10056 10057 10058 10059 10060 10061 10062 10063 10064 10065 10066 10067 10068 10069 10070 10071 10072 10073 10074 10075 10076 10077 10078 10079 10080 10081 10082 10083 10084 10085 10086 10087 10088 10089 10090 10091 10092 10093 10094 10095 10096 10097 10098 10099 10100 10101 10102 10103 10104 10105 10106 10107 10108 10109 10110 10111 10112 10113 10114 10115 10116 10117 10118 10119 10120 10121 10122 10123 10124 10125 10126 10127 10128 10129 10130 10131 10132 10133 10134 10135 10136 10137 10138 10139 10140 10141 10142 10143 10144 10145 10146 10147 10148 10149 10150 10151 10152 10153 10154 10155 10156 10157 10158 10159 10160 10161 10162 10163 10164 10165 10166 10167 10168 10169 10170 10171 10172 10173 10174 10175 10176 10177 10178 10179 10180 10181 10182 10183 10184 10185 10186 10187 10188 10189 10190 10191 10192 10193 10194 10195 10196 10197 10198 10199 10200 10201 10202 10203 10204 10205 10206 10207 10208 10209 10210 10211 10212 10213 10214 10215 10216 10217 10218 10219 10220 10221 10222 10223 10224 10225 10226 10227 10228 10229 10230 10231 10232 10233 10234 10235 10236 10237 10238 10239 10240 10241 10242 10243 10244 10245 10246 10247 10248 10249 10250 10251 10252 10253 10254 10255 10256 10257 10258 10259 10260 10261 10262 10263 10264 10265 10266 10267 10268 10269 10270 10271 10272 10273 10274 10275 10276 10277 10278 10279 10280 10281 10282 10283 10284 10285 10286 10287 10288 10289 10290 10291 10292 10293 10294 10295 10296 10297 10298 10299 10300 10301 10302 10303 10304 10305 10306 10307 10308 10309 10310 10311 10312 10313 10314 10315 10316 10317 10318 10319 10320 10321 10322 10323 10324 10325 10326 10327 10328 10329 10330 10331 10332 10333 10334 10335 10336 10337 10338 10339 10340 10341 10342 10343 10344 10345 10346 10347 10348 10349 10350 10351 10352 10353 10354 10355 10356 10357 10358 10359 10360 10361 10362 10363 10364 10365 10366 10367 10368 10369 10370 10371 10372 10373 10374 10375 10376 10377 10378 10379 10380 10381 10382 10383 10384 10385 10386 10387 10388 10389 10390 10391 10392 10393 10394 10395 10396 10397 10398 10399 10400 10401 10402 10403 10404 10405 10406 10407 10408 10409 10410 10411 10412 10413 10414 10415 10416 10417 10418 10419 10420 10421 10422 10423 10424 10425 10426 10427 10428 10429 10430 10431 10432 10433 10434 10435 10436 10437 10438 10439 10440 10441 10442 10443 10444 10445 10446 10447 10448 10449 10450 10451 10452 10453 10454 10455 10456 10457 10458 10459 10460 10461 10462 10463 10464 10465 10466 10467 10468 10469 10470 10471 10472 10473 10474 10475 10476 10477 10478 10479 10480 10481 10482 10483 10484 10485 10486 10487 10488 10489 10490 10491 10492 10493 10494 10495 10496 10497 10498 10499 10500 10501 10502 10503 10504 10505 10506 10507 10508 10509 10510 10511 10512 10513 10514 10515 10516 10517 10518 10519 10520 10521 10522 10523 10524 10525 10526 10527 10528 10529 10530 10531 10532 10533 10534 10535 10536 10537 10538 10539 10540 10541 10542 10543 10544 10545 10546 10547 10548 10549 10550 10551 10552 10553 10554 10555 10556 10557 10558 10559 10560 10561 10562 10563 10564 10565 10566 10567 10568 10569 10570 10571 10572 10573 10574 10575 10576 10577 10578 10579 10580 10581 10582 10583 10584 10585 10586 10587 10588 10589 10590 10591 10592 10593 10594 10595 10596 10597 10598 10599 10600 10601 10602 10603 10604 10605 10606 10607 10608 10609 10610 10611 10612 10613 10614 10615 10616 10617 10618 10619 10620 10621 10622 10623 10624 10625 10626 10627 10628 10629 10630 10631 10632 10633 10634 10635 10636 10637 10638 10639 10640 10641 10642 10643 10644 10645 10646 10647 10648 10649 10650 10651 10652 10653 10654 10655 10656 10657 10658 10659 10660 10661 10662 10663 10664 10665 10666 10667 10668 10669 10670 10671 10672 10673 10674 10675 10676 10677 10678 10679 10680 10681 10682 10683 10684 10685 10686 10687 10688 10689 10690 10691 10692 10693 10694 10695 10696 10697 10698 10699 10700 10701 10702 10703 10704 10705 10706 10707 10708 10709 10710 10711 10712 10713 10714 10715 10716 10717 10718 10719 10720 10721 10722 10723 10724 10725 10726 10727 10728 10729 10730 10731 10732 10733 10734 10735 10736 10737 10738 10739 10740 10741 10742 10743 10744 10745 10746 10747 10748 10749 10750 10751 10752 10753 10754 10755 10756 10757 10758 10759 10760 10761 10762 10763 10764 10765 10766 10767 10768 10769 10770 10771 10772 10773 10774 10775 10776 10777 10778 10779 10780 10781 10782 10783 10784 10785 10786 10787 10788 10789 10790 10791 10792 10793 10794 10795 10796 10797 10798 10799 10800 10801 10802 10803 10804 10805 10806 10807 10808 10809 10810 10811 10812 10813 10814 10815 10816 10817 10818 10819 10820 10821 10822 10823 10824 10825 10826 10827 10828 10829 10830 10831 10832 10833 10834 10835 10836 10837 10838 10839 10840 10841 10842 10843 10844 10845 10846 10847 10848 10849 10850 10851 10852 10853 10854 10855 10856 10857 10858 10859 10860 10861 10862 10863 10864 10865 10866 10867 10868 10869 10870 10871 10872 10873 10874 10875 10876 10877 10878 10879 10880 10881 10882 10883 10884 10885 10886 10887 10888 10889 10890 10891 10892 10893 10894 10895 10896 10897 10898 10899 10900 10901 10902 10903 10904 10905 10906 10907 10908 10909 10910 10911 10912 10913 10914 10915 10916 10917 10918 10919 10920 10921 10922 10923 10924 10925 10926 10927 10928 10929 10930 10931 10932 10933 10934 10935 10936 10937 10938 10939 10940 10941 10942 10943 10944 10945 10946 10947 10948 10949 10950 10951 10952 10953 10954 10955 10956 10957 10958 10959 10960 10961 10962 10963 10964 10965 10966 10967 10968 10969 10970 10971 10972 10973 10974 10975 10976 10977 10978 10979 10980 10981 10982 10983 10984 10985 10986 10987 10988 10989 10990 10991 10992 10993 10994 10995 10996 10997 10998 10999 11000 11001 11002 11003 11004 11005 11006 11007 11008 11009 11010 11011 11012 11013 11014 11015 11016 11017 11018 11019 11020 11021 11022 11023 11024 11025 11026 11027 11028 11029 11030 11031 11032 11033 11034 11035 11036 11037 11038 11039 11040 11041 11042 11043 11044 11045 11046 11047 11048 11049 11050 11051 11052 11053 11054 11055 11056 11057 11058 11059 11060 11061 11062 11063 11064 11065 11066 11067 11068 11069 11070 11071 11072 11073 11074 11075 11076 11077 11078 11079 11080 11081 11082 11083 11084 11085 11086 11087 11088 11089 11090 11091 11092 11093 11094 11095 11096 11097 11098 11099 11100 11101 11102 11103 11104 11105 11106 11107 11108 11109 11110 11111 11112 11113 11114 11115 11116 11117 11118 11119 11120 11121 11122 11123 11124 11125 11126 11127 11128 11129 11130 11131 11132 11133 11134 11135 11136 11137 11138 11139 11140 11141 11142 11143 11144 11145 11146 11147 11148 11149 11150 11151 11152 11153 11154 11155 11156 11157 11158 11159 11160 11161 11162 11163 11164 11165 11166 11167 11168 11169 11170 11171 11172 11173 11174 11175 11176 11177 11178 11179 11180 11181 11182 11183 11184 11185 11186 11187 11188 11189 11190 11191 11192 11193 11194 11195 11196 11197 11198 11199 11200 11201 11202 11203 11204 11205 11206 11207 11208 11209 11210 11211 11212 11213 11214 11215 11216 11217 11218 11219 11220 11221 11222 11223 11224 11225 11226 11227 11228 11229 11230 11231 11232 11233 11234 11235 11236 11237 11238 11239 11240 11241 11242 11243 11244 11245 11246 11247 11248 11249 11250 11251 11252 11253 11254 11255 11256 11257 11258 11259 11260 11261 11262 11263 11264 11265 11266 11267 11268 11269 11270 11271 11272 11273 11274 11275 11276 11277 11278 11279 11280 11281 11282 11283 11284 11285 11286 11287 11288 11289 11290 11291 11292 11293 11294 11295 11296 11297 11298 11299 11300 11301 11302 11303 11304 11305 11306 11307 11308 11309 11310 11311 11312 11313 11314 11315 11316 11317 11318 11319 11320 11321 11322 11323 11324 11325 11326 11327 11328 11329 11330 11331 11332 11333 11334 11335 11336 11337 11338 11339 11340 11341 11342 11343 11344 11345 11346 11347 11348 11349 11350 11351 11352 11353 11354 11355 11356 11357 11358 11359 11360 11361 11362 11363 11364 11365 11366 11367 11368 11369 11370 11371 11372 11373 11374 11375 11376 11377 11378 11379 11380 11381 11382 11383 11384 11385 11386 11387 11388 11389 11390 11391 11392 11393 11394 11395 11396 11397 11398 11399 11400 11401 11402 11403 11404 11405 11406 11407 11408 11409 11410 11411 11412 11413 11414 11415 11416 11417 11418 11419 11420 11421 11422 11423 11424 11425 11426 11427 11428 11429 11430 11431 11432 11433 11434 11435 11436 11437 11438 11439 11440 11441 11442 11443 11444 11445 11446 11447 11448 11449 11450 11451 11452 11453 11454 11455 11456 11457 11458 11459 11460 11461 11462 11463 11464 11465 11466 11467 11468 11469 11470 11471 11472 11473 11474 11475 11476 11477 11478 11479 11480 11481 11482 11483 11484 11485 11486 11487 11488 11489 11490 11491 11492 11493 11494 11495 11496 11497 11498 11499 11500 11501 11502 11503 11504 11505 11506 11507 11508 11509 11510 11511 11512 11513 11514 11515 11516 11517 11518 11519 11520 11521 11522 11523 11524 11525 11526 11527 11528 11529 11530 11531 11532 11533 11534 11535 11536 11537 11538 11539 11540 11541 11542 11543 11544 11545 11546 11547 11548 11549 11550 11551 11552 11553 11554 11555 11556 11557 11558 11559 11560 11561 11562 11563 11564 11565 11566 11567 11568 11569 11570 11571 11572 11573 11574 11575 11576 11577 11578 11579 11580 11581 11582 11583 11584 11585 11586 11587 11588 11589 11590 11591 11592 11593 11594 11595 11596 11597 11598 11599 11600 11601 11602 11603 11604 11605 11606 11607 11608 11609 11610 11611 11612 11613 11614 11615 11616 11617 11618 11619 11620 11621 11622 11623 11624 11625 11626 11627 11628 11629 11630 11631 11632 11633 11634 11635 11636 11637 11638 11639 11640 11641 11642 11643 11644 11645 11646 11647 11648 11649 11650 11651 11652 11653 11654 11655 11656 11657 11658 11659 11660 11661 11662 11663 11664 11665 11666 11667 11668 11669 11670 11671 11672 11673 11674 11675 11676 11677 11678 11679 11680 11681 11682 11683 11684 11685 11686 11687 11688 11689 11690 11691 11692 11693 11694 11695 11696 11697 11698 11699 11700 11701 11702 11703 11704 11705 11706 11707 11708 11709 11710 11711 11712 11713 11714 11715 11716 11717 11718 11719 11720 11721 11722 11723 11724 11725 11726 11727 11728 11729 11730 11731 11732 11733 11734 11735 11736 11737 11738 11739 11740 11741 11742 11743 11744 11745 11746 11747 11748 11749 11750 11751 11752 11753 11754 11755 11756 11757 11758 11759 11760 11761 11762 11763 11764 11765 11766 11767 11768 11769 11770 11771 11772 11773 11774 11775 11776 11777 11778 11779 11780 11781 11782 11783 11784 11785 11786 11787 11788 11789 11790 11791 11792 11793 11794 11795 11796 11797 11798 11799 11800 11801 11802 11803 11804 11805 11806 11807 11808 11809 11810 11811 11812 11813 11814 11815 11816 11817 11818 11819 11820 11821 11822 11823 11824 11825 11826 11827 11828 11829 11830 11831 11832 11833 11834 11835 11836 11837 11838 11839 11840 11841 11842 11843 11844 11845 11846 11847 11848 11849 11850 11851 11852 11853 11854 11855 11856 11857 11858 11859 11860 11861 11862 11863 11864 11865 11866 11867 11868 11869 11870 11871 11872 11873 11874 11875 11876 11877 11878 11879 11880 11881 11882 11883 11884 11885 11886 11887 11888 11889 11890 11891 11892 11893 11894 11895 11896 11897 11898 11899 11900 11901 11902 11903 11904 11905 11906 11907 11908 11909 11910 11911 11912 11913 11914 11915 11916 11917 11918 11919 11920 11921 11922 11923 11924 11925 11926 11927 11928 11929 11930 11931 11932 11933 11934 11935 11936 11937 11938 11939 11940 11941 11942 11943 11944 11945 11946 11947 11948 11949 11950 11951 11952 11953 11954 11955 11956 11957 11958 11959 11960 11961 11962 11963 11964 11965 11966 11967 11968 11969 11970 11971 11972 11973 11974 11975 11976 11977 11978 11979 11980 11981 11982 11983 11984 11985 11986 11987 11988 11989 11990 11991 11992 11993 11994 11995 11996 11997 11998 11999 12000 12001 12002 12003 12004 12005 12006 12007 12008 12009 12010 12011 12012 12013 12014 12015 12016 12017 12018 12019 12020 12021 12022 12023 12024 12025 12026 12027 12028 12029 12030 12031 12032 12033 12034 12035 12036 12037 12038 12039 12040 12041 12042 12043 12044 12045 12046 12047 12048 12049 12050 12051 12052 12053 12054 12055 12056 12057 12058 12059 12060 12061 12062 12063 12064 12065 12066 12067 12068 12069 12070 12071 12072 12073 12074 12075 12076 12077 12078 12079 12080 12081 12082 12083 12084 12085 12086 12087 12088 12089 12090 12091 12092 12093 12094 12095 12096 12097 12098 12099 12100 12101 12102 12103 12104 12105 12106 12107 12108 12109 12110 12111 12112 12113 12114 12115 12116 12117 12118 12119 12120 12121 12122 12123 12124 12125 12126 12127 12128 12129 12130 12131 12132 12133 12134 12135 12136 12137 12138 12139 12140 12141 12142 12143 12144 12145 12146 12147 12148 12149 12150 12151 12152 12153 12154 12155 12156 12157 12158 12159 12160 12161 12162 12163 12164 12165 12166 12167 12168 12169 12170 12171 12172 12173 12174 12175 12176 12177 12178 12179 12180 12181 12182 12183 12184 12185 12186 12187 12188 12189 12190 12191 12192 12193 12194 12195 12196 12197 12198 12199 12200 12201 12202 12203 12204 12205 12206 12207 12208 12209 12210 12211 12212 12213 12214 12215 12216 12217 12218 12219 12220 12221 12222 12223 12224 12225 12226 12227 12228 12229 12230 12231 12232 12233 12234 12235 12236 12237 12238 12239 12240 12241 12242 12243 12244 12245 12246 12247 12248 12249 12250 12251 12252 12253 12254 12255 12256 12257 12258 12259 12260 12261 12262 12263 12264 12265 12266 12267 12268 12269 12270 12271 12272 12273 12274 12275 12276 12277 12278 12279 12280 12281 12282 12283 12284 12285 12286 12287 12288 12289 12290 12291 12292 12293 12294 12295 12296 12297 12298 12299 12300 12301 12302 12303 12304 12305 12306 12307 12308 12309 12310 12311 12312 12313 12314 12315 12316 12317 12318 12319 12320 12321 12322 12323 12324 12325 12326 12327 12328 12329 12330 12331 12332 12333 12334 12335 12336 12337 12338 12339 12340 12341 12342 12343 12344 12345 12346 12347 12348 12349 12350 12351 12352 12353 12354 12355 12356 12357 12358 12359 12360 12361 12362 12363 12364 12365 12366 12367 12368 12369 12370 12371 12372 12373 12374 12375 12376 12377 12378 12379 12380 12381 12382 12383 12384 12385 12386 12387 12388 12389 12390 12391 12392 12393 12394 12395 12396 12397 12398 12399 12400 12401 12402 12403 12404 12405 12406 12407 12408 12409 12410 12411 12412 12413 12414 12415 12416 12417 12418 12419 12420 12421 12422 12423 12424 12425 12426 12427 12428 12429 12430 12431 12432 12433 12434 12435 12436 12437 12438 12439 12440 12441 12442 12443 12444 12445 12446 12447 12448 12449 12450 12451 12452 12453 12454 12455 12456 12457 12458 12459 12460 12461 12462 12463 12464 12465 12466 12467 12468 12469 12470 12471 12472 12473 12474 12475 12476 12477 12478 12479 12480 12481 12482 12483 12484 12485 12486 12487 12488 12489 12490 12491 12492 12493 12494 12495 12496 12497 12498 12499 12500 12501 12502 12503 12504 12505 12506 12507 12508 12509 12510 12511 12512 12513 12514 12515 12516 12517 12518 12519 12520 12521 12522 12523 12524 12525 12526 12527 12528 12529 12530 12531 12532 12533 12534 12535 12536 12537 12538 12539 12540 12541 12542 12543 12544 12545 12546 12547 12548 12549 12550 12551 12552 12553 12554 12555 12556 12557 12558 12559 12560 12561 12562 12563 12564 12565 12566 12567 12568 12569 12570 12571 12572 12573 12574 12575 12576 12577 12578 12579 12580 12581 12582 12583 12584 12585 12586 12587 12588 12589 12590 12591 12592 12593 12594 12595 12596 12597 12598 12599 12600 12601 12602 12603 12604 12605 12606 12607 12608 12609 12610 12611 12612 12613 12614 12615 12616 12617 12618 12619 12620 12621 12622 12623 12624 12625 12626 12627 12628 12629 12630 12631 12632 12633 12634 12635 12636 12637 12638 12639 12640 12641 12642 12643 12644 12645 12646 12647 12648 12649 12650 12651 12652 12653 12654 12655 12656 12657 12658 12659 12660 12661 12662 12663 12664 12665 12666 12667 12668 12669 12670 12671 12672 12673 12674 12675 12676 12677 12678 12679 12680 12681 12682 12683 12684 12685 12686 12687 12688 12689 12690 12691 12692 12693 12694 12695 12696 12697 12698 12699 12700 12701 12702 12703 12704 12705 12706 12707 12708 12709 12710 12711 12712 12713 12714 12715 12716 12717 12718 12719 12720 12721 12722 12723 12724 12725 12726 12727 12728 12729 12730 12731 12732 12733 12734 12735 12736 12737 12738 12739 12740 12741 12742 12743 12744 12745 12746 12747 12748 12749 12750 12751 12752 12753 12754 12755 12756 12757 12758 12759 12760 12761 12762 12763 12764 12765 12766 12767 12768 12769 12770 12771 12772 12773 12774 12775 12776 12777 12778 12779 12780 12781 12782 12783 12784 12785 12786 12787 12788 12789 12790 12791 12792 12793 12794 12795 12796 12797 12798 12799 12800 12801 12802 12803 12804 12805 12806 12807 12808 12809 12810 12811 12812 12813 12814 12815 12816 12817 12818 12819 12820 12821 12822 12823 12824 12825 12826 12827 12828 12829 12830 12831 12832 12833 12834 12835 12836 12837 12838 12839 12840 12841 12842 12843 12844 12845 12846 12847 12848 12849 12850 12851 12852 12853 12854 12855 12856 12857 12858 12859 12860 12861 12862 12863 12864 12865 12866 12867 12868 12869 12870 12871 12872 12873 12874 12875 12876 12877 12878 12879 12880 12881 12882 12883 12884 12885 12886 12887 12888 12889 12890 12891 12892 12893 12894 12895 12896 12897 12898 12899 12900 12901 12902 12903 12904 12905 12906 12907 12908 12909 12910 12911 12912 12913 12914 12915 12916 12917 12918 12919 12920 12921 12922 12923 12924 12925 12926 12927 12928 12929 12930 12931 12932 12933 12934 12935 12936 12937 12938 12939 12940 12941 12942 12943 12944 12945 12946 12947 12948 12949 12950 12951 12952 12953 12954 12955 12956 12957 12958 12959 12960 12961 12962 12963 12964 12965 12966 12967 12968 12969 12970 12971 12972 12973 12974 12975 12976 12977 12978 12979 12980 12981 12982 12983 12984 12985 12986 12987 12988 12989 12990 12991 12992 12993 12994 12995 12996 12997 12998 12999 13000 13001 13002 13003 13004 13005 13006 13007 13008 13009 13010 13011 13012 13013 13014 13015 13016 13017 13018 13019 13020 13021 13022 13023 13024 13025 13026 13027 13028 13029 13030 13031 13032 13033 13034 13035 13036 13037 13038 13039 13040 13041 13042 13043 13044 13045 13046 13047 13048 13049 13050 13051 13052 13053 13054 13055 13056 13057 13058 13059 13060 13061 13062 13063 13064 13065 13066 13067 13068 13069 13070 13071 13072 13073 13074 13075 13076 13077 13078 13079 13080 13081 13082 13083 13084 13085 13086 13087 13088 13089 13090 13091 13092 13093 13094 13095 13096 13097 13098 13099 13100 13101 13102 13103 13104 13105 13106 13107 13108 13109 13110 13111 13112 13113 13114 13115 13116 13117 13118 13119 13120 13121 13122 13123 13124 13125 13126 13127 13128 13129 13130 13131 13132 13133 13134 13135 13136 13137 13138 13139 13140 13141 13142 13143 13144 13145 13146 13147 13148 13149 13150 13151 13152 13153 13154 13155 13156 13157 13158 13159 13160 13161 13162 13163 13164 13165 13166 13167 13168 13169 13170 13171 13172 13173 13174 13175 13176 13177 13178 13179 13180 13181 13182 13183 13184 13185 13186 13187 13188 13189 13190 13191 13192 13193 13194 13195 13196 13197 13198 13199 13200 13201 13202 13203 13204 13205 13206 13207 13208 13209 13210 13211 13212 13213 13214 13215 13216 13217 13218 13219 13220 13221 13222 13223 13224 13225 13226 13227 13228 13229 13230 13231 13232 13233 13234 13235 13236 13237 13238 13239 13240 13241 13242 13243 13244 13245 13246 13247 13248 13249 13250 13251 13252 13253 13254 13255 13256 13257 13258 13259 13260 13261 13262 13263 13264 13265 13266 13267 13268 13269 13270 13271 13272 13273 13274 13275 13276 13277 13278 13279 13280 13281 13282 13283 13284 13285 13286 13287 13288 13289 13290 13291 13292 13293 13294 13295 13296 13297 13298 13299 13300 13301 13302 13303 13304 13305 13306 13307 13308 13309 13310 13311 13312 13313 13314 13315 13316 13317 13318 13319 13320 13321 13322 13323 13324 13325 13326 13327 13328 13329 13330 13331 13332 13333 13334 13335 13336 13337 13338 13339 13340 13341 13342 13343 13344 13345 13346 13347 13348 13349 13350 13351 13352 13353 13354 13355 13356 13357 13358 13359 13360 13361 13362 13363 13364 13365 13366 13367 13368 13369 13370 13371 13372 13373 13374 13375 13376 13377 13378 13379 13380 13381 13382 13383 13384 13385 13386 13387 13388 13389 13390 13391 13392 13393 13394 13395 13396 13397 13398 13399 13400 13401 13402 13403 13404 13405 13406 13407 13408 13409 13410 13411 13412 13413 13414 13415 13416 13417 13418 13419 13420 13421 13422 13423 13424 13425 13426 13427 13428 13429 13430 13431 13432 13433 13434 13435 13436 13437 13438 13439 13440 13441 13442 13443 13444 13445 13446 13447 13448 13449 13450 13451 13452 13453 13454 13455 13456 13457 13458 13459 13460 13461 13462 13463 13464 13465 13466 13467 13468 13469 13470 13471 13472 13473 13474 13475 13476 13477 13478 13479 13480 13481 13482 13483 13484 13485 13486 13487 13488 13489 13490 13491 13492 13493 13494 13495 13496 13497 13498 13499 13500 13501 13502 13503 13504 13505 13506 13507 13508 13509 13510 13511 13512 13513 13514 13515 13516 13517 13518 13519 13520 13521 13522 13523 13524 13525 13526 13527 13528 13529 13530 13531 13532 13533 13534 13535 13536 13537 13538 13539 13540 13541 13542 13543 13544 13545 13546 13547 13548 13549 13550 13551 13552 13553 13554 13555 13556 13557 13558 13559 13560 13561 13562 13563 13564 13565 13566 13567 13568 13569 13570 13571 13572 13573 13574 13575 13576 13577 13578 13579 13580 13581 13582 13583 13584 13585 13586 13587 13588 13589 13590 13591 13592 13593 13594 13595 13596 13597 13598 13599 13600 13601 13602 13603 13604 13605 13606 13607 13608 13609 13610 13611 13612 13613 13614 13615 13616 13617 13618 13619 13620 13621 13622 13623 13624 13625 13626 13627 13628 13629 13630 13631 13632 13633 13634 13635 13636 13637 13638 13639 13640 13641 13642 13643 13644 13645 13646 13647 13648 13649 13650 13651 13652 13653 13654 13655 13656 13657 13658 13659 13660 13661 13662 13663 13664 13665 13666 13667 13668 13669 13670 13671 13672 13673 13674 13675 13676 13677 13678 13679 13680 13681 13682 13683 13684 13685 13686 13687 13688 13689 13690 13691 13692 13693 13694 13695 13696 13697 13698 13699 13700 13701 13702 13703 13704 13705 13706 13707 13708 13709 13710 13711 13712 13713 13714 13715 13716 13717 13718 13719 13720 13721 13722 13723 13724 13725 13726 13727 13728 13729 13730 13731 13732 13733 13734 13735 13736 13737 13738 13739 13740 13741 13742 13743 13744 13745 13746 13747 13748 13749 13750 13751 13752 13753 13754 13755 13756 13757 13758 13759 13760 13761 13762 13763 13764 13765 13766 13767 13768 13769 13770 13771 13772 13773 13774 13775 13776 13777 13778 13779 13780 13781 13782 13783 13784 13785 13786 13787 13788 13789 13790 13791 13792 13793 13794 13795 13796 13797 13798 13799 13800 13801 13802 13803 13804 13805 13806 13807 13808 13809 13810 13811 13812 13813 13814 13815 13816 13817 13818 13819 13820 13821 13822 13823 13824 13825 13826 13827 13828 13829 13830 13831 13832 13833 13834 13835 13836 13837 13838 13839 13840 13841 13842 13843 13844 13845 13846 13847 13848 13849 13850 13851 13852 13853 13854 13855 13856 13857 13858 13859 13860 13861 13862 13863 13864 13865 13866 13867 13868 13869 13870 13871 13872 13873 13874 13875 13876 13877 13878 13879 13880 13881 13882 13883 13884 13885 13886 13887 13888 13889 13890 13891 13892 13893 13894 13895 13896 13897 13898 13899 13900 13901 13902 13903 13904 13905 13906 13907 13908 13909 13910 13911 13912 13913 13914 13915 13916 13917 13918 13919 13920 13921 13922 13923 13924 13925 13926 13927 13928 13929 13930 13931 13932 13933 13934 13935 13936 13937 13938 13939 13940 13941 13942 13943 13944 13945 13946 13947 13948 13949 13950 13951 13952 13953 13954 13955 13956 13957 13958 13959 13960 13961 13962 13963 13964 13965 13966 13967 13968 13969 13970 13971 13972 13973 13974 13975 13976 13977 13978 13979 13980 13981 13982 13983 13984 13985 13986 13987 13988 13989 13990 13991 13992 13993 13994 13995 13996 13997 13998 13999 14000 14001 14002 14003 14004 14005 14006 14007 14008 14009 14010 14011 14012 14013 14014 14015 14016 14017 14018 14019 14020 14021 14022 14023 14024 14025 14026 14027 14028 14029 14030 14031 14032 14033 14034 14035 14036 14037 14038 14039 14040 14041 14042 14043 14044 14045 14046 14047 14048 14049 14050 14051 14052 14053 14054 14055 14056 14057 14058 14059 14060 14061 14062 14063 14064 14065 14066 14067 14068 14069 14070 14071 14072 14073 14074 14075 14076 14077 14078 14079 14080 14081 14082 14083 14084 14085 14086 14087 14088 14089 14090 14091 14092 14093 14094 14095 14096 14097 14098 14099 14100 14101 14102 14103 14104 14105 14106 14107 14108 14109 14110 14111 14112 14113 14114 14115 14116 14117 14118 14119 14120 14121 14122 14123 14124 14125 14126 14127 14128 14129 14130 14131 14132 14133 14134 14135 14136 14137 14138 14139 14140 14141 14142 14143 14144 14145 14146 14147 14148 14149 14150 14151 14152 14153 14154 14155 14156 14157 14158 14159 14160 14161 14162 14163 14164 14165 14166 14167 14168 14169 14170 14171 14172 14173 14174 14175 14176 14177 14178 14179 14180 14181 14182 14183 14184 14185 14186 14187 14188 14189 14190 14191 14192 14193 14194 14195 14196 14197 14198 14199 14200 14201 14202 14203 14204 14205 14206 14207 14208 14209 14210 14211 14212 14213 14214 14215 14216 14217 14218 14219 14220 14221 14222 14223 14224 14225 14226 14227 14228 14229 14230 14231 14232 14233 14234 14235 14236 14237 14238 14239 14240 14241 14242 14243 14244 14245 14246 14247 14248 14249 14250 14251 14252 14253 14254 14255 14256 14257 14258 14259 14260 14261 14262 14263 14264 14265 14266 14267 14268 14269 14270 14271 14272 14273 14274 14275 14276 14277 14278 14279 14280 14281 14282 14283 14284 14285 14286 14287 14288 14289 14290 14291 14292 14293 14294 14295 14296 14297 14298 14299 14300 14301 14302 14303 14304 14305 14306 14307 14308 14309 14310 14311 14312 14313 14314 14315 14316 14317 14318 14319 14320 14321 14322 14323 14324 14325 14326 14327 14328 14329 14330 14331 14332 14333 14334 14335 14336 14337 14338 14339 14340 14341 14342 14343 14344 14345 14346 14347 14348 14349 14350 14351 14352 14353 14354 14355 14356 14357 14358 14359 14360 14361 14362 14363 14364 14365 14366 14367 14368 14369 14370 14371 14372 14373 14374 14375 14376 14377 14378 14379 14380 14381 14382 14383 14384 14385 14386 14387 14388 14389 14390 14391 14392 14393 14394 14395 14396 14397 14398 14399 14400 14401 14402 14403 14404 14405 14406 14407 14408 14409 14410 14411 14412 14413 14414 14415 14416 14417 14418 14419 14420 14421 14422 14423 14424 14425 14426 14427 14428 14429 14430 14431 14432 14433 14434 14435 14436 14437 14438 14439 14440 14441 14442 14443 14444 14445 14446 14447 14448 14449 14450 14451 14452 14453 14454 14455 14456 14457 14458 14459 14460 14461 14462 14463 14464 14465 14466 14467 14468 14469 14470 14471 14472 14473 14474 14475 14476 14477 14478 14479 14480 14481 14482 14483 14484 14485 14486 14487 14488 14489 14490 14491 14492 14493 14494 14495 14496 14497 14498 14499 14500 14501 14502 14503 14504 14505 14506 14507 14508 14509 14510 14511 14512 14513 14514 14515 14516 14517 14518 14519 14520 14521 14522 14523 14524 14525 14526 14527 14528 14529 14530 14531 14532 14533 14534 14535 14536 14537 14538 14539 14540 14541 14542 14543 14544 14545 14546 14547 14548 14549 14550 14551 14552 14553 14554 14555 14556 14557 14558 14559 14560 14561 14562 14563 14564 14565 14566 14567 14568 14569 14570 14571 14572 14573 14574 14575 14576 14577 14578 14579 14580 14581 14582 14583 14584 14585 14586 14587 14588 14589 14590 14591 14592 14593 14594 14595 14596 14597 14598 14599 14600 14601 14602 14603 14604 14605 14606 14607 14608 14609 14610 14611 14612 14613 14614 14615 14616 14617 14618 14619 14620 14621 14622 14623 14624 14625 14626 14627 14628 14629 14630 14631 14632 14633 14634 14635 14636 14637 14638 14639 14640 14641 14642 14643 14644 14645 14646 14647 14648 14649 14650 14651 14652 14653 14654 14655 14656 14657 14658 14659 14660 14661 14662 14663 14664 14665 14666 14667 14668 14669 14670 14671 14672 14673 14674 14675 14676 14677 14678 14679 14680 14681 14682 14683 14684 14685 14686 14687 14688 14689 14690 14691 14692 14693 14694 14695 14696 14697 14698 14699 14700 14701 14702 14703 14704 14705 14706 14707 14708 14709 14710 14711 14712 14713 14714 14715 14716 14717 14718 14719 14720 14721 14722 14723 14724 14725 14726 14727 14728 14729 14730 14731 14732 14733 14734 14735 14736 14737 14738 14739 14740 14741 14742 14743 14744 14745 14746 14747 14748 14749 14750 14751 14752 14753 14754 14755 14756 14757 14758 14759 14760 14761 14762 14763 14764 14765 14766 14767 14768 14769 14770 14771 14772 14773 14774 14775 14776 14777 14778 14779 14780 14781 14782 14783 14784 14785 14786 14787 14788 14789 14790 14791 14792 14793 14794 14795 14796 14797 14798 14799 14800 14801 14802 14803 14804 14805 14806 14807 14808 14809 14810 14811 14812 14813 14814 14815 14816 14817 14818 14819 14820 14821 14822 14823 14824 14825 14826 14827 14828 14829 14830 14831 14832 14833 14834 14835 14836 14837 14838 14839 14840 14841 14842 14843 14844 14845 14846 14847 14848 14849 14850 14851 14852 14853 14854 14855 14856 14857 14858 14859 14860 14861 14862 14863 14864 14865 14866 14867 14868 14869 14870 14871 14872 14873 14874 14875 14876 14877 14878 14879 14880 14881 14882 14883 14884 14885 14886 14887 14888 14889 14890 14891 14892 14893 14894 14895 14896 14897 14898 14899 14900 14901 14902 14903 14904 14905 14906 14907 14908 14909 14910 14911 14912 14913 14914 14915 14916 14917 14918 14919 14920 14921 14922 14923 14924 14925 14926 14927 14928 14929 14930 14931 14932 14933 14934 14935 14936 14937 14938 14939 14940 14941 14942 14943 14944 14945 14946 14947 14948 14949 14950 14951 14952 14953 14954 14955 14956 14957 14958 14959 14960 14961 14962 14963 14964 14965 14966 14967 14968 14969 14970 14971 14972 14973 14974 14975 14976 14977 14978 14979 14980 14981 14982 14983 14984 14985 14986 14987 14988 14989 14990 14991 14992 14993 14994 14995 14996 14997 14998 14999 15000 15001 15002 15003 15004 15005 15006 15007 15008 15009 15010 15011 15012 15013 15014 15015 15016 15017 15018 15019 15020 15021 15022 15023 15024 15025 15026 15027 15028 15029 15030 15031 15032 15033 15034 15035 15036 15037 15038 15039 15040 15041 15042 15043 15044 15045 15046 15047 15048 15049 15050 15051 15052 15053 15054 15055 15056 15057 15058 15059 15060 15061 15062 15063 15064 15065 15066 15067 15068 15069 15070 15071 15072 15073 15074 15075 15076 15077 15078 15079 15080 15081 15082 15083 15084 15085 15086 15087 15088 15089 15090 15091 15092 15093 15094 15095 15096 15097 15098 15099 15100 15101 15102 15103 15104 15105 15106 15107 15108 15109 15110 15111 15112 15113 15114 15115 15116 15117 15118 15119 15120 15121 15122 15123 15124 15125 15126 15127 15128 15129 15130 15131 15132 15133 15134 15135 15136 15137 15138 15139 15140 15141 15142 15143 15144 15145 15146 15147 15148 15149 15150 15151 15152 15153 15154 15155 15156 15157 15158 15159 15160 15161 15162 15163 15164 15165 15166 15167 15168 15169 15170 15171 15172 15173 15174 15175 15176 15177 15178 15179 15180 15181 15182 15183 15184 15185 15186 15187 15188 15189 15190 15191 15192 15193 15194 15195 15196 15197 15198 15199 15200 15201 15202 15203 15204 15205 15206 15207 15208 15209 15210 15211 15212 15213 15214 15215 15216 15217 15218 15219 15220 15221 15222 15223 15224 15225 15226 15227 15228 15229 15230 15231 15232 15233 15234 15235 15236 15237 15238 15239 15240 15241 15242 15243 15244 15245 15246 15247 15248 15249 15250 15251 15252 15253 15254 15255 15256 15257 15258 15259 15260 15261 15262 15263 15264 15265 15266 15267 15268 15269 15270 15271 15272 15273 15274 15275 15276 15277 15278 15279 15280 15281 15282 15283 15284 15285 15286 15287 15288 15289 15290 15291 15292 15293 15294 15295 15296 15297 15298 15299 15300 15301 15302 15303 15304 15305 15306 15307 15308 15309 15310 15311 15312 15313 15314 15315 15316 15317 15318 15319 15320 15321 15322 15323 15324 15325 15326 15327 15328 15329 15330 15331 15332 15333 15334 15335 15336 15337 15338 15339 15340 15341 15342 15343 15344 15345 15346 15347 15348 15349 15350 15351 15352 15353 15354 15355 15356 15357 15358 15359 15360 15361 15362 15363 15364 15365 15366 15367 15368 15369 15370 15371 15372 15373 15374 15375 15376 15377 15378 15379 15380 15381 15382 15383 15384 15385 15386 15387 15388 15389 15390 15391 15392 15393 15394 15395 15396 15397 15398 15399 15400 15401 15402 15403 15404 15405 15406 15407 15408 15409 15410 15411 15412 15413 15414 15415 15416 15417 15418 15419 15420 15421 15422 15423 15424 15425 15426 15427 15428 15429 15430 15431 15432 15433 15434 15435 15436 15437 15438 15439 15440 15441 15442 15443 15444 15445 15446 15447 15448 15449 15450 15451 15452 15453 15454 15455 15456 15457 15458 15459 15460 15461 15462 15463 15464 15465 15466 15467 15468 15469 15470 15471 15472 15473 15474 15475 15476 15477 15478 15479 15480 15481 15482 15483 15484 15485 15486 15487 15488 15489 15490 15491 15492 15493 15494 15495 15496 15497 15498 15499 15500 15501 15502 15503 15504 15505 15506 15507 15508 15509 15510 15511 15512 15513 15514 15515 15516 15517 15518 15519 15520 15521 15522 15523 15524 15525 15526 15527 15528 15529 15530 15531 15532 15533 15534 15535 15536 15537 15538 15539 15540 15541 15542 15543 15544 15545 15546 15547 15548 15549 15550 15551 15552 15553 15554 15555 15556 15557 15558 15559 15560 15561 15562 15563 15564 15565 15566 15567 15568 15569 15570 15571 15572 15573 15574 15575 15576 15577 15578 15579 15580 15581 15582 15583 15584 15585 15586 15587 15588 15589 15590 15591 15592 15593 15594 15595 15596 15597 15598 15599 15600 15601 15602 15603 15604 15605 15606 15607 15608 15609 15610 15611 15612 15613 15614 15615 15616 15617 15618 15619 15620 15621 15622 15623 15624 15625 15626 15627 15628 15629 15630 15631 15632 15633 15634 15635 15636 15637 15638 15639 15640 15641 15642 15643 15644 15645 15646 15647 15648 15649 15650 15651 15652 15653 15654 15655 15656 15657 15658 15659 15660 15661 15662 15663 15664 15665 15666 15667 15668 15669 15670 15671 15672 15673 15674 15675 15676 15677 15678 15679 15680 15681 15682 15683 15684 15685 15686 15687 15688 15689 15690 15691 15692 15693 15694 15695 15696 15697 15698 15699 15700 15701 15702 15703 15704 15705 15706 15707 15708 15709 15710 15711 15712 15713 15714 15715 15716 15717 15718 15719 15720 15721 15722 15723 15724 15725 15726 15727 15728 15729 15730 15731 15732 15733 15734 15735 15736 15737 15738 15739 15740 15741 15742 15743 15744 15745 15746 15747 15748 15749 15750 15751 15752 15753 15754 15755 15756 15757 15758 15759 15760 15761 15762 15763 15764 15765 15766 15767 15768 15769 15770 15771 15772 15773 15774 15775 15776 15777 15778 15779 15780 15781 15782 15783 15784 15785 15786 15787 15788 15789 15790 15791 15792 15793 15794 15795 15796 15797 15798 15799 15800 15801 15802 15803 15804 15805 15806 15807 15808 15809 15810 15811 15812 15813 15814 15815 15816 15817 15818 15819 15820 15821 15822 15823 15824 15825 15826 15827 15828 15829 15830 15831 15832 15833 15834 15835 15836 15837 15838 15839 15840 15841 15842 15843 15844 15845 15846 15847 15848 15849 15850 15851 15852 15853 15854 15855 15856 15857 15858 15859 15860 15861 15862 15863 15864 15865 15866 15867 15868 15869 15870 15871 15872 15873 15874 15875 15876 15877 15878 15879 15880 15881 15882 15883 15884 15885 15886 15887 15888 15889 15890 15891 15892 15893 15894 15895 15896 15897 15898 15899 15900 15901 15902 15903 15904 15905 15906 15907 15908 15909 15910 15911 15912 15913 15914 15915 15916 15917 15918 15919 15920 15921 15922 15923 15924 15925 15926 15927 15928 15929 15930 15931 15932 15933 15934 15935 15936 15937 15938 15939 15940 15941 15942 15943 15944 15945 15946 15947 15948 15949 15950 15951 15952 15953 15954 15955 15956 15957 15958 15959 15960 15961 15962 15963 15964 15965 15966 15967 15968 15969 15970 15971 15972 15973 15974 15975 15976 15977 15978 15979 15980 15981 15982 15983 15984 15985 15986 15987 15988 15989 15990 15991 15992 15993 15994 15995 15996 15997 15998 15999 16000 16001 16002 16003 16004 16005 16006 16007 16008 16009 16010 16011 16012 16013 16014 16015 16016 16017 16018 16019 16020 16021 16022 16023 16024 16025 16026 16027 16028 16029 16030 16031 16032 16033 16034 16035 16036 16037 16038 16039 16040 16041 16042 16043 16044 16045 16046 16047 16048 16049 16050 16051 16052 16053 16054 16055 16056 16057 16058 16059 16060 16061 16062 16063 16064 16065 16066 16067 16068 16069 16070 16071 16072 16073 16074 16075 16076 16077 16078 16079 16080 16081 16082 16083 16084 16085 16086 16087 16088 16089 16090 16091 16092 16093 16094 16095 16096 16097 16098 16099 16100 16101 16102 16103 16104 16105 16106 16107 16108 16109 16110 16111 16112 16113 16114 16115 16116 16117 16118 16119 16120 16121 16122 16123 16124 16125 16126 16127 16128 16129 16130 16131 16132 16133 16134 16135 16136 16137 16138 16139 16140 16141 16142 16143 16144 16145 16146 16147 16148 16149 16150 16151 16152 16153 16154 16155 16156 16157 16158 16159 16160 16161 16162 16163 16164 16165 16166 16167 16168 16169 16170 16171 16172 16173 16174 16175 16176 16177 16178 16179 16180 16181 16182 16183 16184 16185 16186 16187 16188 16189 16190 16191 16192 16193 16194 16195 16196 16197 16198 16199 16200 16201 16202 16203 16204 16205 16206 16207 16208 16209 16210 16211 16212 16213 16214 16215 16216 16217 16218 16219 16220 16221 16222 16223 16224 16225 16226 16227 16228 16229 16230 16231 16232 16233 16234 16235 16236 16237 16238 16239 16240 16241 16242 16243 16244 16245 16246 16247 16248 16249 16250 16251 16252 16253 16254 16255 16256 16257 16258 16259 16260 16261 16262 16263 16264 16265 16266 16267 16268 16269 16270 16271 16272 16273 16274 16275 16276 16277 16278 16279 16280 16281 16282 16283 16284 16285 16286 16287 16288 16289 16290 16291 16292 16293 16294 16295 16296 16297 16298 16299 16300 16301 16302 16303 16304 16305 16306 16307 16308 16309 16310 16311 16312 16313 16314 16315 16316 16317 16318 16319 16320 16321 16322 16323 16324 16325 16326 16327 16328 16329 16330 16331 16332 16333 16334 16335 16336 16337 16338 16339 16340 16341 16342 16343 16344 16345 16346 16347 16348 16349 16350 16351 16352 16353 16354 16355 16356 16357 16358 16359 16360 16361 16362 16363 16364 16365 16366 16367 16368 16369 16370 16371 16372 16373 16374 16375 16376 16377 16378 16379 16380 16381 16382 16383 16384 16385 16386 16387 16388 16389 16390 16391 16392 16393 16394 16395 16396 16397 16398 16399 16400 16401 16402 16403 16404 16405 16406 16407 16408 16409 16410 16411 16412 16413 16414 16415 16416 16417 16418 16419 16420 16421 16422 16423 16424 16425 16426 16427 16428 16429 16430 16431 16432 16433 16434 16435 16436 16437 16438 16439 16440 16441 16442 16443 16444 16445 16446 16447 16448 16449 16450 16451 16452 16453 16454 16455 16456 16457 16458 16459 16460 16461 16462 16463 16464 16465 16466 16467 16468 16469 16470 16471 16472 16473 16474 16475 16476 16477 16478 16479 16480 16481 16482 16483 16484 16485 16486 16487 16488 16489 16490 16491 16492 16493 16494 16495 16496 16497 16498 16499 16500 16501 16502 16503 16504 16505 16506 16507 16508 16509 16510 16511 16512 16513 16514 16515 16516 16517 16518 16519 16520 16521 16522 16523 16524 16525 16526 16527 16528 16529 16530 16531 16532 16533 16534 16535 16536 16537 16538 16539 16540 16541 16542 16543 16544 16545 16546 16547 16548 16549 16550 16551 16552 16553 16554 16555 16556 16557 16558 16559 16560 16561 16562 16563 16564 16565 16566 16567 16568 16569 16570 16571 16572 16573 16574 16575 16576 16577 16578 16579 16580 16581 16582 16583 16584 16585 16586 16587 16588 16589 16590 16591 16592 16593 16594 16595 16596 16597 16598 16599 16600 16601 16602 16603 16604 16605 16606 16607 16608 16609 16610 16611 16612 16613 16614 16615 16616 16617 16618 16619 16620 16621 16622 16623 16624 16625 16626 16627 16628 16629 16630 16631 16632 16633 16634 16635 16636 16637 16638 16639 16640 16641 16642 16643 16644 16645 16646 16647 16648 16649 16650 16651 16652 16653 16654 16655 16656 16657 16658 16659 16660 16661 16662 16663 16664 16665 16666 16667 16668 16669 16670 16671 16672 16673 16674 16675 16676 16677 16678 16679 16680 16681 16682 16683 16684 16685 16686 16687 16688 16689 16690 16691 16692 16693 16694 16695 16696 16697 16698 16699 16700 16701 16702 16703 16704 16705 16706 16707 16708 16709 16710 16711 16712 16713 16714 16715 16716 16717 16718 16719 16720 16721 16722 16723 16724 16725 16726 16727 16728 16729 16730 16731 16732 16733 16734 16735 16736 16737 16738 16739 16740 16741 16742 16743 16744 16745 16746 16747 16748 16749 16750 16751 16752 16753 16754 16755 16756 16757 16758 16759 16760 16761 16762 16763 16764 16765 16766 16767 16768 16769 16770 16771 16772 16773 16774 16775 16776 16777 16778 16779 16780 16781 16782 16783 16784 16785 16786 16787 16788 16789 16790 16791 16792 16793 16794 16795 16796 16797 16798 16799 16800 16801 16802 16803 16804 16805 16806 16807 16808 16809 16810 16811 16812 16813 16814 16815 16816 16817 16818 16819 16820 16821 16822 16823 16824 16825 16826 16827 16828 16829 16830 16831 16832 16833 16834 16835 16836 16837 16838 16839 16840 16841 16842 16843 16844 16845 16846 16847 16848 16849 16850 16851 16852 16853 16854 16855 16856 16857 16858 16859 16860 16861 16862 16863 16864 16865 16866 16867 16868 16869 16870 16871 16872 16873 16874 16875 16876 16877 16878 16879 16880 16881 16882 16883 16884 16885 16886 16887 16888 16889 16890 16891 16892 16893 16894 16895 16896 16897 16898 16899 16900 16901 16902 16903 16904 16905 16906 16907 16908 16909 16910 16911 16912 16913 16914 16915 16916 16917 16918 16919 16920 16921 16922 16923 16924 16925 16926 16927 16928 16929 16930 16931 16932 16933 16934 16935 16936 16937 16938 16939 16940 16941 16942 16943 16944 16945 16946 16947 16948 16949 16950 16951 16952 16953 16954 16955 16956 16957 16958 16959 16960 16961 16962 16963 16964 16965 16966 16967 16968 16969 16970 16971 16972 16973 16974 16975 16976 16977 16978 16979 16980 16981 16982 16983 16984 16985 16986 16987 16988 16989 16990 16991 16992 16993 16994 16995 16996 16997 16998 16999 17000 17001 17002 17003 17004 17005 17006 17007 17008 17009 17010 17011 17012 17013 17014 17015 17016 17017 17018 17019 17020 17021 17022 17023 17024 17025 17026 17027 17028 17029 17030 17031 17032 17033 17034 17035 17036 17037 17038 17039 17040 17041 17042 17043 17044 17045 17046 17047 17048 17049 17050 17051 17052 17053 17054 17055 17056 17057 17058 17059 17060 17061 17062 17063 17064 17065 17066 17067 17068 17069 17070 17071 17072 17073 17074 17075 17076 17077 17078 17079 17080 17081 17082 17083 17084 17085 17086 17087 17088 17089 17090 17091 17092 17093 17094 17095 17096 17097 17098 17099 17100 17101 17102 17103 17104 17105 17106 17107 17108 17109 17110 17111 17112 17113 17114 17115 17116 17117 17118 17119 17120 17121 17122 17123 17124 17125 17126 17127 17128 17129 17130 17131 17132 17133 17134 17135 17136 17137 17138 17139 17140 17141 17142 17143 17144 17145 17146 17147 17148 17149 17150 17151 17152 17153 17154 17155 17156 17157 17158 17159 17160 17161 17162 17163 17164 17165 17166 17167 17168 17169 17170 17171 17172 17173 17174 17175 17176 17177 17178 17179 17180 17181 17182 17183 17184 17185 17186 17187 17188 17189 17190 17191 17192 17193 17194 17195 17196 17197 17198 17199 17200 17201 17202 17203 17204 17205 17206 17207 17208 17209 17210 17211 17212 17213 17214 17215 17216 17217 17218 17219 17220 17221 17222 17223 17224 17225 17226 17227 17228 17229 17230 17231 17232 17233 17234 17235 17236 17237 17238 17239 17240 17241 17242 17243 17244 17245 17246 17247 17248 17249 17250 17251 17252 17253 17254 17255 17256 17257 17258 17259 17260 17261 17262 17263 17264 17265 17266 17267 17268 17269 17270 17271 17272 17273 17274 17275 17276 17277 17278 17279 17280 17281 17282 17283 17284 17285 17286 17287 17288 17289 17290 17291 17292 17293 17294 17295 17296 17297 17298 17299 17300 17301 17302 17303 17304 17305 17306 17307 17308 17309 17310 17311 17312 17313 17314 17315 17316 17317 17318 17319 17320 17321 17322 17323 17324 17325 17326 17327 17328 17329 17330 17331 17332 17333 17334 17335 17336 17337 17338 17339 17340 17341 17342 17343 17344 17345 17346 17347 17348 17349 17350 17351 17352 17353 17354 17355 17356 17357 17358 17359 17360 17361 17362 17363 17364 17365 17366 17367 17368 17369 17370 17371 17372 17373 17374 17375 17376 17377 17378 17379 17380 17381 17382 17383 17384 17385 17386 17387 17388 17389 17390 17391 17392 17393 17394 17395 17396 17397 17398 17399 17400 17401 17402 17403 17404 17405 17406 17407 17408 17409 17410 17411 17412 17413 17414 17415 17416 17417 17418 17419 17420 17421 17422 17423 17424 17425 17426 17427 17428 17429 17430 17431 17432 17433 17434 17435 17436 17437 17438 17439 17440 17441 17442 17443 17444 17445 17446 17447 17448 17449 17450 17451 17452 17453 17454 17455 17456 17457 17458 17459 17460 17461 17462 17463 17464 17465 17466 17467 17468 17469 17470 17471 17472 17473 17474 17475 17476 17477 17478 17479 17480 17481 17482 17483 17484 17485 17486 17487 17488 17489 17490 17491 17492 17493 17494 17495 17496 17497 17498 17499 17500 17501 17502 17503 17504 17505 17506 17507 17508 17509 17510 17511 17512 17513 17514 17515 17516 17517 17518 17519 17520 17521 17522 17523 17524 17525 17526 17527 17528 17529 17530 17531 17532 17533 17534 17535 17536 17537 17538 17539 17540 17541 17542 17543 17544 17545 17546 17547 17548 17549 17550 17551 17552 17553 17554 17555 17556 17557 17558 17559 17560 17561 17562 17563 17564 17565 17566 17567 17568 17569 17570 17571 17572 17573 17574 17575 17576 17577 17578 17579 17580 17581 17582 17583 17584 17585 17586 17587 17588 17589 17590 17591 17592 17593 17594 17595 17596 17597 17598 17599 17600 17601 17602 17603 17604 17605 17606 17607 17608 17609 17610 17611 17612 17613 17614 17615 17616 17617 17618 17619 17620 17621 17622 17623 17624 17625 17626 17627 17628 17629 17630 17631 17632 17633 17634 17635 17636 17637 17638 17639 17640 17641 17642 17643 17644 17645 17646 17647 17648 17649 17650 17651 17652 17653 17654 17655 17656 17657 17658 17659 17660 17661 17662 17663 17664 17665 17666 17667 17668 17669 17670 17671 17672 17673 17674 17675 17676 17677 17678 17679 17680 17681 17682 17683 17684 17685 17686 17687 17688 17689 17690 17691 17692 17693 17694 17695 17696 17697 17698 17699 17700 17701 17702 17703 17704 17705 17706 17707 17708 17709 17710 17711 17712 17713 17714 17715 17716 17717 17718 17719 17720 17721 17722 17723 17724 17725 17726 17727 17728 17729 17730 17731 17732 17733 17734 17735 17736 17737 17738 17739 17740 17741 17742 17743 17744 17745 17746 17747 17748 17749 17750 17751 17752 17753 17754 17755 17756 17757 17758 17759 17760 17761 17762 17763 17764 17765 17766 17767 17768 17769 17770 17771 17772 17773 17774 17775 17776 17777 17778 17779 17780 17781 17782 17783 17784 17785 17786 17787 17788 17789 17790 17791 17792 17793 17794 17795 17796 17797 17798 17799 17800 17801 17802 17803 17804 17805 17806 17807 17808 17809 17810 17811 17812 17813 17814 17815 17816 17817 17818 17819 17820 17821 17822 17823 17824 17825 17826 17827 17828 17829 17830 17831 17832 17833 17834 17835 17836 17837 17838 17839 17840 17841 17842 17843 17844 17845 17846 17847 17848 17849 17850 17851 17852 17853 17854 17855 17856 17857 17858 17859 17860 17861 17862 17863 17864 17865 17866 17867 17868 17869 17870 17871 17872 17873 17874 17875 17876 17877 17878 17879 17880 17881 17882 17883 17884 17885 17886 17887 17888 17889 17890 17891 17892 17893 17894 17895 17896 17897 17898 17899 17900 17901 17902 17903 17904 17905 17906 17907 17908 17909 17910 17911 17912 17913 17914 17915 17916 17917 17918 17919 17920 17921 17922 17923 17924 17925 17926 17927 17928 17929 17930 17931 17932 17933 17934 17935 17936 17937 17938 17939 17940 17941 17942 17943 17944 17945 17946 17947 17948 17949 17950 17951 17952 17953 17954 17955 17956 17957 17958 17959 17960 17961 17962 17963 17964 17965 17966 17967 17968 17969 17970 17971 17972 17973 17974 17975 17976 17977 17978 17979 17980 17981 17982 17983 17984 17985 17986 17987 17988 17989 17990 17991 17992 17993 17994 17995 17996 17997 17998 17999 18000 18001 18002 18003 18004 18005 18006 18007 18008 18009 18010 18011 18012 18013 18014 18015 18016 18017 18018 18019 18020 18021 18022 18023 18024 18025 18026 18027 18028 18029 18030 18031 18032 18033 18034 18035 18036 18037 18038 18039 18040 18041 18042 18043 18044 18045 18046 18047 18048 18049 18050 18051 18052 18053 18054 18055 18056 18057 18058 18059 18060 18061 18062 18063 18064 18065 18066 18067 18068 18069 18070 18071 18072 18073 18074 18075 18076 18077 18078 18079 18080 18081 18082 18083 18084 18085 18086 18087 18088 18089 18090 18091 18092 18093 18094 18095 18096 18097 18098 18099 18100 18101 18102 18103 18104 18105 18106 18107 18108 18109 18110 18111 18112 18113 18114 18115 18116 18117 18118 18119 18120 18121 18122 18123 18124 18125 18126 18127 18128 18129 18130 18131 18132 18133 18134 18135 18136 18137 18138 18139 18140 18141 18142 18143 18144 18145 18146 18147 18148 18149 18150 18151 18152 18153 18154 18155 18156 18157 18158 18159 18160 18161 18162 18163 18164 18165 18166 18167 18168 18169 18170 18171 18172 18173 18174 18175 18176 18177 18178 18179 18180 18181 18182 18183 18184 18185 18186 18187 18188 18189 18190 18191 18192 18193 18194 18195 18196 18197 18198 18199 18200 18201 18202 18203 18204 18205 18206 18207 18208 18209 18210 18211 18212 18213 18214 18215 18216 18217 18218 18219 18220 18221 18222 18223 18224 18225 18226 18227 18228 18229 18230 18231 18232 18233 18234 18235 18236 18237 18238 18239 18240 18241 18242 18243 18244 18245 18246 18247 18248 18249 18250 18251 18252 18253 18254 18255 18256 18257 18258 18259 18260 18261 18262 18263 18264 18265 18266 18267 18268 18269 18270 18271 18272 18273 18274 18275 18276 18277 18278 18279 18280 18281 18282 18283 18284 18285 18286 18287 18288 18289 18290 18291 18292 18293 18294 18295 18296 18297 18298 18299 18300 18301 18302 18303 18304 18305 18306 18307 18308 18309 18310 18311 18312 18313 18314 18315 18316 18317 18318 18319 18320 18321 18322 18323 18324 18325 18326 18327 18328 18329 18330 18331 18332 18333 18334 18335 18336 18337 18338 18339 18340 18341 18342 18343 18344 18345 18346 18347 18348 18349 18350 18351 18352 18353 18354 18355 18356 18357 18358 18359 18360 18361 18362 18363 18364 18365 18366 18367 18368 18369 18370 18371 18372 18373 18374 18375 18376 18377 18378 18379 18380 18381 18382 18383 18384 18385 18386 18387 18388 18389 18390 18391 18392 18393 18394 18395 18396 18397 18398 18399 18400 18401 18402 18403 18404 18405 18406 18407 18408 18409 18410 18411 18412 18413 18414 18415 18416 18417 18418 18419 18420 18421 18422 18423 18424 18425 18426 18427 18428 18429 18430 18431 18432 18433 18434 18435 18436 18437 18438 18439 18440 18441 18442 18443 18444 18445 18446 18447 18448 18449 18450 18451 18452 18453 18454 18455 18456 18457 18458 18459 18460 18461 18462 18463 18464 18465 18466 18467 18468 18469 18470 18471 18472 18473 18474 18475 18476 18477 18478 18479 18480 18481 18482 18483 18484 18485 18486 18487 18488 18489 18490 18491 18492 18493 18494 18495 18496 18497 18498 18499 18500 18501 18502 18503 18504 18505 18506 18507 18508 18509 18510 18511 18512 18513 18514 18515 18516 18517 18518 18519 18520 18521 18522 18523 18524 18525 18526 18527 18528 18529 18530 18531 18532 18533 18534 18535 18536 18537 18538 18539 18540 18541 18542 18543 18544 18545 18546 18547 18548 18549 18550 18551 18552 18553 18554 18555 18556 18557 18558 18559 18560 18561 18562 18563 18564 18565 18566 18567 18568 18569 18570 18571 18572 18573 18574 18575 18576 18577 18578 18579 18580 18581 18582 18583 18584 18585 18586 18587 18588 18589 18590 18591 18592 18593 18594 18595 18596 18597 18598 18599 18600 18601 18602 18603 18604 18605 18606 18607 18608 18609 18610 18611 18612 18613 18614 18615 18616 18617 18618 18619 18620 18621 18622 18623 18624 18625 18626 18627 18628 18629 18630 18631 18632 18633 18634 18635 18636 18637 18638 18639 18640 18641 18642 18643 18644 18645 18646 18647 18648 18649 18650 18651 18652 18653 18654 18655 18656 18657 18658 18659 18660 18661 18662 18663 18664 18665 18666 18667 18668 18669 18670 18671 18672 18673 18674 18675 18676 18677 18678 18679 18680 18681 18682 18683 18684 18685 18686 18687 18688 18689 18690 18691 18692 18693 18694 18695 18696 18697 18698 18699 18700 18701 18702 18703 18704 18705 18706 18707 18708 18709 18710 18711 18712 18713 18714 18715 18716 18717 18718 18719 18720 18721 18722 18723 18724 18725 18726 18727 18728 18729 18730 18731 18732 18733 18734 18735 18736 18737 18738 18739 18740 18741 18742 18743 18744 18745 18746 18747 18748 18749 18750 18751 18752 18753 18754 18755 18756 18757 18758 18759 18760 18761 18762 18763 18764 18765 18766 18767 18768 18769 18770 18771 18772 18773 18774 18775 18776 18777 18778 18779 18780 18781 18782 18783 18784 18785 18786 18787 18788 18789 18790 18791 18792 18793 18794 18795 18796 18797 18798 18799 18800 18801 18802 18803 18804 18805 18806 18807 18808 18809 18810 18811 18812 18813 18814 18815 18816 18817 18818 18819 18820 18821 18822 18823 18824 18825 18826 18827 18828 18829 18830 18831 18832 18833 18834 18835 18836 18837 18838 18839 18840 18841 18842 18843 18844 18845 18846 18847 18848 18849 18850 18851 18852 18853 18854 18855 18856 18857 18858 18859 18860 18861 18862 18863 18864 18865 18866 18867 18868 18869 18870 18871 18872 18873 18874 18875 18876 18877 18878 18879 18880 18881 18882 18883 18884 18885 18886 18887 18888 18889 18890 18891 18892 18893 18894 18895 18896 18897 18898 18899 18900 18901 18902 18903 18904 18905 18906 18907 18908 18909 18910 18911 18912 18913 18914 18915 18916 18917 18918 18919 18920 18921 18922 18923 18924 18925 18926 18927 18928 18929 18930 18931 18932 18933 18934 18935 18936 18937 18938 18939 18940 18941 18942 18943 18944 18945 18946 18947 18948 18949 18950 18951 18952 18953 18954 18955 18956 18957 18958 18959 18960 18961 18962 18963 18964 18965 18966 18967 18968 18969 18970 18971 18972 18973 18974 18975 18976 18977 18978 18979 18980 18981 18982 18983 18984 18985 18986 18987 18988 18989 18990 18991 18992 18993 18994 18995 18996 18997 18998 18999 19000 19001 19002 19003 19004 19005 19006 19007 19008 19009 19010 19011 19012 19013 19014 19015 19016 19017 19018 19019 19020 19021 19022 19023 19024 19025 19026 19027 19028 19029 19030 19031 19032 19033 19034 19035 19036 19037 19038 19039 19040 19041 19042 19043 19044 19045 19046 19047 19048 19049 19050 19051 19052 19053 19054 19055 19056 19057 19058 19059 19060 19061 19062 19063 19064 19065 19066 19067 19068 19069 19070 19071 19072 19073 19074 19075 19076 19077 19078 19079 19080 19081 19082 19083 19084 19085 19086 19087 19088 19089 19090 19091 19092 19093 19094 19095 19096 19097 19098 19099 19100 19101 19102 19103 19104 19105 19106 19107 19108 19109 19110 19111 19112 19113 19114 19115 19116 19117 19118 19119 19120 19121 19122 19123 19124 19125 19126 19127 19128 19129 19130 19131 19132 19133 19134 19135 19136 19137 19138 19139 19140 19141 19142 19143 19144 19145 19146 19147 19148 19149 19150 19151 19152 19153 19154 19155 19156 19157 19158 19159 19160 19161 19162 19163 19164 19165 19166 19167 19168 19169 19170 19171 19172 19173 19174 19175 19176 19177 19178 19179 19180 19181 19182 19183 19184 19185 19186 19187 19188 19189 19190 19191 19192 19193 19194 19195 19196 19197 19198 19199 19200 19201 19202 19203 19204 19205 19206 19207 19208 19209 19210 19211 19212 19213 19214 19215 19216 19217 19218 19219 19220 19221 19222 19223 19224 19225 19226 19227 19228 19229 19230 19231 19232 19233 19234 19235 19236 19237 19238 19239 19240 19241 19242 19243 19244 19245 19246 19247 19248 19249 19250 19251 19252 19253 19254 19255 19256 19257 19258 19259 19260 19261 19262 19263 19264 19265 19266 19267 19268 19269 19270 19271 19272 19273 19274 19275 19276 19277 19278 19279 19280 19281 19282 19283 19284 19285 19286 19287 19288 19289 19290 19291 19292 19293 19294 19295 19296 19297 19298 19299 19300 19301 19302 19303 19304 19305 19306 19307 19308 19309 19310 19311 19312 19313 19314 19315 19316 19317 19318 19319 19320 19321 19322 19323 19324 19325 19326 19327 19328 19329 19330 19331 19332 19333 19334 19335 19336 19337 19338 19339 19340 19341 19342 19343 19344 19345 19346 19347 19348 19349 19350 19351 19352 19353 19354 19355 19356 19357 19358 19359 19360 19361 19362 19363 19364 19365 19366 19367 19368 19369 19370 19371 19372 19373 19374 19375 19376 19377 19378 19379 19380 19381 19382 19383 19384 19385 19386 19387 19388 19389 19390 19391 19392 19393 19394 19395 19396 19397 19398 19399 19400 19401 19402 19403 19404 19405 19406 19407 19408 19409 19410 19411 19412 19413 19414 19415 19416 19417 19418 19419 19420 19421 19422 19423 19424 19425 19426 19427 19428 19429 19430 19431 19432 19433 19434 19435 19436 19437 19438 19439 19440 19441 19442 19443 19444 19445 19446 19447 19448 19449 19450 19451 19452 19453 19454 19455 19456 19457 19458 19459 19460 19461 19462 19463 19464 19465 19466 19467 19468 19469 19470 19471 19472 19473 19474 19475 19476 19477 19478 19479 19480 19481 19482 19483 19484 19485 19486 19487 19488 19489 19490 19491 19492 19493 19494 19495 19496 19497 19498 19499 19500 19501 19502 19503 19504 19505 19506 19507 19508 19509 19510 19511 19512 19513 19514 19515 19516 19517 19518 19519 19520 19521 19522 19523 19524 19525 19526 19527 19528 19529 19530 19531 19532 19533 19534 19535 19536 19537 19538 19539 19540 19541 19542 19543 19544 19545 19546 19547 19548 19549 19550 19551 19552 19553 19554 19555 19556 19557 19558 19559 19560 19561 19562 19563 19564 19565 19566 19567 19568 19569 19570 19571 19572 19573 19574 19575 19576 19577 19578 19579 19580 19581 19582 19583 19584 19585 19586 19587 19588 19589 19590 19591 19592 19593 19594 19595 19596 19597 19598 19599 19600 19601 19602 19603 19604 19605 19606 19607 19608 19609 19610 19611 19612 19613 19614 19615 19616 19617 19618 19619 19620 19621 19622 19623 19624 19625 19626 19627 19628 19629 19630 19631 19632 19633 19634 19635 19636 19637 19638 19639 19640 19641 19642 19643 19644 19645 19646 19647 19648 19649 19650 19651 19652 19653 19654 19655 19656 19657 19658 19659 19660 19661 19662 19663 19664 19665 19666 19667 19668 19669 19670 19671 19672 19673 19674 19675 19676 19677 19678 19679 19680 19681 19682 19683 19684 19685 19686 19687 19688 19689 19690 19691 19692 19693 19694 19695 19696 19697 19698 19699 19700 19701 19702 19703 19704 19705 19706 19707 19708 19709 19710 19711 19712 19713 19714 19715 19716 19717 19718 19719 19720 19721 19722 19723 19724 19725 19726 19727 19728 19729 19730 19731 19732 19733 19734 19735 19736 19737 19738 19739 19740 19741 19742 19743 19744 19745 19746 19747 19748 19749 19750 19751 19752 19753 19754 19755 19756 19757 19758 19759 19760 19761 19762 19763 19764 19765 19766 19767 19768 19769 19770 19771 19772 19773 19774 19775 19776 19777 19778 19779 19780 19781 19782 19783 19784 19785 19786 19787 19788 19789 19790 19791 19792 19793 19794 19795 19796 19797 19798 19799 19800 19801 19802 19803 19804 19805 19806 19807 19808 19809 19810 19811 19812 19813 19814 19815 19816 19817 19818 19819 19820 19821 19822 19823 19824 19825 19826 19827 19828 19829 19830 19831 19832 19833 19834 19835 19836 19837 19838 19839 19840 19841 19842 19843 19844 19845 19846 19847 19848 19849 19850 19851 19852 19853 19854 19855 19856 19857 19858 19859 19860 19861 19862 19863 19864 19865 19866 19867 19868 19869 19870 19871 19872 19873 19874 19875 19876 19877 19878 19879 19880 19881 19882 19883 19884 19885 19886 19887 19888 19889 19890 19891 19892 19893 19894 19895 19896 19897 19898 19899 19900 19901 19902 19903 19904 19905 19906 19907 19908 19909 19910 19911 19912 19913 19914 19915 19916 19917 19918 19919 19920 19921 19922 19923 19924 19925 19926 19927 19928 19929 19930 19931 19932 19933 19934 19935 19936 19937 19938 19939 19940 19941 19942 19943 19944 19945 19946 19947 19948 19949 19950 19951 19952 19953 19954 19955 19956 19957 19958 19959 19960 19961 19962 19963 19964 19965 19966 19967 19968 19969 19970 19971 19972 19973 19974 19975 19976 19977 19978 19979 19980 19981 19982 19983 19984 19985 19986 19987 19988 19989 19990 19991 19992 19993 19994 19995 19996 19997 19998 19999 20000 20001 20002 20003 20004 20005 20006 20007 20008 20009 20010 20011 20012 20013 20014 20015 20016 20017 20018 20019 20020 20021 20022 20023 20024 20025 20026 20027 20028 20029 20030 20031 20032 20033 20034 20035 20036 20037 20038 20039 20040 20041 20042 20043 20044 20045 20046 20047 20048 20049 20050 20051 20052 20053 20054 20055 20056 20057 20058 20059 20060 20061 20062 20063 20064 20065 20066 20067 20068 20069 20070 20071 20072 20073 20074 20075 20076 20077 20078 20079 20080 20081 20082 20083 20084 20085 20086 20087 20088 20089 20090 20091 20092 20093 20094 20095 20096 20097 20098 20099 20100 20101 20102 20103 20104 20105 20106 20107 20108 20109 20110 20111 20112 20113 20114 20115 20116 20117 20118 20119 20120 20121 20122 20123 20124 20125 20126 20127 20128 20129 20130 20131 20132 20133 20134 20135 20136 20137 20138 20139 20140 20141 20142 20143 20144 20145 20146 20147 20148 20149 20150 20151 20152 20153 20154 20155 20156 20157 20158 20159 20160 20161 20162 20163 20164 20165 20166 20167 20168 20169 20170 20171 20172 20173 20174 20175 20176 20177 20178 20179 20180 20181 20182 20183 20184 20185 20186 20187 20188 20189 20190 20191 20192 20193 20194 20195 20196 20197 20198 20199 20200 20201 20202 20203 20204 20205 20206 20207 20208 20209 20210 20211 20212 20213 20214 20215 20216 20217 20218 20219 20220 20221 20222 20223 20224 20225 20226 20227 20228 20229 20230 20231 20232 20233 20234 20235 20236 20237 20238 20239 20240 20241 20242 20243 20244 20245 20246 20247 20248 20249 20250 20251 20252 20253 20254 20255 20256 20257 20258 20259 20260 20261 20262 20263 20264 20265 20266 20267 20268 20269 20270 20271 20272 20273 20274 20275 20276 20277 20278 20279 20280 20281 20282 20283 20284 20285 20286 20287 20288 20289 20290 20291 20292 20293 20294 20295 20296 20297 20298 20299 20300 20301 20302 20303 20304 20305 20306 20307 20308 20309 20310 20311 20312 20313 20314 20315 20316 20317 20318 20319 20320 20321 20322 20323 20324 20325 20326 20327 20328 20329 20330 20331 20332 20333 20334 20335 20336 20337 20338 20339 20340 20341 20342 20343 20344 20345 20346 20347 20348 20349 20350 20351 20352 20353 20354 20355 20356 20357 20358 20359 20360 20361 20362 20363 20364 20365 20366 20367 20368 20369 20370 20371 20372 20373 20374 20375 20376 20377 20378 20379 20380 20381 20382 20383 20384 20385 20386 20387 20388 20389 20390 20391 20392 20393 20394 20395 20396 20397 20398 20399 20400 20401 20402 20403 20404 20405 20406 20407 20408 20409 20410 20411 20412 20413 20414 20415 20416 20417 20418 20419 20420 20421 20422 20423 20424 20425 20426 20427 20428 20429 20430 20431 20432 20433 20434 20435 20436 20437 20438 20439 20440 20441 20442 20443 20444 20445 20446 20447 20448 20449 20450 20451 20452 20453 20454 20455 20456 20457 20458 20459 20460 20461 20462 20463 20464 20465 20466 20467 20468 20469 20470 20471 20472 20473 20474 20475 20476 20477 20478 20479 20480 20481 20482 20483 20484 20485 20486 20487 20488 20489 20490 20491 20492 20493 20494 20495 20496 20497 20498 20499 20500 20501 20502 20503 20504 20505 20506 20507 20508 20509 20510 20511 20512 20513 20514 20515 20516 20517 20518 20519 20520 20521 20522 20523 20524 20525 20526 20527 20528 20529 20530 20531 20532 20533 20534 20535 20536 20537 20538 20539 20540 20541 20542 20543 20544 20545 20546 20547 20548 20549 20550 20551 20552 20553 20554 20555 20556 20557 20558 20559 20560 20561 20562 20563 20564 20565 20566 20567 20568 20569 20570 20571 20572 20573 20574 20575 20576 20577 20578 20579 20580 20581 20582 20583 20584 20585 20586 20587 20588 20589 20590 20591 20592 20593 20594 20595 20596 20597 20598 20599 20600 20601 20602 20603 20604 20605 20606 20607 20608 20609 20610 20611 20612 20613 20614 20615 20616 20617 20618 20619 20620 20621 20622 20623 20624 20625 20626 20627 20628 20629 20630 20631 20632 20633 20634 20635 20636 20637 20638 20639 20640 20641 20642 20643 20644 20645 20646 20647 20648 20649 20650 20651 20652 20653 20654 20655 20656 20657 20658 20659 20660 20661 20662 20663 20664 20665 20666 20667 20668 20669 20670 20671 20672 20673 20674 20675 20676 20677 20678 20679 20680 20681 20682 20683 20684 20685 20686 20687 20688 20689 20690 20691 20692 20693 20694 20695 20696 20697 20698 20699 20700 20701 20702 20703 20704 20705 20706 20707 20708 20709 20710 20711 20712 20713 20714 20715 20716 20717 20718 20719 20720 20721 20722 20723 20724 20725 20726 20727 20728 20729 20730 20731 20732 20733 20734 20735 20736 20737 20738 20739 20740 20741 20742 20743 20744 20745 20746 20747 20748 20749 20750 20751 20752 20753 20754 20755 20756 20757 20758 20759 20760 20761 20762 20763 20764 20765 20766 20767 20768 20769 20770 20771 20772 20773 20774 20775 20776 20777 20778 20779 20780 20781 20782 20783 20784 20785 20786 20787 20788 20789 20790 20791 20792 20793 20794 20795 20796 20797 20798 20799 20800 20801 20802 20803 20804 20805 20806 20807 20808 20809 20810 20811 20812 20813 20814 20815 20816 20817 20818 20819 20820 20821 20822 20823 20824 20825 20826 20827 20828 20829 20830 20831 20832 20833 20834 20835 20836 20837 20838 20839 20840 20841 20842 20843 20844 20845 20846 20847 20848 20849 20850 20851 20852 20853 20854 20855 20856 20857 20858 20859 20860 20861 20862 20863 20864 20865 20866 20867 20868 20869 20870 20871 20872 20873 20874 20875 20876 20877 20878 20879 20880 20881 20882 20883 20884 20885 20886 20887 20888 20889 20890 20891 20892 20893 20894 20895 20896 20897 20898 20899 20900 20901 20902 20903 20904 20905 20906 20907 20908 20909 20910 20911 20912 20913 20914 20915 20916 20917 20918 20919 20920 20921 20922 20923 20924 20925 20926 20927 20928 20929 20930 20931 20932 20933 20934 20935 20936 20937 20938 20939 20940 20941 20942 20943 20944 20945 20946 20947 20948 20949 20950 20951 20952 20953 20954 20955 20956 20957 20958 20959 20960 20961 20962 20963 20964 20965 20966 20967 20968 20969 20970 20971 20972 20973 20974 20975 20976 20977 20978 20979 20980 20981 20982 20983 20984 20985 20986 20987 20988 20989 20990 20991 20992 20993 20994 20995 20996 20997 20998 20999 21000 21001 21002 21003 21004 21005 21006 21007 21008 21009 21010 21011 21012 21013 21014 21015 21016 21017 21018 21019 21020 21021 21022 21023 21024 21025 21026 21027 21028 21029 21030 21031 21032 21033 21034 21035 21036 21037 21038 21039 21040 21041 21042 21043 21044 21045 21046 21047 21048 21049 21050 21051 21052 21053 21054 21055 21056 21057 21058 21059 21060 21061 21062 21063 21064 21065 21066 21067 21068 21069 21070 21071 21072 21073 21074 21075 21076 21077 21078 21079 21080 21081 21082 21083 21084 21085 21086 21087 21088 21089 21090 21091 21092 21093 21094 21095 21096 21097 21098 21099 21100 21101 21102 21103 21104 21105 21106 21107 21108 21109 21110 21111 21112 21113 21114 21115 21116 21117 21118 21119 21120 21121 21122 21123 21124 21125 21126 21127 21128 21129 21130 21131 21132 21133 21134 21135 21136 21137 21138 21139 21140 21141 21142 21143 21144 21145 21146 21147 21148 21149 21150 21151 21152 21153 21154 21155 21156 21157 21158 21159 21160 21161 21162 21163 21164 21165 21166 21167 21168 21169 21170 21171 21172 21173 21174 21175 21176 21177 21178 21179 21180 21181 21182 21183 21184 21185 21186 21187 21188 21189 21190 21191 21192 21193 21194 21195 21196 21197 21198 21199 21200 21201 21202 21203 21204 21205 21206 21207 21208 21209 21210 21211 21212 21213 21214 21215 21216 21217 21218 21219 21220 21221 21222 21223 21224 21225 21226 21227 21228 21229 21230 21231 21232 21233 21234 21235 21236 21237 21238 21239 21240 21241 21242 21243 21244 21245 21246 21247 21248 21249 21250 21251 21252 21253 21254 21255 21256 21257 21258 21259 21260 21261 21262 21263 21264 21265 21266 21267 21268 21269 21270 21271 21272 21273 21274 21275 21276 21277 21278 21279 21280 21281 21282 21283 21284 21285 21286 21287 21288 21289 21290 21291 21292 21293 21294 21295 21296 21297 21298 21299 21300 21301 21302 21303 21304 21305 21306 21307 21308 21309 21310 21311 21312 21313 21314 21315 21316 21317 21318 21319 21320 21321 21322 21323 21324 21325 21326 21327 21328 21329 21330 21331 21332 21333 21334 21335 21336 21337 21338 21339 21340 21341 21342 21343 21344 21345 21346 21347 21348 21349 21350 21351 21352 21353 21354 21355 21356 21357 21358 21359 21360 21361 21362 21363 21364 21365 21366 21367 21368 21369 21370 21371 21372 21373 21374 21375 21376 21377 21378 21379 21380 21381 21382 21383 21384 21385 21386 21387 21388 21389 21390 21391 21392 21393 21394 21395 21396 21397 21398 21399 21400 21401 21402 21403 21404 21405 21406 21407 21408 21409 21410 21411 21412 21413 21414 21415 21416 21417 21418 21419 21420 21421 21422 21423 21424 21425 21426 21427 21428 21429 21430 21431 21432 21433 21434 21435 21436 21437 21438 21439 21440 21441 21442 21443 21444 21445 21446 21447 21448 21449 21450 21451 21452 21453 21454 21455 21456 21457 21458 21459 21460 21461 21462 21463 21464 21465 21466 21467 21468 21469 21470 21471 21472 21473 21474 21475 21476 21477 21478 21479 21480 21481 21482 21483 21484 21485 21486 21487 21488 21489 21490 21491 21492 21493 21494 21495 21496 21497 21498 21499 21500 21501 21502 21503 21504 21505 21506 21507 21508 21509 21510 21511 21512 21513 21514 21515 21516 21517 21518 21519 21520 21521 21522 21523 21524 21525 21526 21527 21528 21529 21530 21531 21532 21533 21534 21535 21536 21537 21538 21539 21540 21541 21542 21543 21544 21545 21546 21547 21548 21549 21550 21551 21552 21553 21554 21555 21556 21557 21558 21559 21560 21561 21562 21563 21564 21565 21566 21567 21568 21569 21570 21571 21572 21573 21574 21575 21576 21577 21578 21579 21580 21581 21582 21583 21584 21585 21586 21587 21588 21589 21590 21591 21592 21593 21594 21595 21596 21597 21598 21599 21600 21601 21602 21603 21604 21605 21606 21607 21608 21609 21610 21611 21612 21613 21614 21615 21616 21617 21618 21619 21620 21621 21622 21623 21624 21625 21626 21627 21628 21629 21630 21631 21632 21633 21634 21635 21636 21637 21638 21639 21640 21641 21642 21643 21644 21645 21646 21647 21648 21649 21650 21651 21652 21653 21654 21655 21656 21657 21658 21659 21660 21661 21662 21663 21664 21665 21666 21667 21668 21669 21670 21671 21672 21673 21674 21675 21676 21677 21678 21679 21680 21681 21682 21683 21684 21685 21686 21687 21688 21689 21690 21691 21692 21693 21694 21695 21696 21697 21698 21699 21700 21701 21702 21703 21704 21705 21706 21707 21708 21709 21710 21711 21712 21713 21714 21715 21716 21717 21718 21719 21720 21721 21722 21723 21724 21725 21726 21727 21728 21729 21730 21731 21732 21733 21734 21735 21736 21737 21738 21739 21740 21741 21742 21743 21744 21745 21746 21747 21748 21749 21750 21751 21752 21753 21754 21755 21756 21757 21758 21759 21760 21761 21762 21763 21764 21765 21766 21767 21768 21769 21770 21771 21772 21773 21774 21775 21776 21777 21778 21779 21780 21781 21782 21783 21784 21785 21786 21787 21788 21789 21790 21791 21792 21793 21794 21795 21796 21797 21798 21799 21800 21801 21802 21803 21804 21805 21806 21807 21808 21809 21810 21811 21812 21813 21814 21815 21816 21817 21818 21819 21820 21821 21822 21823 21824 21825 21826 21827 21828 21829 21830 21831 21832 21833 21834 21835 21836 21837 21838 21839 21840 21841 21842 21843 21844 21845 21846 21847 21848 21849 21850 21851 21852 21853 21854 21855 21856 21857 21858 21859 21860 21861 21862 21863 21864 21865 21866 21867 21868 21869 21870 21871 21872 21873 21874 21875 21876 21877 21878 21879 21880 21881 21882 21883 21884 21885 21886 21887 21888 21889 21890 21891 21892 21893 21894 21895 21896 21897 21898 21899 21900 21901 21902 21903 21904 21905 21906 21907 21908 21909 21910 21911 21912 21913 21914 21915 21916 21917 21918 21919 21920 21921 21922 21923 21924 21925 21926 21927 21928 21929 21930 21931 21932 21933 21934 21935 21936 21937 21938 21939 21940 21941 21942 21943 21944 21945 21946 21947 21948 21949 21950 21951 21952 21953 21954 21955 21956 21957 21958 21959 21960 21961 21962 21963 21964 21965 21966 21967 21968 21969 21970 21971 21972 21973 21974 21975 21976 21977 21978 21979 21980 21981 21982 21983 21984 21985 21986 21987 21988 21989 21990 21991 21992 21993 21994 21995 21996 21997 21998 21999 22000 22001 22002 22003 22004 22005 22006 22007 22008 22009 22010 22011 22012 22013 22014 22015 22016 22017 22018 22019 22020 22021 22022 22023 22024 22025 22026 22027 22028 22029 22030 22031 22032 22033 22034 22035 22036 22037 22038 22039 22040 22041 22042 22043 22044 22045 22046 22047 22048 22049 22050 22051 22052 22053 22054 22055 22056 22057 22058 22059 22060 22061 22062 22063 22064 22065 22066 22067 22068 22069 22070 22071 22072 22073 22074 22075 22076 22077 22078 22079 22080 22081 22082 22083 22084 22085 22086 22087 22088 22089 22090 22091 22092 22093 22094 22095 22096 22097 22098 22099 22100 22101 22102 22103 22104 22105 22106 22107 22108 22109 22110 22111 22112 22113 22114 22115 22116 22117 22118 22119 22120 22121 22122 22123 22124 22125 22126 22127 22128 22129 22130 22131 22132 22133 22134 22135 22136 22137 22138 22139 22140 22141 22142 22143 22144 22145 22146 22147 22148 22149 22150 22151 22152 22153 22154 22155 22156 22157 22158 22159 22160 22161 22162 22163 22164 22165 22166 22167 22168 22169 22170 22171 22172 22173 22174 22175 22176 22177 22178 22179 22180 22181 22182 22183 22184 22185 22186 22187 22188 22189 22190 22191 22192 22193 22194 22195 22196 22197 22198 22199 22200 22201 22202 22203 22204 22205 22206 22207 22208 22209 22210 22211 22212 22213 22214 22215 22216 22217 22218 22219 22220 22221 22222 22223 22224 22225 22226 22227 22228 22229 22230 22231 22232 22233 22234 22235 22236 22237 22238 22239 22240 22241 22242 22243 22244 22245 22246 22247 22248 22249 22250 22251 22252 22253 22254 22255 22256 22257 22258 22259 22260 22261 22262 22263 22264 22265 22266 22267 22268 22269 22270 22271 22272 22273 22274 22275 22276 22277 22278 22279 22280 22281 22282 22283 22284 22285 22286 22287 22288 22289 22290 22291 22292 22293 22294 22295 22296 22297 22298 22299 22300 22301 22302 22303 22304 22305 22306 22307 22308 22309 22310 22311 22312 22313 22314 22315 22316 22317 22318 22319 22320 22321 22322 22323 22324 22325 22326 22327 22328 22329 22330 22331 22332 22333 22334 22335 22336 22337 22338 22339 22340 22341 22342 22343 22344 22345 22346 22347 22348 22349 22350 22351 22352 22353 22354 22355 22356 22357 22358 22359 22360 22361 22362 22363 22364 22365 22366 22367 22368 22369 22370 22371 22372 22373 22374 22375 22376 22377 22378 22379 22380 22381 22382 22383 22384 22385 22386 22387 22388 22389 22390 22391 22392 22393 22394 22395 22396 22397 22398 22399 22400 22401 22402 22403 22404 22405 22406 22407 22408 22409 22410 22411 22412 22413 22414 22415 22416 22417 22418 22419 22420 22421 22422 22423 22424 22425 22426 22427 22428 22429 22430 22431 22432 22433 22434 22435 22436 22437 22438 22439 22440 22441 22442 22443 22444 22445 22446 22447 22448 22449 22450 22451 22452 22453 22454 22455 22456 22457 22458 22459 22460 22461 22462 22463 22464 22465 22466 22467 22468 22469 22470 22471 22472 22473 22474 22475 22476 22477 22478 22479 22480 22481 22482 22483 22484 22485 22486 22487 22488 22489 22490 22491 22492 22493 22494 22495 22496 22497 22498 22499 22500 22501 22502 22503 22504 22505 22506 22507 22508 22509 22510 22511 22512 22513 22514 22515 22516 22517 22518 22519 22520 22521 22522 22523 22524 22525 22526 22527 22528 22529 22530 22531 22532 22533 22534 22535 22536 22537 22538 22539 22540 22541 22542 22543 22544 22545 22546 22547 22548 22549 22550 22551 22552 22553 22554 22555 22556 22557 22558 22559 22560 22561 22562 22563 22564 22565 22566 22567 22568 22569 22570 22571 22572 22573 22574 22575 22576 22577 22578 22579 22580 22581 22582 22583 22584 22585 22586 22587 22588 22589 22590 22591 22592 22593 22594 22595 22596 22597 22598 22599 22600 22601 22602 22603 22604 22605 22606 22607 22608 22609 22610 22611 22612 22613 22614 22615 22616 22617 22618 22619 22620 22621 22622 22623 22624 22625 22626 22627 22628 22629 22630 22631 22632 22633 22634 22635 22636 22637 22638 22639 22640 22641 22642 22643 22644 22645 22646 22647 22648 22649 22650 22651 22652 22653 22654 22655 22656 22657 22658 22659 22660 22661 22662 22663 22664 22665 22666 22667 22668 22669 22670 22671 22672 22673 22674 22675 22676 22677 22678 22679 22680 22681 22682 22683 22684 22685 22686 22687 22688 22689 22690 22691 22692 22693 22694 22695 22696 22697 22698 22699 22700 22701 22702 22703 22704 22705 22706 22707 22708 22709 22710 22711 22712 22713 22714 22715 22716 22717 22718 22719 22720 22721 22722 22723 22724 22725 22726 22727 22728 22729 22730 22731 22732 22733 22734 22735 22736 22737 22738 22739 22740 22741 22742 22743 22744 22745 22746 22747 22748 22749 22750 22751 22752 22753 22754 22755 22756 22757 22758 22759 22760 22761 22762 22763 22764 22765 22766 22767 22768 22769 22770 22771 22772 22773 22774 22775 22776 22777 22778 22779 22780 22781 22782 22783 22784 22785 22786 22787 22788 22789 22790 22791 22792 22793 22794 22795 22796 22797 22798 22799 22800 22801 22802 22803 22804 22805 22806 22807 22808 22809 22810 22811 22812 22813 22814 22815 22816 22817 22818 22819 22820 22821 22822 22823 22824 22825 22826 22827 22828 22829 22830 22831 22832 22833 22834 22835 22836 22837 22838 22839 22840 22841 22842 22843 22844 22845 22846 22847 22848 22849 22850 22851 22852 22853 22854 22855 22856 22857 22858 22859 22860 22861 22862 22863 22864 22865 22866 22867 22868 22869 22870 22871 22872 22873 22874 22875 22876 22877 22878 22879 22880 22881 22882 22883 22884 22885 22886 22887 22888 22889 22890 22891 22892 22893 22894 22895 22896 22897 22898 22899 22900 22901 22902 22903 22904 22905 22906 22907 22908 22909 22910 22911 22912 22913 22914 22915 22916 22917 22918 22919 22920 22921 22922 22923 22924 22925 22926 22927 22928 22929 22930 22931 22932 22933 22934 22935 22936 22937 22938 22939 22940 22941 22942 22943 22944 22945 22946 22947 22948 22949 22950 22951 22952 22953 22954 22955 22956 22957 22958 22959 22960 22961 22962 22963 22964 22965 22966 22967 22968 22969 22970 22971 22972 22973 22974 22975 22976 22977 22978 22979 22980 22981 22982 22983 22984 22985 22986 22987 22988 22989 22990 22991 22992 22993 22994 22995 22996 22997 22998 22999 23000 23001 23002 23003 23004 23005 23006 23007 23008 23009 23010 23011 23012 23013 23014 23015 23016 23017 23018 23019 23020 23021 23022 23023 23024 23025 23026 23027 23028 23029 23030 23031 23032 23033 23034 23035 23036 23037 23038 23039 23040 23041 23042 23043 23044 23045 23046 23047 23048 23049 23050 23051 23052 23053 23054 23055 23056 23057 23058 23059 23060 23061 23062 23063 23064 23065 23066 23067 23068 23069 23070 23071 23072 23073 23074 23075 23076 23077 23078 23079 23080 23081 23082 23083 23084 23085 23086 23087 23088 23089 23090 23091 23092 23093 23094 23095 23096 23097 23098 23099 23100 23101 23102 23103 23104 23105 23106 23107 23108 23109 23110 23111 23112 23113 23114 23115 23116 23117 23118 23119 23120 23121 23122 23123 23124 23125 23126 23127 23128 23129 23130 23131 23132 23133 23134 23135 23136 23137 23138 23139 23140 23141 23142 23143 23144 23145 23146 23147 23148 23149 23150 23151 23152 23153 23154 23155 23156 23157 23158 23159 23160 23161 23162 23163 23164 23165 23166 23167 23168 23169 23170 23171 23172 23173 23174 23175 23176 23177 23178 23179 23180 23181 23182 23183 23184 23185 23186 23187 23188 23189 23190 23191 23192 23193 23194 23195 23196 23197 23198 23199 23200 23201 23202 23203 23204 23205 23206 23207 23208 23209 23210 23211 23212 23213 23214 23215 23216 23217 23218 23219 23220 23221 23222 23223 23224 23225 23226 23227 23228 23229 23230 23231 23232 23233 23234 23235 23236 23237 23238 23239 23240 23241 23242 23243 23244 23245 23246 23247 23248 23249 23250 23251 23252 23253 23254 23255 23256 23257 23258 23259 23260 23261 23262 23263 23264 23265 23266 23267 23268 23269 23270 23271 23272 23273 23274 23275 23276 23277 23278 23279 23280 23281 23282 23283 23284 23285 23286 23287 23288 23289 23290 23291 23292 23293 23294 23295 23296 23297 23298 23299 23300 23301 23302 23303 23304 23305 23306 23307 23308 23309 23310 23311 23312 23313 23314 23315 23316 23317 23318 23319 23320 23321 23322 23323 23324 23325 23326 23327 23328 23329 23330 23331 23332 23333 23334 23335 23336 23337 23338 23339 23340 23341 23342 23343 23344 23345 23346 23347 23348 23349 23350 23351 23352 23353 23354 23355 23356 23357 23358 23359 23360 23361 23362 23363 23364 23365 23366 23367 23368 23369 23370 23371 23372 23373 23374 23375 23376 23377 23378 23379 23380 23381 23382 23383 23384 23385 23386 23387 23388 23389 23390 23391 23392 23393 23394 23395 23396 23397 23398 23399 23400 23401 23402 23403 23404 23405 23406 23407 23408 23409 23410 23411 23412 23413 23414 23415 23416 23417 23418 23419 23420 23421 23422 23423 23424 23425 23426 23427 23428 23429 23430 23431 23432 23433 23434 23435 23436 23437 23438 23439 23440 23441 23442 23443 23444 23445 23446 23447 23448 23449 23450 23451 23452 23453 23454 23455 23456 23457 23458 23459 23460 23461 23462 23463 23464 23465 23466 23467 23468 23469 23470 23471 23472 23473 23474 23475 23476 23477 23478 23479 23480 23481 23482 23483 23484 23485 23486 23487 23488 23489 23490 23491 23492 23493 23494 23495 23496 23497 23498 23499 23500 23501 23502 23503 23504 23505 23506 23507 23508 23509 23510 23511 23512 23513 23514 23515 23516 23517 23518 23519 23520 23521 23522 23523 23524 23525 23526 23527 23528 23529 23530 23531 23532 23533 23534 23535 23536 23537 23538 23539 23540 23541 23542 23543 23544 23545 23546 23547 23548 23549 23550 23551 23552 23553 23554 23555 23556 23557 23558 23559 23560 23561 23562 23563 23564 23565 23566 23567 23568 23569 23570 23571 23572 23573 23574 23575 23576 23577 23578 23579 23580 23581 23582 23583 23584 23585 23586 23587 23588 23589 23590 23591 23592 23593 23594 23595 23596 23597 23598 23599 23600 23601 23602 23603 23604 23605 23606 23607 23608 23609 23610 23611 23612 23613 23614 23615 23616 23617 23618 23619 23620 23621 23622 23623 23624 23625 23626 23627 23628 23629 23630 23631 23632 23633 23634 23635 23636 23637 23638 23639 23640 23641 23642 23643 23644 23645 23646 23647 23648 23649 23650 23651 23652 23653 23654 23655 23656 23657 23658 23659 23660 23661 23662 23663 23664 23665 23666 23667 23668 23669 23670 23671 23672 23673 23674 23675 23676 23677 23678 23679 23680 23681 23682 23683 23684 23685 23686 23687 23688 23689 23690 23691 23692 23693 23694 23695 23696 23697 23698 23699 23700 23701 23702 23703 23704 23705 23706 23707 23708 23709 23710 23711 23712 23713 23714 23715 23716 23717 23718 23719 23720 23721 23722 23723 23724 23725 23726 23727 23728 23729 23730 23731 23732 23733 23734 23735 23736 23737 23738 23739 23740 23741 23742 23743 23744 23745 23746 23747 23748 23749 23750 23751 23752 23753 23754 23755 23756 23757 23758 23759 23760 23761 23762 23763 23764 23765 23766 23767 23768 23769 23770 23771 23772 23773 23774 23775 23776 23777 23778 23779 23780 23781 23782 23783 23784 23785 23786 23787 23788 23789 23790 23791 23792 23793 23794 23795 23796 23797 23798 23799 23800 23801 23802 23803 23804 23805 23806 23807 23808 23809 23810 23811 23812 23813 23814 23815 23816 23817 23818 23819 23820 23821 23822 23823 23824 23825 23826 23827 23828 23829 23830 23831 23832 23833 23834 23835 23836 23837 23838 23839 23840 23841 23842 23843 23844 23845 23846 23847 23848 23849 23850 23851 23852 23853 23854 23855 23856 23857 23858 23859 23860 23861 23862 23863 23864 23865 23866 23867 23868 23869 23870 23871 23872 23873 23874 23875 23876 23877 23878 23879 23880 23881 23882 23883 23884 23885 23886 23887 23888 23889 23890 23891 23892 23893 23894 23895 23896 23897 23898 23899 23900 23901 23902 23903 23904 23905 23906 23907 23908 23909 23910 23911 23912 23913 23914 23915 23916 23917 23918 23919 23920 23921 23922 23923 23924 23925 23926 23927 23928 23929 23930 23931 23932 23933 23934 23935 23936 23937 23938 23939 23940 23941 23942 23943 23944 23945 23946 23947 23948 23949 23950 23951 23952 23953 23954 23955 23956 23957 23958 23959 23960 23961 23962 23963 23964 23965 23966 23967 23968 23969 23970 23971 23972 23973 23974 23975 23976 23977 23978 23979 23980 23981 23982 23983 23984 23985 23986 23987 23988 23989 23990 23991 23992 23993 23994 23995 23996 23997 23998 23999 24000 24001 24002 24003 24004 24005 24006 24007 24008 24009 24010 24011 24012 24013 24014 24015 24016 24017 24018 24019 24020 24021 24022 24023 24024 24025 24026 24027 24028 24029 24030 24031 24032 24033 24034 24035 24036 24037 24038 24039 24040 24041 24042 24043 24044 24045 24046 24047 24048 24049 24050 24051 24052 24053 24054 24055 24056 24057 24058 24059 24060 24061 24062 24063 24064 24065 24066 24067 24068 24069 24070 24071 24072 24073 24074 24075 24076 24077 24078 24079 24080 24081 24082 24083 24084 24085 24086 24087 24088 24089 24090 24091 24092 24093 24094 24095 24096 24097 24098 24099 24100 24101 24102 24103 24104 24105 24106 24107 24108 24109 24110 24111 24112 24113 24114 24115 24116 24117 24118 24119 24120 24121 24122 24123 24124 24125 24126 24127 24128 24129 24130 24131 24132 24133 24134 24135 24136 24137 24138 24139 24140 24141 24142 24143 24144 24145 24146 24147 24148 24149 24150 24151 24152 24153 24154 24155 24156 24157 24158 24159 24160 24161 24162 24163 24164 24165 24166 24167 24168 24169 24170 24171 24172 24173 24174 24175 24176 24177 24178 24179 24180 24181 24182 24183 24184 24185 24186 24187 24188 24189 24190 24191 24192 24193 24194 24195 24196 24197 24198 24199 24200 24201 24202 24203 24204 24205 24206 24207 24208 24209 24210 24211 24212 24213 24214 24215 24216 24217 24218 24219 24220 24221 24222 24223 24224 24225 24226 24227 24228 24229 24230 24231 24232 24233 24234 24235 24236 24237 24238 24239 24240 24241 24242 24243 24244 24245 24246 24247 24248 24249 24250 24251 24252 24253 24254 24255 24256 24257 24258 24259 24260 24261 24262 24263 24264 24265 24266 24267 24268 24269 24270 24271 24272 24273 24274 24275 24276 24277 24278 24279 24280 24281 24282 24283 24284 24285 24286 24287 24288 24289 24290 24291 24292 24293 24294 24295 24296 24297 24298 24299 24300 24301 24302 24303 24304 24305 24306 24307 24308 24309 24310 24311 24312 24313 24314 24315 24316 24317 24318 24319 24320 24321 24322 24323 24324 24325 24326 24327 24328 24329 24330 24331 24332 24333 24334 24335 24336 24337 24338 24339 24340 24341 24342 24343 24344 24345 24346 24347 24348 24349 24350 24351 24352 24353 24354 24355 24356 24357 24358 24359 24360 24361 24362 24363 24364 24365 24366 24367 24368 24369 24370 24371 24372 24373 24374 24375 24376 24377 24378 24379 24380 24381 24382 24383 24384 24385 24386 24387 24388 24389 24390 24391 24392 24393 24394 24395 24396 24397 24398 24399 24400 24401 24402 24403 24404 24405 24406 24407 24408 24409 24410 24411 24412 24413 24414 24415 24416 24417 24418 24419 24420 24421 24422 24423 24424 24425 24426 24427 24428 24429 24430 24431 24432 24433 24434 24435 24436 24437 24438 24439 24440 24441 24442 24443 24444 24445 24446 24447 24448 24449 24450 24451 24452 24453 24454 24455 24456 24457 24458 24459 24460 24461 24462 24463 24464 24465 24466 24467 24468 24469 24470 24471 24472 24473 24474 24475 24476 24477 24478 24479 24480 24481 24482 24483 24484 24485 24486 24487 24488 24489 24490 24491 24492 24493 24494 24495 24496 24497 24498 24499 24500 24501 24502 24503 24504 24505 24506 24507 24508 24509 24510 24511 24512 24513 24514 24515 24516 24517 24518 24519 24520 24521 24522 24523 24524 24525 24526 24527 24528 24529 24530 24531 24532 24533 24534 24535 24536 24537 24538 24539 24540 24541 24542 24543 24544 24545 24546 24547 24548 24549 24550 24551 24552 24553 24554 24555 24556 24557 24558 24559 24560 24561 24562 24563 24564 24565 24566 24567 24568 24569 24570 24571 24572 24573 24574 24575 24576 24577 24578 24579 24580 24581 24582 24583 24584 24585 24586 24587 24588 24589 24590 24591 24592 24593 24594 24595 24596 24597 24598 24599 24600 24601 24602 24603 24604 24605 24606 24607 24608 24609 24610 24611 24612 24613 24614 24615 24616 24617 24618 24619 24620 24621 24622 24623 24624 24625 24626 24627 24628 24629 24630 24631 24632 24633 24634 24635 24636 24637 24638 24639 24640 24641 24642 24643 24644 24645 24646 24647 24648 24649 24650 24651 24652 24653 24654 24655 24656 24657 24658 24659 24660 24661 24662 24663 24664 24665 24666 24667 24668 24669 24670 24671 24672 24673 24674 24675 24676 24677 24678 24679 24680 24681 24682 24683 24684 24685 24686 24687 24688 24689 24690 24691 24692 24693 24694 24695 24696 24697 24698 24699 24700 24701 24702 24703 24704 24705 24706 24707 24708 24709 24710 24711 24712 24713 24714 24715 24716 24717 24718 24719 24720 24721 24722 24723 24724 24725 24726 24727 24728 24729 24730 24731 24732 24733 24734 24735 24736 24737 24738 24739 24740 24741 24742 24743 24744 24745 24746 24747 24748 24749 24750 24751 24752 24753 24754 24755 24756 24757 24758 24759 24760 24761 24762 24763 24764 24765 24766 24767 24768 24769 24770 24771 24772 24773 24774 24775 24776 24777 24778 24779 24780 24781 24782 24783 24784 24785 24786 24787 24788 24789 24790 24791 24792 24793 24794 24795 24796 24797 24798 24799 24800 24801 24802 24803 24804 24805 24806 24807 24808 24809 24810 24811 24812 24813 24814 24815 24816 24817 24818 24819 24820 24821 24822 24823 24824 24825 24826 24827 24828 24829 24830 24831 24832 24833 24834 24835 24836 24837 24838 24839 24840 24841 24842 24843 24844 24845 24846 24847 24848 24849 24850 24851 24852 24853 24854 24855 24856 24857 24858 24859 24860 24861 24862 24863 24864 24865 24866 24867 24868 24869 24870 24871 24872 24873 24874 24875 24876 24877 24878 24879 24880 24881 24882 24883 24884 24885 24886 24887 24888 24889 24890 24891 24892 24893 24894 24895 24896 24897 24898 24899 24900 24901 24902 24903 24904 24905 24906 24907 24908 24909 24910 24911 24912 24913 24914 24915 24916 24917 24918 24919 24920 24921 24922 24923 24924 24925 24926 24927 24928 24929 24930 24931 24932 24933 24934 24935 24936 24937 24938 24939 24940 24941 24942 24943 24944 24945 24946 24947 24948 24949 24950 24951 24952 24953 24954 24955 24956 24957 24958 24959 24960 24961 24962 24963 24964 24965 24966 24967 24968 24969 24970 24971 24972 24973 24974 24975 24976 24977 24978 24979 24980 24981 24982 24983 24984 24985 24986 24987 24988 24989 24990 24991 24992 24993 24994 24995 24996 24997 24998 24999 25000 25001 25002 25003 25004 25005 25006 25007 25008 25009 25010 25011 25012 25013 25014 25015 25016 25017 25018 25019 25020 25021 25022 25023 25024 25025 25026 25027 25028 25029 25030 25031 25032 25033 25034 25035 25036 25037 25038 25039 25040 25041 25042 25043 25044 25045 25046 25047 25048 25049 25050 25051 25052 25053 25054 25055 25056 25057 25058 25059 25060 25061 25062 25063 25064 25065 25066 25067 25068 25069 25070 25071 25072 25073 25074 25075 25076 25077 25078 25079 25080 25081 25082 25083 25084 25085 25086 25087 25088 25089 25090 25091 25092 25093 25094 25095 25096 25097 25098 25099 25100 25101 25102 25103 25104 25105 25106 25107 25108 25109 25110 25111 25112 25113 25114 25115 25116 25117 25118 25119 25120 25121 25122 25123 25124 25125 25126 25127 25128 25129 25130 25131 25132 25133 25134 25135 25136 25137 25138 25139 25140 25141 25142 25143 25144 25145 25146 25147 25148 25149 25150 25151 25152 25153 25154 25155 25156 25157 25158 25159 25160 25161 25162 25163 25164 25165 25166 25167 25168 25169 25170 25171 25172 25173 25174 25175 25176 25177 25178 25179 25180 25181 25182 25183 25184 25185 25186 25187 25188 25189 25190 25191 25192 25193 25194 25195 25196 25197 25198 25199 25200 25201 25202 25203 25204 25205 25206 25207 25208 25209 25210 25211 25212 25213 25214 25215 25216 25217 25218 25219 25220 25221 25222 25223 25224 25225 25226 25227 25228 25229 25230 25231 25232 25233 25234 25235 25236 25237 25238 25239 25240 25241 25242 25243 25244 25245 25246 25247 25248 25249 25250 25251 25252 25253 25254 25255 25256 25257 25258 25259 25260 25261 25262 25263 25264 25265 25266 25267 25268 25269 25270 25271 25272 25273 25274 25275 25276 25277 25278 25279 25280 25281 25282 25283 25284 25285 25286 25287 25288 25289 25290 25291 25292 25293 25294 25295 25296 25297 25298 25299 25300 25301 25302 25303 25304 25305 25306 25307 25308 25309 25310 25311 25312 25313 25314 25315 25316 25317 25318 25319 25320 25321 25322 25323 25324 25325 25326 25327 25328 25329 25330 25331 25332 25333 25334 25335 25336 25337 25338 25339 25340 25341 25342 25343 25344 25345 25346 25347 25348 25349 25350 25351 25352 25353 25354 25355 25356 25357 25358 25359 25360 25361 25362 25363 25364 25365 25366 25367 25368 25369 25370 25371 25372 25373 25374 25375 25376 25377 25378 25379 25380 25381 25382 25383 25384 25385 25386 25387 25388 25389 25390 25391 25392 25393 25394 25395 25396 25397 25398 25399 25400 25401 25402 25403 25404 25405 25406 25407 25408 25409 25410 25411 25412 25413 25414 25415 25416 25417 25418 25419 25420 25421 25422 25423 25424 25425 25426 25427 25428 25429 25430 25431 25432 25433 25434 25435 25436 25437 25438 25439 25440 25441 25442 25443 25444 25445 25446 25447 25448 25449 25450 25451 25452 25453 25454 25455 25456 25457 25458 25459 25460 25461 25462 25463 25464 25465 25466 25467 25468 25469 25470 25471 25472 25473 25474 25475 25476 25477 25478 25479 25480 25481 25482 25483 25484 25485 25486 25487 25488 25489 25490 25491 25492 25493 25494 25495 25496 25497 25498 25499 25500 25501 25502 25503 25504 25505 25506 25507 25508 25509 25510 25511 25512 25513 25514 25515 25516 25517 25518 25519 25520 25521 25522 25523 25524 25525 25526 25527 25528 25529 25530 25531 25532 25533 25534 25535 25536 25537 25538 25539 25540 25541 25542 25543 25544 25545 25546 25547 25548 25549 25550 25551 25552 25553 25554 25555 25556 25557 25558 25559 25560 25561 25562 25563 25564 25565 25566 25567 25568 25569 25570 25571 25572 25573 25574 25575 25576 25577 25578 25579 25580 25581 25582 25583 25584 25585 25586 25587 25588 25589 25590 25591 25592 25593 25594 25595 25596 25597 25598 25599 25600 25601 25602 25603 25604 25605 25606 25607 25608 25609 25610 25611 25612 25613 25614 25615 25616 25617 25618 25619 25620 25621 25622 25623 25624 25625 25626 25627 25628 25629 25630 25631 25632 25633 25634 25635 25636 25637 25638 25639 25640 25641 25642 25643 25644 25645 25646 25647 25648 25649 25650 25651 25652 25653 25654 25655 25656 25657 25658 25659 25660 25661 25662 25663 25664 25665 25666 25667 25668 25669 25670 25671 25672 25673 25674 25675 25676 25677 25678 25679 25680 25681 25682 25683 25684 25685 25686 25687 25688 25689 25690 25691 25692 25693 25694 25695 25696 25697 25698 25699 25700 25701 25702 25703 25704 25705 25706 25707 25708 25709 25710 25711 25712 25713 25714 25715 25716 25717 25718 25719 25720 25721 25722 25723 25724 25725 25726 25727 25728 25729 25730 25731 25732 25733 25734 25735 25736 25737 25738 25739 25740 25741 25742 25743 25744 25745 25746 25747 25748 25749 25750 25751 25752 25753 25754 25755 25756 25757 25758 25759 25760 25761 25762 25763 25764 25765 25766 25767 25768 25769 25770 25771 25772 25773 25774 25775 25776 25777 25778 25779 25780 25781 25782 25783 25784 25785 25786 25787 25788 25789 25790 25791 25792 25793 25794 25795 25796 25797 25798 25799 25800 25801 25802 25803 25804 25805 25806 25807 25808 25809 25810 25811 25812 25813 25814 25815 25816 25817 25818 25819 25820 25821 25822 25823 25824 25825 25826 25827 25828 25829 25830 25831 25832 25833 25834 25835 25836 25837 25838 25839 25840 25841 25842 25843 25844 25845 25846 25847 25848 25849 25850 25851 25852 25853 25854 25855 25856 25857 25858 25859 25860 25861 25862 25863 25864 25865 25866 25867 25868 25869 25870 25871 25872 25873 25874 25875 25876 25877 25878 25879 25880 25881 25882 25883 25884 25885 25886 25887 25888 25889 25890 25891 25892 25893 25894 25895 25896 25897 25898 25899 25900 25901 25902 25903 25904 25905 25906 25907 25908 25909 25910 25911 25912 25913 25914 25915 25916 25917 25918 25919 25920 25921 25922 25923 25924 25925 25926 25927 25928 25929 25930 25931 25932 25933 25934 25935 25936 25937 25938 25939 25940 25941 25942 25943 25944 25945 25946 25947 25948 25949 25950 25951 25952 25953 25954 25955 25956 25957 25958 25959 25960 25961 25962 25963 25964 25965 25966 25967 25968 25969 25970 25971 25972 25973 25974 25975 25976 25977 25978 25979 25980 25981 25982 25983 25984 25985 25986 25987 25988 25989 25990 25991 25992 25993 25994 25995 25996 25997 25998 25999 26000 26001 26002 26003 26004 26005 26006 26007 26008 26009 26010 26011 26012 26013 26014 26015 26016 26017 26018 26019 26020 26021 26022 26023 26024 26025 26026 26027 26028 26029 26030 26031 26032 26033 26034 26035 26036 26037 26038 26039 26040 26041 26042 26043 26044 26045 26046 26047 26048 26049 26050 26051 26052 26053 26054 26055 26056 26057 26058 26059 26060 26061 26062 26063 26064 26065 26066 26067 26068 26069 26070 26071 26072 26073 26074 26075 26076 26077 26078 26079 26080 26081 26082 26083 26084 26085 26086 26087 26088 26089 26090 26091 26092 26093 26094 26095 26096 26097 26098 26099 26100 26101 26102 26103 26104 26105 26106 26107 26108 26109 26110 26111 26112 26113 26114 26115 26116 26117 26118 26119 26120 26121 26122 26123 26124 26125 26126 26127 26128 26129 26130 26131 26132 26133 26134 26135 26136 26137 26138 26139 26140 26141 26142 26143 26144 26145 26146 26147 26148 26149 26150 26151 26152 26153 26154 26155 26156 26157 26158 26159 26160 26161 26162 26163 26164 26165 26166 26167 26168 26169 26170 26171 26172 26173 26174 26175 26176 26177 26178 26179 26180 26181 26182 26183 26184 26185 26186 26187 26188 26189 26190 26191 26192 26193 26194 26195 26196 26197 26198 26199 26200 26201 26202 26203 26204 26205 26206 26207 26208 26209 26210 26211 26212 26213 26214 26215 26216 26217 26218 26219 26220 26221 26222 26223 26224 26225 26226 26227 26228 26229 26230 26231 26232 26233 26234 26235 26236 26237 26238 26239 26240 26241 26242 26243 26244 26245 26246 26247 26248 26249 26250 26251 26252 26253 26254 26255 26256 26257 26258 26259 26260 26261 26262 26263 26264 26265 26266 26267 26268 26269 26270 26271 26272 26273 26274 26275 26276 26277 26278 26279 26280 26281 26282 26283 26284 26285 26286 26287 26288 26289 26290 26291 26292 26293 26294 26295 26296 26297 26298 26299 26300 26301 26302 26303 26304 26305 26306 26307 26308 26309 26310 26311 26312 26313 26314 26315 26316 26317 26318 26319 26320 26321 26322 26323 26324 26325 26326 26327 26328 26329 26330 26331 26332 26333 26334 26335 26336 26337 26338 26339 26340 26341 26342 26343 26344 26345 26346 26347 26348 26349 26350 26351 26352 26353 26354 26355 26356 26357 26358 26359 26360 26361 26362 26363 26364 26365 26366 26367 26368 26369 26370 26371 26372 26373 26374 26375 26376 26377 26378 26379 26380 26381 26382 26383 26384 26385 26386 26387 26388 26389 26390 26391 26392 26393 26394 26395 26396 26397 26398 26399 26400 26401 26402 26403 26404 26405 26406 26407 26408 26409 26410 26411 26412 26413 26414 26415 26416 26417 26418 26419 26420 26421 26422 26423 26424 26425 26426 26427 26428 26429 26430 26431 26432 26433 26434 26435 26436 26437 26438 26439 26440 26441 26442 26443 26444 26445 26446 26447 26448 26449 26450 26451 26452 26453 26454 26455 26456 26457 26458 26459 26460 26461 26462 26463 26464 26465 26466 26467 26468 26469 26470 26471 26472 26473 26474 26475 26476 26477 26478 26479 26480 26481 26482 26483 26484 26485 26486 26487 26488 26489 26490 26491 26492 26493 26494 26495 26496 26497 26498 26499 26500 26501 26502 26503 26504 26505 26506 26507 26508 26509 26510 26511 26512 26513 26514 26515 26516 26517 26518 26519 26520 26521 26522 26523 26524 26525 26526 26527 26528 26529 26530 26531 26532 26533 26534 26535 26536 26537 26538 26539 26540 26541 26542 26543 26544 26545 26546 26547 26548 26549 26550 26551 26552 26553 26554 26555 26556 26557 26558 26559 26560 26561 26562 26563 26564 26565 26566 26567 26568 26569 26570 26571 26572 26573 26574 26575 26576 26577 26578 26579 26580 26581 26582 26583 26584 26585 26586 26587 26588 26589 26590 26591 26592 26593 26594 26595 26596 26597 26598 26599 26600 26601 26602 26603 26604 26605 26606 26607 26608 26609 26610 26611 26612 26613 26614 26615 26616 26617 26618 26619 26620 26621 26622 26623 26624 26625 26626 26627 26628 26629 26630 26631 26632 26633 26634 26635 26636 26637 26638 26639 26640 26641 26642 26643 26644 26645 26646 26647 26648 26649 26650 26651 26652 26653 26654 26655 26656 26657 26658 26659 26660 26661 26662 26663 26664 26665 26666 26667 26668 26669 26670 26671 26672 26673 26674 26675 26676 26677 26678 26679 26680 26681 26682 26683 26684 26685 26686 26687 26688 26689 26690 26691 26692 26693 26694 26695 26696 26697 26698 26699 26700 26701 26702 26703 26704 26705 26706 26707 26708 26709 26710 26711 26712 26713 26714 26715 26716 26717 26718 26719 26720 26721 26722 26723 26724 26725 26726 26727 26728 26729 26730 26731 26732 26733 26734 26735 26736 26737 26738 26739 26740 26741 26742 26743 26744 26745 26746 26747 26748 26749 26750 26751 26752 26753 26754 26755 26756 26757 26758 26759 26760 26761 26762 26763 26764 26765 26766 26767 26768 26769 26770 26771 26772 26773 26774 26775 26776 26777 26778 26779 26780 26781 26782 26783 26784 26785 26786 26787 26788 26789 26790 26791 26792 26793 26794 26795 26796 26797 26798 26799 26800 26801 26802 26803 26804 26805 26806 26807 26808 26809 26810 26811 26812 26813 26814 26815 26816 26817 26818 26819 26820 26821 26822 26823 26824 26825 26826 26827 26828 26829 26830 26831 26832 26833 26834 26835 26836 26837 26838 26839 26840 26841 26842 26843 26844 26845 26846 26847 26848 26849 26850 26851 26852 26853 26854 26855 26856 26857 26858 26859 26860 26861 26862 26863 26864 26865 26866 26867 26868 26869 26870 26871 26872 26873 26874 26875 26876 26877 26878 26879 26880 26881 26882 26883 26884 26885 26886 26887 26888 26889 26890 26891 26892 26893 26894 26895 26896 26897 26898 26899 26900 26901 26902 26903 26904 26905 26906 26907 26908 26909 26910 26911 26912 26913 26914 26915 26916 26917 26918 26919 26920 26921 26922 26923 26924 26925 26926 26927 26928 26929 26930 26931 26932 26933 26934 26935 26936 26937 26938 26939 26940 26941 26942 26943 26944 26945 26946 26947 26948 26949 26950 26951 26952 26953 26954 26955 26956 26957 26958 26959 26960 26961 26962 26963 26964 26965 26966 26967 26968 26969 26970 26971 26972 26973 26974 26975 26976 26977 26978 26979 26980 26981 26982 26983 26984 26985 26986 26987 26988 26989 26990 26991 26992 26993 26994 26995 26996 26997 26998 26999 27000 27001 27002 27003 27004 27005 27006 27007 27008 27009 27010 27011 27012 27013 27014 27015 27016 27017 27018 27019 27020 27021 27022 27023 27024 27025 27026 27027 27028 27029 27030 27031 27032 27033 27034 27035 27036 27037 27038 27039 27040 27041 27042 27043 27044 27045 27046 27047 27048 27049 27050 27051 27052 27053 27054 27055 27056 27057 27058 27059 27060 27061 27062 27063 27064 27065 27066 27067 27068 27069 27070 27071 27072 27073 27074 27075 27076 27077 27078 27079 27080 27081 27082 27083 27084 27085 27086 27087 27088 27089 27090 27091 27092 27093 27094 27095 27096 27097 27098 27099 27100 27101 27102 27103 27104 27105 27106 27107 27108 27109 27110 27111 27112 27113 27114 27115 27116 27117 27118 27119 27120 27121 27122 27123 27124 27125 27126 27127 27128 27129 27130 27131 27132 27133 27134 27135 27136 27137 27138 27139 27140 27141 27142 27143 27144 27145 27146 27147 27148 27149 27150 27151 27152 27153 27154 27155 27156 27157 27158 27159 27160 27161 27162 27163 27164 27165 27166 27167 27168 27169 27170 27171 27172 27173 27174 27175 27176 27177 27178 27179 27180 27181 27182 27183 27184 27185 27186 27187 27188 27189 27190 27191 27192 27193 27194 27195 27196 27197 27198 27199 27200 27201 27202 27203 27204 27205 27206 27207 27208 27209 27210 27211 27212 27213 27214 27215 27216 27217 27218 27219 27220 27221 27222 27223 27224 27225 27226 27227 27228 27229 27230 27231 27232 27233 27234 27235 27236 27237 27238 27239 27240 27241 27242 27243 27244 27245 27246 27247 27248 27249 27250 27251 27252 27253 27254 27255 27256 27257 27258 27259 27260 27261 27262 27263 27264 27265 27266 27267 27268 27269 27270 27271 27272 27273 27274 27275 27276 27277 27278 27279 27280 27281 27282 27283 27284 27285 27286 27287 27288 27289 27290 27291 27292 27293 27294 27295 27296 27297 27298 27299 27300 27301 27302 27303 27304 27305 27306 27307 27308 27309 27310 27311 27312 27313 27314 27315 27316 27317 27318 27319 27320 27321 27322 27323 27324 27325 27326 27327 27328 27329 27330 27331 27332 27333 27334 27335 27336 27337 27338 27339 27340 27341 27342 27343 27344 27345 27346 27347 27348 27349 27350 27351 27352 27353 27354 27355 27356 27357 27358 27359 27360 27361 27362 27363 27364 27365 27366 27367 27368 27369 27370 27371 27372 27373 27374 27375 27376 27377 27378 27379 27380 27381 27382 27383 27384 27385 27386 27387 27388 27389 27390 27391 27392 27393 27394 27395 27396 27397 27398 27399 27400 27401 27402 27403 27404 27405 27406 27407 27408 27409 27410 27411 27412 27413 27414 27415 27416 27417 27418 27419 27420 27421 27422 27423 27424 27425 27426 27427 27428 27429 27430 27431 27432 27433 27434 27435 27436 27437 27438 27439 27440 27441 27442 27443 27444 27445 27446 27447 27448 27449 27450 27451 27452 27453 27454 27455 27456 27457 27458 27459 27460 27461 27462 27463 27464 27465 27466 27467 27468 27469 27470 27471 27472 27473 27474 27475 27476 27477 27478 27479 27480 27481 27482 27483 27484 27485 27486 27487 27488 27489 27490 27491 27492 27493 27494 27495 27496 27497 27498 27499 27500 27501 27502 27503 27504 27505 27506 27507 27508 27509 27510 27511 27512 27513 27514 27515 27516 27517 27518 27519 27520 27521 27522 27523 27524 27525 27526 27527 27528 27529 27530 27531 27532 27533 27534 27535 27536 27537 27538 27539 27540 27541 27542 27543 27544 27545 27546 27547 27548 27549 27550 27551 27552 27553 27554 27555 27556 27557 27558 27559 27560 27561 27562 27563 27564 27565 27566 27567 27568 27569 27570 27571 27572 27573 27574 27575 27576 27577 27578 27579 27580 27581 27582 27583 27584 27585 27586 27587 27588 27589 27590 27591 27592 27593 27594 27595 27596 27597 27598 27599 27600 27601 27602 27603 27604 27605 27606 27607 27608 27609 27610 27611 27612 27613 27614 27615 27616 27617 27618 27619 27620 27621 27622 27623 27624 27625 27626 27627 27628 27629 27630 27631 27632 27633 27634 27635 27636 27637 27638 27639 27640 27641 27642 27643 27644 27645 27646 27647 27648 27649 27650 27651 27652 27653 27654 27655 27656 27657 27658 27659 27660 27661 27662 27663 27664 27665 27666 27667 27668 27669 27670 27671 27672 27673 27674 27675 27676 27677 27678 27679 27680 27681 27682 27683 27684 27685 27686 27687 27688 27689 27690 27691 27692 27693 27694 27695 27696 27697 27698 27699 27700 27701 27702 27703 27704 27705 27706 27707 27708 27709 27710 27711 27712 27713 27714 27715 27716 27717 27718 27719 27720 27721 27722 27723 27724 27725 27726 27727 27728 27729 27730 27731 27732 27733 27734 27735 27736 27737 27738 27739 27740 27741 27742 27743 27744 27745 27746 27747 27748 27749 27750 27751 27752 27753 27754 27755 27756 27757 27758 27759 27760 27761 27762 27763 27764 27765 27766 27767 27768 27769 27770 27771 27772 27773 27774 27775 27776 27777 27778 27779 27780 27781 27782 27783 27784 27785 27786 27787 27788 27789 27790 27791 27792 27793 27794 27795 27796 27797 27798 27799 27800 27801 27802 27803 27804 27805 27806 27807 27808 27809 27810 27811 27812 27813 27814 27815 27816 27817 27818 27819 27820 27821 27822 27823 27824 27825 27826 27827 27828 27829 27830 27831 27832 27833 27834 27835 27836 27837 27838 27839 27840 27841 27842 27843 27844 27845 27846 27847 27848 27849 27850 27851 27852 27853 27854 27855 27856 27857 27858 27859 27860 27861 27862 27863 27864 27865 27866 27867 27868 27869 27870 27871 27872 27873 27874 27875 27876 27877 27878 27879 27880 27881 27882 27883 27884 27885 27886 27887 27888 27889 27890 27891 27892 27893 27894 27895 27896 27897 27898 27899 27900 27901 27902 27903 27904 27905 27906 27907 27908 27909 27910 27911 27912 27913 27914 27915 27916 27917 27918 27919 27920 27921 27922 27923 27924 27925 27926 27927 27928 27929 27930 27931 27932 27933 27934 27935 27936 27937 27938 27939 27940 27941 27942 27943 27944 27945 27946 27947 27948 27949 27950 27951 27952 27953 27954 27955 27956 27957 27958 27959 27960 27961 27962 27963 27964 27965 27966 27967 27968 27969 27970 27971 27972 27973 27974 27975 27976 27977 27978 27979 27980 27981 27982 27983 27984 27985 27986 27987 27988 27989 27990 27991 27992 27993 27994 27995 27996 27997 27998 27999 28000 28001 28002 28003 28004 28005 28006 28007 28008 28009 28010 28011 28012 28013 28014 28015 28016 28017 28018 28019 28020 28021 28022 28023 28024 28025 28026 28027 28028 28029 28030 28031 28032 28033 28034 28035 28036 28037 28038 28039 28040 28041 28042 28043 28044 28045 28046 28047 28048 28049 28050 28051 28052 28053 28054 28055 28056 28057 28058 28059 28060 28061 28062 28063 28064 28065 28066 28067 28068 28069 28070 28071 28072 28073 28074 28075 28076 28077 28078 28079 28080 28081 28082 28083 28084 28085 28086 28087 28088 28089 28090 28091 28092 28093 28094 28095 28096 28097 28098 28099 28100 28101 28102 28103 28104 28105 28106 28107 28108 28109 28110 28111 28112 28113 28114 28115 28116 28117 28118 28119 28120 28121 28122 28123 28124 28125 28126 28127 28128 28129 28130 28131 28132 28133 28134 28135 28136 28137 28138 28139 28140 28141 28142 28143 28144 28145 28146 28147 28148 28149 28150 28151 28152 28153 28154 28155 28156 28157 28158 28159 28160 28161 28162 28163 28164 28165 28166 28167 28168 28169 28170 28171 28172 28173 28174 28175 28176 28177 28178 28179 28180 28181 28182 28183 28184 28185 28186 28187 28188 28189 28190 28191 28192 28193 28194 28195 28196 28197 28198 28199 28200 28201 28202 28203 28204 28205 28206 28207 28208 28209 28210 28211 28212 28213 28214 28215 28216 28217 28218 28219 28220 28221 28222 28223 28224 28225 28226 28227 28228 28229 28230 28231 28232 28233 28234 28235 28236 28237 28238 28239 28240 28241 28242 28243 28244 28245 28246 28247 28248 28249 28250 28251 28252 28253 28254 28255 28256 28257 28258 28259 28260 28261 28262 28263 28264 28265 28266 28267 28268 28269 28270 28271 28272 28273 28274 28275 28276 28277 28278 28279 28280 28281 28282 28283 28284 28285 28286 28287 28288 28289 28290 28291 28292 28293 28294 28295 28296 28297 28298 28299 28300 28301 28302 28303 28304 28305 28306 28307 28308 28309 28310 28311 28312 28313 28314 28315 28316 28317 28318 28319 28320 28321 28322 28323 28324 28325 28326 28327 28328 28329 28330 28331 28332 28333 28334 28335 28336 28337 28338 28339 28340 28341 28342 28343 28344 28345 28346 28347 28348 28349 28350 28351 28352 28353 28354 28355 28356 28357 28358 28359 28360 28361 28362 28363 28364 28365 28366 28367 28368 28369 28370 28371 28372 28373 28374 28375 28376 28377 28378 28379 28380 28381 28382 28383 28384 28385 28386 28387 28388 28389 28390 28391 28392 28393 28394 28395 28396 28397 28398 28399 28400 28401 28402 28403 28404 28405 28406 28407 28408 28409 28410 28411 28412 28413 28414 28415 28416 28417 28418 28419 28420 28421 28422 28423 28424 28425 28426 28427 28428 28429 28430 28431 28432 28433 28434 28435 28436 28437 28438 28439 28440 28441 28442 28443 28444 28445 28446 28447 28448 28449 28450 28451 28452 28453 28454 28455 28456 28457 28458 28459 28460 28461 28462 28463 28464 28465 28466 28467 28468 28469 28470 28471 28472 28473 28474 28475 28476 28477 28478 28479 28480 28481 28482 28483 28484 28485 28486 28487 28488 28489 28490 28491 28492 28493 28494 28495 28496 28497 28498 28499 28500 28501 28502 28503 28504 28505 28506 28507 28508 28509 28510 28511 28512 28513 28514 28515 28516 28517 28518 28519 28520 28521 28522 28523 28524 28525 28526 28527 28528 28529 28530 28531 28532 28533 28534 28535 28536 28537 28538 28539 28540 28541 28542 28543 28544 28545 28546 28547 28548 28549 28550 28551 28552 28553 28554 28555 28556 28557 28558 28559 28560 28561 28562 28563 28564 28565 28566 28567 28568 28569 28570 28571 28572 28573 28574 28575 28576 28577 28578 28579 28580 28581 28582 28583 28584 28585 28586 28587 28588 28589 28590 28591 28592 28593 28594 28595 28596 28597 28598 28599 28600 28601 28602 28603 28604 28605 28606 28607 28608 28609 28610 28611 28612 28613 28614 28615 28616 28617 28618 28619 28620 28621 28622 28623 28624 28625 28626 28627 28628 28629 28630 28631 28632 28633 28634 28635 28636 28637 28638 28639 28640 28641 28642 28643 28644 28645 28646 28647 28648 28649 28650 28651 28652 28653 28654 28655 28656 28657 28658 28659 28660 28661 28662 28663 28664 28665 28666 28667 28668 28669 28670 28671 28672 28673 28674 28675 28676 28677 28678 28679 28680 28681 28682 28683 28684 28685 28686 28687 28688 28689 28690 28691 28692 28693 28694 28695 28696 28697 28698 28699 28700 28701 28702 28703 28704 28705 28706 28707 28708 28709 28710 28711 28712 28713 28714 28715 28716 28717 28718 28719 28720 28721 28722 28723 28724 28725 28726 28727 28728 28729 28730 28731 28732 28733 28734 28735 28736 28737 28738 28739 28740 28741 28742 28743 28744 28745 28746 28747 28748 28749 28750 28751 28752 28753 28754 28755 28756 28757 28758 28759 28760 28761 28762 28763 28764 28765 28766 28767 28768 28769 28770 28771 28772 28773 28774 28775 28776 28777 28778 28779 28780 28781 28782 28783 28784 28785 28786 28787 28788 28789 28790 28791 28792 28793 28794 28795 28796 28797 28798 28799 28800 28801 28802 28803 28804 28805 28806 28807 28808 28809 28810 28811 28812 28813 28814 28815 28816 28817 28818 28819 28820 28821 28822 28823 28824 28825 28826 28827 28828 28829 28830 28831 28832 28833 28834 28835 28836 28837 28838 28839 28840 28841 28842 28843 28844 28845 28846 28847 28848 28849 28850 28851 28852 28853 28854 28855 28856 28857 28858 28859 28860 28861 28862 28863 28864 28865 28866 28867 28868 28869 28870 28871 28872 28873 28874 28875 28876 28877 28878 28879 28880 28881 28882 28883 28884 28885 28886 28887 28888 28889 28890 28891 28892 28893 28894 28895 28896 28897 28898 28899 28900 28901 28902 28903 28904 28905 28906 28907 28908 28909 28910 28911 28912 28913 28914 28915 28916 28917 28918 28919 28920 28921 28922 28923 28924 28925 28926 28927 28928 28929 28930 28931 28932 28933 28934 28935 28936 28937 28938 28939 28940 28941 28942 28943 28944 28945 28946 28947 28948 28949 28950 28951 28952 28953 28954 28955 28956 28957 28958 28959 28960 28961 28962 28963 28964 28965 28966 28967 28968 28969 28970 28971 28972 28973 28974 28975 28976 28977 28978 28979 28980 28981 28982 28983 28984 28985 28986 28987 28988 28989 28990 28991 28992 28993 28994 28995 28996 28997 28998 28999 29000 29001 29002 29003 29004 29005 29006 29007 29008 29009 29010 29011 29012 29013 29014 29015 29016 29017 29018 29019 29020 29021 29022 29023 29024 29025 29026 29027 29028 29029 29030 29031 29032 29033 29034 29035 29036 29037 29038 29039 29040 29041 29042 29043 29044 29045 29046 29047 29048 29049 29050 29051 29052 29053 29054 29055 29056 29057 29058 29059 29060 29061 29062 29063 29064 29065 29066 29067 29068 29069 29070 29071 29072 29073 29074 29075 29076 29077 29078 29079 29080 29081 29082 29083 29084 29085 29086 29087 29088 29089 29090 29091 29092 29093 29094 29095 29096 29097 29098 29099 29100 29101 29102 29103 29104 29105 29106 29107 29108 29109 29110 29111 29112 29113 29114 29115 29116 29117 29118 29119 29120 29121 29122 29123 29124 29125 29126 29127 29128 29129 29130 29131 29132 29133 29134 29135 29136 29137 29138 29139 29140 29141 29142 29143 29144 29145 29146 29147 29148 29149 29150 29151 29152 29153 29154 29155 29156 29157 29158 29159 29160 29161 29162 29163 29164 29165 29166 29167 29168 29169 29170 29171 29172 29173 29174 29175 29176 29177 29178 29179 29180 29181 29182 29183 29184 29185 29186 29187 29188 29189 29190 29191 29192 29193 29194 29195 29196 29197 29198 29199 29200 29201 29202 29203 29204 29205 29206 29207 29208 29209 29210 29211 29212 29213 29214 29215 29216 29217 29218 29219 29220 29221 29222 29223 29224 29225 29226 29227 29228 29229 29230 29231 29232 29233 29234 29235 29236 29237 29238 29239 29240 29241 29242 29243 29244 29245 29246 29247 29248 29249 29250 29251 29252 29253 29254 29255 29256 29257 29258 29259 29260 29261 29262 29263 29264 29265 29266 29267 29268 29269 29270 29271 29272 29273 29274 29275 29276 29277 29278 29279 29280 29281 29282 29283 29284 29285 29286 29287 29288 29289 29290 29291 29292 29293 29294 29295 29296 29297 29298 29299 29300 29301 29302 29303 29304 29305 29306 29307 29308 29309 29310 29311 29312 29313 29314 29315 29316 29317 29318 29319 29320 29321 29322 29323 29324 29325 29326 29327 29328 29329 29330 29331 29332 29333 29334 29335 29336 29337 29338 29339 29340 29341 29342 29343 29344 29345 29346 29347 29348 29349 29350 29351 29352 29353 29354 29355 29356 29357 29358 29359 29360 29361 29362 29363 29364 29365 29366 29367 29368 29369 29370 29371 29372 29373 29374 29375 29376 29377 29378 29379 29380 29381 29382 29383 29384 29385 29386 29387 29388 29389 29390 29391 29392 29393 29394 29395 29396 29397 29398 29399 29400 29401 29402 29403 29404 29405 29406 29407 29408 29409 29410 29411 29412 29413 29414 29415 29416 29417 29418 29419 29420 29421 29422 29423 29424 29425 29426 29427 29428 29429 29430 29431 29432 29433 29434 29435 29436 29437 29438 29439 29440 29441 29442 29443 29444 29445 29446 29447 29448 29449 29450 29451 29452 29453 29454 29455 29456 29457 29458 29459 29460 29461 29462 29463 29464 29465 29466 29467 29468 29469 29470 29471 29472 29473 29474 29475 29476 29477 29478 29479 29480 29481 29482 29483 29484 29485 29486 29487 29488 29489 29490 29491 29492 29493 29494 29495 29496 29497 29498 29499 29500 29501 29502 29503 29504 29505 29506 29507 29508 29509 29510 29511 29512 29513 29514 29515 29516 29517 29518 29519 29520 29521 29522 29523 29524 29525 29526 29527 29528 29529 29530 29531 29532 29533 29534 29535 29536 29537 29538 29539 29540 29541 29542 29543 29544 29545 29546 29547 29548 29549 29550 29551 29552 29553 29554 29555 29556 29557 29558 29559 29560 29561 29562 29563 29564 29565 29566 29567 29568 29569 29570 29571 29572 29573 29574 29575 29576 29577 29578 29579 29580 29581 29582 29583 29584 29585 29586 29587 29588 29589 29590 29591 29592 29593 29594 29595 29596 29597 29598 29599 29600 29601 29602 29603 29604 29605 29606 29607 29608 29609 29610 29611 29612 29613 29614 29615 29616 29617 29618 29619 29620 29621 29622 29623 29624 29625 29626 29627 29628 29629 29630 29631 29632 29633 29634 29635 29636 29637 29638 29639 29640 29641 29642 29643 29644 29645 29646 29647 29648 29649 29650 29651 29652 29653 29654 29655 29656 29657 29658 29659 29660 29661 29662 29663 29664 29665 29666 29667 29668 29669 29670 29671 29672 29673 29674 29675 29676 29677 29678 29679 29680 29681 29682 29683 29684 29685 29686 29687 29688 29689 29690 29691 29692 29693 29694 29695 29696 29697 29698 29699 29700 29701 29702 29703 29704 29705 29706 29707 29708 29709 29710 29711 29712 29713 29714 29715 29716 29717 29718 29719 29720 29721 29722 29723 29724 29725 29726 29727 29728 29729 29730 29731 29732 29733 29734 29735 29736 29737 29738 29739 29740 29741 29742 29743 29744 29745 29746 29747 29748 29749 29750 29751 29752 29753 29754 29755 29756 29757 29758 29759 29760 29761 29762 29763 29764 29765 29766 29767 29768 29769 29770 29771 29772 29773 29774 29775 29776 29777 29778 29779 29780 29781 29782 29783 29784 29785 29786 29787 29788 29789 29790 29791 29792 29793 29794 29795 29796 29797 29798 29799 29800 29801 29802 29803 29804 29805 29806 29807 29808 29809 29810 29811 29812 29813 29814 29815 29816 29817 29818 29819 29820 29821 29822 29823 29824 29825 29826 29827 29828 29829 29830 29831 29832 29833 29834 29835 29836 29837 29838 29839 29840 29841 29842 29843 29844 29845 29846 29847 29848 29849 29850 29851 29852 29853 29854 29855 29856 29857 29858 29859 29860 29861 29862 29863 29864 29865 29866 29867 29868 29869 29870 29871 29872 29873 29874 29875 29876 29877 29878 29879 29880 29881 29882 29883 29884 29885 29886 29887 29888 29889 29890 29891 29892 29893 29894 29895 29896 29897 29898 29899 29900 29901 29902 29903 29904 29905 29906 29907 29908 29909 29910 29911 29912 29913 29914 29915 29916 29917 29918 29919 29920 29921 29922 29923 29924 29925 29926 29927 29928 29929 29930 29931 29932 29933 29934 29935 29936 29937 29938 29939 29940 29941 29942 29943 29944 29945 29946 29947 29948 29949 29950 29951 29952 29953 29954 29955 29956 29957 29958 29959 29960 29961 29962 29963 29964 29965 29966 29967 29968 29969 29970 29971 29972 29973 29974 29975 29976 29977 29978 29979 29980 29981 29982 29983 29984 29985 29986 29987 29988 29989 29990 29991 29992 29993 29994 29995 29996 29997 29998 29999 30000 30001 30002 30003 30004 30005 30006 30007 30008 30009 30010 30011 30012 30013 30014 30015 30016 30017 30018 30019 30020 30021 30022 30023 30024 30025 30026 30027 30028 30029 30030 30031 30032 30033 30034 30035 30036 30037 30038 30039 30040 30041 30042 30043 30044 30045 30046 30047 30048 30049 30050 30051 30052 30053 30054 30055 30056 30057 30058 30059 30060 30061 30062 30063 30064 30065 30066 30067 30068 30069 30070 30071 30072 30073 30074 30075 30076 30077 30078 30079 30080 30081 30082 30083 30084 30085 30086 30087 30088 30089 30090 30091 30092 30093 30094 30095 30096 30097 30098 30099 30100 30101 30102 30103 30104 30105 30106 30107 30108 30109 30110 30111 30112 30113 30114 30115 30116 30117 30118 30119 30120 30121 30122 30123 30124 30125 30126 30127 30128 30129 30130 30131 30132 30133 30134 30135 30136 30137 30138 30139 30140 30141 30142 30143 30144 30145 30146 30147 30148 30149 30150 30151 30152 30153 30154 30155 30156 30157 30158 30159 30160 30161 30162 30163 30164 30165 30166 30167 30168 30169 30170 30171 30172 30173 30174 30175 30176 30177 30178 30179 30180 30181 30182 30183 30184 30185 30186 30187 30188 30189 30190 30191 30192 30193 30194 30195 30196 30197 30198 30199 30200 30201 30202 30203 30204 30205 30206 30207 30208 30209 30210 30211 30212 30213 30214 30215 30216 30217 30218 30219 30220 30221 30222 30223 30224 30225 30226 30227 30228 30229 30230 30231 30232 30233 30234 30235 30236 30237 30238 30239 30240 30241 30242 30243 30244 30245 30246 30247 30248 30249 30250 30251 30252 30253 30254 30255 30256 30257 30258 30259 30260 30261 30262 30263 30264 30265 30266 30267 30268 30269 30270 30271 30272 30273 30274 30275 30276 30277 30278 30279 30280 30281 30282 30283 30284 30285 30286 30287 30288 30289 30290 30291 30292 30293 30294 30295 30296 30297 30298 30299 30300 30301 30302 30303 30304 30305 30306 30307 30308 30309 30310 30311 30312 30313 30314 30315 30316 30317 30318 30319 30320 30321 30322 30323 30324 30325 30326 30327 30328 30329 30330 30331 30332 30333 30334 30335 30336 30337 30338 30339 30340 30341 30342 30343 30344 30345 30346 30347 30348 30349 30350 30351 30352 30353 30354 30355 30356 30357 30358 30359 30360 30361 30362 30363 30364 30365 30366 30367 30368 30369 30370 30371 30372 30373 30374 30375 30376 30377 30378 30379 30380 30381 30382 30383 30384 30385 30386 30387 30388 30389 30390 30391 30392 30393 30394 30395 30396 30397 30398 30399 30400 30401 30402 30403 30404 30405 30406 30407 30408 30409 30410 30411 30412 30413 30414 30415 30416 30417 30418 30419 30420 30421 30422 30423 30424 30425 30426 30427 30428 30429 30430 30431 30432 30433 30434 30435 30436 30437 30438 30439 30440 30441 30442 30443 30444 30445 30446 30447 30448 30449 30450 30451 30452 30453 30454 30455 30456 30457 30458 30459 30460 30461 30462 30463 30464 30465 30466 30467 30468 30469 30470 30471 30472 30473 30474 30475 30476 30477 30478 30479 30480 30481 30482 30483 30484 30485 30486 30487 30488 30489 30490 30491 30492 30493 30494 30495 30496 30497 30498 30499 30500 30501 30502 30503 30504 30505 30506 30507 30508 30509 30510 30511 30512 30513 30514 30515 30516 30517 30518 30519 30520 30521 30522 30523 30524 30525 30526 30527 30528 30529 30530 30531 30532 30533 30534 30535 30536 30537 30538 30539 30540 30541 30542 30543 30544 30545 30546 30547 30548 30549 30550 30551 30552 30553 30554 30555 30556 30557 30558 30559 30560 30561 30562 30563 30564 30565 30566 30567 30568 30569 30570 30571 30572 30573 30574 30575 30576 30577 30578 30579 30580 30581 30582 30583 30584 30585 30586 30587 30588 30589 30590 30591 30592 30593 30594 30595 30596 30597 30598 30599 30600 30601 30602 30603 30604 30605 30606 30607 30608 30609 30610 30611 30612 30613 30614 30615 30616 30617 30618 30619 30620 30621 30622 30623 30624 30625 30626 30627 30628 30629 30630 30631 30632 30633 30634 30635 30636 30637 30638 30639 30640 30641 30642 30643 30644 30645 30646 30647 30648 30649 30650 30651 30652 30653 30654 30655 30656 30657 30658 30659 30660 30661 30662 30663 30664 30665 30666 30667 30668 30669 30670 30671 30672 30673 30674 30675 30676 30677 30678 30679 30680 30681 30682 30683 30684 30685 30686 30687 30688 30689 30690 30691 30692 30693 30694 30695 30696 30697 30698 30699 30700 30701 30702 30703 30704 30705 30706 30707 30708 30709 30710 30711 30712 30713 30714 30715 30716 30717 30718 30719 30720 30721 30722 30723 30724 30725 30726 30727 30728 30729 30730 30731 30732 30733 30734 30735 30736 30737 30738 30739 30740 30741 30742 30743 30744 30745 30746 30747 30748 30749 30750 30751 30752 30753 30754 30755 30756 30757 30758 30759 30760 30761 30762 30763 30764 30765 30766 30767 30768 30769 30770 30771 30772 30773 30774 30775 30776 30777 30778 30779 30780 30781 30782 30783 30784 30785 30786 30787 30788 30789 30790 30791 30792 30793 30794 30795 30796 30797 30798 30799 30800 30801 30802 30803 30804 30805 30806 30807 30808 30809 30810 30811 30812 30813 30814 30815 30816 30817 30818 30819 30820 30821 30822 30823 30824 30825 30826 30827 30828 30829 30830 30831 30832 30833 30834 30835 30836 30837 30838 30839 30840 30841 30842 30843 30844 30845 30846 30847 30848 30849 30850 30851 30852 30853 30854 30855 30856 30857 30858 30859 30860 30861 30862 30863 30864 30865 30866 30867 30868 30869 30870 30871 30872 30873 30874 30875 30876 30877 30878 30879 30880 30881 30882 30883 30884 30885 30886 30887 30888 30889 30890 30891 30892 30893 30894 30895 30896 30897 30898 30899 30900 30901 30902 30903 30904 30905 30906 30907 30908 30909 30910 30911 30912 30913 30914 30915 30916 30917 30918 30919 30920 30921 30922 30923 30924 30925 30926 30927 30928 30929 30930 30931 30932 30933 30934 30935 30936 30937 30938 30939 30940 30941 30942 30943 30944 30945 30946 30947 30948 30949 30950 30951 30952 30953 30954 30955 30956 30957 30958 30959 30960 30961 30962 30963 30964 30965 30966 30967 30968 30969 30970 30971 30972 30973 30974 30975 30976 30977 30978 30979 30980 30981 30982 30983 30984 30985 30986 30987 30988 30989 30990 30991 30992 30993 30994 30995 30996 30997 30998 30999 31000 31001 31002 31003 31004 31005 31006 31007 31008 31009 31010 31011 31012 31013 31014 31015 31016 31017 31018 31019 31020 31021 31022 31023 31024 31025 31026 31027 31028 31029 31030 31031 31032 31033 31034 31035 31036 31037 31038 31039 31040 31041 31042 31043 31044 31045 31046 31047 31048 31049 31050 31051 31052 31053 31054 31055 31056 31057 31058 31059 31060 31061 31062 31063 31064 31065 31066 31067 31068 31069 31070 31071 31072 31073 31074 31075 31076 31077 31078 31079 31080 31081 31082 31083 31084 31085 31086 31087 31088 31089 31090 31091 31092 31093 31094 31095 31096 31097 31098 31099 31100 31101 31102 31103 31104 31105 31106 31107 31108 31109 31110 31111 31112 31113 31114 31115 31116 31117 31118 31119 31120 31121 31122 31123 31124 31125 31126 31127 31128 31129 31130 31131 31132 31133 31134 31135 31136 31137 31138 31139 31140 31141 31142 31143 31144 31145 31146 31147 31148 31149 31150 31151 31152 31153 31154 31155 31156 31157 31158 31159 31160 31161 31162 31163 31164 31165 31166 31167 31168 31169 31170 31171 31172 31173 31174 31175 31176 31177 31178 31179 31180 31181 31182 31183 31184 31185 31186 31187 31188 31189 31190 31191 31192 31193 31194 31195 31196 31197 31198 31199 31200 31201 31202 31203 31204 31205 31206 31207 31208 31209 31210 31211 31212 31213 31214 31215 31216 31217 31218 31219 31220 31221 31222 31223 31224 31225 31226 31227 31228 31229 31230 31231 31232 31233 31234 31235 31236 31237 31238 31239 31240 31241 31242 31243 31244 31245 31246 31247 31248 31249 31250 31251 31252 31253 31254 31255 31256 31257 31258 31259 31260 31261 31262 31263 31264 31265 31266 31267 31268 31269 31270 31271 31272 31273 31274 31275 31276 31277 31278 31279 31280 31281 31282 31283 31284 31285 31286 31287 31288 31289 31290 31291 31292 31293 31294 31295 31296 31297 31298 31299 31300 31301 31302 31303 31304 31305 31306 31307 31308 31309 31310 31311 31312 31313 31314 31315 31316 31317 31318 31319 31320 31321 31322 31323 31324 31325 31326 31327 31328 31329 31330 31331 31332 31333 31334 31335 31336 31337 31338 31339 31340 31341 31342 31343 31344 31345 31346 31347 31348 31349 31350 31351 31352 31353 31354 
</DataArray>
<DataArray type="UInt32" Name="offsets" format="ascii">
3 6 9 12 15 18 21 24 27 30 33 36 39 42 45 47 50 53 56 59 62 65 68 71 73 76 79 82 85 87 90 93 96 99 102 104 107 110 113 116 119 122 124 127 130 133 136 139 141 144 147 150 153 156 159 162 165 167 170 173 175 178 181 184 187 190 192 195 198 200 202 205 208 210 213 215 218 221 224 227 230 233 235 238 241 244 247 250 253 256 259 262 264 267 270 273 276 279 282 285 288 291 294 296 299 302 304 307 310 313 315 318 321 324 327 330 333 336 339 342 345 348 350 353 356 358 361 363 366 369 372 374 377 380 382 385 387 390 393 396 398 401 404 407 409 412 415 418 420 423 425 427 430 433 436 438 440 443 446 449 452 455 458 461 464 467 470 473 476 479 482 485 488 491 494 497 500 503 506 509 512 515 518 521 524 527 530 533 536 539 542 545 548 551 553 556 559 562 565 568 571 574 577 580 583 586 589 592 595 598 601 604 607 610 613 616 619 622 625 628 631 634 637 640 643 645 648 651 654 657 660 663 666 669 671 673 676 679 682 685 688 690 693 696 699 702 705 708 711 714 717 720 723 726 728 731 734 737 740 742 745 748 750 752 755 757 760 763 766 768 771 773 776 779 782 785 787 790 793 796 799 801 804 807 810 813 816 819 822 825 828 831 834 837 840 843 846 849 852 855 858 861 864 867 870 873 876 879 882 885 888 891 894 896 899 902 905 908 911 914 917 920 923 926 929 932 935 938 941 944 947 950 953 956 958 961 964 967 970 973 976 979 981 984 987 989 992 995 998 1001 1004 1007 1009 1012 1015 1018 1021 1024 1027 1030 1033 1036 1039 1042 1045 1048 1051 1054 1056 1059 1062 1065 1068 1070 1073 1076 1078 1081 1083 1086 1089 1092 1095 1098 1101 1104 1106 1109 1112 1115 1118 1120 1123 1126 1129 1132 1135 1138 1141 1144 1147 1150 1153 1156 1158 1161 1164 1167 1170 1173 1176 1179 1182 1185 1188 1191 1194 1197 1200 1203 1206 1209 1212 1215 1218 1221 1224 1227 1230 1233 1236 1239 1242 1245 1248 1251 1254 1256 1259 1262 1264 1267 1270 1273 1276 1279 1282 1285 1288 1290 1293 1296 1299 1302 1305 1308 1311 1314 1317 1320 1322 1325 1328 1331 1333 1335 1338 1341 1344 1346 1349 1352 1355 1358 1361 1364 1367 1370 1373 1376 1378 1381 1384 1386 1389 1392 1394 1397 1400 1403 1406 1409 1412 1415 1418 1421 1424 1427 1430 1432 1435 1438 1441 1444 1447 1450 1452 1455 1458 1460 1463 1466 1469 1472 1475 1478 1480 1483 1486 1489 1492 1494 1496 1499 1502 1505 1507 1510 1512 1515 1518 1521 1524 1527 1530 1533 1535 1538 1541 1544 1547 1550 1553 1556 1559 1562 1565 1568 1571 1574 1577 1580 1582 1584 1587 1590 1593 1596 1599 1602 1605 1608 1611 1614 1617 1619 1622 1625 1628 1631 1634 1637 1640 1643 1646 1649 1652 1655 1658 1661 1664 1667 1670 1673 1676 1679 1682 1685 1687 1690 1692 1695 1698 1701 1703 1706 1709 1712 1715 1718 1721 1723 1726 1729 1732 1735 1738 1741 1744 1747 1750 1753 1756 1759 1762 1765 1768 1771 1774 1777 1780 1783 1786 1789 1792 1795 1798 1801 1804 1807 1810 1813 1816 1819 1822 1825 1828 1831 1833 1836 1839 1841 1844 1847 1850 1853 1856 1859 1862 1865 1867 1870 1873 1876 1879 1882 1885 1888 1891 1894 1897 1900 1903 1906 1909 1912 1915 1918 1921 1924 1927 1930 1932 1935 1938 1940 1943 1946 1949 1951 1954 1957 1959 1962 1965 1968 1971 1973 1976 1978 1981 1984 1987 1990 1992 1995 1998 2001 2004 2006 2008 2011 2014 2017 2019 2022 2024 2027 2030 2033 2036 2039 2042 2045 2048 2051 2053 2055 2058 2060 2063 2066 2069 2072 2075 2078 2081 2084 2087 2090 2093 2096 2099 2102 2105 2108 2111 2114 2117 2120 2123 2126 2129 2131 2134 2137 2139 2142 2145 2148 2151 2154 2157 2160 2163 2166 2169 2171 2174 2177 2180 2183 2186 2189 2191 2194 2197 2200 2202 2205 2208 2211 2214 2217 2220 2223 2226 2229 2232 2235 2238 2241 2244 2247 2250 2252 2255 2258 2260 2263 2266 2269 2271 2274 2277 2279 2281 2284 2287 2290 2293 2296 2298 2301 2304 2307 2310 2313 2316 2319 2322 2324 2327 2330 2333 2336 2339 2342 2345 2348 2350 2353 2355 2358 2361 2364 2366 2369 2371 2374 2377 2380 2383 2386 2388 2391 2393 2396 2399 2402 2405 2408 2410 2413 2416 2418 2421 2424 2427 2430 2432 2434 2437 2440 2443 2445 2448 2451 2454 2457 2459 2462 2465 2467 2470 2473 2476 2479 2482 2485 2488 2491 2494 2497 2500 2503 2506 2509 2511 2514 2517 2520 2523 2525 2528 2531 2534 2536 2539 2541 2543 2546 2549 2552 2555 2558 2561 2564 2566 2568 2571 2574 2577 2580 2582 2585 2587 2590 2593 2595 2598 2601 2603 2606 2609 2612 2615 2618 2621 2624 2627 2630 2632 2634 2637 2640 2643 2645 2647 2650 2653 2656 2659 2661 2664 2666 2669 2672 2674 2677 2680 2683 2686 2688 2691 2694 2697 2700 2702 2704 2707 2710 2713 2716 2719 2722 2725 2727 2729 2732 2735 2737 2740 2743 2746 2749 2752 2755 2758 2760 2763 2766 2768 2771 2774 2776 2778 2781 2784 2787 2790 2792 2795 2798 2801 2804 2807 2809 2812 2815 2818 2821 2824 2827 2830 2833 2836 2839 2842 2845 2848 2851 2854 2857 2859 2862 2865 2868 2871 2873 2876 2878 2881 2883 2886 2889 2892 2895 2898 2900 2903 2906 2909 2912 2915 2918 2921 2923 2926 2929 2932 2935 2938 2941 2944 2947 2950 2953 2956 2959 2961 2964 2966 2969 2972 2974 2977 2980 2983 2986 2989 2992 2994 2997 2999 3002 3005 3008 3011 3014 3017 3019 3022 3025 3028 3030 3033 3036 3039 3042 3045 3047 3050 3053 3056 3058 3061 3063 3065 3068 3071 3073 3076 3079 3082 3085 3088 3091 3094 3096 3099 3101 3104 3107 3110 3113 3116 3119 3122 3125 3128 3130 3133 3136 3138 3140 3143 3146 3149 3152 3155 3157 3160 3162 3165 3168 3171 3174 3176 3179 3181 3184 3186 3189 3192 3195 3198 3201 3204 3207 3210 3213 3216 3219 3221 3224 3227 3230 3233 3236 3239 3241 3244 3247 3250 3253 3256 3259 3262 3265 3267 3270 3273 3275 3278 3280 3283 3286 3289 3292 3294 3297 3300 3303 3306 3309 3312 3315 3318 3321 3324 3327 3330 3332 3334 3337 3340 3343 3345 3347 3350 3352 3354 3356 3358 3361 3364 3367 3370 3373 3376 3378 3381 3384 3387 3390 3393 3396 3399 3402 3405 3408 3410 3412 3415 3418 3421 3424 3427 3430 3433 3436 3439 3442 3445 3448 3451 3454 3457 3460 3462 3465 3467 3470 3473 3476 3479 3482 3484 3487 3489 3492 3495 3498 3501 3504 3507 3509 3512 3515 3518 3521 3524 3527 3530 3533 3536 3539 3542 3545 3548 3551 3554 3557 3560 3563 3566 3569 3572 3574 3577 3580 3583 3586 3589 3592 3595 3598 3601 3604 3606 3609 3612 3614 3617 3620 3623 3626 3629 3632 3635 3637 3639 3641 3644 3647 3649 3652 3655 3658 3661 3664 3667 3670 3673 3676 3679 3682 3685 3688 3691 3694 3697 3700 3702 3705 3708 3710 3713 3716 3719 3722 3724 3726 3728 3730 3733 3735 3738 3740 3743 3746 3749 3752 3755 3758 3761 3764 3766 3769 3772 3774 3777 3780 3783 3786 3789 3792 3795 3797 3800 3803 3806 3808 3811 3813 3816 3819 3822 3825 3827 3830 3833 3835 3838 3841 3844 3847 3850 3853 3856 3859 3862 3865 3868 3871 3874 3877 3880 3883 3886 3889 3892 3895 3898 3901 3903 3906 3909 3912 3914 3917 3920 3923 3926 3929 3932 3935 3937 3940 3943 3946 3948 3951 3954 3957 3960 3963 3966 3969 3972 3975 3977 3980 3983 3986 3989 3992 3994 3997 4000 4003 4005 4007 4010 4013 4016 4019 4022 4025 4028 4030 4033 4036 4039 4042 4044 4047 4050 4052 4055 4058 4061 4064 4067 4070 4072 4075 4078 4081 4084 4087 4090 4093 4096 4099 4102 4105 4108 4111 4114 4117 4120 4123 4126 4129 4132 4135 4138 4141 4144 4147 4150 4153 4156 4159 4162 4165 4167 4170 4173 4176 4179 4182 4185 4188 4190 4193 4195 4198 4201 4204 4206 4209 4212 4215 4218 4221 4223 4226 4229 4232 4235 4238 4241 4244 4247 4250 4253 4256 4259 4262 4265 4268 4271 4274 4277 4280 4283 4286 4289 4291 4294 4297 4300 4302 4305 4308 4311 4313 4316 4319 4322 4325 4328 4331 4334 4337 4340 4342 4345 4348 4351 4354 4357 4360 4362 4365 4368 4370 4373 4376 4379 4382 4385 4388 4391 4394 4397 4399 4402 4405 4408 4411 4414 4417 4420 4423 4426 4429 4431 4434 4437 4440 4443 4446 4449 4452 4455 4458 4461 4464 4467 4470 4473 4475 4478 4481 4483 4486 4489 4492 4495 4498 4500 4503 4506 4509 4512 4515 4518 4521 4524 4527 4529 4532 4535 4538 4541 4544 4547 4550 4552 4555 4558 4561 4563 4566 4569 4572 4575 4578 4581 4584 4587 4590 4593 4596 4599 4602 4605 4608 4611 4614 4617 4620 4623 4626 4629 4632 4635 4638 4641 4644 4646 4649 4652 4655 4658 4661 4664 4667 4670 4673 4676 4679 4682 4685 4688 4691 4694 4697 4700 4703 4705 4708 4711 4714 4717 4720 4723 4726 4729 4732 4735 4738 4741 4744 4747 4750 4753 4756 4759 4762 4765 4767 4770 4773 4776 4779 4782 4785 4788 4791 4793 4796 4799 4802 4805 4808 4811 4814 4817 4820 4823 4825 4828 4830 4833 4836 4839 4842 4844 4847 4850 4853 4856 4859 4862 4865 4868 4871 4874 4877 4880 4883 4886 4889 4892 4895 4898 4901 4904 4907 4910 4913 4916 4919 4922 4925 4927 4930 4933 4935 4938 4941 4944 4947 4950 4953 4955 4958 4961 4964 4966 4969 4972 4975 4978 4981 4983 4986 4989 4992 4994 4997 5000 5003 5006 5008 5011 5014 5017 5020 5023 5025 5028 5031 5034 5037 5040 5043 5046 5049 5052 5055 5057 5060 5062 5065 5068 5070 5073 5075 5078 5081 5084 5087 5090 5093 5095 5098 5101 5104 5107 5110 5113 5116 5119 5121 5124 5127 5130 5132 5135 5137 5140 5143 5146 5149 5152 5155 5158 5161 5164 5167 5169 5172 5175 5178 5181 5184 5187 5190 5193 5196 5199 5202 5205 5208 5211 5214 5217 5220 5223 5226 5229 5232 5235 5238 5241 5244 5247 5250 5253 5256 5259 5262 5265 5268 5271 5274 5277 5280 5283 5286 5289 5292 5295 5298 5301 5304 5307 5310 5313 5316 5319 5322 5325 5328 5331 5334 5337 5340 5343 5346 5349 5351 5354 5357 5360 5363 5366 5369 5372 5374 5377 5380 5383 5385 5388 5390 5393 5396 5399 5402 5405 5408 5411 5414 5417 5419 5422 5425 5428 5431 5434 5437 5440 5443 5446 5449 5452 5455 5458 5461 5464 5467 5470 5473 5476 5479 5482 5485 5488 5491 5494 5497 5500 5503 5506 5509 5512 5515 5518 5521 5524 5527 5530 5533 5536 5539 5542 5545 5548 5551 5554 5557 5560 5563 5566 5569 5572 5575 5578 5581 5584 5587 5589 5592 5595 5598 5601 5604 5607 5610 5613 5616 5619 5622 5625 5628 5630 5633 5636 5639 5642 5645 5648 5651 5654 5657 5660 5663 5666 5669 5672 5674 5677 5680 5683 5686 5689 5691 5694 5697 5700 5703 5706 5709 5712 5715 5718 5721 5724 5727 5730 5733 5736 5739 5742 5745 5748 5751 5754 5757 5760 5763 5766 5769 5772 5775 5777 5780 5782 5785 5788 5791 5794 5797 5799 5802 5805 5807 5810 5813 5816 5819 5822 5825 5828 5831 5834 5837 5840 5843 5846 5848 5851 5854 5857 5860 5863 5865 5868 5871 5874 5877 5880 5883 5886 5889 5892 5895 5898 5901 5904 5907 5910 5913 5916 5919 5922 5925 5927 5930 5933 5936 5939 5942 5944 5947 5950 5953 5956 5959 5962 5964 5967 5970 5973 5976 5979 5982 5985 5988 5991 5994 5997 6000 6003 6006 6009 6011 6014 6017 6019 6022 6025 6028 6031 6034 6037 6040 6043 6046 6049 6052 6055 6058 6061 6064 6067 6070 6073 6076 6079 6082 6084 6087 6090 6093 6095 6098 6101 6104 6107 6110 6113 6116 6119 6122 6125 6128 6131 6134 6137 6140 6143 6146 6149 6152 6155 6158 6161 6164 6167 6170 6173 6176 6179 6182 6185 6188 6191 6194 6197 6200 6203 6205 6208 6211 6214 6216 6218 6221 6223 6226 6229 6232 6235 6238 6241 6244 6247 6250 6253 6256 6259 6262 6265 6267 6270 6273 6276 6279 6282 6285 6288 6291 6294 6297 6300 6303 6306 6309 6312 6315 6318 6321 6324 6327 6330 6333 6336 6339 6342 6345 6347 6350 6353 6356 6359 6362 6365 6368 6371 6374 6377 6380 6382 6385 6388 6391 6393 6396 6399 6402 6405 6408 6410 6413 6416 6419 6422 6425 6428 6431 6433 6436 6439 6442 6445 6448 6451 6454 6457 6460 6463 6465 6468 6471 6474 6477 6480 6483 6486 6489 6492 6494 6497 6500 6503 6506 6509 6512 6515 6518 6521 6524 6527 6530 6533 6536 6539 6541 6544 6547 6550 6552 6555 6557 6560 6563 6565 6567 6570 6573 6576 6579 6582 6584 6587 6590 6593 6596 6599 6602 6605 6608 6610 6612 6614 6617 6620 6623 6625 6628 6631 6633 6635 6638 6641 6644 6647 6650 6653 6656 6659 6662 6665 6668 6671 6674 6677 6680 6683 6686 6689 6692 6695 6698 6701 6704 6707 6710 6713 6716 6719 6722 6725 6728 6731 6734 6737 6740 6743 6746 6749 6752 6755 6758 6761 6764 6767 6770 6773 6776 6779 6782 6785 6788 6791 6794 6797 6799 6802 6805 6808 6811 6813 6816 6819 6822 6825 6828 6830 6833 6836 6839 6842 6845 6848 6851 6854 6857 6860 6863 6866 6868 6871 6874 6877 6880 6882 6885 6888 6891 6894 6897 6900 6903 6906 6909 6912 6915 6918 6921 6924 6927 6930 6933 6936 6939 6942 6945 6948 6951 6954 6957 6960 6962 6965 6967 6970 6973 6976 6979 6982 6985 6988 6991 6994 6997 6999 7002 7005 7008 7010 7013 7016 7019 7022 7025 7028 7030 7033 7036 7039 7042 7045 7048 7050 7053 7056 7059 7062 7065 7067 7069 7071 7073 7076 7079 7082 7085 7088 7091 7094 7097 7100 7103 7106 7109 7112 7115 7118 7121 7124 7127 7130 7132 7135 7137 7140 7143 7146 7149 7152 7155 7158 7160 7163 7166 7169 7172 7175 7177 7180 7183 7186 7188 7191 7194 7196 7198 7201 7203 7205 7207 7210 7213 7216 7219 7222 7225 7228 7231 7233 7236 7239 7241 7243 7245 7248 7251 7254 7256 7258 7261 7264 7266 7269 7272 7275 7277 7280 7283 7286 7288 7291 7294 7297 7300 7303 7306 7309 7312 7315 7318 7321 7324 7326 7329 7332 7335 7338 7341 7344 7347 7350 7353 7356 7358 7361 7364 7367 7370 7373 7376 7379 7381 7384 7387 7390 7392 7395 7398 7401 7404 7407 7410 7413 7415 7418 7421 7424 7427 7430 7433 7436 7439 7442 7445 7448 7451 7454 7457 7460 7463 7466 7469 7472 7475 7478 7481 7483 7486 7489 7492 7495 7498 7501 7504 7507 7510 7513 7516 7519 7522 7525 7528 7531 7534 7537 7540 7543 7546 7549 7552 7554 7557 7560 7562 7565 7568 7571 7574 7577 7580 7583 7586 7589 7592 7595 7598 7601 7604 7607 7610 7613 7616 7619 7622 7625 7628 7631 7634 7637 7639 7642 7645 7648 7651 7654 7657 7660 7663 7666 7669 7672 7675 7678 7680 7683 7686 7689 7692 7695 7698 7701 7704 7707 7710 7713 7716 7719 7721 7724 7727 7729 7732 7735 7738 7741 7744 7747 7750 7753 7755 7758 7761 7764 7766 7769 7772 7775 7778 7781 7784 7787 7789 7792 7794 7797 7799 7802 7805 7807 7810 7812 7815 7818 7821 7824 7827 7829 7832 7834 7837 7840 7843 7845 7848 7851 7854 7857 7860 7863 7866 7869 7872 7875 7878 7881 7883 7886 7889 7892 7895 7897 7900 7903 7905 7908 7911 7914 7917 7920 7923 7926 7928 7931 7934 7937 7939 7942 7945 7948 7951 7953 7956 7959 7961 7964 7967 7969 7972 7974 7977 7980 7983 7986 7989 7992 7995 7998 8001 8003 8006 8009 8012 8015 8017 8019 8022 8025 8028 8031 8034 8037 8040 8043 8045 8048 8050 8053 8056 8059 8061 8063 8066 8069 8072 8075 8078 8081 8084 8086 8089 8092 8095 8098 8101 8103 8106 8109 8112 8114 8117 8120 8123 8126 8129 8132 8135 8137 8140 8143 8146 8149 8152 8155 8158 8161 8164 8167 8170 8173 8175 8178 8181 8183 8186 8189 8192 8195 8198 8201 8204 8207 8210 8213 8215 8218 8221 8224 8227 8230 8233 8236 8239 8242 8245 8248 8251 8253 8256 8259 8262 8265 8268 8271 8274 8277 8280 8283 8286 8289 8292 8295 8298 8300 8303 8306 8309 8311 8314 8317 8320 8323 8326 8329 8332 8335 8338 8341 8344 8347 8350 8353 8356 8358 8361 8363 8366 8369 8372 8375 8378 8381 8384 8387 8390 8393 8396 8399 8402 8404 8407 8410 8413 8416 8419 8422 8425 8428 8431 8434 8437 8440 8443 8446 8449 8452 8455 8458 8461 8464 8467 8470 8473 8476 8479 8482 8485 8488 8491 8494 8497 8500 8503 8506 8509 8512 8515 8518 8521 8524 8527 8530 8533 8536 8539 8542 8544 8547 8550 8553 8556 8559 8561 8564 8567 8570 8573 8576 8579 8582 8585 8588 8591 8594 8597 8600 8603 8606 8609 8612 8614 8617 8620 8623 8626 8629 8632 8635 8638 8641 8644 8647 8650 8653 8656 8659 8662 8665 8668 8671 8674 8677 8680 8683 8686 8689 8692 8695 8698 8701 8704 8707 8710 8713 8715 8718 8721 8724 8726 8729 8732 8735 8738 8741 8744 8747 8750 8753 8756 8759 8761 8764 8767 8770 8773 8776 8779 8781 8784 8787 8790 8793 8796 8798 8801 8804 8807 8810 8813 8816 8819 8822 8825 8828 8831 8833 8836 8839 8842 8845 8847 8850 8853 8855 8858 8861 8864 8867 8869 8871 8873 8875 8878 8881 8883 8885 8888 8890 8892 8895 8898 8901 8904 8907 8910 8913 8916 8919 8922 8924 8927 8930 8933 8936 8939 8942 8945 8948 8951 8954 8957 8960 8963 8966 8969 8972 8974 8977 8979 8982 8985 8987 8990 8993 8996 8998 9001 9004 9007 9009 9012 9015 9018 9021 9024 9027 9030 9033 9036 9039 9041 9044 9047 9050 9053 9056 9059 9062 9065 9068 9071 9073 9076 9079 9082 9085 9088 9091 9093 9096 9099 9102 9105 9108 9111 9114 9117 9120 9123 9126 9129 9132 9135 9137 9140 9143 9146 9149 9151 9154 9157 9160 9163 9166 9168 9171 9174 9177 9180 9183 9186 9189 9192 9195 9198 9201 9204 9207 9210 9213 9216 9219 9222 9225 9228 9231 9234 9237 9240 9243 9246 9249 9252 9255 9258 9261 9264 9267 9270 9273 9276 9279 9282 9285 9288 9291 9294 9297 9300 9303 9306 9309 9312 9315 9318 9321 9324 9327 9330 9333 9336 9339 9342 9345 9348 9351 9354 9357 9360 9363 9366 9369 9372 9375 9378 9381 9384 9387 9390 9393 9396 9399 9402 9404 9407 9410 9413 9416 9419 9422 9425 9428 9431 9434 9437 9440 9443 9446 9449 9452 9455 9457 9460 9463 9466 9469 9472 9475 9478 9480 9483 9486 9489 9492 9494 9497 9500 9503 9506 9509 9512 9515 9518 9521 9524 9526 9529 9532 9535 9537 9540 9542 9545 9548 9551 9554 9557 9559 9562 9565 9567 9569 9572 9575 9578 9581 9584 9587 9590 9592 9595 9598 9601 9604 9607 9610 9613 9616 9619 9622 9625 9628 9630 9633 9636 9639 9642 9644 9647 9650 9653 9656 9659 9662 9665 9668 9670 9672 9675 9678 9681 9684 9687 9690 9693 9696 9699 9702 9705 9708 9711 9713 9716 9718 9721 9724 9726 9729 9732 9734 9737 9740 9743 9746 9749 9752 9755 9757 9760 9763 9766 9768 9771 9774 9777 9780 9783 9785 9788 9791 9794 9797 9800 9803 9805 9808 9811 9814 9817 9820 9823 9826 9829 9832 9835 9837 9840 9843 9846 9849 9852 9855 9858 9861 9864 9867 9870 9873 9876 9878 9881 9884 9887 9890 9893 9896 9899 9902 9905 9908 9911 9914 9916 9919 9922 9925 9928 9930 9933 9936 9939 9941 9943 9946 9949 9952 9955 9958 9961 9964 9966 9968 9971 9974 9977 9980 9983 9985 9988 9991 9994 9997 10000 10003 10006 10008 10011 10014 10016 10019 10022 10025 10028 10031 10033 10036 10039 10042 10045 10048 10051 10054 10056 10059 10062 10065 10068 10070 10073 10076 10079 10082 10085 10088 10091 10094 10097 10100 10103 10106 10109 10112 10115 10118 10121 10123 10126 10129 10132 10135 10138 10141 10144 10146 10149 10152 10155 10158 10161 10164 10167 10170 10173 10176 10179 10182 10185 10188 10191 10194 10197 10200 10202 10205 10208 10211 10214 10217 10220 10223 10226 10229 10232 10234 10237 10240 10243 10246 10249 10252 10255 10258 10261 10264 10267 10270 10273 10276 10279 10282 10285 10288 10291 10294 10297 10300 10303 10306 10309 10311 10314 10317 10320 10323 10326 10329 10332 10334 10337 10340 10343 10346 10349 10351 10354 10356 10358 10361 10364 10367 10370 10373 10376 10379 10382 10385 10388 10391 10394 10397 10400 10403 10406 10408 10411 10414 10417 10419 10422 10425 10428 10431 10434 10436 10439 10442 10445 10448 10451 10454 10457 10460 10463 10466 10469 10471 10474 10477 10479 10482 10485 10488 10491 10494 10497 10500 10503 10506 10509 10512 10515 10518 10521 10524 10527 10530 10533 10536 10539 10542 10545 10548 10551 10554 10557 10560 10563 10566 10569 10572 10575 10578 10581 10584 10587 10589 10592 10594 10597 10600 10603 10605 10608 10611 10614 10617 10620 10623 10626 10629 10632 10635 10638 10641 10644 10646 10649 10652 10655 10657 10660 10663 10666 10669 10672 10675 10678 10681 10684 10687 10690 10693 10696 10699 10702 10705 10708 10711 10714 10717 10720 10723 10726 10729 10732 10735 10737 10740 10743 10746 10748 10751 10754 10757 10760 10763 10766 10769 10772 10775 10778 10781 10784 10786 10789 10792 10795 10797 10800 10803 10806 10809 10812 10814 10817 10820 10823 10826 10829 10832 10835 10838 10841 10844 10847 10850 10853 10856 10859 10862 10865 10868 10871 10874 10877 10879 10882 10885 10888 10891 10894 10897 10900 10903 10906 10909 10912 10915 10918 10921 10924 10927 10929 10932 10934 10937 10940 10943 10946 10949 10952 10955 10958 10961 10964 10967 10970 10973 10976 10979 10982 10985 10988 10991 10993 10996 10999 11001 11004 11007 11010 11013 11016 11019 11021 11024 11027 11030 11033 11036 11039 11042 11045 11048 11051 11054 11057 11060 11062 11065 11067 11069 11072 11075 11078 11081 11083 11086 11089 11092 11095 11098 11101 11104 11107 11110 11113 11116 11119 11122 11125 11128 11131 11134 11137 11140 11143 11146 11149 11152 11155 11157 11160 11163 11166 11169 11172 11175 11178 11181 11184 11187 11190 11193 11195 11198 11201 11204 11207 11209 11212 11214 11217 11220 11223 11226 11229 11231 11234 11237 11240 11243 11246 11249 11252 11255 11258 11261 11264 11266 11268 11270 11273 11276 11278 11280 11283 11286 11289 11292 11295 11297 11300 11303 11305 11308 11311 11314 11317 11320 11323 11326 11328 11331 11334 11337 11340 11343 11346 11349 11352 11355 11358 11361 11364 11367 11370 11372 11375 11378 11381 11384 11387 11390 11393 11396 11399 11401 11404 11407 11409 11412 11415 11417 11420 11422 11425 11428 11430 11433 11435 11438 11440 11443 11446 11449 11451 11454 11456 11459 11461 11463 11465 11468 11471 11474 11476 11479 11482 11484 11486 11488 11491 11494 11497 11499 11502 11505 11508 11510 11512 11515 11518 11521 11523 11525 11527 11530 11533 11536 11539 11542 11545 11548 11551 11554 11557 11560 11562 11565 11568 11571 11574 11577 11580 11582 11585 11588 11590 11593 11596 11599 11602 11605 11608 11611 11614 11617 11620 11623 11626 11629 11632 11634 11637 11640 11642 11644 11647 11649 11652 11654 11657 11660 11663 11666 11669 11672 11675 11678 11681 11683 11686 11689 11692 11695 11698 11700 11703 11706 11709 11712 11715 11718 11721 11724 11727 11730 11733 11736 11738 11741 11744 11747 11750 11752 11754 11757 11760 11763 11766 11768 11770 11773 11775 11777 11780 11783 11786 11789 11792 11795 11798 11801 11804 11807 11810 11812 11814 11817 11820 11823 11826 11829 11832 11835 11838 11841 11844 11847 11850 11853 11856 11859 11862 11865 11868 11871 11874 11877 11880 11883 11886 11888 11891 11894 11897 11900 11903 11905 11908 11910 11913 11916 11919 11922 11925 11928 11931 11934 11937 11940 11943 11945 11948 11951 11954 11956 11959 11962 11965 11968 11971 11974 11977 11980 11983 11986 11989 11992 11995 11998 12001 12004 12007 12010 12013 12016 12019 12022 12024 12027 12030 12033 12035 12038 12041 12044 12047 12050 12053 12056 12059 12062 12065 12068 12071 12074 12077 12080 12083 12086 12089 12092 12095 12098 12101 12104 12107 12110 12113 12116 12119 12122 12125 12128 12131 12134 12137 12140 12143 12146 12149 12152 12155 12158 12161 12164 12167 12170 12173 12175 12178 12181 12183 12186 12189 12192 12194 12197 12200 12203 12206 12209 12212 12215 12218 12221 12224 12227 12230 12233 12236 12239 12242 12245 12248 12251 12254 12257 12260 12263 12266 12269 12272 12274 12276 12279 12281 12284 12287 12289 12291 12294 12297 12299 12301 12304 12307 12310 12313 12316 12319 12321 12324 12327 12330 12333 12336 12339 12342 12344 12347 12349 12352 12354 12357 12360 12363 12366 12368 12371 12374 12377 12380 12383 12385 12388 12391 12394 12397 12400 12403 12406 12409 12412 12415 12418 12421 12423 12425 12427 12430 12433 12436 12438 12441 12444 12447 12450 12453 12456 12459 12461 12464 12466 12469 12471 12474 12476 12479 12482 12485 12487 12489 12492 12495 12498 12501 12504 12507 12510 12513 12516 12519 12521 12524 12526 12529 12532 12535 12538 12541 12543 12546 12548 12551 12554 12557 12560 12563 12566 12569 12572 12575 12577 12579 12582 12585 12587 12590 12592 12594 12597 12600 12603 12606 12608 12610 12613 12616 12619 12621 12624 12627 12629 12632 12635 12638 12641 12643 12646 12649 12652 12655 12657 12660 12662 12665 12668 12671 12674 12677 12680 12683 12686 12688 12691 12694 12696 12699 12702 12704 12707 12710 12713 12716 12718 12721 12723 12726 12728 12730 12733 12735 12738 12740 12742 12745 12748 12750 12752 12754 12756 12758 12761 12764 12767 12770 12773 12776 12779 12782 12785 12788 12791 12794 12797 12800 12803 12806 12809 12812 12814 12817 12820 12823 12825 12827 12830 12833 12836 12839 12842 12845 12847 12850 12853 12856 12858 12860 12863 12866 12869 12872 12875 12877 12880 12882 12885 12887 12889 12892 12895 12898 12901 12904 12906 12909 12911 12914 12916 12919 12922 12924 12927 12930 12933 12935 12938 12941 12943 12945 12948 12950 12953 12955 12958 12961 12964 12966 12968 12971 12973 12975 12978 12981 12984 12987 12990 12993 12996 12999 13002 13004 13007 13009 13012 13015 13018 13020 13023 13026 13028 13030 13033 13035 13038 13041 13044 13047 13050 13052 13054 13057 13060 13062 13065 13068 13071 13074 13077 13080 13083 13086 13088 13091 13094 13097 13100 13103 13105 13108 13110 13112 13115 13118 13121 13124 13126 13129 13131 13134 13136 13139 13141 13144 13147 13150 13153 13156 13159 13161 13164 13167 13170 13173 13176 13179 13182 13185 13188 13191 13194 13197 13200 13203 13205 13208 13210 13213 13216 13218 13221 13224 13227 13230 13233 13236 13239 13242 13244 13247 13249 13252 13255 13258 13260 13263 13266 13269 13272 13275 13277 13280 13283 13286 13289 13291 13294 13296 13299 13301 13304 13307 13310 13312 13315 13318 13321 13323 13326 13328 13331 13333 13336 13338 13341 13343 13346 13349 13352 13355 13358 13361 13364 13367 13370 13373 13376 13379 13382 13385 13388 13391 13394 13397 13400 13403 13406 13409 13412 13414 13417 13420 13423 13426 13429 13432 13435 13438 13441 13444 13447 13450 13453 13456 13459 13462 13465 13468 13471 13474 13477 13480 13483 13486 13489 13492 13495 13498 13501 13504 13507 13510 13513 13516 13519 13522 13524 13526 13529 13532 13535 13538 13541 13544 13546 13549 13552 13554 13557 13559 13562 13564 13567 13570 13573 13575 13578 13581 13583 13586 13589 13591 13594 13597 13599 13602 13605 13608 13611 13614 13617 13620 13623 13626 13629 13632 13635 13638 13641 13644 13647 13650 13653 13656 13659 13662 13664 13667 13670 13673 13676 13679 13682 13685 13687 13690 13692 13695 13698 13701 13704 13707 13710 13713 13716 13719 13722 13725 13728 13731 13734 13736 13739 13742 13745 13748 13751 13754 13757 13760 13763 13766 13769 13772 13774 13777 13780 13783 13786 13789 13792 13794 13797 13799 13801 13804 13807 13810 13813 13816 13819 13822 13825 13827 13830 13833 13836 13839 13842 13845 13848 13851 13854 13856 13859 13862 13865 13868 13871 13874 13877 13880 13883 13886 13889 13892 13895 13898 13901 13903 13906 13909 13912 13914 13917 13920 13923 13926 13929 13932 13935 13938 13941 13944 13947 13950 13953 13956 13959 13962 13964 13967 13969 13972 13975 13978 13980 13983 13986 13988 13991 13994 13997 14000 14003 14006 14009 14012 14015 14018 14021 14024 14027 14030 14033 14036 14039 14042 14045 14047 14050 14053 14055 14058 14061 14064 14067 14070 14073 14076 14079 14082 14085 14088 14091 14094 14097 14100 14103 14106 14109 14112 14115 14118 14121 14124 14127 14130 14133 14136 14139 14142 14145 14148 14151 14154 14157 14160 14163 14166 14169 14172 14175 14178 14181 14184 14187 14190 14193 14196 14198 14201 14204 14207 14210 14213 14216 14219 14222 14225 14228 14231 14234 14236 14239 14242 14245 14248 14251 14254 14256 14259 14262 14264 14266 14269 14271 14273 14275 14278 14281 14284 14287 14290 14292 14295 14298 14300 14302 14305 14308 14310 14313 14315 14317 14319 14322 14325 14327 14330 14333 14336 14339 14341 14344 14347 14350 14353 14356 14358 14361 14364 14367 14370 14373 14376 14378 14381 14383 14386 14388 14391 14394 14397 14400 14403 14406 14409 14412 14414 14417 14420 14423 14426 14429 14432 14435 14438 14441 14444 14446 14449 14452 14454 14457 14460 14463 14466 14469 14472 14475 14478 14481 14484 14487 14489 14492 14495 14498 14501 14504 14507 14510 14513 14515 14517 14520 14523 14525 14528 14531 14534 14537 14539 14542 14545 14547 14550 14553 14556 14558 14561 14563 14565 14568 14571 14574 14576 14579 14581 14583 14586 14588 14591 14594 14596 14598 14601 14604 14606 14609 14612 14615 14617 14619 14622 14625 14628 14631 14633 14636 14639 14642 14645 14647 14650 14652 14654 14657 14659 14661 14664 14667 14670 14673 14676 14679 14682 14685 14687 14690 14693 14696 14699 14702 14705 14708 14710 14712 14715 14718 14720 14723 14726 14729 14731 14734 14736 14739 14741 14743 14746 14748 14751 14754 14756 14759 14761 14764 14767 14769 14771 14774 14777 14780 14783 14786 14788 14791 14794 14797 14800 14802 14804 14807 14810 14813 14816 14819 14821 14824 14827 14829 14832 14835 14838 14841 14844 14847 14850 14852 14855 14858 14861 14863 14866 14869 14872 14875 14878 14880 14883 14886 14889 14891 14894 14896 14899 14902 14905 14908 14911 14913 14916 14919 14922 14925 14928 14931 14934 14937 14939 14942 14945 14948 14951 14954 14957 14960 14963 14966 14968 14971 14974 14977 14980 14983 14986 14989 14992 14995 14997 14999 15002 15005 15008 15011 15014 15017 15019 15022 15024 15027 15030 15033 15035 15037 15040 15043 15045 15048 15051 15054 15057 15060 15063 15066 15069 15072 15075 15078 15081 15084 15087 15090 15093 15096 15099 15102 15105 15108 15111 15114 15117 15120 15123 15126 15129 15132 15135 15138 15141 15144 15147 15149 15152 15155 15157 15160 15163 15166 15168 15171 15174 15177 15179 15182 15185 15188 15191 15194 15197 15199 15201 15204 15207 15210 15213 15216 15219 15221 15224 15227 15230 15233 15236 15239 15242 15245 15248 15251 15254 15256 15259 15262 15265 15267 15270 15273 15276 15279 15282 15285 15288 15291 15294 15297 15300 15302 15305 15308 15311 15314 15317 15319 15322 15324 15327 15330 15333 15335 15338 15341 15343 15345 15348 15350 15353 15356 15359 15362 15365 15367 15370 15373 15376 15379 15382 15385 15388 15391 15394 15396 15399 15402 15405 15407 15410 15413 15416 15419 15422 15425 15427 15430 15433 15436 15438 15441 15444 15447 15450 15453 15456 15459 15462 15465 15468 15470 15473 15476 15478 15481 15483 15485 15488 15491 15493 15496 15498 15500 15502 15505 15508 15511 15514 15517 15520 15523 15525 15527 15530 15533 15536 15538 15541 15544 15546 15549 15552 15555 15558 15561 15564 15567 15570 15573 15575 15578 15580 15583 15585 15588 15591 15594 15597 15600 15603 15606 15609 15612 15614 15617 15620 15623 15626 15628 15631 15634 15637 15640 15643 15646 15649 15652 15655 15658 15660 15663 15666 15669 15672 15674 15677 15680 15683 15686 15689 15692 15695 15698 15701 15704 15707 15710 15712 15714 15716 15719 15722 15725 15728 15731 15734 15737 15739 15742 15745 15747 15750 15752 15755 15758 15761 15764 15767 15769 15771 15774 15777 15780 15783 15786 15789 15792 15795 15798 15800 15803 15806 15808 15810 15813 15816 15819 15822 15824 15827 15829 15832 15835 15838 15841 15843 15846 15849 15852 15854 15857 15860 15863 15866 15869 15872 15875 15878 15881 15884 15887 15890 15893 15896 15899 15902 15905 15908 15911 15914 15917 15920 15923 15926 15929 15932 15934 15936 15939 15942 15945 15948 15950 15953 15955 15957 15960 15962 15965 15968 15971 15974 15977 15980 15983 15986 15989 15992 15994 15997 16000 16003 16006 16009 16012 16015 16017 16020 16023 16026 16028 16031 16034 16037 16040 16042 16045 16048 16051 16054 16057 16060 16062 16065 16068 16071 16074 16077 16080 16082 16084 16087 16089 16092 16094 16097 16100 16103 16106 16109 16112 16114 16117 16120 16123 16126 16129 16131 16134 16137 16140 16143 16146 16149 16151 16154 16157 16160 16163 16166 16169 16172 16174 16177 16180 16183 16185 16188 16191 16194 16196 16199 16202 16205 16207 16209 16212 16214 16217 16220 16223 16226 16229 16232 16235 16238 16241 16244 16247 16250 16253 16256 16259 16262 16265 16268 16271 16274 16277 16280 16282 16284 16287 16289 16292 16295 16298 16301 16303 16306 16309 16311 16314 16317 16319 16322 16325 16328 16331 16333 16336 16339 16341 16343 16346 16349 16352 16355 16357 16360 16363 16366 16369 16372 16375 16378 16381 16384 16387 16390 16393 16396 16399 16401 16404 16407 16410 16413 16415 16418 16421 16424 16426 16429 16432 16435 16438 16440 16443 16445 16448 16450 16453 16455 16458 16461 16463 16466 16469 16472 16475 16478 16481 16483 16485 16488 16491 16493 16496 16499 16502 16505 16507 16510 16513 16516 16519 16522 16525 16528 16531 16534 16537 16540 16542 16545 16548 16551 16554 16556 16558 16560 16563 16566 16568 16570 16573 16576 16578 16580 16583 16586 16589 16592 16595 16597 16600 16603 16606 16609 16612 16614 16616 16619 16621 16624 16627 16630 16633 16636 16639 16642 16645 16648 16651 16653 16656 16659 16662 16665 16668 16671 16674 16677 16680 16683 16686 16689 16692 16695 16698 16701 16704 16707 16710 16713 16716 16719 16722 16725 16728 16731 16733 16736 16739 16742 16744 16747 16750 16752 16755 16758 16761 16764 16767 16770 16773 16776 16779 16782 16785 16787 16790 16793 16796 16799 16802 16805 16808 16811 16814 16817 16820 16823 16826 16829 16832 16835 16838 16841 16844 16847 16849 16851 16854 16857 16860 16863 16865 16868 16871 16873 16876 16878 16881 16884 16887 16890 16893 16895 16898 16900 16903 16906 16909 16911 16913 16916 16919 16922 16925 16927 16929 16932 16935 16938 16941 16944 16947 16950 16953 16956 16959 16962 16964 16966 16968 16971 16974 16977 16979 16982 16984 16987 16990 16992 16995 16998 17001 17004 17006 17009 17012 17015 17017 17020 17022 17025 17027 17030 17033 17036 17038 17040 17042 17044 17047 17050 17052 17055 17058 17060 17063 17066 17068 17070 17073 17076 17078 17081 17084 17086 17089 17092 17095 17097 17100 17103 17106 17109 17112 17115 17118 17121 17124 17127 17130 17133 17136 17139 17142 17145 17148 17151 17154 17157 17160 17163 17166 17169 17172 17175 17178 17180 17183 17186 17189 17192 17195 17197 17200 17203 17205 17208 17211 17214 17217 17220 17223 17226 17229 17231 17234 17237 17240 17243 17246 17249 17252 17255 17258 17261 17264 17267 17269 17272 17275 17278 17281 17284 17287 17289 17292 17294 17297 17300 17303 17306 17309 17311 17314 17317 17320 17323 17326 17328 17331 17334 17336 17339 17342 17345 17347 17350 17353 17356 17358 17361 17364 17367 17370 17373 17376 17379 17382 17384 17387 17390 17393 17396 17399 17402 17405 17408 17411 17413 17416 17419 17422 17425 17428 17431 17434 17437 17439 17442 17445 17447 17450 17453 17456 17459 17462 17465 17468 17471 17474 17477 17480 17483 17486 17489 17492 17494 17497 17500 17502 17505 17508 17510 17513 17516 17518 17521 17523 17526 17529 17532 17535 17538 17541 17544 17547 17550 17553 17556 17558 17561 17564 17566 17569 17572 17575 17578 17580 17583 17586 17588 17591 17594 17597 17599 17602 17605 17608 17610 17613 17615 17617 17620 17623 17626 17628 17631 17634 17637 17640 17642 17645 17648 17651 17654 17657 17659 17662 17665 17667 17669 17671 17674 17677 17680 17683 17686 17689 17692 17694 17697 17699 17702 17705 17707 17710 17713 17716 17719 17722 17724 17727 17730 17732 17735 17737 17739 17742 17745 17748 17751 17754 17756 17759 17762 17765 17768 17771 17774 17777 17779 17782 17785 17787 17790 17793 17795 17798 17800 17803 17806 17809 17812 17815 17818 17820 17823 17825 17828 17831 17834 17837 17840 17843 17846 17849 17852 17855 17858 17861 17864 17867 17869 17871 17874 17877 17879 17882 17885 17888 17890 17893 17896 17899 17902 17905 17908 17911 17914 17917 17920 17922 17925 17928 17930 17933 17936 17939 17942 17945 17948 17951 17954 17956 17959 17962 17965 17968 17971 17974 17977 17980 17983 17986 17989 17992 17995 17998 18001 18004 18007 18010 18013 18016 18019 18022 18025 18028 18030 18033 18035 18038 18041 18044 18047 18050 18053 18055 18058 18061 18063 18066 18069 18072 18075 18078 18080 18083 18086 18089 18092 18094 18096 18099 18101 18104 18107 18110 18113 18116 18119 18121 18123 18126 18129 18132 18135 18138 18141 18143 18146 18149 18152 18154 18157 18160 18163 18166 18169 18172 18175 18177 18180 18183 18186 18189 18192 18194 18197 18200 18203 18206 18209 18212 18214 18217 18220 18223 18226 18228 18230 18233 18236 18239 18242 18245 18248 18251 18254 18256 18259 18261 18264 18267 18269 18272 18274 18277 18279 18282 18284 18287 18290 18293 18295 18298 18301 18304 18307 18310 18313 18315 18318 18321 18324 18327 18329 18332 18334 18337 18340 18342 18345 18348 18351 18354 18357 18360 18363 18366 18369 18372 18374 18377 18380 18383 18386 18389 18391 18394 18397 18399 18402 18405 18408 18411 18414 18417 18419 18422 18425 18428 18431 18434 18437 18440 18443 18446 18449 18452 18455 18458 18461 18463 18466 18469 18472 18475 18478 18481 18483 18486 18489 18492 18495 18497 18500 18503 18506 18509 18512 18515 18518 18520 18523 18526 18529 18532 18534 18537 18540 18543 18546 18549 18552 18555 18558 18561 18564 18567 18570 18573 18576 18579 18582 18585 18588 18591 18594 18597 18599 18602 18605 18608 18611 18614 18616 18619 18622 18625 18628 18631 18634 18637 18640 18643 18646 18649 18652 18655 18658 18661 18664 18667 18670 18673 18676 18679 18682 18685 18688 18691 18694 18697 18700 18702 18704 18707 18710 18713 18716 18718 18721 18723 18726 18729 18732 18735 18738 18741 18744 18747 18750 18753 18756 18759 18762 18765 18768 18771 18774 18777 18780 18783 18786 18789 18792 18795 18798 18801 18804 18807 18810 18812 18815 18818 18821 18823 18826 18829 18832 18835 18838 18841 18844 18847 18850 18853 18856 18859 18862 18865 18868 18871 18874 18877 18880 18882 18885 18888 18891 18894 18897 18900 18903 18906 18909 18912 18915 18918 18921 18924 18927 18930 18933 18936 18939 18942 18945 18948 18951 18954 18957 18960 18963 18966 18969 18972 18975 18978 18981 18984 18987 18990 18993 18995 18998 19001 19004 19007 19010 19013 19016 19019 19021 19024 19027 19030 19033 19036 19039 19042 19045 19048 19050 19052 19055 19058 19061 19064 19067 19070 19073 19076 19079 19082 19085 19087 19090 19093 19096 19099 19102 19105 19107 19110 19113 19116 19119 19122 19125 19128 19131 19134 19137 19140 19143 19146 19149 19152 19154 19157 19159 19162 19164 19166 19169 19171 19174 19177 19180 19183 19185 19188 19191 19194 19197 19200 19203 19206 19209 19212 19215 19218 19221 19224 19226 19229 19232 19235 19238 19240 19243 19246 19249 19252 19255 19258 19261 19264 19267 19270 19273 19276 19279 19282 19285 19288 19291 19294 19297 19300 19303 19306 19309 19311 19314 19317 19319 19322 19325 19328 19331 19334 19337 19340 19343 19346 19349 19352 19355 19358 19361 19364 19367 19370 19373 19376 19379 19382 19385 19387 19390 19392 19394 19397 19400 19403 19406 19409 19412 19415 19418 19420 19423 19425 19428 19431 19434 19437 19440 19443 19445 19448 19451 19454 19456 19459 19462 19465 19468 19470 19472 19475 19478 19481 19484 19487 19490 19493 19496 19499 19502 19505 19508 19511 19513 19516 19519 19522 19525 19528 19530 19533 19536 19538 19541 19544 19547 19550 19553 19556 19558 19561 19564 19567 19570 19573 19576 19579 19582 19585 19588 19591 19594 19596 19599 19602 19605 19608 19611 19614 19617 19619 19622 19625 19628 19631 19634 19637 19640 19643 19646 19649 19651 19654 19656 19659 19662 19665 19667 19669 19672 19675 19677 19680 19682 19684 19687 19690 19693 19696 19699 19701 19704 19706 19709 19712 19715 19718 19721 19724 19727 19730 19733 19736 19739 19742 19745 19748 19751 19753 19756 19759 19762 19764 19767 19770 19772 19775 19777 19780 19782 19785 19788 19790 19792 19795 19798 19801 19804 19807 19810 19812 19815 19818 19820 19823 19826 19829 19832 19835 19837 19840 19843 19845 19848 19850 19853 19855 19858 19861 19864 19866 19869 19871 19873 19876 19879 19881 19884 19887 19889 19892 19895 19898 19900 19903 19906 19909 19912 19915 19918 19920 19923 19926 19928 19930 19933 19935 19938 19941 19943 19946 19949 19952 19955 19958 19960 19963 19966 19969 19972 19975 19978 19980 19983 19986 19988 19991 19993 19995 19998 20001 20004 20007 20010 20012 20015 20018 20021 20024 20027 20030 20033 20036 20038 20041 20043 20046 20049 20052 20054 20057 20060 20062 20065 20068 20071 20074 20076 20079 20082 20085 20088 20091 20094 20097 20100 20103 20105 20108 20111 20114 20117 20120 20122 20125 20128 20131 20134 20136 20139 20142 20145 20148 20151 20153 20156 20159 20162 20165 20167 20170 20173 20176 20179 20182 20185 20188 20191 20194 20197 20200 20203 20206 20208 20211 20214 20217 20219 20222 20224 20227 20230 20232 20235 20238 20241 20243 20246 20249 20252 20255 20258 20260 20263 20266 20269 20272 20275 20278 20281 20284 20287 20290 20293 20296 20299 20301 20303 20306 20309 20312 20315 20318 20320 20323 20325 20328 20331 20333 20336 20338 20341 20344 20346 20349 20352 20355 20358 20360 20362 20364 20367 20370 20373 20375 20378 20380 20383 20386 20389 20392 20394 20396 20399 20402 20405 20407 20410 20413 20416 20419 20422 20425 20428 20431 20434 20437 20439 20442 20444 20447 20450 20453 20456 20459 20462 20465 20468 20471 20474 20477 20480 20483 20486 20489 20492 20494 20497 20500 20503 20506 20509 20512 20514 20516 20519 20522 20524 20527 20530 20533 20536 20539 20542 20544 20547 20550 20553 20556 20559 20562 20565 20568 20571 20574 20577 20580 20582 20585 20588 20591 20594 20597 20600 20603 20606 20609 20612 20615 20617 20620 20623 20626 20629 20632 20635 20638 20641 20644 20647 20649 20652 20655 20658 20660 20663 20666 20669 20672 20675 20678 20681 20684 20686 20689 20692 20694 20697 20700 20703 20706 20709 20711 20714 20717 20720 20723 20726 20728 20731 20733 20736 20739 20742 20745 20748 20751 20754 20757 20760 20763 20766 20769 20772 20775 20778 20781 20784 20787 20790 20793 20796 20799 20802 20805 20808 20811 20814 20817 20820 20823 20826 20829 20832 20835 20838 20841 20844 20847 20850 20853 20856 20859 20862 20865 20868 20871 20874 20876 20879 20882 20885 20888 20891 20894 20896 20899 20902 20905 20908 20911 20914 20917 20920 20923 20926 20929 20932 20935 20938 20941 20943 20946 20948 20951 20954 20957 20960 20963 20966 20969 20972 20975 20978 20981 20984 20987 20989 20992 20995 20998 21001 21003 21006 21009 21012 21015 21018 21021 21024 21027 21030 21033 21036 21039 21041 21043 21046 21049 21052 21055 21058 21061 21064 21067 21070 21073 21076 21079 21082 21085 21088 21091 21094 21097 21100 21103 21106 21109 21112 21115 21118 21121 21124 21127 21130 21133 21136 21139 21142 21145 21148 21151 21154 21156 21159 21162 21165 21168 21171 21174 21177 21180 21183 21186 21189 21192 21195 21198 21201 21204 21207 21210 21212 21215 21217 21219 21221 21224 21227 21230 21232 21235 21238 21240 21242 21245 21248 21251 21253 21256 21259 21262 21265 21268 21271 21273 21276 21279 21282 21285 21288 21291 21294 21297 21300 21302 21304 21307 21310 21313 21315 21318 21321 21323 21326 21329 21331 21334 21337 21339 21342 21345 21348 21350 21353 21355 21358 21360 21363 21366 21368 21371 21374 21377 21379 21382 21385 21388 21390 21392 21395 21398 21401 21404 21407 21410 21413 21416 21419 21421 21424 21426 21429 21432 21435 21437 21440 21442 21445 21448 21451 21453 21456 21458 21460 21463 21466 21469 21472 21475 21478 21480 21482 21485 21488 21490 21492 21495 21498 21501 21503 21506 21509 21511 21514 21517 21519 21522 21525 21528 21531 21533 21536 21538 21541 21543 21546 21549 21552 21554 21557 21559 21562 21565 21568 21571 21573 21575 21578 21580 21583 21586 21589 21592 21594 21597 21600 21603 21605 21607 21609 21611 21613 21616 21619 21621 21624 21627 21629 21631 21633 21636 21639 21641 21643 21645 21648 21651 21653 21656 21659 21661 21663 21666 21668 21671 21673 21675 21678 21681 21684 21687 21689 21691 21694 21697 21700 21702 21705 21707 21710 21713 21716 21719 21722 21725 21727 21730 21733 21736 21739 21741 21744 21747 21749 21752 21754 21757 21759 21762 21764 21767 21770 21772 21775 21778 21781 21784 21787 21790 21793 21796 21799 21802 21805 21807 21810 21813 21816 21818 21820 21823 21825 21828 21831 21834 21837 21839 21842 21845 21848 21850 21853 21855 21858 21861 21864 21867 21869 21871 21874 21877 21880 21883 21885 21888 21891 21893 21895 21898 21901 21903 21905 21908 21911 21913 21916 21919 21922 21924 21926 21929 21932 21935 21938 21940 21943 21945 21948 21950 21953 21955 21958 21960 21963 21966 21968 21970 21973 21976 21978 21981 21984 21986 21989 21991 21993 21996 21999 22001 22004 22007 22009 22012 22014 22017 22019 22022 22024 22027 22030 22032 22035 22038 22041 22044 22047 22049 22051 22054 22057 22060 22063 22066 22069 22072 22075 22078 22081 22084 22087 22090 22093 22095 22098 22100 22103 22106 22108 22111 22114 22117 22120 22122 22125 22128 22130 22133 22135 22138 22141 22144 22147 22150 22153 22156 22159 22162 22165 22167 22170 22173 22176 22179 22182 22185 22188 22191 22194 22197 22200 22203 22206 22209 22212 22214 22216 22219 22222 22225 22227 22229 22232 22235 22238 22241 22243 22246 22249 22252 22255 22258 22260 22263 22266 22269 22272 22275 22277 22280 22283 22286 22289 22292 22295 22298 22301 22304 22307 22310 22313 22316 22319 22321 22324 22327 22329 22331 22334 22336 22339 22342 22344 22347 22350 22352 22355 22358 22361 22364 22367 22370 22372 22375 22378 22380 22383 22385 22388 22391 22394 22397 22400 22403 22406 22409 22412 22415 22418 22421 22424 22426 22429 22432 22435 22437 22440 22443 22445 22448 22451 22453 22456 22459 22462 22464 22467 22469 22472 22475 22477 22480 22483 22485 22488 22490 22493 22496 22498 22501 22504 22507 22510 22512 22515 22518 22521 22524 22526 22529 22532 22535 22537 22540 22543 22546 22549 22552 22554 22557 22560 22563 22566 22569 22572 22575 22578 22580 22583 22586 22589 22592 22595 22598 22601 22604 22607 22610 22612 22615 22617 22620 22623 22626 22628 22631 22634 22637 22640 22643 22646 22649 22652 22655 22658 22661 22664 22667 22670 22673 22676 22679 22682 22685 22688 22691 22694 22697 22700 22703 22706 22709 22712 22715 22718 22721 22724 22727 22730 22733 22736 22739 22741 22744 22747 22750 22752 22755 22758 22761 22764 22767 22770 22773 22776 22779 22782 22785 22788 22791 22794 22797 22800 22802 22805 22808 22811 22814 22816 22819 22822 22825 22828 22831 22834 22837 22840 22843 22846 22849 22852 22855 22858 22861 22864 22866 22869 22872 22875 22878 22881 22884 22887 22890 22893 22896 22899 22902 22905 22908 22911 22914 22917 22920 22923 22926 22929 22932 22935 22938 22941 22944 22947 22950 22953 22956 22958 22961 22963 22966 22969 22972 22974 22977 22980 22983 22986 22989 22992 22995 22998 23001 23004 23007 23010 23013 23016 23019 23022 23025 23028 23031 23034 23037 23040 23042 23045 23048 23051 23053 23056 23059 23062 23065 23067 23070 23073 23076 23079 23082 23085 23087 23090 23093 23096 23099 23102 23105 23108 23111 23113 23116 23119 23122 23125 23128 23131 23133 23136 23139 23141 23143 23146 23149 23152 23154 23156 23159 23162 23164 23167 23169 23172 23174 23176 23179 23182 23185 23188 23190 23193 23195 23198 23201 23204 23207 23209 23212 23215 23217 23220 23222 23225 23228 23231 23233 23235 23237 23240 23242 23245 23247 23250 23252 23255 23257 23259 23262 23264 23266 23269 23272 23275 23277 23280 23282 23285 23288 23291 23294 23297 23299 23302 23304 23307 23310 23313 23316 23319 23321 23324 23326 23329 23331 23334 23337 23340 23343 23346 23348 23351 23354 23356 23359 23362 23365 23368 23370 23373 23376 23379 23382 23384 23387 23389 23392 23395 23397 23400 23403 23406 23408 23411 23414 23417 23420 23423 23426 23429 23432 23435 23438 23441 23444 23447 23450 23453 23456 23459 23462 23465 23467 23470 23473 23476 23478 23481 23484 23487 23489 23492 23495 23498 23501 23503 23506 23509 23512 23515 23518 23521 23524 23527 23530 23533 23536 23539 23542 23545 23548 23551 23554 23557 23560 23563 23566 23569 23572 23575 23578 23581 23584 23587 23589 23592 23595 23598 23601 23604 23607 23610 23613 23616 23619 23622 23625 23628 23630 23633 23636 23639 23642 23645 23648 23651 23654 23657 23659 23662 23664 23667 23670 23673 23676 23678 23681 23684 23687 23690 23693 23696 23698 23701 23704 23707 23710 23712 23714 23717 23719 23722 23724 23727 23730 23733 23736 23738 23741 23744 23746 23748 23751 23754 23757 23760 23763 23765 23767 23770 23773 23775 23778 23780 23783 23785 23787 23790 23793 23796 23799 23802 23804 23807 23809 23812 23814 23816 23819 23822 23824 23826 23829 23831 23834 23836 23839 23842 23845 23847 23850 23853 23856 23858 23861 23864 23866 23868 23870 23872 23875 23877 23880 23883 23886 23889 23891 23893 23896 23899 23901 23904 23907 23909 23912 23915 23917 23920 23923 23926 23929 23932 23935 23938 23940 23943 23946 23949 23952 23954 23956 23959 23961 23963 23966 23969 23972 23975 23977 23980 23983 23985 23988 23990 23993 23996 23999 24001 24003 24005 24007 24010 24013 24015 24018 24021 24024 24027 24029 24032 24035 24038 24041 24043 24045 24048 24051 24053 24056 24059 24062 24065 24068 24071 24074 24077 24079 24082 24084 24087 24089 24092 24095 24098 24101 24104 24107 24110 24113 24116 24119 24122 24124 24127 24130 24133 24136 24138 24141 24144 24146 24149 24152 24155 24158 24160 24163 24166 24169 24171 24174 24176 24179 24182 24184 24187 24190 24193 24196 24199 24202 24205 24208 24211 24214 24217 24220 24223 24225 24228 24230 24233 24236 24239 24242 24245 24248 24251 24254 24257 24260 24263 24266 24269 24272 24275 24278 24281 24284 24287 24290 24293 24295 24297 24300 24303 24306 24309 24311 24314 24317 24320 24323 24326 24329 24332 24334 24337 24340 24343 24346 24348 24351 24354 24357 24360 24363 24365 24368 24371 24374 24377 24380 24383 24386 24389 24392 24395 24398 24401 24404 24407 24410 24413 24416 24418 24421 24424 24427 24430 24433 24436 24439 24442 24445 24448 24451 24454 24457 24460 24463 24465 24468 24471 24474 24477 24480 24483 24486 24488 24491 24493 24496 24499 24502 24505 24508 24511 24513 24516 24519 24521 24524 24526 24529 24532 24535 24538 24541 24544 24547 24550 24553 24555 24558 24561 24564 24567 24570 24572 24575 24578 24581 24584 24587 24590 24593 24596 24599 24602 24605 24607 24610 24613 24616 24618 24621 24624 24626 24629 24632 24635 24637 24640 24642 24645 24648 24650 24653 24655 24658 24661 24664 24667 24669 24672 24675 24678 24681 24684 24686 24689 24692 24694 24696 24699 24702 24705 24707 24710 24712 24714 24717 24720 24723 24725 24728 24731 24734 24737 24740 24743 24746 24749 24752 24755 24758 24760 24763 24766 24769 24772 24775 24778 24781 24784 24787 24790 24793 24796 24799 24802 24805 24808 24811 24814 24817 24820 24823 24826 24829 24831 24834 24837 24839 24842 24844 24847 24850 24852 24854 24857 24859 24862 24865 24868 24870 24873 24876 24879 24882 24884 24887 24890 24893 24896 24899 24901 24903 24905 24908 24911 24913 24916 24919 24922 24925 24928 24931 24934 24937 24939 24942 24945 24948 24951 24954 24957 24959 24962 24964 24967 24970 24973 24976 24978 24980 24983 24986 24989 24992 24995 24998 25000 25003 25005 25008 25011 25014 25016 25019 25022 25025 25027 25030 25033 25035 25038 25041 25043 25046 25049 25052 25054 25057 25060 25062 25065 25068 25071 25073 25076 25079 25082 25085 25088 25091 25094 25097 25100 25103 25106 25109 25111 25114 25117 25120 25123 25126 25129 25131 25134 25137 25140 25143 25145 25148 25151 25154 25157 25159 25162 25164 25167 25170 25172 25175 25178 25181 25184 25187 25190 25193 25196 25199 25202 25205 25207 25210 25213 25216 25219 25222 25225 25228 25231 25234 25237 25240 25243 25246 25249 25252 25255 25258 25261 25264 25267 25270 25273 25276 25279 25281 25284 25287 25290 25293 25296 25299 25302 25305 25308 25311 25314 25317 25319 25322 25325 25328 25331 25334 25337 25340 25343 25346 25349 25352 25355 25358 25361 25364 25367 25370 25373 25376 25379 25382 25385 25388 25391 25394 25397 25400 25403 25406 25409 25412 25415 25418 25421 25424 25427 25430 25433 25436 25439 25441 25444 25447 25450 25453 25456 25458 25461 25464 25467 25470 25473 25476 25479 25482 25485 25488 25491 25494 25497 25500 25503 25506 25509 25512 25515 25518 25521 25524 25527 25530 25533 25536 25539 25542 25545 25548 25551 25554 25557 25560 25562 25565 25568 25571 25574 25577 25579 25581 25584 25587 25590 25593 25596 25598 25601 25604 25607 25610 25612 25615 25618 25621 25624 25627 25630 25633 25636 25639 25641 25644 25647 25650 25653 25656 25659 25662 25665 25668 25671 25674 25677 25680 25683 25686 25689 25692 25695 25698 25701 25703 25706 25708 25711 25714 25716 25718 25721 25723 25725 25728 25731 25734 25737 25739 25741 25744 25746 25749 25751 25754 25757 25760 25762 25764 25767 25769 25772 25775 25778 25781 25783 25786 25788 25791 25794 25797 25800 25802 25805 25808 25811 25814 25817 25819 25822 25825 25827 25830 25833 25836 25839 25842 25845 25848 25851 25854 25857 25859 25862 25865 25868 25871 25874 25877 25880 25883 25886 25889 25892 25895 25897 25900 25903 25906 25909 25912 25914 25917 25920 25923 25926 25929 25932 25935 25938 25941 25944 25947 25950 25953 25956 25959 25962 25965 25968 25971 25974 25977 25980 25983 25985 25988 25991 25994 25997 26000 26003 26006 26008 26011 26014 26016 26019 26022 26025 26028 26031 26034 26037 26040 26043 26046 26049 26051 26054 26056 26059 26062 26065 26068 26071 26073 26076 26078 26080 26083 26086 26089 26091 26094 26097 26100 26102 26104 26107 26110 26113 26116 26119 26122 26125 26128 26131 26134 26137 26140 26143 26146 26149 26152 26155 26158 26161 26164 26167 26170 26173 26176 26179 26182 26185 26188 26191 26194 26197 26200 26202 26205 26208 26211 26214 26217 26220 26223 26226 26229 26232 26235 26238 26240 26243 26246 26249 26251 26254 26257 26260 26263 26266 26269 26272 26275 26278 26281 26284 26287 26290 26293 26296 26299 26302 26305 26308 26311 26314 26317 26320 26323 26326 26329 26332 26335 26337 26340 26343 26346 26349 26351 26353 26355 26358 26360 26362 26365 26368 26371 26373 26376 26379 26382 26385 26388 26391 26393 26396 26399 26402 26405 26408 26411 26414 26417 26420 26423 26426 26429 26432 26435 26438 26441 26444 26447 26450 26453 26456 26459 26462 26465 26468 26471 26474 26477 26480 26482 26485 26488 26491 26493 26496 26499 26502 26505 26508 26511 26514 26517 26520 26523 26526 26529 26531 26534 26537 26540 26543 26545 26548 26551 26554 26556 26559 26562 26565 26568 26570 26573 26575 26578 26581 26584 26587 26590 26593 26595 26598 26600 26603 26606 26609 26612 26615 26617 26620 26623 26626 26629 26631 26634 26637 26640 26642 26645 26648 26651 26654 26657 26660 26663 26665 26668 26671 26673 26676 26679 26681 26684 26687 26690 26693 26696 26699 26702 26705 26708 26711 26714 26717 26720 26723 26726 26729 26732 26735 26738 26741 26744 26747 26750 26752 26755 26757 26760 26763 26766 26768 26771 26773 26776 26778 26780 26783 26786 26789 26792 26795 26798 26801 26804 26806 26809 26812 26815 26818 26821 26824 26827 26830 26833 26836 26839 26842 26845 26848 26851 26854 26857 26860 26863 26865 26868 26871 26874 26877 26880 26883 26886 26889 26891 26894 26897 26900 26903 26906 26909 26912 26915 26918 26921 26924 26927 26930 26933 26936 26939 26942 26945 26948 26951 26954 26957 26960 26963 26966 26969 26972 26975 26978 26981 26984 26987 26990 26993 26996 26999 27002 27005 27008 27011 27014 27017 27020 27023 27026 27029 27032 27035 27038 27041 27044 27047 27050 27053 27056 27059 27062 27065 27068 27071 27074 27077 27080 27082 27085 27088 27091 27094 27096 27099 27102 27105 27108 27110 27113 27116 27119 27122 27125 27128 27131 27134 27137 27140 27143 27145 27148 27151 27153 27155 27158 27161 27164 27167 27170 27172 27175 27178 27181 27184 27187 27190 27193 27196 27199 27202 27205 27208 27211 27213 27216 27219 27221 27224 27227 27230 27233 27236 27239 27242 27245 27248 27251 27254 27257 27259 27262 27265 27267 27270 27273 27276 27279 27282 27285 27288 27291 27294 27297 27300 27303 27306 27309 27312 27315 27318 27321 27324 27327 27330 27333 27335 27338 27341 27344 27346 27348 27351 27354 27357 27360 27362 27365 27368 27370 27373 27375 27378 27381 27384 27387 27389 27392 27395 27397 27400 27403 27406 27409 27411 27414 27417 27420 27422 27425 27427 27429 27432 27435 27438 27441 27444 27446 27449 27452 27455 27458 27461 27464 27467 27469 27472 27475 27477 27480 27483 27485 27488 27490 27493 27496 27499 27502 27505 27508 27511 27514 27517 27520 27523 27526 27529 27531 27534 27537 27540 27543 27546 27549 27552 27555 27558 27561 27564 27567 27570 27573 27576 27578 27580 27583 27586 27589 27592 27594 27597 27600 27603 27606 27609 27612 27615 27618 27621 27623 27626 27629 27632 27635 27637 27640 27643 27646 27649 27652 27655 27658 27660 27663 27666 27669 27672 27675 27678 27681 27683 27686 27689 27692 27695 27698 27701 27704 27707 27710 27713 27716 27719 27722 27725 27728 27731 27734 27737 27740 27743 27746 27749 27752 27755 27758 27761 27764 27767 27770 27773 27776 27779 27782 27785 27788 27791 27794 27797 27800 27803 27806 27809 27812 27814 27817 27820 27823 27826 27829 27832 27835 27838 27841 27844 27847 27850 27853 27856 27859 27862 27865 27868 27871 27874 27877 27880 27883 27886 27889 27892 27895 27898 27900 27903 27906 27908 27911 27914 27917 27920 27923 27926 27929 27932 27934 27937 27940 27943 27946 27949 27952 27955 27958 27961 27964 27967 27970 27973 27976 27979 27982 27985 27988 27991 27994 27997 28000 28003 28006 28009 28012 28015 28017 28020 28023 28026 28029 28032 28035 28038 28041 28044 28047 28050 28053 28056 28059 28062 28064 28067 28070 28073 28076 28078 28081 28084 28087 28090 28093 28096 28098 28101 28104 28107 28110 28112 28115 28118 28121 28124 28127 28130 28132 28135 28138 28141 28144 28147 28150 28153 28156 28159 28162 28165 28168 28170 28173 28176 28179 28182 28185 28188 28191 28193 28195 28198 28200 28202 28205 28208 28210 28213 28216 28218 28220 28223 28226 28228 28231 28233 28236 28239 28242 28245 28247 28250 28252 28255 28257 28260 28263 28265 28268 28270 28272 28275 28278 28281 28283 28286 28289 28292 28295 28298 28301 28304 28307 28310 28313 28316 28318 28321 28324 28326 28329 28332 28335 28337 28340 28342 28344 28347 28350 28352 28355 28357 28360 28362 28365 28367 28370 28373 28376 28378 28381 28384 28387 28389 28392 28394 28396 28399 28402 28404 28407 28410 28413 28415 28418 28421 28424 28427 28429 28432 28434 28437 28440 28443 28446 28449 28452 28455 28458 28461 28464 28466 28469 28472 28475 28477 28480 28483 28486 28489 28492 28495 28498 28501 28504 28507 28510 28513 28516 28518 28521 28524 28527 28530 28533 28536 28539 28542 28545 28548 28551 28554 28556 28558 28561 28564 28567 28570 28573 28576 28579 28582 28585 28588 28591 28594 28597 28600 28603 28606 28609 28612 28615 28618 28621 28624 28627 28629 28632 28635 28638 28640 28643 28646 28648 28651 28653 28656 28658 28661 28664 28667 28670 28673 28676 28679 28681 28683 28686 28689 28692 28695 28698 28700 28702 28705 28708 28711 28714 28717 28719 28722 28725 28728 28730 28733 28736 28738 28740 28743 28746 28749 28752 28754 28756 28759 28762 28764 28767 28770 28773 28775 28777 28779 28782 28785 28787 28790 28793 28796 28799 28802 28805 28808 28811 28814 28817 28820 28822 28825 28828 28831 28834 28837 28840 28842 28845 28848 28851 28853 28856 28858 28861 28864 28867 28870 28873 28875 28878 28881 28884 28887 28890 28893 28896 28899 28902 28905 28908 28910 28912 28915 28918 28921 28924 28927 28929 28932 28935 28938 28941 28944 28947 28950 28952 28955 28958 28960 28963 28966 28969 28971 28974 28977 28980 28983 28986 28989 28992 28995 28997 29000 29003 29005 29008 29010 29012 29015 29018 29021 29023 29026 29029 29032 29035 29038 29041 29043 29046 29049 29052 29055 29058 29061 29064 29067 29069 29072 29075 29078 29081 29084 29086 29089 29092 29095 29098 29101 29104 29107 29110 29113 29116 29119 29121 29124 29127 29130 29132 29135 29138 29141 29144 29147 29150 29153 29156 29158 29161 29163 29166 29169 29172 29174 29177 29180 29183 29186 29189 29192 29195 29198 29201 29204 29207 29210 29213 29216 29219 29222 29225 29228 29231 29234 29237 29240 29243 29246 29249 29252 29255 29258 29261 29264 29267 29270 29273 29276 29279 29282 29285 29288 29291 29294 29297 29300 29303 29306 29309 29312 29314 29317 29320 29323 29326 29329 29332 29335 29338 29341 29344 29346 29349 29352 29354 29357 29360 29363 29366 29369 29372 29375 29378 29381 29384 29386 29389 29392 29395 29398 29401 29404 29407 29409 29412 29415 29418 29421 29423 29425 29428 29431 29433 29436 29439 29441 29444 29447 29449 29452 29454 29457 29460 29463 29466 29469 29471 29474 29477 29480 29482 29485 29487 29490 29492 29495 29498 29501 29503 29506 29508 29511 29514 29517 29520 29523 29526 29529 29532 29535 29538 29541 29543 29546 29549 29551 29554 29557 29559 29562 29565 29568 29570 29573 29576 29578 29581 29584 29586 29588 29591 29594 29597 29600 29602 29604 29606 29609 29612 29615 29618 29621 29624 29627 29629 29632 29634 29637 29640 29643 29645 29647 29650 29653 29656 29658 29661 29664 29667 29670 29672 29675 29678 29681 29684 29687 29690 29693 29696 29699 29702 29704 29707 29710 29712 29715 29717 29720 29723 29726 29729 29732 29735 29738 29741 29743 29746 29749 29752 29755 29758 29761 29764 29767 29770 29773 29776 29779 29782 29785 29788 29791 29793 29796 29799 29802 29804 29807 29810 29812 29815 29818 29821 29824 29827 29830 29833 29836 29839 29841 29844 29847 29850 29852 29855 29858 29861 29864 29867 29870 29872 29875 29878 29881 29884 29887 29890 29893 29896 29899 29902 29905 29908 29911 29914 29917 29919 29922 29925 29928 29931 29934 29936 29939 29942 29945 29948 29951 29954 29957 29960 29963 29965 29968 29971 29973 29976 29978 29981 29984 29986 29989 29992 29995 29997 30000 30003 30005 30008 30011 30014 30017 30020 30023 30026 30029 30032 30035 30037 30040 30043 30046 30049 30052 30054 30057 30060 30063 30066 30069 30072 30075 30078 30081 30084 30086 30088 30091 30094 30097 30099 30102 30105 30107 30109 30111 30113 30116 30119 30122 30125 30128 30130 30133 30135 30138 30141 30143 30146 30148 30151 30154 30156 30159 30162 30164 30167 30169 30172 30175 30177 30180 30183 30186 30189 30192 30195 30198 30201 30204 30206 30209 30212 30215 30218 30220 30223 30226 30229 30232 30234 30236 30238 30241 30244 30247 30249 30252 30255 30258 30261 30264 30267 30269 30272 30275 30278 30281 30284 30287 30290 30293 30296 30299 30302 30305 30308 30311 30314 30317 30319 30322 30325 30328 30330 30333 30336 30338 30341 30343 30346 30348 30350 30353 30356 30359 30362 30364 30367 30370 30373 30376 30379 30382 30385 30388 30391 30394 30397 30400 30403 30406 30409 30412 30415 30418 30421 30424 30427 30430 30433 30436 30439 30442 30445 30448 30451 30454 30457 30460 30463 30466 30469 30472 30475 30478 30481 30484 30487 30490 30493 30496 30499 30502 30505 30508 30511 30514 30517 30520 30522 30525 30527 30530 30533 30536 30538 30541 30544 30547 30549 30552 30555 30558 30561 30564 30567 30570 30573 30576 30579 30582 30585 30588 30591 30594 30597 30600 30603 30606 30609 30612 30615 30617 30620 30623 30626 30629 30632 30635 30638 30641 30644 30646 30649 30652 30655 30658 30660 30663 30666 30669 30672 30675 30678 30681 30684 30687 30690 30693 30696 30699 30702 30704 30706 30709 30712 30714 30717 30719 30722 30725 30727 30730 30733 30736 30739 30742 30745 30748 30751 30754 30757 30760 30763 30765 30768 30771 30774 30776 30779 30782 30785 30788 30791 30794 30797 30800 30803 30805 30807 30810 30813 30816 30819 30821 30823 30826 30829 30832 30835 30838 30841 30844 30846 30849 30852 30854 30857 30860 30863 30866 30868 30871 30874 30877 30879 30882 30885 30888 30890 30893 30896 30898 30901 30904 30907 30910 30912 30915 30918 30921 30924 30927 30929 30932 30935 30938 30941 30944 30947 30950 30953 30956 30959 30962 30964 30966 30969 30972 30975 30978 30980 30983 30986 30989 30992 30994 30996 30999 31002 31005 31008 31010 31013 31016 31019 31022 31024 31027 31030 31033 31036 31039 31041 31044 31047 31050 31053 31056 31058 31061 31064 31066 31068 31071 31074 31077 31080 31083 31086 31088 31091 31093 31096 31099 31101 31104 31107 31109 31111 31114 31117 31120 31123 31126 31128 31131 31134 31137 31140 31143 31145 31148 31151 31154 31157 31160 31163 31166 31169 31172 31175 31178 31181 31184 31187 31190 31193 31196 31199 31202 31205 31208 31211 31214 31217 31220 31223 31226 31229 31232 31234 31237 31240 31243 31246 31249 31252 31254 31257 31260 31263 31265 31268 31271 31274 31277 31280 31283 31285 31288 31291 31293 31296 31298 31300 31303 31306 31308 31311 31313 31316 31319 31322 31325 31328 31331 31334 31337 31340 31343 31346 31349 31352 31355 
</DataArray>
<DataArray type="UInt32" Name="types" format="ascii">
5 5 5 5 5 5 5 5 5 5 5 5 5 5 5 3 5 5 5 5 5 5 5 5 3 5 5 5 5 3 5 5 5 5 5 3 5 5 5 5 5 5 3 5 5 5 5 5 3 5 5 5 5 5 5 5 5 3 5 5 3 5 5 5 5 5 3 5 5 3 3 5 5 3 5 3 5 5 5 5 5 5 3 5 5 5 5 5 5 5 5 5 3 5 5 5 5 5 5 5 5 5 5 3 5 5 3 5 5 5 3 5 5 5 5 5 5 5 5 5 5 5 3 5 5 3 5 3 5 5 5 3 5 5 3 5 3 5 5 5 3 5 5 5 3 5 5 5 3 5 3 3 5 5 5 3 3 5 5 5 5 5 5 5 5 5 5 5 5 5 5 5 5 5 5 5 5 5 5 5 5 5 5 5 5 5 5 5 5 5 5 5 5 5 3 5 5 5 5 5 5 5 5 5 5 5 5 5 5 5 5 5 5 5 5 5 5 5 5 5 5 5 5 5 5 3 5 5 5 5 5 5 5 5 3 3 5 5 5 5 5 3 5 5 5 5 5 5 5 5 5 5 5 5 3 5 5 5 5 3 5 5 3 3 5 3 5 5 5 3 5 3 5 5 5 5 3 5 5 5 5 3 5 5 5 5 5 5 5 5 5 5 5 5 5 5 5 5 5 5 5 5 5 5 5 5 5 5 5 5 5 5 5 3 5 5 5 5 5 5 5 5 5 5 5 5 5 5 5 5 5 5 5 5 3 5 5 5 5 5 5 5 3 5 5 3 5 5 5 5 5 5 3 5 5 5 5 5 5 5 5 5 5 5 5 5 5 5 3 5 5 5 5 3 5 5 3 5 3 5 5 5 5 5 5 5 3 5 5 5 5 3 5 5 5 5 5 5 5 5 5 5 5 5 3 5 5 5 5 5 5 5 5 5 5 5 5 5 5 5 5 5 5 5 5 5 5 5 5 5 5 5 5 5 5 5 5 3 5 5 3 5 5 5 5 5 5 5 5 3 5 5 5 5 5 5 5 5 5 5 3 5 5 5 3 3 5 5 5 3 5 5 5 5 5 5 5 5 5 5 3 5 5 3 5 5 3 5 5 5 5 5 5 5 5 5 5 5 5 3 5 5 5 5 5 5 3 5 5 3 5 5 5 5 5 5 3 5 5 5 5 3 3 5 5 5 3 5 3 5 5 5 5 5 5 5 3 5 5 5 5 5 5 5 5 5 5 5 5 5 5 5 3 3 5 5 5 5 5 5 5 5 5 5 5 3 5 5 5 5 5 5 5 5 5 5 5 5 5 5 5 5 5 5 5 5 5 5 3 5 3 5 5 5 3 5 5 5 5 5 5 3 5 5 5 5 5 5 5 5 5 5 5 5 5 5 5 5 5 5 5 5 5 5 5 5 5 5 5 5 5 5 5 5 5 5 5 5 3 5 5 3 5 5 5 5 5 5 5 5 3 5 5 5 5 5 5 5 5 5 5 5 5 5 5 5 5 5 5 5 5 5 3 5 5 3 5 5 5 3 5 5 3 5 5 5 5 3 5 3 5 5 5 5 3 5 5 5 5 3 3 5 5 5 3 5 3 5 5 5 5 5 5 5 5 5 3 3 5 3 5 5 5 5 5 5 5 5 5 5 5 5 5 5 5 5 5 5 5 5 5 5 5 3 5 5 3 5 5 5 5 5 5 5 5 5 5 3 5 5 5 5 5 5 3 5 5 5 3 5 5 5 5 5 5 5 5 5 5 5 5 5 5 5 5 3 5 5 3 5 5 5 3 5 5 3 3 5 5 5 5 5 3 5 5 5 5 5 5 5 5 3 5 5 5 5 5 5 5 5 3 5 3 5 5 5 3 5 3 5 5 5 5 5 3 5 3 5 5 5 5 5 3 5 5 3 5 5 5 5 3 3 5 5 5 3 5 5 5 5 3 5 5 3 5 5 5 5 5 5 5 5 5 5 5 5 5 5 3 5 5 5 5 3 5 5 5 3 5 3 3 5 5 5 5 5 5 5 3 3 5 5 5 5 3 5 3 5 5 3 5 5 3 5 5 5 5 5 5 5 5 5 3 3 5 5 5 3 3 5 5 5 5 3 5 3 5 5 3 5 5 5 5 3 5 5 5 5 3 3 5 5 5 5 5 5 5 3 3 5 5 3 5 5 5 5 5 5 5 3 5 5 3 5 5 3 3 5 5 5 5 3 5 5 5 5 5 3 5 5 5 5 5 5 5 5 5 5 5 5 5 5 5 5 3 5 5 5 5 3 5 3 5 3 5 5 5 5 5 3 5 5 5 5 5 5 5 3 5 5 5 5 5 5 5 5 5 5 5 5 3 5 3 5 5 3 5 5 5 5 5 5 3 5 3 5 5 5 5 5 5 3 5 5 5 3 5 5 5 5 5 3 5 5 5 3 5 3 3 5 5 3 5 5 5 5 5 5 5 3 5 3 5 5 5 5 5 5 5 5 5 3 5 5 3 3 5 5 5 5 5 3 5 3 5 5 5 5 3 5 3 5 3 5 5 5 5 5 5 5 5 5 5 5 3 5 5 5 5 5 5 3 5 5 5 5 5 5 5 5 3 5 5 3 5 3 5 5 5 5 3 5 5 5 5 5 5 5 5 5 5 5 5 3 3 5 5 5 3 3 5 3 3 3 3 5 5 5 5 5 5 3 5 5 5 5 5 5 5 5 5 5 3 3 5 5 5 5 5 5 5 5 5 5 5 5 5 5 5 5 3 5 3 5 5 5 5 5 3 5 3 5 5 5 5 5 5 3 5 5 5 5 5 5 5 5 5 5 5 5 5 5 5 5 5 5 5 5 5 3 5 5 5 5 5 5 5 5 5 5 3 5 5 3 5 5 5 5 5 5 5 3 3 3 5 5 3 5 5 5 5 5 5 5 5 5 5 5 5 5 5 5 5 5 3 5 5 3 5 5 5 5 3 3 3 3 5 3 5 3 5 5 5 5 5 5 5 5 3 5 5 3 5 5 5 5 5 5 5 3 5 5 5 3 5 3 5 5 5 5 3 5 5 3 5 5 5 5 5 5 5 5 5 5 5 5 5 5 5 5 5 5 5 5 5 5 3 5 5 5 3 5 5 5 5 5 5 5 3 5 5 5 3 5 5 5 5 5 5 5 5 5 3 5 5 5 5 5 3 5 5 5 3 3 5 5 5 5 5 5 5 3 5 5 5 5 3 5 5 3 5 5 5 5 5 5 3 5 5 5 5 5 5 5 5 5 5 5 5 5 5 5 5 5 5 5 5 5 5 5 5 5 5 5 5 5 5 5 3 5 5 5 5 5 5 5 3 5 3 5 5 5 3 5 5 5 5 5 3 5 5 5 5 5 5 5 5 5 5 5 5 5 5 5 5 5 5 5 5 5 5 3 5 5 5 3 5 5 5 3 5 5 5 5 5 5 5 5 5 3 5 5 5 5 5 5 3 5 5 3 5 5 5 5 5 5 5 5 5 3 5 5 5 5 5 5 5 5 5 5 3 5 5 5 5 5 5 5 5 5 5 5 5 5 5 3 5 5 3 5 5 5 5 5 3 5 5 5 5 5 5 5 5 5 3 5 5 5 5 5 5 5 3 5 5 5 3 5 5 5 5 5 5 5 5 5 5 5 5 5 5 5 5 5 5 5 5 5 5 5 5 5 5 5 3 5 5 5 5 5 5 5 5 5 5 5 5 5 5 5 5 5 5 5 3 5 5 5 5 5 5 5 5 5 5 5 5 5 5 5 5 5 5 5 5 3 5 5 5 5 5 5 5 5 3 5 5 5 5 5 5 5 5 5 5 3 5 3 5 5 5 5 3 5 5 5 5 5 5 5 5 5 5 5 5 5 5 5 5 5 5 5 5 5 5 5 5 5 5 5 3 5 5 3 5 5 5 5 5 5 3 5 5 5 3 5 5 5 5 5 3 5 5 5 3 5 5 5 5 3 5 5 5 5 5 3 5 5 5 5 5 5 5 5 5 5 3 5 3 5 5 3 5 3 5 5 5 5 5 5 3 5 5 5 5 5 5 5 5 3 5 5 5 3 5 3 5 5 5 5 5 5 5 5 5 5 3 5 5 5 5 5 5 5 5 5 5 5 5 5 5 5 5 5 5 5 5 5 5 5 5 5 5 5 5 5 5 5 5 5 5 5 5 5 5 5 5 5 5 5 5 5 5 5 5 5 5 5 5 5 5 5 5 5 5 5 5 3 5 5 5 5 5 5 5 3 5 5 5 3 5 3 5 5 5 5 5 5 5 5 5 3 5 5 5 5 5 5 5 5 5 5 5 5 5 5 5 5 5 5 5 5 5 5 5 5 5 5 5 5 5 5 5 5 5 5 5 5 5 5 5 5 5 5 5 5 5 5 5 5 5 5 5 5 5 5 5 5 3 5 5 5 5 5 5 5 5 5 5 5 5 5 3 5 5 5 5 5 5 5 5 5 5 5 5 5 5 3 5 5 5 5 5 3 5 5 5 5 5 5 5 5 5 5 5 5 5 5 5 5 5 5 5 5 5 5 5 5 5 5 5 5 3 5 3 5 5 5 5 5 3 5 5 3 5 5 5 5 5 5 5 5 5 5 5 5 5 3 5 5 5 5 5 3 5 5 5 5 5 5 5 5 5 5 5 5 5 5 5 5 5 5 5 5 3 5 5 5 5 5 3 5 5 5 5 5 5 3 5 5 5 5 5 5 5 5 5 5 5 5 5 5 5 3 5 5 3 5 5 5 5 5 5 5 5 5 5 5 5 5 5 5 5 5 5 5 5 5 3 5 5 5 3 5 5 5 5 5 5 5 5 5 5 5 5 5 5 5 5 5 5 5 5 5 5 5 5 5 5 5 5 5 5 5 5 5 5 5 5 3 5 5 5 3 3 5 3 5 5 5 5 5 5 5 5 5 5 5 5 5 5 3 5 5 5 5 5 5 5 5 5 5 5 5 5 5 5 5 5 5 5 5 5 5 5 5 5 5 3 5 5 5 5 5 5 5 5 5 5 5 3 5 5 5 3 5 5 5 5 5 3 5 5 5 5 5 5 5 3 5 5 5 5 5 5 5 5 5 5 3 5 5 5 5 5 5 5 5 5 3 5 5 5 5 5 5 5 5 5 5 5 5 5 5 5 3 5 5 5 3 5 3 5 5 3 3 5 5 5 5 5 3 5 5 5 5 5 5 5 5 3 3 3 5 5 5 3 5 5 3 3 5 5 5 5 5 5 5 5 5 5 5 5 5 5 5 5 5 5 5 5 5 5 5 5 5 5 5 5 5 5 5 5 5 5 5 5 5 5 5 5 5 5 5 5 5 5 5 5 5 5 5 5 5 5 3 5 5 5 5 3 5 5 5 5 5 3 5 5 5 5 5 5 5 5 5 5 5 5 3 5 5 5 5 3 5 5 5 5 5 5 5 5 5 5 5 5 5 5 5 5 5 5 5 5 5 5 5 5 5 5 3 5 3 5 5 5 5 5 5 5 5 5 5 3 5 5 5 3 5 5 5 5 5 5 3 5 5 5 5 5 5 3 5 5 5 5 5 3 3 3 3 5 5 5 5 5 5 5 5 5 5 5 5 5 5 5 5 5 5 5 3 5 3 5 5 5 5 5 5 5 3 5 5 5 5 5 3 5 5 5 3 5 5 3 3 5 3 3 3 5 5 5 5 5 5 5 5 3 5 5 3 3 3 5 5 5 3 3 5 5 3 5 5 5 3 5 5 5 3 5 5 5 5 5 5 5 5 5 5 5 5 3 5 5 5 5 5 5 5 5 5 5 3 5 5 5 5 5 5 5 3 5 5 5 3 5 5 5 5 5 5 5 3 5 5 5 5 5 5 5 5 5 5 5 5 5 5 5 5 5 5 5 5 5 5 3 5 5 5 5 5 5 5 5 5 5 5 5 5 5 5 5 5 5 5 5 5 5 5 3 5 5 3 5 5 5 5 5 5 5 5 5 5 5 5 5 5 5 5 5 5 5 5 5 5 5 5 5 3 5 5 5 5 5 5 5 5 5 5 5 5 5 3 5 5 5 5 5 5 5 5 5 5 5 5 5 3 5 5 3 5 5 5 5 5 5 5 5 3 5 5 5 3 5 5 5 5 5 5 5 3 5 3 5 3 5 5 3 5 3 5 5 5 5 5 3 5 3 5 5 5 3 5 5 5 5 5 5 5 5 5 5 5 5 3 5 5 5 5 3 5 5 3 5 5 5 5 5 5 5 3 5 5 5 3 5 5 5 5 3 5 5 3 5 5 3 5 3 5 5 5 5 5 5 5 5 5 3 5 5 5 5 3 3 5 5 5 5 5 5 5 5 3 5 3 5 5 5 3 3 5 5 5 5 5 5 5 3 5 5 5 5 5 3 5 5 5 3 5 5 5 5 5 5 5 3 5 5 5 5 5 5 5 5 5 5 5 5 3 5 5 3 5 5 5 5 5 5 5 5 5 5 3 5 5 5 5 5 5 5 5 5 5 5 5 3 5 5 5 5 5 5 5 5 5 5 5 5 5 5 5 3 5 5 5 3 5 5 5 5 5 5 5 5 5 5 5 5 5 5 5 3 5 3 5 5 5 5 5 5 5 5 5 5 5 5 5 3 5 5 5 5 5 5 5 5 5 5 5 5 5 5 5 5 5 5 5 5 5 5 5 5 5 5 5 5 5 5 5 5 5 5 5 5 5 5 5 5 5 5 5 5 5 5 3 5 5 5 5 5 3 5 5 5 5 5 5 5 5 5 5 5 5 5 5 5 5 5 3 5 5 5 5 5 5 5 5 5 5 5 5 5 5 5 5 5 5 5 5 5 5 5 5 5 5 5 5 5 5 5 5 5 3 5 5 5 3 5 5 5 5 5 5 5 5 5 5 5 3 5 5 5 5 5 5 3 5 5 5 5 5 3 5 5 5 5 5 5 5 5 5 5 5 3 5 5 5 5 3 5 5 3 5 5 5 5 3 3 3 3 5 5 3 3 5 3 3 5 5 5 5 5 5 5 5 5 5 3 5 5 5 5 5 5 5 5 5 5 5 5 5 5 5 5 3 5 3 5 5 3 5 5 5 3 5 5 5 3 5 5 5 5 5 5 5 5 5 5 3 5 5 5 5 5 5 5 5 5 5 3 5 5 5 5 5 5 3 5 5 5 5 5 5 5 5 5 5 5 5 5 5 3 5 5 5 5 3 5 5 5 5 5 3 5 5 5 5 5 5 5 5 5 5 5 5 5 5 5 5 5 5 5 5 5 5 5 5 5 5 5 5 5 5 5 5 5 5 5 5 5 5 5 5 5 5 5 5 5 5 5 5 5 5 5 5 5 5 5 5 5 5 5 5 5 5 5 5 5 5 5 5 5 5 5 5 5 5 5 5 5 5 3 5 5 5 5 5 5 5 5 5 5 5 5 5 5 5 5 5 3 5 5 5 5 5 5 5 3 5 5 5 5 3 5 5 5 5 5 5 5 5 5 5 3 5 5 5 3 5 3 5 5 5 5 5 3 5 5 3 3 5 5 5 5 5 5 5 3 5 5 5 5 5 5 5 5 5 5 5 5 3 5 5 5 5 3 5 5 5 5 5 5 5 5 3 3 5 5 5 5 5 5 5 5 5 5 5 5 5 3 5 3 5 5 3 5 5 3 5 5 5 5 5 5 5 3 5 5 5 3 5 5 5 5 5 3 5 5 5 5 5 5 3 5 5 5 5 5 5 5 5 5 5 3 5 5 5 5 5 5 5 5 5 5 5 5 5 3 5 5 5 5 5 5 5 5 5 5 5 5 3 5 5 5 5 3 5 5 5 3 3 5 5 5 5 5 5 5 3 3 5 5 5 5 5 3 5 5 5 5 5 5 5 3 5 5 3 5 5 5 5 5 3 5 5 5 5 5 5 5 3 5 5 5 5 3 5 5 5 5 5 5 5 5 5 5 5 5 5 5 5 5 5 3 5 5 5 5 5 5 5 3 5 5 5 5 5 5 5 5 5 5 5 5 5 5 5 5 5 5 3 5 5 5 5 5 5 5 5 5 5 3 5 5 5 5 5 5 5 5 5 5 5 5 5 5 5 5 5 5 5 5 5 5 5 5 5 3 5 5 5 5 5 5 5 3 5 5 5 5 5 3 5 3 3 5 5 5 5 5 5 5 5 5 5 5 5 5 5 5 5 3 5 5 5 3 5 5 5 5 5 3 5 5 5 5 5 5 5 5 5 5 5 3 5 5 3 5 5 5 5 5 5 5 5 5 5 5 5 5 5 5 5 5 5 5 5 5 5 5 5 5 5 5 5 5 5 5 5 5 5 5 5 3 5 3 5 5 5 3 5 5 5 5 5 5 5 5 5 5 5 5 5 3 5 5 5 3 5 5 5 5 5 5 5 5 5 5 5 5 5 5 5 5 5 5 5 5 5 5 5 5 5 5 3 5 5 5 3 5 5 5 5 5 5 5 5 5 5 5 5 3 5 5 5 3 5 5 5 5 5 3 5 5 5 5 5 5 5 5 5 5 5 5 5 5 5 5 5 5 5 5 5 3 5 5 5 5 5 5 5 5 5 5 5 5 5 5 5 5 3 5 3 5 5 5 5 5 5 5 5 5 5 5 5 5 5 5 5 5 5 5 3 5 5 3 5 5 5 5 5 5 3 5 5 5 5 5 5 5 5 5 5 5 5 5 3 5 3 3 5 5 5 5 3 5 5 5 5 5 5 5 5 5 5 5 5 5 5 5 5 5 5 5 5 5 5 5 5 3 5 5 5 5 5 5 5 5 5 5 5 5 3 5 5 5 5 3 5 3 5 5 5 5 5 3 5 5 5 5 5 5 5 5 5 5 5 3 3 3 5 5 3 3 5 5 5 5 5 3 5 5 3 5 5 5 5 5 5 5 3 5 5 5 5 5 5 5 5 5 5 5 5 5 5 3 5 5 5 5 5 5 5 5 5 3 5 5 3 5 5 3 5 3 5 5 3 5 3 5 3 5 5 5 3 5 3 5 3 3 3 5 5 5 3 5 5 3 3 3 5 5 5 3 5 5 5 3 3 5 5 5 3 3 3 5 5 5 5 5 5 5 5 5 5 5 3 5 5 5 5 5 5 3 5 5 3 5 5 5 5 5 5 5 5 5 5 5 5 5 5 3 5 5 3 3 5 3 5 3 5 5 5 5 5 5 5 5 5 3 5 5 5 5 5 3 5 5 5 5 5 5 5 5 5 5 5 5 3 5 5 5 5 3 3 5 5 5 5 3 3 5 3 3 5 5 5 5 5 5 5 5 5 5 5 3 3 5 5 5 5 5 5 5 5 5 5 5 5 5 5 5 5 5 5 5 5 5 5 5 5 3 5 5 5 5 5 3 5 3 5 5 5 5 5 5 5 5 5 5 5 3 5 5 5 3 5 5 5 5 5 5 5 5 5 5 5 5 5 5 5 5 5 5 5 5 5 5 3 5 5 5 3 5 5 5 5 5 5 5 5 5 5 5 5 5 5 5 5 5 5 5 5 5 5 5 5 5 5 5 5 5 5 5 5 5 5 5 5 5 5 5 5 5 5 5 5 5 5 3 5 5 3 5 5 5 3 5 5 5 5 5 5 5 5 5 5 5 5 5 5 5 5 5 5 5 5 5 5 5 5 5 5 3 3 5 3 5 5 3 3 5 5 3 3 5 5 5 5 5 5 3 5 5 5 5 5 5 5 3 5 3 5 3 5 5 5 5 3 5 5 5 5 5 3 5 5 5 5 5 5 5 5 5 5 5 5 3 3 3 5 5 5 3 5 5 5 5 5 5 5 3 5 3 5 3 5 3 5 5 5 3 3 5 5 5 5 5 5 5 5 5 5 3 5 3 5 5 5 5 5 3 5 3 5 5 5 5 5 5 5 5 5 3 3 5 5 3 5 3 3 5 5 5 5 3 3 5 5 5 3 5 5 3 5 5 5 5 3 5 5 5 5 3 5 3 5 5 5 5 5 5 5 5 3 5 5 3 5 5 3 5 5 5 5 3 5 3 5 3 3 5 3 5 3 3 5 5 3 3 3 3 3 5 5 5 5 5 5 5 5 5 5 5 5 5 5 5 5 5 5 3 5 5 5 3 3 5 5 5 5 5 5 3 5 5 5 3 3 5 5 5 5 5 3 5 3 5 3 3 5 5 5 5 5 3 5 3 5 3 5 5 3 5 5 5 3 5 5 3 3 5 3 5 3 5 5 5 3 3 5 3 3 5 5 5 5 5 5 5 5 5 3 5 3 5 5 5 3 5 5 3 3 5 3 5 5 5 5 5 3 3 5 5 3 5 5 5 5 5 5 5 5 3 5 5 5 5 5 3 5 3 3 5 5 5 5 3 5 3 5 3 5 3 5 5 5 5 5 5 3 5 5 5 5 5 5 5 5 5 5 5 5 5 5 3 5 3 5 5 3 5 5 5 5 5 5 5 5 3 5 3 5 5 5 3 5 5 5 5 5 3 5 5 5 5 3 5 3 5 3 5 5 5 3 5 5 5 3 5 3 5 3 5 3 5 3 5 5 5 5 5 5 5 5 5 5 5 5 5 5 5 5 5 5 5 5 5 5 5 3 5 5 5 5 5 5 5 5 5 5 5 5 5 5 5 5 5 5 5 5 5 5 5 5 5 5 5 5 5 5 5 5 5 5 5 5 3 3 5 5 5 5 5 5 3 5 5 3 5 3 5 3 5 5 5 3 5 5 3 5 5 3 5 5 3 5 5 5 5 5 5 5 5 5 5 5 5 5 5 5 5 5 5 5 5 5 3 5 5 5 5 5 5 5 3 5 3 5 5 5 5 5 5 5 5 5 5 5 5 5 5 3 5 5 5 5 5 5 5 5 5 5 5 5 3 5 5 5 5 5 5 3 5 3 3 5 5 5 5 5 5 5 5 3 5 5 5 5 5 5 5 5 5 3 5 5 5 5 5 5 5 5 5 5 5 5 5 5 5 3 5 5 5 3 5 5 5 5 5 5 5 5 5 5 5 5 5 5 5 5 3 5 3 5 5 5 3 5 5 3 5 5 5 5 5 5 5 5 5 5 5 5 5 5 5 5 5 5 5 3 5 5 3 5 5 5 5 5 5 5 5 5 5 5 5 5 5 5 5 5 5 5 5 5 5 5 5 5 5 5 5 5 5 5 5 5 5 5 5 5 5 5 5 5 5 5 5 5 5 5 3 5 5 5 5 5 5 5 5 5 5 5 5 3 5 5 5 5 5 5 3 5 5 3 3 5 3 3 3 5 5 5 5 5 3 5 5 3 3 5 5 3 5 3 3 3 5 5 3 5 5 5 5 3 5 5 5 5 5 3 5 5 5 5 5 5 3 5 3 5 3 5 5 5 5 5 5 5 5 3 5 5 5 5 5 5 5 5 5 5 3 5 5 3 5 5 5 5 5 5 5 5 5 5 5 3 5 5 5 5 5 5 5 5 3 3 5 5 3 5 5 5 5 3 5 5 3 5 5 5 3 5 3 3 5 5 5 3 5 3 3 5 3 5 5 3 3 5 5 3 5 5 5 3 3 5 5 5 5 3 5 5 5 5 3 5 3 3 5 3 3 5 5 5 5 5 5 5 5 3 5 5 5 5 5 5 5 3 3 5 5 3 5 5 5 3 5 3 5 3 3 5 3 5 5 3 5 3 5 5 3 3 5 5 5 5 5 3 5 5 5 5 3 3 5 5 5 5 5 3 5 5 3 5 5 5 5 5 5 5 3 5 5 5 3 5 5 5 5 5 3 5 5 5 3 5 3 5 5 5 5 5 3 5 5 5 5 5 5 5 5 3 5 5 5 5 5 5 5 5 5 3 5 5 5 5 5 5 5 5 5 3 3 5 5 5 5 5 5 3 5 3 5 5 5 3 3 5 5 3 5 5 5 5 5 5 5 5 5 5 5 5 5 5 5 5 5 5 5 5 5 5 5 5 5 5 5 5 5 5 5 5 5 5 3 5 5 3 5 5 5 3 5 5 5 3 5 5 5 5 5 5 3 3 5 5 5 5 5 5 3 5 5 5 5 5 5 5 5 5 5 5 3 5 5 5 3 5 5 5 5 5 5 5 5 5 5 5 3 5 5 5 5 5 3 5 3 5 5 5 3 5 5 3 3 5 3 5 5 5 5 5 3 5 5 5 5 5 5 5 5 5 3 5 5 5 3 5 5 5 5 5 5 3 5 5 5 3 5 5 5 5 5 5 5 5 5 5 3 5 5 3 5 3 3 5 5 3 5 3 3 3 5 5 5 5 5 5 5 3 3 5 5 5 3 5 5 3 5 5 5 5 5 5 5 5 5 3 5 3 5 3 5 5 5 5 5 5 5 5 5 3 5 5 5 5 3 5 5 5 5 5 5 5 5 5 5 3 5 5 5 5 3 5 5 5 5 5 5 5 5 5 5 5 5 3 3 3 5 5 5 5 5 5 5 3 5 5 3 5 3 5 5 5 5 5 3 3 5 5 5 5 5 5 5 5 5 3 5 5 3 3 5 5 5 5 3 5 3 5 5 5 5 3 5 5 5 3 5 5 5 5 5 5 5 5 5 5 5 5 5 5 5 5 5 5 5 5 5 5 5 5 5 5 3 3 5 5 5 5 3 5 3 3 5 3 5 5 5 5 5 5 5 5 5 5 3 5 5 5 5 5 5 5 3 5 5 5 3 5 5 5 5 3 5 5 5 5 5 5 3 5 5 5 5 5 5 3 3 5 3 5 3 5 5 5 5 5 5 3 5 5 5 5 5 3 5 5 5 5 5 5 3 5 5 5 5 5 5 5 3 5 5 5 3 5 5 5 3 5 5 5 3 3 5 3 5 5 5 5 5 5 5 5 5 5 5 5 5 5 5 5 5 5 5 5 5 5 3 3 5 3 5 5 5 5 3 5 5 3 5 5 3 5 5 5 5 3 5 5 3 3 5 5 5 5 3 5 5 5 5 5 5 5 5 5 5 5 5 5 5 3 5 5 5 5 3 5 5 5 3 5 5 5 5 3 5 3 5 3 5 3 5 5 3 5 5 5 5 5 5 3 3 5 5 3 5 5 5 5 3 5 5 5 5 5 5 5 5 5 5 5 3 5 5 5 5 3 3 3 5 5 3 3 5 5 3 3 5 5 5 5 5 3 5 5 5 5 5 3 3 5 3 5 5 5 5 5 5 5 5 5 5 3 5 5 5 5 5 5 5 5 5 5 5 5 5 5 5 5 5 5 5 5 5 5 5 5 5 5 3 5 5 5 3 5 5 3 5 5 5 5 5 5 5 5 5 5 5 3 5 5 5 5 5 5 5 5 5 5 5 5 5 5 5 5 5 5 5 5 3 3 5 5 5 5 3 5 5 3 5 3 5 5 5 5 5 3 5 3 5 5 5 3 3 5 5 5 5 3 3 5 5 5 5 5 5 5 5 5 5 5 3 3 3 5 5 5 3 5 3 5 5 3 5 5 5 5 3 5 5 5 3 5 3 5 3 5 5 5 3 3 3 3 5 5 3 5 5 3 5 5 3 3 5 5 3 5 5 3 5 5 5 3 5 5 5 5 5 5 5 5 5 5 5 5 5 5 5 5 5 5 5 5 5 5 5 5 5 5 5 3 5 5 5 5 5 3 5 5 3 5 5 5 5 5 5 5 5 3 5 5 5 5 5 5 5 5 5 5 5 5 3 5 5 5 5 5 5 3 5 3 5 5 5 5 5 3 5 5 5 5 5 3 5 5 3 5 5 5 3 5 5 5 3 5 5 5 5 5 5 5 5 3 5 5 5 5 5 5 5 5 5 3 5 5 5 5 5 5 5 5 3 5 5 3 5 5 5 5 5 5 5 5 5 5 5 5 5 5 5 3 5 5 3 5 5 3 5 5 3 5 3 5 5 5 5 5 5 5 5 5 5 5 3 5 5 3 5 5 5 5 3 5 5 3 5 5 5 3 5 5 5 3 5 3 3 5 5 5 3 5 5 5 5 3 5 5 5 5 5 3 5 5 3 3 3 5 5 5 5 5 5 5 3 5 3 5 5 3 5 5 5 5 5 3 5 5 3 5 3 3 5 5 5 5 5 3 5 5 5 5 5 5 5 3 5 5 3 5 5 3 5 3 5 5 5 5 5 5 3 5 3 5 5 5 5 5 5 5 5 5 5 5 5 5 5 3 3 5 5 3 5 5 5 3 5 5 5 5 5 5 5 5 5 5 3 5 5 3 5 5 5 5 5 5 5 5 3 5 5 5 5 5 5 5 5 5 5 5 5 5 5 5 5 5 5 5 5 5 5 5 5 3 5 3 5 5 5 5 5 5 3 5 5 3 5 5 5 5 5 3 5 5 5 5 3 3 5 3 5 5 5 5 5 5 3 3 5 5 5 5 5 5 3 5 5 5 3 5 5 5 5 5 5 5 3 5 5 5 5 5 3 5 5 5 5 5 5 3 5 5 5 5 3 3 5 5 5 5 5 5 5 5 3 5 3 5 5 3 5 3 5 3 5 3 5 5 5 3 5 5 5 5 5 5 3 5 5 5 5 3 5 3 5 5 3 5 5 5 5 5 5 5 5 5 5 3 5 5 5 5 5 3 5 5 3 5 5 5 5 5 5 3 5 5 5 5 5 5 5 5 5 5 5 5 5 5 3 5 5 5 5 5 5 3 5 5 5 5 3 5 5 5 5 5 5 5 3 5 5 5 5 3 5 5 5 5 5 5 5 5 5 5 5 5 5 5 5 5 5 5 5 5 5 3 5 5 5 5 5 3 5 5 5 5 5 5 5 5 5 5 5 5 5 5 5 5 5 5 5 5 5 5 5 5 5 5 5 5 3 3 5 5 5 5 3 5 3 5 5 5 5 5 5 5 5 5 5 5 5 5 5 5 5 5 5 5 5 5 5 5 5 5 5 5 5 5 3 5 5 5 3 5 5 5 5 5 5 5 5 5 5 5 5 5 5 5 5 5 5 5 3 5 5 5 5 5 5 5 5 5 5 5 5 5 5 5 5 5 5 5 5 5 5 5 5 5 5 5 5 5 5 5 5 5 5 5 5 5 3 5 5 5 5 5 5 5 5 3 5 5 5 5 5 5 5 5 5 3 3 5 5 5 5 5 5 5 5 5 5 5 3 5 5 5 5 5 5 3 5 5 5 5 5 5 5 5 5 5 5 5 5 5 5 3 5 3 5 3 3 5 3 5 5 5 5 3 5 5 5 5 5 5 5 5 5 5 5 5 5 3 5 5 5 5 3 5 5 5 5 5 5 5 5 5 5 5 5 5 5 5 5 5 5 5 5 5 5 5 3 5 5 3 5 5 5 5 5 5 5 5 5 5 5 5 5 5 5 5 5 5 5 5 5 5 3 5 3 3 5 5 5 5 5 5 5 5 3 5 3 5 5 5 5 5 5 3 5 5 5 3 5 5 5 5 3 3 5 5 5 5 5 5 5 5 5 5 5 5 5 3 5 5 5 5 5 3 5 5 3 5 5 5 5 5 5 3 5 5 5 5 5 5 5 5 5 5 5 5 3 5 5 5 5 5 5 5 3 5 5 5 5 5 5 5 5 5 5 3 5 3 5 5 5 3 3 5 5 3 5 3 3 5 5 5 5 5 3 5 3 5 5 5 5 5 5 5 5 5 5 5 5 5 5 5 3 5 5 5 3 5 5 3 5 3 5 3 5 5 3 3 5 5 5 5 5 5 3 5 5 3 5 5 5 5 5 3 5 5 3 5 3 5 3 5 5 5 3 5 3 3 5 5 3 5 5 3 5 5 5 3 5 5 5 5 5 5 3 5 5 3 3 5 3 5 5 3 5 5 5 5 5 3 5 5 5 5 5 5 3 5 5 3 5 3 3 5 5 5 5 5 3 5 5 5 5 5 5 5 5 3 5 3 5 5 5 3 5 5 3 5 5 5 5 3 5 5 5 5 5 5 5 5 5 3 5 5 5 5 5 3 5 5 5 5 3 5 5 5 5 5 3 5 5 5 5 3 5 5 5 5 5 5 5 5 5 5 5 5 5 3 5 5 5 3 5 3 5 5 3 5 5 5 3 5 5 5 5 5 3 5 5 5 5 5 5 5 5 5 5 5 5 5 3 3 5 5 5 5 5 3 5 3 5 5 3 5 3 5 5 3 5 5 5 5 3 3 3 5 5 5 3 5 3 5 5 5 5 3 3 5 5 5 3 5 5 5 5 5 5 5 5 5 5 3 5 3 5 5 5 5 5 5 5 5 5 5 5 5 5 5 5 5 3 5 5 5 5 5 5 3 3 5 5 3 5 5 5 5 5 5 3 5 5 5 5 5 5 5 5 5 5 5 5 3 5 5 5 5 5 5 5 5 5 5 5 3 5 5 5 5 5 5 5 5 5 5 3 5 5 5 3 5 5 5 5 5 5 5 5 3 5 5 3 5 5 5 5 5 3 5 5 5 5 5 3 5 3 5 5 5 5 5 5 5 5 5 5 5 5 5 5 5 5 5 5 5 5 5 5 5 5 5 5 5 5 5 5 5 5 5 5 5 5 5 5 5 5 5 5 5 5 5 5 5 3 5 5 5 5 5 5 3 5 5 5 5 5 5 5 5 5 5 5 5 5 5 5 3 5 3 5 5 5 5 5 5 5 5 5 5 5 5 5 3 5 5 5 5 3 5 5 5 5 5 5 5 5 5 5 5 5 3 3 5 5 5 5 5 5 5 5 5 5 5 5 5 5 5 5 5 5 5 5 5 5 5 5 5 5 5 5 5 5 5 5 5 5 5 5 5 3 5 5 5 5 5 5 5 5 5 5 5 5 5 5 5 5 5 5 3 5 3 3 3 5 5 5 3 5 5 3 3 5 5 5 3 5 5 5 5 5 5 3 5 5 5 5 5 5 5 5 5 3 3 5 5 5 3 5 5 3 5 5 3 5 5 3 5 5 5 3 5 3 5 3 5 5 3 5 5 5 3 5 5 5 3 3 5 5 5 5 5 5 5 5 5 3 5 3 5 5 5 3 5 3 5 5 5 3 5 3 3 5 5 5 5 5 5 3 3 5 5 3 3 5 5 5 3 5 5 3 5 5 3 5 5 5 5 3 5 3 5 3 5 5 5 3 5 3 5 5 5 5 3 3 5 3 5 5 5 5 3 5 5 5 3 3 3 3 3 5 5 3 5 5 3 3 3 5 5 3 3 3 5 5 3 5 5 3 3 5 3 5 3 3 5 5 5 5 3 3 5 5 5 3 5 3 5 5 5 5 5 5 3 5 5 5 5 3 5 5 3 5 3 5 3 5 3 5 5 3 5 5 5 5 5 5 5 5 5 5 5 3 5 5 5 3 3 5 3 5 5 5 5 3 5 5 5 3 5 3 5 5 5 5 3 3 5 5 5 5 3 5 5 3 3 5 5 3 3 5 5 3 5 5 5 3 3 5 5 5 5 3 5 3 5 3 5 3 5 3 5 5 3 3 5 5 3 5 5 3 5 3 3 5 5 3 5 5 3 5 3 5 3 5 3 5 5 3 5 5 5 5 5 3 3 5 5 5 5 5 5 5 5 5 5 5 5 5 5 3 5 3 5 5 3 5 5 5 5 3 5 5 3 5 3 5 5 5 5 5 5 5 5 5 5 3 5 5 5 5 5 5 5 5 5 5 5 5 5 5 5 3 3 5 5 5 3 3 5 5 5 5 3 5 5 5 5 5 3 5 5 5 5 5 3 5 5 5 5 5 5 5 5 5 5 5 5 5 5 3 5 5 3 3 5 3 5 5 3 5 5 3 5 5 5 5 5 5 3 5 5 3 5 3 5 5 5 5 5 5 5 5 5 5 5 5 5 3 5 5 5 3 5 5 3 5 5 3 5 5 5 3 5 3 5 5 3 5 5 3 5 3 5 5 3 5 5 5 5 3 5 5 5 5 3 5 5 5 3 5 5 5 5 5 3 5 5 5 5 5 5 5 5 3 5 5 5 5 5 5 5 5 5 5 3 5 3 5 5 5 3 5 5 5 5 5 5 5 5 5 5 5 5 5 5 5 5 5 5 5 5 5 5 5 5 5 5 5 5 5 5 5 5 5 5 5 5 5 3 5 5 5 3 5 5 5 5 5 5 5 5 5 5 5 5 5 5 5 5 3 5 5 5 5 3 5 5 5 5 5 5 5 5 5 5 5 5 5 5 5 5 3 5 5 5 5 5 5 5 5 5 5 5 5 5 5 5 5 5 5 5 5 5 5 5 5 5 5 5 5 5 5 3 5 3 5 5 5 3 5 5 5 5 5 5 5 5 5 5 5 5 5 5 5 5 5 5 5 5 5 5 3 5 5 5 3 5 5 5 5 3 5 5 5 5 5 5 3 5 5 5 5 5 5 5 5 3 5 5 5 5 5 5 3 5 5 3 3 5 5 5 3 3 5 5 3 5 3 5 3 3 5 5 5 5 3 5 3 5 5 5 5 3 5 5 3 5 3 5 5 5 3 3 3 5 3 5 3 5 3 5 3 3 5 3 3 5 5 5 3 5 3 5 5 5 5 5 3 5 3 5 5 5 5 5 3 5 3 5 3 5 5 5 5 5 3 5 5 3 5 5 5 5 3 5 5 5 5 3 5 3 5 5 3 5 5 5 3 5 5 5 5 5 5 5 5 5 5 5 5 5 5 5 5 5 5 5 3 5 5 5 3 5 5 5 3 5 5 5 5 3 5 5 5 5 5 5 5 5 5 5 5 5 5 5 5 5 5 5 5 5 5 5 5 5 5 5 5 5 3 5 5 5 5 5 5 5 5 5 5 5 5 5 3 5 5 5 5 5 5 5 5 5 3 5 3 5 5 5 5 3 5 5 5 5 5 5 3 5 5 5 5 3 3 5 3 5 3 5 5 5 5 3 5 5 3 3 5 5 5 5 5 3 3 5 5 3 5 3 5 3 3 5 5 5 5 5 3 5 3 5 3 3 5 5 3 3 5 3 5 3 5 5 5 3 5 5 5 3 5 5 3 3 3 3 5 3 5 5 5 5 3 3 5 5 3 5 5 3 5 5 3 5 5 5 5 5 5 5 3 5 5 5 5 3 3 5 3 3 5 5 5 5 3 5 5 3 5 3 5 5 5 3 3 3 3 5 5 3 5 5 5 5 3 5 5 5 5 3 3 5 5 3 5 5 5 5 5 5 5 5 3 5 3 5 3 5 5 5 5 5 5 5 5 5 5 5 3 5 5 5 5 3 5 5 3 5 5 5 5 3 5 5 5 3 5 3 5 5 3 5 5 5 5 5 5 5 5 5 5 5 5 5 3 5 3 5 5 5 5 5 5 5 5 5 5 5 5 5 5 5 5 5 5 5 5 5 3 3 5 5 5 5 3 5 5 5 5 5 5 5 3 5 5 5 5 3 5 5 5 5 5 3 5 5 5 5 5 5 5 5 5 5 5 5 5 5 5 5 5 3 5 5 5 5 5 5 5 5 5 5 5 5 5 5 5 3 5 5 5 5 5 5 5 3 5 3 5 5 5 5 5 5 3 5 5 3 5 3 5 5 5 5 5 5 5 5 5 3 5 5 5 5 5 3 5 5 5 5 5 5 5 5 5 5 5 3 5 5 5 3 5 5 3 5 5 5 3 5 3 5 5 3 5 3 5 5 5 5 3 5 5 5 5 5 3 5 5 3 3 5 5 5 3 5 3 3 5 5 5 3 5 5 5 5 5 5 5 5 5 5 5 3 5 5 5 5 5 5 5 5 5 5 5 5 5 5 5 5 5 5 5 5 5 5 5 3 5 5 3 5 3 5 5 3 3 5 3 5 5 5 3 5 5 5 5 3 5 5 5 5 5 3 3 3 5 5 3 5 5 5 5 5 5 5 5 3 5 5 5 5 5 5 3 5 3 5 5 5 5 3 3 5 5 5 5 5 5 3 5 3 5 5 5 3 5 5 5 3 5 5 3 5 5 3 5 5 5 3 5 5 3 5 5 5 3 5 5 5 5 5 5 5 5 5 5 5 5 3 5 5 5 5 5 5 3 5 5 5 5 3 5 5 5 5 3 5 3 5 5 3 5 5 5 5 5 5 5 5 5 5 5 3 5 5 5 5 5 5 5 5 5 5 5 5 5 5 5 5 5 5 5 5 5 5 5 5 3 5 5 5 5 5 5 5 5 5 5 5 5 3 5 5 5 5 5 5 5 5 5 5 5 5 5 5 5 5 5 5 5 5 5 5 5 5 5 5 5 5 5 5 5 5 5 5 5 5 5 5 5 5 3 5 5 5 5 5 3 5 5 5 5 5 5 5 5 5 5 5 5 5 5 5 5 5 5 5 5 5 5 5 5 5 5 5 5 5 5 5 5 5 5 3 5 5 5 5 5 3 3 5 5 5 5 5 3 5 5 5 5 3 5 5 5 5 5 5 5 5 5 3 5 5 5 5 5 5 5 5 5 5 5 5 5 5 5 5 5 5 5 5 3 5 3 5 5 3 3 5 3 3 5 5 5 5 3 3 5 3 5 3 5 5 5 3 3 5 3 5 5 5 5 3 5 3 5 5 5 5 3 5 5 5 5 5 3 5 5 3 5 5 5 5 5 5 5 5 5 5 3 5 5 5 5 5 5 5 5 5 5 5 5 3 5 5 5 5 5 3 5 5 5 5 5 5 5 5 5 5 5 5 5 5 5 5 5 5 5 5 5 5 5 3 5 5 5 5 5 5 5 3 5 5 3 5 5 5 5 5 5 5 5 5 5 5 3 5 3 5 5 5 5 5 3 5 3 3 5 5 5 3 5 5 5 3 3 5 5 5 5 5 5 5 5 5 5 5 5 5 5 5 5 5 5 5 5 5 5 5 5 5 5 5 5 5 5 5 5 3 5 5 5 5 5 5 5 5 5 5 5 5 3 5 5 5 3 5 5 5 5 5 5 5 5 5 5 5 5 5 5 5 5 5 5 5 5 5 5 5 5 5 5 5 5 3 5 5 5 5 3 3 3 5 3 3 5 5 5 3 5 5 5 5 5 5 3 5 5 5 5 5 5 5 5 5 5 5 5 5 5 5 5 5 5 5 5 5 5 5 5 5 5 5 5 5 3 5 5 5 3 5 5 5 5 5 5 5 5 5 5 5 5 3 5 5 5 5 3 5 5 5 3 5 5 5 5 3 5 3 5 5 5 5 5 5 3 5 3 5 5 5 5 5 3 5 5 5 5 3 5 5 5 3 5 5 5 5 5 5 5 3 5 5 3 5 5 3 5 5 5 5 5 5 5 5 5 5 5 5 5 5 5 5 5 5 5 5 5 5 5 3 5 3 5 5 5 3 5 3 5 3 3 5 5 5 5 5 5 5 5 3 5 5 5 5 5 5 5 5 5 5 5 5 5 5 5 5 5 5 5 3 5 5 5 5 5 5 5 5 3 5 5 5 5 5 5 5 5 5 5 5 5 5 5 5 5 5 5 5 5 5 5 5 5 5 5 5 5 5 5 5 5 5 5 5 5 5 5 5 5 5 5 5 5 5 5 5 5 5 5 5 5 5 5 5 5 5 5 5 5 5 5 5 3 5 5 5 5 3 5 5 5 5 3 5 5 5 5 5 5 5 5 5 5 5 3 5 5 3 3 5 5 5 5 5 3 5 5 5 5 5 5 5 5 5 5 5 5 5 3 5 5 3 5 5 5 5 5 5 5 5 5 5 5 5 3 5 5 3 5 5 5 5 5 5 5 5 5 5 5 5 5 5 5 5 5 5 5 5 5 5 3 5 5 5 3 3 5 5 5 5 3 5 5 3 5 3 5 5 5 5 3 5 5 3 5 5 5 5 3 5 5 5 3 5 3 3 5 5 5 5 5 3 5 5 5 5 5 5 5 3 5 5 3 5 5 3 5 3 5 5 5 5 5 5 5 5 5 5 5 5 5 3 5 5 5 5 5 5 5 5 5 5 5 5 5 5 5 3 3 5 5 5 5 3 5 5 5 5 5 5 5 5 5 3 5 5 5 5 3 5 5 5 5 5 5 5 3 5 5 5 5 5 5 5 3 5 5 5 5 5 5 5 5 5 5 5 5 5 5 5 5 5 5 5 5 5 5 5 5 5 5 5 5 5 5 5 5 5 5 5 5 5 5 5 5 5 5 5 3 5 5 5 5 5 5 5 5 5 5 5 5 5 5 5 5 5 5 5 5 5 5 5 5 5 5 5 5 3 5 5 3 5 5 5 5 5 5 5 5 3 5 5 5 5 5 5 5 5 5 5 5 5 5 5 5 5 5 5 5 5 5 5 5 5 5 5 5 3 5 5 5 5 5 5 5 5 5 5 5 5 5 5 5 3 5 5 5 5 3 5 5 5 5 5 5 3 5 5 5 5 3 5 5 5 5 5 5 3 5 5 5 5 5 5 5 5 5 5 5 5 3 5 5 5 5 5 5 5 3 3 5 3 3 5 5 3 5 5 3 3 5 5 3 5 3 5 5 5 5 3 5 3 5 3 5 5 3 5 3 3 5 5 5 3 5 5 5 5 5 5 5 5 5 5 5 3 5 5 3 5 5 5 3 5 3 3 5 5 3 5 3 5 3 5 3 5 5 5 3 5 5 5 3 5 3 3 5 5 3 5 5 5 3 5 5 5 5 3 5 3 5 5 5 5 5 5 5 5 5 5 3 5 5 5 3 5 5 5 5 5 5 5 5 5 5 5 5 5 3 5 5 5 5 5 5 5 5 5 5 5 5 3 3 5 5 5 5 5 5 5 5 5 5 5 5 5 5 5 5 5 5 5 5 5 5 5 3 5 5 5 3 5 5 3 5 3 5 3 5 5 5 5 5 5 5 3 3 5 5 5 5 5 3 3 5 5 5 5 5 3 5 5 5 3 5 5 3 3 5 5 5 5 3 3 5 5 3 5 5 5 3 3 3 5 5 3 5 5 5 5 5 5 5 5 5 5 5 3 5 5 5 5 5 5 3 5 5 5 3 5 3 5 5 5 5 5 3 5 5 5 5 5 5 5 5 5 5 5 3 3 5 5 5 5 5 3 5 5 5 5 5 5 5 3 5 5 3 5 5 5 3 5 5 5 5 5 5 5 5 3 5 5 3 5 3 3 5 5 5 3 5 5 5 5 5 5 3 5 5 5 5 5 5 5 5 3 5 5 5 5 5 3 5 5 5 5 5 5 5 5 5 5 5 3 5 5 5 3 5 5 5 5 5 5 5 5 3 5 3 5 5 5 3 5 5 5 5 5 5 5 5 5 5 5 5 5 5 5 5 5 5 5 5 5 5 5 5 5 5 5 5 5 5 5 5 5 5 5 5 5 5 5 5 5 5 5 5 5 5 3 5 5 5 5 5 5 5 5 5 5 3 5 5 3 5 5 5 5 5 5 5 5 5 5 3 5 5 5 5 5 5 5 3 5 5 5 5 3 3 5 5 3 5 5 3 5 5 3 5 3 5 5 5 5 5 3 5 5 5 3 5 3 5 3 5 5 5 3 5 3 5 5 5 5 5 5 5 5 5 5 5 3 5 5 3 5 5 3 5 5 5 3 5 5 3 5 5 3 3 5 5 5 5 3 3 3 5 5 5 5 5 5 5 3 5 3 5 5 5 3 3 5 5 5 3 5 5 5 5 3 5 5 5 5 5 5 5 5 5 5 3 5 5 3 5 3 5 5 5 5 5 5 5 5 3 5 5 5 5 5 5 5 5 5 5 5 5 5 5 5 5 3 5 5 5 3 5 5 3 5 5 5 5 5 5 5 5 5 3 5 5 5 3 5 5 5 5 5 5 3 5 5 5 5 5 5 5 5 5 5 5 5 5 5 5 3 5 5 5 5 5 3 5 5 5 5 5 5 5 5 5 3 5 5 3 5 3 5 5 3 5 5 5 3 5 5 3 5 5 5 5 5 5 5 5 5 5 3 5 5 5 5 5 3 5 5 5 5 5 5 5 5 5 5 3 3 5 5 5 3 5 5 3 3 3 3 5 5 5 5 5 3 5 3 5 5 3 5 3 5 5 3 5 5 3 5 3 5 5 3 5 5 5 5 5 5 5 5 5 3 5 5 5 5 3 5 5 5 5 3 3 3 5 5 5 3 5 5 5 5 5 5 3 5 5 5 5 5 5 5 5 5 5 5 5 5 5 5 5 3 5 5 5 3 5 5 3 5 3 5 3 3 5 5 5 5 3 5 5 5 5 5 5 5 5 5 5 5 5 5 5 5 5 5 5 5 5 5 5 5 5 5 5 5 5 5 5 5 5 5 5 5 5 5 5 5 5 5 5 5 5 5 5 5 5 5 5 5 5 3 5 3 5 5 5 3 5 5 5 3 5 5 5 5 5 5 5 5 5 5 5 5 5 5 5 5 5 5 5 5 5 5 3 5 5 5 5 5 5 5 5 5 3 5 5 5 5 3 5 5 5 5 5 5 5 5 5 5 5 5 5 5 3 3 5 5 3 5 3 5 5 3 5 5 5 5 5 5 5 5 5 5 5 5 3 5 5 5 3 5 5 5 5 5 5 5 5 5 3 3 5 5 5 5 3 3 5 5 5 5 5 5 5 3 5 5 3 5 5 5 5 3 5 5 5 3 5 5 5 3 5 5 3 5 5 5 5 3 5 5 5 5 5 3 5 5 5 5 5 5 5 5 5 5 5 3 3 5 5 5 5 3 5 5 5 5 3 3 5 5 5 5 3 5 5 5 5 3 5 5 5 5 5 3 5 5 5 5 5 3 5 5 3 3 5 5 5 5 5 5 3 5 3 5 5 3 5 5 3 3 5 5 5 5 5 3 5 5 5 5 5 3 5 5 5 5 5 5 5 5 5 5 5 5 5 5 5 5 5 5 5 5 5 5 5 5 5 5 5 5 5 3 5 5 5 5 5 5 3 5 5 5 3 5 5 5 5 5 5 3 5 5 3 5 3 3 5 5 3 5 3 5 5 5 5 5 5 5 5 5 5 5 5 5 5 
</DataArray>
</Cells>
<PointData Scalars="" Vectors="displacement," Tensors="">
<DataArray type="Float64" Name="displacement" NumberOfComponents="3" format="ascii">
0.0049996304132683984 4.9735497776160626e-08 0 0.0047661047061021327 4.5528479961446064e-05 0 0.0049997781151357472 9.6896456921354817e-08 0 0.0049996304132683984 4.9735497776160626e-08 0 0.0043951674186703468 7.9599055068485616e-08 0 0.0047661047061021327 4.5528479961446064e-05 0 0.0043951674186703468 7.9599055068485616e-08 0 0.0047661047061021327 4.5528479961446064e-05 0 0.0045704313655286922 -1.0528931560626352e-06 0 0.0047661047061021327 4.5528479961446064e-05 0 0.0048927728266253525 2.5200869807711557e-05 0 0.0047769775874368162 -1.6489698754011684e-05 0 0.0047661047061021327 4.5528479961446064e-05 0 0.0045704313655286922 -1.0528931560626352e-06 0 0.0047769775874368162 -1.6489698754011684e-05 0 0.0047661047061021327 4.5528479961446064e-05 0 0.0049997781151357472 9.6896456921354817e-08 0 0.0048927728266253525 2.5200869807711557e-05 0 0.0049997781151357472 9.6896456921354817e-08 0 0.0049652703386888104 2.0903496723552789e-05 0 0.0049998688121644531 -1.4940872321645141e-08 0 0.0049997781151357472 9.6896456921354817e-08 0 0.0049652703386888104 2.0903496723552789e-05 0 0.0048927728266253525 2.5200869807711557e-05 0 0.0049652703386888104 2.0903496723552789e-05 0 0.0049660573138028442 2.3071125800442271e-05 0 0.0049998688121644531 -1.4940872321645141e-08 0 0.0049660573138028442 2.3071125800442271e-05 0 0.0049538015339312567 1.7473161546273964e-05 0 0.0049700581670141112 2.0771217423813693e-05 0 0.0049652703386888104 2.0903496723552789e-05 0 0.0049660573138028442 2.3071125800442271e-05 0 0.0049538015339312567 1.7473161546273964e-05 0 0.0049652703386888104 2.0903496723552789e-05 0 0.0049538015339312567 1.7473161546273964e-05 0 0.0049247289124276332 1.1172892382197785e-05 0 0.0049538015339312567 1.7473161546273964e-05 0 0.0049231932449765895 -8.5165435505807075e-06 0 0.0049247289124276332 1.1172892382197785e-05 0 0.0049538015339312567 1.7473161546273964e-05 0 0.0049231932449765895 -8.5165435505807075e-06 0 0.0049561208604672674 8.8906355144041638e-07 0 0.0046977490832546065 5.7177880288549816e-05 0 0.0047527557409964673 3.6726315133984616e-05 0 0.0047685343801979778 4.9767666905922264e-05 0 0.0048161328885260382 4.4745949984956974e-06 0 0.0048721386864799352 2.9097903271362976e-05 0 0.0049538015339312567 1.7473161546273964e-05 0 0.0049561208604672674 8.8906355144041638e-07 0 0.0049700581670141112 2.0771217423813693e-05 0 0.0049561208604672674 8.8906355144041638e-07 0 0.0049687776273132471 -3.6515338678071331e-05 0 0.0049700581670141112 2.0771217423813693e-05 0 0.0049652703386888104 2.0903496723552789e-05 0 0.0048927728266253525 2.5200869807711557e-05 0 0.0049247289124276332 1.1172892382197785e-05 0 0.0049231932449765895 -8.5165435505807075e-06 0 0.0048913261696279771 -8.5448291683683618e-06 0 0.0049247289124276332 1.1172892382197785e-05 0 0.0048927728266253525 2.5200869807711557e-05 0 0.0048913261696279771 -8.5448291683683618e-06 0 0.0049247289124276332 1.1172892382197785e-05 0 0.0048927728266253525 2.5200869807711557e-05 0 0.0048913261696279771 -8.5448291683683618e-06 0 0.0047769775874368162 -1.6489698754011684e-05 0 0.0048849323469194678 -6.8222131320199044e-05 0 0.0047769775874368162 -1.6489698754011684e-05 0 0.0047763013874298921 -0.00014932264586206036 0 0.0048913261696279771 -8.5448291683683618e-06 0 0.0048849323469194678 -6.8222131320199044e-05 0 0.0047769775874368162 -1.6489698754011684e-05 0 0.0049158994317263158 -1.0835121745736743e-05 0 0.0048106234355667597 -7.447303797160869e-05 0 0.0049231932449765895 -8.5165435505807075e-06 0 0.0048913261696279771 -8.5448291683683618e-06 0 0.0048849323469194678 -6.8222131320199044e-05 0 0.0049231932449765895 -8.5165435505807075e-06 0 0.0047620848343096142 -6.6795128488876141e-05 0 0.0048826213605450931 -8.3351538702520372e-05 0 0.0047620848343096142 -6.6795128488876141e-05 0 0.0047578784473794747 -0.00018813314407216245 0 0.0048826213605450931 -8.3351538702520372e-05 0 0.0047578784473794747 -0.00018813314407216245 0 0.0048826213605450931 -8.3351538702520372e-05 0 0.0048899907605135769 -0.00018857706846660597 0 0.0048106234355667597 -7.447303797160869e-05 0 0.0047412572855749452 -0.00015001939127442059 0 0.0047620848343096142 -6.6795128488876141e-05 0 0.0047578784473794747 -0.00018813314407216245 0 0.004588403104285447 -0.00016797536473589739 0 0.0046977490832546065 5.7177880288549816e-05 0 0.0046322387442972743 0.00011203607130522748 0 0.0047527557409964673 3.6726315133984616e-05 0 0.0049231932449765895 -8.5165435505807075e-06 0 0.0049687776273132471 -3.6515338678071331e-05 0 0.0048826213605450931 -8.3351538702520372e-05 0 0.0049231932449765895 -8.5165435505807075e-06 0 0.0049561208604672674 8.8906355144041638e-07 0 0.0049687776273132471 -3.6515338678071331e-05 0 0.0049687776273132471 -3.6515338678071331e-05 0 0.0048826213605450931 -8.3351538702520372e-05 0 0.0048899907605135769 -0.00018857706846660597 0 0.0048161328885260382 4.4745949984956974e-06 0 0.0049306632454009583 -2.5604263901010302e-05 0 0.0046977490832546065 5.7177880288549816e-05 0 0.0047497043883747078 0.00015629370836537011 0 0.0046322387442972743 0.00011203607130522748 0 0.0047497043883747078 0.00015629370836537011 0 0.0046322387442972743 0.00011203607130522748 0 0.0046643641505225543 0.00020533490165654586 0 0.0046322387442972743 0.00011203607130522748 0 0.0046643641505225543 0.00020533490165654586 0 0.0045524687159840781 0.00025117856659659377 0 0.0047497043883747078 0.00015629370836537011 0 0.0046643641505225543 0.00020533490165654586 0 0.0047267261437305922 0.0002413383253746399 0 0.0046643641505225543 0.00020533490165654586 0 0.0047267261437305922 0.0002413383253746399 0 0.0046725626388642262 0.00033228136041336303 0 0.0047267261437305922 0.0002413383253746399 0 0.0046725626388642262 0.00033228136041336303 0 0.0048209056788498803 0.00027892392697379204 0 0.0036943365281183597 0.00034037839088104418 0 0.004000698677024018 0.00018195614938079405 0 0.0046643641505225543 0.00020533490165654586 0 0.0046725626388642262 0.00033228136041336303 0 0.0045524687159840781 0.00025117856659659377 0 0.004639085286332648 -0.00026831038471051882 0 0.0047618092282613149 -0.00037917187277443273 0 0.004527370840360749 -0.00032467626718970735 0 0.0047578784473794747 -0.00018813314407216245 0 0.004639085286332648 -0.00026831038471051882 0 0.0047618092282613149 -0.00037917187277443273 0 0.0047578784473794747 -0.00018813314407216245 0 0.004639085286332648 -0.00026831038471051882 0 0.004588403104285447 -0.00016797536473589739 0 0.0047578784473794747 -0.00018813314407216245 0 0.0048899907605135769 -0.00018857706846660597 0 0.0047618092282613149 -0.00037917187277443273 0 0.0049306632454009583 -2.5604263901010302e-05 0 0.004000698677024018 0.00018195614938079405 0 0.0047497043883747078 0.00015629370836537011 0 0.0047267261437305922 0.0002413383253746399 0 0.0048209056788498803 0.00027892392697379204 0 0.0027973957682585608 0.00030837101537786716 0 0.0027624027906510825 0.00030618954782246508 0 0.002764311455563365 0.00029566169339720588 0 0.0027624027906510825 0.00030618954782246508 0 0.002759385712477567 0.00029849726346922484 0 0.002764311455563365 0.00029566169339720588 0 0.0027624027906510825 0.00030618954782246508 0 0.002759385712477567 0.00029849726346922484 0 0.0027536152960756163 0.00030012364666099489 0 0.002759385712477567 0.00029849726346922484 0 0.0027536152960756163 0.00030012364666099489 0 0.0027491062695129214 0.00029268763946539353 0 0.0027624027906510825 0.00030618954782246508 0 0.0027479316763115553 0.00030293381745506379 0 0.0027314377950663762 0.00031018122163362809 0 0.0027536152960756163 0.00030012364666099489 0 0.0027479316763115553 0.00030293381745506379 0 0.0027491062695129214 0.00029268763946539353 0 0.0027624027906510825 0.00030618954782246508 0 0.0027536152960756163 0.00030012364666099489 0 0.0027479316763115553 0.00030293381745506379 0 0.004000698677024018 0.00018195614938079405 0 0.003601747915542916 -0.00011766195626131168 0 0.0027479316763115553 0.00030293381745506379 0 0.0027362066791723925 0.00029329006039770586 0 0.0027491062695129214 0.00029268763946539353 0 0.0027479316763115553 0.00030293381745506379 0 0.0027348510517628192 0.00030147672242633144 0 0.0027362066791723925 0.00029329006039770586 0 0.003601747915542916 -0.00011766195626131168 0 0.003005834966986753 0.00014361628841462202 0 0.0027348510517628192 0.00030147672242633144 0 0.0027107636914804642 0.00028505427654582988 0 0.0027362066791723925 0.00029329006039770586 0 0.0033776795809116471 -0.00010994249426265375 0 0.0034193511506686865 -0.00012179539927515503 0 0.0034000954144611101 -3.6575383566196086e-05 0 0.0027348510517628192 0.00030147672242633144 0 0.0027314377950663762 0.00031018122163362809 0 0.0027107636914804642 0.00028505427654582988 0 0.0027479316763115553 0.00030293381745506379 0 0.0027348510517628192 0.00030147672242633144 0 0.0027314377950663762 0.00031018122163362809 0 0.0045397670636700823 -0.00029434009275998261 0 0.0044054682431725811 -0.00029361670687788746 0 0.004588403104285447 -0.00016797536473589739 0 0.0041044944726517964 -0.00018537257955225571 0 0.0047412572855749452 -0.00015001939127442059 0 0.004639085286332648 -0.00026831038471051882 0 0.0045397670636700823 -0.00029434009275998261 0 0.004527370840360749 -0.00032467626718970735 0 0.0045397670636700823 -0.00029434009275998261 0 0.0045258859858852496 -0.0003273786194658989 0 0.0044054682431725811 -0.00029361670687788746 0 0.003601747915542916 -0.00011766195626131168 0 0.0041044944726517964 -0.00018537257955225571 0 0.0037357831418632684 -0.00010058379578483646 0 0.003601747915542916 -0.00011766195626131168 0 0.004639085286332648 -0.00026831038471051882 0 0.0045397670636700823 -0.00029434009275998261 0 0.004588403104285447 -0.00016797536473589739 0 0.0045993044047089393 -0.00027294246994221717 0 0.0044195388303134358 -0.00021599285023482038 0 0.0045992571820722382 -9.4083751209713507e-05 0 0.0041044944726517964 -0.00018537257955225571 0 0.0042314441213725162 -0.00012345792299204192 0 0.0034193511506686865 -0.00012179539927515503 0 0.003479750347340198 -7.8825608378263693e-05 0 0.0034000954144611101 -3.6575383566196086e-05 0 0.0041044944726517964 -0.00018537257955225571 0 0.0036621976443994802 -4.0541280370375052e-05 0 0.0039630966812046042 1.0383055540435033e-06 0 0.0039525709631214462 -1.6533715841038438e-07 0 0.0036295711383657922 -6.3157634195682291e-08 0 0.0039724473801537831 -2.1555607990790478e-05 0 0.0039630966812046042 1.0383055540435033e-06 0 0.0039880449627371761 -2.0318161515803777e-05 0 0.0039724473801537831 -2.1555607990790478e-05 0 0.0039630966812046042 1.0383055540435033e-06 0 0.0036295711383657922 -6.3157634195682291e-08 0 0.0039630966812046042 1.0383055540435033e-06 0 0.0039525709631214462 -1.6533715841038438e-07 0 0.0041167015451020602 -5.7152806066847456e-05 0 0.0039929695512814769 -2.2460722301624238e-05 0 0.0039724473801537831 -2.1555607990790478e-05 0 0.0039880449627371761 -2.0318161515803777e-05 0 0.0039630966812046042 1.0383055540435033e-06 0 0.0041167015451020602 -5.7152806066847456e-05 0 0.0039880449627371761 -2.0318161515803777e-05 0 0.0041260374478931669 -7.4029461911059849e-05 0 0.0042314441213725162 -0.00012345792299204192 0 0.0043951674186703468 7.9599055068485616e-08 0 0.0039525709631214462 -1.6533715841038438e-07 0 0.0041167015451020602 -5.7152806066847456e-05 0 0.0041167015451020602 -5.7152806066847456e-05 0 0.0044195388303134358 -0.00021599285023482038 0 0.0043877839916112611 -3.2439999333821117e-05 0 0.0044195388303134358 -0.00021599285023482038 0 0.0043877839916112611 -3.2439999333821117e-05 0 0.0045992571820722382 -9.4083751209713507e-05 0 0.0043951674186703468 7.9599055068485616e-08 0 0.0041167015451020602 -5.7152806066847456e-05 0 0.0043877839916112611 -3.2439999333821117e-05 0 0.0043951674186703468 7.9599055068485616e-08 0 0.0043877839916112611 -3.2439999333821117e-05 0 0.0045704313655286922 -1.0528931560626352e-06 0 0.0043877839916112611 -3.2439999333821117e-05 0 0.0045704313655286922 -1.0528931560626352e-06 0 0.0045992571820722382 -9.4083751209713507e-05 0 0.0045704313655286922 -1.0528931560626352e-06 0 0.0047769775874368162 -1.6489698754011684e-05 0 0.0045992571820722382 -9.4083751209713507e-05 0 0.0047769775874368162 -1.6489698754011684e-05 0 0.0047763013874298921 -0.00014932264586206036 0 0.0045992571820722382 -9.4083751209713507e-05 0 0.0045993044047089393 -0.00027294246994221717 0 0.0047763013874298921 -0.00014932264586206036 0 0.0045992571820722382 -9.4083751209713507e-05 0 0.0045722722871108061 0.00011198021669927922 0 0.0045897607903559344 5.6833200151966178e-05 0 0.0041870223641654282 0.00018313846658007442 0 0.0041803081366288833 0.00010294397005826335 0 0.0041762207335276254 0.00015581334674951556 0 0.0049500120741655974 4.2790122575088699e-05 0 0.0049873901051797637 1.4488376459288975e-05 0 0.0049611727748772837 1.9656913775276753e-06 0 0.0049873901051797637 1.4488376459288975e-05 0 0.0049611727748772837 1.9656913775276753e-06 0 0.0049902898771074606 -2.4849404337178669e-06 0 0.0049611727748772837 1.9656913775276753e-06 0 0.0049902898771074606 -2.4849404337178669e-06 0 0.0049760548012771867 -7.4215017706678637e-06 0 0.004999966310841852 -1.368187915413478e-08 0 0.0049902898771074606 -2.4849404337178669e-06 0 0.0049760548012771867 -7.4215017706678637e-06 0 0.004999966310841852 -1.368187915413478e-08 0 0.0049999940922085713 2.8066149901813108e-10 0 0.0049902898771074606 -2.4849404337178669e-06 0 0.0049999940922085713 2.8066149901813108e-10 0 0.0049902898771074606 -2.4849404337178669e-06 0 0.0049987763420995396 -8.5655927904614921e-09 0 0.0049873901051797637 1.4488376459288975e-05 0 0.0049902898771074606 -2.4849404337178669e-06 0 0.0049979102137814729 3.0178908534327056e-06 0 0.0049902898771074606 -2.4849404337178669e-06 0 0.0049979102137814729 3.0178908534327056e-06 0 0.0049987763420995396 -8.5655927904614921e-09 0 0.0049999940922085713 2.8066149901813108e-10 0 0.0049987763420995396 -8.5655927904614921e-09 0 0.0049999958576127622 -3.1945715323319613e-10 0 0.0045914963571435912 2.5979300955289674e-05 0 0.0047402154158376472 5.0534924543963546e-06 0 0.0049987763420995396 -8.5655927904614921e-09 0 0.0049999958576127622 -3.1945715323319613e-10 0 0.0049990901818510328 8.6347994661508371e-08 0 0.0049979102137814729 3.0178908534327056e-06 0 0.0049987763420995396 -8.5655927904614921e-09 0 0.0049990901818510328 8.6347994661508371e-08 0 0.0049999825305413878 1.0418294735971108e-07 0 0.0047402154158376472 5.0534924543963546e-06 0 0.0042210365970185718 3.9151720971446517e-05 0 0.0042665412699174387 4.853887240019311e-05 0 0.0042689564035528517 -4.1026216384136827e-06 0 0.0042210365970185718 3.9151720971446517e-05 0 0.0042195450855200978 0.00010392851416151631 0 0.0042665412699174387 4.853887240019311e-05 0 0.0042195450855200978 0.00010392851416151631 0 0.0042682779437960517 8.2136762663197462e-05 0 0.0042665412699174387 4.853887240019311e-05 0 0.0045897607903559344 5.6833200151966178e-05 0 0.0045914963571435912 2.5979300955289674e-05 0 0.0041803081366288833 0.00010294397005826335 0 0.0042210365970185718 3.9151720971446517e-05 0 0.0042195450855200978 0.00010392851416151631 0 0.0041803081366288833 0.00010294397005826335 0 0.0042195450855200978 0.00010392851416151631 0 0.0041762207335276254 0.00015581334674951556 0 0.0042195450855200978 0.00010392851416151631 0 0.0042682779437960517 8.2136762663197462e-05 0 0.0042478096726982608 0.00011021291594447364 0 0.0042682779437960517 8.2136762663197462e-05 0 0.0043030260945822072 9.0808280278980704e-05 0 0.0042478096726982608 0.00011021291594447364 0 0.0042682779437960517 8.2136762663197462e-05 0 0.0043109787492219909 6.4958309411338101e-05 0 0.0043030260945822072 9.0808280278980704e-05 0 0.0043109787492219909 6.4958309411338101e-05 0 0.0043384158908807363 7.9908053145602578e-05 0 0.0043030260945822072 9.0808280278980704e-05 0 0.0043109787492219909 6.4958309411338101e-05 0 0.0043070659359926147 2.5051807468075132e-05 0 0.0043428460714973463 4.9290980516551447e-05 0 0.0042682779437960517 8.2136762663197462e-05 0 0.0043109787492219909 6.4958309411338101e-05 0 0.0042665412699174387 4.853887240019311e-05 0 0.0043109787492219909 6.4958309411338101e-05 0 0.0042665412699174387 4.853887240019311e-05 0 0.0043070659359926147 2.5051807468075132e-05 0 0.0042665412699174387 4.853887240019311e-05 0 0.0042689564035528517 -4.1026216384136827e-06 0 0.0043070659359926147 2.5051807468075132e-05 0 0.0049999989749559808 2.2759233789082121e-10 0 0.0049999988136074855 -1.8846185968309729e-10 0 0.0049994357347576098 1.7762281529248441e-08 0 0.0047402154158376472 5.0534924543963546e-06 0 0.004619349347005623 -8.3465191747597682e-07 0 0.0050038234364966983 -2.4533489707464654e-06 0 0.0049978309614230913 -4.7913889986871433e-06 0 0.0049942615586815045 -1.4808287346589715e-05 0 0.0050000188970818291 -2.4894026764838534e-09 0 0.0050038234364966983 -2.4533489707464654e-06 0 0.0049978309614230913 -4.7913889986871433e-06 0 0.004999947547297854 -1.0677536834046403e-07 0 0.0047402154158376472 5.0534924543963546e-06 0 0.0049999702697128548 3.8194287862129794e-10 0 0.0049978309614230913 -4.7913889986871433e-06 0 0.0049820418215798332 -1.0792796549222016e-05 0 0.0049999839523517265 -2.2365580648360789e-08 0 0.0050113560440011255 7.4117627055917047e-06 0 0.0050000019032911533 -1.605991324714614e-10 0 0.0049996060788307945 -1.3749115840588926e-06 0 0.0049993641813586408 -4.3219782564229467e-07 0 0.0050000188970818291 -2.4894026764838534e-09 0 0.0049999702697128548 3.8194287862129794e-10 0 0.0049978309614230913 -4.7913889986871433e-06 0 0.0049820418215798332 -1.0792796549222016e-05 0 0.0049942615586815045 -1.4808287346589715e-05 0 0.0049654890565547487 -3.6804559020767484e-05 0 0.004619349347005623 -8.3465191747597682e-07 0 0.0047446630960028451 -3.0832133904556943e-05 0 0.0049978309614230913 -4.7913889986871433e-06 0 0.0049820418215798332 -1.0792796549222016e-05 0 0.0049942615586815045 -1.4808287346589715e-05 0 0.0049996060788307945 -1.3749115840588926e-06 0 0.0049972772904434016 -1.4005511330502641e-06 0 0.0049948611492089704 -6.4840930972318288e-06 0 0.0049752148556847179 2.2886318535399088e-05 0 0.0047446630960028451 -3.0832133904556943e-05 0 0.0049446416205777798 2.4634394493582496e-05 0 0.0049329102406003179 3.5078259904650067e-05 0 0.0048852253329619297 4.4177487874277802e-05 0 0.0050113560440011255 7.4117627055917047e-06 0 0.0047446630960028451 -3.0832133904556943e-05 0 0.0049996060788307945 -1.3749115840588926e-06 0 0.0049972772904434016 -1.4005511330502641e-06 0 0.0049993641813586408 -4.3219782564229467e-07 0 0.0049972772904434016 -1.4005511330502641e-06 0 0.0049999956023281545 1.1380701422729765e-10 0 0.0049993641813586408 -4.3219782564229467e-07 0 0.0050000019032911533 -1.605991324714614e-10 0 0.0049999956023281545 1.1380701422729765e-10 0 0.0049993641813586408 -4.3219782564229467e-07 0 0.0049752148556847179 2.2886318535399088e-05 0 0.0049999834486278072 5.2132904308657565e-09 0 0.0049446416205777798 2.4634394493582496e-05 0 0.0049998688121644531 -1.4940872321645141e-08 0 0.0049329102406003179 3.5078259904650067e-05 0 0.0049660573138028442 2.3071125800442271e-05 0 0.0049998688121644531 -1.4940872321645141e-08 0 0.0049329102406003179 3.5078259904650067e-05 0 0.0049329102406003179 3.5078259904650067e-05 0 0.0048752104262047595 4.4043636264138454e-05 0 0.0047685343801979778 4.9767666905922264e-05 0 0.0049174685975382371 3.0564335332581826e-05 0 0.0048721386864799352 2.9097903271362976e-05 0 0.0049660573138028442 2.3071125800442271e-05 0 0.0049329102406003179 3.5078259904650067e-05 0 0.0049700581670141112 2.0771217423813693e-05 0 0.0049329102406003179 3.5078259904650067e-05 0 0.0048852253329619297 4.4177487874277802e-05 0 0.0048752104262047595 4.4043636264138454e-05 0 0.0043109787492219909 6.4958309411338101e-05 0 0.0043428460714973463 4.9290980516551447e-05 0 0.0043384158908807363 7.9908053145602578e-05 0 0.0047446630960028451 -3.0832133904556943e-05 0 0.0043447771614214684 -5.081333835264874e-06 0 0.0048960073864881644 4.3351285818509355e-05 0 0.0048752104262047595 4.4043636264138454e-05 0 0.0047527557409964673 3.6726315133984616e-05 0 0.0047446630960028451 -3.0832133904556943e-05 0 0.0048000327490484119 7.1415561992030207e-06 0 0.0047446630960028451 -3.0832133904556943e-05 0 0.004623687123581118 -1.9385279475603387e-05 0 0.0044290419488469826 -0.00023672948650857207 0 0.0043999664324629205 -8.5416451873068203e-05 0 0.0045182322328929493 -5.8754375263683314e-05 0 0.0048752104262047595 4.4043636264138454e-05 0 0.0047527557409964673 3.6726315133984616e-05 0 0.0047685343801979778 4.9767666905922264e-05 0 0.0046322387442972743 0.00011203607130522748 0 0.0045182322328929493 -5.8754375263683314e-05 0 0.0044751734478341073 4.9938863026770858e-05 0 0.0046470402565043584 0.00011726835913014136 0 0.004623687123581118 -1.9385279475603387e-05 0 0.0043447771614214684 -5.081333835264874e-06 0 0.0043682089805154155 9.3615652973152048e-05 0 0.0043999664324629205 -8.5416451873068203e-05 0 0.0045182322328929493 -5.8754375263683314e-05 0 0.0044751734478341073 4.9938863026770858e-05 0 0.0043999664324629205 -8.5416451873068203e-05 0 0.0044751734478341073 4.9938863026770858e-05 0 0.0043661379552870231 9.7501969502104154e-05 0 0.0043661379552870231 9.7501969502104154e-05 0 0.0044645461477418637 0.00016591712723227966 0 0.0043552627468658352 0.00018729414453133418 0 0.0044751734478341073 4.9938863026770858e-05 0 0.0043661379552870231 9.7501969502104154e-05 0 0.0044645461477418637 0.00016591712723227966 0 0.0046322387442972743 0.00011203607130522748 0 0.0044751734478341073 4.9938863026770858e-05 0 0.0044645461477418637 0.00016591712723227966 0 0.0046322387442972743 0.00011203607130522748 0 0.0044645461477418637 0.00016591712723227966 0 0.0045524687159840781 0.00025117856659659377 0 0.0045524687159840781 0.00025117856659659377 0 0.0043933809361378657 0.00026863795239523479 0 0.0044936431682333572 0.0003917891200779224 0 0.0046725626388642262 0.00033228136041336303 0 0.0045524687159840781 0.00025117856659659377 0 0.0044936431682333572 0.0003917891200779224 0 0.0044645461477418637 0.00016591712723227966 0 0.0043933809361378657 0.00026863795239523479 0 0.0043552627468658352 0.00018729414453133418 0 0.0044645461477418637 0.00016591712723227966 0 0.0045524687159840781 0.00025117856659659377 0 0.0043933809361378657 0.00026863795239523479 0 0.0043933809361378657 0.00026863795239523479 0 0.0043552627468658352 0.00018729414453133418 0 0.0043076891029780792 0.00024988886594819773 0 0.0043552627468658352 0.00018729414453133418 0 0.0043076891029780792 0.00024988886594819773 0 0.0042661403221215975 0.0001471342052672456 0 0.0043933809361378657 0.00026863795239523479 0 0.0043076891029780792 0.00024988886594819773 0 0.0043385880801429192 0.00038677599475207098 0 0.0043076891029780792 0.00024988886594819773 0 0.0042309275868786644 0.00022292539642963758 0 0.0042673021796623117 0.00032020241826565535 0 0.0042309275868786644 0.00022292539642963758 0 0.0041779820116980724 0.00031577989450771613 0 0.0042673021796623117 0.00032020241826565535 0 0.0042309275868786644 0.00022292539642963758 0 0.0042661403221215975 0.0001471342052672456 0 0.0041951047347724866 0.00016871441776448898 0 0.0043076891029780792 0.00024988886594819773 0 0.0042309275868786644 0.00022292539642963758 0 0.0042661403221215975 0.0001471342052672456 0 0.0043661379552870231 9.7501969502104154e-05 0 0.0043552627468658352 0.00018729414453133418 0 0.0042661403221215975 0.0001471342052672456 0 0.0043384158908807363 7.9908053145602578e-05 0 0.0043661379552870231 9.7501969502104154e-05 0 0.0043030260945822072 9.0808280278980704e-05 0 0.0043661379552870231 9.7501969502104154e-05 0 0.0042661403221215975 0.0001471342052672456 0 0.0043030260945822072 9.0808280278980704e-05 0 0.0042661403221215975 0.0001471342052672456 0 0.0043030260945822072 9.0808280278980704e-05 0 0.0042478096726982608 0.00011021291594447364 0 0.0042195450855200978 0.00010392851416151631 0 0.0042478096726982608 0.00011021291594447364 0 0.0041927629829994137 0.00014231424035612082 0 0.0042195450855200978 0.00010392851416151631 0 0.0041927629829994137 0.00014231424035612082 0 0.0041762207335276254 0.00015581334674951556 0 0.0041927629829994137 0.00014231424035612082 0 0.0041581312503780332 0.00016601531898108405 0 0.0041762207335276254 0.00015581334674951556 0 0.0041927629829994137 0.00014231424035612082 0 0.0041259913433222438 0.00016997389861210052 0 0.0041581312503780332 0.00016601531898108405 0 0.0042661403221215975 0.0001471342052672456 0 0.0041927629829994137 0.00014231424035612082 0 0.0041951047347724866 0.00016871441776448898 0 0.0042661403221215975 0.0001471342052672456 0 0.0042478096726982608 0.00011021291594447364 0 0.0041927629829994137 0.00014231424035612082 0 0.0041927629829994137 0.00014231424035612082 0 0.0041951047347724866 0.00016871441776448898 0 0.0041259913433222438 0.00016997389861210052 0 0.0041951047347724866 0.00016871441776448898 0 0.0041432614506018853 0.00019650766846030014 0 0.0041259913433222438 0.00016997389861210052 0 0.0042309275868786644 0.00022292539642963758 0 0.0041951047347724866 0.00016871441776448898 0 0.0041432614506018853 0.00019650766846030014 0 0.0042309275868786644 0.00022292539642963758 0 0.0041432614506018853 0.00019650766846030014 0 0.0041779820116980724 0.00031577989450771613 0 0.0041432614506018853 0.00019650766846030014 0 0.0040293131023873162 0.00016868658876933082 0 0.0041259913433222438 0.00016997389861210052 0 0.0041432614506018853 0.00019650766846030014 0 0.0040293131023873162 0.00016868658876933082 0 0.0041779820116980724 0.00031577989450771613 0 0.0041259913433222438 0.00016997389861210052 0 0.0041578467669078486 0.0001628597423346335 0 0.0041262633425148089 0.00015951411298867615 0 0.0041259913433222438 0.00016997389861210052 0 0.0041578467669078486 0.0001628597423346335 0 0.0041581312503780332 0.00016601531898108405 0 0.0040293131023873162 0.00016868658876933082 0 0.0041259913433222438 0.00016997389861210052 0 0.0041262633425148089 0.00015951411298867615 0 0.0040293131023873162 0.00016868658876933082 0 0.0041262633425148089 0.00015951411298867615 0 0.0041840866034817872 8.5249526417788954e-05 0 0.0040148134085956494 0.00016283706350073647 0 0.0038061742226995461 0.00019656851230464363 0 0.0042118244350209961 0.00011061390606688281 0 0.0041840866034817872 8.5249526417788954e-05 0 0.0042330086661996709 0.00010497323393415854 0 0.0042118244350209961 0.00011061390606688281 0 0.0041881006931143465 0.00013561069944363548 0 0.0041840866034817872 8.5249526417788954e-05 0 0.0041262633425148089 0.00015951411298867615 0 0.0041881006931143465 0.00013561069944363548 0 0.0041840866034817872 8.5249526417788954e-05 0 0.0042118244350209961 0.00011061390606688281 0 0.0041881006931143465 0.00013561069944363548 0 0.0042340059548214527 0.00012007334084492017 0 0.0041881006931143465 0.00013561069944363548 0 0.0042079353827471772 0.00014492639552605624 0 0.0042340059548214527 0.00012007334084492017 0 0.0041578467669078486 0.0001628597423346335 0 0.0042079353827471772 0.00014492639552605624 0 0.004188359864973519 0.00018112404859648985 0 0.0041578467669078486 0.0001628597423346335 0 0.0041881006931143465 0.00013561069944363548 0 0.0042079353827471772 0.00014492639552605624 0 0.0041578467669078486 0.0001628597423346335 0 0.0041262633425148089 0.00015951411298867615 0 0.0041881006931143465 0.00013561069944363548 0 0.0041578467669078486 0.0001628597423346335 0 0.004188359864973519 0.00018112404859648985 0 0.0041581312503780332 0.00016601531898108405 0 0.004188359864973519 0.00018112404859648985 0 0.0041581312503780332 0.00016601531898108405 0 0.0041762207335276254 0.00015581334674951556 0 0.0041870223641654282 0.00018313846658007442 0 0.004188359864973519 0.00018112404859648985 0 0.0041762207335276254 0.00015581334674951556 0 0.0033472548682275428 0.00031484511254042892 0 0.0033796389983962345 0.00029727651261033208 0 0.0033428419407393085 0.00026697586355229139 0 0.0033796389983962345 0.00029727651261033208 0 0.0033763202885020377 0.00025348266777309851 0 0.0033428419407393085 0.00026697586355229139 0 0.0033472548682275428 0.00031484511254042892 0 0.0033428419407393085 0.00026697586355229139 0 0.0032792480848960301 0.00025099746777511035 0 0.0032265446543328553 0.00028503883725911468 0 0.0031545376946663919 0.00023969918530421274 0 0.0032792480848960301 0.00025099746777511035 0 0.0032911095637620596 0.00033145998087349889 0 0.0032265446543328553 0.00028503883725911468 0 0.0032792480848960301 0.00025099746777511035 0 0.0033472548682275428 0.00031484511254042892 0 0.0032911095637620596 0.00033145998087349889 0 0.0032792480848960301 0.00025099746777511035 0 0.0033472548682275428 0.00031484511254042892 0 0.0032911095637620596 0.00033145998087349889 0 0.0033658127546671874 0.00036336647425028998 0 0.0032911095637620596 0.00033145998087349889 0 0.0033537196175246978 0.00040237650629531478 0 0.0032067407099248932 0.00037864572543002653 0 0.0032911095637620596 0.00033145998087349889 0 0.0033658127546671874 0.00036336647425028998 0 0.0033537196175246978 0.00040237650629531478 0 0.0033658127546671874 0.00036336647425028998 0 0.0033966525657142472 0.00035335833893027053 0 0.0034168301184870154 0.00040162827921703048 0 0.0033472548682275428 0.00031484511254042892 0 0.0033658127546671874 0.00036336647425028998 0 0.0033966525657142472 0.00035335833893027053 0 0.0033796389983962345 0.00029727651261033208 0 0.0033966525657142472 0.00035335833893027053 0 0.0034069436955464875 0.00031688895681643856 0 0.0033472548682275428 0.00031484511254042892 0 0.0033796389983962345 0.00029727651261033208 0 0.0033966525657142472 0.00035335833893027053 0 0.0033966525657142472 0.00035335833893027053 0 0.0034168301184870154 0.00040162827921703048 0 0.0034116674466526868 0.00037999586468284252 0 0.0034168301184870154 0.00040162827921703048 0 0.0034277333846532885 0.00039729276848949593 0 0.0035066418425808974 0.00042949773359905204 0 0.0034277333846532885 0.00039729276848949593 0 0.0034092312781226963 0.00036951620980952649 0 0.0034116674466526868 0.00037999586468284252 0 0.0034168301184870154 0.00040162827921703048 0 0.0034277333846532885 0.00039729276848949593 0 0.0034116674466526868 0.00037999586468284252 0 0.0034277333846532885 0.00039729276848949593 0 0.0034152539048299276 0.00028951887731749556 0 0.0034092312781226963 0.00036951620980952649 0 0.0034277333846532885 0.00039729276848949593 0 0.0034152539048299276 0.00028951887731749556 0 0.0035066418425808974 0.00042949773359905204 0 0.0035046734098167086 0.00042912580271444817 0 0.0036651975536099984 0.00047384992105201318 0 0.0040293131023873162 0.00016868658876933082 0 0.0034152539048299276 0.00028951887731749556 0 0.0035066418425808974 0.00042949773359905204 0 0.0040293131023873162 0.00016868658876933082 0 0.0035066418425808974 0.00042949773359905204 0 0.0039210378933555558 0.00051662629866244889 0 0.0034168301184870154 0.00040162827921703048 0 0.0035066418425808974 0.00042949773359905204 0 0.0033537196175246978 0.00040237650629531478 0 0.0035066418425808974 0.00042949773359905204 0 0.0033537196175246978 0.00040237650629531478 0 0.0033563295436025774 0.00042775428871613289 0 0.0033658127546671874 0.00036336647425028998 0 0.0034168301184870154 0.00040162827921703048 0 0.0033537196175246978 0.00040237650629531478 0 0.0039210378933555558 0.00051662629866244889 0 0.0040844206343584617 0.00040090029821038156 0 0.0041358899734101322 0.00050456463376185494 0 0.0033537196175246978 0.00040237650629531478 0 0.0033563295436025774 0.00042775428871613289 0 0.0033455734678043718 0.00042658088348971734 0 0.0033537196175246978 0.00040237650629531478 0 0.003112438829607561 0.000496461450728424 0 0.0032067407099248932 0.00037864572543002653 0 0.0036651975536099984 0.00047384992105201318 0 0.0035224657885805756 0.00045542842038339966 0 0.0032258537975287777 0.00042309234138353843 0 0.0035224657885805756 0.00045542842038339966 0 0.0040293131023873162 0.00016868658876933082 0 0.0039210378933555558 0.00051662629866244889 0 0.0040844206343584617 0.00040090029821038156 0 0.0040293131023873162 0.00016868658876933082 0 0.0040844206343584617 0.00040090029821038156 0 0.0041779820116980724 0.00031577989450771613 0 0.0041779820116980724 0.00031577989450771613 0 0.0041358899734101322 0.00050456463376185494 0 0.004256056685112899 0.00042992752212035442 0 0.0040844206343584617 0.00040090029821038156 0 0.0041779820116980724 0.00031577989450771613 0 0.0041358899734101322 0.00050456463376185494 0 0.003112438829607561 0.000496461450728424 0 0.0030859643314603948 0.0003758346764091499 0 0.002938423876826884 0.00043383462593882672 0 0.0035224657885805756 0.00045542842038339966 0 0.0039868891963884675 0.00038925871517755885 0 0.003112438829607561 0.000496461450728424 0 0.0030859643314603948 0.0003758346764091499 0 0.0032067407099248932 0.00037864572543002653 0 0.0030859643314603948 0.0003758346764091499 0 0.0030881522440219101 0.00029884797790498619 0 0.002997097302380387 0.00032719317196376461 0 0.0030859643314603948 0.0003758346764091499 0 0.003178127598375032 0.00032159282571895452 0 0.0030881522440219101 0.00029884797790498619 0 0.0032911095637620596 0.00033145998087349889 0 0.0032067407099248932 0.00037864572543002653 0 0.003178127598375032 0.00032159282571895452 0 0.0030859643314603948 0.0003758346764091499 0 0.0032067407099248932 0.00037864572543002653 0 0.003178127598375032 0.00032159282571895452 0 0.003178127598375032 0.00032159282571895452 0 0.0030881522440219101 0.00029884797790498619 0 0.0031545376946663919 0.00023969918530421274 0 0.003178127598375032 0.00032159282571895452 0 0.0032265446543328553 0.00028503883725911468 0 0.0031545376946663919 0.00023969918530421274 0 0.0032911095637620596 0.00033145998087349889 0 0.003178127598375032 0.00032159282571895452 0 0.0032265446543328553 0.00028503883725911468 0 0.0030881522440219101 0.00029884797790498619 0 0.0030287640317876782 0.00023912712754672573 0 0.0031545376946663919 0.00023969918530421274 0 0.0030881522440219101 0.00029884797790498619 0 0.002997097302380387 0.00032719317196376461 0 0.0030287640317876782 0.00023912712754672573 0 0.0029729214578703223 0.00028568127336902889 0 0.0029423212992346973 0.00022456726650235982 0 0.0030287640317876782 0.00023912712754672573 0 0.0029729214578703223 0.00028568127336902889 0 0.002916060098228296 0.00027255041141300868 0 0.0029423212992346973 0.00022456726650235982 0 0.0029758578518514398 0.00032002728341805136 0 0.0030274128745524532 0.00023688845480808704 0 0.0028830899893814441 0.00023260699478831984 0 0.002916060098228296 0.00027255041141300868 0 0.0029423212992346973 0.00022456726650235982 0 0.0028830899893814441 0.00023260699478831984 0 0.002916060098228296 0.00027255041141300868 0 0.0028726322272311362 0.00026341180689448468 0 0.002916060098228296 0.00027255041141300868 0 0.0028878385061066108 0.00030614835400199022 0 0.0029398104390169432 0.00032990699361908082 0 0.002916060098228296 0.00027255041141300868 0 0.0028878385061066108 0.00030614835400199022 0 0.0028726322272311362 0.00026341180689448468 0 0.0028566118576318976 0.0002773091483923596 0 0.0030943412650968772 0.00034794202979350925 0 0.0030859643314603948 0.0003758346764091499 0 0.002997097302380387 0.00032719317196376461 0 0.002938423876826884 0.00043383462593882672 0 0.0029729214578703223 0.00028568127336902889 0 0.002916060098228296 0.00027255041141300868 0 0.0029398104390169432 0.00032990699361908082 0 0.0029758578518514398 0.00032002728341805136 0 0.0030943412650968772 0.00034794202979350925 0 0.0039868891963884675 0.00038925871517755885 0 0.0037752650130157073 0.00039914627347913568 0 0.0035624135994071918 0.00038508823213712756 0 0.0035758708761934486 0.00040887834468145135 0 0.003595910739996789 0.00037561227565555046 0 0.0035224657885805756 0.00045542842038339966 0 0.0030943412650968772 0.00034794202979350925 0 0.0035298112415528067 0.00039473386742872518 0 0.0035624135994071918 0.00038508823213712756 0 0.0035758708761934486 0.00040887834468145135 0 0.0041779820116980724 0.00031577989450771613 0 0.004256056685112899 0.00042992752212035442 0 0.0042673021796623117 0.00032020241826565535 0 0.004256056685112899 0.00042992752212035442 0 0.0042673021796623117 0.00032020241826565535 0 0.0043385880801429192 0.00038677599475207098 0 0.0045487945810900113 0.00024625679899470339 0 0.0037752650130157073 0.00039914627347913568 0 0.0043076891029780792 0.00024988886594819773 0 0.0042673021796623117 0.00032020241826565535 0 0.0043385880801429192 0.00038677599475207098 0 0.0030943412650968772 0.00034794202979350925 0 0.0037752650130157073 0.00039914627347913568 0 0.0028765500874926397 0.00026692396171294709 0 0.0028926285621626883 0.00030456546552828202 0 0.0028544001280281458 0.00028535655550187335 0 0.0028765500874926397 0.00026692396171294709 0 0.0029083939925739553 0.00027483249449545075 0 0.0028926285621626883 0.00030456546552828202 0 0.0043933809361378657 0.00026863795239523479 0 0.0042852527219558708 0.00044933989908051245 0 0.0044936431682333572 0.0003917891200779224 0 0.0028926285621626883 0.00030456546552828202 0 0.0028544001280281458 0.00028535655550187335 0 0.002841227010014435 0.00030941760065889126 0 0.0037752650130157073 0.00039914627347913568 0 0.0036371903801673609 0.0003469799051022331 0 0.0028544001280281458 0.00028535655550187335 0 0.002841227010014435 0.00030941760065889126 0 0.0028206550948345266 0.0002740201031419122 0 0.0028206550948345266 0.0002740201031419122 0 0.0028447928246324024 0.00026737864828418764 0 0.0028128074437883126 0.00024695347327367237 0 0.0028544001280281458 0.00028535655550187335 0 0.0028206550948345266 0.0002740201031419122 0 0.0028447928246324024 0.00026737864828418764 0 0.0028765500874926397 0.00026692396171294709 0 0.0028544001280281458 0.00028535655550187335 0 0.0028447928246324024 0.00026737864828418764 0 0.0028566118576318976 0.0002773091483923596 0 0.0028603818185107097 0.00027497952478440702 0 0.0028878385061066108 0.00030614835400199022 0 0.0028447928246324024 0.00026737864828418764 0 0.0028726322272311362 0.00026341180689448468 0 0.0028447928246324024 0.00026737864828418764 0 0.0028726322272311362 0.00026341180689448468 0 0.0028428189304981464 0.00024014968622584321 0 0.0028830899893814441 0.00023260699478831984 0 0.0028726322272311362 0.00026341180689448468 0 0.0028428189304981464 0.00024014968622584321 0 0.0028128074437883126 0.00024695347327367237 0 0.0028095452635051523 0.00021600955761998119 0 0.0027831478247550595 0.00022200922442015798 0 0.0028428189304981464 0.00024014968622584321 0 0.0028128074437883126 0.00024695347327367237 0 0.0028095452635051523 0.00021600955761998119 0 0.0028447928246324024 0.00026737864828418764 0 0.0028428189304981464 0.00024014968622584321 0 0.0028128074437883126 0.00024695347327367237 0 0.0028095452635051523 0.00021600955761998119 0 0.0028441888760055451 0.0002043588565100893 0 0.0028071096927937069 0.00017884996097146743 0 0.0028095452635051523 0.00021600955761998119 0 0.0028071096927937069 0.00017884996097146743 0 0.0027776490798829983 0.00019027206699914601 0 0.0028428189304981464 0.00024014968622584321 0 0.0028095452635051523 0.00021600955761998119 0 0.0028441888760055451 0.0002043588565100893 0 0.0028830899893814441 0.00023260699478831984 0 0.0028428189304981464 0.00024014968622584321 0 0.0028441888760055451 0.0002043588565100893 0 0.0028830899893814441 0.00023260699478831984 0 0.0028441888760055451 0.0002043588565100893 0 0.0028885167295390028 0.00019074093242824852 0 0.0028441888760055451 0.0002043588565100893 0 0.0028434368805781676 0.00016588342660288106 0 0.0028885167295390028 0.00019074093242824852 0 0.0028441888760055451 0.0002043588565100893 0 0.0028434368805781676 0.00016588342660288106 0 0.0028071096927937069 0.00017884996097146743 0 0.0028434368805781676 0.00016588342660288106 0 0.0028071096927937069 0.00017884996097146743 0 0.0028007687334083613 0.0001466730688980446 0 0.0028071096927937069 0.00017884996097146743 0 0.0027776490798829983 0.00019027206699914601 0 0.0027650249769019964 0.000153791544808977 0 0.0028071096927937069 0.00017884996097146743 0 0.0028007687334083613 0.0001466730688980446 0 0.0027650249769019964 0.000153791544808977 0 0.0028007687334083613 0.0001466730688980446 0 0.0027655660897701025 0.0001158173905835914 0 0.0027650249769019964 0.000153791544808977 0 0.0028007687334083613 0.0001466730688980446 0 0.0027655660897701025 0.0001158173905835914 0 0.0028349730438857529 0.00012415229519991875 0 0.0027655660897701025 0.0001158173905835914 0 0.0028129349668634535 8.1713397465831225e-05 0 0.0027358613588489042 6.1193980216111223e-05 0 0.0028129349668634535 8.1713397465831225e-05 0 0.0028349730438857529 0.00012415229519991875 0 0.0028532712421734936 9.8609868777631789e-05 0 0.0028129349668634535 8.1713397465831225e-05 0 0.0028532712421734936 9.8609868777631789e-05 0 0.0028722374587951036 7.5238449131277674e-05 0 0.0027655660897701025 0.0001158173905835914 0 0.0028129349668634535 8.1713397465831225e-05 0 0.0028349730438857529 0.00012415229519991875 0 0.0028434368805781676 0.00016588342660288106 0 0.0028007687334083613 0.0001466730688980446 0 0.0028349730438857529 0.00012415229519991875 0 0.0028434368805781676 0.00016588342660288106 0 0.0028349730438857529 0.00012415229519991875 0 0.0028924404091584749 0.00014852404920040005 0 0.0028349730438857529 0.00012415229519991875 0 0.0028943919859352207 0.0001085552239650099 0 0.0028532712421734936 9.8609868777631789e-05 0 0.0028349730438857529 0.00012415229519991875 0 0.0028943919859352207 0.0001085552239650099 0 0.0028924404091584749 0.00014852404920040005 0 0.0028943919859352207 0.0001085552239650099 0 0.0029453602815953145 0.00012535310373968907 0 0.0028924404091584749 0.00014852404920040005 0 0.0028943919859352207 0.0001085552239650099 0 0.0028532712421734936 9.8609868777631789e-05 0 0.0028722374587951036 7.5238449131277674e-05 0 0.0028943919859352207 0.0001085552239650099 0 0.0028722374587951036 7.5238449131277674e-05 0 0.0029285633910001605 8.1846131087450833e-05 0 0.0028722374587951036 7.5238449131277674e-05 0 0.0029285633910001605 8.1846131087450833e-05 0 0.0028895072921236945 4.89373380481594e-05 0 0.0029285633910001605 8.1846131087450833e-05 0 0.0029809441956711647 9.7396546143844274e-05 0 0.0029254652122797371 4.5329570311776767e-05 0 0.0029688494932878498 4.580527374702729e-05 0 0.0029046438122020844 -2.7166186277198392e-05 0 0.0028943919859352207 0.0001085552239650099 0 0.0029285633910001605 8.1846131087450833e-05 0 0.0029375862619259452 0.00010327410628139692 0 0.0029453602815953145 0.00012535310373968907 0 0.0029855043688335014 0.00014672546344425143 0 0.0029809441956711647 9.7396546143844274e-05 0 0.0029285633910001605 8.1846131087450833e-05 0 0.0029375862619259452 0.00010327410628139692 0 0.0029809441956711647 9.7396546143844274e-05 0 0.0029375862619259452 0.00010327410628139692 0 0.0029453602815953145 0.00012535310373968907 0 0.0029809441956711647 9.7396546143844274e-05 0 0.0028943919859352207 0.0001085552239650099 0 0.0029375862619259452 0.00010327410628139692 0 0.0029453602815953145 0.00012535310373968907 0 0.0029453602815953145 0.00012535310373968907 0 0.0029855043688335014 0.00014672546344425143 0 0.0029415327239448001 0.00016887772458231524 0 0.0029855043688335014 0.00014672546344425143 0 0.0029415327239448001 0.00016887772458231524 0 0.0029916228629923453 0.00018712805376501189 0 0.0029453602815953145 0.00012535310373968907 0 0.0029415327239448001 0.00016887772458231524 0 0.0028924404091584749 0.00014852404920040005 0 0.0028434368805781676 0.00016588342660288106 0 0.0028924404091584749 0.00014852404920040005 0 0.0028885167295390028 0.00019074093242824852 0 0.0029415327239448001 0.00016887772458231524 0 0.0028924404091584749 0.00014852404920040005 0 0.0028885167295390028 0.00019074093242824852 0 0.0028830899893814441 0.00023260699478831984 0 0.0028885167295390028 0.00019074093242824852 0 0.0029423212992346973 0.00022456726650235982 0 0.0029415327239448001 0.00016887772458231524 0 0.0028885167295390028 0.00019074093242824852 0 0.0029423212992346973 0.00022456726650235982 0 0.0029415327239448001 0.00016887772458231524 0 0.0029423212992346973 0.00022456726650235982 0 0.0029916228629923453 0.00018712805376501189 0 0.0029423212992346973 0.00022456726650235982 0 0.0029916228629923453 0.00018712805376501189 0 0.0030287640317876782 0.00023912712754672573 0 0.0029916228629923453 0.00018712805376501189 0 0.0030287640317876782 0.00023912712754672573 0 0.0030681056777814492 0.00016076320080062067 0 0.0030287640317876782 0.00023912712754672573 0 0.0031545376946663919 0.00023969918530421274 0 0.0030681056777814492 0.00016076320080062067 0 0.0031545376946663919 0.00023969918530421274 0 0.0030681056777814492 0.00016076320080062067 0 0.0031976168775962226 0.0001614426955635086 0 0.0030681056777814492 0.00016076320080062067 0 0.0031056170788417029 4.9275043749207495e-05 0 0.0031976168775962226 0.0001614426955635086 0 0.0029855043688335014 0.00014672546344425143 0 0.0030681056777814492 0.00016076320080062067 0 0.0029809441956711647 9.7396546143844274e-05 0 0.0029855043688335014 0.00014672546344425143 0 0.0029916228629923453 0.00018712805376501189 0 0.0030681056777814492 0.00016076320080062067 0 0.0030554980355678397 0.00015655272142058518 0 0.0029688494932878498 4.580527374702729e-05 0 0.0029478752765137095 -1.0581963721049058e-05 0 0.0031056170788417029 4.9275043749207495e-05 0 0.0030363748223353909 -1.96628326752773e-05 0 0.0030681056777814492 0.00016076320080062067 0 0.0029478752765137095 -1.0581963721049058e-05 0 0.0031056170788417029 4.9275043749207495e-05 0 0.0029478752765137095 -1.0581963721049058e-05 0 0.0029483016367849325 -6.6553155006155587e-05 0 0.0028835505501664856 -9.9463743208859343e-05 0 0.0029478752765137095 -1.0581963721049058e-05 0 0.0029483016367849325 -6.6553155006155587e-05 0 0.0030363748223353909 -1.96628326752773e-05 0 0.0029483016367849325 -6.6553155006155587e-05 0 0.0029342379841555033 -8.6268021137717859e-05 0 0.0029227457317407639 -9.1659758285721104e-05 0 0.0029483016367849325 -6.6553155006155587e-05 0 0.0030363748223353909 -1.96628326752773e-05 0 0.0031716410851477684 -7.4027374214197174e-05 0 0.0029483016367849325 -6.6553155006155587e-05 0 0.0029349325591831931 -8.6295780157920267e-05 0 0.0029342379841555033 -8.6268021137717859e-05 0 0.0029553159171878843 -7.0445292883205272e-05 0 0.0030509722376713768 -7.6985090296156209e-05 0 0.0031056170788417029 4.9275043749207495e-05 0 0.0030363748223353909 -1.96628326752773e-05 0 0.0031716410851477684 -7.4027374214197174e-05 0 0.0031056170788417029 4.9275043749207495e-05 0 0.0032728321662801149 5.7913743523768412e-05 0 0.0031716410851477684 -7.4027374214197174e-05 0 0.0030509722376713768 -7.6985090296156209e-05 0 0.0031507685110056445 -7.3280462488550756e-05 0 0.0029349325591831931 -8.6295780157920267e-05 0 0.002945308170355839 -9.1782340932956383e-05 0 0.0029431966638290381 -0.0001017265384369542 0 0.0032728321662801149 5.7913743523768412e-05 0 0.0031716410851477684 -7.4027374214197174e-05 0 0.0033493242429946603 -5.4658320877456181e-05 0 0.0029349325591831931 -8.6295780157920267e-05 0 0.002945308170355839 -9.1782340932956383e-05 0 0.0029520112743922321 -8.4483711503505172e-05 0 0.0029520112743922321 -8.4483711503505172e-05 0 0.0029513773907948 -9.4817227852617142e-05 0 0.0029626312768581244 -9.1724510903806855e-05 0 0.002945308170355839 -9.1782340932956383e-05 0 0.0029520112743922321 -8.4483711503505172e-05 0 0.0029513773907948 -9.4817227852617142e-05 0 0.0032728321662801149 5.7913743523768412e-05 0 0.0033493242429946603 -5.4658320877456181e-05 0 0.003389230156036498 -1.7352719048273285e-06 0 0.0032686199643545567 6.4308056702371648e-05 0 0.0034072846352681679 2.2756837675724186e-05 0 0.0032728321662801149 5.7913743523768412e-05 0 0.0033639348078893846 6.5545573163162111e-05 0 0.0033452780517372474 0.00011420014695420285 0 0.0033639348078893846 6.5545573163162111e-05 0 0.0033452780517372474 0.00011420014695420285 0 0.0033805550992318349 0.00010526327133515423 0 0.0033452780517372474 0.00011420014695420285 0 0.0033539595933491217 0.00016480131755359408 0 0.0033902642980198163 0.00014609634161864886 0 0.0032728321662801149 5.7913743523768412e-05 0 0.0033452780517372474 0.00011420014695420285 0 0.0033028293242907897 0.00016322435334785226 0 0.0033452780517372474 0.00011420014695420285 0 0.0033539595933491217 0.00016480131755359408 0 0.0033028293242907897 0.00016322435334785226 0 0.0032728321662801149 5.7913743523768412e-05 0 0.0033028293242907897 0.00016322435334785226 0 0.0031976168775962226 0.0001614426955635086 0 0.0031056170788417029 4.9275043749207495e-05 0 0.0032728321662801149 5.7913743523768412e-05 0 0.0031976168775962226 0.0001614426955635086 0 0.0033028293242907897 0.00016322435334785226 0 0.0031976168775962226 0.0001614426955635086 0 0.0032792480848960301 0.00025099746777511035 0 0.0031545376946663919 0.00023969918530421274 0 0.0031976168775962226 0.0001614426955635086 0 0.0032792480848960301 0.00025099746777511035 0 0.0033028293242907897 0.00016322435334785226 0 0.0032792480848960301 0.00025099746777511035 0 0.0033503786184930135 0.0002163278640595097 0 0.0033428419407393085 0.00026697586355229139 0 0.0032792480848960301 0.00025099746777511035 0 0.0033503786184930135 0.0002163278640595097 0 0.0033763202885020377 0.00025348266777309851 0 0.0033428419407393085 0.00026697586355229139 0 0.0033503786184930135 0.0002163278640595097 0 0.0033539595933491217 0.00016480131755359408 0 0.0033028293242907897 0.00016322435334785226 0 0.0033503786184930135 0.0002163278640595097 0 0.0033539595933491217 0.00016480131755359408 0 0.0033503786184930135 0.0002163278640595097 0 0.0033884724507206782 0.00018973126402698788 0 0.0027033814362080705 0.00023109934438363962 0 0.0026864206872167892 0.00023075891102752421 0 0.0026934241681566178 0.00025403110128968074 0 0.0029727898974595116 0.00011007973332130795 0 0.0030816157650441637 0.0001379324511905801 0 0.0027033814362080705 0.00023109934438363962 0 0.0026934241681566178 0.00025403110128968074 0 0.0027213994493357463 0.00026497737394509804 0 0.0027033814362080705 0.00023109934438363962 0 0.0027213994493357463 0.00026497737394509804 0 0.0027303433626024343 0.00024646458771367515 0 0.0027033814362080705 0.00023109934438363962 0 0.0027161466133272505 0.00021767965563648355 0 0.0026879676205242616 0.00019654084745489211 0 0.0026642340622125621 0.00022371156429780925 0 0.0026879676205242616 0.00019654084745489211 0 0.0026558990152763294 0.00020020173554593485 0 0.0025826544456229615 0.00024815524581073891 0 0.0029727898974595116 0.00011007973332130795 0 0.0027033814362080705 0.00023109934438363962 0 0.0026642340622125621 0.00022371156429780925 0 0.0026879676205242616 0.00019654084745489211 0 0.0029433787209454825 -7.5682386617726696e-05 0 0.0030569782711682451 1.9741444596584648e-05 0 0.0029787239373247061 1.3408010983893909e-05 0 0.0029727898974595116 0.00011007973332130795 0 0.0028120873320047401 9.703763073770081e-05 0 0.0029433787209454825 -7.5682386617726696e-05 0 0.0032204511950267305 -1.9710373421796337e-07 0 0.0030569782711682451 1.9741444596584648e-05 0 0.0029727898974595116 0.00011007973332130795 0 0.0032212680834781742 -9.1800359900124331e-08 0 0.0032212672571819926 -1.6283214750365285e-07 0 0.0034250588216651495 1.5647242602312322e-07 0 0.0034150079791849947 2.2334310557367732e-05 0 0.0034543538707568805 -2.8038040872752043e-05 0 0.0032212672571819926 -1.6283214750365285e-07 0 0.0034150079791849947 2.2334310557367732e-05 0 0.0034543538707568805 -2.8038040872752043e-05 0 0.0034150079791849947 2.2334310557367732e-05 0 0.0034413129965465811 2.9316694643433793e-05 0 0.0034150079791849947 2.2334310557367732e-05 0 0.0034736383732833116 2.1638874434725758e-05 0 0.0034413129965465811 2.9316694643433793e-05 0 0.0034736383732833116 2.1638874434725758e-05 0 0.0034471172980198514 -1.1465115052469851e-05 0 0.0034413129965465811 2.9316694643433793e-05 0 0.0034250588216651495 1.5647242602312322e-07 0 0.0034150079791849947 2.2334310557367732e-05 0 0.0034736383732833116 2.1638874434725758e-05 0 0.0034250588216651495 1.5647242602312322e-07 0 0.0034736383732833116 2.1638874434725758e-05 0 0.0036288236825929572 -1.4407902902002465e-07 0 0.0036621976443994802 -4.0541280370375052e-05 0 0.0036293579412279777 3.8337223044349027e-08 0 0.003479750347340198 -7.8825608378263693e-05 0 0.0034736383732833116 2.1638874434725758e-05 0 0.0036288236825929572 -1.4407902902002465e-07 0 0.003479750347340198 -7.8825608378263693e-05 0 0.0034736383732833116 2.1638874434725758e-05 0 0.0034471172980198514 -1.1465115052469851e-05 0 0.003479750347340198 -7.8825608378263693e-05 0 0.0034471172980198514 -1.1465115052469851e-05 0 0.0034000954144611101 -3.6575383566196086e-05 0 0.0034471172980198514 -1.1465115052469851e-05 0 0.0034000954144611101 -3.6575383566196086e-05 0 0.0034413129965465811 2.9316694643433793e-05 0 0.003005834966986753 0.00014361628841462202 0 0.0030816157650441637 0.0001379324511905801 0 0.0027107636914804642 0.00028505427654582988 0 0.0026934241681566178 0.00025403110128968074 0 0.0027213994493357463 0.00026497737394509804 0 0.0027107636914804642 0.00028505427654582988 0 0.0027362066791723925 0.00029329006039770586 0 0.0027363866031851303 0.000281297807833931 0 0.0027107636914804642 0.00028505427654582988 0 0.0027213994493357463 0.00026497737394509804 0 0.0027363866031851303 0.000281297807833931 0 0.0027362066791723925 0.00029329006039770586 0 0.0027363866031851303 0.000281297807833931 0 0.0027491062695129214 0.00029268763946539353 0 0.0027363866031851303 0.000281297807833931 0 0.0027491062695129214 0.00029268763946539353 0 0.0027463014574217858 0.00027584654754636356 0 0.00276888071020444 0.00028162097714969081 0 0.002764311455563365 0.00029566169339720588 0 0.0027463014574217858 0.00027584654754636356 0 0.0027491062695129214 0.00029268763946539353 0 0.002764311455563365 0.00029566169339720588 0 0.0027463014574217858 0.00027584654754636356 0 0.002759385712477567 0.00029849726346922484 0 0.0027491062695129214 0.00029268763946539353 0 0.002764311455563365 0.00029566169339720588 0 0.0027557805134278994 0.00026108455780144194 0 0.0027463014574217858 0.00027584654754636356 0 0.0027303433626024343 0.00024646458771367515 0 0.00276888071020444 0.00028162097714969081 0 0.0027557805134278994 0.00026108455780144194 0 0.0027463014574217858 0.00027584654754636356 0 0.0027213994493357463 0.00026497737394509804 0 0.0027463014574217858 0.00027584654754636356 0 0.0027303433626024343 0.00024646458771367515 0 0.0027213994493357463 0.00026497737394509804 0 0.0027363866031851303 0.000281297807833931 0 0.0027463014574217858 0.00027584654754636356 0 0.0036943365281183597 0.00034037839088104418 0 0.0036371903801673609 0.0003469799051022331 0 0.0027973957682585608 0.00030837101537786716 0 0.002841227010014435 0.00030941760065889126 0 0.0027894673908512506 0.00028013054277926816 0 0.0027973957682585608 0.00030837101537786716 0 0.00276888071020444 0.00028162097714969081 0 0.0027894673908512506 0.00028013054277926816 0 0.0027973957682585608 0.00030837101537786716 0 0.00276888071020444 0.00028162097714969081 0 0.002764311455563365 0.00029566169339720588 0 0.00276888071020444 0.00028162097714969081 0 0.0027557805134278994 0.00026108455780144194 0 0.0027894673908512506 0.00028013054277926816 0 0.0027557805134278994 0.00026108455780144194 0 0.0027894673908512506 0.00028013054277926816 0 0.0027829323383151269 0.00025252756442434266 0 0.0028206550948345266 0.0002740201031419122 0 0.0027894673908512506 0.00028013054277926816 0 0.0027829323383151269 0.00025252756442434266 0 0.002841227010014435 0.00030941760065889126 0 0.0028206550948345266 0.0002740201031419122 0 0.0027894673908512506 0.00028013054277926816 0 0.0028206550948345266 0.0002740201031419122 0 0.0028128074437883126 0.00024695347327367237 0 0.0027829323383151269 0.00025252756442434266 0 0.0027557805134278994 0.00026108455780144194 0 0.0027829323383151269 0.00025252756442434266 0 0.0027440906862485712 0.00022245740173010606 0 0.0027831478247550595 0.00022200922442015798 0 0.0027440906862485712 0.00022245740173010606 0 0.0027526606053182284 0.00019597019802552164 0 0.0027829323383151269 0.00025252756442434266 0 0.0027831478247550595 0.00022200922442015798 0 0.0027440906862485712 0.00022245740173010606 0 0.0028128074437883126 0.00024695347327367237 0 0.0027829323383151269 0.00025252756442434266 0 0.0027831478247550595 0.00022200922442015798 0 0.0027033814362080705 0.00023109934438363962 0 0.0027303433626024343 0.00024646458771367515 0 0.0027161466133272505 0.00021767965563648355 0 0.0027557805134278994 0.00026108455780144194 0 0.0027303433626024343 0.00024646458771367515 0 0.0027440906862485712 0.00022245740173010606 0 0.0027440906862485712 0.00022245740173010606 0 0.0027161466133272505 0.00021767965563648355 0 0.0027160511119913374 0.00019169073730159188 0 0.0027303433626024343 0.00024646458771367515 0 0.0027440906862485712 0.00022245740173010606 0 0.0027161466133272505 0.00021767965563648355 0 0.0027161466133272505 0.00021767965563648355 0 0.0027160511119913374 0.00019169073730159188 0 0.0026879676205242616 0.00019654084745489211 0 0.0027440906862485712 0.00022245740173010606 0 0.0027160511119913374 0.00019169073730159188 0 0.0027309931241877423 0.00018605151322621807 0 0.0027160511119913374 0.00019169073730159188 0 0.0027309931241877423 0.00018605151322621807 0 0.0027126944992075766 0.00016237139421141429 0 0.0027309931241877423 0.00018605151322621807 0 0.0027126944992075766 0.00016237139421141429 0 0.0027324330530375789 0.00016061345785214177 0 0.0027126944992075766 0.00016237139421141429 0 0.0026976415026254853 0.00015224504691439123 0 0.0026966789563145515 0.00017497274742273063 0 0.0027160511119913374 0.00019169073730159188 0 0.0027126944992075766 0.00016237139421141429 0 0.0026966789563145515 0.00017497274742273063 0 0.0028095452635051523 0.00021600955761998119 0 0.0027831478247550595 0.00022200922442015798 0 0.0027776490798829983 0.00019027206699914601 0 0.0027831478247550595 0.00022200922442015798 0 0.0027776490798829983 0.00019027206699914601 0 0.0027526606053182284 0.00019597019802552164 0 0.0027440906862485712 0.00022245740173010606 0 0.0027309931241877423 0.00018605151322621807 0 0.0027526606053182284 0.00019597019802552164 0 0.0027309931241877423 0.00018605151322621807 0 0.0027526606053182284 0.00019597019802552164 0 0.0027324330530375789 0.00016061345785214177 0 0.0027776490798829983 0.00019027206699914601 0 0.0027324330530375789 0.00016061345785214177 0 0.0027650249769019964 0.000153791544808977 0 0.0027776490798829983 0.00019027206699914601 0 0.0027526606053182284 0.00019597019802552164 0 0.0027324330530375789 0.00016061345785214177 0 0.0027655660897701025 0.0001158173905835914 0 0.0027201314610166352 0.00012993308897809032 0 0.0027650249769019964 0.000153791544808977 0 0.0027324330530375789 0.00016061345785214177 0 0.0027201314610166352 0.00012993308897809032 0 0.0027650249769019964 0.000153791544808977 0 0.0027324330530375789 0.00016061345785214177 0 0.0027201314610166352 0.00012993308897809032 0 0.0027056289307363902 0.00013051784945907421 0 0.0027201314610166352 0.00012993308897809032 0 0.0026826646045000385 9.048261973031949e-05 0 0.0027056289307363902 0.00013051784945907421 0 0.0026851010144038649 8.840985210198454e-05 0 0.0026488314790601188 0.00010064896074673196 0 0.0027655660897701025 0.0001158173905835914 0 0.0027201314610166352 0.00012993308897809032 0 0.0026826646045000385 9.048261973031949e-05 0 0.0027655660897701025 0.0001158173905835914 0 0.0026826646045000385 9.048261973031949e-05 0 0.0027358613588489042 6.1193980216111223e-05 0 0.0026377723666335356 9.6645658424737062e-05 0 0.0026488314790601188 0.00010064896074673196 0 0.0027126944992075766 0.00016237139421141429 0 0.0026976415026254853 0.00015224504691439123 0 0.0027056289307363902 0.00013051784945907421 0 0.0027126944992075766 0.00016237139421141429 0 0.0027324330530375789 0.00016061345785214177 0 0.0027056289307363902 0.00013051784945907421 0 0.0025691264482521061 4.5589136815534474e-05 0 0.0025843038157575258 7.4817907254366698e-05 0 0.0025710987333769806 3.9924243681436269e-05 0 0.0025691264482521061 4.5589136815534474e-05 0 0.0025795880809578215 4.1920280413862606e-05 0 0.0025710987333769806 3.9924243681436269e-05 0 0.0025795880809578215 4.1920280413862606e-05 0 0.002644077981274303 1.664491836202985e-05 0 0.0025885688707556389 4.3597227993564603e-05 0 0.0025795880809578215 4.1920280413862606e-05 0 0.0025885688707556389 4.3597227993564603e-05 0 0.002570690438530011 3.0726534909899669e-05 0 0.0025795880809578215 4.1920280413862606e-05 0 0.0025845169312564121 -4.024394031898696e-06 0 0.002644077981274303 1.664491836202985e-05 0 0.0025691264482521061 4.5589136815534474e-05 0 0.0025795880809578215 4.1920280413862606e-05 0 0.0025845169312564121 -4.024394031898696e-06 0 0.0026377723666335356 9.6645658424737062e-05 0 0.0026183430636370188 8.0392823785461272e-05 0 0.0026976415026254853 0.00015224504691439123 0 0.0026966789563145515 0.00017497274742273063 0 0.002676940877759733 0.00016571235461358276 0 0.0026966789563145515 0.00017497274742273063 0 0.002676940877759733 0.00016571235461358276 0 0.0026879676205242616 0.00019654084745489211 0 0.002676940877759733 0.00016571235461358276 0 0.0026676284151881083 0.00018460468589020509 0 0.0026879676205242616 0.00019654084745489211 0 0.0026676284151881083 0.00018460468589020509 0 0.0026879676205242616 0.00019654084745489211 0 0.0026558990152763294 0.00020020173554593485 0 0.0027160511119913374 0.00019169073730159188 0 0.0026966789563145515 0.00017497274742273063 0 0.0026879676205242616 0.00019654084745489211 0 0.0032204511950267305 -1.9710373421796337e-07 0 0.0029809949837568705 9.3441074101819938e-08 0 0.0030569782711682451 1.9741444596584648e-05 0 0.0029809949837568705 9.3441074101819938e-08 0 0.0030569782711682451 1.9741444596584648e-05 0 0.0029392356136827666 1.4771718941544047e-05 0 0.0030569782711682451 1.9741444596584648e-05 0 0.0029787239373247061 1.3408010983893909e-05 0 0.0029392356136827666 1.4771718941544047e-05 0 0.0029787239373247061 1.3408010983893909e-05 0 0.0029444042989347019 1.2140148911314243e-05 0 0.0029392356136827666 1.4771718941544047e-05 0 0.0026676284151881083 0.00018460468589020509 0 0.0026558990152763294 0.00020020173554593485 0 0.0026490814225060442 0.00017890947510709791 0 0.0028120873320047401 9.703763073770081e-05 0 0.0027726346722751877 6.6689191033859316e-05 0 0.0027278479170693721 -9.3359871952661521e-05 0 0.0027816243031360357 -9.1525796938939189e-06 0 0.002644077981274303 1.664491836202985e-05 0 0.002676940877759733 0.00016571235461358276 0 0.0026676284151881083 0.00018460468589020509 0 0.0026490814225060442 0.00017890947510709791 0 0.0025845169312564121 -4.024394031898696e-06 0 0.0027278479170693721 -9.3359871952661521e-05 0 0.002644077981274303 1.664491836202985e-05 0 0.0026183430636370188 8.0392823785461272e-05 0 0.0027726346722751877 6.6689191033859316e-05 0 0.0027726346722751877 6.6689191033859316e-05 0 0.0027846434961670478 -7.4867593781325664e-06 0 0.0029809949837568705 9.3441074101819938e-08 0 0.0027816243031360357 -9.1525796938939189e-06 0 0.0027409618099684925 -1.8896942317266565e-08 0 0.0029809949837568705 9.3441074101819938e-08 0 0.0027816243031360357 -9.1525796938939189e-06 0 0.0029392356136827666 1.4771718941544047e-05 0 0.0029283647818727954 1.1556691921780723e-05 0 0.0027816243031360357 -9.1525796938939189e-06 0 0.0029392356136827666 1.4771718941544047e-05 0 0.0027726346722751877 6.6689191033859316e-05 0 0.002842401235764003 3.7700461074012739e-05 0 0.0027816243031360357 -9.1525796938939189e-06 0 0.0027409618099684925 -1.8896942317266565e-08 0 0.0026344852707645755 3.2460228880467812e-05 0 0.002644077981274303 1.664491836202985e-05 0 0.0025885688707556389 4.3597227993564603e-05 0 0.0026344852707645755 3.2460228880467812e-05 0 0.0027816243031360357 -9.1525796938939189e-06 0 0.002644077981274303 1.664491836202985e-05 0 0.0026344852707645755 3.2460228880467812e-05 0 0.0025885688707556389 4.3597227993564603e-05 0 0.0026344852707645755 3.2460228880467812e-05 0 0.0025211390681345093 3.3981071319804079e-05 0 0.0027409618099684925 -1.8896942317266565e-08 0 0.0026344852707645755 3.2460228880467812e-05 0 0.0025009724719064989 1.6177229778011379e-07 0 0.0026344852707645755 3.2460228880467812e-05 0 0.0025009724719064989 1.6177229778011379e-07 0 0.0025211390681345093 3.3981071319804079e-05 0 0.0025009724719064989 1.6177229778011379e-07 0 0.0025211390681345093 3.3981071319804079e-05 0 0.0022615496149841563 -1.9836379313055208e-07 0 0.0025211390681345093 3.3981071319804079e-05 0 0.0025224206287103416 -3.5521291723496394e-05 0 0.002570690438530011 3.0726534909899669e-05 0 0.0025885688707556389 4.3597227993564603e-05 0 0.0025211390681345093 3.3981071319804079e-05 0 0.002570690438530011 3.0726534909899669e-05 0 0.0025211390681345093 3.3981071319804079e-05 0 0.0025224206287103416 -3.5521291723496394e-05 0 0.0022615496149841563 -1.9836379313055208e-07 0 0.0022876670879031641 6.2185897829556747e-06 0 0.0022610837851424117 -1.4074379031800613e-09 0 0.0025710987333769806 3.9924243681436269e-05 0 0.002570690438530011 3.0726534909899669e-05 0 0.002569422541866595 8.9431769672815971e-06 0 0.0025795880809578215 4.1920280413862606e-05 0 0.0025710987333769806 3.9924243681436269e-05 0 0.002570690438530011 3.0726534909899669e-05 0 0.0022876670879031641 6.2185897829556747e-06 0 0.0023313486314364982 4.8049494728494174e-05 0 0.0025224206287103416 -3.5521291723496394e-05 0 0.002570690438530011 3.0726534909899669e-05 0 0.002569422541866595 8.9431769672815971e-06 0 0.0025710987333769806 3.9924243681436269e-05 0 0.002569422541866595 8.9431769672815971e-06 0 0.0025667404449685222 2.8572745772097133e-05 0 0.0023313486314364982 4.8049494728494174e-05 0 0.0024195104906291594 6.4817632954829337e-05 0 0.0020889059608930577 9.3416845549282895e-05 0 0.0021492695449347263 9.7109554036570705e-06 0 0.0022694946914992896 0.00011322140470424014 0 0.0020502345394989938 3.5926034250690725e-05 0 0.0020889059608930577 9.3416845549282895e-05 0 0.0019878144348229815 1.871035159237784e-05 0 0.0020889059608930577 9.3416845549282895e-05 0 0.0021492695449347263 9.7109554036570705e-06 0 0.0019878144348229815 1.871035159237784e-05 0 0.0021492695449347263 9.7109554036570705e-06 0 0.0019878144348229815 1.871035159237784e-05 0 0.002044213741388252 -4.4251888224653015e-05 0 0.0021492695449347263 9.7109554036570705e-06 0 0.002044213741388252 -4.4251888224653015e-05 0 0.0022526222900374569 -0.00010387618928999921 0 0.0020502345394989938 3.5926034250690725e-05 0 0.0022605791869490031 -1.4025989920122566e-07 0 0.0020339402669556461 1.0632646667064186e-07 0 0.0020502345394989938 3.5926034250690725e-05 0 0.0020339402669556461 1.0632646667064186e-07 0 0.0019878144348229815 1.871035159237784e-05 0 0.0020339402669556461 1.0632646667064186e-07 0 0.0019878144348229815 1.871035159237784e-05 0 0.0018065340709630575 1.3292637690456948e-07 0 0.0018065340709630575 1.3292637690456948e-07 0 0.0015799783246559142 -4.2734889610802798e-07 0 0.0018714361612910378 -2.626064671973098e-05 0 0.0015799783246559142 -4.2734889610802798e-07 0 0.0018714361612910378 -2.626064671973098e-05 0 0.0019068336163649579 -0.00018596552487044074 0 0.0019878144348229815 1.871035159237784e-05 0 0.0018714361612910378 -2.626064671973098e-05 0 0.002044213741388252 -4.4251888224653015e-05 0 0.0019878144348229815 1.871035159237784e-05 0 0.0018065340709630575 1.3292637690456948e-07 0 0.0018714361612910378 -2.626064671973098e-05 0 0.0020422074011560774 -5.2499756604377227e-05 0 0.0020476697568142365 -0.00020011182667361698 0 0.002044213741388252 -4.4251888224653015e-05 0 0.0021921464032700856 -0.00020761925841711424 0 0.0022526222900374569 -0.00010387618928999921 0 0.0021921464032700856 -0.00020761925841711424 0 0.0020800584670325676 -0.00031293450687508732 0 0.0023126662111335127 -0.00028883931723572867 0 0.002044213741388252 -4.4251888224653015e-05 0 0.0021921464032700856 -0.00020761925841711424 0 0.0020800584670325676 -0.00031293450687508732 0 0.0018714361612910378 -2.626064671973098e-05 0 0.002044213741388252 -4.4251888224653015e-05 0 0.0020117684907760424 -0.00010160237836384636 0 0.0018714361612910378 -2.626064671973098e-05 0 0.0020117684907760424 -0.00010160237836384636 0 0.0019068336163649579 -0.00018596552487044074 0 0.0020117684907760424 -0.00010160237836384636 0 0.0020282971688931257 -0.00028414324338712485 0 0.0019068336163649579 -0.00018596552487044074 0 0.0020476697568142365 -0.00020011182667361698 0 0.002066340052877228 -0.00041741830536571998 0 0.0020800584670325676 -0.00031293450687508732 0 0.0021080156797647883 -0.00051226244859149553 0 0.002242640761010216 -0.00044888088854557867 0 0.0020800584670325676 -0.00031293450687508732 0 0.002242640761010216 -0.00044888088854557867 0 0.0023126662111335127 -0.00028883931723572867 0 0.0022716379269239525 -0.00039709002190819629 0 0.0022261996929488874 -0.00047990846377080895 0 0.0021080156797647883 -0.00051226244859149553 0 0.002242640761010216 -0.00044888088854557867 0 0.0021807356397096967 -0.00058814147933028914 0 0.0020282971688931257 -0.00028414324338712485 0 0.0019149813199133491 -0.00030708480891883215 0 0.0019068336163649579 -0.00018596552487044074 0 0.0020282971688931257 -0.00028414324338712485 0 0.0019149813199133491 -0.00030708480891883215 0 0.0019681403904974748 -0.00039131566716067153 0 0.0019149813199133491 -0.00030708480891883215 0 0.0017323453453772849 -0.00027041568133213918 0 0.001855343302237232 -0.00044098302685112613 0 0.0019149813199133491 -0.00030708480891883215 0 0.0017323453453772849 -0.00027041568133213918 0 0.0019068336163649579 -0.00018596552487044074 0 0.0013528631363373084 -2.4187420779469998e-08 0 0.0012552043784754294 -1.0208037812329967e-05 0 0.0011265368705464138 5.3881930766878242e-08 0 0.0015793180070982906 -4.7503636598700908e-09 0 0.0014922957679920584 -0.00012137125243416922 0 0.0015792428750248425 -6.6526594144292215e-08 0 0.0013528631363373084 -2.4187420779469998e-08 0 0.0012552043784754294 -1.0208037812329967e-05 0 0.0015799783246559142 -4.2734889610802798e-07 0 0.0017323453453772849 -0.00027041568133213918 0 0.0019068336163649579 -0.00018596552487044074 0 0.0023661829311300633 -0.00035147424169008554 0 0.0023583053919872623 -0.00035705778978032386 0 0.0023695496707474028 -0.00035034237199262444 0 0.0023661829311300633 -0.00035147424169008554 0 0.0023695496707474028 -0.00035034237199262444 0 0.0023661340664365466 -0.00034718612081680652 0 0.0023897127450787387 -0.00034556614638141838 0 0.0024415760600280836 -0.00033748953464937627 0 0.0023117142518621014 -0.00034012532077231153 0 0.0023608331175691637 -0.00029356563710108594 0 0.0026344447443920867 -0.00021579041489957121 0 0.0026651535296868837 -0.00016194972878384229 0 0.0026702301251850407 -0.00019840820188821211 0 0.0023661829311300633 -0.00035147424169008554 0 0.0023700662547278578 -0.00035215511505479094 0 0.0023583053919872623 -0.00035705778978032386 0 0.0023661829311300633 -0.00035147424169008554 0 0.0023697839257123521 -0.00035271078692053758 0 0.0023661340664365466 -0.00034718612081680652 0 0.0023463440329176528 -0.00035096532878251159 0 0.0023117142518621014 -0.00034012532077231153 0 0.0020400787297029138 -0.00035638310263769445 0 0.0020436446872638073 -0.00039206063149136892 0 0.0020109920294273977 -0.00041213902512082329 0 0.0023117142518621014 -0.00034012532077231153 0 0.0021616540196611952 -0.00039840946625108479 0 0.0020400787297029138 -0.00035638310263769445 0 0.0020436446872638073 -0.00039206063149136892 0 0.0020718936396517326 -0.00036864654496768148 0 0.0023700662547278578 -0.00035215511505479094 0 0.0023583053919872623 -0.00035705778978032386 0 0.0023488206288458731 -0.00037339785289204955 0 0.0023583053919872623 -0.00035705778978032386 0 0.00233939077735996 -0.00036536727595891529 0 0.0023488206288458731 -0.00037339785289204955 0 0.00233939077735996 -0.00036536727595891529 0 0.0023089521017030002 -0.00037069347500058456 0 0.0023695496707474028 -0.00035034237199262444 0 0.0023583053919872623 -0.00035705778978032386 0 0.00233939077735996 -0.00036536727595891529 0 0.0023695496707474028 -0.00035034237199262444 0 0.0023089521017030002 -0.00037069347500058456 0 0.0022979500880136962 -0.0003537179611135636 0 0.0022879118761466462 -0.00037491657579295448 0 0.0023089521017030002 -0.00037069347500058456 0 0.0022979500880136962 -0.0003537179611135636 0 0.0023695496707474028 -0.00035034237199262444 0 0.0022716379269239525 -0.00039709002190819629 0 0.0023093246158945903 -0.00029800750347073752 0 0.0022979500880136962 -0.0003537179611135636 0 0.0023695496707474028 -0.00035034237199262444 0 0.0023126662111335127 -0.00028883931723572867 0 0.0024390441491938292 -0.00025287854502653329 0 0.0023126662111335127 -0.00028883931723572867 0 0.0023588895794264095 -0.00018517684511994305 0 0.0023695496707474028 -0.00035034237199262444 0 0.0024390441491938292 -0.00025287854502653329 0 0.0023126662111335127 -0.00028883931723572867 0 0.0021921464032700856 -0.00020761925841711424 0 0.0023126662111335127 -0.00028883931723572867 0 0.0023588895794264095 -0.00018517684511994305 0 0.0023588895794264095 -0.00018517684511994305 0 0.0022526222900374569 -0.00010387618928999921 0 0.0023950419645307804 -5.4484463281207168e-05 0 0.0021921464032700856 -0.00020761925841711424 0 0.0023588895794264095 -0.00018517684511994305 0 0.0022526222900374569 -0.00010387618928999921 0 0.0024390441491938292 -0.00025287854502653329 0 0.0023588895794264095 -0.00018517684511994305 0 0.002488318632176648 -0.00016286661445171901 0 0.0023588895794264095 -0.00018517684511994305 0 0.002488318632176648 -0.00016286661445171901 0 0.0023950419645307804 -5.4484463281207168e-05 0 0.002488318632176648 -0.00016286661445171901 0 0.0025973127233859012 -0.00017687416653118282 0 0.0025680760663482089 -7.7699218974679768e-05 0 0.002488318632176648 -0.00016286661445171901 0 0.0025220361856275117 -0.0002231010628749973 0 0.0025973127233859012 -0.00017687416653118282 0 0.0024390441491938292 -0.00025287854502653329 0 0.002488318632176648 -0.00016286661445171901 0 0.0025220361856275117 -0.0002231010628749973 0 0.0025220361856275117 -0.0002231010628749973 0 0.0025632958009915528 -0.00030601033643195733 0 0.0025973127233859012 -0.00017687416653118282 0 0.0024390441491938292 -0.00025287854502653329 0 0.0025220361856275117 -0.0002231010628749973 0 0.0025632958009915528 -0.00030601033643195733 0 0.0023695496707474028 -0.00035034237199262444 0 0.0024390441491938292 -0.00025287854502653329 0 0.0025632958009915528 -0.00030601033643195733 0 0.0023697839257123521 -0.00035271078692053758 0 0.0023661340664365466 -0.00034718612081680652 0 0.0023825355235497846 -0.00033760072195074882 0 0.0024415760600280836 -0.00033748953464937627 0 0.0026330196839951781 -0.00020819689744552407 0 0.0023117142518621014 -0.00034012532077231153 0 0.0026330196839951781 -0.00020819689744552407 0 0.0025632958009915528 -0.00030601033643195733 0 0.0025973127233859012 -0.00017687416653118282 0 0.0027033494021726106 -0.00023673561443822601 0 0.0025973127233859012 -0.00017687416653118282 0 0.002669810118894003 -0.00010966461465825885 0 0.0027033494021726106 -0.00023673561443822601 0 0.002669810118894003 -0.00010966461465825885 0 0.0025680760663482089 -7.7699218974679768e-05 0 0.0026449001658688698 -2.5225267349785224e-05 0 0.002669810118894003 -0.00010966461465825885 0 0.0026449001658688698 -2.5225267349785224e-05 0 0.0027281744474517236 -5.7576815479226713e-05 0 0.0025973127233859012 -0.00017687416653118282 0 0.002669810118894003 -0.00010966461465825885 0 0.0025680760663482089 -7.7699218974679768e-05 0 0.0026449001658688698 -2.5225267349785224e-05 0 0.002529522918304725 3.6949957510919817e-05 0 0.0026406774360511012 3.5537992295975662e-05 0 0.0025680760663482089 -7.7699218974679768e-05 0 0.0026449001658688698 -2.5225267349785224e-05 0 0.002529522918304725 3.6949957510919817e-05 0 0.0021492695449347263 9.7109554036570705e-06 0 0.0022526222900374569 -0.00010387618928999921 0 0.0023950419645307804 -5.4484463281207168e-05 0 0.002488318632176648 -0.00016286661445171901 0 0.0025680760663482089 -7.7699218974679768e-05 0 0.0023950419645307804 -5.4484463281207168e-05 0 0.0025680760663482089 -7.7699218974679768e-05 0 0.0023950419645307804 -5.4484463281207168e-05 0 0.002529522918304725 3.6949957510919817e-05 0 0.0023950419645307804 -5.4484463281207168e-05 0 0.002529522918304725 3.6949957510919817e-05 0 0.0022694946914992896 0.00011322140470424014 0 0.0025183597447531662 4.3601507605548508e-05 0 0.0024195104906291594 6.4817632954829337e-05 0 0.0021492695449347263 9.7109554036570705e-06 0 0.0023950419645307804 -5.4484463281207168e-05 0 0.0022694946914992896 0.00011322140470424014 0 0.0025710987333769806 3.9924243681436269e-05 0 0.0025667404449685222 2.8572745772097133e-05 0 0.0025747661062185227 4.2065868027026015e-05 0 0.002529522918304725 3.6949957510919817e-05 0 0.0025667404449685222 2.8572745772097133e-05 0 0.0025747661062185227 4.2065868027026015e-05 0 0.0025843038157575258 7.4817907254366698e-05 0 0.0025710987333769806 3.9924243681436269e-05 0 0.0025747661062185227 4.2065868027026015e-05 0 0.0026406774360511012 3.5537992295975662e-05 0 0.0027358613588489042 6.1193980216111223e-05 0 0.0027204546286035782 3.8162130470820389e-06 0 0.0026449001658688698 -2.5225267349785224e-05 0 0.0026406774360511012 3.5537992295975662e-05 0 0.0027204546286035782 3.8162130470820389e-06 0 0.002529522918304725 3.6949957510919817e-05 0 0.0025747661062185227 4.2065868027026015e-05 0 0.0026406774360511012 3.5537992295975662e-05 0 0.0026826646045000385 9.048261973031949e-05 0 0.0025747661062185227 4.2065868027026015e-05 0 0.0026406774360511012 3.5537992295975662e-05 0 0.0026826646045000385 9.048261973031949e-05 0 0.0025843038157575258 7.4817907254366698e-05 0 0.0025747661062185227 4.2065868027026015e-05 0 0.0026826646045000385 9.048261973031949e-05 0 0.0026406774360511012 3.5537992295975662e-05 0 0.0027358613588489042 6.1193980216111223e-05 0 0.0028129349668634535 8.1713397465831225e-05 0 0.0027358613588489042 6.1193980216111223e-05 0 0.0027874781854162938 2.5830172014612649e-05 0 0.0027358613588489042 6.1193980216111223e-05 0 0.0027204546286035782 3.8162130470820389e-06 0 0.0027874781854162938 2.5830172014612649e-05 0 0.0027204546286035782 3.8162130470820389e-06 0 0.0027874781854162938 2.5830172014612649e-05 0 0.0027789995580222832 -2.6384302105368086e-05 0 0.0027874781854162938 2.5830172014612649e-05 0 0.0028218057875387236 -6.882758846700733e-06 0 0.0027789995580222832 -2.6384302105368086e-05 0 0.0027874781854162938 2.5830172014612649e-05 0 0.0028218057875387236 -6.882758846700733e-06 0 0.0028473093799442489 3.5287336941817603e-05 0 0.0028129349668634535 8.1713397465831225e-05 0 0.0027874781854162938 2.5830172014612649e-05 0 0.0028473093799442489 3.5287336941817603e-05 0 0.0028129349668634535 8.1713397465831225e-05 0 0.0028722374587951036 7.5238449131277674e-05 0 0.0028473093799442489 3.5287336941817603e-05 0 0.0028722374587951036 7.5238449131277674e-05 0 0.0028473093799442489 3.5287336941817603e-05 0 0.0028895072921236945 4.89373380481594e-05 0 0.0028895072921236945 4.89373380481594e-05 0 0.0029254652122797371 4.5329570311776767e-05 0 0.0028800606469998285 -2.1612250240421377e-05 0 0.0029285633910001605 8.1846131087450833e-05 0 0.0028895072921236945 4.89373380481594e-05 0 0.0029254652122797371 4.5329570311776767e-05 0 0.0028835505501664856 -9.9463743208859343e-05 0 0.002875164413170107 -0.00011229224774888495 0 0.0029039989788094173 -0.00010674312082858929 0 0.0028421972057707471 -0.00011654497844915984 0 0.002875164413170107 -0.00011229224774888495 0 0.0028368876777940446 -0.00011573445517431974 0 0.0029046438122020844 -2.7166186277198392e-05 0 0.0028597635523589307 -6.9823830031387832e-05 0 0.0028835505501664856 -9.9463743208859343e-05 0 0.0028421972057707471 -0.00011654497844915984 0 0.002875164413170107 -0.00011229224774888495 0 0.0028706578364586953 -0.00011371338079750736 0 0.0028674752596011088 -0.00011834370615166232 0 0.0028218057875387236 -6.882758846700733e-06 0 0.0028473093799442489 3.5287336941817603e-05 0 0.0028800606469998285 -2.1612250240421377e-05 0 0.0028473093799442489 3.5287336941817603e-05 0 0.0028895072921236945 4.89373380481594e-05 0 0.0028800606469998285 -2.1612250240421377e-05 0 0.0028421972057707471 -0.00011654497844915984 0 0.0028231095646589102 -0.00011471372372545485 0 0.0028141474034378412 -0.00010948062295917019 0 0.0028597635523589307 -6.9823830031387832e-05 0 0.0028203344173553949 -0.00010837747761988572 0 0.0028800606469998285 -2.1612250240421377e-05 0 0.0028171250657039186 -4.9556388106787218e-05 0 0.0028141474034378412 -0.00010948062295917019 0 0.0028218057875387236 -6.882758846700733e-06 0 0.0028800606469998285 -2.1612250240421377e-05 0 0.0028171250657039186 -4.9556388106787218e-05 0 0.0028421972057707471 -0.00011654497844915984 0 0.0028231095646589102 -0.00011471372372545485 0 0.0028368876777940446 -0.00011573445517431974 0 0.002817744621810672 -0.00012052060567228821 0 0.0028368876777940446 -0.00011573445517431974 0 0.002822981159625362 -0.00012195779927147424 0 0.0028231095646589102 -0.00011471372372545485 0 0.002817744621810672 -0.00012052060567228821 0 0.0028368876777940446 -0.00011573445517431974 0 0.0028231095646589102 -0.00011471372372545485 0 0.0028083152112290755 -0.0001181166134517168 0 0.002817744621810672 -0.00012052060567228821 0 0.0028121282125090088 -0.0001594237330906173 0 0.002760360881405158 -0.00019177596971282798 0 0.0028083152112290755 -0.0001181166134517168 0 0.0028141474034378412 -0.00010948062295917019 0 0.002795583296567873 -0.00011566298851547671 0 0.0028231095646589102 -0.00011471372372545485 0 0.0028083152112290755 -0.0001181166134517168 0 0.0028141474034378412 -0.00010948062295917019 0 0.0028171250657039186 -4.9556388106787218e-05 0 0.0028141474034378412 -0.00010948062295917019 0 0.002784647175122838 -7.8818851989859783e-05 0 0.0028141474034378412 -0.00010948062295917019 0 0.002795583296567873 -0.00011566298851547671 0 0.002784647175122838 -7.8818851989859783e-05 0 0.002795583296567873 -0.00011566298851547671 0 0.002784647175122838 -7.8818851989859783e-05 0 0.0027559939261507819 -0.00011991943996008155 0 0.002784647175122838 -7.8818851989859783e-05 0 0.0027559939261507819 -0.00011991943996008155 0 0.0027281744474517236 -5.7576815479226713e-05 0 0.002669810118894003 -0.00010966461465825885 0 0.0027559939261507819 -0.00011991943996008155 0 0.0027281744474517236 -5.7576815479226713e-05 0 0.0027204546286035782 3.8162130470820389e-06 0 0.0027281744474517236 -5.7576815479226713e-05 0 0.0027789995580222832 -2.6384302105368086e-05 0 0.0026449001658688698 -2.5225267349785224e-05 0 0.0027204546286035782 3.8162130470820389e-06 0 0.0027281744474517236 -5.7576815479226713e-05 0 0.0028218057875387236 -6.882758846700733e-06 0 0.0028171250657039186 -4.9556388106787218e-05 0 0.0027789995580222832 -2.6384302105368086e-05 0 0.0028171250657039186 -4.9556388106787218e-05 0 0.002784647175122838 -7.8818851989859783e-05 0 0.0027789995580222832 -2.6384302105368086e-05 0 0.002784647175122838 -7.8818851989859783e-05 0 0.0027281744474517236 -5.7576815479226713e-05 0 0.0027789995580222832 -2.6384302105368086e-05 0 0.0029463435762036908 -0.0001201067340200407 0 0.0029431966638290381 -0.0001017265384369542 0 0.0029562611131888068 -0.00010705344663054335 0 0.0029463435762036908 -0.0001201067340200407 0 0.0029557910609139346 -0.00013018716510962663 0 0.0029562611131888068 -0.00010705344663054335 0 0.0029513773907948 -9.4817227852617142e-05 0 0.0029431966638290381 -0.0001017265384369542 0 0.0029562611131888068 -0.00010705344663054335 0 0.002945308170355839 -9.1782340932956383e-05 0 0.0029513773907948 -9.4817227852617142e-05 0 0.0029431966638290381 -0.0001017265384369542 0 0.0029349325591831931 -8.6295780157920267e-05 0 0.0029431966638290381 -0.0001017265384369542 0 0.0029331992646957137 -9.9866504834408132e-05 0 0.0029431966638290381 -0.0001017265384369542 0 0.0029358049733368263 -0.00012180969951251323 0 0.0029331992646957137 -9.9866504834408132e-05 0 0.0029358049733368263 -0.00012180969951251323 0 0.0029245433734712894 -0.00011761222085337918 0 0.0029331992646957137 -9.9866504834408132e-05 0 0.0029463435762036908 -0.0001201067340200407 0 0.0029431966638290381 -0.0001017265384369542 0 0.0029358049733368263 -0.00012180969951251323 0 0.0029358049733368263 -0.00012180969951251323 0 0.0029245433734712894 -0.00011761222085337918 0 0.0029185845291536273 -0.00013697627718164433 0 0.0029245433734712894 -0.00011761222085337918 0 0.0029078154779857033 -0.00012255641754121467 0 0.0029185845291536273 -0.00013697627718164433 0 0.0029245433734712894 -0.00011761222085337918 0 0.0029224271989754073 -0.00010360814926481759 0 0.0029078154779857033 -0.00012255641754121467 0 0.0029245433734712894 -0.00011761222085337918 0 0.0029331992646957137 -9.9866504834408132e-05 0 0.0029224271989754073 -0.00010360814926481759 0 0.0029349325591831931 -8.6295780157920267e-05 0 0.0029331992646957137 -9.9866504834408132e-05 0 0.0029342379841555033 -8.6268021137717859e-05 0 0.0029342379841555033 -8.6268021137717859e-05 0 0.0029224271989754073 -0.00010360814926481759 0 0.0029227457317407639 -9.1659758285721104e-05 0 0.0029331992646957137 -9.9866504834408132e-05 0 0.0029342379841555033 -8.6268021137717859e-05 0 0.0029224271989754073 -0.00010360814926481759 0 0.0029224271989754073 -0.00010360814926481759 0 0.0029227457317407639 -9.1659758285721104e-05 0 0.0029039989788094173 -0.00010674312082858929 0 0.0029483016367849325 -6.6553155006155587e-05 0 0.0028835505501664856 -9.9463743208859343e-05 0 0.0029227457317407639 -9.1659758285721104e-05 0 0.0028835505501664856 -9.9463743208859343e-05 0 0.0029227457317407639 -9.1659758285721104e-05 0 0.0029039989788094173 -0.00010674312082858929 0 0.002875164413170107 -0.00011229224774888495 0 0.0029039989788094173 -0.00010674312082858929 0 0.0029078154779857033 -0.00012255641754121467 0 0.002875164413170107 -0.00011229224774888495 0 0.0029078154779857033 -0.00012255641754121467 0 0.0028879267751638505 -0.00014132803571607251 0 0.0029224271989754073 -0.00010360814926481759 0 0.0029039989788094173 -0.00010674312082858929 0 0.0029078154779857033 -0.00012255641754121467 0 0.0029078154779857033 -0.00012255641754121467 0 0.0029038920916647413 -0.00013733485735765229 0 0.0028879267751638505 -0.00014132803571607251 0 0.0029038920916647413 -0.00013733485735765229 0 0.0029007646643341425 -0.00014996908540331077 0 0.0029185845291536273 -0.00013697627718164433 0 0.0029038920916647413 -0.00013733485735765229 0 0.0028879267751638505 -0.00014132803571607251 0 0.0029007646643341425 -0.00014996908540331077 0 0.0028674752596011088 -0.00011834370615166232 0 0.002760360881405158 -0.00019177596971282798 0 0.0028923937554272781 -0.00016218763183722297 0 0.0029074196851416934 -0.00016143322539270211 0 0.0029090327713056688 -0.00016496360479628644 0 0.0028879267751638505 -0.00014132803571607251 0 0.0028923937554272781 -0.00016218763183722297 0 0.0029007646643341425 -0.00014996908540331077 0 0.002760360881405158 -0.00019177596971282798 0 0.0026720750948507747 -0.00022255751934596783 0 0.0028923937554272781 -0.00016218763183722297 0 0.0029018410993466941 -0.00015712642904542855 0 0.0029074196851416934 -0.00016143322539270211 0 0.0028923937554272781 -0.00016218763183722297 0 0.0029018410993466941 -0.00015712642904542855 0 0.0029007646643341425 -0.00014996908540331077 0 0.0029018410993466941 -0.00015712642904542855 0 0.0029068264955505576 -0.00015481248288829017 0 0.0029074196851416934 -0.00016143322539270211 0 0.0029018410993466941 -0.00015712642904542855 0 0.0029007646643341425 -0.00014996908540331077 0 0.0029068264955505576 -0.00015481248288829017 0 0.0029131558485808121 -0.00015008239566071386 0 0.0029068264955505576 -0.00015481248288829017 0 0.0029165937955101581 -0.00015836299970097914 0 0.0029007646643341425 -0.00014996908540331077 0 0.0029131558485808121 -0.00015008239566071386 0 0.0029068264955505576 -0.00015481248288829017 0 0.0029074196851416934 -0.00016143322539270211 0 0.0029165937955101581 -0.00015836299970097914 0 0.0029091096663416676 -0.00016454180869011244 0 0.0029068264955505576 -0.00015481248288829017 0 0.0029074196851416934 -0.00016143322539270211 0 0.0029165937955101581 -0.00015836299970097914 0 0.0027121138239513381 -0.00022982846150904106 0 0.0026720750948507747 -0.00022255751934596783 0 0.0029131558485808121 -0.00015008239566071386 0 0.0029185845291536273 -0.00013697627718164433 0 0.0029251516196334812 -0.00015343393585861526 0 0.0029131558485808121 -0.00015008239566071386 0 0.0029165937955101581 -0.00015836299970097914 0 0.0029251516196334812 -0.00015343393585861526 0 0.0029007646643341425 -0.00014996908540331077 0 0.0029131558485808121 -0.00015008239566071386 0 0.0029185845291536273 -0.00013697627718164433 0 0.0029078154779857033 -0.00012255641754121467 0 0.0029038920916647413 -0.00013733485735765229 0 0.0029185845291536273 -0.00013697627718164433 0 0.0029185845291536273 -0.00013697627718164433 0 0.0029251516196334812 -0.00015343393585861526 0 0.002938608305560969 -0.00014402884645457186 0 0.0029358049733368263 -0.00012180969951251323 0 0.0029185845291536273 -0.00013697627718164433 0 0.002938608305560969 -0.00014402884645457186 0 0.0029463435762036908 -0.0001201067340200407 0 0.0029358049733368263 -0.00012180969951251323 0 0.002938608305560969 -0.00014402884645457186 0 0.0029251516196334812 -0.00015343393585861526 0 0.002938608305560969 -0.00014402884645457186 0 0.0029319063339847801 -0.00017053029028258075 0 0.0029165937955101581 -0.00015836299970097914 0 0.0029251516196334812 -0.00015343393585861526 0 0.0029319063339847801 -0.00017053029028258075 0 0.0029459461863996939 -0.0001642286195319985 0 0.0029504170718453429 -0.0001489058683429359 0 0.002938608305560969 -0.00014402884645457186 0 0.0029459461863996939 -0.0001642286195319985 0 0.002938608305560969 -0.00014402884645457186 0 0.0029319063339847801 -0.00017053029028258075 0 0.0029504170718453429 -0.0001489058683429359 0 0.002938608305560969 -0.00014402884645457186 0 0.0029557910609139346 -0.00013018716510962663 0 0.0029463435762036908 -0.0001201067340200407 0 0.002938608305560969 -0.00014402884645457186 0 0.0029557910609139346 -0.00013018716510962663 0 0.0024881193548621015 -0.00027243150351294402 0 0.0025052374433250043 -0.0002655593354522272 0 0.0024834739692267461 -0.00024583249035906789 0 0.0025066181282163763 -0.00028660009954620047 0 0.0024987505645272098 -0.00027667844239356913 0 0.0025052374433250043 -0.0002655593354522272 0 0.0025066181282163763 -0.00028660009954620047 0 0.0025052374433250043 -0.0002655593354522272 0 0.0025263102592180319 -0.00027550477145848567 0 0.0025066181282163763 -0.00028660009954620047 0 0.0024964541541128318 -0.00028721035486970169 0 0.0024987505645272098 -0.00027667844239356913 0 0.0024964541541128318 -0.00028721035486970169 0 0.0024881193548621015 -0.00027243150351294402 0 0.0024849816400419932 -0.00029852086633739921 0 0.0024964541541128318 -0.00028721035486970169 0 0.0024987505645272098 -0.00027667844239356913 0 0.0024881193548621015 -0.00027243150351294402 0 0.0024987505645272098 -0.00027667844239356913 0 0.0024881193548621015 -0.00027243150351294402 0 0.0025052374433250043 -0.0002655593354522272 0 0.0029459461863996939 -0.0001642286195319985 0 0.0029319063339847801 -0.00017053029028258075 0 0.0029530787841021032 -0.00018080486968095571 0 0.0027093542676383635 -0.0002061668728721239 0 0.0027397025133459249 -0.00021418858700227535 0 0.0025052374433250043 -0.0002655593354522272 0 0.0024834739692267461 -0.00024583249035906789 0 0.0025243069679998361 -0.00024687445827960308 0 0.0024834739692267461 -0.00024583249035906789 0 0.0024636278387654303 -0.00027049479668988949 0 0.0024513936402293674 -0.00024004811224060047 0 0.0027093542676383635 -0.0002061668728721239 0 0.0026720750948507747 -0.00022255751934596783 0 0.0024881193548621015 -0.00027243150351294402 0 0.0024636278387654303 -0.00027049479668988949 0 0.0024849816400419932 -0.00029852086633739921 0 0.0024881193548621015 -0.00027243150351294402 0 0.0024834739692267461 -0.00024583249035906789 0 0.0024636278387654303 -0.00027049479668988949 0 0.0025807458001514622 -0.00031062976583612134 0 0.0025395439407408034 -0.00030726552235579917 0 0.0025434717468095268 -0.00034941496882412052 0 0.0025015014886750793 -0.00029100387521885542 0 0.0026720750948507747 -0.00022255751934596783 0 0.0029165937955101581 -0.00015836299970097914 0 0.0029319063339847801 -0.00017053029028258075 0 0.0029091096663416676 -0.00016454180869011244 0 0.0025807458001514622 -0.00031062976583612134 0 0.0025624192560736729 -0.00027299552374398378 0 0.0025395439407408034 -0.00030726552235579917 0 0.002760360881405158 -0.00019177596971282798 0 0.0026663392176848495 -0.00023604369507128646 0 0.0028233456011789886 -0.00012504892869305123 0 0.0028089262999324151 -0.00016842592671245161 0 0.0027999653076786193 -0.00014711921192063393 0 0.0025359721018113758 -0.00026689822717136213 0 0.0025624192560736729 -0.00027299552374398378 0 0.0025395439407408034 -0.00030726552235579917 0 0.0028089262999324151 -0.00016842592671245161 0 0.0027861135838439656 -0.00021015908254881684 0 0.0027828196171957582 -0.00018306181911911272 0 0.0025807458001514622 -0.00031062976583612134 0 0.0025434717468095268 -0.00034941496882412052 0 0.002573118264176979 -0.00036979834141786665 0 0.0026663392176848495 -0.00023604369507128646 0 0.0026660375648746362 -0.00027787461222013819 0 0.0027861135838439656 -0.00021015908254881684 0 0.0027608793619665417 -0.00022961093466453562 0 0.0027581725478510381 -0.00021554887711791509 0 0.0026660375648746362 -0.00027787461222013819 0 0.0026569869534310391 -0.0003227976272904771 0 0.0027861135838439656 -0.00021015908254881684 0 0.0027608793619665417 -0.00022961093466453562 0 0.0027719496312445498 -0.00024651190901791084 0 0.0025434717468095268 -0.00034941496882412052 0 0.002573118264176979 -0.00036979834141786665 0 0.0025483046410455785 -0.00039228134012611604 0 0.0025807458001514622 -0.00031062976583612134 0 0.002573118264176979 -0.00036979834141786665 0 0.0025998031348192429 -0.00035018213907503446 0 0.0024636278387654303 -0.00027049479668988949 0 0.0024849816400419932 -0.00029852086633739921 0 0.0024778660287009912 -0.0003118721770260603 0 0.0025015014886750793 -0.00029100387521885542 0 0.0025621031716879261 -0.00031750459337795135 0 0.0024849816400419932 -0.00029852086633739921 0 0.0024778660287009912 -0.0003118721770260603 0 0.0024957304254690209 -0.00031701195672528072 0 0.002573118264176979 -0.00036979834141786665 0 0.0025998031348192429 -0.00035018213907503446 0 0.002618829922628174 -0.00039042470081282276 0 0.0021304871186471636 -0.00045679837595905161 0 0.0021145490808885709 -0.0006246021078209537 0 0.0022007247848700477 -0.00055388367837601565 0 0.0024957304254690209 -0.00031701195672528072 0 0.0025131112379350533 -0.00029741879360624488 0 0.0025020974555649586 -0.00036427927686055793 0 0.0023756326404896183 -0.00036821433727379115 0 0.0023409111690551191 -0.00051478184391631765 0 0.0025621031716879261 -0.00031750459337795135 0 0.0023409111690551191 -0.00051478184391631765 0 0.0024778660287009912 -0.0003118721770260603 0 0.0024957304254690209 -0.00031701195672528072 0 0.0025020974555649586 -0.00036427927686055793 0 0.0024849816400419932 -0.00029852086633739921 0 0.0024957304254690209 -0.00031701195672528072 0 0.0025131112379350533 -0.00029741879360624488 0 0.0024964541541128318 -0.00028721035486970169 0 0.0024849816400419932 -0.00029852086633739921 0 0.0025054536742261662 -0.00029686248420379002 0 0.0025187630661736059 -0.00031278180440615712 0 0.0023756326404896183 -0.00036821433727379115 0 0.0025066181282163763 -0.00028660009954620047 0 0.0024964541541128318 -0.00028721035486970169 0 0.0025054536742261662 -0.00029686248420379002 0 0.0024240190453737355 -0.00029967675108679624 0 0.0023756326404896183 -0.00036821433727379115 0 0.0027369820729069845 -0.0001650881341612335 0 0.0026989082810162956 -0.00017472585766583658 0 0.0027215936949986242 -0.00013742584356023102 0 0.0027369820729069845 -0.0001650881341612335 0 0.0027197950724367976 -0.00018352415836558032 0 0.0026989082810162956 -0.00017472585766583658 0 0.0027197950724367976 -0.00018352415836558032 0 0.0027390508806285126 -0.00018604371165343867 0 0.0027187160829876284 -0.0002027482921759164 0 0.0027369820729069845 -0.0001650881341612335 0 0.0027197950724367976 -0.00018352415836558032 0 0.0027390508806285126 -0.00018604371165343867 0 0.0027197950724367976 -0.00018352415836558032 0 0.0026989082810162956 -0.00017472585766583658 0 0.0026963464728503982 -0.0002017786155627555 0 0.0026989082810162956 -0.00017472585766583658 0 0.0026651535296868837 -0.00016194972878384229 0 0.0027215936949986242 -0.00013742584356023102 0 0.0026989082810162956 -0.00017472585766583658 0 0.0026651535296868837 -0.00016194972878384229 0 0.0026702301251850407 -0.00019840820188821211 0 0.0027559939261507819 -0.00011991943996008155 0 0.0027289445786219673 -0.00017063148194247554 0 0.0027894052106721382 -0.00013932389257814432 0 0.002669810118894003 -0.00010966461465825885 0 0.0027559939261507819 -0.00011991943996008155 0 0.0027033494021726106 -0.00023673561443822601 0 0.0026330196839951781 -0.00020819689744552407 0 0.0027703744632192094 -0.00013073301048268033 0 0.0027716202118061384 -0.00011674746844018899 0 0.0026330196839951781 -0.00020819689744552407 0 0.002795583296567873 -0.00011566298851547671 0 0.0027559939261507819 -0.00011991943996008155 0 0.0027894052106721382 -0.00013932389257814432 0 0.0027968247602694436 -0.00012274407350645563 0 0.0027703744632192094 -0.00013073301048268033 0 0.0028083152112290755 -0.0001181166134517168 0 0.0027215936949986242 -0.00013742584356023102 0 0.0027700940529924835 -0.00015266016112324047 0 0.0027369820729069845 -0.0001650881341612335 0 0.0027215936949986242 -0.00013742584356023102 0 0.0027700940529924835 -0.00015266016112324047 0 0.0028083152112290755 -0.0001181166134517168 0 0.002795583296567873 -0.00011566298851547671 0 0.0027894052106721382 -0.00013932389257814432 0 0.002817744621810672 -0.00012052060567228821 0 0.0028233456011789886 -0.00012504892869305123 0 0.0027999653076786193 -0.00014711921192063393 0 0.0028083152112290755 -0.0001181166134517168 0 0.002817744621810672 -0.00012052060567228821 0 0.0027999653076786193 -0.00014711921192063393 0 0.0028083152112290755 -0.0001181166134517168 0 0.0027700940529924835 -0.00015266016112324047 0 0.0027999653076786193 -0.00014711921192063393 0 0.0027700940529924835 -0.00015266016112324047 0 0.0027999653076786193 -0.00014711921192063393 0 0.0027784364413619644 -0.00016688589062980111 0 0.0027999653076786193 -0.00014711921192063393 0 0.0027784364413619644 -0.00016688589062980111 0 0.0027828196171957582 -0.00018306181911911272 0 0.0028089262999324151 -0.00016842592671245161 0 0.0027999653076786193 -0.00014711921192063393 0 0.0027828196171957582 -0.00018306181911911272 0 0.0027784364413619644 -0.00016688589062980111 0 0.0027828196171957582 -0.00018306181911911272 0 0.0027602364510479981 -0.00018355138329455718 0 0.0027369820729069845 -0.0001650881341612335 0 0.0027700940529924835 -0.00015266016112324047 0 0.0027602364510479981 -0.00018355138329455718 0 0.0027700940529924835 -0.00015266016112324047 0 0.0027784364413619644 -0.00016688589062980111 0 0.0027602364510479981 -0.00018355138329455718 0 0.0027369820729069845 -0.0001650881341612335 0 0.0027602364510479981 -0.00018355138329455718 0 0.0027390508806285126 -0.00018604371165343867 0 0.0027602364510479981 -0.00018355138329455718 0 0.0027390508806285126 -0.00018604371165343867 0 0.0027378153590209495 -0.00020399463192833601 0 0.0027378153590209495 -0.00020399463192833601 0 0.0027581725478510381 -0.00021554887711791509 0 0.0027357677522293921 -0.00022256770286623186 0 0.0027602364510479981 -0.00018355138329455718 0 0.0027378153590209495 -0.00020399463192833601 0 0.0027581725478510381 -0.00021554887711791509 0 0.0027828196171957582 -0.00018306181911911272 0 0.0027602364510479981 -0.00018355138329455718 0 0.0027581725478510381 -0.00021554887711791509 0 0.0027861135838439656 -0.00021015908254881684 0 0.0027828196171957582 -0.00018306181911911272 0 0.0027581725478510381 -0.00021554887711791509 0 0.002748817679080542 -0.00023108259725510133 0 0.0027441523308574045 -0.00023448593901108649 0 0.002735598238614845 -0.00024355681131353943 0 0.0027608793619665417 -0.00022961093466453562 0 0.0027581725478510381 -0.00021554887711791509 0 0.002748817679080542 -0.00023108259725510133 0 0.0027581725478510381 -0.00021554887711791509 0 0.002748817679080542 -0.00023108259725510133 0 0.0027441523308574045 -0.00023448593901108649 0 0.0027608793619665417 -0.00022961093466453562 0 0.002748817679080542 -0.00023108259725510133 0 0.002735598238614845 -0.00024355681131353943 0 0.0027581725478510381 -0.00021554887711791509 0 0.0027357677522293921 -0.00022256770286623186 0 0.0027441523308574045 -0.00023448593901108649 0 0.0027144945891420199 -0.00022925662501556849 0 0.0025270967118829293 -0.00024563214139681431 0 0.0027357677522293921 -0.00022256770286623186 0 0.0027441523308574045 -0.00023448593901108649 0 0.0027185280360487022 -0.00022994351231467148 0 0.0027164019080775678 -0.00024056774071458184 0 0.002716639300449243 -0.00022147847662820809 0 0.0026755005821319728 -0.00022868097805264469 0 0.0025270967118829293 -0.00024563214139681431 0 0.0026031057892552849 -0.00023046975275870714 0 0.0027357677522293921 -0.00022256770286623186 0 0.0027185280360487022 -0.00022994351231467148 0 0.002716639300449243 -0.00022147847662820809 0 0.0027378153590209495 -0.00020399463192833601 0 0.0027357677522293921 -0.00022256770286623186 0 0.002716639300449243 -0.00022147847662820809 0 0.0027378153590209495 -0.00020399463192833601 0 0.002716639300449243 -0.00022147847662820809 0 0.0027187160829876284 -0.0002027482921759164 0 0.002716639300449243 -0.00022147847662820809 0 0.0027187160829876284 -0.0002027482921759164 0 0.0026963464728503982 -0.0002017786155627555 0 0.0027197950724367976 -0.00018352415836558032 0 0.0027187160829876284 -0.0002027482921759164 0 0.0026963464728503982 -0.0002017786155627555 0 0.0027390508806285126 -0.00018604371165343867 0 0.0027378153590209495 -0.00020399463192833601 0 0.0027187160829876284 -0.0002027482921759164 0 0.0026344447443920867 -0.00021579041489957121 0 0.0026702301251850407 -0.00019840820188821211 0 0.0026755005821319728 -0.00022868097805264469 0 0.002716639300449243 -0.00022147847662820809 0 0.0026963464728503982 -0.0002017786155627555 0 0.0026755005821319728 -0.00022868097805264469 0 0.0026989082810162956 -0.00017472585766583658 0 0.0026702301251850407 -0.00019840820188821211 0 0.0026963464728503982 -0.0002017786155627555 0 0.0026702301251850407 -0.00019840820188821211 0 0.0026963464728503982 -0.0002017786155627555 0 0.0026755005821319728 -0.00022868097805264469 0 0.0025270967118829293 -0.00024563214139681431 0 0.0023608331175691637 -0.00029356563710108594 0 0.0021037560427972094 -0.00038019447789568704 0 0.0020718936396517326 -0.00036864654496768148 0 0.0020726259486549448 -0.00038764425934969523 0 0.0020436446872638073 -0.00039206063149136892 0 0.0020718936396517326 -0.00036864654496768148 0 0.0020726259486549448 -0.00038764425934969523 0 0.0021037560427972094 -0.00038019447789568704 0 0.0020726259486549448 -0.00038764425934969523 0 0.0020716057180312298 -0.00040965636281264136 0 0.0020436446872638073 -0.00039206063149136892 0 0.0020726259486549448 -0.00038764425934969523 0 0.0020716057180312298 -0.00040965636281264136 0 0.0020716057180312298 -0.00040965636281264136 0 0.0020649410593595249 -0.00045244433564797185 0 0.0020327327079851585 -0.00044622309288200719 0 0.0020716057180312298 -0.00040965636281264136 0 0.0020649410593595249 -0.00045244433564797185 0 0.0021002691736416138 -0.00043532499872878881 0 0.0025270967118829293 -0.00024563214139681431 0 0.0023115338559496473 -0.00037325714748228397 0 0.0021037560427972094 -0.00038019447789568704 0 0.0020716057180312298 -0.00040965636281264136 0 0.0021002691736416138 -0.00043532499872878881 0 0.0026453348611967203 -0.00021405178030477253 0 0.0025734238578765853 -0.0001879538499023863 0 0.0025776459380539378 -0.00029930587247545146 0 0.0026453348611967203 -0.00021405178030477253 0 0.0025776459380539378 -0.00029930587247545146 0 0.0026572643226488416 -0.00029880446976459485 0 0.0027144945891420199 -0.00022925662501556849 0 0.002726486685816455 -0.00023925305291133502 0 0.0026453348611967203 -0.00021405178030477253 0 0.002735598238614845 -0.00024355681131353943 0 0.002699191339150679 -0.00027305921348809171 0 0.0026453348611967203 -0.00021405178030477253 0 0.002699191339150679 -0.00027305921348809171 0 0.0026572643226488416 -0.00029880446976459485 0 0.002735598238614845 -0.00024355681131353943 0 0.002699191339150679 -0.00027305921348809171 0 0.0027340864613730363 -0.00028032428837044334 0 0.002699191339150679 -0.00027305921348809171 0 0.0027124014000309391 -0.00030922675907678565 0 0.0026572643226488416 -0.00029880446976459485 0 0.0027124014000309391 -0.00030922675907678565 0 0.0026572643226488416 -0.00029880446976459485 0 0.0026759559955144511 -0.00034859806901522538 0 0.002699191339150679 -0.00027305921348809171 0 0.0027124014000309391 -0.00030922675907678565 0 0.0027340864613730363 -0.00028032428837044334 0 0.0027124014000309391 -0.00030922675907678565 0 0.0026759559955144511 -0.00034859806901522538 0 0.0027244688517869832 -0.00034451060165260547 0 0.0025776459380539378 -0.00029930587247545146 0 0.0026572643226488416 -0.00029880446976459485 0 0.0026272082012515183 -0.00034778909318056552 0 0.0026572643226488416 -0.00029880446976459485 0 0.0026272082012515183 -0.00034778909318056552 0 0.0026759559955144511 -0.00034859806901522538 0 0.0026272082012515183 -0.00034778909318056552 0 0.0026402177420472624 -0.00039236218674774476 0 0.0025835000141706437 -0.00039241944568160916 0 0.0026272082012515183 -0.00034778909318056552 0 0.0026759559955144511 -0.00034859806901522538 0 0.0026402177420472624 -0.00039236218674774476 0 0.0026759559955144511 -0.00034859806901522538 0 0.0026402177420472624 -0.00039236218674774476 0 0.0027075075728470338 -0.00038784190574588844 0 0.0026402177420472624 -0.00039236218674774476 0 0.0027075075728470338 -0.00038784190574588844 0 0.002659072447785747 -0.00043047622343018717 0 0.0027075075728470338 -0.00038784190574588844 0 0.0026976471766799134 -0.00042715431885001893 0 0.002659072447785747 -0.00043047622343018717 0 0.0026402177420472624 -0.00039236218674774476 0 0.0025835000141706437 -0.00039241944568160916 0 0.0026239989940458762 -0.00044216684950016002 0 0.0026402177420472624 -0.00039236218674774476 0 0.0026239989940458762 -0.00044216684950016002 0 0.002659072447785747 -0.00043047622343018717 0 0.0020496366195821253 -0.0004966691324784485 0 0.001975892858211772 -0.00050254557547478335 0 0.0020999308078551568 -0.00048764199787976469 0 0.0020496845574890033 -0.00048302567537907948 0 0.0020559801376506814 -0.00051675646478813826 0 0.0020649410593595249 -0.00045244433564797185 0 0.0020999308078551568 -0.00048764199787976469 0 0.0020496845574890033 -0.00048302567537907948 0 0.0023115338559496473 -0.00037325714748228397 0 0.0023582287869373048 -0.00044628676465743053 0 0.0020649410593595249 -0.00045244433564797185 0 0.0021002691736416138 -0.00043532499872878881 0 0.0020999308078551568 -0.00048764199787976469 0 0.0025776459380539378 -0.00029930587247545146 0 0.0026272082012515183 -0.00034778909318056552 0 0.0025835000141706437 -0.00039241944568160916 0 0.0021473697427714421 -0.00078755943244648331 0 0.002201267754108322 -0.00075222185360804283 0 0.00221049386010991 -0.0007495130256492266 0 0.0023865944105619227 -0.00058638215414501889 0 0.0023434641946324291 -0.00059379017882002863 0 0.0021555050539643432 -0.00073413210467530518 0 0.0021473697427714421 -0.00078755943244648331 0 0.002201267754108322 -0.00075222185360804283 0 0.0021555050539643432 -0.00073413210467530518 0 0.0021661251728315668 -0.00067429314475934868 0 0.002201267754108322 -0.00075222185360804283 0 0.0023409111690551191 -0.00051478184391631765 0 0.002147526115862301 -0.00078455173859978537 0 0.0023865944105619227 -0.00058638215414501889 0 0.0023409111690551191 -0.00051478184391631765 0 0.002612901439412757 -0.00042569706917382178 0 0.002618829922628174 -0.00039042470081282276 0 0.0025820858029219113 -0.00040860136281579854 0 0.002573118264176979 -0.00036979834141786665 0 0.002618829922628174 -0.00039042470081282276 0 0.0025820858029219113 -0.00040860136281579854 0 0.002612901439412757 -0.00042569706917382178 0 0.0025820858029219113 -0.00040860136281579854 0 0.0025865272916618166 -0.00044194874976100383 0 0.002612901439412757 -0.00042569706917382178 0 0.0025865272916618166 -0.00044194874976100383 0 0.0026069703779755299 -0.00045975796389282215 0 0.0025820858029219113 -0.00040860136281579854 0 0.0025865272916618166 -0.00044194874976100383 0 0.002554188424497764 -0.00043458843510714922 0 0.002715808452072155 -0.000345799475536499 0 0.0026569869534310391 -0.0003227976272904771 0 0.0025820858029219113 -0.00040860136281579854 0 0.002554188424497764 -0.00043458843510714922 0 0.0025483046410455785 -0.00039228134012611604 0 0.002573118264176979 -0.00036979834141786665 0 0.0025820858029219113 -0.00040860136281579854 0 0.0025483046410455785 -0.00039228134012611604 0 0.0027786870816871516 -0.00030137813610966958 0 0.0027719496312445498 -0.00024651190901791084 0 0.0027556564341877114 -0.00025075376231801832 0 0.0027608793619665417 -0.00022961093466453562 0 0.0027719496312445498 -0.00024651190901791084 0 0.0027556564341877114 -0.00025075376231801832 0 0.0027608793619665417 -0.00022961093466453562 0 0.002735598238614845 -0.00024355681131353943 0 0.0027556564341877114 -0.00025075376231801832 0 0.002735598238614845 -0.00024355681131353943 0 0.0027556564341877114 -0.00025075376231801832 0 0.0027340864613730363 -0.00028032428837044334 0 0.0027615939557293712 -0.00032354310689555553 0 0.0027556564341877114 -0.00025075376231801832 0 0.0027340864613730363 -0.00028032428837044334 0 0.0027124014000309391 -0.00030922675907678565 0 0.0027615939557293712 -0.00032354310689555553 0 0.0027244688517869832 -0.00034451060165260547 0 0.002715808452072155 -0.000345799475536499 0 0.0027629669833118828 -0.00024700781598469072 0 0.0027124014000309391 -0.00030922675907678565 0 0.0027615939557293712 -0.00032354310689555553 0 0.0027340864613730363 -0.00028032428837044334 0 0.0026759559955144511 -0.00034859806901522538 0 0.0027244688517869832 -0.00034451060165260547 0 0.0027075075728470338 -0.00038784190574588844 0 0.0027615939557293712 -0.00032354310689555553 0 0.0027244688517869832 -0.00034451060165260547 0 0.0027567208514912016 -0.00035360507906542305 0 0.0027244688517869832 -0.00034451060165260547 0 0.0027075075728470338 -0.00038784190574588844 0 0.0027567208514912016 -0.00035360507906542305 0 0.0027075075728470338 -0.00038784190574588844 0 0.0027467315252143747 -0.00039193837743030997 0 0.0027567208514912016 -0.00035360507906542305 0 0.0027075075728470338 -0.00038784190574588844 0 0.0026976471766799134 -0.00042715431885001893 0 0.0027342961149989724 -0.00042889117867685422 0 0.0027075075728470338 -0.00038784190574588844 0 0.0027467315252143747 -0.00039193837743030997 0 0.0027342961149989724 -0.00042889117867685422 0 0.0027467315252143747 -0.00039193837743030997 0 0.0027342961149989724 -0.00042889117867685422 0 0.0027848335415302928 -0.00040042397505842854 0 0.0027812635272314503 -0.00039799803144332396 0 0.0026243575477062405 -0.00047051764192231537 0 0.0027342961149989724 -0.00042889117867685422 0 0.0027515427002895911 -0.00043190862481994383 0 0.0027571616194902366 -0.00041439505312993726 0 0.002715808452072155 -0.000345799475536499 0 0.0026243575477062405 -0.00047051764192231537 0 0.0025865272916618166 -0.00044194874976100383 0 0.002554188424497764 -0.00043458843510714922 0 0.0025764185439496293 -0.00048014812289373453 0 0.0027541179876993341 -0.00032420642987075651 0 0.0027848335415302928 -0.00040042397505842854 0 0.0027567208514912016 -0.00035360507906542305 0 0.0027467315252143747 -0.00039193837743030997 0 0.0027848335415302928 -0.00040042397505842854 0 0.0027567208514912016 -0.00035360507906542305 0 0.002715808452072155 -0.000345799475536499 0 0.0027408860399279456 -0.00034552896494044661 0 0.0025865272916618166 -0.00044194874976100383 0 0.0025764185439496293 -0.00048014812289373453 0 0.0026069703779755299 -0.00045975796389282215 0 0.0026243575477062405 -0.00047051764192231537 0 0.0023434641946324291 -0.00059379017882002863 0 0.0023082503802447562 -0.00050203739888530553 0 0.002322549292034281 -0.00051162075994948025 0 0.0023027978076158775 -0.00054341125438814861 0 0.0023435624032714683 -0.00051595131848259995 0 0.002322549292034281 -0.00051162075994948025 0 0.0023027978076158775 -0.00054341125438814861 0 0.0023435624032714683 -0.00051595131848259995 0 0.002322549292034281 -0.00051162075994948025 0 0.002324978554697793 -0.00049157235608608067 0 0.0023435624032714683 -0.00051595131848259995 0 0.002324978554697793 -0.00049157235608608067 0 0.002327103199382681 -0.00048741884543230895 0 0.0027515427002895911 -0.00043190862481994383 0 0.0027571616194902366 -0.00041439505312993726 0 0.0027712830276761884 -0.00043773721245090989 0 0.0026243575477062405 -0.00047051764192231537 0 0.002171412911146644 -0.00046843275147241637 0 0.0023082503802447562 -0.00050203739888530553 0 0.002322549292034281 -0.00051162075994948025 0 0.002324978554697793 -0.00049157235608608067 0 0.0023720792960923148 -0.00055155672030896658 0 0.0023434641946324291 -0.00059379017882002863 0 0.0023869382488491595 -0.00062452568278692304 0 0.0024011077795854908 -0.00058606931477207607 0 0.0023734327281982716 -0.00059750794983412828 0 0.0024205234326871825 -0.00061015918801088961 0 0.0023869382488491595 -0.00062452568278692304 0 0.0024011077795854908 -0.00058606931477207607 0 0.0024205234326871825 -0.00061015918801088961 0 0.0023869382488491595 -0.00062452568278692304 0 0.0024118430028368231 -0.00065128511909034635 0 0.0023869382488491595 -0.00062452568278692304 0 0.0024118430028368231 -0.00065128511909034635 0 0.002376224695858813 -0.00065369845644101408 0 0.0024118430028368231 -0.00065128511909034635 0 0.002376224695858813 -0.00065369845644101408 0 0.0023595431776052846 -0.00067837875393221613 0 0.0023434641946324291 -0.00059379017882002863 0 0.002268478452745431 -0.00073513926911537159 0 0.0023972811135788467 -0.00055393969340853245 0 0.0024092330545365526 -0.00050410550918943945 0 0.0023710865165223281 -0.00053908463988975252 0 0.0023972811135788467 -0.00055393969340853245 0 0.0024294773779449329 -0.00056668319770748527 0 0.0024092330545365526 -0.00050410550918943945 0 0.002050683150408092 -0.00049733682013988084 0 0.0019840037755034447 -0.00045599583057026827 0 0.0023972811135788467 -0.00055393969340853245 0 0.0024011077795854908 -0.00058606931477207607 0 0.0023742813461152547 -0.00056847834328726263 0 0.0024205234326871825 -0.00061015918801088961 0 0.0024011077795854908 -0.00058606931477207607 0 0.0024294773779449329 -0.00056668319770748527 0 0.0024011077795854908 -0.00058606931477207607 0 0.0023734327281982716 -0.00059750794983412828 0 0.0023742813461152547 -0.00056847834328726263 0 0.0023972811135788467 -0.00055393969340853245 0 0.0024011077795854908 -0.00058606931477207607 0 0.0024294773779449329 -0.00056668319770748527 0 0.0023720792960923148 -0.00055155672030896658 0 0.002050683150408092 -0.00049733682013988084 0 0.002050683150408092 -0.00049733682013988084 0 0.002171412911146644 -0.00046843275147241637 0 0.0023082503802447562 -0.00050203739888530553 0 0.0023118270851272952 -0.00046157292024409657 0 0.002324978554697793 -0.00049157235608608067 0 0.0016093861810448945 -0.00048221871193267186 0 0.0016330752338762653 -0.00052167570433673811 0 0.0016693114545236407 -0.00044701374491017641 0 0.0023118270851272952 -0.00046157292024409657 0 0.002324978554697793 -0.00049157235608608067 0 0.0023269034822870705 -0.00048751081162347337 0 0.0021808641249123459 -0.000463936995604241 0 0.002171412911146644 -0.00046843275147241637 0 0.0016102462251735244 -0.00046684806773945788 0 0.0016194295078113743 -0.00041077579036348798 0 0.0015646038271999046 -0.00040212885499608589 0 0.0016093861810448945 -0.00048221871193267186 0 0.0016102462251735244 -0.00046684806773945788 0 0.0016693114545236407 -0.00044701374491017641 0 0.0016102462251735244 -0.00046684806773945788 0 0.0016693114545236407 -0.00044701374491017641 0 0.0016194295078113743 -0.00041077579036348798 0 0.0016086346114057596 -0.00048321564707544135 0 0.0016102462251735244 -0.00046684806773945788 0 0.0015646038271999046 -0.00040212885499608589 0 0.002050683150408092 -0.00049733682013988084 0 0.0019691005956702728 -0.0005068930219812042 0 0.0027712830276761884 -0.00043773721245090989 0 0.0027458211330368548 -0.00049412225835305298 0 0.0027436684172526403 -0.00044999009100717699 0 0.0027458211330368548 -0.00049412225835305298 0 0.0027436684172526403 -0.00044999009100717699 0 0.0027136354738398279 -0.00046161573225944282 0 0.002171412911146644 -0.00046843275147241637 0 0.0022383329538061343 -0.00048219024911216857 0 0.0027515427002895911 -0.00043190862481994383 0 0.0027712830276761884 -0.00043773721245090989 0 0.0027436684172526403 -0.00044999009100717699 0 0.0027342961149989724 -0.00042889117867685422 0 0.0027436684172526403 -0.00044999009100717699 0 0.0027136354738398279 -0.00046161573225944282 0 0.0027342961149989724 -0.00042889117867685422 0 0.0027515427002895911 -0.00043190862481994383 0 0.0027436684172526403 -0.00044999009100717699 0 0.0026976471766799134 -0.00042715431885001893 0 0.0027136354738398279 -0.00046161573225944282 0 0.0026598730185184599 -0.00046963925399705255 0 0.0026976471766799134 -0.00042715431885001893 0 0.0027342961149989724 -0.00042889117867685422 0 0.0027136354738398279 -0.00046161573225944282 0 0.0027458211330368548 -0.00049412225835305298 0 0.0026923718955549703 -0.00049631124852751729 0 0.0026966991077450983 -0.00052655931494580979 0 0.0027136354738398279 -0.00046161573225944282 0 0.0026923718955549703 -0.00049631124852751729 0 0.0026598730185184599 -0.00046963925399705255 0 0.0027458211330368548 -0.00049412225835305298 0 0.0027136354738398279 -0.00046161573225944282 0 0.0026923718955549703 -0.00049631124852751729 0 0.0026923718955549703 -0.00049631124852751729 0 0.0026764507738871852 -0.00051665270892852877 0 0.0026966991077450983 -0.00052655931494580979 0 0.0026923718955549703 -0.00049631124852751729 0 0.0026764507738871852 -0.00051665270892852877 0 0.0026630416672600737 -0.00049311927081109824 0 0.0027458211330368548 -0.00049412225835305298 0 0.0026966991077450983 -0.00052655931494580979 0 0.0027073860986496241 -0.00056293537361198703 0 0.002676717510982102 -0.00053549307769729039 0 0.0026966991077450983 -0.00052655931494580979 0 0.0026834466371058749 -0.00054789410417337701 0 0.002676717510982102 -0.00053549307769729039 0 0.0026764507738871852 -0.00051665270892852877 0 0.0026966991077450983 -0.00052655931494580979 0 0.0026966991077450983 -0.00052655931494580979 0 0.0026834466371058749 -0.00054789410417337701 0 0.0027073860986496241 -0.00056293537361198703 0 0.0019668897413661398 -0.00035099092524295232 0 0.0018212096808079895 -0.00040209695283343461 0 0.0026834466371058749 -0.00054789410417337701 0 0.0027073860986496241 -0.00056293537361198703 0 0.0026706360365975354 -0.00055817793139466537 0 0.0026834466371058749 -0.00054789410417337701 0 0.0026706360365975354 -0.00055817793139466537 0 0.002669492268360879 -0.00055522074599848514 0 0.002676717510982102 -0.00053549307769729039 0 0.0026834466371058749 -0.00054789410417337701 0 0.002669492268360879 -0.00055522074599848514 0 0.0017164664948524353 -0.00035638477661002592 0 0.0017022031332192898 -0.00038461162186066201 0 0.0017421948433099786 -0.00039315158590279346 0 0.0014259715331308804 -0.00034516934301696497 0 0.0018212096808079895 -0.00040209695283343461 0 0.0016712423089249727 -0.00033867673400666474 0 0.0016607991337853792 -0.0003578336800588358 0 0.0016358369060226205 -0.00032870164822570947 0 0.0011374372562360498 -0.0003501476348775393 0 0.0011670689745682558 -0.00039013798357741438 0 0.0011637941233412742 -0.0003501773779727756 0 0.0011374372562360498 -0.0003501476348775393 0 0.0011637941233412742 -0.0003501773779727756 0 0.0011555196219884076 -0.00030416471239970352 0 0.0014259715331308804 -0.00034516934301696497 0 0.0019668897413661398 -0.00035099092524295232 0 0.0016607991337853792 -0.0003578336800588358 0 0.0016358369060226205 -0.00032870164822570947 0 0.0016084874274377567 -0.00034917609303148798 0 0.0019668897413661398 -0.00035099092524295232 0 0.0014985580870915333 -0.00034108519397534342 0 0.0022383329538061343 -0.00048219024911216857 0 0.0019668897413661398 -0.00035099092524295232 0 0.0016693114545236407 -0.00044701374491017641 0 0.0017161849916314683 -0.00036403583925619565 0 0.0016529327577673462 -0.00039309839834560637 0 0.0017161849916314683 -0.00036403583925619565 0 0.0016529327577673462 -0.00039309839834560637 0 0.0016084874274377567 -0.00034917609303148798 0 0.0016693114545236407 -0.00044701374491017641 0 0.0016529327577673462 -0.00039309839834560637 0 0.0016194295078113743 -0.00041077579036348798 0 0.0016529327577673462 -0.00039309839834560637 0 0.0016194295078113743 -0.00041077579036348798 0 0.0016084874274377567 -0.00034917609303148798 0 0.0016194295078113743 -0.00041077579036348798 0 0.0016084874274377567 -0.00034917609303148798 0 0.0015646038271999046 -0.00040212885499608589 0 0.0016084874274377567 -0.00034917609303148798 0 0.0015646038271999046 -0.00040212885499608589 0 0.0015316560854803261 -0.00033414783328564553 0 0.0016084874274377567 -0.00034917609303148798 0 0.0015316560854803261 -0.00033414783328564553 0 0.0015783242618716328 -0.0002943405591539055 0 0.0019840037755034447 -0.00045599583057026827 0 0.001947247735037241 -0.00036634807136888249 0 0.0022490187161769344 -0.00047256860744785924 0 0.0017581893129753796 -0.00046198876174981815 0 0.0019172587574045629 -0.00047578684918896525 0 0.0019037679386232846 -0.00049424477193259263 0 0.0019005543897125581 -0.00045641821867356471 0 0.0019172587574045629 -0.00047578684918896525 0 0.0019354201502236104 -0.00049025141182654198 0 0.0019037679386232846 -0.00049424477193259263 0 0.0024201452789956355 -0.00036344147593903421 0 0.0025296304708427885 -0.00043254863978149237 0 0.0024251982960892125 -0.00054462497714980092 0 0.0019800683725923751 -0.00047117483219591714 0 0.0019751807220053713 -0.00045850006480845871 0 0.0019943918443703496 -0.000463293233822302 0 0.0019564507400572054 -0.00049086845308549348 0 0.0016280813926413586 -0.00044531627480704465 0 0.0019172587574045629 -0.00047578684918896525 0 0.0019354201502236104 -0.00049025141182654198 0 0.0019293298098075262 -0.00046228109400056058 0 0.0019564507400572054 -0.00049086845308549348 0 0.001975892858211772 -0.00050254557547478335 0 0.0019354201502236104 -0.00049025141182654198 0 0.0019408240948369801 -0.00051805799580182147 0 0.0019037679386232846 -0.00049424477193259263 0 0.0019800683725923751 -0.00047117483219591714 0 0.0019850363539475322 -0.00048227906819273776 0 0.0019923146508146528 -0.00047484192600674707 0 0.001975892858211772 -0.00050254557547478335 0 0.0022490187161769344 -0.00047256860744785924 0 0.0025835000141706437 -0.00039241944568160916 0 0.0025845501071145942 -0.00046861631075629086 0 0.0026239989940458762 -0.00044216684950016002 0 0.0020999308078551568 -0.00048764199787976469 0 0.0020559801376506814 -0.00051675646478813826 0 0.0021029373671699529 -0.00054521757503139812 0 0.0023582287869373048 -0.00044628676465743053 0 0.0022490187161769344 -0.00047256860744785924 0 0.0025845501071145942 -0.00046861631075629086 0 0.0026239989940458762 -0.00044216684950016002 0 0.0026168790633411547 -0.00048869727433887645 0 0.0026239989940458762 -0.00044216684950016002 0 0.0026598730185184599 -0.00046963925399705255 0 0.0026168790633411547 -0.00048869727433887645 0 0.0026239989940458762 -0.00044216684950016002 0 0.002659072447785747 -0.00043047622343018717 0 0.0026598730185184599 -0.00046963925399705255 0 0.0026976471766799134 -0.00042715431885001893 0 0.002659072447785747 -0.00043047622343018717 0 0.0026598730185184599 -0.00046963925399705255 0 0.0026598730185184599 -0.00046963925399705255 0 0.0026168790633411547 -0.00048869727433887645 0 0.0026350380667323741 -0.00050719237508728508 0 0.0026598730185184599 -0.00046963925399705255 0 0.0026630416672600737 -0.00049311927081109824 0 0.0026350380667323741 -0.00050719237508728508 0 0.0026923718955549703 -0.00049631124852751729 0 0.0026598730185184599 -0.00046963925399705255 0 0.0026630416672600737 -0.00049311927081109824 0 0.0026630416672600737 -0.00049311927081109824 0 0.0026532903739244881 -0.00053143518870786197 0 0.0026350380667323741 -0.00050719237508728508 0 0.0026764507738871852 -0.00051665270892852877 0 0.0026630416672600737 -0.00049311927081109824 0 0.0026532903739244881 -0.00053143518870786197 0 0.0022490187161769344 -0.00047256860744785924 0 0.0025940762899093537 -0.00048334365086549443 0 0.0025940762899093537 -0.00048334365086549443 0 0.0026197507599621398 -0.00049543842932142819 0 0.0025296304708427885 -0.00043254863978149237 0 0.0025703250981189128 -0.00056893851939581071 0 0.0026350380667323741 -0.00050719237508728508 0 0.0013346369742107992 -0.00035900145677417199 0 0.001380685129557728 -0.00030370965086696513 0 0.001388455503632422 -0.00037071063913594508 0 0.0025296304708427885 -0.00043254863978149237 0 0.0025703250981189128 -0.00056893851939581071 0 0.0024251982960892125 -0.00054462497714980092 0 0.0020097687520912615 -0.00047391418964975481 0 0.0017581893129753796 -0.00046198876174981815 0 0.0020097687520912615 -0.00047391418964975481 0 0.0017628615488763074 -0.00041950588878259594 0 0.0025703250981189128 -0.00056893851939581071 0 0.0026532903739244881 -0.00053143518870786197 0 0.0026681181232216253 -0.00056511259467080543 0 0.002676717510982102 -0.00053549307769729039 0 0.0026764507738871852 -0.00051665270892852877 0 0.0026532903739244881 -0.00053143518870786197 0 0.002676717510982102 -0.00053549307769729039 0 0.0026532903739244881 -0.00053143518870786197 0 0.002669492268360879 -0.00055522074599848514 0 0.0025703250981189128 -0.00056893851939581071 0 0.0026532903739244881 -0.00053143518870786197 0 0.0026350380667323741 -0.00050719237508728508 0 0.0018212096808079895 -0.00040209695283343461 0 0.0017628615488763074 -0.00041950588878259594 0 0.0026706360365975354 -0.00055817793139466537 0 0.0026678931056870639 -0.00055785786634618526 0 0.002669492268360879 -0.00055522074599848514 0 0.0017628615488763074 -0.00041950588878259594 0 0.0017980298822683253 -0.00041468942947825254 0 0.0026532903739244881 -0.00053143518870786197 0 0.0026681181232216253 -0.00056511259467080543 0 0.002669492268360879 -0.00055522074599848514 0 0.0013346369742107992 -0.00035900145677417199 0 0.0012836514320684409 -0.0003477809558578665 0 0.0013312471815300321 -0.00030982276404105754 0 0.0017628615488763074 -0.00041950588878259594 0 0.0011866679041821842 -0.00030718372418020901 0 0.0012836514320684409 -0.0003477809558578665 0 0.0013312471815300321 -0.00030982276404105754 0 0.0012959107183067866 -0.00027867756637401519 0 0.0011722525695900207 -0.00039103142985159927 0 0.0011637941233412742 -0.0003501773779727756 0 0.0011859793797823553 -0.00031467041723621673 0 0.0011670689745682558 -0.00039013798357741438 0 0.0011722525695900207 -0.00039103142985159927 0 0.0011637941233412742 -0.0003501773779727756 0 0.0013346369742107992 -0.00035900145677417199 0 0.0013312471815300321 -0.00030982276404105754 0 0.001380685129557728 -0.00030370965086696513 0 0.0013196748486878661 -0.00025576813318991051 0 0.0017581893129753796 -0.00046198876174981815 0 0.0012860315047700428 -0.00023697190324352299 0 0.0012951081263467108 -0.00041749076880645813 0 0.0014122161264483167 -0.00028061746448916934 0 0.0012860315047700428 -0.00023697190324352299 0 0.0014122161264483167 -0.00028061746448916934 0 0.001381610309689952 -0.00011453795355157352 0 0.0019172587574045629 -0.00047578684918896525 0 0.0019005543897125581 -0.00045641821867356471 0 0.0019293298098075262 -0.00046228109400056058 0 0.0012951081263467108 -0.00041749076880645813 0 0.0014421979269308716 -0.00044721307839980094 0 0.0014122161264483167 -0.00028061746448916934 0 0.0017581893129753796 -0.00046198876174981815 0 0.0016280813926413586 -0.00044531627480704465 0 0.0016280813926413586 -0.00044531627480704465 0 0.0012926500354373501 -0.00021039073414531189 0 0.0012175910695721545 -0.00047940878009549581 0 0.0012868961756176971 -0.00026131073508577524 0 0.0011646985541758706 -0.00017113209968382223 0 0.0012175910695721545 -0.00047940878009549581 0 0.0012868961756176971 -0.00026131073508577524 0 0.0014391469496476638 -0.00025600710327342398 0 0.0012554250301109681 -0.00011354307159421383 0 0.0014391469496476638 -0.00025600710327342398 0 0.0012775010062217619 4.4508886852482186e-05 0 0.0012868961756176971 -0.00026131073508577524 0 0.0011646985541758706 -0.00017113209968382223 0 0.0012554250301109681 -0.00011354307159421383 0 0.0012868961756176971 -0.00026131073508577524 0 0.0012554250301109681 -0.00011354307159421383 0 0.0014391469496476638 -0.00025600710327342398 0 0.0011646985541758706 -0.00017113209968382223 0 0.0012554250301109681 -0.00011354307159421383 0 0.0012059825196577497 7.5742142366748484e-05 0 0.0016388060205226841 -5.8237579631229317e-05 0 0.0017887707847483883 1.3489726964404644e-05 0 0.001512251901258598 0.00016686441142954272 0 0.0015742501062443888 -0.00016698860840419093 0 0.0008880650442366089 5.046011657092254e-05 0 0.00094996087224230119 1.9216747688634005e-05 0 0.0008880650442366089 5.046011657092254e-05 0 0.0016388060205226841 -5.8237579631229317e-05 0 0.0017887707847483883 1.3489726964404644e-05 0 0.0018130988111016474 -0.00012892515114321188 0 0.0001645202939847103 1.4808008270100128e-05 0 0.00012934073638687883 1.0891020054344368e-05 0 0.0002122869465769317 -3.7056825143078606e-05 0 0.00094996087224230119 1.9216747688634005e-05 0 0.0011146928297305558 -8.5284863668258634e-05 0 0.0001645202939847103 1.4808008270100128e-05 0 0.00012934073638687883 1.0891020054344368e-05 0 0.00011915944627159198 2.4128310986202058e-05 0 0.0018130988111016474 -0.00012892515114321188 0 0.0019179396201528772 -0.0001990051303204262 0 0.0020159215332829924 -0.00013354350698483993 0 0.0017887707847483883 1.3489726964404644e-05 0 0.0018130988111016474 -0.00012892515114321188 0 0.0020159215332829924 -0.00013354350698483993 0 0.0018130988111016474 -0.00012892515114321188 0 0.0018481553696862666 -0.0002171467543100959 0 0.0017655865227314354 -0.0002566792568266229 0 0.0018130988111016474 -0.00012892515114321188 0 0.0018481553696862666 -0.0002171467543100959 0 0.0019179396201528772 -0.0001990051303204262 0 0.0012175910695721545 -0.00047940878009549581 0 0.0014391469496476638 -0.00025600710327342398 0 0.0015969586402146047 -0.00055506856913707658 0 0.0016388060205226841 -5.8237579631229317e-05 0 0.0018130988111016474 -0.00012892515114321188 0 0.0017655865227314354 -0.0002566792568266229 0 0.0015742501062443888 -0.00016698860840419093 0 0.0017740593547962316 -0.00041114216253345699 0 0.0019800683725923751 -0.00047117483219591714 0 0.0019943918443703496 -0.000463293233822302 0 0.0019923146508146528 -0.00047484192600674707 0 0.0019943918443703496 -0.000463293233822302 0 0.0019989541875872381 -0.00047652058909718355 0 0.0019923146508146528 -0.00047484192600674707 0 0.0016280813926413586 -0.00044531627480704465 0 0.0017740593547962316 -0.00041114216253345699 0 0.0017796103512509238 -0.00025576181867439793 0 0.0018265368045404906 -0.00026351299198657771 0 0.001881696213464083 -0.00038739721932540836 0 0.0018481553696862666 -0.0002171467543100959 0 0.0017655865227314354 -0.0002566792568266229 0 0.0018265368045404906 -0.00026351299198657771 0 0.0017740593547962316 -0.00041114216253345699 0 0.0017832528642316467 -0.00037586324169191517 0 0.0017740593547962316 -0.00041114216253345699 0 0.0019434495490263952 -0.0004275671744740305 0 0.0018481553696862666 -0.0002171467543100959 0 0.0019179396201528772 -0.0001990051303204262 0 0.0019025549749072251 -0.00027472848656549467 0 0.0018481553696862666 -0.0002171467543100959 0 0.0018265368045404906 -0.00026351299198657771 0 0.0019025549749072251 -0.00027472848656549467 0 0.0018265368045404906 -0.00026351299198657771 0 0.0019025549749072251 -0.00027472848656549467 0 0.001881696213464083 -0.00038739721932540836 0 0.0019025549749072251 -0.00027472848656549467 0 0.001881696213464083 -0.00038739721932540836 0 0.0019557846351015537 -0.00032468225048140224 0 0.0019434495490263952 -0.0004275671744740305 0 0.001980577008164603 -0.00047219872334347985 0 0.0019989541875872381 -0.00047652058909718355 0 0.0019986993139453602 -0.00048015356848595664 0 0.0019926931132557375 -0.00047863278750296919 0 0.001881696213464083 -0.00038739721932540836 0 0.001975741206734332 -0.00039715989924958442 0 0.0019926931132557375 -0.00047863278750296919 0 0.001881696213464083 -0.00038739721932540836 0 0.001975741206734332 -0.00039715989924958442 0 0.0019557846351015537 -0.00032468225048140224 0 0.0019850363539475322 -0.00048227906819273776 0 0.0019986993139453602 -0.00048015356848595664 0 0.0019923146508146528 -0.00047484192600674707 0 0.0019989541875872381 -0.00047652058909718355 0 0.0019986993139453602 -0.00048015356848595664 0 0.0019923146508146528 -0.00047484192600674707 0 0.0022007351842284425 -0.00030933794546156708 0 0.0021500253042409561 -0.00041603826007900941 0 0.0020795711433897563 -0.00036919301790857873 0 0.0022002222205814059 -0.00030801646887865204 0 0.0020472141694885732 -0.00047799668109281258 0 0.0022002222205814059 -0.00030801646887865204 0 0.0022470499360928136 -0.00036914035778555602 0 0.0022440791567156873 -0.00035962416271893838 0 0.0020795711433897563 -0.00036919301790857873 0 0.0020259846565758711 -0.00043051181368729063 0 0.0020472141694885732 -0.00047799668109281258 0 0.0020259846565758711 -0.00043051181368729063 0 0.001975741206734332 -0.00039715989924958442 0 0.0019926931132557375 -0.00047863278750296919 0 0.0020259846565758711 -0.00043051181368729063 0 0.001975741206734332 -0.00039715989924958442 0 0.00202637565101623 -0.00033492781534764731 0 0.0020795711433897563 -0.00036919301790857873 0 0.0020259846565758711 -0.00043051181368729063 0 0.00202637565101623 -0.00033492781534764731 0 0.00202637565101623 -0.00033492781534764731 0 0.0019557846351015537 -0.00032468225048140224 0 0.0019855447902048921 -0.00025739455272379922 0 0.001975741206734332 -0.00039715989924958442 0 0.00202637565101623 -0.00033492781534764731 0 0.0019557846351015537 -0.00032468225048140224 0 0.0019179396201528772 -0.0001990051303204262 0 0.0019025549749072251 -0.00027472848656549467 0 0.0019855447902048921 -0.00025739455272379922 0 0.0019025549749072251 -0.00027472848656549467 0 0.0019557846351015537 -0.00032468225048140224 0 0.0019855447902048921 -0.00025739455272379922 0 0.00202637565101623 -0.00033492781534764731 0 0.0019855447902048921 -0.00025739455272379922 0 0.002096662192684656 -0.00027707672397910774 0 0.0020795711433897563 -0.00036919301790857873 0 0.00202637565101623 -0.00033492781534764731 0 0.002096662192684656 -0.00027707672397910774 0 0.0020795711433897563 -0.00036919301790857873 0 0.002096662192684656 -0.00027707672397910774 0 0.0022002222205814059 -0.00030801646887865204 0 0.002096662192684656 -0.00027707672397910774 0 0.0022002222205814059 -0.00030801646887865204 0 0.0022039320410838833 -0.00027336383396723955 0 0.00026954949729942826 -2.3961854159134444e-05 0 0.0002122869465769317 -3.7056825143078606e-05 0 0.00029622322491659959 -5.0439594893356448e-05 0 0.002096662192684656 -0.00027707672397910774 0 0.0020159215332829924 -0.00013354350698483993 0 0.0022039320410838833 -0.00027336383396723955 0 0.0011146928297305558 -8.5284863668258634e-05 0 0.0012455370599578376 -0.00015637599301389037 0 0.0019179396201528772 -0.0001990051303204262 0 0.0019855447902048921 -0.00025739455272379922 0 0.0020159215332829924 -0.00013354350698483993 0 0.0019855447902048921 -0.00025739455272379922 0 0.002096662192684656 -0.00027707672397910774 0 0.0020159215332829924 -0.00013354350698483993 0 0.0001645202939847103 1.4808008270100128e-05 0 0.0002122869465769317 -3.7056825143078606e-05 0 0.00021694493338747192 3.2363546632655124e-05 0 0.00026954949729942826 -2.3961854159134444e-05 0 0.00021694493338747192 3.2363546632655124e-05 0 0.00029504240517630209 8.379416866014351e-06 0 0.00012423078808164104 4.1955134918295422e-05 0 8.9744446253095105e-05 2.853677980476001e-05 0 0.00026954949729942826 -2.3961854159134444e-05 0 0.0002122869465769317 -3.7056825143078606e-05 0 0.00021694493338747192 3.2363546632655124e-05 0 8.9744446253095105e-05 2.853677980476001e-05 0 0.00030220822541322047 -4.4511512665506626e-05 0 -0.0001557395261349141 1.9338975380607455e-05 0 -0.00012255231246349857 -3.6374463262050304e-05 0 -0.00015023102296855121 1.7510614550438848e-05 0 8.9744446253095105e-05 2.853677980476001e-05 0 9.8430912075303715e-05 -2.7153728793974448e-05 0 0.0003097569812433019 -2.8337833041805781e-05 0 0.00030068120068483731 -2.5615751275443038e-05 0 0.00031736198497630337 -2.67824250429859e-05 0 0.0003097569812433019 -2.8337833041805781e-05 0 0.00031736198497630337 -2.67824250429859e-05 0 0.00031076546801580852 -2.5491094701947849e-05 0 0.00029474267142433824 -1.336452835224961e-05 0 0.00030068120068483731 -2.5615751275443038e-05 0 0.00031736198497630337 -2.67824250429859e-05 0 0.0003097569812433019 -2.8337833041805781e-05 0 0.00030068120068483731 -2.5615751275443038e-05 0 0.00030625530921699984 -3.7828401170372879e-05 0 0.00030646235899673704 -3.248333993747401e-05 0 0.00029622322491659959 -5.0439594893356448e-05 0 0.00030625530921699984 -3.7828401170372879e-05 0 0.00030220822541322047 -4.4511512665506626e-05 0 0.00030400891159660818 -3.25193994730631e-05 0 0.00026954949729942826 -2.3961854159134444e-05 0 0.00030646235899673704 -3.248333993747401e-05 0 0.00029622322491659959 -5.0439594893356448e-05 0 0.00026954949729942826 -2.3961854159134444e-05 0 0.00029504240517630209 8.379416866014351e-06 0 0.00030646235899673704 -3.248333993747401e-05 0 0.00010737964859795019 2.3895344997624669e-08 0 4.2147999050082525e-05 -9.2295943682218864e-07 0 -9.3706438502222977e-05 3.0242132145419125e-05 0 4.2147999050082525e-05 -9.2295943682218864e-07 0 -0.00012255231246349857 -3.6374463262050304e-05 0 -9.3706438502222977e-05 3.0242132145419125e-05 0 -0.00012255231246349857 -3.6374463262050304e-05 0 -0.00015023102296855121 1.7510614550438848e-05 0 -9.3706438502222977e-05 3.0242132145419125e-05 0 0.00031736198497630337 -2.67824250429859e-05 0 0.00030644596158215952 -1.1659926530364602e-05 0 0.00031076546801580852 -2.5491094701947849e-05 0 0.00031736198497630337 -2.67824250429859e-05 0 0.0003046844640258819 2.2286411020549881e-06 0 0.00030644596158215952 -1.1659926530364602e-05 0 9.8430912075303715e-05 -2.7153728793974448e-05 0 0.00023282519902994013 -1.7166202129853875e-05 0 0.00010737964859795019 2.3895344997624669e-08 0 4.2147999050082525e-05 -9.2295943682218864e-07 0 0.00025104492421817293 -1.0945790071847824e-05 0 0.00010737964859795019 2.3895344997624669e-08 0 0.00025104492421817293 -1.0945790071847824e-05 0 0.00038122471531691767 -1.8314035059869033e-07 0 0.00031736198497630337 -2.67824250429859e-05 0 0.00025104492421817293 -1.0945790071847824e-05 0 0.0003046844640258819 2.2286411020549881e-06 0 4.2147999050082525e-05 -9.2295943682218864e-07 0 -0.00012255231246349857 -3.6374463262050304e-05 0 0.00025104492421817293 -1.0945790071847824e-05 0 0.0003046844640258819 2.2286411020549881e-06 0 0.00030644596158215952 -1.1659926530364602e-05 0 0.00031573297949093529 -5.7979550132042956e-05 0 0.00038122471531691767 -1.8314035059869033e-07 0 0.0003046844640258819 2.2286411020549881e-06 0 0.00031573297949093529 -5.7979550132042956e-05 0 0.00025104492421817293 -1.0945790071847824e-05 0 0.00038122471531691767 -1.8314035059869033e-07 0 0.0003046844640258819 2.2286411020549881e-06 0 0.00030644596158215952 -1.1659926530364602e-05 0 0.00030575365048234602 -2.5855305723815298e-05 0 0.00031573297949093529 -5.7979550132042956e-05 0 0.00030644596158215952 -1.1659926530364602e-05 0 0.00030575365048234602 -2.5855305723815298e-05 0 0.00031076546801580852 -2.5491094701947849e-05 0 0.001313370850429238 -0.00035535515958309762 0 0.0013791407563283706 -0.00019240536116744633 0 0.0012842375193925914 -0.00023681446676556762 0 0.00030575365048234602 -2.5855305723815298e-05 0 0.00030629375248534982 -3.4263615758884149e-05 0 0.00031573297949093529 -5.7979550132042956e-05 0 0.001313370850429238 -0.00035535515958309762 0 0.0011670306269243936 -0.00027495058831579434 0 0.0012842375193925914 -0.00023681446676556762 0 0.0011910154993955511 -0.00025781790268646499 0 0.00067572504442702029 -0.00010178702514612559 0 0.00038202667239527703 -8.4628004387732772e-10 0 0.00059167796609436356 -4.0928007401971588e-07 0 0.0006732594630355776 -3.5528539339239902e-10 0 0.00038148965652641531 -5.8894753968601032e-10 0 0.00067572504442702029 -0.00010178702514612559 0 0.0022039320410838833 -0.00027336383396723955 0 0.0022542876900761145 -0.00032997089381961312 0 0.0022331171601618557 -0.00032743930669132485 0 0.00029622322491659959 -5.0439594893356448e-05 0 0.00030625530921699984 -3.7828401170372879e-05 0 0.00031203053740766734 -3.2069737907802625e-05 0 0.0012455370599578376 -0.00015637599301389037 0 0.0012714161491918733 -0.00020040403661639373 0 0.0022002222205814059 -0.00030801646887865204 0 0.0022039320410838833 -0.00027336383396723955 0 0.0022331171601618557 -0.00032743930669132485 0 0.0003097569812433019 -2.8337833041805781e-05 0 0.00030625530921699984 -3.7828401170372879e-05 0 0.00031076546801580852 -2.5491094701947849e-05 0 0.00030575365048234602 -2.5855305723815298e-05 0 0.00031076546801580852 -2.5491094701947849e-05 0 0.00031203053740766734 -3.2069737907802625e-05 0 0.00030625530921699984 -3.7828401170372879e-05 0 0.00031076546801580852 -2.5491094701947849e-05 0 0.00031203053740766734 -3.2069737907802625e-05 0 0.0022560476051733313 -0.00033699769291344842 0 0.0022488290081872477 -0.00034474201817261124 0 0.0022493320148269016 -0.0003506895160593057 0 0.0022542876900761145 -0.00032997089381961312 0 0.0022488290081872477 -0.00034474201817261124 0 0.0022331171601618557 -0.00032743930669132485 0 0.0011910154993955511 -0.00025781790268646499 0 0.0018303251489541592 -0.00025144069945545733 0 0.0022560476051733313 -0.00033699769291344842 0 0.0022542876900761145 -0.00032997089381961312 0 0.0022488290081872477 -0.00034474201817261124 0 0.0011910154993955511 -0.00025781790268646499 0 0.0012714161491918733 -0.00020040403661639373 0 0.00030575365048234602 -2.5855305723815298e-05 0 0.00030629375248534982 -3.4263615758884149e-05 0 0.00031203053740766734 -3.2069737907802625e-05 0 0.0022002222205814059 -0.00030801646887865204 0 0.0022459704839582571 -0.00035170151397690785 0 0.0022331171601618557 -0.00032743930669132485 0 0.0022002222205814059 -0.00030801646887865204 0 0.0022459704839582571 -0.00035170151397690785 0 0.0022440791567156873 -0.00035962416271893838 0 0.0022488290081872477 -0.00034474201817261124 0 0.0022459704839582571 -0.00035170151397690785 0 0.0022331171601618557 -0.00032743930669132485 0 0.0022459704839582571 -0.00035170151397690785 0 0.00225897438967469 -0.00037119216189102902 0 0.0022732824940486828 -0.00038005533651346279 0 0.0022459704839582571 -0.00035170151397690785 0 0.0022453723060253442 -0.00035206172853371228 0 0.0022437382008666249 -0.00035308073716975788 0 0.002248504736507841 -0.00035592047439688269 0 0.0022632176215660912 -0.00036360161811424053 0 0.0022459704839582571 -0.00035170151397690785 0 0.00225897438967469 -0.00037119216189102902 0 0.0022440791567156873 -0.00035962416271893838 0 0.0022453723060253442 -0.00035206172853371228 0 0.0022449113866799333 -0.00035260017501871735 0 0.0022437382008666249 -0.00035308073716975788 0 0.0022488290081872477 -0.00034474201817261124 0 0.0022459704839582571 -0.00035170151397690785 0 0.0022453723060253442 -0.00035206172853371228 0 0.0018303251489541592 -0.00025144069945545733 0 0.0019393455677198157 -0.00023911573428683709 0 0.0022488290081872477 -0.00034474201817261124 0 0.0022453723060253442 -0.00035206172853371228 0 0.0022493320148269016 -0.0003506895160593057 0 0.0013791407563283706 -0.00019240536116744633 0 0.0014408607758786478 -3.8595438560133202e-05 0 0.0012843377803033169 -0.00011856642783841113 0 0.0022493320148269016 -0.0003506895160593057 0 0.0022444059961807257 -0.00035324571566728219 0 0.0022441545445062903 -0.00035362649189298387 0 0.0022453723060253442 -0.00035206172853371228 0 0.0022493320148269016 -0.0003506895160593057 0 0.0022449113866799333 -0.00035260017501871735 0 0.0022493320148269016 -0.0003506895160593057 0 0.0022449113866799333 -0.00035260017501871735 0 0.0022444059961807257 -0.00035324571566728219 0 0.0016083107929776785 -0.00019728246276768741 0 0.0011275535366272141 -4.9411215158859782e-05 0 0.0019583265099624068 -0.00026423426928228572 0 0.0019768905531162471 -0.00029693276722217649 0 0.0019292057787442063 -0.00034660784728648703 0 0.0014408607758786478 -3.8595438560133202e-05 0 0.0013991794509419385 3.4249865274841344e-05 0 0.0012843377803033169 -0.00011856642783841113 0 0.0022442420335348954 -0.0003532910597963231 0 0.0022436568984013465 -0.00035363480617473322 0 0.0022416065114305456 -0.00035614157809716132 0 0.0019393455677198157 -0.00023911573428683709 0 0.0021617585100487048 -0.00039232238900501599 0 0.0022444059961807257 -0.00035324571566728219 0 0.0022442420335348954 -0.0003532910597963231 0 0.0022436568984013465 -0.00035363480617473322 0 0.001981489169628846 -0.00028426764890090897 0 0.0019393455677198157 -0.00023911573428683709 0 0.0019393455677198157 -0.00023911573428683709 0 0.0016083107929776785 -0.00019728246276768741 0 0.0022437382008666249 -0.00035308073716975788 0 0.0022436568984013465 -0.00035363480617473322 0 0.0022416065114305456 -0.00035614157809716132 0 0.0022759372503499734 -0.00038361036165312048 0 0.0022732824940486828 -0.00038005533651346279 0 0.0022784401436358242 -0.00038450247660448369 0 0.0022632176215660912 -0.00036360161811424053 0 0.0021617585100487048 -0.00039232238900501599 0 0.0022759372503499734 -0.00038361036165312048 0 0.0022696546056192738 -0.00038102934469445588 0 0.0022732824940486828 -0.00038005533651346279 0 0.0022759372503499734 -0.00038361036165312048 0 0.0022696546056192738 -0.00038102934469445588 0 0.0022796790594022819 -0.00038494306952389202 0 0.00225897438967469 -0.00037119216189102902 0 0.0022696546056192738 -0.00038102934469445588 0 0.002261972969933019 -0.00037731527927437796 0 0.00225897438967469 -0.00037119216189102902 0 0.0022696546056192738 -0.00038102934469445588 0 0.0022732824940486828 -0.00038005533651346279 0 0.0022449113866799333 -0.00035260017501871735 0 0.0022444059961807257 -0.00035324571566728219 0 0.0022437382008666249 -0.00035308073716975788 0 0.0022444059961807257 -0.00035324571566728219 0 0.0022437382008666249 -0.00035308073716975788 0 0.0022436568984013465 -0.00035363480617473322 0 0.00086939645584582445 -0.00011347806097650255 0 0.00067408109003287545 -2.5608618375936094e-07 0 0.00086887833411965784 1.5694476266168911e-05 0 0.00067572504442702029 -0.00010178702514612559 0 0.00067372789260386815 -3.0101443234297127e-08 0 0.00086939645584582445 -0.00011347806097650255 0 0.00096826805136379884 -6.4170888017827223e-06 0 0.00086887833411965784 1.5694476266168911e-05 0 0.00067572504442702029 -0.00010178702514612559 0 0.0011275535366272141 -4.9411215158859782e-05 0 0.0011670306269243936 -0.00027495058831579434 0 0.0012842375193925914 -0.00023681446676556762 0 0.0012843377803033169 -0.00011856642783841113 0 0.0013791407563283706 -0.00019240536116744633 0 0.0012842375193925914 -0.00023681446676556762 0 0.0012843377803033169 -0.00011856642783841113 0 0.00096826805136379884 -6.4170888017827223e-06 0 0.00097461552864244727 3.0552920661641645e-05 0 0.00086887833411965784 1.5694476266168911e-05 0 0.00099881967533651779 2.32641535182911e-05 0 0.00096826805136379884 -6.4170888017827223e-06 0 0.00097461552864244727 3.0552920661641645e-05 0 0.00097461552864244727 3.0552920661641645e-05 0 0.00086887833411965784 1.5694476266168911e-05 0 0.00090012148685943616 1.2562542737183974e-07 0 0.00067408109003287545 -2.5608618375936094e-07 0 0.00086887833411965784 1.5694476266168911e-05 0 0.00090012148685943616 1.2562542737183974e-07 0 0.00097461552864244727 3.0552920661641645e-05 0 0.0010505363871232013 8.470177528656379e-06 0 0.0011265368705464138 5.3881930766878242e-08 0 0.00097461552864244727 3.0552920661641645e-05 0 0.00090012148685943616 1.2562542737183974e-07 0 0.0011265368705464138 5.3881930766878242e-08 0 0.00099881967533651779 2.32641535182911e-05 0 0.00097461552864244727 3.0552920661641645e-05 0 0.0010505363871232013 8.470177528656379e-06 0 0.0014922957679920584 -0.00012137125243416922 0 0.0014409873648802026 -0.00022202948826305171 0 0.0012552043784754294 -1.0208037812329967e-05 0 0.0010505363871232013 8.470177528656379e-06 0 0.0011265368705464138 5.3881930766878242e-08 0 0.0021573588719419772 -0.00043969486499978672 0 0.0021596550849669548 -0.00046573918445558216 0 0.0021388709754230901 -0.00048954124508696984 0 0.0021617585100487048 -0.00039232238900501599 0 0.0021623845757542236 -0.00048571536275801932 0 0.0021617585100487048 -0.00039232238900501599 0 0.0020982654583279773 -0.00049945402551113095 0 0.0022784401436358242 -0.00038450247660448369 0 0.0022809246376349081 -0.00038382772529286119 0 0.0022883185630938625 -0.00038212034066180796 0 0.0022784401436358242 -0.00038450247660448369 0 0.002282001259767681 -0.00038072194397330099 0 0.0022883185630938625 -0.00038212034066180796 0 0.0022759372503499734 -0.00038361036165312048 0 0.0022784401436358242 -0.00038450247660448369 0 0.0022809246376349081 -0.00038382772529286119 0 0.0022759372503499734 -0.00038361036165312048 0 0.0022809246376349081 -0.00038382772529286119 0 0.0022796790594022819 -0.00038494306952389202 0 0.0019507568745027988 -0.0006010464614016152 0 0.001855343302237232 -0.00044098302685112613 0 0.0020394630777839503 -0.00048504801463707277 0 0.0016083107929776785 -0.00019728246276768741 0 0.0020982654583279773 -0.00049945402551113095 0 0.0019768905531162471 -0.00029693276722217649 0 0.0019292057787442063 -0.00034660784728648703 0 0.0019311106632782552 -0.00036574997378690247 0 0.0016083107929776785 -0.00019728246276768741 0 0.0014409873648802026 -0.00022202948826305171 0 0.0020282971688931257 -0.00028414324338712485 0 0.0020394630777839503 -0.00048504801463707277 0 0.0019681403904974748 -0.00039131566716067153 0 0.0019149813199133491 -0.00030708480891883215 0 0.001855343302237232 -0.00044098302685112613 0 0.0019681403904974748 -0.00039131566716067153 0 0.001855343302237232 -0.00044098302685112613 0 0.0020394630777839503 -0.00048504801463707277 0 0.0019681403904974748 -0.00039131566716067153 0 0.0021080156797647883 -0.00051226244859149553 0 0.0021273287335398855 -0.00069048528589351948 0 0.0021518791792145809 -0.00066279130827052513 0 0.002066340052877228 -0.00041741830536571998 0 0.0020982654583279773 -0.00049945402551113095 0 0.0021080156797647883 -0.00051226244859149553 0 0.0021518791792145809 -0.00066279130827052513 0 0.0021807356397096967 -0.00058814147933028914 0 0.0020982654583279773 -0.00049945402551113095 0 0.0021623845757542236 -0.00048571536275801932 0 0.002282001259767681 -0.00038072194397330099 0 0.0022879118761466462 -0.00037491657579295448 0 0.0022883185630938625 -0.00038212034066180796 0 0.0021623845757542236 -0.00048571536275801932 0 0.0022261996929488874 -0.00047990846377080895 0 0.0023089521017030002 -0.00037069347500058456 0 0.0022883185630938625 -0.00038212034066180796 0 0.0023082061404915439 -0.00037996484581954667 0 0.0023089521017030002 -0.00037069347500058456 0 0.0022879118761466462 -0.00037491657579295448 0 0.0022883185630938625 -0.00038212034066180796 0 0.0022883185630938625 -0.00038212034066180796 0 0.0022796790594022819 -0.00038494306952389202 0 0.0023082061404915439 -0.00037996484581954667 0 0.0022809246376349081 -0.00038382772529286119 0 0.0022883185630938625 -0.00038212034066180796 0 0.0022796790594022819 -0.00038494306952389202 0 0.0022796790594022819 -0.00038494306952389202 0 0.0023082061404915439 -0.00037996484581954667 0 0.0022965334837366691 -0.00039027252028853637 0 0.0023082061404915439 -0.00037996484581954667 0 0.0023488206288458731 -0.00037339785289204955 0 0.0022965334837366691 -0.00039027252028853637 0 0.00233939077735996 -0.00036536727595891529 0 0.0023089521017030002 -0.00037069347500058456 0 0.0023082061404915439 -0.00037996484581954667 0 0.00233939077735996 -0.00036536727595891529 0 0.0023082061404915439 -0.00037996484581954667 0 0.0023488206288458731 -0.00037339785289204955 0 0.0020436446872638073 -0.00039206063149136892 0 0.0020716057180312298 -0.00040965636281264136 0 0.0020327327079851585 -0.00044622309288200719 0 0.0020436446872638073 -0.00039206063149136892 0 0.0020109920294273977 -0.00041213902512082329 0 0.0020327327079851585 -0.00044622309288200719 0 0.0020109920294273977 -0.00041213902512082329 0 0.0020327327079851585 -0.00044622309288200719 0 0.0019924491058066628 -0.00047343805745608944 0 0.0021616540196611952 -0.00039840946625108479 0 0.0021503191004372786 -0.00042695840853414853 0 0.0020065262683579186 -0.00048475506151818396 0 0.0019926931132557375 -0.00047863278750296919 0 0.0019924491058066628 -0.00047343805745608944 0 0.0020327327079851585 -0.00044622309288200719 0 0.0020065262683579186 -0.00048475506151818396 0 0.0019924491058066628 -0.00047343805745608944 0 0.0020496845574890033 -0.00048302567537907948 0 0.0020327327079851585 -0.00044622309288200719 0 0.0020065262683579186 -0.00048475506151818396 0 0.0020649410593595249 -0.00045244433564797185 0 0.0020496845574890033 -0.00048302567537907948 0 0.0020327327079851585 -0.00044622309288200719 0 0.0019850363539475322 -0.00048227906819273776 0 0.0019986993139453602 -0.00048015356848595664 0 0.0020065262683579186 -0.00048475506151818396 0 0.0020496845574890033 -0.00048302567537907948 0 0.0020552679879980644 -0.00052119232952026174 0 0.0020065262683579186 -0.00048475506151818396 0 0.001975892858211772 -0.00050254557547478335 0 0.0020217633179423172 -0.00049050461289076158 0 0.0019986993139453602 -0.00048015356848595664 0 0.0020065262683579186 -0.00048475506151818396 0 0.0019926931132557375 -0.00047863278750296919 0 0.0019926931132557375 -0.00047863278750296919 0 0.0020472141694885732 -0.00047799668109281258 0 0.0019924491058066628 -0.00047343805745608944 0 0.0020259846565758711 -0.00043051181368729063 0 0.0019926931132557375 -0.00047863278750296919 0 0.0020472141694885732 -0.00047799668109281258 0 0.0022470499360928136 -0.00036914035778555602 0 0.0022440791567156873 -0.00035962416271893838 0 0.002261972969933019 -0.00037731527927437796 0 0.00225897438967469 -0.00037119216189102902 0 0.0022440791567156873 -0.00035962416271893838 0 0.002261972969933019 -0.00037731527927437796 0 0.0022470499360928136 -0.00036914035778555602 0 0.002261972969933019 -0.00037731527927437796 0 0.0022965334837366691 -0.00039027252028853637 0 0.0022796790594022819 -0.00038494306952389202 0 0.002261972969933019 -0.00037731527927437796 0 0.0022965334837366691 -0.00039027252028853637 0 0.0022696546056192738 -0.00038102934469445588 0 0.0022796790594022819 -0.00038494306952389202 0 0.002261972969933019 -0.00037731527927437796 0 0.0021500253042409561 -0.00041603826007900941 0 0.0021503191004372786 -0.00042695840853414853 0 0.0031865852833100157 -0.0010105606147586869 0 0.0032292165354535422 -0.00091005780365106175 0 0.0032857848331651991 -0.0011716535824765632 0 0.0032292165354535422 -0.00091005780365106175 0 0.0032857848331651991 -0.0011716535824765632 0 0.0033247721265280057 -0.00084855078280093692 0 0.002934890612267196 -0.00073476461331631077 0 0.0033350945595524155 -0.0006949693473885715 0 0.0031329170839765551 -0.0010619927852917352 0 0.0031865852833100157 -0.0010105606147586869 0 0.0032857848331651991 -0.0011716535824765632 0 0.0025260479455438377 -0.00080676898659616492 0 0.0027739331484617721 -0.00077456749673591703 0 0.0031865852833100157 -0.0010105606147586869 0 0.0032292165354535422 -0.00091005780365106175 0 0.0031359221604153656 -0.0008573359453124997 0 0.0031314320441754801 -0.0010649764036036516 0 0.0031865852833100157 -0.0010105606147586869 0 0.0031359221604153656 -0.0008573359453124997 0 0.0033179610371151412 -0.0005051023221156819 0 0.003266491340350175 -0.00060894808910774418 0 0.0032846412833324257 -0.00048415959814929611 0 0.0033363044331478657 -0.00044236423180577487 0 0.0033362814623243142 -0.00046713998058672558 0 0.003347236963822095 -0.00046534068262446342 0 0.0033593704959163314 -0.00045807799076883979 0 0.0029412663378049269 -0.00055184851236912257 0 0.0033363044331478657 -0.00044236423180577487 0 0.0033362814623243142 -0.00046713998058672558 0 0.0033240154462880213 -0.00047601110528683137 0 0.0033363044331478657 -0.00044236423180577487 0 0.0033545567789514757 -0.00042910151335680751 0 0.0033555962427640586 -0.00045027585491455281 0 0.0033363044331478657 -0.00044236423180577487 0 0.003347236963822095 -0.00046534068262446342 0 0.0033555962427640586 -0.00045027585491455281 0 0.0033179610371151412 -0.0005051023221156819 0 0.003277324297385894 -0.00061935063655838712 0 0.003266491340350175 -0.00060894808910774418 0 0.0033362814623243142 -0.00046713998058672558 0 0.0033348688350289691 -0.00047693962268803217 0 0.0033240154462880213 -0.00047601110528683137 0 0.0033362814623243142 -0.00046713998058672558 0 0.0033415734111923979 -0.00047629598691949812 0 0.0033348688350289691 -0.00047693962268803217 0 0.003347236963822095 -0.00046534068262446342 0 0.0033415734111923979 -0.00047629598691949812 0 0.0033507946145959954 -0.00048238683429922618 0 0.0033362814623243142 -0.00046713998058672558 0 0.003347236963822095 -0.00046534068262446342 0 0.0033415734111923979 -0.00047629598691949812 0 0.0033415734111923979 -0.00047629598691949812 0 0.0033507946145959954 -0.00048238683429922618 0 0.0033421350751440095 -0.00049063685003821172 0 0.0033415734111923979 -0.00047629598691949812 0 0.0033348688350289691 -0.00047693962268803217 0 0.0033421350751440095 -0.00049063685003821172 0 0.0033348688350289691 -0.00047693962268803217 0 0.0033240154462880213 -0.00047601110528683137 0 0.0033421350751440095 -0.00049063685003821172 0 0.0028393548917608415 -0.00048333026773198374 0 0.0028415813034956658 -0.0004814399249792867 0 0.0028516769272567831 -0.00048822427675098562 0 0.0029412663378049269 -0.00055184851236912257 0 0.0030978476770881576 -0.00048948868672965247 0 0.0025429234546821911 -0.0005740284749616235 0 0.0020372149588034267 -0.00057756503248304115 0 0.0017852782906709074 -0.00063246883074260499 0 0.0017877152802451498 -0.00062963181554111778 0 0.0017832729974601171 -0.00062880982719458608 0 0.0017925540445370219 -0.00063832844571047403 0 0.0017852782906709074 -0.00063246883074260499 0 0.0017877152802451498 -0.00062963181554111778 0 0.0027245647966219234 -0.00052638883100990447 0 0.002693110228634004 -0.0005582512024755055 0 0.0027209623155291067 -0.00058420798426177874 0 0.0025429234546821911 -0.0005740284749616235 0 0.002934890612267196 -0.00073476461331631077 0 0.0025429234546821911 -0.0005740284749616235 0 0.0029412663378049269 -0.00055184851236912257 0 0.0026172452490955908 -0.00074528972643335357 0 0.0026216977283181689 -0.00074641899928908149 0 0.0026216703375229302 -0.00074575429000978458 0 0.0029412663378049269 -0.00055184851236912257 0 0.002934890612267196 -0.00073476461331631077 0 0.0025260479455438377 -0.00080676898659616492 0 0.0025429234546821911 -0.0005740284749616235 0 0.0025260479455438377 -0.00080676898659616492 0 0.002934890612267196 -0.00073476461331631077 0 0.0025260479455438377 -0.00080676898659616492 0 0.0019970539563988867 -0.00071290560282290911 0 0.0024701117113459319 -0.00066285514834576813 0 0.0023200739262818175 -0.00067485642391152333 0 0.0023245958745751671 -0.00080731968380236383 0 0.0017925540445370219 -0.00063832844571047403 0 0.0017877152802451498 -0.00062963181554111778 0 0.001795100888128289 -0.00062925581553990731 0 0.0023200739262818175 -0.00067485642391152333 0 0.0023245958745751671 -0.00080731968380236383 0 0.0022048496314112033 -0.00074064822913934856 0 0.0023200739262818175 -0.00067485642391152333 0 0.0023751283347571775 -0.00055698567095483137 0 0.0022236590631717246 -0.00061242932824804761 0 0.0023200739262818175 -0.00067485642391152333 0 0.0022236590631717246 -0.00061242932824804761 0 0.0022048496314112033 -0.00074064822913934856 0 0.0024701117113459319 -0.00066285514834576813 0 0.0023200739262818175 -0.00067485642391152333 0 0.0023751283347571775 -0.00055698567095483137 0 0.0025260479455438377 -0.00080676898659616492 0 0.0027544791368217711 -0.00077755747078873288 0 0.0031314320441754801 -0.0010649764036036516 0 0.0029416304601140274 -0.00086673670604140568 0 0.0031359221604153656 -0.0008573359453124997 0 0.0029416304601140274 -0.00086673670604140568 0 0.0029571976578990542 -0.00069878580064106142 0 0.0028318704119673086 -0.0006015715786580328 0 0.0029416304601140274 -0.00086673670604140568 0 0.0030487851704572746 -0.00071973970919681472 0 0.0031359221604153656 -0.0008573359453124997 0 0.0029416304601140274 -0.00086673670604140568 0 0.0029571976578990542 -0.00069878580064106142 0 0.0030487851704572746 -0.00071973970919681472 0 0.0029571976578990542 -0.00069878580064106142 0 0.0030487851704572746 -0.00071973970919681472 0 0.0030051974117253216 -0.00060496158273885933 0 0.0030487851704572746 -0.00071973970919681472 0 0.0030051974117253216 -0.00060496158273885933 0 0.0031614078747849955 -0.00065631882181022461 0 0.0023751283347571775 -0.00055698567095483137 0 0.0022713708622260826 -0.00045699430090398951 0 0.0022195175551459573 -0.00052437582814639325 0 0.0029159294139428599 -0.00088943015923773799 0 0.0026761242321619778 -0.00066780853698678727 0 0.0026599543145331807 -0.00060440159214753398 0 0.0029416304601140274 -0.00086673670604140568 0 0.0026599543145331807 -0.00060440159214753398 0 0.0028318704119673086 -0.0006015715786580328 0 0.0023751283347571775 -0.00055698567095483137 0 0.0022236590631717246 -0.00061242932824804761 0 0.0022195175551459573 -0.00052437582814639325 0 0.0027544791368217711 -0.00077755747078873288 0 0.0024540491123141183 -0.00054770632556157967 0 0.0027544791368217711 -0.00077755747078873288 0 0.0027380843866578195 -0.00066680336787932823 0 0.0026599543145331807 -0.00060440159214753398 0 0.002914455296685721 -0.00047429428821429482 0 0.0026397067451116281 -0.00037903571977353532 0 0.0026599543145331807 -0.00060440159214753398 0 0.0028318704119673086 -0.0006015715786580328 0 0.002914455296685721 -0.00047429428821429482 0 0.002914455296685721 -0.00047429428821429482 0 0.0031470604210112121 -0.00052041130558279326 0 0.0032559412209036574 -0.00037178036887330408 0 0.0030051974117253216 -0.00060496158273885933 0 0.0031470604210112121 -0.00052041130558279326 0 0.0031614078747849955 -0.00065631882181022461 0 0.0029571976578990542 -0.00069878580064106142 0 0.0028318704119673086 -0.0006015715786580328 0 0.0030051974117253216 -0.00060496158273885933 0 0.0028318704119673086 -0.0006015715786580328 0 0.0030051974117253216 -0.00060496158273885933 0 0.002914455296685721 -0.00047429428821429482 0 0.0030051974117253216 -0.00060496158273885933 0 0.002914455296685721 -0.00047429428821429482 0 0.0031470604210112121 -0.00052041130558279326 0 0.0031614078747849955 -0.00065631882181022461 0 0.0032407658712134677 -0.00075333638196448365 0 0.0033540736890170248 -0.00048379040194318794 0 0.0031470604210112121 -0.00052041130558279326 0 0.0033540736890170248 -0.00048379040194318794 0 0.0032559412209036574 -0.00037178036887330408 0 0.0031470604210112121 -0.00052041130558279326 0 0.0031614078747849955 -0.00065631882181022461 0 0.0033540736890170248 -0.00048379040194318794 0 0.0032407658712134677 -0.00075333638196448365 0 0.0033247721265280057 -0.00084855078280093692 0 0.0033540736890170248 -0.00048379040194318794 0 0.0031614078747849955 -0.00065631882181022461 0 0.0032407658712134677 -0.00075333638196448365 0 0.0031359221604153656 -0.0008573359453124997 0 0.0030487851704572746 -0.00071973970919681472 0 0.0031614078747849955 -0.00065631882181022461 0 0.0031359221604153656 -0.0008573359453124997 0 0.0032292165354535422 -0.00091005780365106175 0 0.0032407658712134677 -0.00075333638196448365 0 0.0033247721265280057 -0.00084855078280093692 0 0.0032292165354535422 -0.00091005780365106175 0 0.0032407658712134677 -0.00075333638196448365 0 0.0031359221604153656 -0.0008573359453124997 0 0.0033363044331478657 -0.00044236423180577487 0 0.0033459908332793037 -0.00040444676421017917 0 0.0033545567789514757 -0.00042910151335680751 0 0.0033350945595524155 -0.0006949693473885715 0 0.0033226866042412287 -0.00043165201160382248 0 0.0033179610371151412 -0.0005051023221156819 0 0.0032846412833324257 -0.00048415959814929611 0 0.0033459908332793037 -0.00040444676421017917 0 0.0033593704959163314 -0.00045807799076883979 0 0.003338275585287629 -0.00041746478851058336 0 0.0032846412833324257 -0.00048415959814929611 0 0.0033459908332793037 -0.00040444676421017917 0 0.0033023267629197603 -0.00038164637049765504 0 0.0033459908332793037 -0.00040444676421017917 0 0.0033694008641309771 -0.00036674363514804798 0 0.0033397976135792619 -0.00035696050834069221 0 0.0033459908332793037 -0.00040444676421017917 0 0.0033023267629197603 -0.00038164637049765504 0 0.0033397976135792619 -0.00035696050834069221 0 0.0033459908332793037 -0.00040444676421017917 0 0.0033767851809422085 -0.00040433209145086666 0 0.0033635090568515749 -0.00041948923471294943 0 0.0033459908332793037 -0.00040444676421017917 0 0.0033694008641309771 -0.00036674363514804798 0 0.0033767851809422085 -0.00040433209145086666 0 0.0033856953854075542 -0.00038740399989619457 0 0.003414059762821066 -0.0003607563895473938 0 0.0033694008641309771 -0.00036674363514804798 0 0.0033767851809422085 -0.00040433209145086666 0 0.0033934927480031175 -0.00039269308640428309 0 0.003414059762821066 -0.0003607563895473938 0 0.003464013323361291 -0.00031473571531576502 0 0.0034666301910898129 -0.00031676687870310877 0 0.0034795620758759005 -0.00031896757672795773 0 0.003480195873642301 -0.00030473395665522711 0 0.0034666301910898129 -0.00031676687870310877 0 0.0034795620758759005 -0.00031896757672795773 0 0.0034726325742663157 -0.000326173236074432 0 0.0034666301910898129 -0.00031676687870310877 0 0.0034726325742663157 -0.000326173236074432 0 0.0034652800266844739 -0.00033503201367393397 0 0.0034795620758759005 -0.00031896757672795773 0 0.0034726325742663157 -0.000326173236074432 0 0.0034794560045682643 -0.00033270863081387897 0 0.0034726325742663157 -0.000326173236074432 0 0.0034794560045682643 -0.00033270863081387897 0 0.0034652800266844739 -0.00033503201367393397 0 0.0033767851809422085 -0.00040433209145086666 0 0.0033871667519234237 -0.00039699152039758643 0 0.0033744428560616283 -0.00043896967791419168 0 0.003414059762821066 -0.0003607563895473938 0 0.00342018651588484 -0.00038502426521526374 0 0.0033767851809422085 -0.00040433209145086666 0 0.0033744428560616283 -0.00043896967791419168 0 0.0033635090568515749 -0.00041948923471294943 0 0.0033744428560616283 -0.00043896967791419168 0 0.0033545567789514757 -0.00042910151335680751 0 0.0033635090568515749 -0.00041948923471294943 0 0.0033459908332793037 -0.00040444676421017917 0 0.0033545567789514757 -0.00042910151335680751 0 0.0033635090568515749 -0.00041948923471294943 0 0.0034964734265802789 -0.00031355293943788738 0 0.0035188184519772824 -0.000304870189176383 0 0.0035103506209614986 -0.00032236715216175726 0 0.0034964734265802789 -0.00031355293943788738 0 0.0034989452924052557 -0.00032618343479099007 0 0.0035103506209614986 -0.00032236715216175726 0 0.0034795620758759005 -0.00031896757672795773 0 0.0034964734265802789 -0.00031355293943788738 0 0.0034876919222574772 -0.00032873461446638919 0 0.0034795620758759005 -0.00031896757672795773 0 0.0034964734265802789 -0.00031355293943788738 0 0.003480195873642301 -0.00030473395665522711 0 0.0034794560045682643 -0.00033270863081387897 0 0.0034876919222574772 -0.00032873461446638919 0 0.0034935525619766211 -0.00033796624570881986 0 0.0034964734265802789 -0.00031355293943788738 0 0.0034876919222574772 -0.00032873461446638919 0 0.0034989452924052557 -0.00032618343479099007 0 0.0034795620758759005 -0.00031896757672795773 0 0.0034794560045682643 -0.00033270863081387897 0 0.0034876919222574772 -0.00032873461446638919 0 0.0034876919222574772 -0.00032873461446638919 0 0.0034989452924052557 -0.00032618343479099007 0 0.0034935525619766211 -0.00033796624570881986 0 0.0034989452924052557 -0.00032618343479099007 0 0.0035067021511019005 -0.00033685376679346539 0 0.0034935525619766211 -0.00033796624570881986 0 0.0034989452924052557 -0.00032618343479099007 0 0.0035067021511019005 -0.00033685376679346539 0 0.0035103506209614986 -0.00032236715216175726 0 0.0035071853824936473 -0.0003486248124062122 0 0.0034935525619766211 -0.00033796624570881986 0 0.0034948576426180487 -0.00034971347038833601 0 0.0035067021511019005 -0.00033685376679346539 0 0.0035071853824936473 -0.0003486248124062122 0 0.0034935525619766211 -0.00033796624570881986 0 0.0034935525619766211 -0.00033796624570881986 0 0.0034948576426180487 -0.00034971347038833601 0 0.0034802322790146965 -0.00034258324277691065 0 0.0034794560045682643 -0.00033270863081387897 0 0.0034935525619766211 -0.00033796624570881986 0 0.0034802322790146965 -0.00034258324277691065 0 0.0034822048610752029 -0.00035251484434913109 0 0.0034948576426180487 -0.00034971347038833601 0 0.0034918474390099362 -0.00036125787402030689 0 0.0034822048610752029 -0.00035251484434913109 0 0.0034948576426180487 -0.00034971347038833601 0 0.0034802322790146965 -0.00034258324277691065 0 0.0034948576426180487 -0.00034971347038833601 0 0.0035065853798452681 -0.00035673526714250588 0 0.0034918474390099362 -0.00036125787402030689 0 0.0035071853824936473 -0.0003486248124062122 0 0.0034948576426180487 -0.00034971347038833601 0 0.0035065853798452681 -0.00035673526714250588 0 0.00342018651588484 -0.00038502426521526374 0 0.0034248947844041531 -0.00041502847865543431 0 0.0033744428560616283 -0.00043896967791419168 0 0.0033555962427640586 -0.00045027585491455281 0 0.0033646414333492543 -0.00047357625970160627 0 0.003347236963822095 -0.00046534068262446342 0 0.0033555962427640586 -0.00045027585491455281 0 0.0033646414333492543 -0.00047357625970160627 0 0.0033744428560616283 -0.00043896967791419168 0 0.0033545567789514757 -0.00042910151335680751 0 0.0033555962427640586 -0.00045027585491455281 0 0.0034794560045682643 -0.00033270863081387897 0 0.0034652800266844739 -0.00033503201367393397 0 0.0034802322790146965 -0.00034258324277691065 0 0.0034652800266844739 -0.00033503201367393397 0 0.0034802322790146965 -0.00034258324277691065 0 0.0034625487281879953 -0.00035107466632649359 0 0.0034822048610752029 -0.00035251484434913109 0 0.0034625487281879953 -0.00035107466632649359 0 0.0034763554031421681 -0.00035984528620920512 0 0.0034822048610752029 -0.00035251484434913109 0 0.0034802322790146965 -0.00034258324277691065 0 0.0034625487281879953 -0.00035107466632649359 0 0.003347236963822095 -0.00046534068262446342 0 0.0033646414333492543 -0.00047357625970160627 0 0.0033507946145959954 -0.00048238683429922618 0 0.0034625487281879953 -0.00035107466632649359 0 0.0034573757492527418 -0.00036663791253542185 0 0.0034665101046128326 -0.00036455387852401215 0 0.0033507946145959954 -0.00048238683429922618 0 0.0033577179328999878 -0.00050473999640715159 0 0.0033421350751440095 -0.00049063685003821172 0 0.0034248947844041531 -0.00041502847865543431 0 0.0032596495886198363 -0.00041117192648897581 0 0.0033646414333492543 -0.00047357625970160627 0 0.0033507946145959954 -0.00048238683429922618 0 0.0033577179328999878 -0.00050473999640715159 0 0.0028620772626978593 -0.00049540724085587681 0 0.0028607727868875774 -0.00050193632567812686 0 0.0028528085000203043 -0.00049455071156048421 0 0.0032596495886198363 -0.00041117192648897581 0 0.0030978476770881576 -0.00048948868672965247 0 0.0034573757492527418 -0.00036663791253542185 0 0.0034665101046128326 -0.00036455387852401215 0 0.0034608791469568113 -0.00037303385975796956 0 0.0034625487281879953 -0.00035107466632649359 0 0.0034763554031421681 -0.00035984528620920512 0 0.0034665101046128326 -0.00036455387852401215 0 0.0034763554031421681 -0.00035984528620920512 0 0.0034665101046128326 -0.00036455387852401215 0 0.0034828727086737557 -0.00037338343825008339 0 0.003450520304825338 -0.00038167556187850135 0 0.0034608791469568113 -0.00037303385975796956 0 0.0034681883899694318 -0.00040156362888917491 0 0.0034608791469568113 -0.00037303385975796956 0 0.0034828727086737557 -0.00037338343825008339 0 0.0034681883899694318 -0.00040156362888917491 0 0.0034665101046128326 -0.00036455387852401215 0 0.0034608791469568113 -0.00037303385975796956 0 0.0034828727086737557 -0.00037338343825008339 0 0.0022631400078257742 -0.00052498711868839828 0 0.0022537415001408819 -0.00051790368569896495 0 0.0022355936290463945 -0.00053189614169280909 0 0.0028365328465242306 -0.00045793673370749454 0 0.0028284434973034349 -0.0004731655254249967 0 0.0032596495886198363 -0.00041117192648897581 0 0.0028284434973034349 -0.0004731655254249967 0 0.0028284434973034349 -0.0004731655254249967 0 0.0025440287085809411 -0.00045845710910629762 0 0.003450520304825338 -0.00038167556187850135 0 0.0034382938919789775 -0.00037199263043436479 0 0.0034608791469568113 -0.00037303385975796956 0 0.0034403070305219323 -0.00035474948480892127 0 0.0034382938919789775 -0.00037199263043436479 0 0.0034608791469568113 -0.00037303385975796956 0 0.0032596495886198363 -0.00041117192648897581 0 0.0034441672286714799 -0.00041588921188950699 0 0.0035051323560958106 -0.00036391029626128097 0 0.0034918474390099362 -0.00036125787402030689 0 0.0034958953665767457 -0.00037238529693507427 0 0.0035065853798452681 -0.00035673526714250588 0 0.0035051323560958106 -0.00036391029626128097 0 0.0035184969953767175 -0.00035828280988393517 0 0.0035065853798452681 -0.00035673526714250588 0 0.0035051323560958106 -0.00036391029626128097 0 0.0034918474390099362 -0.00036125787402030689 0 0.0034822048610752029 -0.00035251484434913109 0 0.0034763554031421681 -0.00035984528620920512 0 0.0034918474390099362 -0.00036125787402030689 0 0.0034763554031421681 -0.00035984528620920512 0 0.0034918474390099362 -0.00036125787402030689 0 0.0034828727086737557 -0.00037338343825008339 0 0.0034918474390099362 -0.00036125787402030689 0 0.0034828727086737557 -0.00037338343825008339 0 0.0034958953665767457 -0.00037238529693507427 0 0.0034828727086737557 -0.00037338343825008339 0 0.0034958953665767457 -0.00037238529693507427 0 0.0034883605273877019 -0.00037919419493437557 0 0.0034958953665767457 -0.00037238529693507427 0 0.0034973611497489485 -0.00037870745463482034 0 0.0035102680613647219 -0.00037345838152068295 0 0.0035051323560958106 -0.00036391029626128097 0 0.0034958953665767457 -0.00037238529693507427 0 0.0035102680613647219 -0.00037345838152068295 0 0.0034973611497489485 -0.00037870745463482034 0 0.0035006955221487113 -0.00038381812307424325 0 0.0035102680613647219 -0.00037345838152068295 0 0.0034828727086737557 -0.00037338343825008339 0 0.0034883605273877019 -0.00037919419493437557 0 0.0034795418383378562 -0.00038074118744682784 0 0.0034883605273877019 -0.00037919419493437557 0 0.0034857061259877284 -0.00038498678398036248 0 0.0034795418383378562 -0.00038074118744682784 0 0.0034973611497489485 -0.00037870745463482034 0 0.0034883605273877019 -0.00037919419493437557 0 0.0034928738413135918 -0.00038343826513158281 0 0.0034958953665767457 -0.00037238529693507427 0 0.0034973611497489485 -0.00037870745463482034 0 0.0034883605273877019 -0.00037919419493437557 0 0.0034857061259877284 -0.00038498678398036248 0 0.0034928738413135918 -0.00038343826513158281 0 0.0034909074748370478 -0.00038686889265095035 0 0.0034883605273877019 -0.00037919419493437557 0 0.0034857061259877284 -0.00038498678398036248 0 0.0034928738413135918 -0.00038343826513158281 0 0.002765640405665399 -0.00040292991252646629 0 0.0027649219661057549 -0.00040331089966725469 0 0.0027690781014565241 -0.00040249330126497978 0 0.0031530674609854736 -0.00042988313574935267 0 0.0028219166240429153 -0.00035984100961416663 0 0.0034928738413135918 -0.00038343826513158281 0 0.0035006955221487113 -0.00038381812307424325 0 0.0034909074748370478 -0.00038686889265095035 0 0.0034973611497489485 -0.00037870745463482034 0 0.0034928738413135918 -0.00038343826513158281 0 0.0035006955221487113 -0.00038381812307424325 0 0.0022390425196848118 -0.00055511301563209369 0 0.0023323405094449598 -0.00051324677109454062 0 0.0022631400078257742 -0.00052498711868839828 0 0.0022459541233536182 -0.00055203656183029615 0 0.0022984372519001439 -0.00055555091887293546 0 0.0022459541233536182 -0.00055203656183029615 0 0.0022442398328617326 -0.00056666356335052695 0 0.0022279868513230198 -0.00055403772523754261 0 0.0022631400078257742 -0.00052498711868839828 0 0.0022459541233536182 -0.00055203656183029615 0 0.0022355936290463945 -0.00053189614169280909 0 0.0022459541233536182 -0.00055203656183029615 0 0.0022984372519001439 -0.00055555091887293546 0 0.0022890215344871716 -0.00057792595895336623 0 0.0028365328465242306 -0.00045793673370749454 0 0.0030296162789367966 -0.00040712277088108395 0 0.0035563603791156353 -0.00032816964199665783 0 0.0030296162789367966 -0.00040712277088108395 0 0.0030296162789367966 -0.00040712277088108395 0 0.0023323405094449598 -0.00051324677109454062 0 0.0023323405094449598 -0.00051324677109454062 0 0.0021485828797812171 -0.00043220198327581294 0 0.002765640405665399 -0.00040292991252646629 0 0.0027643669279344405 -0.0004024299878121385 0 0.0027625505227340109 -0.00040341538265860512 0 0.0031530674609854736 -0.00042988313574935267 0 0.0030296162789367966 -0.00040712277088108395 0 0.0020847033771727017 -0.00029971501227018198 0 0.0020392121013414837 -0.00027317501232497254 0 0.0020543277342678517 -0.00032619206211357757 0 0.0023824504357808814 -0.0003245739763516396 0 0.0023323405094449598 -0.00051324677109454062 0 0.002765640405665399 -0.00040292991252646629 0 0.0027649219661057549 -0.00040331089966725469 0 0.0027625505227340109 -0.00040341538265860512 0 0.0022598659936375045 -0.00056316932413858617 0 0.0022442398328617326 -0.00056666356335052695 0 0.0022482822942411188 -0.00058530602319341969 0 0.0022459541233536182 -0.00055203656183029615 0 0.0022598659936375045 -0.00056316932413858617 0 0.0022442398328617326 -0.00056666356335052695 0 0.0022442398328617326 -0.00056666356335052695 0 0.0022252392311641082 -0.00057493854614656416 0 0.0022482822942411188 -0.00058530602319341969 0 0.0022442398328617326 -0.00056666356335052695 0 0.0022252392311641082 -0.00057493854614656416 0 0.0022279868513230198 -0.00055403772523754261 0 0.0022252392311641082 -0.00057493854614656416 0 0.0022066044142537507 -0.00055739395249723516 0 0.0022279868513230198 -0.00055403772523754261 0 0.0017765479421863698 -0.00059577880518547259 0 0.0017728744698521936 -0.00059410560229325351 0 0.0017765722211953608 -0.00060292577050734427 0 0.0022252392311641082 -0.00057493854614656416 0 0.0022066044142537507 -0.00055739395249723516 0 0.0022022272893230501 -0.00058428804786422981 0 0.0020107972722900728 -0.0005758984520312999 0 0.0017487698886278487 -0.00059439364723181244 0 0.0022066044142537507 -0.00055739395249723516 0 0.0022279868513230198 -0.00055403772523754261 0 0.0022108405506712351 -0.00052437364726551296 0 0.0017743540469361649 -0.00059676645135573381 0 0.0017765479421863698 -0.00059577880518547259 0 0.0017842506706128114 -0.00058872810879119757 0 0.0020107972722900728 -0.0005758984520312999 0 0.001994364975005998 -0.00054721628255626983 0 0.0017743540469361649 -0.00059676645135573381 0 0.0017765479421863698 -0.00059577880518547259 0 0.0017728744698521936 -0.00059410560229325351 0 0.0022279868513230198 -0.00055403772523754261 0 0.0022355936290463945 -0.00053189614169280909 0 0.0022108405506712351 -0.00052437364726551296 0 0.0022459541233536182 -0.00055203656183029615 0 0.0022279868513230198 -0.00055403772523754261 0 0.0022355936290463945 -0.00053189614169280909 0 0.0022355936290463945 -0.00053189614169280909 0 0.0022108405506712351 -0.00052437364726551296 0 0.0022391236670224217 -0.0005048123844609392 0 0.0022537415001408819 -0.00051790368569896495 0 0.0022355936290463945 -0.00053189614169280909 0 0.0022391236670224217 -0.0005048123844609392 0 0.0017743540469361649 -0.00059676645135573381 0 0.0017772912906935719 -0.00061761657521388713 0 0.0017805016067150036 -0.00061015117270018376 0 0.0017743540469361649 -0.00059676645135573381 0 0.0017842506706128114 -0.00058872810879119757 0 0.0017815666830657258 -0.0005860786497479736 0 0.0017788063760428405 -0.00059113075196018426 0 0.001764791404951683 -0.00061585863861005519 0 0.0017842506706128114 -0.00058872810879119757 0 0.0017815666830657258 -0.0005860786497479736 0 0.001795195820246949 -0.00056815600401674028 0 0.0017772912906935719 -0.00061761657521388713 0 0.0017823986523624416 -0.00061761236352059939 0 0.0017805016067150036 -0.00061015117270018376 0 0.0017772912906935719 -0.00061761657521388713 0 0.0017837231367594571 -0.00062408913680053236 0 0.0017823986523624416 -0.00061761236352059939 0 0.001994364975005998 -0.00054721628255626983 0 0.0020372149588034267 -0.00057756503248304115 0 0.0017772912906935719 -0.00061761657521388713 0 0.0017837231367594571 -0.00062408913680053236 0 0.0017832729974601171 -0.00062880982719458608 0 0.001764791404951683 -0.00061585863861005519 0 0.0020372149588034267 -0.00057756503248304115 0 0.0017837231367594571 -0.00062408913680053236 0 0.0017877152802451498 -0.00062963181554111778 0 0.0017832729974601171 -0.00062880982719458608 0 0.0022186453835541385 -0.00048301281294850333 0 0.0022170589775685899 -0.00049258175068885848 0 0.0022391236670224217 -0.0005048123844609392 0 0.0028393548917608415 -0.00048333026773198374 0 0.0028516769272567831 -0.00048822427675098562 0 0.0028528085000203043 -0.00049455071156048421 0 0.0022108405506712351 -0.00052437364726551296 0 0.0022170589775685899 -0.00049258175068885848 0 0.0022391236670224217 -0.0005048123844609392 0 0.0025429234546821911 -0.0005740284749616235 0 0.0025440287085809411 -0.00045845710910629762 0 0.0028620772626978593 -0.00049540724085587681 0 0.0028516769272567831 -0.00048822427675098562 0 0.0028528085000203043 -0.00049455071156048421 0 0.001795100888128289 -0.00062925581553990731 0 0.0017965740183310908 -0.00061817983639441201 0 0.0018058424478490673 -0.00061862716186724016 0 0.0019970539563988867 -0.00071290560282290911 0 0.0019884567807654761 -0.00076743218196694051 0 0.0023245958745751671 -0.00080731968380236383 0 0.0021677511887874005 -0.00096483232806463914 0 0.0022048496314112033 -0.00074064822913934856 0 0.001795100888128289 -0.00062925581553990731 0 0.0017874691103337583 -0.00062387813244385104 0 0.0017885898268098191 -0.00061530495379517435 0 0.0017877152802451498 -0.00062963181554111778 0 0.001795100888128289 -0.00062925581553990731 0 0.0017874691103337583 -0.00062387813244385104 0 0.0017837231367594571 -0.00062408913680053236 0 0.0017877152802451498 -0.00062963181554111778 0 0.0017874691103337583 -0.00062387813244385104 0 0.0017837231367594571 -0.00062408913680053236 0 0.0017874691103337583 -0.00062387813244385104 0 0.0017823986523624416 -0.00061761236352059939 0 0.0017874691103337583 -0.00062387813244385104 0 0.0017823986523624416 -0.00061761236352059939 0 0.0017885898268098191 -0.00061530495379517435 0 0.0017805016067150036 -0.00061015117270018376 0 0.0017885898268098191 -0.00061530495379517435 0 0.0017790199222087355 -0.00060363639048224274 0 0.0017823986523624416 -0.00061761236352059939 0 0.0017805016067150036 -0.00061015117270018376 0 0.0017885898268098191 -0.00061530495379517435 0 0.001795100888128289 -0.00062925581553990731 0 0.0017885898268098191 -0.00061530495379517435 0 0.0017965740183310908 -0.00061817983639441201 0 0.0017885898268098191 -0.00061530495379517435 0 0.0017965740183310908 -0.00061817983639441201 0 0.0017941030724179709 -0.00061045631769813136 0 0.0017965740183310908 -0.00061817983639441201 0 0.0017941030724179709 -0.00061045631769813136 0 0.0018058424478490673 -0.00061862716186724016 0 0.0017941030724179709 -0.00061045631769813136 0 0.0017994282527300518 -0.00059947237610151797 0 0.0018058424478490673 -0.00061862716186724016 0 0.0017941030724179709 -0.00061045631769813136 0 0.001783138160044916 -0.00060095539510720967 0 0.0017836754008752034 -0.00060493457791944484 0 0.0017885898268098191 -0.00061530495379517435 0 0.0017941030724179709 -0.00061045631769813136 0 0.0017836754008752034 -0.00060493457791944484 0 0.0017941030724179709 -0.00061045631769813136 0 0.001783138160044916 -0.00060095539510720967 0 0.0017994282527300518 -0.00059947237610151797 0 0.0017743540469361649 -0.00059676645135573381 0 0.0017805016067150036 -0.00061015117270018376 0 0.0017790199222087355 -0.00060363639048224274 0 0.0017885898268098191 -0.00061530495379517435 0 0.0017790199222087355 -0.00060363639048224274 0 0.0017836754008752034 -0.00060493457791944484 0 0.0017790199222087355 -0.00060363639048224274 0 0.0017836754008752034 -0.00060493457791944484 0 0.0017745320760606147 -0.00059680910115591504 0 0.001783138160044916 -0.00060095539510720967 0 0.0017836754008752034 -0.00060493457791944484 0 0.0017745320760606147 -0.00059680910115591504 0 0.001783138160044916 -0.00060095539510720967 0 0.0017745320760606147 -0.00059680910115591504 0 0.0017652699998306869 -0.00058774361065976782 0 0.0017743540469361649 -0.00059676645135573381 0 0.0017790199222087355 -0.00060363639048224274 0 0.0017745320760606147 -0.00059680910115591504 0 0.0017743540469361649 -0.00059676645135573381 0 0.0017745320760606147 -0.00059680910115591504 0 0.0017728744698521936 -0.00059410560229325351 0 0.0017470444207610268 -0.00057390490602854426 0 0.0017487698886278487 -0.00059439364723181244 0 0.0017728744698521936 -0.00059410560229325351 0 0.0017652699998306869 -0.00058774361065976782 0 0.0017765722211953608 -0.00060292577050734427 0 0.0017745320760606147 -0.00059680910115591504 0 0.0017728744698521936 -0.00059410560229325351 0 0.0017652699998306869 -0.00058774361065976782 0 0.0017652699998306869 -0.00058774361065976782 0 0.0017994282527300518 -0.00059947237610151797 0 0.0017380024496881233 -0.00050200725279227903 0 0.0017750679017716547 -0.00060525406297117488 0 0.0017504084778594991 -0.00051723106183576464 0 0.001802058881128577 -0.00064729891624346644 0 0.0018379116922745886 -0.00059097411681949101 0 0.0017380024496881233 -0.00050200725279227903 0 0.001783138160044916 -0.00060095539510720967 0 0.0017652699998306869 -0.00058774361065976782 0 0.0017994282527300518 -0.00059947237610151797 0 0.0018379116922745886 -0.00059097411681949101 0 0.0019291919585043048 -0.0006218331353408476 0 0.0018522673359990141 -0.00051574985579398486 0 0.0018379116922745886 -0.00059097411681949101 0 0.0019291919585043048 -0.0006218331353408476 0 0.0018897323579436414 -0.00067924474577059509 0 0.001802058881128577 -0.00064729891624346644 0 0.0018379116922745886 -0.00059097411681949101 0 0.0018897323579436414 -0.00067924474577059509 0 0.001802058881128577 -0.00064729891624346644 0 0.0018897323579436414 -0.00067924474577059509 0 0.0018883332547014622 -0.00081766006248965766 0 0.0019291919585043048 -0.0006218331353408476 0 0.0018897323579436414 -0.00067924474577059509 0 0.001983694986527321 -0.00072588514479559078 0 0.0017750679017716547 -0.00060525406297117488 0 0.0019884567807654761 -0.00076743218196694051 0 0.0018897323579436414 -0.00067924474577059509 0 0.001983694986527321 -0.00072588514479559078 0 0.0018883332547014622 -0.00081766006248965766 0 0.0019291919585043048 -0.0006218331353408476 0 0.001983694986527321 -0.00072588514479559078 0 0.0020446537727092625 -0.00067157806411837547 0 0.001983694986527321 -0.00072588514479559078 0 0.0020446537727092625 -0.00067157806411837547 0 0.0020249862342566535 -0.00075198265921902529 0 0.001988616565313807 -0.00062976216678834579 0 0.0018848503873241389 -0.0004549547964004595 0 0.0019291919585043048 -0.0006218331353408476 0 0.0020446537727092625 -0.00067157806411837547 0 0.0019659855710442817 -0.00052518165496913296 0 0.0020019413154033095 -0.00052117199012631738 0 0.0021110156564434282 -0.00058254687713093578 0 0.0019313747045351705 -0.00059364244776974491 0 0.0019313747045351705 -0.00059364244776974491 0 0.0019329890801466148 -0.00044874526369873289 0 0.001798680994042703 -0.00038151894597945071 0 0.0020019413154033095 -0.00052117199012631738 0 0.0019313747045351705 -0.00059364244776974491 0 0.0019329890801466148 -0.00044874526369873289 0 0.0020019413154033095 -0.00052117199012631738 0 0.0019329890801466148 -0.00044874526369873289 0 0.0020240147159858754 -0.00042966677832583118 0 0.0021110156564434282 -0.00058254687713093578 0 0.0020240147159858754 -0.00042966677832583118 0 0.002147159742206417 -0.00044323108539950793 0 0.0020019413154033095 -0.00052117199012631738 0 0.0021110156564434282 -0.00058254687713093578 0 0.0020240147159858754 -0.00042966677832583118 0 0.0021110156564434282 -0.00058254687713093578 0 0.0020866541673850826 -0.00076553587970364914 0 0.0021940028775101102 -0.00071523903703095003 0 0.0021110156564434282 -0.00058254687713093578 0 0.0019313747045351705 -0.00059364244776974491 0 0.0020866541673850826 -0.00076553587970364914 0 0.001988616565313807 -0.00062976216678834579 0 0.0020753623263264479 -0.00075730455416853689 0 0.0020446537727092625 -0.00067157806411837547 0 0.0020866541673850826 -0.00076553587970364914 0 0.0020249862342566535 -0.00075198265921902529 0 0.0020866541673850826 -0.00076553587970364914 0 0.0020186748992960979 -0.00079210640629161764 0 0.0020249862342566535 -0.00075198265921902529 0 0.0020866541673850826 -0.00076553587970364914 0 0.0021940028775101102 -0.00071523903703095003 0 0.0021701830495302345 -0.00083878056703095747 0 0.0021940028775101102 -0.00071523903703095003 0 0.0021701830495302345 -0.00083878056703095747 0 0.0022713341948458116 -0.00083873991594764273 0 0.0021701830495302345 -0.00083878056703095747 0 0.0020186748992960979 -0.00079210640629161764 0 0.0021009079185943095 -0.00092767877376747905 0 0.0020352248194130691 -0.00080843904730371573 0 0.0019776567303485884 -0.00080037893295791722 0 0.0020866541673850826 -0.00076553587970364914 0 0.0021701830495302345 -0.00083878056703095747 0 0.0020186748992960979 -0.00079210640629161764 0 0.0020186748992960979 -0.00079210640629161764 0 0.0019842209662587497 -0.00077756057540533119 0 0.0020609351094825479 -0.000757744813880539 0 0.0021677511887874005 -0.00096483232806463914 0 0.0022048496314112033 -0.00074064822913934856 0 0.0020609351094825479 -0.000757744813880539 0 0.0019884567807654761 -0.00076743218196694051 0 0.0020889061139364269 -0.00080749456655714925 0 0.0019690423655221111 -0.00074689231995047289 0 0.0019884567807654761 -0.00076743218196694051 0 0.0020186748992960979 -0.00079210640629161764 0 0.0019842209662587497 -0.00077756057540533119 0 0.0020249862342566535 -0.00075198265921902529 0 0.001983694986527321 -0.00072588514479559078 0 0.0019842209662587497 -0.00077756057540533119 0 0.0020249862342566535 -0.00075198265921902529 0 0.0024092330545365526 -0.00050410550918943945 0 0.0023517479142817193 -0.00051026662575743209 0 0.0023710865165223281 -0.00053908463988975252 0 0.0024092330545365526 -0.00050410550918943945 0 0.0023517479142817193 -0.00051026662575743209 0 0.0023672680209587877 -0.000399586915559841 0 0.0023517479142817193 -0.00051026662575743209 0 0.0023672680209587877 -0.000399586915559841 0 0.0022367535981296658 -0.00041901146439590249 0 0.0023672680209587877 -0.000399586915559841 0 0.0022367535981296658 -0.00041901146439590249 0 0.0022372439888838193 -0.00033151994386186221 0 0.0023517479142817193 -0.00051026662575743209 0 0.0023227977286245059 -0.00045463298537233565 0 0.0023130832670809429 -0.0005213160168614638 0 0.0023480124172359043 -0.00050613579835547342 0 0.0022755811629377267 -0.0004343940568261176 0 0.0023227977286245059 -0.00045463298537233565 0 0.0023130832670809429 -0.0005213160168614638 0 0.0022531143700807135 -0.00048137877094571273 0 0.0023130832670809429 -0.0005213160168614638 0 0.0022531143700807135 -0.00048137877094571273 0 0.0022688301320085936 -0.00055717561206817981 0 0.0023227977286245059 -0.00045463298537233565 0 0.0022731984519952782 -0.00042057429140921073 0 0.0022531143700807135 -0.00048137877094571273 0 0.0022694898746680849 -0.00058058811251680874 0 0.002225834337416042 -0.00036076337674423287 0 0.002147159742206417 -0.00044323108539950793 0 0.0022605709022825073 -0.00052870628863474955 0 0.0022298507096879653 -0.00036972698002735838 0 0.0021110156564434282 -0.00058254687713093578 0 0.0022694898746680849 -0.00058058811251680874 0 0.002147159742206417 -0.00044323108539950793 0 0.0022731984519952782 -0.00042057429140921073 0 0.0022531143700807135 -0.00048137877094571273 0 0.002225834337416042 -0.00036076337674423287 0 0.0022605709022825073 -0.00052870628863474955 0 0.0022921743644559473 -0.00066424268628020942 0 0.0021110156564434282 -0.00058254687713093578 0 0.0021940028775101102 -0.00071523903703095003 0 0.0022694898746680849 -0.00058058811251680874 0 0.0021940028775101102 -0.00071523903703095003 0 0.0022694898746680849 -0.00058058811251680874 0 0.0023150575807423085 -0.00076895037126227289 0 0.0021940028775101102 -0.00071523903703095003 0 0.0023150575807423085 -0.00076895037126227289 0 0.0022713341948458116 -0.00083873991594764273 0 0.0021701830495302345 -0.00083878056703095747 0 0.0022713341948458116 -0.00083873991594764273 0 0.0023032698218585618 -0.00093022373079405763 0 0.0023150575807423085 -0.00076895037126227289 0 0.0022713341948458116 -0.00083873991594764273 0 0.0023557779099614025 -0.00092783990223621799 0 0.0022688301320085936 -0.00055717561206817981 0 0.0023014120256707412 -0.00059561912776495707 0 0.0023216150628608649 -0.00057285210516710039 0 0.0022921743644559473 -0.00066424268628020942 0 0.002322921773984602 -0.00077703825536966852 0 0.0022688301320085936 -0.00055717561206817981 0 0.0023014120256707412 -0.00059561912776495707 0 0.0022890274180556737 -0.00062743903981919886 0 0.0023130832670809429 -0.0005213160168614638 0 0.0022688301320085936 -0.00055717561206817981 0 0.0023216150628608649 -0.00057285210516710039 0 0.0023130832670809429 -0.0005213160168614638 0 0.0023216150628608649 -0.00057285210516710039 0 0.002346601472839271 -0.00054961557883381469 0 0.0023517479142817193 -0.00051026662575743209 0 0.0023130832670809429 -0.0005213160168614638 0 0.002346601472839271 -0.00054961557883381469 0 0.0023216150628608649 -0.00057285210516710039 0 0.0023489729134339153 -0.00058927451001170798 0 0.0023253978803533309 -0.00062372657143727739 0 0.0023014120256707412 -0.00059561912776495707 0 0.0023216150628608649 -0.00057285210516710039 0 0.0023253978803533309 -0.00062372657143727739 0 0.0023216150628608649 -0.00057285210516710039 0 0.0023489729134339153 -0.00058927451001170798 0 0.002346601472839271 -0.00054961557883381469 0 0.0023489729134339153 -0.00058927451001170798 0 0.0023742813461152547 -0.00056847834328726263 0 0.002346601472839271 -0.00054961557883381469 0 0.0023489729134339153 -0.00058927451001170798 0 0.0023734327281982716 -0.00059750794983412828 0 0.0023742813461152547 -0.00056847834328726263 0 0.0023972811135788467 -0.00055393969340853245 0 0.0023742813461152547 -0.00056847834328726263 0 0.0023710865165223281 -0.00053908463988975252 0 0.0023742813461152547 -0.00056847834328726263 0 0.002346601472839271 -0.00054961557883381469 0 0.0023710865165223281 -0.00053908463988975252 0 0.0023517479142817193 -0.00051026662575743209 0 0.002346601472839271 -0.00054961557883381469 0 0.0023710865165223281 -0.00053908463988975252 0 0.002376224695858813 -0.00065369845644101408 0 0.0023618124503689314 -0.00066348069716683482 0 0.0023595431776052846 -0.00067837875393221613 0 0.002376224695858813 -0.00065369845644101408 0 0.0023618124503689314 -0.00066348069716683482 0 0.0023618161331115657 -0.00064855191615169068 0 0.0023618124503689314 -0.00066348069716683482 0 0.0023618161331115657 -0.00064855191615169068 0 0.0023500263272594381 -0.00066553085870964528 0 0.0023618124503689314 -0.00066348069716683482 0 0.0023500263272594381 -0.00066553085870964528 0 0.002354404710271484 -0.00067113956128866102 0 0.0023618161331115657 -0.00064855191615169068 0 0.0023451679433591976 -0.00063991906474095855 0 0.0023500263272594381 -0.00066553085870964528 0 0.0023869382488491595 -0.00062452568278692304 0 0.002376224695858813 -0.00065369845644101408 0 0.0023618161331115657 -0.00064855191615169068 0 0.0023869382488491595 -0.00062452568278692304 0 0.0023618161331115657 -0.00064855191615169068 0 0.002354729181971407 -0.00062003598117822093 0 0.0023869382488491595 -0.00062452568278692304 0 0.0023734327281982716 -0.00059750794983412828 0 0.002354729181971407 -0.00062003598117822093 0 0.0023489729134339153 -0.00058927451001170798 0 0.0023734327281982716 -0.00059750794983412828 0 0.002354729181971407 -0.00062003598117822093 0 0.0023618161331115657 -0.00064855191615169068 0 0.002354729181971407 -0.00062003598117822093 0 0.0023451679433591976 -0.00063991906474095855 0 0.002354729181971407 -0.00062003598117822093 0 0.0023253978803533309 -0.00062372657143727739 0 0.0023451679433591976 -0.00063991906474095855 0 0.0023489729134339153 -0.00058927451001170798 0 0.002354729181971407 -0.00062003598117822093 0 0.0023253978803533309 -0.00062372657143727739 0 0.0023253978803533309 -0.00062372657143727739 0 0.0023361216201880051 -0.00065812479879206998 0 0.002321081734130633 -0.00065512984311175821 0 0.0023253978803533309 -0.00062372657143727739 0 0.0023451679433591976 -0.00063991906474095855 0 0.0023361216201880051 -0.00065812479879206998 0 0.0023500263272594381 -0.00066553085870964528 0 0.0023361216201880051 -0.00065812479879206998 0 0.0023405859242959888 -0.00067391468101862806 0 0.0023451679433591976 -0.00063991906474095855 0 0.0023500263272594381 -0.00066553085870964528 0 0.0023361216201880051 -0.00065812479879206998 0 0.0023361216201880051 -0.00065812479879206998 0 0.0023315913274965373 -0.00067436369639410979 0 0.0023405859242959888 -0.00067391468101862806 0 0.0023361216201880051 -0.00065812479879206998 0 0.002321081734130633 -0.00065512984311175821 0 0.0023315913274965373 -0.00067436369639410979 0 0.002321081734130633 -0.00065512984311175821 0 0.0022890274180556737 -0.00062743903981919886 0 0.0023251775530400789 -0.00068526033245591223 0 0.002322921773984602 -0.00077703825536966852 0 0.0023566123487805614 -0.00079291733891891797 0 0.0023557779099614025 -0.00092783990223621799 0 0.0023624450611323166 -0.00093160782917338771 0 0.0023847042257563967 -0.00091427224257792828 0 0.002321081734130633 -0.00065512984311175821 0 0.0023251775530400789 -0.00068526033245591223 0 0.0023315913274965373 -0.00067436369639410979 0 0.0023253978803533309 -0.00062372657143727739 0 0.002321081734130633 -0.00065512984311175821 0 0.0022890274180556737 -0.00062743903981919886 0 0.0023014120256707412 -0.00059561912776495707 0 0.0023253978803533309 -0.00062372657143727739 0 0.0022890274180556737 -0.00062743903981919886 0 0.0023557779099614025 -0.00092783990223621799 0 0.0023032698218585618 -0.00093022373079405763 0 0.0023624450611323166 -0.00093160782917338771 0 0.0022713341948458116 -0.00083873991594764273 0 0.0023557779099614025 -0.00092783990223621799 0 0.0023032698218585618 -0.00093022373079405763 0 0.0023624450611323166 -0.00093160782917338771 0 0.0023847042257563967 -0.00091427224257792828 0 0.0024132052957587524 -0.00092483442786398331 0 0.0023035195165445701 -0.00097864646309757971 0 0.0023249787797156728 -0.00087872337313746871 0 0.0023032698218585618 -0.00093022373079405763 0 0.0023624450611323166 -0.00093160782917338771 0 0.0024132052957587524 -0.00092483442786398331 0 0.0025614298918922042 -0.00089957510600324807 0 0.0023249787797156728 -0.00087872337313746871 0 0.0024759520713017523 -0.00081286590113588625 0 0.0023847042257563967 -0.00091427224257792828 0 0.0024132052957587524 -0.00092483442786398331 0 0.0024759520713017523 -0.00081286590113588625 0 0.0027327180141353447 -0.0011444500720861814 0 0.0026826618642599607 -0.00076088209230649637 0 0.0024759520713017523 -0.00081286590113588625 0 0.0026826618642599607 -0.00076088209230649637 0 0.0025343312143598965 -0.00066230809973004032 0 0.0023566123487805614 -0.00079291733891891797 0 0.0023796655953196816 -0.0006538733253362328 0 0.0024759520713017523 -0.00081286590113588625 0 0.0023847042257563967 -0.00091427224257792828 0 0.0023870616822855872 -0.00064574168314421733 0 0.0023251775530400789 -0.00068526033245591223 0 0.0023367948614087535 -0.00067851889946769837 0 0.0023870616822855872 -0.00064574168314421733 0 0.0024759520713017523 -0.00081286590113588625 0 0.0023870616822855872 -0.00064574168314421733 0 0.0025343312143598965 -0.00066230809973004032 0 0.0023251775530400789 -0.00068526033245591223 0 0.0023315913274965373 -0.00067436369639410979 0 0.0023367948614087535 -0.00067851889946769837 0 0.0023405859242959888 -0.00067391468101862806 0 0.0023480197436269784 -0.0006754383592270525 0 0.0023367948614087535 -0.00067851889946769837 0 0.0023434387995707353 -0.00067187103106732698 0 0.002268478452745431 -0.00073513926911537159 0 0.0023315913274965373 -0.00067436369639410979 0 0.0023405859242959888 -0.00067391468101862806 0 0.0023367948614087535 -0.00067851889946769837 0 0.0023480197436269784 -0.0006754383592270525 0 0.0023367948614087535 -0.00067851889946769837 0 0.0023595431776052846 -0.00067837875393221613 0 0.0023500263272594381 -0.00066553085870964528 0 0.0023405859242959888 -0.00067391468101862806 0 0.0023480197436269784 -0.0006754383592270525 0 0.0023367948614087535 -0.00067851889946769837 0 0.0022890557006956156 -0.00058165381310967042 0 0.0023870616822855872 -0.00064574168314421733 0 0.0023367948614087535 -0.00067851889946769837 0 0.0022206181848245243 -0.00065780955204047743 0 0.0022890557006956156 -0.00058165381310967042 0 0.0023367948614087535 -0.00067851889946769837 0 0.0022206181848245243 -0.00065780955204047743 0 0.00221049386010991 -0.0007495130256492266 0 0.0021145490808885709 -0.0006246021078209537 0 0.0022206181848245243 -0.00065780955204047743 0 0.002201267754108322 -0.00075222185360804283 0 0.0022206181848245243 -0.00065780955204047743 0 0.002201267754108322 -0.00075222185360804283 0 0.00221049386010991 -0.0007495130256492266 0 0.0023480197436269784 -0.0006754383592270525 0 0.0023595431776052846 -0.00067837875393221613 0 0.002354404710271484 -0.00067113956128866102 0 0.0023618124503689314 -0.00066348069716683482 0 0.0023595431776052846 -0.00067837875393221613 0 0.002354404710271484 -0.00067113956128866102 0 0.0023500263272594381 -0.00066553085870964528 0 0.0023480197436269784 -0.0006754383592270525 0 0.002354404710271484 -0.00067113956128866102 0 0.0020236951069818555 -0.0006477429077263936 0 0.0019599782197856921 -0.00055327761233904386 0 0.002102374408666815 -0.00055115239604408984 0 0.0021094597908164208 -0.00065236514774211912 0 0.0020236951069818555 -0.0006477429077263936 0 0.002102374408666815 -0.00055115239604408984 0 0.0021094597908164208 -0.00065236514774211912 0 0.0022236590631717246 -0.00061242932824804761 0 0.002102374408666815 -0.00055115239604408984 0 0.0021094597908164208 -0.00065236514774211912 0 0.0022236590631717246 -0.00061242932824804761 0 0.0022048496314112033 -0.00074064822913934856 0 0.0021094597908164208 -0.00065236514774211912 0 0.0022048496314112033 -0.00074064822913934856 0 0.0020609351094825479 -0.000757744813880539 0 0.0021094597908164208 -0.00065236514774211912 0 0.0020236951069818555 -0.0006477429077263936 0 0.0020609351094825479 -0.000757744813880539 0 0.0020236951069818555 -0.0006477429077263936 0 0.0020609351094825479 -0.000757744813880539 0 0.0019521604932641217 -0.00072279137224891276 0 0.0020186748992960979 -0.00079210640629161764 0 0.0020609351094825479 -0.000757744813880539 0 0.0019521604932641217 -0.00072279137224891276 0 0.0021701830495302345 -0.00083878056703095747 0 0.0023032698218585618 -0.00093022373079405763 0 0.0021009079185943095 -0.00092767877376747905 0 0.0023032698218585618 -0.00093022373079405763 0 0.0021009079185943095 -0.00092767877376747905 0 0.0022337811162677886 -0.0010941479600643253 0 0.0019521604932641217 -0.00072279137224891276 0 0.0018376148649137389 -0.00058345140612731279 0 0.0019599782197856921 -0.00055327761233904386 0 0.0019776567303485884 -0.00080037893295791722 0 0.0023249787797156728 -0.00087872337313746871 0 0.0020236951069818555 -0.0006477429077263936 0 0.0019521604932641217 -0.00072279137224891276 0 0.0019599782197856921 -0.00055327761233904386 0 0.0019599782197856921 -0.00055327761233904386 0 0.0018890319505389858 -0.00043481076679086685 0 0.0020508481073636918 -0.00041078315349776161 0 0.0027327180141353447 -0.0011444500720861814 0 0.002860591971912985 -0.00084248810478600568 0 0.0026826618642599607 -0.00076088209230649637 0 0.0023249787797156728 -0.00087872337313746871 0 0.0023730365875839691 -0.0006391927510732417 0 0.0018376148649137389 -0.00058345140612731279 0 0.0019599782197856921 -0.00055327761233904386 0 0.0018890319505389858 -0.00043481076679086685 0 0.002860591971912985 -0.00084248810478600568 0 0.0026826618642599607 -0.00076088209230649637 0 0.0028228390540141635 -0.00060203791124810164 0 0.0018890319505389858 -0.00043481076679086685 0 0.0020508481073636918 -0.00041078315349776161 0 0.0019471652402040605 -0.00026278766832470618 0 0.0023730365875839691 -0.0006391927510732417 0 0.0024585430684186875 -0.00040277831004408384 0 0.0020508481073636918 -0.00041078315349776161 0 0.002154385500768709 -0.00045989817795960748 0 0.0021849935640386531 -0.00034508535454483925 0 0.0020508481073636918 -0.00041078315349776161 0 0.002102374408666815 -0.00055115239604408984 0 0.002154385500768709 -0.00045989817795960748 0 0.0019599782197856921 -0.00055327761233904386 0 0.0020508481073636918 -0.00041078315349776161 0 0.002102374408666815 -0.00055115239604408984 0 0.002102374408666815 -0.00055115239604408984 0 0.0022195175551459573 -0.00052437582814639325 0 0.002154385500768709 -0.00045989817795960748 0 0.0022236590631717246 -0.00061242932824804761 0 0.002102374408666815 -0.00055115239604408984 0 0.0022195175551459573 -0.00052437582814639325 0 0.0022195175551459573 -0.00052437582814639325 0 0.002154385500768709 -0.00045989817795960748 0 0.0022076072824766964 -0.00044749973307625559 0 0.0022713708622260826 -0.00045699430090398951 0 0.0022195175551459573 -0.00052437582814639325 0 0.0022076072824766964 -0.00044749973307625559 0 0.0026761242321619778 -0.00066780853698678727 0 0.0026599543145331807 -0.00060440159214753398 0 0.0023969948438763078 -0.00044424970830791392 0 0.0022713708622260826 -0.00045699430090398951 0 0.0022076072824766964 -0.00044749973307625559 0 0.0021849935640386531 -0.00034508535454483925 0 0.0024540491123141183 -0.00054770632556157967 0 0.0022897144239438028 -0.00039030816851903387 0 0.002154385500768709 -0.00045989817795960748 0 0.0022076072824766964 -0.00044749973307625559 0 0.0021849935640386531 -0.00034508535454483925 0 0.0026599543145331807 -0.00060440159214753398 0 0.0023969948438763078 -0.00044424970830791392 0 0.0026397067451116281 -0.00037903571977353532 0 0.0023969948438763078 -0.00044424970830791392 0 0.0024263836594171214 -7.924179868527175e-05 0 0.0026397067451116281 -0.00037903571977353532 0 0.0031814639262896234 -0.00029940799085567704 0 0.0031702269083348686 -0.00025865062823072875 0 0.0032027996701790656 -0.00027007345613598224 0 0.0024263836594171214 -7.924179868527175e-05 0 0.0021063549963328547 -0.00020409241157867241 0 0.0020232876035256096 1.5246074744665343e-05 0 0.0031814639262896234 -0.00029940799085567704 0 0.0031164105351560406 -0.00028160895820464652 0 0.0031702269083348686 -0.00025865062823072875 0 0.0027747980742716624 -0.00017206545119044975 0 0.0026944147865548764 -0.00025657926985508549 0 0.0023969948438763078 -0.00044424970830791392 0 0.0024263836594171214 -7.924179868527175e-05 0 0.0021063549963328547 -0.00020409241157867241 0 0.0020508481073636918 -0.00041078315349776161 0 0.0021849935640386531 -0.00034508535454483925 0 0.0021063549963328547 -0.00020409241157867241 0 0.0022897144239438028 -0.00039030816851903387 0 0.002115416260283848 -0.00021756663948761364 0 0.0020508481073636918 -0.00041078315349776161 0 0.0021063549963328547 -0.00020409241157867241 0 0.0019471652402040605 -0.00026278766832470618 0 0.002860591971912985 -0.00084248810478600568 0 0.0029882625341675832 -0.00057540239263668578 0 0.0028228390540141635 -0.00060203791124810164 0 0.0028228390540141635 -0.00060203791124810164 0 0.0027866350526001109 -0.00047538127886517057 0 0.0029541469833288436 -0.00040348924755430392 0 0.0029882625341675832 -0.00057540239263668578 0 0.0028228390540141635 -0.00060203791124810164 0 0.0029541469833288436 -0.00040348924755430392 0 0.0026826618642599607 -0.00076088209230649637 0 0.0028228390540141635 -0.00060203791124810164 0 0.002668841043419939 -0.00057761791918136839 0 0.0028228390540141635 -0.00060203791124810164 0 0.0027866350526001109 -0.00047538127886517057 0 0.002668841043419939 -0.00057761791918136839 0 0.0027866350526001109 -0.00047538127886517057 0 0.0027965782511936549 -0.00034544139274731448 0 0.0026405850815821082 -0.00046580122485725392 0 0.0027866350526001109 -0.00047538127886517057 0 0.0027965782511936549 -0.00034544139274731448 0 0.0029541469833288436 -0.00040348924755430392 0 0.0027965782511936549 -0.00034544139274731448 0 0.0029541469833288436 -0.00040348924755430392 0 0.0029769651072209511 -0.00026059995973873329 0 0.0024585430684186875 -0.00040277831004408384 0 0.0026944147865548764 -0.00025657926985508549 0 0.0029882625341675832 -0.00057540239263668578 0 0.0029541469833288436 -0.00040348924755430392 0 0.0030869340958746393 -0.00032886241084792428 0 0.0021063549963328547 -0.00020409241157867241 0 0.0019471652402040605 -0.00026278766832470618 0 0.0020232876035256096 1.5246074744665343e-05 0 0.0029541469833288436 -0.00040348924755430392 0 0.0030084584408232003 -0.00032597024622084062 0 0.0030869340958746393 -0.00032886241084792428 0 0.0029541469833288436 -0.00040348924755430392 0 0.0030084584408232003 -0.00032597024622084062 0 0.0029769651072209511 -0.00026059995973873329 0 0.0030869340958746393 -0.00032886241084792428 0 0.0030503416085440071 -0.00027915073991514107 0 0.0030786579983215286 -0.00024782589981628037 0 0.0030084584408232003 -0.00032597024622084062 0 0.0030869340958746393 -0.00032886241084792428 0 0.0030503416085440071 -0.00027915073991514107 0 0.0030084584408232003 -0.00032597024622084062 0 0.0030503416085440071 -0.00027915073991514107 0 0.0029769651072209511 -0.00026059995973873329 0 0.0030503416085440071 -0.00027915073991514107 0 0.0029769651072209511 -0.00026059995973873329 0 0.0030291607861322092 -0.00022911111256461553 0 0.0030503416085440071 -0.00027915073991514107 0 0.0030786579983215286 -0.00024782589981628037 0 0.0030291607861322092 -0.00022911111256461553 0 0.0027965782511936549 -0.00034544139274731448 0 0.0029769651072209511 -0.00026059995973873329 0 0.0026896581186902379 -0.00023264061981340508 0 0.0029723748059143867 -0.00025751400912937166 0 0.0028519292645600852 -0.00022769028030011616 0 0.0029769651072209511 -0.00026059995973873329 0 0.0030060049550298643 -0.00022053637799849691 0 0.0030007566106228403 -0.00021578990907752707 0 0.0029769651072209511 -0.00026059995973873329 0 0.0030060049550298643 -0.00022053637799849691 0 0.0030291607861322092 -0.00022911111256461553 0 0.0030060049550298643 -0.00022053637799849691 0 0.0030312860552357108 -0.00019670724143263819 0 0.003007243240117783 -0.00019032340817393801 0 0.0030060049550298643 -0.00022053637799849691 0 0.0030312860552357108 -0.00019670724143263819 0 0.0030291607861322092 -0.00022911111256461553 0 0.0030786579983215286 -0.00024782589981628037 0 0.0030291607861322092 -0.00022911111256461553 0 0.0030770797685618239 -0.00020077303973416652 0 0.0030786579983215286 -0.00024782589981628037 0 0.0030770797685618239 -0.00020077303973416652 0 0.0031466585047756259 -0.00021378459753400899 0 0.0030312860552357108 -0.00019670724143263819 0 0.0030291607861322092 -0.00022911111256461553 0 0.0030770797685618239 -0.00020077303973416652 0 0.0030312860552357108 -0.00019670724143263819 0 0.0030770797685618239 -0.00020077303973416652 0 0.0030660037006585259 -0.00017393081454730388 0 0.0030770797685618239 -0.00020077303973416652 0 0.0031466585047756259 -0.00021378459753400899 0 0.0031285900841832746 -0.00016938128077794755 0 0.0031466585047756259 -0.00021378459753400899 0 0.0032021849107398462 -0.00022938576380453706 0 0.0032056842257441949 -0.00018479084825875821 0 0.0032021849107398462 -0.00022938576380453706 0 0.0032056842257441949 -0.00018479084825875821 0 0.003240822636242108 -0.00020446232759691111 0 0.0032021849107398462 -0.00022938576380453706 0 0.0031702269083348686 -0.00025865062823072875 0 0.0032027996701790656 -0.00027007345613598224 0 0.0031466585047756259 -0.00021378459753400899 0 0.0032021849107398462 -0.00022938576380453706 0 0.0031702269083348686 -0.00025865062823072875 0 0.0030869340958746393 -0.00032886241084792428 0 0.0030786579983215286 -0.00024782589981628037 0 0.0031466585047756259 -0.00021378459753400899 0 0.0026944147865548764 -0.00025657926985508549 0 0.0032521885811092207 -0.00021075277567517617 0 0.0031164105351560406 -0.00028160895820464652 0 0.0031466585047756259 -0.00021378459753400899 0 0.0031702269083348686 -0.00025865062823072875 0 0.0025033493385786861 -0.00030011672718684499 0 0.0025527567189204347 -0.00030480808809572527 0 0.0025263102592180319 -0.00027550477145848567 0 0.0023756326404896183 -0.00036821433727379115 0 0.002397448194040603 -0.00037137618446602549 0 0.0021304871186471636 -0.00045679837595905161 0 0.0022007247848700477 -0.00055388367837601565 0 0.0022628906502470086 -0.00043996529619706206 0 0.0022206181848245243 -0.00065780955204047743 0 0.0022007247848700477 -0.00055388367837601565 0 0.0022890557006956156 -0.00058165381310967042 0 0.0021145490808885709 -0.0006246021078209537 0 0.0022206181848245243 -0.00065780955204047743 0 0.0022007247848700477 -0.00055388367837601565 0 0.0022007247848700477 -0.00055388367837601565 0 0.0022890557006956156 -0.00058165381310967042 0 0.0022628906502470086 -0.00043996529619706206 0 0.0022890557006956156 -0.00058165381310967042 0 0.0022628906502470086 -0.00043996529619706206 0 0.0023680860373275605 -0.00051667242067111646 0 0.002397448194040603 -0.00037137618446602549 0 0.002553017372892779 -0.00035099849742024512 0 0.0022628906502470086 -0.00043996529619706206 0 0.0024495252877558792 -0.00038173571059411178 0 0.0023680860373275605 -0.00051667242067111646 0 0.0024495252877558792 -0.00038173571059411178 0 0.0023680860373275605 -0.00051667242067111646 0 0.0025033586592139796 -0.00053900497168092988 0 0.0022890557006956156 -0.00058165381310967042 0 0.0023680860373275605 -0.00051667242067111646 0 0.0023870616822855872 -0.00064574168314421733 0 0.0023870616822855872 -0.00064574168314421733 0 0.0025033586592139796 -0.00053900497168092988 0 0.0025343312143598965 -0.00066230809973004032 0 0.0023680860373275605 -0.00051667242067111646 0 0.0023870616822855872 -0.00064574168314421733 0 0.0025033586592139796 -0.00053900497168092988 0 0.0025033586592139796 -0.00053900497168092988 0 0.002668841043419939 -0.00057761791918136839 0 0.0026405850815821082 -0.00046580122485725392 0 0.0025033586592139796 -0.00053900497168092988 0 0.0025343312143598965 -0.00066230809973004032 0 0.002668841043419939 -0.00057761791918136839 0 0.0026826618642599607 -0.00076088209230649637 0 0.0025343312143598965 -0.00066230809973004032 0 0.002668841043419939 -0.00057761791918136839 0 0.0027866350526001109 -0.00047538127886517057 0 0.002668841043419939 -0.00057761791918136839 0 0.0026405850815821082 -0.00046580122485725392 0 0.0027786846439992758 -0.00034461030637920127 0 0.002553017372892779 -0.00035099849742024512 0 0.0027965782511936549 -0.00034544139274731448 0 0.0024495252877558792 -0.00038173571059411178 0 0.0026405850815821082 -0.00046580122485725392 0 0.0024495252877558792 -0.00038173571059411178 0 0.0025033586592139796 -0.00053900497168092988 0 0.0026405850815821082 -0.00046580122485725392 0 0.0027965782511936549 -0.00034544139274731448 0 0.0026272375835268802 -0.00031538079450847667 0 0.0026896581186902379 -0.00023264061981340508 0 0.0030060049550298643 -0.00022053637799849691 0 0.0030007566106228403 -0.00021578990907752707 0 0.003007243240117783 -0.00019032340817393801 0 0.0030007566106228403 -0.00021578990907752707 0 0.003007243240117783 -0.00019032340817393801 0 0.0029883200332158797 -0.00018764155405108965 0 0.0030007566106228403 -0.00021578990907752707 0 0.0029883200332158797 -0.00018764155405108965 0 0.0029765157223466607 -0.00019610902890369975 0 0.0026272375835268802 -0.00031538079450847667 0 0.0026896581186902379 -0.00023264061981340508 0 0.0025808109670596054 -0.00024272378810802556 0 0.0028519292645600852 -0.00022769028030011616 0 0.0027804022552234305 -0.0002189308899697534 0 0.0025527567189204347 -0.00030480808809572527 0 0.0026272375835268802 -0.00031538079450847667 0 0.0025808109670596054 -0.00024272378810802556 0 0.0025527567189204347 -0.00030480808809572527 0 0.0025808109670596054 -0.00024272378810802556 0 0.0025263102592180319 -0.00027550477145848567 0 0.0029883200332158797 -0.00018764155405108965 0 0.0029765157223466607 -0.00019610902890369975 0 0.0029716468154972879 -0.00017709989715977722 0 0.0027804022552234305 -0.0002189308899697534 0 0.0027397025133459249 -0.00021418858700227535 0 0.0029765157223466607 -0.00019610902890369975 0 0.0029716468154972879 -0.00017709989715977722 0 0.0029530787841021032 -0.00018080486968095571 0 0.0029716468154972879 -0.00017709989715977722 0 0.0029530787841021032 -0.00018080486968095571 0 0.0029648685395700981 -0.00015869030574921795 0 0.0025052374433250043 -0.0002655593354522272 0 0.0025243069679998361 -0.00024687445827960308 0 0.0025263102592180319 -0.00027550477145848567 0 0.0025808109670596054 -0.00024272378810802556 0 0.0025243069679998361 -0.00024687445827960308 0 0.0025263102592180319 -0.00027550477145848567 0 0.0025066181282163763 -0.00028660009954620047 0 0.0025033493385786861 -0.00030011672718684499 0 0.0025263102592180319 -0.00027550477145848567 0 0.0029611476049030165 -0.00014298314033063606 0 0.0029648685395700981 -0.00015869030574921795 0 0.0029722402631777688 -0.00013397854865530528 0 0.0029557910609139346 -0.00013018716510962663 0 0.0029611476049030165 -0.00014298314033063606 0 0.0029722402631777688 -0.00013397854865530528 0 0.0029504170718453429 -0.0001489058683429359 0 0.0029557910609139346 -0.00013018716510962663 0 0.0029611476049030165 -0.00014298314033063606 0 0.0029459461863996939 -0.0001642286195319985 0 0.0029504170718453429 -0.0001489058683429359 0 0.0029648685395700981 -0.00015869030574921795 0 0.0029504170718453429 -0.0001489058683429359 0 0.0029611476049030165 -0.00014298314033063606 0 0.0029648685395700981 -0.00015869030574921795 0 0.0029459461863996939 -0.0001642286195319985 0 0.0029530787841021032 -0.00018080486968095571 0 0.0029648685395700981 -0.00015869030574921795 0 0.0029648685395700981 -0.00015869030574921795 0 0.0029862082067507729 -0.00014113364214639448 0 0.0029889180424369005 -0.0001652992546761512 0 0.0029716468154972879 -0.00017709989715977722 0 0.0029648685395700981 -0.00015869030574921795 0 0.0029889180424369005 -0.0001652992546761512 0 0.0029648685395700981 -0.00015869030574921795 0 0.0029722402631777688 -0.00013397854865530528 0 0.0029862082067507729 -0.00014113364214639448 0 0.0029722402631777688 -0.00013397854865530528 0 0.0029862082067507729 -0.00014113364214639448 0 0.0029832653639402765 -0.00011987632758528419 0 0.0030029262699392593 -0.00014169727175454262 0 0.0029862082067507729 -0.00014113364214639448 0 0.0030013215804318583 -0.00012036925516583921 0 0.0030029262699392593 -0.00014169727175454262 0 0.0029862082067507729 -0.00014113364214639448 0 0.0029889180424369005 -0.0001652992546761512 0 0.0029883200332158797 -0.00018764155405108965 0 0.0029716468154972879 -0.00017709989715977722 0 0.0029889180424369005 -0.0001652992546761512 0 0.003007243240117783 -0.00019032340817393801 0 0.0029883200332158797 -0.00018764155405108965 0 0.0029889180424369005 -0.0001652992546761512 0 0.003007243240117783 -0.00019032340817393801 0 0.0030166678027516193 -0.00015410459495307906 0 0.0030359266623725396 -0.00017127131297664107 0 0.003007243240117783 -0.00019032340817393801 0 0.0029889180424369005 -0.0001652992546761512 0 0.0030166678027516193 -0.00015410459495307906 0 0.0030029262699392593 -0.00014169727175454262 0 0.0030166678027516193 -0.00015410459495307906 0 0.0030335882331914438 -0.0001202720049457387 0 0.0030029262699392593 -0.00014169727175454262 0 0.0029889180424369005 -0.0001652992546761512 0 0.0030166678027516193 -0.00015410459495307906 0 0.0030029262699392593 -0.00014169727175454262 0 0.0030335882331914438 -0.0001202720049457387 0 0.0030013215804318583 -0.00012036925516583921 0 0.0030335882331914438 -0.0001202720049457387 0 0.0030212824485720347 -0.00010114621818539336 0 0.0030013215804318583 -0.00012036925516583921 0 0.0030212824485720347 -0.00010114621818539336 0 0.0030220506336955883 -8.1174258802654863e-05 0 0.0029969035875950733 -9.9024941433408151e-05 0 0.0030212824485720347 -0.00010114621818539336 0 0.0030220506336955883 -8.1174258802654863e-05 0 0.0030671441470718789 -8.2915449920747714e-05 0 0.0030468422929153809 -7.5842048974581236e-05 0 0.0029892171307458332 -6.1028027977445907e-05 0 0.0030220506336955883 -8.1174258802654863e-05 0 0.0029969035875950733 -9.9024941433408151e-05 0 0.0029936216939544348 -8.167846330594748e-05 0 0.0029969035875950733 -9.9024941433408151e-05 0 0.0029876974581711639 -9.3242170690792256e-05 0 0.0029936216939544348 -8.167846330594748e-05 0 0.0029969035875950733 -9.9024941433408151e-05 0 0.0029801114133546185 -0.00010303049130551394 0 0.0029876974581711639 -9.3242170690792256e-05 0 0.0029969035875950733 -9.9024941433408151e-05 0 0.0030013215804318583 -0.00012036925516583921 0 0.0029832653639402765 -0.00011987632758528419 0 0.0030212824485720347 -0.00010114621818539336 0 0.0029969035875950733 -9.9024941433408151e-05 0 0.0030013215804318583 -0.00012036925516583921 0 0.0029862082067507729 -0.00014113364214639448 0 0.0030013215804318583 -0.00012036925516583921 0 0.0029832653639402765 -0.00011987632758528419 0 0.0029722402631777688 -0.00013397854865530528 0 0.0029832653639402765 -0.00011987632758528419 0 0.0029674795334569699 -0.00011701369283042271 0 0.0029832653639402765 -0.00011987632758528419 0 0.0029801114133546185 -0.00010303049130551394 0 0.0029674795334569699 -0.00011701369283042271 0 0.0029969035875950733 -9.9024941433408151e-05 0 0.0029832653639402765 -0.00011987632758528419 0 0.0029801114133546185 -0.00010303049130551394 0 0.0029876974581711639 -9.3242170690792256e-05 0 0.0029786928131065511 -9.0409365265391943e-05 0 0.0029936216939544348 -8.167846330594748e-05 0 0.0029801114133546185 -0.00010303049130551394 0 0.0029876974581711639 -9.3242170690792256e-05 0 0.0029786928131065511 -9.0409365265391943e-05 0 0.0029801114133546185 -0.00010303049130551394 0 0.0029687808575367446 -0.00010167800910300462 0 0.0029674795334569699 -0.00011701369283042271 0 0.0029801114133546185 -0.00010303049130551394 0 0.0029786928131065511 -9.0409365265391943e-05 0 0.0029687808575367446 -0.00010167800910300462 0 0.0029786928131065511 -9.0409365265391943e-05 0 0.0029687808575367446 -0.00010167800910300462 0 0.0029626312768581244 -9.1724510903806855e-05 0 0.0029513773907948 -9.4817227852617142e-05 0 0.0029626312768581244 -9.1724510903806855e-05 0 0.0029562611131888068 -0.00010705344663054335 0 0.0029687808575367446 -0.00010167800910300462 0 0.0029626312768581244 -9.1724510903806855e-05 0 0.0029562611131888068 -0.00010705344663054335 0 0.0029557910609139346 -0.00013018716510962663 0 0.0029722402631777688 -0.00013397854865530528 0 0.0029674795334569699 -0.00011701369283042271 0 0.0029557910609139346 -0.00013018716510962663 0 0.0029562611131888068 -0.00010705344663054335 0 0.0029674795334569699 -0.00011701369283042271 0 0.0029687808575367446 -0.00010167800910300462 0 0.0029562611131888068 -0.00010705344663054335 0 0.0029674795334569699 -0.00011701369283042271 0 0.0031742468120752446 -0.00012936013135172634 0 0.0031347220311702473 -0.0001736235609394664 0 0.0032213660219259812 -0.00013352969777561074 0 0.0032275048948325743 -0.00014783034169107401 0 0.0031285900841832746 -0.00016938128077794755 0 0.0032275048948325743 -0.00014783034169107401 0 0.0032608104585157139 -0.00013617028383089912 0 0.0032516731051857642 -0.00016128083212530345 0 0.0032213660219259812 -0.00013352969777561074 0 0.0032275048948325743 -0.00014783034169107401 0 0.0032637143376527851 -0.00012880022461273413 0 0.0032275048948325743 -0.00014783034169107401 0 0.0032637143376527851 -0.00012880022461273413 0 0.0032608104585157139 -0.00013617028383089912 0 0.0032275048948325743 -0.00014783034169107401 0 0.0032056842257441949 -0.00018479084825875821 0 0.0032516731051857642 -0.00016128083212530345 0 0.0032275048948325743 -0.00014783034169107401 0 0.0032056842257441949 -0.00018479084825875821 0 0.0031285900841832746 -0.00016938128077794755 0 0.0031466585047756259 -0.00021378459753400899 0 0.0032056842257441949 -0.00018479084825875821 0 0.0031285900841832746 -0.00016938128077794755 0 0.0030770797685618239 -0.00020077303973416652 0 0.0031285900841832746 -0.00016938128077794755 0 0.0030660037006585259 -0.00017393081454730388 0 0.0031285900841832746 -0.00016938128077794755 0 0.0030660037006585259 -0.00017393081454730388 0 0.0030679042439258337 -0.00013789673329344358 0 0.0030312860552357108 -0.00019670724143263819 0 0.003007243240117783 -0.00019032340817393801 0 0.0030359266623725396 -0.00017127131297664107 0 0.0030166678027516193 -0.00015410459495307906 0 0.0030359266623725396 -0.00017127131297664107 0 0.0030679042439258337 -0.00013789673329344358 0 0.0030312860552357108 -0.00019670724143263819 0 0.0030660037006585259 -0.00017393081454730388 0 0.0030359266623725396 -0.00017127131297664107 0 0.0030660037006585259 -0.00017393081454730388 0 0.0030359266623725396 -0.00017127131297664107 0 0.0030679042439258337 -0.00013789673329344358 0 0.0030166678027516193 -0.00015410459495307906 0 0.0030335882331914438 -0.0001202720049457387 0 0.0030679042439258337 -0.00013789673329344358 0 0.0030335882331914438 -0.0001202720049457387 0 0.0030679042439258337 -0.00013789673329344358 0 0.0030858516095610615 -0.00010510271016441192 0 0.0031276913570638006 -0.00011972796940757333 0 0.0030679042439258337 -0.00013789673329344358 0 0.0030858516095610615 -0.00010510271016441192 0 0.0031276913570638006 -0.00011972796940757333 0 0.0031285900841832746 -0.00016938128077794755 0 0.0030679042439258337 -0.00013789673329344358 0 0.0030858516095610615 -0.00010510271016441192 0 0.0030949266127190387 -7.3652171435289771e-05 0 0.003113021565936775 -8.8275864589566286e-05 0 0.0030335882331914438 -0.0001202720049457387 0 0.0030858516095610615 -0.00010510271016441192 0 0.0030671441470718789 -8.2915449920747714e-05 0 0.0030335882331914438 -0.0001202720049457387 0 0.0030212824485720347 -0.00010114621818539336 0 0.0030671441470718789 -8.2915449920747714e-05 0 0.0030468422929153809 -7.5842048974581236e-05 0 0.0030633603805772232 -8.1825014862159555e-05 0 0.0030531983112247092 -6.3595788226670136e-05 0 0.0030671441470718789 -8.2915449920747714e-05 0 0.0030773947147013214 -5.888240109099864e-05 0 0.0030858516095610615 -0.00010510271016441192 0 0.0030671441470718789 -8.2915449920747714e-05 0 0.0030949266127190387 -7.3652171435289771e-05 0 0.0030671441470718789 -8.2915449920747714e-05 0 0.0030949266127190387 -7.3652171435289771e-05 0 0.0030773947147013214 -5.888240109099864e-05 0 0.0031170646020948606 -6.4298067766878656e-05 0 0.0031357178455440385 -7.6899953860659604e-05 0 0.003132051442741958 -5.5493794250968135e-05 0 0.0030949266127190387 -7.3652171435289771e-05 0 0.0031170646020948606 -6.4298067766878656e-05 0 0.003113021565936775 -8.8275864589566286e-05 0 0.0031170646020948606 -6.4298067766878656e-05 0 0.0031357178455440385 -7.6899953860659604e-05 0 0.003113021565936775 -8.8275864589566286e-05 0 0.0031276913570638006 -0.00011972796940757333 0 0.0031357178455440385 -7.6899953860659604e-05 0 0.003113021565936775 -8.8275864589566286e-05 0 0.0032213660219259812 -0.00013352969777561074 0 0.0033029017647445763 -0.00011368862993272686 0 0.0033132146047663734 -0.00013199207650969953 0 0.0031742468120752446 -0.00012936013135172634 0 0.003205874854462199 -0.00010931335761113026 0 0.0031276913570638006 -0.00011972796940757333 0 0.0030858516095610615 -0.00010510271016441192 0 0.003113021565936775 -8.8275864589566286e-05 0 0.0032213660219259812 -0.00013352969777561074 0 0.0032637143376527851 -0.00012880022461273413 0 0.0033132146047663734 -0.00013199207650969953 0 0.0032637143376527851 -0.00012880022461273413 0 0.0033132146047663734 -0.00013199207650969953 0 0.003273865112158617 -0.00012119323805783578 0 0.0032637143376527851 -0.00012880022461273413 0 0.003273865112158617 -0.00012119323805783578 0 0.0032608104585157139 -0.00013617028383089912 0 0.0033132146047663734 -0.00013199207650969953 0 0.0034152394484878962 -7.8845317307541511e-05 0 0.0036292334203122043 -0.00010987938192515452 0 0.0033029017647445763 -0.00011368862993272686 0 0.0033132146047663734 -0.00013199207650969953 0 0.0034152394484878962 -7.8845317307541511e-05 0 0.0033029017647445763 -0.00011368862993272686 0 0.0034152394484878962 -7.8845317307541511e-05 0 0.0033948423256812423 -3.1899270059089478e-05 0 0.0034152394484878962 -7.8845317307541511e-05 0 0.0034817918754640061 -2.1346188763382301e-05 0 0.0033948423256812423 -3.1899270059089478e-05 0 0.0033132146047663734 -0.00013199207650969953 0 0.0032709368394205724 -0.0001146686680653682 0 0.003273865112158617 -0.00012119323805783578 0 0.0036292334203122043 -0.00010987938192515452 0 0.0035811580590017797 1.6798230951753504e-05 0 0.0034817918754640061 -2.1346188763382301e-05 0 0.0033232891014190989 -0.00013073432782793491 0 0.0034472662940682069 -0.00011079967460921652 0 0.0034152394484878962 -7.8845317307541511e-05 0 0.0036292334203122043 -0.00010987938192515452 0 0.0034817918754640061 -2.1346188763382301e-05 0 0.0034472662940682069 -0.00011079967460921652 0 0.0035482204587357663 -7.62979805412702e-05 0 0.0036292334203122043 -0.00010987938192515452 0 0.0037729433573327263 -6.2807464499072991e-05 0 0.0036862356991176673 1.4545257738690178e-05 0 0.0032709368394205724 -0.0001146686680653682 0 0.0033190984455220584 -8.9465887690783562e-05 0 0.0032842324392473657 -0.00013547933163871362 0 0.0032709368394205724 -0.0001146686680653682 0 0.003273865112158617 -0.00012119323805783578 0 0.0032842324392473657 -0.00013547933163871362 0 0.003273865112158617 -0.00012119323805783578 0 0.0032608104585157139 -0.00013617028383089912 0 0.0032842324392473657 -0.00013547933163871362 0 0.0035482204587357663 -7.62979805412702e-05 0 0.0036223529544035619 -6.3795434043912121e-05 0 0.0033190984455220584 -8.9465887690783562e-05 0 0.0033373566345926546 -0.00011777200601878124 0 0.0033816520688459422 -7.1441690545192882e-05 0 0.0033190984455220584 -8.9465887690783562e-05 0 0.0033373566345926546 -0.00011777200601878124 0 0.0032842324392473657 -0.00013547933163871362 0 0.0033373566345926546 -0.00011777200601878124 0 0.0033317569104786868 -0.00015450571566279412 0 0.0033804049309986537 -0.00013263538884184043 0 0.0033317569104786868 -0.00015450571566279412 0 0.0033699492981779716 -0.00016497872186088599 0 0.0033804049309986537 -0.00013263538884184043 0 0.0033373566345926546 -0.00011777200601878124 0 0.0033317569104786868 -0.00015450571566279412 0 0.0032842324392473657 -0.00013547933163871362 0 0.0033317569104786868 -0.00015450571566279412 0 0.0032985960294099684 -0.00016705499838621173 0 0.0032842324392473657 -0.00013547933163871362 0 0.0033094033437286708 -0.00019470346532290554 0 0.0032985960294099684 -0.00016705499838621173 0 0.0032707110917455664 -0.0001785808963846415 0 0.0033317569104786868 -0.00015450571566279412 0 0.0033094033437286708 -0.00019470346532290554 0 0.0032985960294099684 -0.00016705499838621173 0 0.0033317569104786868 -0.00015450571566279412 0 0.0033094033437286708 -0.00019470346532290554 0 0.0033580377946531145 -0.00019680770131727212 0 0.0033317569104786868 -0.00015450571566279412 0 0.0033580377946531145 -0.00019680770131727212 0 0.0033699492981779716 -0.00016497872186088599 0 0.0032608104585157139 -0.00013617028383089912 0 0.0032842324392473657 -0.00013547933163871362 0 0.0032516731051857642 -0.00016128083212530345 0 0.0032985960294099684 -0.00016705499838621173 0 0.0032842324392473657 -0.00013547933163871362 0 0.0032707110917455664 -0.0001785808963846415 0 0.0032842324392473657 -0.00013547933163871362 0 0.0032707110917455664 -0.0001785808963846415 0 0.0032516731051857642 -0.00016128083212530345 0 0.0032056842257441949 -0.00018479084825875821 0 0.0032516731051857642 -0.00016128083212530345 0 0.003240822636242108 -0.00020446232759691111 0 0.0032707110917455664 -0.0001785808963846415 0 0.0032516731051857642 -0.00016128083212530345 0 0.003240822636242108 -0.00020446232759691111 0 0.0032021849107398462 -0.00022938576380453706 0 0.003240822636242108 -0.00020446232759691111 0 0.0032367794354464562 -0.00025229982810038209 0 0.0032021849107398462 -0.00022938576380453706 0 0.0032027996701790656 -0.00027007345613598224 0 0.0032367794354464562 -0.00025229982810038209 0 0.0032367794354464562 -0.00025229982810038209 0 0.0032741965446088177 -0.00022527837954793421 0 0.0032740114168684641 -0.00027146240258949639 0 0.003240822636242108 -0.00020446232759691111 0 0.0032367794354464562 -0.00025229982810038209 0 0.0032741965446088177 -0.00022527837954793421 0 0.0032707110917455664 -0.0001785808963846415 0 0.003240822636242108 -0.00020446232759691111 0 0.0032741965446088177 -0.00022527837954793421 0 0.0033094033437286708 -0.00019470346532290554 0 0.0032707110917455664 -0.0001785808963846415 0 0.0032741965446088177 -0.00022527837954793421 0 0.0033094033437286708 -0.00019470346532290554 0 0.0032741965446088177 -0.00022527837954793421 0 0.0033290816586344593 -0.00024605833668299681 0 0.0033094033437286708 -0.00019470346532290554 0 0.0033580377946531145 -0.00019680770131727212 0 0.0033290816586344593 -0.00024605833668299681 0 0.0033580377946531145 -0.00019680770131727212 0 0.0033290816586344593 -0.00024605833668299681 0 0.0033757620141134335 -0.00023679366681975586 0 0.0032741965446088177 -0.00022527837954793421 0 0.0033290816586344593 -0.00024605833668299681 0 0.0032740114168684641 -0.00027146240258949639 0 0.0032740114168684641 -0.00027146240258949639 0 0.0032715794483909018 -0.00030952012053488001 0 0.003326213682205619 -0.00029571634194641949 0 0.0033290816586344593 -0.00024605833668299681 0 0.0032740114168684641 -0.00027146240258949639 0 0.003326213682205619 -0.00029571634194641949 0 0.0033277364863158543 -0.00024852690919458024 0 0.0033239693057343055 -0.000307571273174029 0 0.0033170216291521291 -0.0003110318356157943 0 0.003365014638809268 -0.00032694729348405196 0 0.0033661066349811733 -0.00028592048596667993 0 0.0033290816586344593 -0.00024605833668299681 0 0.0033170216291521291 -0.0003110318356157943 0 0.0033661066349811733 -0.00028592048596667993 0 0.0033226866042412287 -0.00043165201160382248 0 0.0033239693057343055 -0.000307571273174029 0 0.0033170216291521291 -0.0003110318356157943 0 0.0033397976135792619 -0.00035696050834069221 0 0.003365014638809268 -0.00032694729348405196 0 0.0033023267629197603 -0.00038164637049765504 0 0.0033170216291521291 -0.0003110318356157943 0 0.0033397976135792619 -0.00035696050834069221 0 0.0033540736890170248 -0.00048379040194318794 0 0.003326213682205619 -0.00029571634194641949 0 0.0032559412209036574 -0.00037178036887330408 0 0.0032715794483909018 -0.00030952012053488001 0 0.003326213682205619 -0.00029571634194641949 0 0.0032559412209036574 -0.00037178036887330408 0 0.0032715794483909018 -0.00030952012053488001 0 0.0032559412209036574 -0.00037178036887330408 0 0.003228540377517485 -0.00031921668911663489 0 0.002914455296685721 -0.00047429428821429482 0 0.0032559412209036574 -0.00037178036887330408 0 0.0028516727035131787 -0.00021265457324707709 0 0.0032425200844799617 -0.00036004606179271367 0 0.0030493228837651836 -0.00027409452773726221 0 0.002914455296685721 -0.00047429428821429482 0 0.0028516727035131787 -0.00021265457324707709 0 0.0026397067451116281 -0.00037903571977353532 0 0.0024263836594171214 -7.924179868527175e-05 0 0.0028516727035131787 -0.00021265457324707709 0 0.0026397067451116281 -0.00037903571977353532 0 0.0031814639262896234 -0.00029940799085567704 0 0.0032027996701790656 -0.00027007345613598224 0 0.003228540377517485 -0.00031921668911663489 0 0.0027747980742716624 -0.00017206545119044975 0 0.0030493228837651836 -0.00027409452773726221 0 0.0032027996701790656 -0.00027007345613598224 0 0.0032367794354464562 -0.00025229982810038209 0 0.003228540377517485 -0.00031921668911663489 0 0.0032367794354464562 -0.00025229982810038209 0 0.0032740114168684641 -0.00027146240258949639 0 0.003228540377517485 -0.00031921668911663489 0 0.0032740114168684641 -0.00027146240258949639 0 0.0032715794483909018 -0.00030952012053488001 0 0.003228540377517485 -0.00031921668911663489 0 0.0034376534319802269 -0.00029325434462180582 0 0.0034726482073844066 -0.00030697826270575641 0 0.0034689728479685798 -0.00026615265793779433 0 0.0034376534319802269 -0.00029325434462180582 0 0.0034106376223377406 -0.00026037863524999455 0 0.0034689728479685798 -0.00026615265793779433 0 0.0034732668435890589 -0.00031038072519046694 0 0.0035430877479856447 -0.00020043778893201833 0 0.0034950319275547743 -0.00029156033028081936 0 0.0035188184519772824 -0.000304870189176383 0 0.0035112658789768179 -0.00027806855675287435 0 0.0034726482073844066 -0.00030697826270575641 0 0.0034689728479685798 -0.00026615265793779433 0 0.0035108268366606664 -0.0002774855173962045 0 0.0034964734265802789 -0.00031355293943788738 0 0.0034950319275547743 -0.00029156033028081936 0 0.0035188184519772824 -0.000304870189176383 0 0.0034732668435890589 -0.00031038072519046694 0 0.003464013323361291 -0.00031473571531576502 0 0.0034376534319802269 -0.00029325434462180582 0 0.0034726482073844066 -0.00030697826270575641 0 0.0034352720229242927 -0.00033541479323213468 0 0.0034964734265802789 -0.00031355293943788738 0 0.0034950319275547743 -0.00029156033028081936 0 0.003480195873642301 -0.00030473395665522711 0 0.0034376534319802269 -0.00029325434462180582 0 0.0034352720229242927 -0.00033541479323213468 0 0.0034050667400109002 -0.0003123066632799417 0 0.0033988729785156923 -0.00036356708829383516 0 0.0034352720229242927 -0.00033541479323213468 0 0.0034050667400109002 -0.0003123066632799417 0 0.003414059762821066 -0.0003607563895473938 0 0.0034025290147879578 -0.000321440545186052 0 0.0033694008641309771 -0.00036674363514804798 0 0.0033934927480031175 -0.00039269308640428309 0 0.0034040398683539623 -0.00032416239684163493 0 0.0033694008641309771 -0.00036674363514804798 0 0.0033397976135792619 -0.00035696050834069221 0 0.003365014638809268 -0.00032694729348405196 0 0.0033694008641309771 -0.00036674363514804798 0 0.0034040398683539623 -0.00032416239684163493 0 0.003365014638809268 -0.00032694729348405196 0 0.0034040398683539623 -0.00032416239684163493 0 0.0033661066349811733 -0.00028592048596667993 0 0.0034106376223377406 -0.00026037863524999455 0 0.0034040398683539623 -0.00032416239684163493 0 0.003365014638809268 -0.00032694729348405196 0 0.0033661066349811733 -0.00028592048596667993 0 0.0034025290147879578 -0.000321440545186052 0 0.0034108843742991562 -0.00026289532169925911 0 0.0034376534319802269 -0.00029325434462180582 0 0.0034050667400109002 -0.0003123066632799417 0 0.0034106376223377406 -0.00026037863524999455 0 0.0033290816586344593 -0.00024605833668299681 0 0.0033661066349811733 -0.00028592048596667993 0 0.0033757620141134335 -0.00023679366681975586 0 0.0033661066349811733 -0.00028592048596667993 0 0.0034106376223377406 -0.00026037863524999455 0 0.0033757620141134335 -0.00023679366681975586 0 0.0033580377946531145 -0.00019680770131727212 0 0.0033757620141134335 -0.00023679366681975586 0 0.0034107793871490989 -0.00021149632262208504 0 0.0034106376223377406 -0.00026037863524999455 0 0.0034107793871490989 -0.00021149632262208504 0 0.0034541255731719493 -0.00022563943916604931 0 0.0034106376223377406 -0.00026037863524999455 0 0.0033757620141134335 -0.00023679366681975586 0 0.0034107793871490989 -0.00021149632262208504 0 0.0034541255731719493 -0.00022563943916604931 0 0.0034857877179134225 -0.00019521606463286385 0 0.003445566607841876 -0.00018376730918482584 0 0.0034107793871490989 -0.00021149632262208504 0 0.0034541255731719493 -0.00022563943916604931 0 0.003445566607841876 -0.00018376730918482584 0 0.0034106376223377406 -0.00026037863524999455 0 0.0034541255731719493 -0.00022563943916604931 0 0.0034689728479685798 -0.00026615265793779433 0 0.0034689728479685798 -0.00026615265793779433 0 0.0034983109968066547 -0.00023648071290252159 0 0.0035108268366606664 -0.0002774855173962045 0 0.0035668565906298135 -0.00019043446454338088 0 0.0035430877479856447 -0.00020043778893201833 0 0.0034541255731719493 -0.00022563943916604931 0 0.0034689728479685798 -0.00026615265793779433 0 0.0034983109968066547 -0.00023648071290252159 0 0.0035668565906298135 -0.00019043446454338088 0 0.0036262035713971103 -0.00012311778815081431 0 0.0036341786648921358 -0.00013249688921090555 0 0.0036189037944918982 -8.0919697687797322e-05 0 0.0036784646636717341 -9.8271080889945249e-05 0 0.0034541255731719493 -0.00022563943916604931 0 0.0034983109968066547 -0.00023648071290252159 0 0.0034857877179134225 -0.00019521606463286385 0 0.0036262035713971103 -0.00012311778815081431 0 0.003704864894673377 -5.3324650759428325e-05 0 0.0039240773550042376 3.4429648815155375e-05 0 0.0039255116298201609 3.6158608501882137e-05 0 0.0039268664979801131 3.5774303671512158e-05 0 0.0036262035713971103 -0.00012311778815081431 0 0.0034275409300085231 -0.00018007164133808129 0 0.0034911231230458631 -0.00019919803905440968 0 0.0034490241486009954 -0.00018717323852940706 0 0.0034752452346461632 -0.00015173532751080522 0 0.0034752452346461632 -0.00015173532751080522 0 0.0034325155586124099 -0.00013934143052419807 0 0.003460695571621708 -0.00010628056195855476 0 0.0034490241486009954 -0.00018717323852940706 0 0.0034752452346461632 -0.00015173532751080522 0 0.0034325155586124099 -0.00013934143052419807 0 0.0039255116298201609 3.6158608501882137e-05 0 0.0039301184996948339 3.9580461833645739e-05 0 0.0039268664979801131 3.5774303671512158e-05 0 0.0033580377946531145 -0.00019680770131727212 0 0.0034107793871490989 -0.00021149632262208504 0 0.003406827222208017 -0.00017374143021699255 0 0.0033580377946531145 -0.00019680770131727212 0 0.003406827222208017 -0.00017374143021699255 0 0.0033699492981779716 -0.00016497872186088599 0 0.0034275409300085231 -0.00018007164133808129 0 0.0034180573142563097 -0.00017696076973803905 0 0.0034107793871490989 -0.00021149632262208504 0 0.003445566607841876 -0.00018376730918482584 0 0.003406827222208017 -0.00017374143021699255 0 0.0034490241486009954 -0.00018717323852940706 0 0.003406827222208017 -0.00017374143021699255 0 0.0034325155586124099 -0.00013934143052419807 0 0.003406827222208017 -0.00017374143021699255 0 0.0034325155586124099 -0.00013934143052419807 0 0.0033804049309986537 -0.00013263538884184043 0 0.003406827222208017 -0.00017374143021699255 0 0.0033699492981779716 -0.00016497872186088599 0 0.0033804049309986537 -0.00013263538884184043 0 0.0033804049309986537 -0.00013263538884184043 0 0.0034202125776417206 -0.00010212533077069118 0 0.0033816520688459422 -7.1441690545192882e-05 0 0.0033373566345926546 -0.00011777200601878124 0 0.0033804049309986537 -0.00013263538884184043 0 0.0033816520688459422 -7.1441690545192882e-05 0 0.0034325155586124099 -0.00013934143052419807 0 0.0034202125776417206 -0.00010212533077069118 0 0.003460695571621708 -0.00010628056195855476 0 0.0034325155586124099 -0.00013934143052419807 0 0.0033804049309986537 -0.00013263538884184043 0 0.0034202125776417206 -0.00010212533077069118 0 0.0036223529544035619 -6.3795434043912121e-05 0 0.0037551999587595976 1.9554343089368164e-05 0 0.0034202125776417206 -0.00010212533077069118 0 0.0033816520688459422 -7.1441690545192882e-05 0 0.0034480343466127155 -5.9885739785009659e-05 0 0.0039255116298201609 3.6158608501882137e-05 0 0.0039301184996948339 3.9580461833645739e-05 0 0.0039269404563099233 4.0628673244300781e-05 0 0.0039301184996948339 3.9580461833645739e-05 0 0.0039269404563099233 4.0628673244300781e-05 0 0.0039296920401301625 4.4127462749510402e-05 0 0.003704864894673377 -5.3324650759428325e-05 0 0.003690164847669466 -3.5758452574354754e-05 0 0.0039269404563099233 4.0628673244300781e-05 0 0.0039296920401301625 4.4127462749510402e-05 0 0.0039283657110505375 4.6931783675992049e-05 0 0.003690164847669466 -3.5758452574354754e-05 0 0.0037551999587595976 1.9554343089368164e-05 0 0.0034202125776417206 -0.00010212533077069118 0 0.003460695571621708 -0.00010628056195855476 0 0.0034480343466127155 -5.9885739785009659e-05 0 0.0039296920401301625 4.4127462749510402e-05 0 0.0039305536613557053 4.6390071746317812e-05 0 0.0039331264130435034 4.7790801699787097e-05 0 0.0039296920401301625 4.4127462749510402e-05 0 0.0039283657110505375 4.6931783675992049e-05 0 0.0039305536613557053 4.6390071746317812e-05 0 0.0039301184996948339 3.9580461833645739e-05 0 0.0039296920401301625 4.4127462749510402e-05 0 0.0039339819907715876 4.4400921490360968e-05 0 0.0039339819907715876 4.4400921490360968e-05 0 0.0039331264130435034 4.7790801699787097e-05 0 0.0039386689056034457 4.8783309233624496e-05 0 0.0039296920401301625 4.4127462749510402e-05 0 0.0039339819907715876 4.4400921490360968e-05 0 0.0039331264130435034 4.7790801699787097e-05 0 0.0039331264130435034 4.7790801699787097e-05 0 0.003938027201485954 5.3573033107614527e-05 0 0.0039386689056034457 4.8783309233624496e-05 0 0.003938027201485954 5.3573033107614527e-05 0 0.0039386689056034457 4.8783309233624496e-05 0 0.0039447830626364224 5.7106450108593415e-05 0 0.0039331264130435034 4.7790801699787097e-05 0 0.0039324064498253378 5.1597414754052108e-05 0 0.003938027201485954 5.3573033107614527e-05 0 0.0039283657110505375 4.6931783675992049e-05 0 0.0039324064498253378 5.1597414754052108e-05 0 0.0039290083742180718 5.3798490552394633e-05 0 0.0037551999587595976 1.9554343089368164e-05 0 0.0039551503317523749 3.9025647761709905e-05 0 0.0039283657110505375 4.6931783675992049e-05 0 0.0039311987431412425 4.8599922351888497e-05 0 0.0039324064498253378 5.1597414754052108e-05 0 0.0039283657110505375 4.6931783675992049e-05 0 0.0039305536613557053 4.6390071746317812e-05 0 0.0039311987431412425 4.8599922351888497e-05 0 0.0039331264130435034 4.7790801699787097e-05 0 0.0039311987431412425 4.8599922351888497e-05 0 0.0039324064498253378 5.1597414754052108e-05 0 0.0039305536613557053 4.6390071746317812e-05 0 0.0039331264130435034 4.7790801699787097e-05 0 0.0039311987431412425 4.8599922351888497e-05 0 0.0039324064498253378 5.1597414754052108e-05 0 0.0039337740029999181 5.6219650044660506e-05 0 0.0039290083742180718 5.3798490552394633e-05 0 0.0039337740029999181 5.6219650044660506e-05 0 0.0039305189507971589 5.9243737324118842e-05 0 0.0039290083742180718 5.3798490552394633e-05 0 0.0039337740029999181 5.6219650044660506e-05 0 0.003938424942717152 5.9347366582116922e-05 0 0.003938027201485954 5.3573033107614527e-05 0 0.0039324064498253378 5.1597414754052108e-05 0 0.0039337740029999181 5.6219650044660506e-05 0 0.003938027201485954 5.3573033107614527e-05 0 0.0039337740029999181 5.6219650044660506e-05 0 0.003938424942717152 5.9347366582116922e-05 0 0.0039342932955602145 6.1534472977761812e-05 0 0.0039337740029999181 5.6219650044660506e-05 0 0.0039342932955602145 6.1534472977761812e-05 0 0.0039305189507971589 5.9243737324118842e-05 0 0.003938027201485954 5.3573033107614527e-05 0 0.0039422145996197777 5.8720989556867465e-05 0 0.0039447830626364224 5.7106450108593415e-05 0 0.003938424942717152 5.9347366582116922e-05 0 0.0039422145996197777 5.8720989556867465e-05 0 0.0039435655473753 6.2618251851432723e-05 0 0.003938424942717152 5.9347366582116922e-05 0 0.003938027201485954 5.3573033107614527e-05 0 0.0039422145996197777 5.8720989556867465e-05 0 0.0039422145996197777 5.8720989556867465e-05 0 0.0039458955200536022 6.1559114392676265e-05 0 0.0039447830626364224 5.7106450108593415e-05 0 0.0039422145996197777 5.8720989556867465e-05 0 0.0039458955200536022 6.1559114392676265e-05 0 0.0039435655473753 6.2618251851432723e-05 0 0.0039458955200536022 6.1559114392676265e-05 0 0.0039480501114456034 6.5657129332778955e-05 0 0.0039435655473753 6.2618251851432723e-05 0 0.0039480501114456034 6.5657129332778955e-05 0 0.0039466640368622423 6.8321247261608322e-05 0 0.0039517128302659988 7.0975226522222316e-05 0 0.0039480501114456034 6.5657129332778955e-05 0 0.0039466640368622423 6.8321247261608322e-05 0 0.0039435655473753 6.2618251851432723e-05 0 0.0039466640368622423 6.8321247261608322e-05 0 0.0039435655473753 6.2618251851432723e-05 0 0.0039400913824373142 6.4430584395554726e-05 0 0.0039466640368622423 6.8321247261608322e-05 0 0.0039400913824373142 6.4430584395554726e-05 0 0.0039415521268062878 6.9341273033427612e-05 0 0.003938424942717152 5.9347366582116922e-05 0 0.0039435655473753 6.2618251851432723e-05 0 0.0039400913824373142 6.4430584395554726e-05 0 0.003938424942717152 5.9347366582116922e-05 0 0.0039400913824373142 6.4430584395554726e-05 0 0.0039342932955602145 6.1534472977761812e-05 0 0.0039400913824373142 6.4430584395554726e-05 0 0.0039342932955602145 6.1534472977761812e-05 0 0.003936005142432716 6.6415086461589794e-05 0 0.0039342932955602145 6.1534472977761812e-05 0 0.003936005142432716 6.6415086461589794e-05 0 0.0039315827068291042 6.4106178261049015e-05 0 0.0039342932955602145 6.1534472977761812e-05 0 0.0039315827068291042 6.4106178261049015e-05 0 0.0039308871633817796 6.1780524479879565e-05 0 0.0039342932955602145 6.1534472977761812e-05 0 0.0039308871633817796 6.1780524479879565e-05 0 0.0039305189507971589 5.9243737324118842e-05 0 0.003936005142432716 6.6415086461589794e-05 0 0.0039313702821118643 6.8964473119777838e-05 0 0.0039315827068291042 6.4106178261049015e-05 0 0.003936005142432716 6.6415086461589794e-05 0 0.0039368972321631385 7.1435835100357121e-05 0 0.0039313702821118643 6.8964473119777838e-05 0 0.0039400913824373142 6.4430584395554726e-05 0 0.003936005142432716 6.6415086461589794e-05 0 0.0039415521268062878 6.9341273033427612e-05 0 0.003936005142432716 6.6415086461589794e-05 0 0.0039415521268062878 6.9341273033427612e-05 0 0.0039368972321631385 7.1435835100357121e-05 0 0.0039415521268062878 6.9341273033427612e-05 0 0.0039420789264292162 7.4067685086453164e-05 0 0.0039466431952369886 7.2413127870852673e-05 0 0.0039415521268062878 6.9341273033427612e-05 0 0.0039420789264292162 7.4067685086453164e-05 0 0.0039368972321631385 7.1435835100357121e-05 0 0.0039420789264292162 7.4067685086453164e-05 0 0.0039481918764767828 7.7223973428089141e-05 0 0.0039466431952369886 7.2413127870852673e-05 0 0.0039368972321631385 7.1435835100357121e-05 0 0.0039324149059187501 7.5201267629086617e-05 0 0.0039313702821118643 6.8964473119777838e-05 0 0.0039420789264292162 7.4067685086453164e-05 0 0.0039368972321631385 7.1435835100357121e-05 0 0.0039375703213703995 7.6230692147454416e-05 0 0.0039368972321631385 7.1435835100357121e-05 0 0.0039375703213703995 7.6230692147454416e-05 0 0.0039324149059187501 7.5201267629086617e-05 0 0.0039375703213703995 7.6230692147454416e-05 0 0.0039362064470465146 8.0774591192126391e-05 0 0.0039324149059187501 7.5201267629086617e-05 0 0.0039375703213703995 7.6230692147454416e-05 0 0.0039362064470465146 8.0774591192126391e-05 0 0.0039421423032408275 8.144072622581369e-05 0 0.0039362064470465146 8.0774591192126391e-05 0 0.0039305295983184298 8.1035130361255982e-05 0 0.0039324149059187501 7.5201267629086617e-05 0 0.0039420789264292162 7.4067685086453164e-05 0 0.0039421423032408275 8.144072622581369e-05 0 0.0039481918764767828 7.7223973428089141e-05 0 0.0039421423032408275 8.144072622581369e-05 0 0.0039481918764767828 7.7223973428089141e-05 0 0.0039504672982621095 8.3862746266152841e-05 0 0.0039420789264292162 7.4067685086453164e-05 0 0.0039375703213703995 7.6230692147454416e-05 0 0.0039421423032408275 8.144072622581369e-05 0 0.0039481918764767828 7.7223973428089141e-05 0 0.0039521055738955067 7.4880973186843152e-05 0 0.0039551573456120537 8.0967158064735616e-05 0 0.0039481918764767828 7.7223973428089141e-05 0 0.0039504672982621095 8.3862746266152841e-05 0 0.0039551573456120537 8.0967158064735616e-05 0 0.0039517128302659988 7.0975226522222316e-05 0 0.0039521055738955067 7.4880973186843152e-05 0 0.003959604145962508 8.3694842056890621e-05 0 0.0039521055738955067 7.4880973186843152e-05 0 0.0039551573456120537 8.0967158064735616e-05 0 0.003959604145962508 8.3694842056890621e-05 0 0.0039466640368622423 6.8321247261608322e-05 0 0.0039517128302659988 7.0975226522222316e-05 0 0.0039521055738955067 7.4880973186843152e-05 0 0.0039466640368622423 6.8321247261608322e-05 0 0.0039521055738955067 7.4880973186843152e-05 0 0.0039466431952369886 7.2413127870852673e-05 0 0.0039481918764767828 7.7223973428089141e-05 0 0.0039521055738955067 7.4880973186843152e-05 0 0.0039466431952369886 7.2413127870852673e-05 0 0.0039466640368622423 6.8321247261608322e-05 0 0.0039415521268062878 6.9341273033427612e-05 0 0.0039466431952369886 7.2413127870852673e-05 0 0.0038903612418517788 0.00018607844443213961 0 0.0039126419404648316 0.00019205337105952043 0 0.0038898699702608558 0.0001530846977349924 0 0.0038707631130723581 0.00018268357160540802 0 0.0038898699702608558 0.0001530846977349924 0 0.003843024470496891 0.00015544526872522457 0 0.0038903612418517788 0.00018607844443213961 0 0.0038707631130723581 0.00018268357160540802 0 0.0038898699702608558 0.0001530846977349924 0 0.0038903612418517788 0.00018607844443213961 0 0.0038707631130723581 0.00018268357160540802 0 0.00388856658549435 0.0002137530473595571 0 0.0038707631130723581 0.00018268357160540802 0 0.0038632719563686498 0.00021279534841065132 0 0.00388856658549435 0.0002137530473595571 0 0.0038903612418517788 0.00018607844443213961 0 0.0039126419404648316 0.00019205337105952043 0 0.00388856658549435 0.0002137530473595571 0 0.0039249845921736958 7.6319795699743344e-05 0 0.0039305295983184298 8.1035130361255982e-05 0 0.0039274215555074928 8.7634481267453239e-05 0 0.0039249845921736958 7.6319795699743344e-05 0 0.0039305295983184298 8.1035130361255982e-05 0 0.0039324149059187501 7.5201267629086617e-05 0 0.0039249845921736958 7.6319795699743344e-05 0 0.0039324149059187501 7.5201267629086617e-05 0 0.0039313702821118643 6.8964473119777838e-05 0 0.0039320041332734845 0.0001482158051560776 0 0.0039262072190815525 0.00014748348500495675 0 0.0039308081938023588 0.00012774874607765575 0 0.0039292169468234817 0.00010520548264547942 0 0.0039349322258415819 9.8432066950950272e-05 0 0.0039262072190815525 0.00014748348500495675 0 0.0039308081938023588 0.00012774874607765575 0 0.0039257455567897719 0.00012215328191145667 0 0.0039262072190815525 0.00014748348500495675 0 0.0039257455567897719 0.00012215328191145667 0 0.0039151761989395075 0.00011072655565371053 0 0.0039249845921736958 7.6319795699743344e-05 0 0.0039313702821118643 6.8964473119777838e-05 0 0.0039272043438527389 6.2221069192316305e-05 0 0.0039320041332734845 0.0001482158051560776 0 0.0039308081938023588 0.00012774874607765575 0 0.0039346745559599751 0.00011644773594653327 0 0.0039308081938023588 0.00012774874607765575 0 0.0039257455567897719 0.00012215328191145667 0 0.0039400373480487838 0.00011237441381771635 0 0.0039313702821118643 6.8964473119777838e-05 0 0.0039315827068291042 6.4106178261049015e-05 0 0.0039272043438527389 6.2221069192316305e-05 0 0.0039315827068291042 6.4106178261049015e-05 0 0.0039272043438527389 6.2221069192316305e-05 0 0.0039308871633817796 6.1780524479879565e-05 0 0.0039349322258415819 9.8432066950950272e-05 0 0.0039361764114140959 0.00010091598818432734 0 0.0039272043438527389 6.2221069192316305e-05 0 0.0039308871633817796 6.1780524479879565e-05 0 0.0039305189507971589 5.9243737324118842e-05 0 0.0039400373480487838 0.00011237441381771635 0 0.0039151761989395075 0.00011072655565371053 0 0.0039433915713697901 9.9177883510997696e-05 0 0.0039257455567897719 0.00012215328191145667 0 0.0039400373480487838 0.00011237441381771635 0 0.0039151761989395075 0.00011072655565371053 0 0.0039306951967651611 0.00012052166212983679 0 0.0039349322258415819 9.8432066950950272e-05 0 0.0039126419404648316 0.00019205337105952043 0 0.0039151761989395075 0.00011072655565371053 0 0.0038898699702608558 0.0001530846977349924 0 0.0039195462379623186 0.00016262286719139 0 0.0039159145391170491 0.00011664885454703852 0 0.0039151761989395075 0.00011072655565371053 0 0.0038898699702608558 0.0001530846977349924 0 0.0038642457252227799 0.00011195567216640992 0 0.0038898699702608558 0.0001530846977349924 0 0.0038642457252227799 0.00011195567216640992 0 0.003843024470496891 0.00015544526872522457 0 0.0038642457252227799 0.00011195567216640992 0 0.0038912748445958864 7.7788567077395439e-05 0 0.0038459754898572127 5.0734730380566146e-05 0 0.0038912748445958864 7.7788567077395439e-05 0 0.0039063084247295101 3.8548592074693158e-05 0 0.0038459754898572127 5.0734730380566146e-05 0 0.0039151761989395075 0.00011072655565371053 0 0.0038912748445958864 7.7788567077395439e-05 0 0.0039238529777763488 7.6974873598513853e-05 0 0.0039151761989395075 0.00011072655565371053 0 0.0038642457252227799 0.00011195567216640992 0 0.0038912748445958864 7.7788567077395439e-05 0 0.0038912748445958864 7.7788567077395439e-05 0 0.0039238529777763488 7.6974873598513853e-05 0 0.0039063084247295101 3.8548592074693158e-05 0 0.0039421346534019323 0.00011609842632271548 0 0.0039433915713697901 9.9177883510997696e-05 0 0.0039655468591242079 4.7228449891558187e-05 0 0.0039272043438527389 6.2221069192316305e-05 0 0.0039305189507971589 5.9243737324118842e-05 0 0.0039290083742180718 5.3798490552394633e-05 0 0.0039349322258415819 9.8432066950950272e-05 0 0.0039551503317523749 3.9025647761709905e-05 0 0.0039238529777763488 7.6974873598513853e-05 0 0.0039655468591242079 4.7228449891558187e-05 0 0.0039063084247295101 3.8548592074693158e-05 0 0.0039433915713697901 9.9177883510997696e-05 0 0.0039238529777763488 7.6974873598513853e-05 0 0.0039655468591242079 4.7228449891558187e-05 0 0.0039151761989395075 0.00011072655565371053 0 0.0039433915713697901 9.9177883510997696e-05 0 0.0039238529777763488 7.6974873598513853e-05 0 0.0038817473457560862 -3.8884498789052557e-05 0 0.0039853555969505674 -2.1481803435630329e-05 0 0.0039350002762257967 6.5293723791698322e-06 0 0.0039655468591242079 4.7228449891558187e-05 0 0.0039350002762257967 6.5293723791698322e-06 0 0.0039063084247295101 3.8548592074693158e-05 0 0.0039853555969505674 -2.1481803435630329e-05 0 0.0039655468591242079 4.7228449891558187e-05 0 0.0039350002762257967 6.5293723791698322e-06 0 0.0038817473457560862 -3.8884498789052557e-05 0 0.0039350002762257967 6.5293723791698322e-06 0 0.0039063084247295101 3.8548592074693158e-05 0 0.0038817473457560862 -3.8884498789052557e-05 0 0.0039063084247295101 3.8548592074693158e-05 0 0.0038459754898572127 5.0734730380566146e-05 0 0.0037729433573327263 -6.2807464499072991e-05 0 0.0038817473457560862 -3.8884498789052557e-05 0 0.0038459754898572127 5.0734730380566146e-05 0 0.0037729433573327263 -6.2807464499072991e-05 0 0.0037665692201397727 6.0320186159288246e-05 0 0.0038459754898572127 5.0734730380566146e-05 0 0.0037729433573327263 -6.2807464499072991e-05 0 0.0037665692201397727 6.0320186159288246e-05 0 0.0036862356991176673 1.4545257738690178e-05 0 0.0037665692201397727 6.0320186159288246e-05 0 0.0036998198390316059 9.6325366349522465e-05 0 0.0037644578979048925 0.00012524021847672425 0 0.0037665692201397727 6.0320186159288246e-05 0 0.0038146647993220714 0.00011043454796049183 0 0.0037644578979048925 0.00012524021847672425 0 0.0037665692201397727 6.0320186159288246e-05 0 0.0038459754898572127 5.0734730380566146e-05 0 0.0038146647993220714 0.00011043454796049183 0 0.0038642457252227799 0.00011195567216640992 0 0.0038459754898572127 5.0734730380566146e-05 0 0.0038146647993220714 0.00011043454796049183 0 0.0035811580590017797 1.6798230951753504e-05 0 0.0036862356991176673 1.4545257738690178e-05 0 0.0036099304854857886 9.4809704770291883e-05 0 0.0035515925942855233 6.9665526097311106e-05 0 0.0035811580590017797 1.6798230951753504e-05 0 0.0036099304854857886 9.4809704770291883e-05 0 0.0035515925942855233 6.9665526097311106e-05 0 0.0035811580590017797 1.6798230951753504e-05 0 0.0035032894392906131 3.441189903574981e-05 0 0.0035811580590017797 1.6798230951753504e-05 0 0.0034817918754640061 -2.1346188763382301e-05 0 0.0035032894392906131 3.441189903574981e-05 0 0.0036292334203122043 -0.00010987938192515452 0 0.0035811580590017797 1.6798230951753504e-05 0 0.0036862356991176673 1.4545257738690178e-05 0 0.0036998198390316059 9.6325366349522465e-05 0 0.0036099304854857886 9.4809704770291883e-05 0 0.0036465571190453412 0.0001322972154835699 0 0.0037665692201397727 6.0320186159288246e-05 0 0.0036862356991176673 1.4545257738690178e-05 0 0.0036998198390316059 9.6325366349522465e-05 0 0.0036862356991176673 1.4545257738690178e-05 0 0.0036998198390316059 9.6325366349522465e-05 0 0.0036099304854857886 9.4809704770291883e-05 0 0.0036099304854857886 9.4809704770291883e-05 0 0.0035919754722936814 0.00014416377647862141 0 0.0036465571190453412 0.0001322972154835699 0 0.0036099304854857886 9.4809704770291883e-05 0 0.0035919754722936814 0.00014416377647862141 0 0.0035626515850523191 0.00010855329570150278 0 0.0035515925942855233 6.9665526097311106e-05 0 0.0036099304854857886 9.4809704770291883e-05 0 0.0035626515850523191 0.00010855329570150278 0 0.0035919754722936814 0.00014416377647862141 0 0.0036471940510744726 0.00016663899900440623 0 0.0036191979897913311 0.00018350045309282792 0 0.0035919754722936814 0.00014416377647862141 0 0.0036465571190453412 0.0001322972154835699 0 0.0036471940510744726 0.00016663899900440623 0 0.0036998198390316059 9.6325366349522465e-05 0 0.0036465571190453412 0.0001322972154835699 0 0.0037013758471748977 0.00015283879284491142 0 0.0036998198390316059 9.6325366349522465e-05 0 0.0037013758471748977 0.00015283879284491142 0 0.0037644578979048925 0.00012524021847672425 0 0.0036465571190453412 0.0001322972154835699 0 0.0036471940510744726 0.00016663899900440623 0 0.0037013758471748977 0.00015283879284491142 0 0.0036471940510744726 0.00016663899900440623 0 0.0037013758471748977 0.00015283879284491142 0 0.0036964002886682472 0.000212173039605671 0 0.0037013758471748977 0.00015283879284491142 0 0.0037625206037027233 0.00017424497727828276 0 0.0036964002886682472 0.000212173039605671 0 0.0036471940510744726 0.00016663899900440623 0 0.0036191979897913311 0.00018350045309282792 0 0.0036964002886682472 0.000212173039605671 0 0.0036191979897913311 0.00018350045309282792 0 0.0036964002886682472 0.000212173039605671 0 0.0035934514070213763 0.00021336098400817369 0 0.0038005981812990132 0.00015201150547870565 0 0.003843024470496891 0.00015544526872522457 0 0.0038146647993220714 0.00011043454796049183 0 0.0038642457252227799 0.00011195567216640992 0 0.003843024470496891 0.00015544526872522457 0 0.0038146647993220714 0.00011043454796049183 0 0.0038005981812990132 0.00015201150547870565 0 0.0038146647993220714 0.00011043454796049183 0 0.0037644578979048925 0.00012524021847672425 0 0.0037013758471748977 0.00015283879284491142 0 0.0037644578979048925 0.00012524021847672425 0 0.0037625206037027233 0.00017424497727828276 0 0.0038005981812990132 0.00015201150547870565 0 0.0037644578979048925 0.00012524021847672425 0 0.0037625206037027233 0.00017424497727828276 0 0.0037625206037027233 0.00017424497727828276 0 0.0037834981497594255 0.00021579281664837904 0 0.0036964002886682472 0.000212173039605671 0 0.0038005981812990132 0.00015201150547870565 0 0.0037625206037027233 0.00017424497727828276 0 0.0038107291551284666 0.00018812375005446559 0 0.0037625206037027233 0.00017424497727828276 0 0.0038107291551284666 0.00018812375005446559 0 0.0037834981497594255 0.00021579281664837904 0 0.0038107291551284666 0.00018812375005446559 0 0.0038338758200570991 0.00022534992451781331 0 0.0037834981497594255 0.00021579281664837904 0 0.0038107291551284666 0.00018812375005446559 0 0.0038439907873344444 0.00019167999987928952 0 0.0038338758200570991 0.00022534992451781331 0 0.0038005981812990132 0.00015201150547870565 0 0.003843024470496891 0.00015544526872522457 0 0.0038107291551284666 0.00018812375005446559 0 0.003843024470496891 0.00015544526872522457 0 0.0038107291551284666 0.00018812375005446559 0 0.0038439907873344444 0.00019167999987928952 0 0.0038707631130723581 0.00018268357160540802 0 0.003843024470496891 0.00015544526872522457 0 0.0038439907873344444 0.00019167999987928952 0 0.0038707631130723581 0.00018268357160540802 0 0.0038632719563686498 0.00021279534841065132 0 0.0038439907873344444 0.00019167999987928952 0 0.0038632719563686498 0.00021279534841065132 0 0.0038439907873344444 0.00019167999987928952 0 0.0038338758200570991 0.00022534992451781331 0 0.0038338758200570991 0.00022534992451781331 0 0.0037923409001519993 0.00025869666145079848 0 0.0038528420486467442 0.00026303616344920504 0 0.0038632719563686498 0.00021279534841065132 0 0.0038655254555242935 0.00023886151396660844 0 0.0038338758200570991 0.00022534992451781331 0 0.0038655254555242935 0.00023886151396660844 0 0.0038528420486467442 0.00026303616344920504 0 0.0038763260068443032 0.00025695273422106715 0 0.0038655254555242935 0.00023886151396660844 0 0.0038338758200570991 0.00022534992451781331 0 0.0038528420486467442 0.00026303616344920504 0 0.0037834981497594255 0.00021579281664837904 0 0.0037923409001519993 0.00025869666145079848 0 0.0036964002886682472 0.000212173039605671 0 0.0038338758200570991 0.00022534992451781331 0 0.0037834981497594255 0.00021579281664837904 0 0.0037923409001519993 0.00025869666145079848 0 0.0037507865145452179 0.00026973572708628452 0 0.0038474657945322659 0.00029978291481214971 0 0.0037923409001519993 0.00025869666145079848 0 0.0038366867722640493 0.00027363334251376021 0 0.003856726022346507 0.00029928776587649636 0 0.0037923409001519993 0.00025869666145079848 0 0.0038366867722640493 0.00027363334251376021 0 0.0038528420486467442 0.00026303616344920504 0 0.0037923409001519993 0.00025869666145079848 0 0.0037000454551825404 0.00027944546735793644 0 0.003856726022346507 0.00029928776587649636 0 0.0038366867722640493 0.00027363334251376021 0 0.0038661016033253157 0.00028468553540124278 0 0.003856726022346507 0.00029928776587649636 0 0.0038661016033253157 0.00028468553540124278 0 0.0038562894064237056 0.00027675542865583782 0 0.0038664579389109002 0.00028026312668620194 0 0.0038366867722640493 0.00027363334251376021 0 0.0038661016033253157 0.00028468553540124278 0 0.0038562894064237056 0.00027675542865583782 0 0.0038661016033253157 0.00028468553540124278 0 0.0038664579389109002 0.00028026312668620194 0 0.003874752135138639 0.0002894021847266569 0 0.0038528420486467442 0.00026303616344920504 0 0.0038763260068443032 0.00025695273422106715 0 0.0038788657224833318 0.00027424912913936864 0 0.0038664579389109002 0.00028026312668620194 0 0.0038528420486467442 0.00026303616344920504 0 0.0038788657224833318 0.00027424912913936864 0 0.0038366867722640493 0.00027363334251376021 0 0.0038562894064237056 0.00027675542865583782 0 0.0038528420486467442 0.00026303616344920504 0 0.0038562894064237056 0.00027675542865583782 0 0.0038664579389109002 0.00028026312668620194 0 0.0038528420486467442 0.00026303616344920504 0 0.0036964002886682472 0.000212173039605671 0 0.0037000454551825404 0.00027944546735793644 0 0.0035934514070213763 0.00021336098400817369 0 0.0037991491246461132 0.00026540525440647226 0 0.0037094480365603339 0.00021919595998865101 0 0.0037266858703428225 0.00026675716048720388 0 0.0037507865145452179 0.00026973572708628452 0 0.0036525241301788125 0.00021734972016637199 0 0.0037923409001519993 0.00025869666145079848 0 0.0036964002886682472 0.000212173039605671 0 0.0037000454551825404 0.00027944546735793644 0 0.0037991491246461132 0.00026540525440647226 0 0.0038213512371915045 0.00030572535705561599 0 0.003856726022346507 0.00029928776587649636 0 0.0037991491246461132 0.00026540525440647226 0 0.0037764086788941334 0.00031650733112972628 0 0.0038213512371915045 0.00030572535705561599 0 0.0037991491246461132 0.00026540525440647226 0 0.00375187242342832 0.00029235911799581701 0 0.0037764086788941334 0.00031650733112972628 0 0.0037991491246461132 0.00026540525440647226 0 0.00375187242342832 0.00029235911799581701 0 0.0037266858703428225 0.00026675716048720388 0 0.0037764086788941334 0.00031650733112972628 0 0.0037933312546952849 0.00036123546416147554 0 0.0037341148433966158 0.00036311642723620027 0 0.0037764086788941334 0.00031650733112972628 0 0.0037254598343990585 0.00031704894735496943 0 0.0037341148433966158 0.00036311642723620027 0 0.00375187242342832 0.00029235911799581701 0 0.0037764086788941334 0.00031650733112972628 0 0.0037254598343990585 0.00031704894735496943 0 0.0037764086788941334 0.00031650733112972628 0 0.0038213512371915045 0.00030572535705561599 0 0.0037933312546952849 0.00036123546416147554 0 0.0038213512371915045 0.00030572535705561599 0 0.0037933312546952849 0.00036123546416147554 0 0.0038454243163047234 0.00034557935290739021 0 0.0037933312546952849 0.00036123546416147554 0 0.0038255039583562469 0.00038052876309973118 0 0.003778034658256399 0.00041103011040687131 0 0.0037933312546952849 0.00036123546416147554 0 0.0038255039583562469 0.00038052876309973118 0 0.0038454243163047234 0.00034557935290739021 0 0.0037933312546952849 0.00036123546416147554 0 0.0037498349180060116 0.00036443021921947049 0 0.003778034658256399 0.00041103011040687131 0 0.0037498349180060116 0.00036443021921947049 0 0.0037380698225859925 0.00040027940170974367 0 0.003778034658256399 0.00041103011040687131 0 0.003795229249928729 0.00036280334544046267 0 0.003718810791376718 0.00036244964985543057 0 0.0039234386183720684 0.0003229655515588551 0 0.0038889731615973904 0.00030556414963039431 0 0.003874187354840763 0.00032660877408668721 0 0.0039234386183720684 0.0003229655515588551 0 0.003874187354840763 0.00032660877408668721 0 0.0039147237282264567 0.00034557970503380623 0 0.0039234386183720684 0.0003229655515588551 0 0.0039694492757150609 0.0003190371447561773 0 0.0039719849509034233 0.00027131910499608529 0 0.0039234386183720684 0.0003229655515588551 0 0.0039593424709850611 0.00034844275839935083 0 0.0039694492757150609 0.0003190371447561773 0 0.0039234386183720684 0.0003229655515588551 0 0.0038889731615973904 0.00030556414963039431 0 0.0039719849509034233 0.00027131910499608529 0 0.0038808102166749546 0.00028109480648167535 0 0.0039168564829718203 0.00027383348012885385 0 0.0038661016033253157 0.00028468553540124278 0 0.0038889731615973904 0.00030556414963039431 0 0.0039719849509034233 0.00027131910499608529 0 0.0038889731615973904 0.00030556414963039431 0 0.003856726022346507 0.00029928776587649636 0 0.0038685682442465056 0.00031116681843551726 0 0.0038661016033253157 0.00028468553540124278 0 0.0038889731615973904 0.00030556414963039431 0 0.003856726022346507 0.00029928776587649636 0 0.0038213512371915045 0.00030572535705561599 0 0.003856726022346507 0.00029928776587649636 0 0.003853069922818626 0.00031605575785378427 0 0.003856726022346507 0.00029928776587649636 0 0.0038685682442465056 0.00031116681843551726 0 0.003853069922818626 0.00031605575785378427 0 0.0038213512371915045 0.00030572535705561599 0 0.003853069922818626 0.00031605575785378427 0 0.0038454243163047234 0.00034557935290739021 0 0.003853069922818626 0.00031605575785378427 0 0.003874187354840763 0.00032660877408668721 0 0.0038454243163047234 0.00034557935290739021 0 0.0038889731615973904 0.00030556414963039431 0 0.0038685682442465056 0.00031116681843551726 0 0.003874187354840763 0.00032660877408668721 0 0.0038685682442465056 0.00031116681843551726 0 0.003853069922818626 0.00031605575785378427 0 0.003874187354840763 0.00032660877408668721 0 0.003874187354840763 0.00032660877408668721 0 0.0038888824585026913 0.00035736200046484839 0 0.0038454243163047234 0.00034557935290739021 0 0.0038255039583562469 0.00038052876309973118 0 0.0038454243163047234 0.00034557935290739021 0 0.0038797557357344178 0.00039645608143259434 0 0.0038888824585026913 0.00035736200046484839 0 0.0039316311429913034 0.00037363240370227608 0 0.0038797557357344178 0.00039645608143259434 0 0.0038888824585026913 0.00035736200046484839 0 0.0038454243163047234 0.00034557935290739021 0 0.0038797557357344178 0.00039645608143259434 0 0.003874187354840763 0.00032660877408668721 0 0.0038888824585026913 0.00035736200046484839 0 0.0039147237282264567 0.00034557970503380623 0 0.0038888824585026913 0.00035736200046484839 0 0.0039316311429913034 0.00037363240370227608 0 0.0039147237282264567 0.00034557970503380623 0 0.0039316311429913034 0.00037363240370227608 0 0.0039147237282264567 0.00034557970503380623 0 0.0039593424709850611 0.00034844275839935083 0 0.0039234386183720684 0.0003229655515588551 0 0.0039147237282264567 0.00034557970503380623 0 0.0039593424709850611 0.00034844275839935083 0 0.0039316311429913034 0.00037363240370227608 0 0.0039816453600471351 0.00037686046043572386 0 0.0039486485492928143 0.00040813433989205162 0 0.0039316311429913034 0.00037363240370227608 0 0.0039593424709850611 0.00034844275839935083 0 0.0039816453600471351 0.00037686046043572386 0 0.0040099665615949322 0.00034743388835278621 0 0.0040481828902020935 0.00028155057346153026 0 0.0040681335484597861 0.00040985963207265398 0 0.0039816453600471351 0.00037686046043572386 0 0.0040099665615949322 0.00034743388835278621 0 0.004026551207138275 0.00038901077128204216 0 0.0040099665615949322 0.00034743388835278621 0 0.0040681335484597861 0.00040985963207265398 0 0.004026551207138275 0.00038901077128204216 0 0.0039593424709850611 0.00034844275839935083 0 0.0039816453600471351 0.00037686046043572386 0 0.0040099665615949322 0.00034743388835278621 0 0.0039593424709850611 0.00034844275839935083 0 0.0040099665615949322 0.00034743388835278621 0 0.0039694492757150609 0.0003190371447561773 0 0.0039694492757150609 0.0003190371447561773 0 0.0039994944265080191 0.00030468083633392241 0 0.0039719849509034233 0.00027131910499608529 0 0.0040099665615949322 0.00034743388835278621 0 0.0039694492757150609 0.0003190371447561773 0 0.0039994944265080191 0.00030468083633392241 0 0.0040099665615949322 0.00034743388835278621 0 0.0039994944265080191 0.00030468083633392241 0 0.0040481828902020935 0.00028155057346153026 0 0.003874752135138639 0.0002894021847266569 0 0.0039069347696073188 0.00029737964721462674 0 0.0038945580601996155 0.00027621222230550968 0 0.0039168564829718203 0.00027383348012885385 0 0.0040686641721869978 0.00011297180142496337 0 0.0039994944265080191 0.00030468083633392241 0 0.0039719849509034233 0.00027131910499608529 0 0.0040481828902020935 0.00028155057346153026 0 0.0041028194438554998 1.7702319432043114e-05 0 0.004296039800669533 -0.00016766266708951298 0 0.0039262197197309674 0.00013148140180361644 0 0.0039152734948295917 0.00013563100459251557 0 0.0039451285985070798 0.00013747812336776101 0 0.0043055091425896006 -0.00022902868954452905 0 0.0044019653638631374 -0.00011746822591673972 0 0.0042991319503580408 -7.5511428747152584e-05 0 0.0042835886179974454 -0.00019786594694719937 0 0.0043088489991425331 -0.00019225646340285108 0 0.0042991319503580408 -7.5511428747152584e-05 0 0.0039262197197309674 0.00013148140180361644 0 0.0039152734948295917 0.00013563100459251557 0 0.0039223990954138106 0.00012122034986735157 0 0.0039262197197309674 0.00013148140180361644 0 0.0039352152740123915 0.00013145868041803367 0 0.0039323959855171436 0.00012225192386667392 0 0.0040686641721869978 0.00011297180142496337 0 0.0041028194438554998 1.7702319432043114e-05 0 0.0043055091425896006 -0.00022902868954452905 0 0.0044019653638631374 -0.00011746822591673972 0 0.0044442905004495646 -0.00014593809178344112 0 0.0044019653638631374 -0.00011746822591673972 0 0.0042991319503580408 -7.5511428747152584e-05 0 0.0043988703770723291 -4.6678913924389119e-05 0 0.0040686641721869978 0.00011297180142496337 0 0.004190558611172476 0.00019952631520920195 0 0.0042835886179974454 -0.00019786594694719937 0 0.0042991319503580408 -7.5511428747152584e-05 0 0.0042781171380714004 1.2338589322907339e-05 0 0.0042991319503580408 -7.5511428747152584e-05 0 0.0043372797488521672 -1.8186190263488428e-05 0 0.0042781171380714004 1.2338589322907339e-05 0 0.0043372797488521672 -1.8186190263488428e-05 0 0.0043988703770723291 -4.6678913924389119e-05 0 0.0043767229562180808 3.8774624275299557e-05 0 0.0042991319503580408 -7.5511428747152584e-05 0 0.0043372797488521672 -1.8186190263488428e-05 0 0.0043988703770723291 -4.6678913924389119e-05 0 0.0043988703770723291 -4.6678913924389119e-05 0 0.0045046889236330457 -7.2772215204211575e-05 0 0.0044770941220695221 7.3647630210483052e-06 0 0.0045046889236330457 -7.2772215204211575e-05 0 0.0045851059542709434 2.5243311956817866e-05 0 0.0044770941220695221 7.3647630210483052e-06 0 0.0045046889236330457 -7.2772215204211575e-05 0 0.0045645875219435892 -0.00016597881863403667 0 0.0044442905004495646 -0.00014593809178344112 0 0.0044019653638631374 -0.00011746822591673972 0 0.0043988703770723291 -4.6678913924389119e-05 0 0.0045046889236330457 -7.2772215204211575e-05 0 0.0044019653638631374 -0.00011746822591673972 0 0.0045046889236330457 -7.2772215204211575e-05 0 0.0044442905004495646 -0.00014593809178344112 0 0.0046345998116119709 -5.4889922081514268e-05 0 0.0045645875219435892 -0.00016597881863403667 0 0.0047872724675479929 -6.1774734962837601e-05 0 0.0046345998116119709 -5.4889922081514268e-05 0 0.0045851059542709434 2.5243311956817866e-05 0 0.0047093709384237268 9.2701779471286926e-06 0 0.0045046889236330457 -7.2772215204211575e-05 0 0.0046345998116119709 -5.4889922081514268e-05 0 0.0045851059542709434 2.5243311956817866e-05 0 0.0045046889236330457 -7.2772215204211575e-05 0 0.0046345998116119709 -5.4889922081514268e-05 0 0.0045645875219435892 -0.00016597881863403667 0 0.0042638044107760559 -1.2819467275840807e-05 0 0.0044171430051211441 5.6869172466065714e-05 0 0.0039641319049797067 0.00015405373560097491 0 0.0039898312617909597 0.00013919996862213989 0 0.0040561458329993185 0.00017452451033034895 0 0.0039898312617909597 0.00013919996862213989 0 0.0039622711865462349 0.00013525077836816016 0 0.0039676512649576287 0.00012057875037866363 0 0.0039641319049797067 0.00015405373560097491 0 0.0039898312617909597 0.00013919996862213989 0 0.0039622711865462349 0.00013525077836816016 0 0.0043055091425896006 -0.00022902868954452905 0 0.0045645875219435892 -0.00016597881863403667 0 0.0044442905004495646 -0.00014593809178344112 0 0.0039152734948295917 0.00013563100459251557 0 0.0039641319049797067 0.00015405373560097491 0 0.0039451285985070798 0.00013747812336776101 0 0.0041028194438554998 1.7702319432043114e-05 0 0.0042638044107760559 -1.2819467275840807e-05 0 0.0039622711865462349 0.00013525077836816016 0 0.0039451285985070798 0.00013747812336776101 0 0.0039523962519750905 0.00012618068214661086 0 0.0039641319049797067 0.00015405373560097491 0 0.0039622711865462349 0.00013525077836816016 0 0.0039451285985070798 0.00013747812336776101 0 0.0039262197197309674 0.00013148140180361644 0 0.0039451285985070798 0.00013747812336776101 0 0.0039352152740123915 0.00013145868041803367 0 0.0039451285985070798 0.00013747812336776101 0 0.0039414322010304387 0.00012716061296804559 0 0.0039523962519750905 0.00012618068214661086 0 0.0039451285985070798 0.00013747812336776101 0 0.0039352152740123915 0.00013145868041803367 0 0.0039414322010304387 0.00012716061296804559 0 0.0039427463630147446 0.00011829884277464377 0 0.0039414322010304387 0.00012716061296804559 0 0.0039323959855171436 0.00012225192386667392 0 0.0039352152740123915 0.00013145868041803367 0 0.0039414322010304387 0.00012716061296804559 0 0.0039323959855171436 0.00012225192386667392 0 0.0039427463630147446 0.00011829884277464377 0 0.0039341853598764808 0.0001113025002500415 0 0.0039323959855171436 0.00012225192386667392 0 0.0039427463630147446 0.00011829884277464377 0 0.0039414322010304387 0.00012716061296804559 0 0.0039523962519750905 0.00012618068214661086 0 0.0039622711865462349 0.00013525077836816016 0 0.0039523962519750905 0.00012618068214661086 0 0.0039676512649576287 0.00012057875037866363 0 0.0039523962519750905 0.00012618068214661086 0 0.0039546039022509537 0.00011241025724322035 0 0.0039676512649576287 0.00012057875037866363 0 0.0039427463630147446 0.00011829884277464377 0 0.0039523962519750905 0.00012618068214661086 0 0.0039546039022509537 0.00011241025724322035 0 0.0039427463630147446 0.00011829884277464377 0 0.0039546039022509537 0.00011241025724322035 0 0.0039443996285074955 0.00010683310531602131 0 0.0039546039022509537 0.00011241025724322035 0 0.0039443996285074955 0.00010683310531602131 0 0.0039536532041568231 0.00010046621167837617 0 0.0039443996285074955 0.00010683310531602131 0 0.0039423692486265736 9.6774909126397785e-05 0 0.0039536532041568231 0.00010046621167837617 0 0.0039443996285074955 0.00010683310531602131 0 0.0039353478968355716 0.00010213457599520921 0 0.0039423692486265736 9.6774909126397785e-05 0 0.0039443996285074955 0.00010683310531602131 0 0.0039353478968355716 0.00010213457599520921 0 0.0039341853598764808 0.0001113025002500415 0 0.0039427463630147446 0.00011829884277464377 0 0.0039443996285074955 0.00010683310531602131 0 0.0039341853598764808 0.0001113025002500415 0 0.0039898312617909597 0.00013919996862213989 0 0.0040063761454811296 9.0625798434633995e-05 0 0.0040354236409490974 0.00012106389243705195 0 0.0039898312617909597 0.00013919996862213989 0 0.0039676512649576287 0.00012057875037866363 0 0.003978096936748928 0.00010936724997926022 0 0.0039879101458111833 0.00013772684272154927 0 0.0039935637202931518 9.5752943265167242e-05 0 0.0039546039022509537 0.00011241025724322035 0 0.0039676512649576287 0.00012057875037866363 0 0.0039639348610066094 0.00010747591065291973 0 0.0039639348610066094 0.00010747591065291973 0 0.0039641997469702893 9.6547139147202979e-05 0 0.0039536532041568231 0.00010046621167837617 0 0.0039676512649576287 0.00012057875037866363 0 0.0039639348610066094 0.00010747591065291973 0 0.003978096936748928 0.00010936724997926022 0 0.0039546039022509537 0.00011241025724322035 0 0.0039639348610066094 0.00010747591065291973 0 0.0039536532041568231 0.00010046621167837617 0 0.0039639348610066094 0.00010747591065291973 0 0.003978096936748928 0.00010936724997926022 0 0.0039641997469702893 9.6547139147202979e-05 0 0.0039935637202931518 9.5752943265167242e-05 0 0.003976922618001498 0.00010036244364770005 0 0.003978096936748928 0.00010936724997926022 0 0.0039641997469702893 9.6547139147202979e-05 0 0.0039772426562126977 8.4214396965975191e-05 0 0.0039641997469702893 9.6547139147202979e-05 0 0.0039595225620497878 8.4755805603209329e-05 0 0.0039772426562126977 8.4214396965975191e-05 0 0.0039641997469702893 9.6547139147202979e-05 0 0.0039550355465702144 9.0885536278399504e-05 0 0.0039536532041568231 0.00010046621167837617 0 0.0039641997469702893 9.6547139147202979e-05 0 0.0039550355465702144 9.0885536278399504e-05 0 0.0039595225620497878 8.4755805603209329e-05 0 0.0039550355465702144 9.0885536278399504e-05 0 0.0039504672982621095 8.3862746266152841e-05 0 0.0039595225620497878 8.4755805603209329e-05 0 0.0039504672982621095 8.3862746266152841e-05 0 0.0039551573456120537 8.0967158064735616e-05 0 0.0039595225620497878 8.4755805603209329e-05 0 0.0039624214166235731 9.2460824489551657e-05 0 0.003976922618001498 0.00010036244364770005 0 0.0039551573456120537 8.0967158064735616e-05 0 0.0039595225620497878 8.4755805603209329e-05 0 0.003959604145962508 8.3694842056890621e-05 0 0.0039346640850265813 9.4294744012572243e-05 0 0.0039423692486265736 9.6774909126397785e-05 0 0.0039391750830163547 8.807586026490506e-05 0 0.0039353478968355716 0.00010213457599520921 0 0.0039346640850265813 9.4294744012572243e-05 0 0.0039423692486265736 9.6774909126397785e-05 0 0.0039353478968355716 0.00010213457599520921 0 0.0039346640850265813 9.4294744012572243e-05 0 0.0039295672646696474 9.913069109664433e-05 0 0.0039550355465702144 9.0885536278399504e-05 0 0.0039536532041568231 0.00010046621167837617 0 0.0039470211212409533 8.9674582994308993e-05 0 0.0039423692486265736 9.6774909126397785e-05 0 0.0039536532041568231 0.00010046621167837617 0 0.0039470211212409533 8.9674582994308993e-05 0 0.0039423692486265736 9.6774909126397785e-05 0 0.0039470211212409533 8.9674582994308993e-05 0 0.0039391750830163547 8.807586026490506e-05 0 0.0039421423032408275 8.144072622581369e-05 0 0.0039470211212409533 8.9674582994308993e-05 0 0.0039391750830163547 8.807586026490506e-05 0 0.0039421423032408275 8.144072622581369e-05 0 0.0039504672982621095 8.3862746266152841e-05 0 0.0039470211212409533 8.9674582994308993e-05 0 0.0039550355465702144 9.0885536278399504e-05 0 0.0039504672982621095 8.3862746266152841e-05 0 0.0039470211212409533 8.9674582994308993e-05 0 0.0039362064470465146 8.0774591192126391e-05 0 0.0039421423032408275 8.144072622581369e-05 0 0.0039391750830163547 8.807586026490506e-05 0 0.0039346640850265813 9.4294744012572243e-05 0 0.0039391750830163547 8.807586026490506e-05 0 0.0039327924105710347 8.7175879985372471e-05 0 0.0039362064470465146 8.0774591192126391e-05 0 0.0039391750830163547 8.807586026490506e-05 0 0.0039327924105710347 8.7175879985372471e-05 0 0.0039362064470465146 8.0774591192126391e-05 0 0.0039305295983184298 8.1035130361255982e-05 0 0.0039327924105710347 8.7175879985372471e-05 0 0.0039320041332734845 0.0001482158051560776 0 0.0039317895559009605 0.00015600809053570265 0 0.0039322199238648117 0.00015585405980366159 0 0.0039195462379623186 0.00016262286719139 0 0.0039103670003732965 0.00022603829641190174 0 0.0039320041332734845 0.0001482158051560776 0 0.0039262072190815525 0.00014748348500495675 0 0.0039317895559009605 0.00015600809053570265 0 0.0039305295983184298 8.1035130361255982e-05 0 0.0039274215555074928 8.7634481267453239e-05 0 0.0039327924105710347 8.7175879985372471e-05 0 0.0039292169468234817 0.00010520548264547942 0 0.0039135597222303498 0.00015537864362611461 0 0.0039249845921736958 7.6319795699743344e-05 0 0.0039274215555074928 8.7634481267453239e-05 0 0.0039197231959148173 0.0001010944453752256 0 0.0039274215555074928 8.7634481267453239e-05 0 0.0039327924105710347 8.7175879985372471e-05 0 0.0039286071626493928 9.3113241838564231e-05 0 0.0039346640850265813 9.4294744012572243e-05 0 0.0039286071626493928 9.3113241838564231e-05 0 0.0039295672646696474 9.913069109664433e-05 0 0.0039274215555074928 8.7634481267453239e-05 0 0.0039286071626493928 9.3113241838564231e-05 0 0.0039197231959148173 0.0001010944453752256 0 0.0039346640850265813 9.4294744012572243e-05 0 0.0039327924105710347 8.7175879985372471e-05 0 0.0039286071626493928 9.3113241838564231e-05 0 0.0039286071626493928 9.3113241838564231e-05 0 0.0039295672646696474 9.913069109664433e-05 0 0.0039197231959148173 0.0001010944453752256 0 0.0039126419404648316 0.00019205337105952043 0 0.0039083710524281251 0.00025389411852213211 0 0.00388856658549435 0.0002137530473595571 0 0.00388856658549435 0.0002137530473595571 0 0.0038782642829361981 0.0002256473116968736 0 0.0038879074761834797 0.00024200300279132223 0 0.0038655254555242935 0.00023886151396660844 0 0.0038782642829361981 0.0002256473116968736 0 0.0038879074761834797 0.00024200300279132223 0 0.0038632719563686498 0.00021279534841065132 0 0.0038655254555242935 0.00023886151396660844 0 0.0038782642829361981 0.0002256473116968736 0 0.0038632719563686498 0.00021279534841065132 0 0.00388856658549435 0.0002137530473595571 0 0.0038782642829361981 0.0002256473116968736 0 0.0038879074761834797 0.00024200300279132223 0 0.0038891597319613575 0.00026129182042842575 0 0.0038763260068443032 0.00025695273422106715 0 0.0038655254555242935 0.00023886151396660844 0 0.0038879074761834797 0.00024200300279132223 0 0.0038763260068443032 0.00025695273422106715 0 0.0039083710524281251 0.00025389411852213211 0 0.0038879074761834797 0.00024200300279132223 0 0.0038891597319613575 0.00026129182042842575 0 0.0039083710524281251 0.00025389411852213211 0 0.00388856658549435 0.0002137530473595571 0 0.0038879074761834797 0.00024200300279132223 0 0.0039069347696073188 0.00029737964721462674 0 0.0039083710524281251 0.00025389411852213211 0 0.0038945580601996155 0.00027621222230550968 0 0.0039083710524281251 0.00025389411852213211 0 0.0038891597319613575 0.00026129182042842575 0 0.0038945580601996155 0.00027621222230550968 0 0.0038891597319613575 0.00026129182042842575 0 0.0038763260068443032 0.00025695273422106715 0 0.0038788657224833318 0.00027424912913936864 0 0.0038891597319613575 0.00026129182042842575 0 0.0038788657224833318 0.00027424912913936864 0 0.0038945580601996155 0.00027621222230550968 0 0.003874752135138639 0.0002894021847266569 0 0.0038788657224833318 0.00027424912913936864 0 0.0038945580601996155 0.00027621222230550968 0 0.0038664579389109002 0.00028026312668620194 0 0.003874752135138639 0.0002894021847266569 0 0.0038788657224833318 0.00027424912913936864 0 0.0040686641721869978 0.00011297180142496337 0 0.0039103670003732965 0.00022603829641190174 0 0.0039152734948295917 0.00013563100459251557 0 0.0039197231959148173 0.0001010944453752256 0 0.0039223990954138106 0.00012122034986735157 0 0.003935996287242464 0.00015001598833148542 0 0.0039351273658984401 0.00014966203105049272 0 0.0039322199238648117 0.00015585405980366159 0 0.003935996287242464 0.00015001598833148542 0 0.0039317895559009605 0.00015600809053570265 0 0.0039322199238648117 0.00015585405980366159 0 0.0041028194438554998 1.7702319432043114e-05 0 0.0039135597222303498 0.00015537864362611461 0 0.0039262197197309674 0.00013148140180361644 0 0.0039223990954138106 0.00012122034986735157 0 0.0039323959855171436 0.00012225192386667392 0 0.0039341853598764808 0.0001113025002500415 0 0.0039323959855171436 0.00012225192386667392 0 0.0039259658341179874 0.00011320977279867688 0 0.0039223990954138106 0.00012122034986735157 0 0.0039323959855171436 0.00012225192386667392 0 0.0039259658341179874 0.00011320977279867688 0 0.0039197231959148173 0.0001010944453752256 0 0.0039223990954138106 0.00012122034986735157 0 0.0039259658341179874 0.00011320977279867688 0 0.0039341853598764808 0.0001113025002500415 0 0.0039259658341179874 0.00011320977279867688 0 0.0039281887788575141 0.00010509974546262638 0 0.0039353478968355716 0.00010213457599520921 0 0.0039341853598764808 0.0001113025002500415 0 0.0039281887788575141 0.00010509974546262638 0 0.0039353478968355716 0.00010213457599520921 0 0.0039295672646696474 9.913069109664433e-05 0 0.0039281887788575141 0.00010509974546262638 0 0.0039295672646696474 9.913069109664433e-05 0 0.0039197231959148173 0.0001010944453752256 0 0.0039281887788575141 0.00010509974546262638 0 0.0039197231959148173 0.0001010944453752256 0 0.0039259658341179874 0.00011320977279867688 0 0.0039281887788575141 0.00010509974546262638 0 0.0034203870778275439 0.00021188760751097857 0 0.0033884724507206782 0.00018973126402698788 0 0.0034146246253975543 0.00017886597087515886 0 0.0034203870778275439 0.00021188760751097857 0 0.0033884724507206782 0.00018973126402698788 0 0.003396171443252115 0.0002292756152013694 0 0.0033503786184930135 0.0002163278640595097 0 0.0033884724507206782 0.00018973126402698788 0 0.003396171443252115 0.0002292756152013694 0 0.0033763202885020377 0.00025348266777309851 0 0.0033503786184930135 0.0002163278640595097 0 0.003396171443252115 0.0002292756152013694 0 0.0034203870778275439 0.00021188760751097857 0 0.003396171443252115 0.0002292756152013694 0 0.0034275899578989945 0.00024474031736926424 0 0.0034203870778275439 0.00021188760751097857 0 0.0034458860407873483 0.00022253927146870166 0 0.0034275899578989945 0.00024474031736926424 0 0.0034458860407873483 0.00022253927146870166 0 0.0034525997854679426 0.00025093463051449496 0 0.0034275899578989945 0.00024474031736926424 0 0.0034458860407873483 0.00022253927146870166 0 0.0034754302360789865 0.00022691315250774265 0 0.0034525997854679426 0.00025093463051449496 0 0.0034458860407873483 0.00022253927146870166 0 0.0034617485845602463 0.00020167931665552335 0 0.0034754302360789865 0.00022691315250774265 0 0.0034458860407873483 0.00022253927146870166 0 0.0034617485845602463 0.00020167931665552335 0 0.0034403699590032006 0.00019260547091125209 0 0.0034617485845602463 0.00020167931665552335 0 0.0034403699590032006 0.00019260547091125209 0 0.003461442864190875 0.00017339206319119029 0 0.0034203870778275439 0.00021188760751097857 0 0.0034458860407873483 0.00022253927146870166 0 0.0034403699590032006 0.00019260547091125209 0 0.0034203870778275439 0.00021188760751097857 0 0.0034403699590032006 0.00019260547091125209 0 0.0034146246253975543 0.00017886597087515886 0 0.0034403699590032006 0.00019260547091125209 0 0.0034298292533388921 0.00015306910533297591 0 0.0034146246253975543 0.00017886597087515886 0 0.0034403699590032006 0.00019260547091125209 0 0.003461442864190875 0.00017339206319119029 0 0.0034298292533388921 0.00015306910533297591 0 0.003461442864190875 0.00017339206319119029 0 0.0034569726399716312 0.00014205497709990827 0 0.0034298292533388921 0.00015306910533297591 0 0.0034569726399716312 0.00014205497709990827 0 0.0034298292533388921 0.00015306910533297591 0 0.0034319533822809059 0.00011327802327808563 0 0.0034298292533388921 0.00015306910533297591 0 0.0033902642980198163 0.00014609634161864886 0 0.0034072775555371413 0.00012057408100396765 0 0.0033884724507206782 0.00018973126402698788 0 0.0034146246253975543 0.00017886597087515886 0 0.0033902642980198163 0.00014609634161864886 0 0.0034298292533388921 0.00015306910533297591 0 0.0034146246253975543 0.00017886597087515886 0 0.0033902642980198163 0.00014609634161864886 0 0.0033539595933491217 0.00016480131755359408 0 0.0033884724507206782 0.00018973126402698788 0 0.0033902642980198163 0.00014609634161864886 0 0.0033452780517372474 0.00011420014695420285 0 0.0033902642980198163 0.00014609634161864886 0 0.0033805550992318349 0.00010526327133515423 0 0.0033902642980198163 0.00014609634161864886 0 0.0033805550992318349 0.00010526327133515423 0 0.0034072775555371413 0.00012057408100396765 0 0.0033639348078893846 6.5545573163162111e-05 0 0.0034013388708936886 9.2883532732652939e-05 0 0.0034223670437112459 6.6187826024888377e-05 0 0.0034072775555371413 0.00012057408100396765 0 0.0034013388708936886 9.2883532732652939e-05 0 0.0034319533822809059 0.00011327802327808563 0 0.0033805550992318349 0.00010526327133515423 0 0.0034072775555371413 0.00012057408100396765 0 0.0034013388708936886 9.2883532732652939e-05 0 0.0033639348078893846 6.5545573163162111e-05 0 0.0033805550992318349 0.00010526327133515423 0 0.0034013388708936886 9.2883532732652939e-05 0 0.0031507685110056445 -7.3280462488550756e-05 0 0.0032289739527326593 -2.866767123779434e-05 0 0.0033493242429946603 -5.4658320877456181e-05 0 0.003389230156036498 -1.7352719048273285e-06 0 0.0034908252781151545 -4.339148756077198e-05 0 0.0029520112743922321 -8.4483711503505172e-05 0 0.0029626312768581244 -9.1724510903806855e-05 0 0.0029743839783165863 -7.9552668172022716e-05 0 0.0029786928131065511 -9.0409365265391943e-05 0 0.0029626312768581244 -9.1724510903806855e-05 0 0.0029743839783165863 -7.9552668172022716e-05 0 0.0034072846352681679 2.2756837675724186e-05 0 0.0032289739527326593 -2.866767123779434e-05 0 0.0032289739527326593 -2.866767123779434e-05 0 0.0032715107863598627 2.0490215453379769e-05 0 0.0034223670437112459 6.6187826024888377e-05 0 0.0034686062754295966 0.00011385151141105038 0 0.0034881637893990815 8.9065356236288042e-05 0 0.0032289739527326593 -2.866767123779434e-05 0 0.0029892171307458332 -6.1028027977445907e-05 0 0.0029786928131065511 -9.0409365265391943e-05 0 0.0029743839783165863 -7.9552668172022716e-05 0 0.0029936216939544348 -8.167846330594748e-05 0 0.0034223670437112459 6.6187826024888377e-05 0 0.0034319533822809059 0.00011327802327808563 0 0.0034686062754295966 0.00011385151141105038 0 0.0034013388708936886 9.2883532732652939e-05 0 0.0034223670437112459 6.6187826024888377e-05 0 0.0034319533822809059 0.00011327802327808563 0 0.0034298292533388921 0.00015306910533297591 0 0.0034072775555371413 0.00012057408100396765 0 0.0034319533822809059 0.00011327802327808563 0 0.0034569726399716312 0.00014205497709990827 0 0.0034319533822809059 0.00011327802327808563 0 0.0034686062754295966 0.00011385151141105038 0 0.0034569726399716312 0.00014205497709990827 0 0.0034686062754295966 0.00011385151141105038 0 0.0034828556845828309 0.0001550909554675123 0 0.0034996080512080152 0.00013457264655607827 0 0.0034920681311622968 0.0001132296290004315 0 0.0034686062754295966 0.00011385151141105038 0 0.0034996080512080152 0.00013457264655607827 0 0.0034686062754295966 0.00011385151141105038 0 0.0034828556845828309 0.0001550909554675123 0 0.0034920681311622968 0.0001132296290004315 0 0.0034881637893990815 8.9065356236288042e-05 0 0.0035139129698474668 0.00011820299072168948 0 0.0034920681311622968 0.0001132296290004315 0 0.0034686062754295966 0.00011385151141105038 0 0.0034881637893990815 8.9065356236288042e-05 0 0.0030531983112247092 -6.3595788226670136e-05 0 0.0030517886017654089 -5.4890145787932939e-05 0 0.0030527648966921931 -5.4957620260695394e-05 0 0.0030621346956596772 -5.7647877157133995e-05 0 0.0030517886017654089 -5.4890145787932939e-05 0 0.0030527648966921931 -5.4957620260695394e-05 0 0.0034881637893990815 8.9065356236288042e-05 0 0.0035139129698474668 0.00011820299072168948 0 0.0035385622692933882 0.00011143106502045232 0 0.0030531983112247092 -6.3595788226670136e-05 0 0.0030517886017654089 -5.4890145787932939e-05 0 0.0030633010660865482 -4.7585798016145656e-05 0 0.0032715107863598627 2.0490215453379769e-05 0 0.0033021673549241477 3.1682062893818808e-05 0 0.0035139129698474668 0.00011820299072168948 0 0.0035304885330806239 0.00013870685574733497 0 0.0035385622692933882 0.00011143106502045232 0 0.0034996080512080152 0.00013457264655607827 0 0.0034920681311622968 0.0001132296290004315 0 0.0035139129698474668 0.00011820299072168948 0 0.0034996080512080152 0.00013457264655607827 0 0.0035139129698474668 0.00011820299072168948 0 0.0035304885330806239 0.00013870685574733497 0 0.0034996080512080152 0.00013457264655607827 0 0.0035304885330806239 0.00013870685574733497 0 0.0035187053172190869 0.00017313930666247907 0 0.0034996080512080152 0.00013457264655607827 0 0.0035187053172190869 0.00017313930666247907 0 0.0034828556845828309 0.0001550909554675123 0 0.003461442864190875 0.00017339206319119029 0 0.0034569726399716312 0.00014205497709990827 0 0.0034828556845828309 0.0001550909554675123 0 0.003461442864190875 0.00017339206319119029 0 0.0034828556845828309 0.0001550909554675123 0 0.0034861913197697216 0.00019097489900996644 0 0.0035187053172190869 0.00017313930666247907 0 0.0034828556845828309 0.0001550909554675123 0 0.0034861913197697216 0.00019097489900996644 0 0.0034617485845602463 0.00020167931665552335 0 0.0034861913197697216 0.00019097489900996644 0 0.0034754302360789865 0.00022691315250774265 0 0.0034617485845602463 0.00020167931665552335 0 0.003461442864190875 0.00017339206319119029 0 0.0034861913197697216 0.00019097489900996644 0 0.0034861913197697216 0.00019097489900996644 0 0.0034754302360789865 0.00022691315250774265 0 0.0035075471675292524 0.00021422905985017185 0 0.0034754302360789865 0.00022691315250774265 0 0.0035075471675292524 0.00021422905985017185 0 0.0034978464689114394 0.00025214193446291986 0 0.0035187053172190869 0.00017313930666247907 0 0.0035317329173873767 0.00020852553072068576 0 0.0035521502625327707 0.00018687428039913846 0 0.0035075471675292524 0.00021422905985017185 0 0.0035317329173873767 0.00020852553072068576 0 0.0035326315242854198 0.00024422479086898762 0 0.0035187053172190869 0.00017313930666247907 0 0.0035075471675292524 0.00021422905985017185 0 0.0035317329173873767 0.00020852553072068576 0 0.0035187053172190869 0.00017313930666247907 0 0.0034861913197697216 0.00019097489900996644 0 0.0035075471675292524 0.00021422905985017185 0 0.0035317329173873767 0.00020852553072068576 0 0.0035521502625327707 0.00018687428039913846 0 0.0035600932976152825 0.00022531767713955872 0 0.0035521502625327707 0.00018687428039913846 0 0.0035869212269378698 0.00017899750357490069 0 0.0035600932976152825 0.00022531767713955872 0 0.0035869212269378698 0.00017899750357490069 0 0.0035972327622425292 0.00023917647657928796 0 0.0035600932976152825 0.00022531767713955872 0 0.0035869212269378698 0.00017899750357490069 0 0.0035751769882811854 0.0001521704238764922 0 0.0035570418231775335 0.00015125111180892012 0 0.0035521502625327707 0.00018687428039913846 0 0.0035869212269378698 0.00017899750357490069 0 0.0035570418231775335 0.00015125111180892012 0 0.0035187053172190869 0.00017313930666247907 0 0.0035521502625327707 0.00018687428039913846 0 0.0035570418231775335 0.00015125111180892012 0 0.0035304885330806239 0.00013870685574733497 0 0.0035187053172190869 0.00017313930666247907 0 0.0035570418231775335 0.00015125111180892012 0 0.0035570418231775335 0.00015125111180892012 0 0.0035385622692933882 0.00011143106502045232 0 0.003570476889036109 0.00012736466235947514 0 0.0035304885330806239 0.00013870685574733497 0 0.0035570418231775335 0.00015125111180892012 0 0.0035385622692933882 0.00011143106502045232 0 0.0030531983112247092 -6.3595788226670136e-05 0 0.0030633010660865482 -4.7585798016145656e-05 0 0.0030773947147013214 -5.888240109099864e-05 0 0.0033021673549241477 3.1682062893818808e-05 0 0.0033247086358240102 4.3429216495325241e-05 0 0.0030633010660865482 -4.7585798016145656e-05 0 0.0030773947147013214 -5.888240109099864e-05 0 0.0030997439034287626 -3.6215728392574234e-05 0 0.0030949266127190387 -7.3652171435289771e-05 0 0.0030773947147013214 -5.888240109099864e-05 0 0.0030997439034287626 -3.6215728392574234e-05 0 0.0030949266127190387 -7.3652171435289771e-05 0 0.0031170646020948606 -6.4298067766878656e-05 0 0.0030997439034287626 -3.6215728392574234e-05 0 0.0035751769882811854 0.0001521704238764922 0 0.0035570418231775335 0.00015125111180892012 0 0.003570476889036109 0.00012736466235947514 0 0.0035751769882811854 0.0001521704238764922 0 0.003570476889036109 0.00012736466235947514 0 0.0035745070592620039 0.00013947667278030803 0 0.003570476889036109 0.00012736466235947514 0 0.0035745070592620039 0.00013947667278030803 0 0.0035720785346349624 0.00014101544431436129 0 0.0035745070592620039 0.00013947667278030803 0 0.0035716853439229264 0.00013739039182832419 0 0.0035761359058281757 0.0001474020145463815 0 0.0035745070592620039 0.00013947667278030803 0 0.0035720785346349624 0.00014101544431436129 0 0.0035716853439229264 0.00013739039182832419 0 0.0030997439034287626 -3.6215728392574234e-05 0 0.0031256756132760685 -4.9367975218652344e-05 0 0.0031503492725357125 -3.0990245440395614e-05 0 0.0031170646020948606 -6.4298067766878656e-05 0 0.0030997439034287626 -3.6215728392574234e-05 0 0.0031256756132760685 -4.9367975218652344e-05 0 0.0031357178455440385 -7.6899953860659604e-05 0 0.003132051442741958 -5.5493794250968135e-05 0 0.0031503492725357125 -3.0990245440395614e-05 0 0.0033247086358240102 4.3429216495325241e-05 0 0.0034067775169524016 7.1274407809132759e-05 0 0.0031256756132760685 -4.9367975218652344e-05 0 0.003132051442741958 -5.5493794250968135e-05 0 0.0031503492725357125 -3.0990245440395614e-05 0 0.0031170646020948606 -6.4298067766878656e-05 0 0.0031256756132760685 -4.9367975218652344e-05 0 0.003132051442741958 -5.5493794250968135e-05 0 0.0033029017647445763 -0.00011368862993272686 0 0.0033948423256812423 -3.1899270059089478e-05 0 0.0034264142811464026 8.2192128580501229e-05 0 0.003205874854462199 -0.00010931335761113026 0 0.0034067775169524016 7.1274407809132759e-05 0 0.0034817918754640061 -2.1346188763382301e-05 0 0.0033948423256812423 -3.1899270059089478e-05 0 0.003435895285724 1.6048654141505207e-05 0 0.0034817918754640061 -2.1346188763382301e-05 0 0.003435895285724 1.6048654141505207e-05 0 0.0035032894392906131 3.441189903574981e-05 0 0.0033948423256812423 -3.1899270059089478e-05 0 0.003435895285724 1.6048654141505207e-05 0 0.0034264142811464026 8.2192128580501229e-05 0 0.003435895285724 1.6048654141505207e-05 0 0.0034264142811464026 8.2192128580501229e-05 0 0.003469291952972142 5.0782354579820776e-05 0 0.0034264142811464026 8.2192128580501229e-05 0 0.0034969111236764117 7.622242765265724e-05 0 0.003469291952972142 5.0782354579820776e-05 0 0.0034067775169524016 7.1274407809132759e-05 0 0.0034519219850998816 7.3528356425875527e-05 0 0.0035515925942855233 6.9665526097311106e-05 0 0.0034969111236764117 7.622242765265724e-05 0 0.0035032894392906131 3.441189903574981e-05 0 0.003435895285724 1.6048654141505207e-05 0 0.003469291952972142 5.0782354579820776e-05 0 0.0035032894392906131 3.441189903574981e-05 0 0.0034969111236764117 7.622242765265724e-05 0 0.003469291952972142 5.0782354579820776e-05 0 0.0035032894392906131 3.441189903574981e-05 0 0.0035515925942855233 6.9665526097311106e-05 0 0.0034969111236764117 7.622242765265724e-05 0 0.0035626515850523191 0.00010855329570150278 0 0.0034969111236764117 7.622242765265724e-05 0 0.0035626515850523191 0.00010855329570150278 0 0.0035613037646693097 0.00013052777145545124 0 0.0034813306618991452 7.5839537442823525e-05 0 0.0034969111236764117 7.622242765265724e-05 0 0.0035613037646693097 0.00013052777145545124 0 0.0035720785346349624 0.00014101544431436129 0 0.0035716853439229264 0.00013739039182832419 0 0.0035613037646693097 0.00013052777145545124 0 0.0034067775169524016 7.1274407809132759e-05 0 0.0035365390827091108 0.00014194270434004543 0 0.0035716853439229264 0.00013739039182832419 0 0.0035613037646693097 0.00013052777145545124 0 0.0035761359058281757 0.0001474020145463815 0 0.0035919754722936814 0.00014416377647862141 0 0.0035626515850523191 0.00010855329570150278 0 0.0035613037646693097 0.00013052777145545124 0 0.0035919754722936814 0.00014416377647862141 0 0.0035761359058281757 0.0001474020145463815 0 0.0035909220857239851 0.00016873541037063997 0 0.0035919754722936814 0.00014416377647862141 0 0.0035613037646693097 0.00013052777145545124 0 0.0035761359058281757 0.0001474020145463815 0 0.0035919754722936814 0.00014416377647862141 0 0.0036191979897913311 0.00018350045309282792 0 0.0035909220857239851 0.00016873541037063997 0 0.0035869212269378698 0.00017899750357490069 0 0.0035751769882811854 0.0001521704238764922 0 0.0035761359058281757 0.0001474020145463815 0 0.0035869212269378698 0.00017899750357490069 0 0.0035761359058281757 0.0001474020145463815 0 0.0035909220857239851 0.00016873541037063997 0 0.0035751769882811854 0.0001521704238764922 0 0.0035745070592620039 0.00013947667278030803 0 0.0035761359058281757 0.0001474020145463815 0 0.0035869212269378698 0.00017899750357490069 0 0.0035930504928207711 0.00018863615193612831 0 0.0035934514070213763 0.00021336098400817369 0 0.0035869212269378698 0.00017899750357490069 0 0.0035930504928207711 0.00018863615193612831 0 0.0035909220857239851 0.00016873541037063997 0 0.0035916541887144123 0.00018173912589516765 0 0.0036525241301788125 0.00021734972016637199 0 0.0036191979897913311 0.00018350045309282792 0 0.0035930504928207711 0.00018863615193612831 0 0.0035934514070213763 0.00021336098400817369 0 0.0036191979897913311 0.00018350045309282792 0 0.0035930504928207711 0.00018863615193612831 0 0.0035909220857239851 0.00016873541037063997 0 0.0036984405275145497 0.00025172395695323061 0 0.0036685898173307932 0.00024402950014422415 0 0.0036890383838321214 0.00027409545651952078 0 0.0036984405275145497 0.00025172395695323061 0 0.0037094480365603339 0.00021919595998865101 0 0.0036685898173307932 0.00024402950014422415 0 0.0036984405275145497 0.00025172395695323061 0 0.0037094480365603339 0.00021919595998865101 0 0.0037266858703428225 0.00026675716048720388 0 0.0035869212269378698 0.00017899750357490069 0 0.0037094480365603339 0.00021919595998865101 0 0.0036685898173307932 0.00024402950014422415 0 0.0036685898173307932 0.00024402950014422415 0 0.003626582619431243 0.00027822395357038023 0 0.0035972327622425292 0.00023917647657928796 0 0.0035869212269378698 0.00017899750357490069 0 0.0036685898173307932 0.00024402950014422415 0 0.0035972327622425292 0.00023917647657928796 0 0.0036685898173307932 0.00024402950014422415 0 0.003626582619431243 0.00027822395357038023 0 0.0036650720540015477 0.00031542240717829449 0 0.0036707155116865171 0.00025551496351400066 0 0.0036653049832789789 0.00028868287382017096 0 0.0036685898173307932 0.00024402950014422415 0 0.0036810096544665424 0.00030139850432737915 0 0.0036890383838321214 0.00027409545651952078 0 0.003626582619431243 0.00027822395357038023 0 0.0036622709299658786 0.00031525953982061076 0 0.0036650720540015477 0.00031542240717829449 0 0.0036810096544665424 0.00030139850432737915 0 0.0036954510402215598 0.00029393578726021432 0 0.0037010040038691345 0.00030655269394389191 0 0.0036810096544665424 0.00030139850432737915 0 0.0036954510402215598 0.00029393578726021432 0 0.0036890383838321214 0.00027409545651952078 0 0.0036954510402215598 0.00029393578726021432 0 0.0037114709473231415 0.00029345231480987823 0 0.0037010040038691345 0.00030655269394389191 0 0.0036954510402215598 0.00029393578726021432 0 0.0036890383838321214 0.00027409545651952078 0 0.0037114709473231415 0.00029345231480987823 0 0.0036984405275145497 0.00025172395695323061 0 0.0036890383838321214 0.00027409545651952078 0 0.0037266858703428225 0.00026675716048720388 0 0.0036890383838321214 0.00027409545651952078 0 0.0037266858703428225 0.00026675716048720388 0 0.0037114709473231415 0.00029345231480987823 0 0.00375187242342832 0.00029235911799581701 0 0.0037114709473231415 0.00029345231480987823 0 0.0037254598343990585 0.00031704894735496943 0 0.00375187242342832 0.00029235911799581701 0 0.0037266858703428225 0.00026675716048720388 0 0.0037114709473231415 0.00029345231480987823 0 0.0037114709473231415 0.00029345231480987823 0 0.0037254598343990585 0.00031704894735496943 0 0.0037010040038691345 0.00030655269394389191 0 0.0036978201966800226 0.00033137058717952451 0 0.0037341148433966158 0.00036311642723620027 0 0.0036809089602131942 0.00036160040413611645 0 0.0036810096544665424 0.00030139850432737915 0 0.0037010040038691345 0.00030655269394389191 0 0.0036978201966800226 0.00033137058717952451 0 0.0037254598343990585 0.00031704894735496943 0 0.0037010040038691345 0.00030655269394389191 0 0.0036978201966800226 0.00033137058717952451 0 0.0037254598343990585 0.00031704894735496943 0 0.0036978201966800226 0.00033137058717952451 0 0.0037341148433966158 0.00036311642723620027 0 0.003718810791376718 0.00036244964985543057 0 0.0038317691315741744 0.00040759027050152064 0 0.0037061048982952498 0.00036426364234867385 0 0.0037051682801861434 0.0004138977325192855 0 0.0037380698225859925 0.00040027940170974367 0 0.0037498349180060116 0.00036443021921947049 0 0.0037061048982952498 0.00036426364234867385 0 0.0037380698225859925 0.00040027940170974367 0 0.003664094153238305 0.00028831137373309089 0 0.0036852113272062355 0.00029667458631220769 0 0.003708800505090972 0.00028814873113570212 0 0.0038317691315741744 0.00040759027050152064 0 0.003958451163441427 0.00039877321574751274 0 0.0042088704519077516 0.00048157589045567424 0 0.0043019051642962059 0.0004249978817500324 0 0.0044012345733775386 0.00048727347323048939 0 0.0038317691315741744 0.00040759027050152064 0 0.0041204108082044761 0.00024313266721279301 0 0.0042088704519077516 0.00048157589045567424 0 0.0043019051642962059 0.0004249978817500324 0 0.0042145364984832751 0.00034695279565652296 0 0.0036622709299658786 0.00031525953982061076 0 0.003664094153238305 0.00028831137373309089 0 0.0036852113272062355 0.00029667458631220769 0 0.0036653049832789789 0.00028868287382017096 0 0.0038317691315741744 0.00040759027050152064 0 0.0036074261924809235 0.00031956453574282835 0 0.0038001143469370479 0.00036081837721514833 0 0.0036810096544665424 0.00030139850432737915 0 0.0036978201966800226 0.00033137058717952451 0 0.0036809089602131942 0.00036160040413611645 0 0.0036622709299658786 0.00031525953982061076 0 0.0036852113272062355 0.00029667458631220769 0 0.0037059067245696141 0.00029425311274558128 0 0.003626582619431243 0.00027822395357038023 0 0.0036622709299658786 0.00031525953982061076 0 0.0035876284428367307 0.00036705155835752614 0 0.0036622709299658786 0.00031525953982061076 0 0.0036650720540015477 0.00031542240717829449 0 0.003664094153238305 0.00028831137373309089 0 0.003626582619431243 0.00027822395357038023 0 0.0035903434787453417 0.00031973006179146892 0 0.0035924432094213031 0.00035277395161591071 0 0.003560014066775221 0.00029466230772601069 0 0.0038001143469370479 0.00036081837721514833 0 0.0035903434787453417 0.00031973006179146892 0 0.0035740282428205006 0.00033306689041265086 0 0.0035762711760787356 0.00031435585071692355 0 0.0035903434787453417 0.00031973006179146892 0 0.0035827602542103324 0.00034135139518611928 0 0.0035740282428205006 0.00033306689041265086 0 0.0036852113272062355 0.00029667458631220769 0 0.0037059067245696141 0.00029425311274558128 0 0.003708800505090972 0.00028814873113570212 0 0.0035903434787453417 0.00031973006179146892 0 0.0035827602542103324 0.00034135139518611928 0 0.0035924432094213031 0.00035277395161591071 0 0.0035827602542103324 0.00034135139518611928 0 0.0035924432094213031 0.00035277395161591071 0 0.0035832727386629847 0.00035129492955712836 0 0.0035924432094213031 0.00035277395161591071 0 0.0035832727386629847 0.00035129492955712836 0 0.0035815568635592333 0.00035985050738731266 0 0.0035827602542103324 0.00034135139518611928 0 0.0035832727386629847 0.00035129492955712836 0 0.0035765112348525672 0.0003460803619045156 0 0.0039383102707497035 0.0002812978549665411 0 0.0039839072093237416 0.00019111612664139642 0 0.0040667690208254443 0.00019395910590429285 0 0.0038001143469370479 0.00036081837721514833 0 0.0041050694965370643 0.00019710882585784883 0 0.0038001143469370479 0.00036081837721514833 0 0.0041204108082044761 0.00024313266721279301 0 0.0041204108082044761 0.00024313266721279301 0 0.0041050694965370643 0.00019710882585784883 0 0.0043019051642962059 0.0004249978817500324 0 0.0044012345733775386 0.00048727347323048939 0 0.0043760200662210681 0.0004143149914822928 0 0.0043019051642962059 0.0004249978817500324 0 0.0043760200662210681 0.0004143149914822928 0 0.0042967375137426631 0.0003580815338290927 0 0.0042176024441993943 0.00012085584095689794 0 0.0042375695911848624 0.00012070214235657313 0 0.0042444424401534763 0.00010700107155827054 0 0.0041204108082044761 0.00024313266721279301 0 0.0046089800420143889 0.00019548776522308316 0 0.0045959596255557974 0.00010225270241858293 0 0.0045894394731886088 0.00010828502186759446 0 0.0046023247129645594 9.5286164493876876e-05 0 0.0045863234806451363 0.00010714343344326721 0 0.0045959596255557974 0.00010225270241858293 0 0.0046047732510344098 9.8562128298572757e-05 0 0.0041050694965370643 0.00019710882585784883 0 0.0044834579110545249 7.3845420741260512e-05 0 0.0041050694965370643 0.00019710882585784883 0 0.0038736156562748929 0.00023918251550879125 0 0.0044012345733775386 0.00048727347323048939 0 0.0043760200662210681 0.0004143149914822928 0 0.0044984566787596341 0.00029834258582803782 0 0.0045863234806451363 0.00010714343344326721 0 0.0045959596255557974 0.00010225270241858293 0 0.0045894394731886088 0.00010828502186759446 0 0.0035609980146963866 0.00034405217331270215 0 0.0035433213678710226 0.00033574703946946953 0 0.003535188968474164 0.0003596292658999225 0 0.0035815568635592333 0.00035985050738731266 0 0.0035609980146963866 0.00034405217331270215 0 0.003535188968474164 0.0003596292658999225 0 0.0035815568635592333 0.00035985050738731266 0 0.0035765112348525672 0.0003460803619045156 0 0.0035609980146963866 0.00034405217331270215 0 0.0035832727386629847 0.00035129492955712836 0 0.0035815568635592333 0.00035985050738731266 0 0.0035765112348525672 0.0003460803619045156 0 0.0035765112348525672 0.0003460803619045156 0 0.0035609980146963866 0.00034405217331270215 0 0.0035740282428205006 0.00033306689041265086 0 0.0035827602542103324 0.00034135139518611928 0 0.0035765112348525672 0.0003460803619045156 0 0.0035740282428205006 0.00033306689041265086 0 0.0035609980146963866 0.00034405217331270215 0 0.0035740282428205006 0.00033306689041265086 0 0.0035571785270544277 0.00031722555894618537 0 0.0035740282428205006 0.00033306689041265086 0 0.0035762711760787356 0.00031435585071692355 0 0.0035571785270544277 0.00031722555894618537 0 0.0035609980146963866 0.00034405217331270215 0 0.0035433213678710226 0.00033574703946946953 0 0.0035571785270544277 0.00031722555894618537 0 0.0035433213678710226 0.00033574703946946953 0 0.0035571785270544277 0.00031722555894618537 0 0.0035373614889008644 0.00031890227835869067 0 0.0035571785270544277 0.00031722555894618537 0 0.0035417388311704051 0.00028993596884632425 0 0.003570153539947908 0.0002917388380188919 0 0.0035571785270544277 0.00031722555894618537 0 0.0035417388311704051 0.00028993596884632425 0 0.0035373614889008644 0.00031890227835869067 0 0.0035417388311704051 0.00028993596884632425 0 0.003570153539947908 0.0002917388380188919 0 0.0035687935861202134 0.00026000535435750477 0 0.0035762711760787356 0.00031435585071692355 0 0.0035571785270544277 0.00031722555894618537 0 0.003570153539947908 0.0002917388380188919 0 0.0035762711760787356 0.00031435585071692355 0 0.003570153539947908 0.0002917388380188919 0 0.0035911123840883059 0.00029788199769581307 0 0.0035903434787453417 0.00031973006179146892 0 0.0035762711760787356 0.00031435585071692355 0 0.0035911123840883059 0.00029788199769581307 0 0.003626582619431243 0.00027822395357038023 0 0.0035903434787453417 0.00031973006179146892 0 0.0035911123840883059 0.00029788199769581307 0 0.003626582619431243 0.00027822395357038023 0 0.0035911123840883059 0.00029788199769581307 0 0.0035898896253088188 0.00027325598316022719 0 0.003570153539947908 0.0002917388380188919 0 0.0035898896253088188 0.00027325598316022719 0 0.0035687935861202134 0.00026000535435750477 0 0.003570153539947908 0.0002917388380188919 0 0.0035911123840883059 0.00029788199769581307 0 0.0035898896253088188 0.00027325598316022719 0 0.0035898896253088188 0.00027325598316022719 0 0.0035972327622425292 0.00023917647657928796 0 0.0035687935861202134 0.00026000535435750477 0 0.003626582619431243 0.00027822395357038023 0 0.0035898896253088188 0.00027325598316022719 0 0.0035972327622425292 0.00023917647657928796 0 0.0035972327622425292 0.00023917647657928796 0 0.0035600932976152825 0.00022531767713955872 0 0.0035687935861202134 0.00026000535435750477 0 0.0035417388311704051 0.00028993596884632425 0 0.0035687935861202134 0.00026000535435750477 0 0.0035326315242854198 0.00024422479086898762 0 0.0035317329173873767 0.00020852553072068576 0 0.0035600932976152825 0.00022531767713955872 0 0.0035326315242854198 0.00024422479086898762 0 0.0035600932976152825 0.00022531767713955872 0 0.0035687935861202134 0.00026000535435750477 0 0.0035326315242854198 0.00024422479086898762 0 0.0035075471675292524 0.00021422905985017185 0 0.0035326315242854198 0.00024422479086898762 0 0.0034978464689114394 0.00025214193446291986 0 0.0035326315242854198 0.00024422479086898762 0 0.0034978464689114394 0.00025214193446291986 0 0.0035096660835974339 0.00028459516094462602 0 0.0034754302360789865 0.00022691315250774265 0 0.0034730609955861843 0.00025708777370956508 0 0.0034525997854679426 0.00025093463051449496 0 0.0034754302360789865 0.00022691315250774265 0 0.0034978464689114394 0.00025214193446291986 0 0.0034730609955861843 0.00025708777370956508 0 0.0034730609955861843 0.00025708777370956508 0 0.0034806493899365246 0.00027640130347744197 0 0.0034576713451360003 0.00027871799778518113 0 0.0034978464689114394 0.00025214193446291986 0 0.0034730609955861843 0.00025708777370956508 0 0.0034806493899365246 0.00027640130347744197 0 0.0034978464689114394 0.00025214193446291986 0 0.0034806493899365246 0.00027640130347744197 0 0.0035096660835974339 0.00028459516094462602 0 0.0034806493899365246 0.00027640130347744197 0 0.0034871096537638802 0.00030035776787445565 0 0.0035096660835974339 0.00028459516094462602 0 0.0034871096537638802 0.00030035776787445565 0 0.0035000699102344891 0.00031269879072921565 0 0.0035096660835974339 0.00028459516094462602 0 0.0034806493899365246 0.00027640130347744197 0 0.0034639610847956074 0.0003072962154124299 0 0.0034576713451360003 0.00027871799778518113 0 0.0034806493899365246 0.00027640130347744197 0 0.0034871096537638802 0.00030035776787445565 0 0.0034639610847956074 0.0003072962154124299 0 0.0034871096537638802 0.00030035776787445565 0 0.0034828719256868416 0.00032006631394696574 0 0.0034639610847956074 0.0003072962154124299 0 0.0034828719256868416 0.00032006631394696574 0 0.0034670078183790705 0.00033761993131969448 0 0.0034639610847956074 0.0003072962154124299 0 0.0034871096537638802 0.00030035776787445565 0 0.0034828719256868416 0.00032006631394696574 0 0.0035000699102344891 0.00031269879072921565 0 0.0034828719256868416 0.00032006631394696574 0 0.0035000699102344891 0.00031269879072921565 0 0.0034988370105722266 0.00033267776710099311 0 0.0035417388311704051 0.00028993596884632425 0 0.0035326315242854198 0.00024422479086898762 0 0.0035096660835974339 0.00028459516094462602 0 0.0035000699102344891 0.00031269879072921565 0 0.0035188126643867701 0.00031212414858697209 0 0.0034988370105722266 0.00033267776710099311 0 0.0035000699102344891 0.00031269879072921565 0 0.0035188126643867701 0.00031212414858697209 0 0.0035096660835974339 0.00028459516094462602 0 0.0035417388311704051 0.00028993596884632425 0 0.0035188126643867701 0.00031212414858697209 0 0.0035096660835974339 0.00028459516094462602 0 0.0035417388311704051 0.00028993596884632425 0 0.0035188126643867701 0.00031212414858697209 0 0.0035373614889008644 0.00031890227835869067 0 0.0035188126643867701 0.00031212414858697209 0 0.0035245828540028347 0.00033622284372197841 0 0.0035373614889008644 0.00031890227835869067 0 0.0035433213678710226 0.00033574703946946953 0 0.0035245828540028347 0.00033622284372197841 0 0.0035373614889008644 0.00031890227835869067 0 0.0035188126643867701 0.00031212414858697209 0 0.0035245828540028347 0.00033622284372197841 0 0.0034988370105722266 0.00033267776710099311 0 0.0035245828540028347 0.00033622284372197841 0 0.0035131812714198911 0.00035539937128195804 0 0.0034988370105722266 0.00033267776710099311 0 0.0035433213678710226 0.00033574703946946953 0 0.0035245828540028347 0.00033622284372197841 0 0.003535188968474164 0.0003596292658999225 0 0.0035245828540028347 0.00033622284372197841 0 0.0035131812714198911 0.00035539937128195804 0 0.003535188968474164 0.0003596292658999225 0 0.0038736156562748929 0.00023918251550879125 0 0.0037375598068508588 0.00029558551940185644 0 0.0042375695911848624 0.00012070214235657313 0 0.0042462131887604695 0.00011317405747708675 0 0.0042497658948489744 0.0001150658295417256 0 0.0035131812714198911 0.00035539937128195804 0 0.003535188968474164 0.0003596292658999225 0 0.0034956358301874296 0.00036057939364903002 0 0.0042462131887604695 0.00011317405747708675 0 0.0042509377419900889 0.00011026663557826113 0 0.0042444424401534763 0.00010700107155827054 0 0.0042375695911848624 0.00012070214235657313 0 0.0042462131887604695 0.00011317405747708675 0 0.0042444424401534763 0.00010700107155827054 0 0.0037375598068508588 0.00029558551940185644 0 0.003382197270147927 0.00036220667517485305 0 0.0042509909434358629 0.00010864676383070846 0 0.0042509377419900889 0.00011026663557826113 0 0.0042527168019171769 0.00010984724873302931 0 0.0042462131887604695 0.00011317405747708675 0 0.0042509377419900889 0.00011026663557826113 0 0.0042497658948489744 0.0001150658295417256 0 0.0042509909434358629 0.00010864676383070846 0 0.0042509377419900889 0.00011026663557826113 0 0.0042497658948489744 0.0001150658295417256 0 0.0034840872868089822 0.00034867017314681078 0 0.0034670078183790705 0.00033761993131969448 0 0.0034486223422670881 0.000369173684680894 0 0.0034908746075039501 0.0003654291286919917 0 0.0034840872868089822 0.00034867017314681078 0 0.0034486223422670881 0.000369173684680894 0 0.0035064857019136263 0.00035621915643838879 0 0.0037375598068508588 0.00029558551940185644 0 0.0035131812714198911 0.00035539937128195804 0 0.0034908746075039501 0.0003654291286919917 0 0.0034840872868089822 0.00034867017314681078 0 0.0035131812714198911 0.00035539937128195804 0 0.0034840872868089822 0.00034867017314681078 0 0.0034988370105722266 0.00033267776710099311 0 0.0034828719256868416 0.00032006631394696574 0 0.0034988370105722266 0.00033267776710099311 0 0.0034670078183790705 0.00033761993131969448 0 0.0034840872868089822 0.00034867017314681078 0 0.0034988370105722266 0.00033267776710099311 0 0.0034670078183790705 0.00033761993131969448 0 0.0034670078183790705 0.00033761993131969448 0 0.0034450974667474842 0.00034965190277128598 0 0.0034408677348664999 0.00033007337773859221 0 0.0034450974667474842 0.00034965190277128598 0 0.0034234493554725588 0.00036172053999746265 0 0.0034408677348664999 0.00033007337773859221 0 0.0034234493554725588 0.00036172053999746265 0 0.0034182110865216293 0.0003438243556268587 0 0.0034408677348664999 0.00033007337773859221 0 0.0034450974667474842 0.00034965190277128598 0 0.0034486223422670881 0.000369173684680894 0 0.0034234493554725588 0.00036172053999746265 0 0.0034670078183790705 0.00033761993131969448 0 0.0034450974667474842 0.00034965190277128598 0 0.0034486223422670881 0.000369173684680894 0 0.0042509909434358629 0.00010864676383070846 0 0.0042472434288954117 9.758913620393427e-05 0 0.0042527168019171769 0.00010984724873302931 0 0.0035095546942167559 0.00037833857620128139 0 0.0034486223422670881 0.000369173684680894 0 0.0034118948943922577 0.00038615682493613022 0 0.0042509909434358629 0.00010864676383070846 0 0.0042497658948489744 0.0001150658295417256 0 0.0042472434288954117 9.758913620393427e-05 0 0.0037375598068508588 0.00029558551940185644 0 0.0038608058813234744 0.0002272240117810294 0 0.0034486223422670881 0.000369173684680894 0 0.0034118948943922577 0.00038615682493613022 0 0.0034234493554725588 0.00036172053999746265 0 0.0042472434288954117 9.758913620393427e-05 0 0.0042527168019171769 0.00010984724873302931 0 0.0042502892814060885 0.00011142965719039918 0 0.0041840866034817872 8.5249526417788954e-05 0 0.0042472434288954117 9.758913620393427e-05 0 0.0042330086661996709 0.00010497323393415854 0 0.0034152539048299276 0.00028951887731749556 0 0.0034118948943922577 0.00038615682493613022 0 0.0034092312781226963 0.00036951620980952649 0 0.0038061742226995461 0.00019656851230464363 0 0.0038608058813234744 0.0002272240117810294 0 0.0042472434288954117 9.758913620393427e-05 0 0.0042330086661996709 0.00010497323393415854 0 0.0042502892814060885 0.00011142965719039918 0 0.0034118948943922577 0.00038615682493613022 0 0.0034092312781226963 0.00036951620980952649 0 0.003411874602905676 0.00037304234546726073 0 0.0034092312781226963 0.00036951620980952649 0 0.0034116674466526868 0.00037999586468284252 0 0.003411874602905676 0.00037304234546726073 0 0.0034118948943922577 0.00038615682493613022 0 0.003411874602905676 0.00037304234546726073 0 0.0034234493554725588 0.00036172053999746265 0 0.0034116674466526868 0.00037999586468284252 0 0.003411874602905676 0.00037304234546726073 0 0.0034234493554725588 0.00036172053999746265 0 0.0034116674466526868 0.00037999586468284252 0 0.0034234493554725588 0.00036172053999746265 0 0.0034182110865216293 0.0003438243556268587 0 0.0033966525657142472 0.00035335833893027053 0 0.0034069436955464875 0.00031688895681643856 0 0.0034182110865216293 0.0003438243556268587 0 0.0033966525657142472 0.00035335833893027053 0 0.0034116674466526868 0.00037999586468284252 0 0.0034182110865216293 0.0003438243556268587 0 0.0034069436955464875 0.00031688895681643856 0 0.0034182110865216293 0.0003438243556268587 0 0.0034332331605463947 0.00030481483601947423 0 0.0034182110865216293 0.0003438243556268587 0 0.0034408677348664999 0.00033007337773859221 0 0.0034332331605463947 0.00030481483601947423 0 0.0034670078183790705 0.00033761993131969448 0 0.0034408677348664999 0.00033007337773859221 0 0.0034639610847956074 0.0003072962154124299 0 0.0034639610847956074 0.0003072962154124299 0 0.0034332331605463947 0.00030481483601947423 0 0.0034576713451360003 0.00027871799778518113 0 0.0034408677348664999 0.00033007337773859221 0 0.0034639610847956074 0.0003072962154124299 0 0.0034332331605463947 0.00030481483601947423 0 0.0034332331605463947 0.00030481483601947423 0 0.0034364772971599801 0.00027118314560718281 0 0.0034576713451360003 0.00027871799778518113 0 0.0034364772971599801 0.00027118314560718281 0 0.0034576713451360003 0.00027871799778518113 0 0.0034525997854679426 0.00025093463051449496 0 0.0034730609955861843 0.00025708777370956508 0 0.0034576713451360003 0.00027871799778518113 0 0.0034525997854679426 0.00025093463051449496 0 0.0034364772971599801 0.00027118314560718281 0 0.0034525997854679426 0.00025093463051449496 0 0.0034275899578989945 0.00024474031736926424 0 0.0034364772971599801 0.00027118314560718281 0 0.0034275899578989945 0.00024474031736926424 0 0.003409886422179115 0.00027543196618030696 0 0.003396171443252115 0.0002292756152013694 0 0.0034275899578989945 0.00024474031736926424 0 0.003409886422179115 0.00027543196618030696 0 0.0033796389983962345 0.00029727651261033208 0 0.0033763202885020377 0.00025348266777309851 0 0.003409886422179115 0.00027543196618030696 0 0.0033763202885020377 0.00025348266777309851 0 0.003396171443252115 0.0002292756152013694 0 0.003409886422179115 0.00027543196618030696 0 0.0033796389983962345 0.00029727651261033208 0 0.0034069436955464875 0.00031688895681643856 0 0.003409886422179115 0.00027543196618030696 0 0.0034069436955464875 0.00031688895681643856 0 0.0034332331605463947 0.00030481483601947423 0 0.003409886422179115 0.00027543196618030696 0 0.0034332331605463947 0.00030481483601947423 0 0.0034364772971599801 0.00027118314560718281 0 0.003409886422179115 0.00027543196618030696 0 0.0049500120741655974 4.2790122575088699e-05 0 0.0048655252704672388 9.5593600761037045e-05 0 0.0048760841628038391 4.5909050977738019e-05 0 0.0041870223641654282 0.00018313846658007442 0 0.004188359864973519 0.00018112404859648985 0 0.0042893883417066533 0.00024225995517368213 0 0.0045722722871108061 0.00011198021669927922 0 0.0045832190340920993 0.00015849057119872255 0 0.004797032937650483 5.557801646028969e-05 0 0.0048655252704672388 9.5593600761037045e-05 0 0.0048760841628038391 4.5909050977738019e-05 0 0.0045832190340920993 0.00015849057119872255 0 0.0046030226601048553 0.00015294213874593132 0 0.004797032937650483 5.557801646028969e-05 0 0.0048655252704672388 9.5593600761037045e-05 0 0.0045935304104108019 0.00016102978505650847 0 0.0042893883417066533 0.00024225995517368213 0 0.0042743300726288342 0.00013848176431662638 0 0.0045935304104108019 0.00016102978505650847 0 0.0042079353827471772 0.00014492639552605624 0 0.004188359864973519 0.00018112404859648985 0 0.0042743300726288342 0.00013848176431662638 0 0.004188359864973519 0.00018112404859648985 0 0.0042893883417066533 0.00024225995517368213 0 0.0042743300726288342 0.00013848176431662638 0 0.0042079353827471772 0.00014492639552605624 0 0.0042743300726288342 0.00013848176431662638 0 0.0042340059548214527 0.00012007334084492017 0 0.0042743300726288342 0.00013848176431662638 0 0.0042340059548214527 0.00012007334084492017 0 0.0042502892814060885 0.00011142965719039918 0 0.0042340059548214527 0.00012007334084492017 0 0.0042330086661996709 0.00010497323393415854 0 0.0042502892814060885 0.00011142965719039918 0 0.0042118244350209961 0.00011061390606688281 0 0.0042340059548214527 0.00012007334084492017 0 0.0042330086661996709 0.00010497323393415854 0 0.0042527168019171769 0.00010984724873302931 0 0.0042502892814060885 0.00011142965719039918 0 0.0042578761932677324 0.00011470625719770826 0 0.0042743300726288342 0.00013848176431662638 0 0.0045726178906997103 6.474293676312944e-05 0 0.0045935304104108019 0.00016102978505650847 0 0.0042862599348745256 0.00013981977300183906 0 0.0043914647858597404 0.00010051983975360481 0 0.0042743300726288342 0.00013848176431662638 0 0.0042502892814060885 0.00011142965719039918 0 0.0042578761932677324 0.00011470625719770826 0 0.0045726178906997103 6.474293676312944e-05 0 0.0046017849066150949 0.00013521250412496755 0 0.0045993374222109027 0.00010696038404727238 0 0.0045726178906997103 6.474293676312944e-05 0 0.0046017849066150949 0.00013521250412496755 0 0.0045935304104108019 0.00016102978505650847 0 0.0043914647858597404 0.00010051983975360481 0 0.0044834579110545249 7.3845420741260512e-05 0 0.0042509377419900889 0.00011026663557826113 0 0.0042578761932677324 0.00011470625719770826 0 0.0042444424401534763 0.00010700107155827054 0 0.0042509377419900889 0.00011026663557826113 0 0.0042527168019171769 0.00010984724873302931 0 0.0042578761932677324 0.00011470625719770826 0 0.0046023247129645594 9.5286164493876876e-05 0 0.0045993374222109027 0.00010696038404727238 0 0.0046047732510344098 9.8562128298572757e-05 0 0.0045726178906997103 6.474293676312944e-05 0 0.0046023247129645594 9.5286164493876876e-05 0 0.0045993374222109027 0.00010696038404727238 0 0.0045993374222109027 0.00010696038404727238 0 0.0045836414029823604 0.00012925109355351488 0 0.0046047732510344098 9.8562128298572757e-05 0 0.0046017849066150949 0.00013521250412496755 0 0.0045993374222109027 0.00010696038404727238 0 0.0045836414029823604 0.00012925109355351488 0 0.0045649140401141453 0.00013701154847452728 0 0.0046089800420143889 0.00019548776522308316 0 0.0045836414029823604 0.00012925109355351488 0 0.0045669764259853073 5.2979549002548543e-05 0 0.0045141086994962996 9.0458681229857864e-05 0 0.0045836414029823604 0.00012925109355351488 0 0.0046277989241600417 0.00011881801441439306 0 0.0045669764259853073 5.2979549002548543e-05 0 0.0046017849066150949 0.00013521250412496755 0 0.0045836414029823604 0.00012925109355351488 0 0.0046277989241600417 0.00011881801441439306 0 0.004797032937650483 5.557801646028969e-05 0 0.0045935304104108019 0.00016102978505650847 0 0.0046277989241600417 0.00011881801441439306 0 0.0046017849066150949 0.00013521250412496755 0 0.0045935304104108019 0.00016102978505650847 0 0.0046277989241600417 0.00011881801441439306 0 0.004797032937650483 5.557801646028969e-05 0 0.0048155792590910988 5.266872816515736e-05 0 0.0048265611950158178 4.49121465624907e-05 0 0.0047848407816523048 5.4338579086846774e-05 0 0.0047052045613879484 5.3457237410606209e-05 0 0.004797032937650483 5.557801646028969e-05 0 0.0046277989241600417 0.00011881801441439306 0 0.0045669764259853073 5.2979549002548543e-05 0 0.0048155792590910988 5.266872816515736e-05 0 0.0047952976413041318 4.5964020346468755e-05 0 0.0048085137869285748 3.8249280573951841e-05 0 0.0047952976413041318 4.5964020346468755e-05 0 0.0047763522401016809 5.9615081849136915e-05 0 0.0047859878723566299 2.9510931577966427e-05 0 0.0048155792590910988 5.266872816515736e-05 0 0.0047952976413041318 4.5964020346468755e-05 0 0.0047763522401016809 5.9615081849136915e-05 0 0.0045669764259853073 5.2979549002548543e-05 0 0.0044551542484907152 6.4085378793724842e-05 0 0.0045141086994962996 9.0458681229857864e-05 0 0.0047052045613879484 5.3457237410606209e-05 0 0.0045637427589741994 6.4053235084339722e-05 0 0.0045637427589741994 6.4053235084339722e-05 0 0.0044721146541042327 6.8747815857912422e-05 0 0.0045637427589741994 6.4053235084339722e-05 0 0.0047768642082937525 5.3176521132224898e-05 0 0.0045637427589741994 6.4053235084339722e-05 0 0.0044105708399697083 0.00013735578895911533 0 0.0047763522401016809 5.9615081849136915e-05 0 0.0047507941167561135 4.7837396091425971e-05 0 0.0047859878723566299 2.9510931577966427e-05 0 0.0044189130387621038 4.8036788713388666e-05 0 0.0043488162543780066 0.00013960163967771319 0 0.0042636864630464146 6.10405235299895e-05 0 0.0043488162543780066 0.00013960163967771319 0 0.0044360997918376135 0.00013023713000484368 0 0.0044131075657354813 0.00023081127639985107 0 0.0044189130387621038 4.8036788713388666e-05 0 0.0043488162543780066 0.00013960163967771319 0 0.0044360997918376135 0.00013023713000484368 0 0.0044360997918376135 0.00013023713000484368 0 0.0045141086994962996 9.0458681229857864e-05 0 0.0044889414842051141 0.00017486795243488659 0 0.0044189130387621038 4.8036788713388666e-05 0 0.0044360997918376135 0.00013023713000484368 0 0.0045141086994962996 9.0458681229857864e-05 0 0.0045836414029823604 0.00012925109355351488 0 0.0045141086994962996 9.0458681229857864e-05 0 0.0044889414842051141 0.00017486795243488659 0 0.0044889414842051141 0.00017486795243488659 0 0.0044984566787596341 0.00029834258582803782 0 0.0044131075657354813 0.00023081127639985107 0 0.0044360997918376135 0.00013023713000484368 0 0.0044889414842051141 0.00017486795243488659 0 0.0044131075657354813 0.00023081127639985107 0 0.0045836414029823604 0.00012925109355351488 0 0.0044889414842051141 0.00017486795243488659 0 0.0044984566787596341 0.00029834258582803782 0 0.0044984566787596341 0.00029834258582803782 0 0.0044039801612586809 0.00029334999643610224 0 0.0044131075657354813 0.00023081127639985107 0 0.0045959596255557974 0.00010225270241858293 0 0.0046023247129645594 9.5286164493876876e-05 0 0.0046047732510344098 9.8562128298572757e-05 0 0.0044984566787596341 0.00029834258582803782 0 0.0043803168355466158 0.0003508881498528937 0 0.0044039801612586809 0.00029334999643610224 0 0.0043760200662210681 0.0004143149914822928 0 0.0044984566787596341 0.00029834258582803782 0 0.0043803168355466158 0.0003508881498528937 0 0.0043760200662210681 0.0004143149914822928 0 0.0043803168355466158 0.0003508881498528937 0 0.0042967375137426631 0.0003580815338290927 0 0.0043803168355466158 0.0003508881498528937 0 0.0043210009209974252 0.00029287564805523117 0 0.0042967375137426631 0.0003580815338290927 0 0.0043803168355466158 0.0003508881498528937 0 0.0044039801612586809 0.00029334999643610224 0 0.0043210009209974252 0.00029287564805523117 0 0.0043210009209974252 0.00029287564805523117 0 0.0044131075657354813 0.00023081127639985107 0 0.0042181052100849015 0.00020918166392927868 0 0.0043488162543780066 0.00013960163967771319 0 0.0044131075657354813 0.00023081127639985107 0 0.0042589792691978259 0.00021583079246494775 0 0.0044486656462616467 0.00022371997701398406 0 0.004128854426264426 0.00024732853534275418 0 0.0044039801612586809 0.00029334999643610224 0 0.0043210009209974252 0.00029287564805523117 0 0.0044131075657354813 0.00023081127639985107 0 0.004128854426264426 0.00024732853534275418 0 0.003958451163441427 0.00039877321574751274 0 0.0043210009209974252 0.00029287564805523117 0 0.0042181052100849015 0.00020918166392927868 0 0.0042145364984832751 0.00034695279565652296 0 0.0043210009209974252 0.00029287564805523117 0 0.0042145364984832751 0.00034695279565652296 0 0.0042967375137426631 0.0003580815338290927 0 0.0043019051642962059 0.0004249978817500324 0 0.0042145364984832751 0.00034695279565652296 0 0.0042967375137426631 0.0003580815338290927 0 0.0037380698225859925 0.00040027940170974367 0 0.00373714630002032 0.00043646501194099114 0 0.003778034658256399 0.00041103011040687131 0 0.0037057086588620546 0.00046253310929010214 0 0.0037051682801861434 0.0004138977325192855 0 0.00373714630002032 0.00043646501194099114 0 0.0037051682801861434 0.0004138977325192855 0 0.0037380698225859925 0.00040027940170974367 0 0.00373714630002032 0.00043646501194099114 0 0.0037057086588620546 0.00046253310929010214 0 0.00373714630002032 0.00043646501194099114 0 0.0037650637487771049 0.00047406720854487364 0 0.004128854426264426 0.00024732853534275418 0 0.0040030367987877935 0.00035260915876392885 0 0.0042615357410514861 0.00021538528960580848 0 0.0042753472534255285 0.00022508891631716201 0 0.0042795970977365424 0.00021682376940610092 0 0.0042615357410514861 0.00021538528960580848 0 0.0042753472534255285 0.00022508891631716201 0 0.0042687508658865976 0.0002277516867227001 0 0.0042687508658865976 0.0002277516867227001 0 0.0042630523836925185 0.00023394495391641109 0 0.0042755426795542716 0.00023381376766145402 0 0.0042753472534255285 0.00022508891631716201 0 0.0042687508658865976 0.0002277516867227001 0 0.0042755426795542716 0.00023381376766145402 0 0.0042753472534255285 0.00022508891631716201 0 0.0042755426795542716 0.00023381376766145402 0 0.0042814481518775099 0.00023129829115429209 0 0.004128854426264426 0.00024732853534275418 0 0.0044105708399697083 0.00013735578895911533 0 0.0042615357410514861 0.00021538528960580848 0 0.0042687508658865976 0.0002277516867227001 0 0.0042630523836925185 0.00023394495391641109 0 0.0043488162543780066 0.00013960163967771319 0 0.0042589792691978259 0.00021583079246494775 0 0.0042636864630464146 6.10405235299895e-05 0 0.0045848396364616345 8.3772631082088263e-05 0 0.0045826410389166019 8.4643145130374944e-05 0 0.0045836944683197165 8.3616746808905658e-05 0 0.0044105708399697083 0.00013735578895911533 0 0.0046339323795751633 0.00011122084646760282 0 0.004646738451582799 0.00015556207766146538 0 0.004629481672186013 0.00015304499511110495 0 0.004647248939680302 0.00014450919707537796 0 0.0045826410389166019 8.4643145130374944e-05 0 0.0045836944683197165 8.3616746808905658e-05 0 0.0045830655714200327 8.396428059056036e-05 0 0.0047768642082937525 5.3176521132224898e-05 0 0.0047716560555679053 7.3778418776685364e-05 0 0.0047768642082937525 5.3176521132224898e-05 0 0.0046339323795751633 0.00011122084646760282 0 0.0047294981150633698 5.9374520470450793e-05 0 0.0047218050871822466 6.3448176764900602e-05 0 0.0047221698168775257 5.6114566485085394e-05 0 0.0046339323795751633 0.00011122084646760282 0 0.0047716560555679053 7.3778418776685364e-05 0 0.0044105708399697083 0.00013735578895911533 0 0.0044098674959638252 0.00020084944282955977 0 0.0046339323795751633 0.00011122084646760282 0 0.0044098674959638252 0.00020084944282955977 0 0.0045267081582475895 0.0001789111875445927 0 0.0045283512852589691 0.00012797082026057811 0 0.0044172233149591547 0.00018682084194178604 0 0.004646738451582799 0.00015556207766146538 0 0.004629481672186013 0.00015304499511110495 0 0.0046102730870357846 0.00017422212829076175 0 0.004629481672186013 0.00015304499511110495 0 0.0046144007062630171 0.00015275665970661555 0 0.0046278930439724074 0.00013584451579479374 0 0.004629481672186013 0.00015304499511110495 0 0.0046144007062630171 0.00015275665970661555 0 0.0046102730870357846 0.00017422212829076175 0 0.0046144007062630171 0.00015275665970661555 0 0.0046067999468389345 0.00013944791907297225 0 0.0045978583701010061 0.00016095433293502947 0 0.0046144007062630171 0.00015275665970661555 0 0.0046102730870357846 0.00017422212829076175 0 0.0045978583701010061 0.00016095433293502947 0 0.0049968995944929973 6.7475036427947317e-06 0 0.0049994480194923202 4.6788587232428118e-06 0 0.004998276692279942 4.0900938791159414e-06 0 0.0048136538290060506 6.1921494269151479e-05 0 0.0048365026524864116 6.8402413816053039e-05 0 0.0048654798309550303 2.7284690013562047e-05 0 0.0048714941359220814 0.00010148788943138228 0 0.0049571406375808263 -2.9855295451853469e-06 0 0.0047973174481351129 0.00011774158332454615 0 0.0047776016529341228 0.0001311631114147517 0 0.0048137983545221297 0.00012509866941963328 0 0.0046144007062630171 0.00015275665970661555 0 0.0046067999468389345 0.00013944791907297225 0 0.0046278930439724074 0.00013584451579479374 0 0.0047437851385046985 0.00016458911571447089 0 0.0047640356672010234 9.8718222597883715e-05 0 0.0048714941359220814 0.00010148788943138228 0 0.0047437851385046985 0.00016458911571447089 0 0.0047640356672010234 9.8718222597883715e-05 0 0.0047716560555679053 7.3778418776685364e-05 0 0.004629481672186013 0.00015304499511110495 0 0.0046278930439724074 0.00013584451579479374 0 0.004647248939680302 0.00014450919707537796 0 0.0048301150240023794 6.9379714170359136e-05 0 0.0048365026524864116 6.8402413816053039e-05 0 0.0048632661300482549 8.4558805778591284e-05 0 0.0048136538290060506 6.1921494269151479e-05 0 0.0048301288200874376 6.9421128842367722e-05 0 0.0048365026524864116 6.8402413816053039e-05 0 0.0048714941359220814 0.00010148788943138228 0 0.0047640356672010234 9.8718222597883715e-05 0 0.0047640356672010234 9.8718222597883715e-05 0 0.0047725718948447337 9.6817838099679316e-05 0 0.0049645292428678574 7.443395670021637e-06 0 0.0049704913789824223 3.3108203464099805e-07 0 0.0049662309088513079 -7.8535354282141533e-06 0 0.0048365026524864116 6.8402413816053039e-05 0 0.0048632661300482549 8.4558805778591284e-05 0 0.0048654798309550303 2.7284690013562047e-05 0 0.0047716560555679053 7.3778418776685364e-05 0 0.0049571406375808263 -2.9855295451853469e-06 0 0.0049698902737314726 9.7980590834025856e-06 0 0.0049645292428678574 7.443395670021637e-06 0 0.0049704913789824223 3.3108203464099805e-07 0 0.0049698902737314726 9.7980590834025856e-06 0 0.0049704913789824223 3.3108203464099805e-07 0 0.0049785404268837237 -3.675127772042929e-06 0 0.0049704913789824223 3.3108203464099805e-07 0 0.0049662309088513079 -7.8535354282141533e-06 0 0.0049785404268837237 -3.675127772042929e-06 0 0.0049571406375808263 -2.9855295451853469e-06 0 0.0049958738433494975 -8.6422994967835996e-06 0 0.0049992544861617366 3.1853622514329694e-06 0 0.0049993967320924237 2.5991604461638686e-06 0 0.0050002570531756212 1.3391523246205064e-06 0 0.0049993967320924237 2.5991604461638686e-06 0 0.0049997127487108424 9.3322339300265075e-07 0 0.0050002570531756212 1.3391523246205064e-06 0 0.0049994480194923202 4.6788587232428118e-06 0 0.0049993967320924237 2.5991604461638686e-06 0 0.004998276692279942 4.0900938791159414e-06 0 0.0049571406375808263 -2.9855295451853469e-06 0 0.0049786138637533386 2.5689455692618155e-06 0 0.0049662309088513079 -7.8535354282141533e-06 0 0.0049842313127151866 -1.6353453048747478e-05 0 0.0049785404268837237 -3.675127772042929e-06 0 0.0049993967320924237 2.5991604461638686e-06 0 0.0049985924622275813 2.3806072326210065e-06 0 0.004998276692279942 4.0900938791159414e-06 0 0.0049985924622275813 2.3806072326210065e-06 0 0.004998276692279942 4.0900938791159414e-06 0 0.0049971802847428573 4.2684490208085667e-06 0 0.0049968995944929973 6.7475036427947317e-06 0 0.004998276692279942 4.0900938791159414e-06 0 0.0049971802847428573 4.2684490208085667e-06 0 0.0049985924622275813 2.3806072326210065e-06 0 0.0049971802847428573 4.2684490208085667e-06 0 0.0049967370986724879 2.8129797908724805e-06 0 0.0049985924622275813 2.3806072326210065e-06 0 0.004999040249627538 8.1133481472412343e-07 0 0.0049967370986724879 2.8129797908724805e-06 0 0.0049985924622275813 2.3806072326210065e-06 0 0.004999040249627538 8.1133481472412343e-07 0 0.0049997127487108424 9.3322339300265075e-07 0 0.004999040249627538 8.1133481472412343e-07 0 0.0050000008556436498 6.8710868137917192e-10 0 0.0049999938139010658 -1.2263791447570218e-09 0 0.0050000008556436498 6.8710868137917192e-10 0 0.0049997127487108424 9.3322339300265075e-07 0 0.005000167608269674 7.5620937404835793e-08 0 0.004999040249627538 8.1133481472412343e-07 0 0.0050000008556436498 6.8710868137917192e-10 0 0.0049997127487108424 9.3322339300265075e-07 0 0.0049993967320924237 2.5991604461638686e-06 0 0.0049985924622275813 2.3806072326210065e-06 0 0.0049997127487108424 9.3322339300265075e-07 0 0.0049997127487108424 9.3322339300265075e-07 0 0.005000167608269674 7.5620937404835793e-08 0 0.0050002570531756212 1.3391523246205064e-06 0 0.0049971452968529256 -7.2876881018124736e-06 0 0.0049958738433494975 -8.6422994967835996e-06 0 0.005000167608269674 7.5620937404835793e-08 0 0.004999978449086246 -7.9287515628384047e-07 0 0.0050002570531756212 1.3391523246205064e-06 0 0.0050000008556436498 6.8710868137917192e-10 0 0.005000167608269674 7.5620937404835793e-08 0 0.0050000016495662571 -1.267677841251078e-09 0 0.0050000016495662571 -1.267677841251078e-09 0 0.004999978449086246 -7.9287515628384047e-07 0 0.0049987439523976772 -3.1538949101997765e-06 0 0.005000167608269674 7.5620937404835793e-08 0 0.0050000016495662571 -1.267677841251078e-09 0 0.004999978449086246 -7.9287515628384047e-07 0 0.0049973289376447887 -1.6402449520029469e-05 0 0.0049960503461876403 -1.4846441569846551e-05 0 0.0049842313127151866 -1.6353453048747478e-05 0 0.0049973289376447887 -1.6402449520029469e-05 0 0.0049960503461876403 -1.4846441569846551e-05 0 0.0049980663566672762 -1.3285739388640242e-05 0 0.0049960503461876403 -1.4846441569846551e-05 0 0.0049936271453225973 -6.0087477916220712e-06 0 0.0049972475958480114 -2.1656068185711886e-05 0 0.0049960503461876403 -1.4846441569846551e-05 0 0.0049842313127151866 -1.6353453048747478e-05 0 0.0049936271453225973 -6.0087477916220712e-06 0 0.0049842313127151866 -1.6353453048747478e-05 0 0.0049785404268837237 -3.675127772042929e-06 0 0.0049936271453225973 -6.0087477916220712e-06 0 0.0049698902737314726 9.7980590834025856e-06 0 0.0049785404268837237 -3.675127772042929e-06 0 0.0049936271453225973 -6.0087477916220712e-06 0 0.0047768642082937525 5.3176521132224898e-05 0 0.0049076941773117727 4.2099174209372735e-06 0 0.0047952976413041318 4.5964020346468755e-05 0 0.0047859878723566299 2.9510931577966427e-05 0 0.0048085137869285748 3.8249280573951841e-05 0 0.0047859878723566299 2.9510931577966427e-05 0 0.0048085137869285748 3.8249280573951841e-05 0 0.0048201022570110762 6.0593786388607309e-06 0 0.0048085137869285748 3.8249280573951841e-05 0 0.0048265611950158178 4.49121465624907e-05 0 0.0048201022570110762 6.0593786388607309e-06 0 0.0048155792590910988 5.266872816515736e-05 0 0.0048085137869285748 3.8249280573951841e-05 0 0.0048265611950158178 4.49121465624907e-05 0 0.0048265611950158178 4.49121465624907e-05 0 0.0048716399329410288 2.052141855703145e-05 0 0.0048527167695863096 3.6441355900058067e-05 0 0.0048265611950158178 4.49121465624907e-05 0 0.0048201022570110762 6.0593786388607309e-06 0 0.0048716399329410288 2.052141855703145e-05 0 0.0048201022570110762 6.0593786388607309e-06 0 0.0049468012203086591 -1.4483048418524251e-05 0 0.0048716399329410288 2.052141855703145e-05 0 0.0049076941773117727 4.2099174209372735e-06 0 0.004904626977759949 -3.8804764275645471e-06 0 0.0049960503461876403 -1.4846441569846551e-05 0 0.0049972475958480114 -2.1656068185711886e-05 0 0.0049980663566672762 -1.3285739388640242e-05 0 0.0049972475958480114 -2.1656068185711886e-05 0 0.0049980663566672762 -1.3285739388640242e-05 0 0.0049904842142476716 -9.2186967408291317e-06 0 0.0049973289376447887 -1.6402449520029469e-05 0 0.0049980663566672762 -1.3285739388640242e-05 0 0.0049987439523976772 -3.1538949101997765e-06 0 0.0049971452968529256 -7.2876881018124736e-06 0 0.0049979095633399771 -4.0379249202315336e-06 0 0.0049980663566672762 -1.3285739388640242e-05 0 0.0049987439523976772 -3.1538949101997765e-06 0 0.0049904842142476716 -9.2186967408291317e-06 0 0.0050000016495662571 -1.267677841251078e-09 0 0.0049999959919902401 1.1064921742522023e-11 0 0.0049987439523976772 -3.1538949101997765e-06 0 0.0049987439523976772 -3.1538949101997765e-06 0 0.0049882039242442741 -1.3431729073611943e-06 0 0.0049904842142476716 -9.2186967408291317e-06 0 0.0049999959919902401 1.1064921742522023e-11 0 0.0049882039242442741 -1.3431729073611943e-06 0 0.0049999468030904777 3.8400244192717855e-10 0 0.0049999959919902401 1.1064921742522023e-11 0 0.0049987439523976772 -3.1538949101997765e-06 0 0.0049882039242442741 -1.3431729073611943e-06 0 0.0049882039242442741 -1.3431729073611943e-06 0 0.0049904842142476716 -9.2186967408291317e-06 0 0.0049468012203086591 -1.4483048418524251e-05 0 0.0049972475958480114 -2.1656068185711886e-05 0 0.0049904842142476716 -9.2186967408291317e-06 0 0.0049468012203086591 -1.4483048418524251e-05 0 0.004904626977759949 -3.8804764275645471e-06 0 0.0049433760179862255 -1.5156562125569461e-05 0 0.0049468012203086591 -1.4483048418524251e-05 0 0.0049999468030904777 3.8400244192717855e-10 0 0.0049760548012771867 -7.4215017706678637e-06 0 0.0049882039242442741 -1.3431729073611943e-06 0 0.0049468012203086591 -1.4483048418524251e-05 0 0.0049999468030904777 3.8400244192717855e-10 0 0.004999966310841852 -1.368187915413478e-08 0 0.0049999468030904777 3.8400244192717855e-10 0 0.0049760548012771867 -7.4215017706678637e-06 0 0.0049611727748772837 1.9656913775276753e-06 0 0.0049468012203086591 -1.4483048418524251e-05 0 0.0049760548012771867 -7.4215017706678637e-06 0 0.0049611727748772837 1.9656913775276753e-06 0 0.0049468012203086591 -1.4483048418524251e-05 0 0.0049085562365264908 1.8004757620716592e-05 0 0.0049500120741655974 4.2790122575088699e-05 0 0.0049611727748772837 1.9656913775276753e-06 0 0.0049085562365264908 1.8004757620716592e-05 0 0.0049468012203086591 -1.4483048418524251e-05 0 0.0049085562365264908 1.8004757620716592e-05 0 0.0048716399329410288 2.052141855703145e-05 0 0.0049085562365264908 1.8004757620716592e-05 0 0.0048527167695863096 3.6441355900058067e-05 0 0.0048760841628038391 4.5909050977738019e-05 0 0.0049085562365264908 1.8004757620716592e-05 0 0.0048716399329410288 2.052141855703145e-05 0 0.0048527167695863096 3.6441355900058067e-05 0 0.004797032937650483 5.557801646028969e-05 0 0.0048265611950158178 4.49121465624907e-05 0 0.0048527167695863096 3.6441355900058067e-05 0 0.004797032937650483 5.557801646028969e-05 0 0.0048527167695863096 3.6441355900058067e-05 0 0.0048760841628038391 4.5909050977738019e-05 0 0.0049500120741655974 4.2790122575088699e-05 0 0.0049085562365264908 1.8004757620716592e-05 0 0.0048760841628038391 4.5909050977738019e-05 0 0.0049261123456531674 0.00016055655255911821 0 0.0049173520008459013 0.0001450376624010633 0 0.0049432109807534862 0.00018166632288263741 0 0.0042039527800567496 0.00035126895471214778 0 0.0045797602128648997 0.00032608143799531291 0 0.0043115976238946759 0.00028135592936747345 0 0.0049131919754249577 0.00015790245051179732 0 0.0049188718017370752 0.00016152430815357484 0 0.0049261123456531674 0.00016055655255911821 0 0.0049131919754249577 0.00015790245051179732 0 0.0049188718017370752 0.00016152430815357484 0 0.0049152270387325635 0.0001669503998282216 0 0.0049188718017370752 0.00016152430815357484 0 0.0049261123456531674 0.00016055655255911821 0 0.0049253936595757778 0.00016732804543922501 0 0.0049261123456531674 0.00016055655255911821 0 0.0049253936595757778 0.00016732804543922501 0 0.0049371307472020672 0.00016863053960191663 0 0.0049131919754249577 0.00015790245051179732 0 0.0049261123456531674 0.00016055655255911821 0 0.0049173520008459013 0.0001450376624010633 0 0.0042148814979286794 0.0003339148653247481 0 0.0042039527800567496 0.00035126895471214778 0 0.0043115976238946759 0.00028135592936747345 0 0.0049173520008459013 0.0001450376624010633 0 0.0048947383740620739 0.0001488766485681005 0 0.0048771264109328666 0.00014196410125529184 0 0.0049173520008459013 0.0001450376624010633 0 0.0048947383740620739 0.0001488766485681005 0 0.004904000613100654 0.00015537075421160492 0 0.0046023491259748741 0.00024199438888220019 0 0.0043573463839391624 0.00028140844731214422 0 0.0049173520008459013 0.0001450376624010633 0 0.0048531534371338367 0.00012399899572755678 0 0.0048771264109328666 0.00014196410125529184 0 0.0048947383740620739 0.0001488766485681005 0 0.0048912288013892111 0.00016196691000311557 0 0.0048771264109328666 0.00014196410125529184 0 0.0048947383740620739 0.0001488766485681005 0 0.0048912288013892111 0.00016196691000311557 0 0.004904000613100654 0.00015537075421160492 0 0.0049131919754249577 0.00015790245051179732 0 0.0049173520008459013 0.0001450376624010633 0 0.004904000613100654 0.00015537075421160492 0 0.0048912288013892111 0.00016196691000311557 0 0.004904000613100654 0.00015537075421160492 0 0.0049046177414988189 0.00016339472407072211 0 0.0049131919754249577 0.00015790245051179732 0 0.0049046177414988189 0.00016339472407072211 0 0.0049152270387325635 0.0001669503998282216 0 0.0049131919754249577 0.00015790245051179732 0 0.004904000613100654 0.00015537075421160492 0 0.0049046177414988189 0.00016339472407072211 0 0.0048912288013892111 0.00016196691000311557 0 0.0049046177414988189 0.00016339472407072211 0 0.0049046635757604351 0.00017577788620336217 0 0.0049046177414988189 0.00016339472407072211 0 0.0049046635757604351 0.00017577788620336217 0 0.0049152270387325635 0.0001669503998282216 0 0.0048912288013892111 0.00016196691000311557 0 0.0048893043791961239 0.00017809457669931022 0 0.0049046635757604351 0.00017577788620336217 0 0.0048893043791961239 0.00017809457669931022 0 0.0049046635757604351 0.00017577788620336217 0 0.0048929637121872286 0.00018438680373099295 0 0.0049046635757604351 0.00017577788620336217 0 0.0049186534546412841 0.00017449294908609741 0 0.0049075788374114719 0.00018465199741664158 0 0.0049046635757604351 0.00017577788620336217 0 0.0049186534546412841 0.00017449294908609741 0 0.0049152270387325635 0.0001669503998282216 0 0.0049186534546412841 0.00017449294908609741 0 0.0049152270387325635 0.0001669503998282216 0 0.0049253936595757778 0.00016732804543922501 0 0.0049188718017370752 0.00016152430815357484 0 0.0049152270387325635 0.0001669503998282216 0 0.0049253936595757778 0.00016732804543922501 0 0.0049186534546412841 0.00017449294908609741 0 0.0049253936595757778 0.00016732804543922501 0 0.0049316922335654071 0.00017049227325054522 0 0.0049186534546412841 0.00017449294908609741 0 0.0049316922335654071 0.00017049227325054522 0 0.0049254773524269749 0.00018219527437858172 0 0.0049316922335654071 0.00017049227325054522 0 0.0049424715633062328 0.0001648802572250343 0 0.0049371307472020672 0.00016863053960191663 0 0.0049424715633062328 0.0001648802572250343 0 0.0049371307472020672 0.00016863053960191663 0 0.0049398774335010793 0.00016679625538775769 0 0.0049253936595757778 0.00016732804543922501 0 0.0049316922335654071 0.00017049227325054522 0 0.0049371307472020672 0.00016863053960191663 0 0.0049398774335010793 0.00016679625538775769 0 0.0049432109807534862 0.00018166632288263741 0 0.0049168221749658382 0.00017106104823473551 0 0.0049398774335010793 0.00016679625538775769 0 0.0049456751767493869 0.00014512048933573959 0 0.0049168221749658382 0.00017106104823473551 0 0.0049424715633062328 0.0001648802572250343 0 0.0049398774335010793 0.00016679625538775769 0 0.0049456751767493869 0.00014512048933573959 0 0.0047437251613107207 0.00024954274714459376 0 0.0048492105867999338 0.00021873972170185937 0 0.0049432109807534862 0.00018166632288263741 0 0.0049168221749658382 0.00017106104823473551 0 0.004856766279823877 0.00021096695549521939 0 0.0045797602128648997 0.00032608143799531291 0 0.0046920409565404889 0.00019165423280581898 0 0.004856766279823877 0.00021096695549521939 0 0.0046023491259748741 0.00024199438888220019 0 0.0047437251613107207 0.00024954274714459376 0 0.0049261123456531674 0.00016055655255911821 0 0.0049371307472020672 0.00016863053960191663 0 0.0049432109807534862 0.00018166632288263741 0 0.0049371307472020672 0.00016863053960191663 0 0.0049398774335010793 0.00016679625538775769 0 0.0049432109807534862 0.00018166632288263741 0 0.0045797602128648997 0.00032608143799531291 0 0.0044256152811975374 0.00023875487150484839 0 0.0043115976238946759 0.00028135592936747345 0 0.0045797602128648997 0.00032608143799531291 0 0.0044256152811975374 0.00023875487150484839 0 0.0045152316258026889 0.00020255546116950698 0 0.0045152316258026889 0.00020255546116950698 0 0.0045975848110057964 0.00013002335357926298 0 0.0044744331293846799 8.8962755828979787e-05 0 0.0045152316258026889 0.00020255546116950698 0 0.0043961589868896271 0.0001736269570515039 0 0.0044744331293846799 8.8962755828979787e-05 0 0.0044256152811975374 0.00023875487150484839 0 0.0045152316258026889 0.00020255546116950698 0 0.0043961589868896271 0.0001736269570515039 0 0.0045152316258026889 0.00020255546116950698 0 0.0046920409565404889 0.00019165423280581898 0 0.0045975848110057964 0.00013002335357926298 0 0.0045797602128648997 0.00032608143799531291 0 0.0045152316258026889 0.00020255546116950698 0 0.0046920409565404889 0.00019165423280581898 0 0.0046920409565404889 0.00019165423280581898 0 0.0045975848110057964 0.00013002335357926298 0 0.0047069368270955016 9.530416071501952e-05 0 0.0045975848110057964 0.00013002335357926298 0 0.0047069368270955016 9.530416071501952e-05 0 0.0045851059542709434 2.5243311956817866e-05 0 0.0047069368270955016 9.530416071501952e-05 0 0.0045851059542709434 2.5243311956817866e-05 0 0.0047093709384237268 9.2701779471286926e-06 0 0.0043961589868896271 0.0001736269570515039 0 0.0044744331293846799 8.8962755828979787e-05 0 0.0043750570777876634 0.0001116909573249601 0 0.0044744331293846799 8.8962755828979787e-05 0 0.0043767229562180808 3.8774624275299557e-05 0 0.0043750570777876634 0.0001116909573249601 0 0.0045975848110057964 0.00013002335357926298 0 0.0045851059542709434 2.5243311956817866e-05 0 0.0044744331293846799 8.8962755828979787e-05 0 0.0045851059542709434 2.5243311956817866e-05 0 0.0044744331293846799 8.8962755828979787e-05 0 0.0044770941220695221 7.3647630210483052e-06 0 0.0044744331293846799 8.8962755828979787e-05 0 0.0044770941220695221 7.3647630210483052e-06 0 0.0043767229562180808 3.8774624275299557e-05 0 0.0043988703770723291 -4.6678913924389119e-05 0 0.0044770941220695221 7.3647630210483052e-06 0 0.0043767229562180808 3.8774624275299557e-05 0 0.0043372797488521672 -1.8186190263488428e-05 0 0.0043767229562180808 3.8774624275299557e-05 0 0.0042781171380714004 1.2338589322907339e-05 0 0.0042781171380714004 1.2338589322907339e-05 0 0.004317177033274628 0.00010815265154888776 0 0.0042946253690946696 0.00018548688158323868 0 0.0043767229562180808 3.8774624275299557e-05 0 0.0042781171380714004 1.2338589322907339e-05 0 0.004317177033274628 0.00010815265154888776 0 0.0043767229562180808 3.8774624275299557e-05 0 0.004317177033274628 0.00010815265154888776 0 0.0043750570777876634 0.0001116909573249601 0 0.004317177033274628 0.00010815265154888776 0 0.0043750570777876634 0.0001116909573249601 0 0.0043425897869429769 0.000156932154964815 0 0.0042148814979286794 0.0003339148653247481 0 0.0042781171380714004 1.2338589322907339e-05 0 0.0042946253690946696 0.00018548688158323868 0 0.0043961589868896271 0.0001736269570515039 0 0.0043750570777876634 0.0001116909573249601 0 0.0043425897869429769 0.000156932154964815 0 0.0042046470764101999 0.00034744475108596786 0 0.004190558611172476 0.00019952631520920195 0 0.0043961589868896271 0.0001736269570515039 0 0.0043497212072088802 0.00020841995845199829 0 0.0043425897869429769 0.000156932154964815 0 0.0042148814979286794 0.0003339148653247481 0 0.0040681335484597861 0.00040985963207265398 0 0.0041144955018711455 0.00038945027071815737 0 0.0043497212072088802 0.00020841995845199829 0 0.0042946253690946696 0.00018548688158323868 0 0.0043115976238946759 0.00028135592936747345 0 0.0044256152811975374 0.00023875487150484839 0 0.0043961589868896271 0.0001736269570515039 0 0.0043497212072088802 0.00020841995845199829 0 0.0043497212072088802 0.00020841995845199829 0 0.0043425897869429769 0.000156932154964815 0 0.0042946253690946696 0.00018548688158323868 0 0.004317177033274628 0.00010815265154888776 0 0.0043425897869429769 0.000156932154964815 0 0.0042946253690946696 0.00018548688158323868 0 0.0042148814979286794 0.0003339148653247481 0 0.0042946253690946696 0.00018548688158323868 0 0.0043115976238946759 0.00028135592936747345 0 0.0044256152811975374 0.00023875487150484839 0 0.0043497212072088802 0.00020841995845199829 0 0.0043115976238946759 0.00028135592936747345 0 0.0042148814979286794 0.0003339148653247481 0 0.0041144955018711455 0.00038945027071815737 0 0.00419828896119073 0.00034665238373269929 0 0.0042039527800567496 0.00035126895471214778 0 0.00419828896119073 0.00034665238373269929 0 0.0042067565562690793 0.00034550904240526325 0 0.00419828896119073 0.00034665238373269929 0 0.0042059150326647374 0.00035829878022678482 0 0.0042067565562690793 0.00034550904240526325 0 0.0042148814979286794 0.0003339148653247481 0 0.0042039527800567496 0.00035126895471214778 0 0.00419828896119073 0.00034665238373269929 0 0.0041144955018711455 0.00038945027071815737 0 0.00419828896119073 0.00034665238373269929 0 0.0042059150326647374 0.00035829878022678482 0 0.0041319531635308163 0.00038552524870551734 0 0.0040550452736770239 0.00044615681239740864 0 0.0040025416753102002 0.00047994814051486104 0 0.0040555544357040096 0.00039865646791113681 0 0.0040051372398004839 0.00040272508892514583 0 0.0041144955018711455 0.00038945027071815737 0 0.0040025416753102002 0.00047994814051486104 0 0.0040555544357040096 0.00039865646791113681 0 0.0040681335484597861 0.00040985963207265398 0 0.0040555544357040096 0.00039865646791113681 0 0.004026551207138275 0.00038901077128204216 0 0.0040681335484597861 0.00040985963207265398 0 0.0041144955018711455 0.00038945027071815737 0 0.0040555544357040096 0.00039865646791113681 0 0.0039816453600471351 0.00037686046043572386 0 0.004026551207138275 0.00038901077128204216 0 0.0040051372398004839 0.00040272508892514583 0 0.0040555544357040096 0.00039865646791113681 0 0.004026551207138275 0.00038901077128204216 0 0.0040051372398004839 0.00040272508892514583 0 0.0040025416753102002 0.00047994814051486104 0 0.0040051372398004839 0.00040272508892514583 0 0.0039486485492928143 0.00040813433989205162 0 0.0039816453600471351 0.00037686046043572386 0 0.0040051372398004839 0.00040272508892514583 0 0.0039486485492928143 0.00040813433989205162 0 0.0040025416753102002 0.00047994814051486104 0 0.0039486485492928143 0.00040813433989205162 0 0.003924243151824114 0.00045012655453450557 0 0.0039486485492928143 0.00040813433989205162 0 0.003924243151824114 0.00045012655453450557 0 0.0038797557357344178 0.00039645608143259434 0 0.0039316311429913034 0.00037363240370227608 0 0.0039486485492928143 0.00040813433989205162 0 0.0038797557357344178 0.00039645608143259434 0 0.0038797557357344178 0.00039645608143259434 0 0.0038642064097347724 0.00045324805802430564 0 0.0038273351075014516 0.00041946722810079951 0 0.003924243151824114 0.00045012655453450557 0 0.0038797557357344178 0.00039645608143259434 0 0.0038642064097347724 0.00045324805802430564 0 0.0043573463839391624 0.00028140844731214422 0 0.0040287825015882153 0.0003612192671305627 0 0.003924243151824114 0.00045012655453450557 0 0.0038642064097347724 0.00045324805802430564 0 0.0039320834667207838 0.00051513056515577096 0 0.0038642064097347724 0.00045324805802430564 0 0.0039320834667207838 0.00051513056515577096 0 0.0038370631288403173 0.00049356937837702656 0 0.0040550452736770239 0.00044615681239740864 0 0.0043573463839391624 0.00028140844731214422 0 0.0040025416753102002 0.00047994814051486104 0 0.003924243151824114 0.00045012655453450557 0 0.0039320834667207838 0.00051513056515577096 0 0.00373714630002032 0.00043646501194099114 0 0.003778034658256399 0.00041103011040687131 0 0.0037650637487771049 0.00047406720854487364 0 0.0038642064097347724 0.00045324805802430564 0 0.0038273351075014516 0.00041946722810079951 0 0.0038022947013692078 0.00045151928069043444 0 0.0038255039583562469 0.00038052876309973118 0 0.003778034658256399 0.00041103011040687131 0 0.0038273351075014516 0.00041946722810079951 0 0.003778034658256399 0.00041103011040687131 0 0.0038273351075014516 0.00041946722810079951 0 0.0038022947013692078 0.00045151928069043444 0 0.0038255039583562469 0.00038052876309973118 0 0.0038797557357344178 0.00039645608143259434 0 0.0038273351075014516 0.00041946722810079951 0 0.0038022947013692078 0.00045151928069043444 0 0.0038370631288403173 0.00049356937837702656 0 0.0037650637487771049 0.00047406720854487364 0 0.0038642064097347724 0.00045324805802430564 0 0.0038022947013692078 0.00045151928069043444 0 0.0038370631288403173 0.00049356937837702656 0 0.0040287825015882153 0.0003612192671305627 0 0.0040030367987877935 0.00035260915876392885 0 0.0043008448215505427 0.00021847458919130888 0 0.0042795970977365424 0.00021682376940610092 0 0.0042865756549486343 0.0002251330702767079 0 0.003778034658256399 0.00041103011040687131 0 0.0038022947013692078 0.00045151928069043444 0 0.0037650637487771049 0.00047406720854487364 0 0.0042753472534255285 0.00022508891631716201 0 0.0042814481518775099 0.00023129829115429209 0 0.0042865756549486343 0.0002251330702767079 0 0.0044098674959638252 0.00020084944282955977 0 0.0042952147883182461 0.00024473175363134124 0 0.0042753472534255285 0.00022508891631716201 0 0.0042795970977365424 0.00021682376940610092 0 0.0042865756549486343 0.0002251330702767079 0 0.0042865756549486343 0.0002251330702767079 0 0.0042944935942222703 0.00022883176945277117 0 0.0042881892776367794 0.00023386901681522114 0 0.0042814481518775099 0.00023129829115429209 0 0.0042865756549486343 0.0002251330702767079 0 0.0042881892776367794 0.00023386901681522114 0 0.0043008448215505427 0.00021847458919130888 0 0.0042865756549486343 0.0002251330702767079 0 0.0042944935942222703 0.00022883176945277117 0 0.0043008448215505427 0.00021847458919130888 0 0.0042944935942222703 0.00022883176945277117 0 0.0043025260922312427 0.00023375877140143904 0 0.0042944935942222703 0.00022883176945277117 0 0.0043025260922312427 0.00023375877140143904 0 0.0042881892776367794 0.00023386901681522114 0 0.0048012469447080101 0.00016138147280403352 0 0.0047836740219203925 0.00019907517850326954 0 0.0047664207832185763 0.00018387671724082427 0 0.0048318952974586733 0.00019066230810440744 0 0.0048556403513592122 0.00018470817082479082 0 0.0048012469447080101 0.00016138147280403352 0 0.0047836740219203925 0.00019907517850326954 0 0.0048357024241365764 0.00019112817046204318 0 0.0046463631786520087 0.00016977737361884983 0 0.0044066681226543128 0.00020565004354923649 0 0.0045527209249433351 0.00017779675030029106 0 0.0045797689687370226 0.00017570999322284397 0 0.004577955650300238 0.00015968388152358293 0 0.0046463631786520087 0.00016977737361884983 0 0.0046667841441743576 0.00017548126061292979 0 0.0047320756066851167 0.00020597017410144011 0 0.0047836740219203925 0.00019907517850326954 0 0.0047664207832185763 0.00018387671724082427 0 0.0045797689687370226 0.00017570999322284397 0 0.004577955650300238 0.00015968388152358293 0 0.0045978583701010061 0.00016095433293502947 0 0.0047437851385046985 0.00016458911571447089 0 0.0046667841441743576 0.00017548126061292979 0 0.0046067999468389345 0.00013944791907297225 0 0.004577955650300238 0.00015968388152358293 0 0.0045978583701010061 0.00016095433293502947 0 0.0044098674959638252 0.00020084944282955977 0 0.0044066681226543128 0.00020565004354923649 0 0.0042765268869481062 0.00023350703981845042 0 0.0042814481518775099 0.00023129829115429209 0 0.0042881892776367794 0.00023386901681522114 0 0.0046102730870357846 0.00017422212829076175 0 0.0045797689687370226 0.00017570999322284397 0 0.0045978583701010061 0.00016095433293502947 0 0.0048912288013892111 0.00016196691000311557 0 0.0048692321814663413 0.00015887281325606083 0 0.0048771264109328666 0.00014196410125529184 0 0.0048531534371338367 0.00012399899572755678 0 0.0048692321814663413 0.00015887281325606083 0 0.0048771264109328666 0.00014196410125529184 0 0.0048531534371338367 0.00012399899572755678 0 0.0047798226901758292 0.00016794702311913312 0 0.0048692321814663413 0.00015887281325606083 0 0.0046463631786520087 0.00016977737361884983 0 0.0049279444136214115 0.00015617075943470519 0 0.004323362266705791 0.0002213042389863581 0 0.0043008448215505427 0.00021847458919130888 0 0.0043025260922312427 0.00023375877140143904 0 0.0043573463839391624 0.00028140844731214422 0 0.0046463631786520087 0.00016977737361884983 0 0.0048012469447080101 0.00016138147280403352 0 0.0048692321814663413 0.00015887281325606083 0 0.0048357024241365764 0.00019112817046204318 0 0.0048893043791961239 0.00017809457669931022 0 0.0048785600596717351 0.00017883749027906029 0 0.0048929637121872286 0.00018438680373099295 0 0.0048893043791961239 0.00017809457669931022 0 0.0048692321814663413 0.00015887281325606083 0 0.0048357024241365764 0.00019112817046204318 0 0.0048870454506563217 0.00017899472383798987 0 0.0048556403513592122 0.00018470817082479082 0 0.0048912288013892111 0.00016196691000311557 0 0.0048893043791961239 0.00017809457669931022 0 0.0048692321814663413 0.00015887281325606083 0 0.0048870466941799313 0.00019042952357922207 0 0.0048995640138037554 0.00019760433019461746 0 0.0048929637121872286 0.00018438680373099295 0 0.0048785600596717351 0.00017883749027906029 0 0.0048870466941799313 0.00019042952357922207 0 0.0048929637121872286 0.00018438680373099295 0 0.0048785600596717351 0.00017883749027906029 0 0.0048870466941799313 0.00019042952357922207 0 0.0048790942252623874 0.00019011639386819866 0 0.0048785600596717351 0.00017883749027906029 0 0.004871791474239536 0.00018502390414604829 0 0.0048790942252623874 0.00019011639386819866 0 0.0048633369109074521 0.00018008305095822114 0 0.0048785600596717351 0.00017883749027906029 0 0.004871791474239536 0.00018502390414604829 0 0.0048730524901928491 0.00018940695654028582 0 0.0048790942252623874 0.00019011639386819866 0 0.0048708634994107641 0.00019337382838554898 0 0.004871791474239536 0.00018502390414604829 0 0.0048730524901928491 0.00018940695654028582 0 0.0048790942252623874 0.00019011639386819866 0 0.004871791474239536 0.00018502390414604829 0 0.0048730524901928491 0.00018940695654028582 0 0.0048704577276358421 0.00018911479027440171 0 0.0048730524901928491 0.00018940695654028582 0 0.0048704577276358421 0.00018911479027440171 0 0.0048708634994107641 0.00019337382838554898 0 0.0048790942252623874 0.00019011639386819866 0 0.0048829847514552391 0.00020437244561090985 0 0.0048708634994107641 0.00019337382838554898 0 0.0048829847514552391 0.00020437244561090985 0 0.0048708634994107641 0.00019337382838554898 0 0.0048688985615089843 0.00019628211842935488 0 0.0049395295563627664 0.00010884264190097332 0 0.0049451494707952589 7.8336023926618218e-05 0 0.0048870466941799313 0.00019042952357922207 0 0.0048790942252623874 0.00019011639386819866 0 0.0048829847514552391 0.00020437244561090985 0 0.0048870466941799313 0.00019042952357922207 0 0.0048829847514552391 0.00020437244561090985 0 0.0048995640138037554 0.00019760433019461746 0 0.0048829847514552391 0.00020437244561090985 0 0.0048998184350491645 0.00021317363119894501 0 0.0048995640138037554 0.00019760433019461746 0 0.0048469972121338231 0.00018137834300673732 0 0.0048633369109074521 0.00018008305095822114 0 0.0048582027201962306 0.00018512069360718359 0 0.0047437851385046985 0.00016458911571447089 0 0.0048318952974586733 0.00019066230810440744 0 0.0049968995944929973 6.7475036427947317e-06 0 0.0049971802847428573 4.2684490208085667e-06 0 0.0049950375287237973 5.8773487329212193e-06 0 0.0048428225725083629 0.0001839188795063442 0 0.0048469972121338231 0.00018137834300673732 0 0.0048563362552493305 0.0001904512960496133 0 0.0048714941359220814 0.00010148788943138228 0 0.0049316604918883157 0.00010091975495925989 0 0.0048469972121338231 0.00018137834300673732 0 0.0048582027201962306 0.00018512069360718359 0 0.0048563362552493305 0.0001904512960496133 0 0.0048582027201962306 0.00018512069360718359 0 0.0048563362552493305 0.0001904512960496133 0 0.0048658125186053867 0.00018838380664460444 0 0.0048633369109074521 0.00018008305095822114 0 0.0048582027201962306 0.00018512069360718359 0 0.0048658125186053867 0.00018838380664460444 0 0.0048633369109074521 0.00018008305095822114 0 0.004871791474239536 0.00018502390414604829 0 0.0048658125186053867 0.00018838380664460444 0 0.004871791474239536 0.00018502390414604829 0 0.0048658125186053867 0.00018838380664460444 0 0.0048704577276358421 0.00018911479027440171 0 0.0048658125186053867 0.00018838380664460444 0 0.0048704577276358421 0.00018911479027440171 0 0.0048708634994107641 0.00019337382838554898 0 0.0048563362552493305 0.0001904512960496133 0 0.0048658125186053867 0.00018838380664460444 0 0.0048690704585251689 0.00019612815546596739 0 0.0049316604918883157 0.00010091975495925989 0 0.0049451494707952589 7.8336023926618218e-05 0 0.0049920198522617303 5.0284993813189405e-06 0 0.0049949051784056574 3.710372281800058e-06 0 0.0049956995060423332 1.1782872215209993e-06 0 0.0049950375287237973 5.8773487329212193e-06 0 0.0049920198522617303 5.0284993813189405e-06 0 0.0049949051784056574 3.710372281800058e-06 0 0.0048658125186053867 0.00018838380664460444 0 0.0048708634994107641 0.00019337382838554898 0 0.0048690704585251689 0.00019612815546596739 0 0.0048987193860752396 0.00014805224248445623 0 0.0049451494707952589 7.8336023926618218e-05 0 0.0049971802847428573 4.2684490208085667e-06 0 0.0049950375287237973 5.8773487329212193e-06 0 0.0049967370986724879 2.8129797908724805e-06 0 0.0049950375287237973 5.8773487329212193e-06 0 0.0049949051784056574 3.710372281800058e-06 0 0.0049967370986724879 2.8129797908724805e-06 0 0.004999040249627538 8.1133481472412343e-07 0 0.0049967370986724879 2.8129797908724805e-06 0 0.0049956995060423332 1.1782872215209993e-06 0 0.0049949051784056574 3.710372281800058e-06 0 0.0049967370986724879 2.8129797908724805e-06 0 0.0049956995060423332 1.1782872215209993e-06 0 0.0049451494707952589 7.8336023926618218e-05 0 0.0050083918170632531 -1.4012551459310929e-05 0 0.0049996966032920392 2.9116091288829754e-06 0 0.0050004129839270267 9.1354892185516587e-07 0 0.0049997275029446397 1.2031689576233323e-06 0 0.0050004129839270267 9.1354892185516587e-07 0 0.0050000002394597108 5.5156542652861672e-10 0 0.0049997275029446397 1.2031689576233323e-06 0 0.0050083918170632531 -1.4012551459310929e-05 0 0.0049999843647767703 2.2247800073214098e-08 0 0.0050004129839270267 9.1354892185516587e-07 0 0.0050000002394597108 5.5156542652861672e-10 0 0.0050000010542556655 1.4072808386893953e-10 0 0.004999040249627538 8.1133481472412343e-07 0 0.0049956995060423332 1.1782872215209993e-06 0 0.0049999938139010658 -1.2263791447570218e-09 0 0.0049395295563627664 0.00010884264190097332 0 0.0049686802928899949 5.0885393606428041e-05 0 0.0049989899553775745 2.358447168602233e-06 0 0.0049994289029219969 4.4642049778301621e-07 0 0.0049972323172691093 1.9465023122277509e-06 0 0.0050140024256807867 -1.0699941647471251e-05 0 0.0049686802928899949 5.0885393606428041e-05 0 0.0049989899553775745 2.358447168602233e-06 0 0.0049996966032920392 2.9116091288829754e-06 0 0.0049997275029446397 1.2031689576233323e-06 0 0.0049989899553775745 2.358447168602233e-06 0 0.0049997275029446397 1.2031689576233323e-06 0 0.0049994289029219969 4.4642049778301621e-07 0 0.0050000002394597108 5.5156542652861672e-10 0 0.0049997275029446397 1.2031689576233323e-06 0 0.0049994289029219969 4.4642049778301621e-07 0 0.0050000002394597108 5.5156542652861672e-10 0 0.0049999975012124508 1.3415487703965412e-10 0 0.0049994289029219969 4.4642049778301621e-07 0 0.0049994289029219969 4.4642049778301621e-07 0 0.0049998953729988947 2.9730428947135058e-07 0 0.0049997662291838196 3.0444726055532604e-07 0 0.0049999975012124508 1.3415487703965412e-10 0 0.0049994289029219969 4.4642049778301621e-07 0 0.0049998953729988947 2.9730428947135058e-07 0 0.0049999975012124508 1.3415487703965412e-10 0 0.0049998953729988947 2.9730428947135058e-07 0 0.005000003912053708 2.3377677372814045e-09 0 0.0049998953729988947 2.9730428947135058e-07 0 0.005000003912053708 2.3377677372814045e-09 0 0.0050000084557325387 4.4063810485352261e-07 0 0.005000003912053708 2.3377677372814045e-09 0 0.0050000084557325387 4.4063810485352261e-07 0 0.0050005123073276689 1.754352941787413e-06 0 0.0050070079000334314 4.6892573058250674e-06 0 0.0049999456867600642 1.4443781665486233e-06 0 0.0050088752834458444 6.3640795404393768e-06 0 0.005002738493987891 9.2417742822429882e-06 0 0.0050005123073276689 1.754352941787413e-06 0 0.0050088752834458444 6.3640795404393768e-06 0 0.0050169650352171555 1.083580305278952e-05 0 0.0050068811075830583 1.8429478152315664e-05 0 0.0050088752834458444 6.3640795404393768e-06 0 0.0050068811075830583 1.8429478152315664e-05 0 0.005002738493987891 9.2417742822429882e-06 0 0.0049998953729988947 2.9730428947135058e-07 0 0.0050000084557325387 4.4063810485352261e-07 0 0.0049997662291838196 3.0444726055532604e-07 0 0.0049686802928899949 5.0885393606428041e-05 0 0.0049588618109741942 0.00011804790287595242 0 0.0050070079000334314 4.6892573058250674e-06 0 0.0049686802928899949 5.0885393606428041e-05 0 0.0048995640138037554 0.00019760433019461746 0 0.0049193237683276998 0.00020286030306228229 0 0.0049075788374114719 0.00018465199741664158 0 0.0048998184350491645 0.00021317363119894501 0 0.0048995640138037554 0.00019760433019461746 0 0.0049193237683276998 0.00020286030306228229 0 0.0049193237683276998 0.00020286030306228229 0 0.0049254773524269749 0.00018219527437858172 0 0.0049075788374114719 0.00018465199741664158 0 0.0049186534546412841 0.00017449294908609741 0 0.0049254773524269749 0.00018219527437858172 0 0.0049075788374114719 0.00018465199741664158 0 0.0048995640138037554 0.00019760433019461746 0 0.0049075788374114719 0.00018465199741664158 0 0.0048929637121872286 0.00018438680373099295 0 0.0049046635757604351 0.00017577788620336217 0 0.0049075788374114719 0.00018465199741664158 0 0.0048929637121872286 0.00018438680373099295 0 0.0049456751767493869 0.00014512048933573959 0 0.004979571963211059 7.230370466811401e-05 0 0.0049376891669559017 0.00010773196922286537 0 0.0049456751767493869 0.00014512048933573959 0 0.0050116624027167827 0.00010946889396586088 0 0.004979571963211059 7.230370466811401e-05 0 0.0049492094637215251 0.00014636626334056337 0 0.0049687167673278876 0.00011422945005814781 0 0.0049424715633062328 0.0001648802572250343 0 0.0049456751767493869 0.00014512048933573959 0 0.0049437085063921537 0.00015828588152134372 0 0.0049495417002425367 0.00017907012007309627 0 0.0049687167673278876 0.00011422945005814781 0 0.0049193237683276998 0.00020286030306228229 0 0.0049254773524269749 0.00018219527437858172 0 0.0049444665358512798 0.0001872239985406288 0 0.0049316922335654071 0.00017049227325054522 0 0.0049424715633062328 0.0001648802572250343 0 0.0049254773524269749 0.00018219527437858172 0 0.0049424715633062328 0.0001648802572250343 0 0.0049254773524269749 0.00018219527437858172 0 0.0049444665358512798 0.0001872239985406288 0 0.0049588618109741942 0.00011804790287595242 0 0.0049687167673278876 0.00011422945005814781 0 0.0049687167673278876 0.00011422945005814781 0 0.0050053375092877269 1.6344031662946087e-05 0 0.0050068811075830583 1.8429478152315664e-05 0 0.0049948872047757597 2.7818738576891429e-05 0 0.0049947404879045129 1.0679423620319857e-05 0 0.0050116624027167827 0.00010946889396586088 0 0.004979571963211059 7.230370466811401e-05 0 0.005009995411134398 3.8388728587478454e-05 0 0.004979571963211059 7.230370466811401e-05 0 0.005009995411134398 3.8388728587478454e-05 0 0.0049948658484233587 1.6539206044204975e-05 0 0.005002738493987891 9.2417742822429882e-06 0 0.0049947404879045129 1.0679423620319857e-05 0 0.0050005123073276689 1.754352941787413e-06 0 0.0050068811075830583 1.8429478152315664e-05 0 0.005002738493987891 9.2417742822429882e-06 0 0.0049947404879045129 1.0679423620319857e-05 0 0.005000003912053708 2.3377677372814045e-09 0 0.0050005123073276689 1.754352941787413e-06 0 0.0049999915491629335 -3.8458161550195428e-10 0 0.0049947404879045129 1.0679423620319857e-05 0 0.0050005123073276689 1.754352941787413e-06 0 0.0049999915491629335 -3.8458161550195428e-10 0 0.0050053375092877269 1.6344031662946087e-05 0 0.0050000002678109593 1.9624866336428261e-08 0 0.0049948658484233587 1.6539206044204975e-05 0 0.0050000235687511618 1.2496793063846543e-09 0 0.0049999846033630902 5.0044545344977666e-09 0 0.005009995411134398 3.8388728587478454e-05 0 0.0049948658484233587 1.6539206044204975e-05 0 0.0050000235687511618 1.2496793063846543e-09 0 0.0049948658484233587 1.6539206044204975e-05 0 0.0049999846033630902 5.0044545344977666e-09 0 0.0049614124438160483 3.3634692815221442e-05 0 0.0049999846033630902 5.0044545344977666e-09 0 0.0049999579834240915 8.2810378555944056e-09 0 0.0049614124438160483 3.3634692815221442e-05 0 0.0050000169982067962 -5.6170823865780017e-08 0 0.0049830596055637916 7.0952915893819902e-06 0 0.0049718635545238704 6.7532702341050352e-05 0 0.0049999845369251067 1.1993709672913501e-08 0 0.0049666112767477073 5.1084935479193689e-05 0 0.0050000169982067962 -5.6170823865780017e-08 0 0.0049830596055637916 7.0952915893819902e-06 0 0.0049999097993853022 7.278798127096412e-08 0 0.0049830596055637916 7.0952915893819902e-06 0 0.0049481243187410083 6.2988432082009522e-05 0 0.0048956720285014271 8.7923431306969379e-05 0 0.0049830596055637916 7.0952915893819902e-06 0 0.0049481243187410083 6.2988432082009522e-05 0 0.0049718635545238704 6.7532702341050352e-05 0 0.0049742348646177265 9.9567846162095511e-06 0 0.0049374504379125069 4.319994260760182e-05 0 0.0049481243187410083 6.2988432082009522e-05 0 0.004934882710966859 9.0357180064243724e-05 0 0.0048956720285014271 8.7923431306969379e-05 0 0.0049481243187410083 6.2988432082009522e-05 0 0.004934882710966859 9.0357180064243724e-05 0 0.0049718635545238704 6.7532702341050352e-05 0 0.004979571963211059 7.230370466811401e-05 0 0.0049948658484233587 1.6539206044204975e-05 0 0.0049614124438160483 3.3634692815221442e-05 0 0.0049881949931065697 -4.7053078238138366e-06 0 0.0049999744956471691 -6.3210289408116713e-09 0 0.0049860400043802624 -4.8198703404266757e-06 0 0.0049881949931065697 -4.7053078238138366e-06 0 0.0049999744956471691 -6.3210289408116713e-09 0 0.0049911938569000766 -3.9190090581461349e-06 0 0.0049911938569000766 -3.9190090581461349e-06 0 0.0049999856274704135 -2.8626739845539427e-09 0 0.0049837274617019452 -6.8156661128907472e-06 0 0.0049830596055637916 7.0952915893819902e-06 0 0.0049999097993853022 7.278798127096412e-08 0 0.0049750097190709415 -6.8060680608444337e-07 0 0.0049999915394815528 -2.8354234966432257e-10 0 0.0049793576329465955 -3.9218684449531102e-06 0 0.0049999744956471691 -6.3210289408116713e-09 0 0.0049911938569000766 -3.9190090581461349e-06 0 0.0049999856274704135 -2.8626739845539427e-09 0 0.0049830596055637916 7.0952915893819902e-06 0 0.0049719498602961258 -2.7306464684311327e-06 0 0.0049750097190709415 -6.8060680608444337e-07 0 0.0049911938569000766 -3.9190090581461349e-06 0 0.0049837274617019452 -6.8156661128907472e-06 0 0.0049829851455008151 -6.798670445783403e-06 0 0.0049881949931065697 -4.7053078238138366e-06 0 0.0049911938569000766 -3.9190090581461349e-06 0 0.0049829851455008151 -6.798670445783403e-06 0 0.0049837274617019452 -6.8156661128907472e-06 0 0.0049829851455008151 -6.798670445783403e-06 0 0.0049735457922974024 -1.0060937411532079e-05 0 0.0049786075313082608 -7.8634604731709722e-06 0 0.0049735457922974024 -1.0060937411532079e-05 0 0.0049676752578604617 -1.0822422919348033e-05 0 0.0049829851455008151 -6.798670445783403e-06 0 0.0049786075313082608 -7.8634604731709722e-06 0 0.0049735457922974024 -1.0060937411532079e-05 0 0.0049881949931065697 -4.7053078238138366e-06 0 0.0049829851455008151 -6.798670445783403e-06 0 0.0049786075313082608 -7.8634604731709722e-06 0 0.0049837274617019452 -6.8156661128907472e-06 0 0.0049735457922974024 -1.0060937411532079e-05 0 0.0049643150761635368 -1.3388343574911027e-05 0 0.0049640968352266911 -1.2652445217622636e-05 0 0.0049569067571862144 -1.4267946599879887e-05 0 0.0049572737704318233 -1.341754310208515e-05 0 0.0049640968352266911 -1.2652445217622636e-05 0 0.0049735457922974024 -1.0060937411532079e-05 0 0.0049676752578604617 -1.0822422919348033e-05 0 0.0049640968352266911 -1.2652445217622636e-05 0 0.0049735457922974024 -1.0060937411532079e-05 0 0.0049643150761635368 -1.3388343574911027e-05 0 0.0049374504379125069 4.319994260760182e-05 0 0.0049226375266455099 6.9088361492015439e-05 0 0.0048956720285014271 8.7923431306969379e-05 0 0.0048944657351088685 0.00014046330500468301 0 0.0049142148547818721 0.00011701402676761769 0 0.0049719498602961258 -2.7306464684311327e-06 0 0.0049750097190709415 -6.8060680608444337e-07 0 0.0049643150761635368 -1.3388343574911027e-05 0 0.0049793576329465955 -3.9218684449531102e-06 0 0.0049674064181122225 -1.241539476372954e-05 0 0.0048956720285014271 8.7923431306969379e-05 0 0.0048944657351088685 0.00014046330500468301 0 0.0048780552394491637 0.00015626554305024171 0 0.0049719498602961258 -2.7306464684311327e-06 0 0.004963027872846454 -1.4891754019101702e-05 0 0.0049643150761635368 -1.3388343574911027e-05 0 0.0048944657351088685 0.00014046330500468301 0 0.0048879908836960513 0.00015806804001534754 0 0.0048932296406224056 0.00015888663322232916 0 0.0048879908836960513 0.00015806804001534754 0 0.0048932296406224056 0.00015888663322232916 0 0.0048895091307067113 0.00016767261557469097 0 0.0048879908836960513 0.00015806804001534754 0 0.0048780552394491637 0.00015626554305024171 0 0.0048895091307067113 0.00016767261557469097 0 0.0048944657351088685 0.00014046330500468301 0 0.0048879908836960513 0.00015806804001534754 0 0.0048780552394491637 0.00015626554305024171 0 0.004963027872846454 -1.4891754019101702e-05 0 0.0049643150761635368 -1.3388343574911027e-05 0 0.0049530421713047303 -1.4732974110961501e-05 0 0.0049643150761635368 -1.3388343574911027e-05 0 0.0049530421713047303 -1.4732974110961501e-05 0 0.0049569067571862144 -1.4267946599879887e-05 0 0.0049640968352266911 -1.2652445217622636e-05 0 0.0049643150761635368 -1.3388343574911027e-05 0 0.0049569067571862144 -1.4267946599879887e-05 0 0.004979571963211059 7.230370466811401e-05 0 0.0049614124438160483 3.3634692815221442e-05 0 0.0049376891669559017 0.00010773196922286537 0 0.0049666112767477073 5.1084935479193689e-05 0 0.0049387572733769628 0.00012273289815157681 0 0.0049718635545238704 6.7532702341050352e-05 0 0.0049318190814277661 0.00011704535655301399 0 0.0049388257759583462 0.00013891835442784002 0 0.0049318190814277661 0.00011704535655301399 0 0.0049222307777339949 0.000139174086096563 0 0.0049388257759583462 0.00013891835442784002 0 0.004934882710966859 9.0357180064243724e-05 0 0.0049718635545238704 6.7532702341050352e-05 0 0.0049318190814277661 0.00011704535655301399 0 0.004934882710966859 9.0357180064243724e-05 0 0.0049142148547818721 0.00011701402676761769 0 0.0049318190814277661 0.00011704535655301399 0 0.004934882710966859 9.0357180064243724e-05 0 0.0048956720285014271 8.7923431306969379e-05 0 0.0049142148547818721 0.00011701402676761769 0 0.0049142148547818721 0.00011701402676761769 0 0.0049318190814277661 0.00011704535655301399 0 0.0049094571849398255 0.00014031236783072022 0 0.0048944657351088685 0.00014046330500468301 0 0.0049142148547818721 0.00011701402676761769 0 0.0049094571849398255 0.00014031236783072022 0 0.0049318190814277661 0.00011704535655301399 0 0.0049222307777339949 0.000139174086096563 0 0.0049094571849398255 0.00014031236783072022 0 0.0049222307777339949 0.000139174086096563 0 0.0049094571849398255 0.00014031236783072022 0 0.0049065880833446844 0.00015697593636844937 0 0.0048944657351088685 0.00014046330500468301 0 0.0048932296406224056 0.00015888663322232916 0 0.0049094571849398255 0.00014031236783072022 0 0.0048932296406224056 0.00015888663322232916 0 0.0049065880833446844 0.00015697593636844937 0 0.0048852676826855431 0.00017334512820573597 0 0.0048932296406224056 0.00015888663322232916 0 0.0049094571849398255 0.00014031236783072022 0 0.0049065880833446844 0.00015697593636844937 0 0.0049387572733769628 0.00012273289815157681 0 0.0049224594039218314 0.00016787275026776218 0 0.0049065880833446844 0.00015697593636844937 0 0.0049388257759583462 0.00013891835442784002 0 0.0049168221749658382 0.00017106104823473551 0 0.0049456751767493869 0.00014512048933573959 0 0.0049376891669559017 0.00010773196922286537 0 0.0049168221749658382 0.00017106104823473551 0 0.0049222307777339949 0.000139174086096563 0 0.0049065880833446844 0.00015697593636844937 0 0.0049388257759583462 0.00013891835442784002 0 0.0049065880833446844 0.00015697593636844937 0 0.0049168221749658382 0.00017106104823473551 0 0.0048839627825368421 0.0001783882675601773 0 0.0049168221749658382 0.00017106104823473551 0 0.004856766279823877 0.00021096695549521939 0 0.0048839627825368421 0.0001783882675601773 0 0.0048749560619796859 0.00018302394814091662 0 0.0048852676826855431 0.00017334512820573597 0 0.0048831031136660841 0.00016520094524431943 0 0.004856766279823877 0.00021096695549521939 0 0.0048831031136660841 0.00016520094524431943 0 0.0048284123169405188 0.00015051333741931982 0 0.004856766279823877 0.00021096695549521939 0 0.0048749560619796859 0.00018302394814091662 0 0.0048831031136660841 0.00016520094524431943 0 0.004856766279823877 0.00021096695549521939 0 0.0048749560619796859 0.00018302394814091662 0 0.0048839627825368421 0.0001783882675601773 0 0.0048749560619796859 0.00018302394814091662 0 0.0048839627825368421 0.0001783882675601773 0 0.0048852676826855431 0.00017334512820573597 0 0.0049065880833446844 0.00015697593636844937 0 0.0048839627825368421 0.0001783882675601773 0 0.0048852676826855431 0.00017334512820573597 0 0.0048932296406224056 0.00015888663322232916 0 0.0048852676826855431 0.00017334512820573597 0 0.0048895091307067113 0.00016767261557469097 0 0.0048780552394491637 0.00015626554305024171 0 0.0048895091307067113 0.00016767261557469097 0 0.0049035068576581435 0.00016567745824381025 0 0.0048895091307067113 0.00016767261557469097 0 0.0049035068576581435 0.00016567745824381025 0 0.0048831031136660841 0.00016520094524431943 0 0.0048852676826855431 0.00017334512820573597 0 0.0048895091307067113 0.00016767261557469097 0 0.0048831031136660841 0.00016520094524431943 0 0.0049226375266455099 6.9088361492015439e-05 0 0.0049294263353206989 8.0480037863819205e-05 0 0.004963027872846454 -1.4891754019101702e-05 0 0.0049530421713047303 -1.4732974110961501e-05 0 0.004958676253440682 -3.0988858277206976e-06 0 0.0049530421713047303 -1.4732974110961501e-05 0 0.004958676253440682 -3.0988858277206976e-06 0 0.0049147364204730143 -1.5636656140156616e-05 0 0.004958676253440682 -3.0988858277206976e-06 0 0.0049258471608432065 8.7106849255436594e-05 0 0.0049147364204730143 -1.5636656140156616e-05 0 0.0049294263353206989 8.0480037863819205e-05 0 0.0049265314142238354 8.785381858750369e-05 0 0.0049035068576581435 0.00016567745824381025 0 0.0049060561670010612 0.00012237124663319927 0 0.0049258471608432065 8.7106849255436594e-05 0 0.0049035068576581435 0.00016567745824381025 0 0.0048831031136660841 0.00016520094524431943 0 0.0049060561670010612 0.00012237124663319927 0 0.0048831031136660841 0.00016520094524431943 0 0.0049060561670010612 0.00012237124663319927 0 0.0048825527981090442 0.00011358256055053651 0 0.0049060561670010612 0.00012237124663319927 0 0.0049201767097449287 0.00010721219593873547 0 0.0048825527981090442 0.00011358256055053651 0 0.0049060561670010612 0.00012237124663319927 0 0.0049201767097449287 0.00010721219593873547 0 0.0049258471608432065 8.7106849255436594e-05 0 0.0049201767097449287 0.00010721219593873547 0 0.0049258471608432065 8.7106849255436594e-05 0 0.0049127653901888607 0.0001507558706512578 0 0.0049201767097449287 0.00010721219593873547 0 0.0048825527981090442 0.00011358256055053651 0 0.0049061759719247703 4.54002789212961e-05 0 0.0048825527981090442 0.00011358256055053651 0 0.0048180083711632368 5.9202053610568519e-05 0 0.0049061759719247703 4.54002789212961e-05 0 0.0048825527981090442 0.00011358256055053651 0 0.0048180083711632368 5.9202053610568519e-05 0 0.0048284123169405188 0.00015051333741931982 0 0.0047069368270955016 9.530416071501952e-05 0 0.0048180083711632368 5.9202053610568519e-05 0 0.0048284123169405188 0.00015051333741931982 0 0.0047069368270955016 9.530416071501952e-05 0 0.0048180083711632368 5.9202053610568519e-05 0 0.0047093709384237268 9.2701779471286926e-06 0 0.0046920409565404889 0.00019165423280581898 0 0.0047069368270955016 9.530416071501952e-05 0 0.0048284123169405188 0.00015051333741931982 0 0.0046920409565404889 0.00019165423280581898 0 0.004856766279823877 0.00021096695549521939 0 0.0048284123169405188 0.00015051333741931982 0 0.0048831031136660841 0.00016520094524431943 0 0.0048825527981090442 0.00011358256055053651 0 0.0048284123169405188 0.00015051333741931982 0 0.0045144681125723566 2.8450390212838749e-06 0 0.0047401522491902865 0.00022654515050142004 0 0.0048487973103369143 9.8707249823804292e-05 0 0.0047292511602346826 -3.360189756568068e-05 0 0.0046198634893129227 0.00011194766904598276 0 0.0045144681125723566 2.8450390212838749e-06 0 0.0043795462992772208 0.00018166595243152849 0 0.0042864415911186933 0.00012294860611631824 0 0.0043836652480970847 0.00018480324343588965 0 0.004496804719828865 0.00020616731808268453 0 0.0043795462992772208 0.00018166595243152849 0 0.0042656215255698904 0.00019899881554180218 0 0.0043117030312569277 0.00017358444641097512 0 0.0045144681125723566 2.8450390212838749e-06 0 0.0043795462992772208 0.00018166595243152849 0 0.0047401522491902865 0.00022654515050142004 0 0.0047401522491902865 0.00022654515050142004 0 0.0048487973103369143 9.8707249823804292e-05 0 0.0049127653901888607 0.0001507558706512578 0 0.0049258471608432065 8.7106849255436594e-05 0 0.0048487973103369143 9.8707249823804292e-05 0 0.0049127653901888607 0.0001507558706512578 0 0.0049258471608432065 8.7106849255436594e-05 0 0.0048487973103369143 9.8707249823804292e-05 0 0.0048566584716445383 -2.6543212973694493e-05 0 0.0045144681125723566 2.8450390212838749e-06 0 0.0048487973103369143 9.8707249823804292e-05 0 0.0048566584716445383 -2.6543212973694493e-05 0 0.0049258471608432065 8.7106849255436594e-05 0 0.0048566584716445383 -2.6543212973694493e-05 0 0.0049147364204730143 -1.5636656140156616e-05 0 0.0049530421713047303 -1.4732974110961501e-05 0 0.0049147364204730143 -1.5636656140156616e-05 0 0.0049400046589996582 -1.4643347238679039e-05 0 0.0049147364204730143 -1.5636656140156616e-05 0 0.0049103302065829028 -1.4330452848421841e-05 0 0.0049400046589996582 -1.4643347238679039e-05 0 0.0048566584716445383 -2.6543212973694493e-05 0 0.0049147364204730143 -1.5636656140156616e-05 0 0.0049103302065829028 -1.4330452848421841e-05 0 0.0049103302065829028 -1.4330452848421841e-05 0 0.0049313111669224488 -2.0458069462948922e-05 0 0.0049450028854874008 -9.9704444155628993e-06 0 0.0048566584716445383 -2.6543212973694493e-05 0 0.0049103302065829028 -1.4330452848421841e-05 0 0.0049313111669224488 -2.0458069462948922e-05 0 0.0049314406359439959 -5.6850544068900588e-05 0 0.0048566584716445383 -2.6543212973694493e-05 0 0.0049313111669224488 -2.0458069462948922e-05 0 0.0047292511602346826 -3.360189756568068e-05 0 0.0048383152660249696 -2.6956091342884778e-05 0 0.0049314406359439959 -5.6850544068900588e-05 0 0.0049313111669224488 -2.0458069462948922e-05 0 0.004958970850743775 -3.7489863346326768e-05 0 0.0049313111669224488 -2.0458069462948922e-05 0 0.0049450028854874008 -9.9704444155628993e-06 0 0.004955209956231217 -1.1811395120825809e-05 0 0.0049313111669224488 -2.0458069462948922e-05 0 0.004955209956231217 -1.1811395120825809e-05 0 0.004958970850743775 -3.7489863346326768e-05 0 0.0049450028854874008 -9.9704444155628993e-06 0 0.004968351210664578 -9.5090919816731038e-06 0 0.004955209956231217 -1.1811395120825809e-05 0 0.0049450028854874008 -9.9704444155628993e-06 0 0.0049605256387830234 -7.944293742610282e-06 0 0.004939716783304242 -1.1215841610729504e-05 0 0.0049103302065829028 -1.4330452848421841e-05 0 0.0049450028854874008 -9.9704444155628993e-06 0 0.004939716783304242 -1.1215841610729504e-05 0 0.0049450028854874008 -9.9704444155628993e-06 0 0.0049605256387830234 -7.944293742610282e-06 0 0.004968351210664578 -9.5090919816731038e-06 0 0.0049605256387830234 -7.944293742610282e-06 0 0.004968351210664578 -9.5090919816731038e-06 0 0.0049815779031880097 -4.2393206859962858e-06 0 0.0049530421713047303 -1.4732974110961501e-05 0 0.0049569067571862144 -1.4267946599879887e-05 0 0.0049400046589996582 -1.4643347238679039e-05 0 0.0049569067571862144 -1.4267946599879887e-05 0 0.0049400046589996582 -1.4643347238679039e-05 0 0.0049572737704318233 -1.341754310208515e-05 0 0.0049400046589996582 -1.4643347238679039e-05 0 0.004939716783304242 -1.1215841610729504e-05 0 0.004958711893112323 -1.0742990684133319e-05 0 0.0049103302065829028 -1.4330452848421841e-05 0 0.0049400046589996582 -1.4643347238679039e-05 0 0.004939716783304242 -1.1215841610729504e-05 0 0.0049605256387830234 -7.944293742610282e-06 0 0.004939716783304242 -1.1215841610729504e-05 0 0.004958711893112323 -1.0742990684133319e-05 0 0.0049605256387830234 -7.944293742610282e-06 0 0.004958711893112323 -1.0742990684133319e-05 0 0.0049769595051461562 -6.0324037023423759e-06 0 0.0049400046589996582 -1.4643347238679039e-05 0 0.004958711893112323 -1.0742990684133319e-05 0 0.0049572737704318233 -1.341754310208515e-05 0 0.004958711893112323 -1.0742990684133319e-05 0 0.0049676752578604617 -1.0822422919348033e-05 0 0.0049738832833050159 -8.2985265674151501e-06 0 0.0049640968352266911 -1.2652445217622636e-05 0 0.0049676752578604617 -1.0822422919348033e-05 0 0.0049572737704318233 -1.341754310208515e-05 0 0.004958711893112323 -1.0742990684133319e-05 0 0.0049676752578604617 -1.0822422919348033e-05 0 0.0049572737704318233 -1.341754310208515e-05 0 0.0049786075313082608 -7.8634604731709722e-06 0 0.0049738832833050159 -8.2985265674151501e-06 0 0.0049860400043802624 -4.8198703404266757e-06 0 0.0049881949931065697 -4.7053078238138366e-06 0 0.0049786075313082608 -7.8634604731709722e-06 0 0.0049860400043802624 -4.8198703404266757e-06 0 0.0049786075313082608 -7.8634604731709722e-06 0 0.0049676752578604617 -1.0822422919348033e-05 0 0.0049738832833050159 -8.2985265674151501e-06 0 0.0049738832833050159 -8.2985265674151501e-06 0 0.0049769595051461562 -6.0324037023423759e-06 0 0.0049860400043802624 -4.8198703404266757e-06 0 0.004958711893112323 -1.0742990684133319e-05 0 0.0049738832833050159 -8.2985265674151501e-06 0 0.0049769595051461562 -6.0324037023423759e-06 0 0.0049769595051461562 -6.0324037023423759e-06 0 0.0049999716893000066 -3.6899072818012007e-09 0 0.0049815779031880097 -4.2393206859962858e-06 0 0.0049769595051461562 -6.0324037023423759e-06 0 0.0049999716893000066 -3.6899072818012007e-09 0 0.0049860400043802624 -4.8198703404266757e-06 0 0.0049999744956471691 -6.3210289408116713e-09 0 0.0049999716893000066 -3.6899072818012007e-09 0 0.0049860400043802624 -4.8198703404266757e-06 0 0.004968351210664578 -9.5090919816731038e-06 0 0.0049815779031880097 -4.2393206859962858e-06 0 0.004984923954525761 -5.592599686963685e-06 0 0.0049605256387830234 -7.944293742610282e-06 0 0.0049769595051461562 -6.0324037023423759e-06 0 0.0049815779031880097 -4.2393206859962858e-06 0 0.0049999716893000066 -3.6899072818012007e-09 0 0.0049815779031880097 -4.2393206859962858e-06 0 0.0049999739413712184 -2.2886763267073294e-09 0 0.0049815779031880097 -4.2393206859962858e-06 0 0.0049999739413712184 -2.2886763267073294e-09 0 0.004984923954525761 -5.592599686963685e-06 0 0.0049999739413712184 -2.2886763267073294e-09 0 0.004984923954525761 -5.592599686963685e-06 0 0.0049999743382909898 -7.9367545278218987e-09 0 0.004984923954525761 -5.592599686963685e-06 0 0.0049753739174876015 -1.1738156472411378e-05 0 0.0049999743382909898 -7.9367545278218987e-09 0 0.004968351210664578 -9.5090919816731038e-06 0 0.004984923954525761 -5.592599686963685e-06 0 0.0049753739174876015 -1.1738156472411378e-05 0 0.0049753739174876015 -1.1738156472411378e-05 0 0.0049999743382909898 -7.9367545278218987e-09 0 0.0049784595050388156 -1.1134735953244603e-05 0 0.0049999743382909898 -7.9367545278218987e-09 0 0.0049999639631905391 -1.000079885549003e-08 0 0.0049784595050388156 -1.1134735953244603e-05 0 0.0049999639631905391 -1.000079885549003e-08 0 0.0049649582349794563 -1.7182163451615513e-05 0 0.0049784595050388156 -1.1134735953244603e-05 0 0.0049999639631905391 -1.000079885549003e-08 0 0.0049649582349794563 -1.7182163451615513e-05 0 0.0049999572516810052 -1.3290760273037108e-08 0 0.0049753739174876015 -1.1738156472411378e-05 0 0.0049784595050388156 -1.1134735953244603e-05 0 0.0049511058640653114 -2.0134117648330616e-05 0 0.0049649582349794563 -1.7182163451615513e-05 0 0.0049784595050388156 -1.1134735953244603e-05 0 0.0049511058640653114 -2.0134117648330616e-05 0 0.0049649582349794563 -1.7182163451615513e-05 0 0.0049511058640653114 -2.0134117648330616e-05 0 0.0049291005107440986 -2.5098995345518388e-05 0 0.0049291005107440986 -2.5098995345518388e-05 0 0.004922132694718126 -1.6340074900049077e-05 0 0.0049075284437400217 -1.9551006122137356e-05 0 0.0049511058640653114 -2.0134117648330616e-05 0 0.0049291005107440986 -2.5098995345518388e-05 0 0.004922132694718126 -1.6340074900049077e-05 0 0.0049511058640653114 -2.0134117648330616e-05 0 0.0049501631298515814 -1.447107033772059e-05 0 0.004922132694718126 -1.6340074900049077e-05 0 0.0049511058640653114 -2.0134117648330616e-05 0 0.0049501631298515814 -1.447107033772059e-05 0 0.0049642039730607643 -1.5132610859001381e-05 0 0.0049501631298515814 -1.447107033772059e-05 0 0.0049669884761577958 -1.2111388648845635e-05 0 0.0049642039730607643 -1.5132610859001381e-05 0 0.004968351210664578 -9.5090919816731038e-06 0 0.0049669884761577958 -1.2111388648845635e-05 0 0.0049642039730607643 -1.5132610859001381e-05 0 0.0049676614470356411 -1.2501076908296061e-05 0 0.00495761238135764 -3.6854008097139909e-06 0 0.004968351210664578 -9.5090919816731038e-06 0 0.0049753739174876015 -1.1738156472411378e-05 0 0.0049642039730607643 -1.5132610859001381e-05 0 0.0049753739174876015 -1.1738156472411378e-05 0 0.0049511058640653114 -2.0134117648330616e-05 0 0.0049642039730607643 -1.5132610859001381e-05 0 0.0049541025999992657 -2.7529814546342848e-05 0 0.0049791033877746183 -1.9401476139485989e-05 0 0.0049458891514844987 -3.3096366402099392e-05 0 0.0049541025999992657 -2.7529814546342848e-05 0 0.0049791033877746183 -1.9401476139485989e-05 0 0.0049541434985628258 -3.1270102048783978e-05 0 0.0049541025999992657 -2.7529814546342848e-05 0 0.0049541434985628258 -3.1270102048783978e-05 0 0.0049470254143248035 -3.4051953827578637e-05 0 0.0049774305303630969 -1.9419819430709866e-05 0 0.0049742725999615458 -1.7051695239931445e-05 0 0.0049962004604499595 -3.4746104289329292e-06 0 0.0049999570191222266 -1.226861805814546e-08 0 0.0050000128059109021 -2.1867874374053878e-09 0 0.0049962004604499595 -3.4746104289329292e-06 0 0.0049791033877746183 -1.9401476139485989e-05 0 0.0050027642376434872 -2.4945451084799028e-06 0 0.0049962004604499595 -3.4746104289329292e-06 0 0.0049791033877746183 -1.9401476139485989e-05 0 0.0049999570191222266 -1.226861805814546e-08 0 0.0049791033877746183 -1.9401476139485989e-05 0 0.0049722183011806217 -1.5759801303234103e-05 0 0.0049871706470238711 -8.5276338080815084e-06 0 0.0049791033877746183 -1.9401476139485989e-05 0 0.0049999570191222266 -1.226861805814546e-08 0 0.0049871706470238711 -8.5276338080815084e-06 0 0.0049791033877746183 -1.9401476139485989e-05 0 0.0049722183011806217 -1.5759801303234103e-05 0 0.0049519757751017874 -3.1819454671453883e-05 0 0.0049791033877746183 -1.9401476139485989e-05 0 0.0049519757751017874 -3.1819454671453883e-05 0 0.0049541434985628258 -3.1270102048783978e-05 0 0.0049722183011806217 -1.5759801303234103e-05 0 0.004952541597675335 -2.2771920222541514e-05 0 0.0049519757751017874 -3.1819454671453883e-05 0 0.0049999570191222266 -1.226861805814546e-08 0 0.0049871706470238711 -8.5276338080815084e-06 0 0.0049999572516810052 -1.3290760273037108e-08 0 0.0049722183011806217 -1.5759801303234103e-05 0 0.0049871706470238711 -8.5276338080815084e-06 0 0.0049999572516810052 -1.3290760273037108e-08 0 0.0049649582349794563 -1.7182163451615513e-05 0 0.0049722183011806217 -1.5759801303234103e-05 0 0.0049999572516810052 -1.3290760273037108e-08 0 0.0049649582349794563 -1.7182163451615513e-05 0 0.0049722183011806217 -1.5759801303234103e-05 0 0.004952541597675335 -2.2771920222541514e-05 0 0.0049291005107440986 -2.5098995345518388e-05 0 0.0049296766930747504 -3.1155633295786833e-05 0 0.004952541597675335 -2.2771920222541514e-05 0 0.0049649582349794563 -1.7182163451615513e-05 0 0.0049291005107440986 -2.5098995345518388e-05 0 0.004952541597675335 -2.2771920222541514e-05 0 0.0049296766930747504 -3.1155633295786833e-05 0 0.0049005832867942221 -2.3548426816198411e-05 0 0.0048885795759281651 -2.265906579965116e-05 0 0.0049291005107440986 -2.5098995345518388e-05 0 0.0048885795759281651 -2.265906579965116e-05 0 0.0049075284437400217 -1.9551006122137356e-05 0 0.0049291005107440986 -2.5098995345518388e-05 0 0.0049296766930747504 -3.1155633295786833e-05 0 0.0048885795759281651 -2.265906579965116e-05 0 0.0049239924546912554 -3.4278058052702205e-05 0 0.0049129389813997891 -4.4812011182624119e-05 0 0.0049296766930747504 -3.1155633295786833e-05 0 0.0049361484957337462 -5.1412743854393685e-05 0 0.0049204102298663309 -7.1112371426470817e-05 0 0.0049361484957337462 -5.1412743854393685e-05 0 0.0049291863690704351 -7.0396965410191535e-05 0 0.0049204102298663309 -7.1112371426470817e-05 0 0.0049296766930747504 -3.1155633295786833e-05 0 0.004952541597675335 -2.2771920222541514e-05 0 0.0049519757751017874 -3.1819454671453883e-05 0 0.0049296766930747504 -3.1155633295786833e-05 0 0.0049519757751017874 -3.1819454671453883e-05 0 0.0049361484957337462 -5.1412743854393685e-05 0 0.0049519757751017874 -3.1819454671453883e-05 0 0.0049418491433820214 -4.581494738345362e-05 0 0.0049361484957337462 -5.1412743854393685e-05 0 0.0049519757751017874 -3.1819454671453883e-05 0 0.0049418491433820214 -4.581494738345362e-05 0 0.0049541434985628258 -3.1270102048783978e-05 0 0.0049361484957337462 -5.1412743854393685e-05 0 0.0049310865516307258 -6.5150230749512974e-05 0 0.0049291863690704351 -7.0396965410191535e-05 0 0.0049418491433820214 -4.581494738345362e-05 0 0.0049361484957337462 -5.1412743854393685e-05 0 0.0049310865516307258 -6.5150230749512974e-05 0 0.0049418491433820214 -4.581494738345362e-05 0 0.0049310865516307258 -6.5150230749512974e-05 0 0.004933093679790437 -5.677537248370436e-05 0 0.0049310865516307258 -6.5150230749512974e-05 0 0.004933093679790437 -5.677537248370436e-05 0 0.0049154850489496775 -8.1087001771863179e-05 0 0.004933093679790437 -5.677537248370436e-05 0 0.0049432959662428387 -4.1651457700382245e-05 0 0.0049375660728588986 -5.0846130344819682e-05 0 0.0049418491433820214 -4.581494738345362e-05 0 0.004933093679790437 -5.677537248370436e-05 0 0.0049432959662428387 -4.1651457700382245e-05 0 0.0049418491433820214 -4.581494738345362e-05 0 0.0049432959662428387 -4.1651457700382245e-05 0 0.0049541434985628258 -3.1270102048783978e-05 0 0.0049432959662428387 -4.1651457700382245e-05 0 0.0049541434985628258 -3.1270102048783978e-05 0 0.0049470254143248035 -3.4051953827578637e-05 0 0.0049083302060543774 -0.00010346711422101488 0 0.0049072929332322516 -8.8706757277386361e-05 0 0.0048821878346753276 -0.00013792245688769593 0 0.0049198027229563285 -9.2183740270960885e-05 0 0.0049255208935512227 -8.3308965078140079e-05 0 0.0049072929332322516 -8.8706757277386361e-05 0 0.0049083302060543774 -0.00010346711422101488 0 0.0049198027229563285 -9.2183740270960885e-05 0 0.0049072929332322516 -8.8706757277386361e-05 0 0.0049083302060543774 -0.00010346711422101488 0 0.0049224849913759089 -8.4303750173489485e-05 0 0.0049198027229563285 -9.2183740270960885e-05 0 0.0049083302060543774 -0.00010346711422101488 0 0.0049154850489496775 -8.1087001771863179e-05 0 0.0049224849913759089 -8.4303750173489485e-05 0 0.0049310865516307258 -6.5150230749512974e-05 0 0.0049154850489496775 -8.1087001771863179e-05 0 0.0049224849913759089 -8.4303750173489485e-05 0 0.0049310865516307258 -6.5150230749512974e-05 0 0.0049224849913759089 -8.4303750173489485e-05 0 0.0049291863690704351 -7.0396965410191535e-05 0 0.0049224849913759089 -8.4303750173489485e-05 0 0.0049291863690704351 -7.0396965410191535e-05 0 0.0049263064135377623 -8.1223242359730149e-05 0 0.0049224849913759089 -8.4303750173489485e-05 0 0.0049263064135377623 -8.1223242359730149e-05 0 0.0049256480025712023 -8.7653664650096485e-05 0 0.0049263064135377623 -8.1223242359730149e-05 0 0.0049256480025712023 -8.7653664650096485e-05 0 0.0049280109836741491 -8.8560559363210203e-05 0 0.0049224849913759089 -8.4303750173489485e-05 0 0.0049256480025712023 -8.7653664650096485e-05 0 0.0049198027229563285 -9.2183740270960885e-05 0 0.0049256480025712023 -8.7653664650096485e-05 0 0.0049198027229563285 -9.2183740270960885e-05 0 0.0049255208935512227 -8.3308965078140079e-05 0 0.0049256480025712023 -8.7653664650096485e-05 0 0.0049255208935512227 -8.3308965078140079e-05 0 0.0049280109836741491 -8.8560559363210203e-05 0 0.0049027662324126978 -3.5490302372020367e-05 0 0.0048992570897112304 -3.6205722773063733e-05 0 0.0049048247433864057 -4.2874158872313522e-05 0 0.0049027662324126978 -3.5490302372020367e-05 0 0.0048992570897112304 -3.6205722773063733e-05 0 0.0049005832867942221 -2.3548426816198411e-05 0 0.0047968865251343459 1.1006313597271234e-05 0 0.0048485056463213605 7.6503826314719926e-07 0 0.0048126582443099352 2.1338816971394569e-05 0 0.0047968865251343459 1.1006313597271234e-05 0 0.0048126582443099352 2.1338816971394569e-05 0 0.0047948371279281149 2.8751454911291179e-05 0 0.0049263064135377623 -8.1223242359730149e-05 0 0.0049280109836741491 -8.8560559363210203e-05 0 0.0049204102298663309 -7.1112371426470817e-05 0 0.0048992570897112304 -3.6205722773063733e-05 0 0.0049005832867942221 -2.3548426816198411e-05 0 0.0048885795759281651 -2.265906579965116e-05 0 0.0049213019795094053 -6.757826151502167e-05 0 0.0049129389813997891 -4.4812011182624119e-05 0 0.0049291863690704351 -7.0396965410191535e-05 0 0.0049263064135377623 -8.1223242359730149e-05 0 0.0049204102298663309 -7.1112371426470817e-05 0 0.0048885795759281651 -2.265906579965116e-05 0 0.0048485056463213605 7.6503826314719926e-07 0 0.0048847928538084317 -8.1509195816231833e-06 0 0.0047968865251343459 1.1006313597271234e-05 0 0.0048885795759281651 -2.265906579965116e-05 0 0.0048485056463213605 7.6503826314719926e-07 0 0.0048470133554379211 -5.193027179105224e-06 0 0.0048815063719803153 -2.3785896590610844e-05 0 0.0048485056463213605 7.6503826314719926e-07 0 0.0048847928538084317 -8.1509195816231833e-06 0 0.0048524577327506988 1.3822588089345112e-05 0 0.0048485056463213605 7.6503826314719926e-07 0 0.0048126582443099352 2.1338816971394569e-05 0 0.0048239307694595539 2.3483510800579347e-05 0 0.0048485056463213605 7.6503826314719926e-07 0 0.0048239307694595539 2.3483510800579347e-05 0 0.0048524577327506988 1.3822588089345112e-05 0 0.0048239307694595539 2.3483510800579347e-05 0 0.0048524577327506988 1.3822588089345112e-05 0 0.0048144454438641907 3.5392056972858291e-05 0 0.0048239307694595539 2.3483510800579347e-05 0 0.0047978510562087327 4.0346913230460061e-05 0 0.0048144454438641907 3.5392056972858291e-05 0 0.0048126582443099352 2.1338816971394569e-05 0 0.0048239307694595539 2.3483510800579347e-05 0 0.0048051655012521692 3.1492506483328208e-05 0 0.0048239307694595539 2.3483510800579347e-05 0 0.0048051655012521692 3.1492506483328208e-05 0 0.0047978510562087327 4.0346913230460061e-05 0 0.0048051655012521692 3.1492506483328208e-05 0 0.0047978510562087327 4.0346913230460061e-05 0 0.0047958066735688497 3.9038996396437297e-05 0 0.0047978510562087327 4.0346913230460061e-05 0 0.0047897213101460879 4.4599386889343483e-05 0 0.0047958066735688497 3.9038996396437297e-05 0 0.0047978510562087327 4.0346913230460061e-05 0 0.0047507981188666636 4.8163925510561499e-05 0 0.0048144454438641907 3.5392056972858291e-05 0 0.0047507981188666636 4.8163925510561499e-05 0 0.0046432484350776996 0.0001131236690007213 0 0.0048344720603568396 0.00013412315745329865 0 0.004741286939460982 4.6590976687597334e-05 0 0.004681976555589341 4.9598652744710695e-05 0 0.0047507981188666636 4.8163925510561499e-05 0 0.0047909434269029945 4.0702079248044966e-05 0 0.004810654983802203 3.1187906538563433e-05 0 0.0047507981188666636 4.8163925510561499e-05 0 0.0046432484350776996 0.0001131236690007213 0 0.0045400830193092359 6.5313628769109983e-05 0 0.0047507981188666636 4.8163925510561499e-05 0 0.0047897213101460879 4.4599386889343483e-05 0 0.0047909434269029945 4.0702079248044966e-05 0 0.0047978510562087327 4.0346913230460061e-05 0 0.0047507981188666636 4.8163925510561499e-05 0 0.0047897213101460879 4.4599386889343483e-05 0 0.0047909434269029945 4.0702079248044966e-05 0 0.004810654983802203 3.1187906538563433e-05 0 0.0048615539875141141 3.4036951114165193e-05 0 0.0047909434269029945 4.0702079248044966e-05 0 0.004787278472524064 4.1707436115209774e-05 0 0.0047819380862884715 4.5024660957749417e-05 0 0.0048069741755615708 4.640174556038933e-05 0 0.0047848585939352243 5.8428951857418622e-06 0 0.0047897213101460879 4.4599386889343483e-05 0 0.0047909434269029945 4.0702079248044966e-05 0 0.00479210803443286 4.0660772290829967e-05 0 0.0047909434269029945 4.0702079248044966e-05 0 0.004787278472524064 4.1707436115209774e-05 0 0.00479210803443286 4.0660772290829967e-05 0 0.0046432484350776996 0.0001131236690007213 0 0.0045400830193092359 6.5313628769109983e-05 0 0.0045530925327450945 0.00013592798231605382 0 0.0045400830193092359 6.5313628769109983e-05 0 0.0045023266599288113 9.5114436370281947e-05 0 0.0045157325252599325 0.00011686684070463349 0 0.0045400830193092359 6.5313628769109983e-05 0 0.0045157325252599325 0.00011686684070463349 0 0.0045530925327450945 0.00013592798231605382 0 0.0048470133554379211 -5.193027179105224e-06 0 0.0048604304921717259 -2.6030503323605735e-05 0 0.0047900786601147603 3.7627864299275715e-05 0 0.0047948371279281149 2.8751454911291179e-05 0 0.004780458794744492 3.9674198450731339e-05 0 0.004787278472524064 4.1707436115209774e-05 0 0.0047900786601147603 3.7627864299275715e-05 0 0.004780458794744492 3.9674198450731339e-05 0 0.0047968865251343459 1.1006313597271234e-05 0 0.0047948371279281149 2.8751454911291179e-05 0 0.004780458794744492 3.9674198450731339e-05 0 0.004787278472524064 4.1707436115209774e-05 0 0.0047900786601147603 3.7627864299275715e-05 0 0.00479210803443286 4.0660772290829967e-05 0 0.0047897213101460879 4.4599386889343483e-05 0 0.00479210803443286 4.0660772290829967e-05 0 0.0047958066735688497 3.9038996396437297e-05 0 0.00479210803443286 4.0660772290829967e-05 0 0.0047958066735688497 3.9038996396437297e-05 0 0.0047943622211898277 3.5167167467320045e-05 0 0.0047900786601147603 3.7627864299275715e-05 0 0.00479210803443286 4.0660772290829967e-05 0 0.0047943622211898277 3.5167167467320045e-05 0 0.0048126582443099352 2.1338816971394569e-05 0 0.0048051655012521692 3.1492506483328208e-05 0 0.0047948371279281149 2.8751454911291179e-05 0 0.0048051655012521692 3.1492506483328208e-05 0 0.0047943622211898277 3.5167167467320045e-05 0 0.0047948371279281149 2.8751454911291179e-05 0 0.0048051655012521692 3.1492506483328208e-05 0 0.0047958066735688497 3.9038996396437297e-05 0 0.0047943622211898277 3.5167167467320045e-05 0 0.0047900786601147603 3.7627864299275715e-05 0 0.0047943622211898277 3.5167167467320045e-05 0 0.0047948371279281149 2.8751454911291179e-05 0 0.0049213019795094053 -6.757826151502167e-05 0 0.0048604304921717259 -2.6030503323605735e-05 0 0.0049255208935512227 -8.3308965078140079e-05 0 0.0049280109836741491 -8.8560559363210203e-05 0 0.0049380434231823351 -6.3088221616896793e-05 0 0.0049255208935512227 -8.3308965078140079e-05 0 0.0049232054103838917 -6.3748476976440021e-05 0 0.0049380434231823351 -6.3088221616896793e-05 0 0.0049232054103838917 -6.3748476976440021e-05 0 0.0049380434231823351 -6.3088221616896793e-05 0 0.0049313542751566446 -3.3621840348452231e-05 0 0.0045400830193092359 6.5313628769109983e-05 0 0.0045023266599288113 9.5114436370281947e-05 0 0.0044867470427716388 8.6129832464579287e-05 0 0.0048604304921717259 -2.6030503323605735e-05 0 0.0047848585939352243 5.8428951857418622e-06 0 0.004810654983802203 3.1187906538563433e-05 0 0.0048655203338799913 2.1824545053121248e-05 0 0.0048615539875141141 3.4036951114165193e-05 0 0.004787278472524064 4.1707436115209774e-05 0 0.004780458794744492 3.9674198450731339e-05 0 0.0047819380862884715 4.5024660957749417e-05 0 0.004681976555589341 4.9598652744710695e-05 0 0.0046759746177071747 5.9230678179170469e-05 0 0.0044865179368611943 9.2277267887459405e-05 0 0.0044875850314884825 9.0225856303989397e-05 0 0.0044839856106569619 9.0278695300578918e-05 0 0.0044865179368611943 9.2277267887459405e-05 0 0.0044839856106569619 9.0278695300578918e-05 0 0.0044833603639239201 9.4187111377840623e-05 0 0.0045023266599288113 9.5114436370281947e-05 0 0.0044865179368611943 9.2277267887459405e-05 0 0.0044867470427716388 8.6129832464579287e-05 0 0.0045023266599288113 9.5114436370281947e-05 0 0.0044865179368611943 9.2277267887459405e-05 0 0.0044938890740401204 0.00010425778849176587 0 0.0046463587863354904 8.5232847046001224e-05 0 0.0046759746177071747 5.9230678179170469e-05 0 0.0046759746177071747 5.9230678179170469e-05 0 0.0047848585939352243 5.8428951857418622e-06 0 0.0048164943358974125 -1.9130949875513394e-05 0 0.0046417128336877084 1.9126859263420066e-05 0 0.0046759746177071747 5.9230678179170469e-05 0 0.0046417128336877084 1.9126859263420066e-05 0 0.0047338088419850511 2.3207953306596799e-05 0 0.0047226197745231097 7.1371823113996292e-06 0 0.0047076831681217906 2.6225365928096049e-05 0 0.0048347477637873974 -3.2414152964395292e-05 0 0.0048080359704198803 1.843270356255877e-06 0 0.0048226545081008747 1.7180292882534338e-06 0 0.0048604304921717259 -2.6030503323605735e-05 0 0.0048164943358974125 -1.9130949875513394e-05 0 0.0048164943358974125 -1.9130949875513394e-05 0 0.0047848585939352243 5.8428951857418622e-06 0 0.0047338088419850511 2.3207953306596799e-05 0 0.0047226197745231097 7.1371823113996292e-06 0 0.0047395911248551519 6.9608538944323523e-06 0 0.0048164943358974125 -1.9130949875513394e-05 0 0.0047838108720285174 -1.0981693632141801e-05 0 0.0046417128336877084 1.9126859263420066e-05 0 0.0045103897150912441 -1.911190383815649e-05 0 0.0048064175120518552 1.0321012815315495e-05 0 0.0046463436585479009 3.0913639415788445e-05 0 0.0046857954186796131 -1.8874720533473021e-05 0 0.0049313542751566446 -3.3621840348452231e-05 0 0.0049013745822777512 -5.2421919046554732e-05 0 0.0048621542448185487 -1.3923181722347019e-06 0 0.0048303889875541432 -2.0543693614932962e-05 0 0.0048064175120518552 1.0321012815315495e-05 0 0.0046857954186796131 -1.8874720533473021e-05 0 0.0049013745822777512 -5.2421919046554732e-05 0 0.0048621542448185487 -1.3923181722347019e-06 0 0.0048692724140071923 -7.242541520959709e-05 0 0.0049013745822777512 -5.2421919046554732e-05 0 0.0049072929332322516 -8.8706757277386361e-05 0 0.0048692724140071923 -7.242541520959709e-05 0 0.0049232054103838917 -6.3748476976440021e-05 0 0.0049313542751566446 -3.3621840348452231e-05 0 0.0049013745822777512 -5.2421919046554732e-05 0 0.0049232054103838917 -6.3748476976440021e-05 0 0.0049013745822777512 -5.2421919046554732e-05 0 0.0049072929332322516 -8.8706757277386361e-05 0 0.0049255208935512227 -8.3308965078140079e-05 0 0.0049232054103838917 -6.3748476976440021e-05 0 0.0049072929332322516 -8.8706757277386361e-05 0 0.0049325487011341665 2.4685784827037337e-06 0 0.0049645060717116831 7.1923394750080374e-06 0 0.0049455653434837057 2.425508021605764e-05 0 0.0049325487011341665 2.4685784827037337e-06 0 0.0049119342827959808 2.5579905268943063e-05 0 0.0049455653434837057 2.425508021605764e-05 0 0.00495761238135764 -3.6854008097139909e-06 0 0.0049976260861959408 -4.6763625520752131e-05 0 0.0049501631298515814 -1.447107033772059e-05 0 0.0049669884761577958 -1.2111388648845635e-05 0 0.0049645060717116831 7.1923394750080374e-06 0 0.0049501631298515814 -1.447107033772059e-05 0 0.0049325487011341665 2.4685784827037337e-06 0 0.0049645060717116831 7.1923394750080374e-06 0 0.0049501631298515814 -1.447107033772059e-05 0 0.0049325487011341665 2.4685784827037337e-06 0 0.004922132694718126 -1.6340074900049077e-05 0 0.004922132694718126 -1.6340074900049077e-05 0 0.0048847928538084317 -8.1509195816231833e-06 0 0.0048954577171775714 6.614584322534265e-06 0 0.004922132694718126 -1.6340074900049077e-05 0 0.0049075284437400217 -1.9551006122137356e-05 0 0.0048847928538084317 -8.1509195816231833e-06 0 0.0048885795759281651 -2.265906579965116e-05 0 0.0049075284437400217 -1.9551006122137356e-05 0 0.0048847928538084317 -8.1509195816231833e-06 0 0.0048847928538084317 -8.1509195816231833e-06 0 0.0048524577327506988 1.3822588089345112e-05 0 0.0048954577171775714 6.614584322534265e-06 0 0.0049325487011341665 2.4685784827037337e-06 0 0.0048954577171775714 6.614584322534265e-06 0 0.0049119342827959808 2.5579905268943063e-05 0 0.0049325487011341665 2.4685784827037337e-06 0 0.004922132694718126 -1.6340074900049077e-05 0 0.0048954577171775714 6.614584322534265e-06 0 0.0049119342827959808 2.5579905268943063e-05 0 0.004863559654257511 4.4326528937185286e-05 0 0.0049179756360349762 8.2376974646549325e-05 0 0.0048954577171775714 6.614584322534265e-06 0 0.0049119342827959808 2.5579905268943063e-05 0 0.004863559654257511 4.4326528937185286e-05 0 0.0047507981188666636 4.8163925510561499e-05 0 0.004863559654257511 4.4326528937185286e-05 0 0.0048144454438641907 3.5392056972858291e-05 0 0.0048524577327506988 1.3822588089345112e-05 0 0.004863559654257511 4.4326528937185286e-05 0 0.0048144454438641907 3.5392056972858291e-05 0 0.0048524577327506988 1.3822588089345112e-05 0 0.0048954577171775714 6.614584322534265e-06 0 0.004863559654257511 4.4326528937185286e-05 0 0.0047507981188666636 4.8163925510561499e-05 0 0.004863559654257511 4.4326528937185286e-05 0 0.0048344720603568396 0.00013412315745329865 0 0.004863559654257511 4.4326528937185286e-05 0 0.0049179756360349762 8.2376974646549325e-05 0 0.0048344720603568396 0.00013412315745329865 0 0.0046138138964184928 0.00021515451350503966 0 0.0046269094965752681 0.00020684456088341727 0 0.0043248429110472903 0.0003247257324792907 0 0.0042444972130466149 0.00035717416943867048 0 0.0042574814312177174 0.00026423081081500391 0 0.0046138138964184928 0.00021515451350503966 0 0.0046198634893129227 0.00011194766904598276 0 0.0049179756360349762 8.2376974646549325e-05 0 0.0049455653434837057 2.425508021605764e-05 0 0.0049606961338457866 5.4952533253295428e-05 0 0.0049119342827959808 2.5579905268943063e-05 0 0.0049179756360349762 8.2376974646549325e-05 0 0.0049455653434837057 2.425508021605764e-05 0 0.0049976260861959408 -4.6763625520752131e-05 0 0.0046198634893129227 0.00011194766904598276 0 0.0049314406359439959 -5.6850544068900588e-05 0 0.004958970850743775 -3.7489863346326768e-05 0 0.0049602252284961356 -6.4831444361151204e-05 0 0.0049645060717116831 7.1923394750080374e-06 0 0.0049455653434837057 2.425508021605764e-05 0 0.0049606961338457866 5.4952533253295428e-05 0 0.0043795462992772208 0.00018166595243152849 0 0.0042864415911186933 0.00012294860611631824 0 0.0042936673251554253 0.00018274131591532693 0 0.0046198634893129227 0.00011194766904598276 0 0.004235041229976492 0.00025613745588575734 0 0.0042840243882350561 0.00016035231953760075 0 0.0042936673251554253 0.00018274131591532693 0 0.0043127500602354674 0.0001715814495729617 0 0.0043795462992772208 0.00018166595243152849 0 0.0042936673251554253 0.00018274131591532693 0 0.0043127500602354674 0.0001715814495729617 0 0.0042840243882350561 0.00016035231953760075 0 0.0042857838186589918 0.00015261295533639354 0 0.0042936673251554253 0.00018274131591532693 0 0.004279485009076202 0.00015187066625864843 0 0.004235041229976492 0.00025613745588575734 0 0.0042662497021275633 0.00016834780970960872 0 0.0042574814312177174 0.00026423081081500391 0 0.0043489972256319431 0.00023327264364001794 0 0.0043248429110472903 0.0003247257324792907 0 0.0042574814312177174 0.00026423081081500391 0 0.0043489972256319431 0.00023327264364001794 0 0.0043248429110472903 0.0003247257324792907 0 0.0043489972256319431 0.00023327264364001794 0 0.0044235582834059369 0.00029100540906619243 0 0.0044235582834059369 0.00029100540906619243 0 0.0044546235326790367 0.00020292675650555926 0 0.0045724524000335665 0.00020360340532928883 0 0.0043489972256319431 0.00023327264364001794 0 0.0044235582834059369 0.00029100540906619243 0 0.0044546235326790367 0.00020292675650555926 0 0.0043489972256319431 0.00023327264364001794 0 0.0044546235326790367 0.00020292675650555926 0 0.0043938191641638442 0.00016146833227701355 0 0.0044546235326790367 0.00020292675650555926 0 0.0043938191641638442 0.00016146833227701355 0 0.0045271271654801293 0.00016741937348124252 0 0.0042662497021275633 0.00016834780970960872 0 0.0043489972256319431 0.00023327264364001794 0 0.0043938191641638442 0.00016146833227701355 0 0.0042662497021275633 0.00016834780970960872 0 0.0043125335671963614 0.0001229240471802983 0 0.0043938191641638442 0.00016146833227701355 0 0.0043125335671963614 0.0001229240471802983 0 0.0043938191641638442 0.00016146833227701355 0 0.0044752866395885828 9.5069717545727324e-05 0 0.0042828735541017415 5.8832651302154971e-05 0 0.0043119344995579088 5.6263704423718283e-05 0 0.0043125335671963614 0.0001229240471802983 0 0.0042806804728817635 6.195506370671552e-05 0 0.0044752866395885828 9.5069717545727324e-05 0 0.0042806804728817635 6.195506370671552e-05 0 0.0041556358541898217 1.0857202383702151e-05 0 0.0042122928738827928 6.321501611650819e-05 0 0.0043125335671963614 0.0001229240471802983 0 0.0042806804728817635 6.195506370671552e-05 0 0.0042648524297786636 9.9700375974741301e-05 0 0.0042806804728817635 6.195506370671552e-05 0 0.0042648524297786636 9.9700375974741301e-05 0 0.0042545477712555464 8.1968141269130398e-05 0 0.0042648524297786636 9.9700375974741301e-05 0 0.0042476865457598684 0.00011719248236269925 0 0.0042427206444354722 9.8966283396293155e-05 0 0.0042476865457598684 0.00011719248236269925 0 0.0042517336307594678 0.00013850222517433386 0 0.0042275853652092524 0.00013010660108232698 0 0.0042476865457598684 0.00011719248236269925 0 0.0042226073283694755 0.00011114614281296901 0 0.0042275853652092524 0.00013010660108232698 0 0.0042840243882350561 0.00016035231953760075 0 0.0042857838186589918 0.00015261295533639354 0 0.0042517336307594678 0.00013850222517433386 0 0.0042857838186589918 0.00015261295533639354 0 0.0042476865457598684 0.00011719248236269925 0 0.0042517336307594678 0.00013850222517433386 0 0.0042857838186589918 0.00015261295533639354 0 0.0042648524297786636 9.9700375974741301e-05 0 0.0042476865457598684 0.00011719248236269925 0 0.004279485009076202 0.00015187066625864843 0 0.0042675317954231351 0.00010881175110331214 0 0.0042662497021275633 0.00016834780970960872 0 0.0043125335671963614 0.0001229240471802983 0 0.0042648524297786636 9.9700375974741301e-05 0 0.0044680935289961145 0.00014258863337385309 0 0.0044729567811904831 9.2624050737236122e-05 0 0.0045097176598816197 0.00014721189893280472 0 0.0044680935289961145 0.00014258863337385309 0 0.0044414247162055994 7.6099731607707824e-05 0 0.0044729567811904831 9.2624050737236122e-05 0 0.0044680935289961145 0.00014258863337385309 0 0.0044414247162055994 7.6099731607707824e-05 0 0.0043781866331689063 0.0001245337362793789 0 0.0044839856106569619 9.0278695300578918e-05 0 0.0044414247162055994 7.6099731607707824e-05 0 0.0044729567811904831 9.2624050737236122e-05 0 0.0045606765660296915 -7.3147642173613815e-05 0 0.0044414247162055994 7.6099731607707824e-05 0 0.0043569742027167804 -5.5845927791512981e-05 0 0.0046417128336877084 1.9126859263420066e-05 0 0.0044209332501351454 8.7084814621517657e-05 0 0.0044839856106569619 9.0278695300578918e-05 0 0.0044729567811904831 9.2624050737236122e-05 0 0.0044833603639239201 9.4187111377840623e-05 0 0.0044729567811904831 9.2624050737236122e-05 0 0.0045039186422581373 0.00012471961659966203 0 0.0045097176598816197 0.00014721189893280472 0 0.0044729567811904831 9.2624050737236122e-05 0 0.0044938890740401204 0.00010425778849176587 0 0.0045039186422581373 0.00012471961659966203 0 0.0044729567811904831 9.2624050737236122e-05 0 0.0044938890740401204 0.00010425778849176587 0 0.0044833603639239201 9.4187111377840623e-05 0 0.0044865179368611943 9.2277267887459405e-05 0 0.0044938890740401204 0.00010425778849176587 0 0.0044833603639239201 9.4187111377840623e-05 0 0.0044938890740401204 0.00010425778849176587 0 0.0045039186422581373 0.00012471961659966203 0 0.0045157325252599325 0.00011686684070463349 0 0.0045023266599288113 9.5114436370281947e-05 0 0.0044938890740401204 0.00010425778849176587 0 0.0045157325252599325 0.00011686684070463349 0 0.0045039186422581373 0.00012471961659966203 0 0.0045097176598816197 0.00014721189893280472 0 0.0045321812584525178 0.00016042844205791298 0 0.0045321812584525178 0.00016042844205791298 0 0.0045724524000335665 0.00020360340532928883 0 0.0045271271654801293 0.00016741937348124252 0 0.0045097176598816197 0.00014721189893280472 0 0.0045321812584525178 0.00016042844205791298 0 0.0045271271654801293 0.00016741937348124252 0 0.0045039186422581373 0.00012471961659966203 0 0.0045321812584525178 0.00016042844205791298 0 0.0045157325252599325 0.00011686684070463349 0 0.0045321812584525178 0.00016042844205791298 0 0.0045157325252599325 0.00011686684070463349 0 0.0045530925327450945 0.00013592798231605382 0 0.0045321812584525178 0.00016042844205791298 0 0.0045530925327450945 0.00013592798231605382 0 0.0045724524000335665 0.00020360340532928883 0 0.0046432484350776996 0.0001131236690007213 0 0.0048344720603568396 0.00013412315745329865 0 0.0045724524000335665 0.00020360340532928883 0 0.0046269094965752681 0.00020684456088341727 0 0.0045803705835939668 0.00020889887275331618 0 0.0046432484350776996 0.0001131236690007213 0 0.0045530925327450945 0.00013592798231605382 0 0.0045724524000335665 0.00020360340532928883 0 0.0044546235326790367 0.00020292675650555926 0 0.0045724524000335665 0.00020360340532928883 0 0.0045271271654801293 0.00016741937348124252 0 0.0041556358541898217 1.0857202383702151e-05 0 0.0040809487221055603 -6.7742637309453938e-06 0 0.0041223852372234563 7.6077555854157987e-05 0 0.0043938191641638442 0.00016146833227701355 0 0.0045271271654801293 0.00016741937348124252 0 0.0044752866395885828 9.5069717545727324e-05 0 0.0043119344995579088 5.6263704423718283e-05 0 0.0042990041293106979 7.8085039613317938e-05 0 0.0045097176598816197 0.00014721189893280472 0 0.0045271271654801293 0.00016741937348124252 0 0.0045245586537443986 0.00016554221476858163 0 0.0045271271654801293 0.00016741937348124252 0 0.0044752866395885828 9.5069717545727324e-05 0 0.0045245586537443986 0.00016554221476858163 0 0.0044680935289961145 0.00014258863337385309 0 0.0045097176598816197 0.00014721189893280472 0 0.0045245586537443986 0.00016554221476858163 0 0.0040809487221055603 -6.7742637309453938e-06 0 0.0040111127309354058 3.2689584156232146e-05 0 0.0040575779356634457 5.7657442918387934e-05 0 0.0040809487221055603 -6.7742637309453938e-06 0 0.0040079067285834109 -2.1059947603632023e-05 0 0.0040111127309354058 3.2689584156232146e-05 0 0.0042990041293106979 7.8085039613317938e-05 0 0.0042177330467597189 8.9617960938338076e-05 0 0.0044680935289961145 0.00014258863337385309 0 0.0044327503781983304 0.00020244249766535215 0 0.0043781866331689063 0.0001245337362793789 0 0.0044680935289961145 0.00014258863337385309 0 0.0045245586537443986 0.00016554221476858163 0 0.0044327503781983304 0.00020244249766535215 0 0.0040154744354108478 8.452182639640866e-05 0 0.0040575779356634457 5.7657442918387934e-05 0 0.0040566306986403993 9.9382976399264289e-05 0 0.0040154744354108478 8.452182639640866e-05 0 0.0040111127309354058 3.2689584156232146e-05 0 0.0040575779356634457 5.7657442918387934e-05 0 0.0040575779356634457 5.7657442918387934e-05 0 0.0041223852372234563 7.6077555854157987e-05 0 0.0040566306986403993 9.9382976399264289e-05 0 0.0040809487221055603 -6.7742637309453938e-06 0 0.0040575779356634457 5.7657442918387934e-05 0 0.0041223852372234563 7.6077555854157987e-05 0 0.0041223852372234563 7.6077555854157987e-05 0 0.0040929175287206174 0.00012016987110271025 0 0.0040566306986403993 9.9382976399264289e-05 0 0.0041556358541898217 1.0857202383702151e-05 0 0.0041223852372234563 7.6077555854157987e-05 0 0.0041746802383577615 7.8196272424512427e-05 0 0.0041223852372234563 7.6077555854157987e-05 0 0.0041746802383577615 7.8196272424512427e-05 0 0.0041807049977854371 0.00010277586399527861 0 0.0041223852372234563 7.6077555854157987e-05 0 0.004138468801243439 0.00011735693627224767 0 0.0041807049977854371 0.00010277586399527861 0 0.004138468801243439 0.00011735693627224767 0 0.004163262842643403 0.00012551933849253615 0 0.0041209693553466839 0.00014541204055897906 0 0.004138468801243439 0.00011735693627224767 0 0.0040929175287206174 0.00012016987110271025 0 0.0041209693553466839 0.00014541204055897906 0 0.0040929175287206174 0.00012016987110271025 0 0.0040614833805186108 0.00016321007992658841 0 0.0041209693553466839 0.00014541204055897906 0 0.0041223852372234563 7.6077555854157987e-05 0 0.004138468801243439 0.00011735693627224767 0 0.0040929175287206174 0.00012016987110271025 0 0.0040566306986403993 9.9382976399264289e-05 0 0.00405039272191957 0.0001370198559566598 0 0.0040232205926056877 0.00012031170137715423 0 0.0040929175287206174 0.00012016987110271025 0 0.0040566306986403993 9.9382976399264289e-05 0 0.00405039272191957 0.0001370198559566598 0 0.0040929175287206174 0.00012016987110271025 0 0.00405039272191957 0.0001370198559566598 0 0.0040614833805186108 0.00016321007992658841 0 0.00405039272191957 0.0001370198559566598 0 0.0040144962578509309 0.00015536804675923184 0 0.0040614833805186108 0.00016321007992658841 0 0.00405039272191957 0.0001370198559566598 0 0.0040144962578509309 0.00015536804675923184 0 0.0040232205926056877 0.00012031170137715423 0 0.0040144962578509309 0.00015536804675923184 0 0.0040232205926056877 0.00012031170137715423 0 0.00397960969529148 0.00011955674175306452 0 0.0040154744354108478 8.452182639640866e-05 0 0.0040232205926056877 0.00012031170137715423 0 0.00397960969529148 0.00011955674175306452 0 0.0040154744354108478 8.452182639640866e-05 0 0.0040566306986403993 9.9382976399264289e-05 0 0.0040232205926056877 0.00012031170137715423 0 0.0042327484002389294 9.3646111895844862e-05 0 0.0042124580706478241 9.8805981725152059e-05 0 0.0042079140000809622 0.00010151672277157049 0 0.0042327484002389294 9.3646111895844862e-05 0 0.0042217722431521281 0.00010126689692711299 0 0.0042079140000809622 0.00010151672277157049 0 0.0042217722431521281 0.00010126689692711299 0 0.0042226073283694755 0.00011114614281296901 0 0.0041950772269563983 0.00010183066115273096 0 0.0042217722431521281 0.00010126689692711299 0 0.0042079140000809622 0.00010151672277157049 0 0.0041950772269563983 0.00010183066115273096 0 0.0042476865457598684 0.00011719248236269925 0 0.0042226073283694755 0.00011114614281296901 0 0.0042427206444354722 9.8966283396293155e-05 0 0.0042217722431521281 0.00010126689692711299 0 0.0042226073283694755 0.00011114614281296901 0 0.0042427206444354722 9.8966283396293155e-05 0 0.0042327484002389294 9.3646111895844862e-05 0 0.0042217722431521281 0.00010126689692711299 0 0.0042427206444354722 9.8966283396293155e-05 0 0.0042327484002389294 9.3646111895844862e-05 0 0.0042427206444354722 9.8966283396293155e-05 0 0.0042545477712555464 8.1968141269130398e-05 0 0.0042648524297786636 9.9700375974741301e-05 0 0.0042427206444354722 9.8966283396293155e-05 0 0.0042545477712555464 8.1968141269130398e-05 0 0.0042806804728817635 6.195506370671552e-05 0 0.0042545477712555464 8.1968141269130398e-05 0 0.0042285027793565726 8.4980550919076095e-05 0 0.0042806804728817635 6.195506370671552e-05 0 0.0042285027793565726 8.4980550919076095e-05 0 0.0042122928738827928 6.321501611650819e-05 0 0.0042327484002389294 9.3646111895844862e-05 0 0.0042545477712555464 8.1968141269130398e-05 0 0.0042285027793565726 8.4980550919076095e-05 0 0.0042285027793565726 8.4980550919076095e-05 0 0.0041746802383577615 7.8196272424512427e-05 0 0.0042122928738827928 6.321501611650819e-05 0 0.0041556358541898217 1.0857202383702151e-05 0 0.0041746802383577615 7.8196272424512427e-05 0 0.0042122928738827928 6.321501611650819e-05 0 0.0042285027793565726 8.4980550919076095e-05 0 0.0041746802383577615 7.8196272424512427e-05 0 0.0041807049977854371 0.00010277586399527861 0 0.0042285027793565726 8.4980550919076095e-05 0 0.0041807049977854371 0.00010277586399527861 0 0.0042124580706478241 9.8805981725152059e-05 0 0.0042327484002389294 9.3646111895844862e-05 0 0.0042285027793565726 8.4980550919076095e-05 0 0.0042124580706478241 9.8805981725152059e-05 0 0.0041807049977854371 0.00010277586399527861 0 0.0042124580706478241 9.8805981725152059e-05 0 0.0041926880898170826 0.00011105084887714761 0 0.004138468801243439 0.00011735693627224767 0 0.0041807049977854371 0.00010277586399527861 0 0.004163262842643403 0.00012551933849253615 0 0.0041807049977854371 0.00010277586399527861 0 0.0041926880898170826 0.00011105084887714761 0 0.004163262842643403 0.00012551933849253615 0 0.0041926880898170826 0.00011105084887714761 0 0.004163262842643403 0.00012551933849253615 0 0.004181592420311007 0.00012012868875885342 0 0.0041926880898170826 0.00011105084887714761 0 0.0041836832730605374 0.00010781994511997586 0 0.004181592420311007 0.00012012868875885342 0 0.0041926880898170826 0.00011105084887714761 0 0.0041836832730605374 0.00010781994511997586 0 0.0042079140000809622 0.00010151672277157049 0 0.0042124580706478241 9.8805981725152059e-05 0 0.0041926880898170826 0.00011105084887714761 0 0.0042079140000809622 0.00010151672277157049 0 0.0042079140000809622 0.00010151672277157049 0 0.0041830447344484468 9.9618988756224093e-05 0 0.0041950772269563983 0.00010183066115273096 0 0.0041836832730605374 0.00010781994511997586 0 0.0042079140000809622 0.00010151672277157049 0 0.0041830447344484468 9.9618988756224093e-05 0 0.0041830447344484468 9.9618988756224093e-05 0 0.004152064838102815 9.2438010770995883e-05 0 0.0041656540664933945 9.0752439219102441e-05 0 0.0041836832730605374 0.00010781994511997586 0 0.0041830447344484468 9.9618988756224093e-05 0 0.004152064838102815 9.2438010770995883e-05 0 0.004152064838102815 9.2438010770995883e-05 0 0.0041379070943538508 7.4176746869824859e-05 0 0.0041656540664933945 9.0752439219102441e-05 0 0.0041379070943538508 7.4176746869824859e-05 0 0.0041550098274427604 8.8034985951449151e-05 0 0.0041283171267478018 6.4435016953552835e-05 0 0.0041379070943538508 7.4176746869824859e-05 0 0.0041550098274427604 8.8034985951449151e-05 0 0.0041656540664933945 9.0752439219102441e-05 0 0.0041830447344484468 9.9618988756224093e-05 0 0.0041656540664933945 9.0752439219102441e-05 0 0.0041950772269563983 0.00010183066115273096 0 0.0041550098274427604 8.8034985951449151e-05 0 0.0041656540664933945 9.0752439219102441e-05 0 0.0041950772269563983 0.00010183066115273096 0 0.0042226073283694755 0.00011114614281296901 0 0.0041950772269563983 0.00010183066115273096 0 0.0041939769183453575 0.00011479861721011919 0 0.0041550098274427604 8.8034985951449151e-05 0 0.0041950772269563983 0.00010183066115273096 0 0.0041939769183453575 0.00011479861721011919 0 0.0041550098274427604 8.8034985951449151e-05 0 0.0041939769183453575 0.00011479861721011919 0 0.004147978769495418 0.00011346970575543969 0 0.0041939769183453575 0.00011479861721011919 0 0.004147978769495418 0.00011346970575543969 0 0.0042099054631313587 0.00014027679765636324 0 0.0041939769183453575 0.00011479861721011919 0 0.0042275853652092524 0.00013010660108232698 0 0.0042099054631313587 0.00014027679765636324 0 0.0042226073283694755 0.00011114614281296901 0 0.0041939769183453575 0.00011479861721011919 0 0.0042275853652092524 0.00013010660108232698 0 0.0041143296912684721 0.00013286864566651986 0 0.0040929568079175679 0.00015355287543421389 0 0.0041319371378343754 0.00016922502748234179 0 0.0040929568079175679 0.00015355287543421389 0 0.0040693885342377879 0.00018234114926991222 0 0.0041319371378343754 0.00016922502748234179 0 0.0041143296912684721 0.00013286864566651986 0 0.0040929568079175679 0.00015355287543421389 0 0.0040822387979945109 0.00012894375533435484 0 0.0041143296912684721 0.00013286864566651986 0 0.004147978769495418 0.00011346970575543969 0 0.0041319371378343754 0.00016922502748234179 0 0.004147978769495418 0.00011346970575543969 0 0.0042099054631313587 0.00014027679765636324 0 0.0041319371378343754 0.00016922502748234179 0 0.0041062040992584327 0.00010571443722299077 0 0.0040661582611860184 9.7839135259458225e-05 0 0.0040822387979945109 0.00012894375533435484 0 0.0041143296912684721 0.00013286864566651986 0 0.004147978769495418 0.00011346970575543969 0 0.0041062040992584327 0.00010571443722299077 0 0.0041143296912684721 0.00013286864566651986 0 0.0041062040992584327 0.00010571443722299077 0 0.0040822387979945109 0.00012894375533435484 0 0.0041062040992584327 0.00010571443722299077 0 0.0041209423751669581 7.8730446375109293e-05 0 0.0040828724416506002 6.735205025604294e-05 0 0.0041062040992584327 0.00010571443722299077 0 0.0040828724416506002 6.735205025604294e-05 0 0.0040661582611860184 9.7839135259458225e-05 0 0.004147978769495418 0.00011346970575543969 0 0.0041062040992584327 0.00010571443722299077 0 0.0041209423751669581 7.8730446375109293e-05 0 0.0041550098274427604 8.8034985951449151e-05 0 0.004147978769495418 0.00011346970575543969 0 0.0041209423751669581 7.8730446375109293e-05 0 0.0041550098274427604 8.8034985951449151e-05 0 0.0041209423751669581 7.8730446375109293e-05 0 0.0041283171267478018 6.4435016953552835e-05 0 0.0041209423751669581 7.8730446375109293e-05 0 0.0041283171267478018 6.4435016953552835e-05 0 0.0041077168478145408 4.3246013951225489e-05 0 0.0041209423751669581 7.8730446375109293e-05 0 0.0040828724416506002 6.735205025604294e-05 0 0.0041077168478145408 4.3246013951225489e-05 0 0.0040828724416506002 6.735205025604294e-05 0 0.0040225485774015449 6.8452642135169678e-05 0 0.0040507177675240388 3.3014388025535713e-05 0 0.0040828724416506002 6.735205025604294e-05 0 0.0040507177675240388 3.3014388025535713e-05 0 0.0041077168478145408 4.3246013951225489e-05 0 0.0039617809380869066 4.870454723364509e-05 0 0.0039904342548802057 4.4180991665056665e-05 0 0.0040225485774015449 6.8452642135169678e-05 0 0.0039606969246520239 4.8482016414802597e-05 0 0.0040507177675240388 3.3014388025535713e-05 0 0.0040225485774015449 6.8452642135169678e-05 0 0.0039606969246520239 4.8482016414802597e-05 0 0.0039727349530268288 6.9984917759214707e-05 0 0.0040225485774015449 6.8452642135169678e-05 0 0.003995340761989645 9.1631334287215805e-05 0 0.004028584303876581 0.00010023644750934847 0 0.0040225485774015449 6.8452642135169678e-05 0 0.003995340761989645 9.1631334287215805e-05 0 0.0039727349530268288 6.9984917759214707e-05 0 0.003995340761989645 9.1631334287215805e-05 0 0.004028584303876581 0.00010023644750934847 0 0.0040126343203102932 0.00011629928595382552 0 0.0040225485774015449 6.8452642135169678e-05 0 0.004028584303876581 0.00010023644750934847 0 0.0040661582611860184 9.7839135259458225e-05 0 0.0040828724416506002 6.735205025604294e-05 0 0.0040225485774015449 6.8452642135169678e-05 0 0.0040661582611860184 9.7839135259458225e-05 0 0.0039386689056034457 4.8783309233624496e-05 0 0.0039437568464779308 5.1121133573212679e-05 0 0.0039447830626364224 5.7106450108593415e-05 0 0.0039455381302486558 5.5800105084076478e-05 0 0.0039606969246520239 4.8482016414802597e-05 0 0.0039367260330705573 4.1892633694853452e-05 0 0.0039455381302486558 5.5800105084076478e-05 0 0.0039606969246520239 4.8482016414802597e-05 0 0.0039727349530268288 6.9984917759214707e-05 0 0.0039455381302486558 5.5800105084076478e-05 0 0.0039685320166198378 8.6929141820065708e-05 0 0.0039539847077346806 0.00011190119279295461 0 0.003995340761989645 9.1631334287215805e-05 0 0.0039727349530268288 6.9984917759214707e-05 0 0.0039685320166198378 8.6929141820065708e-05 0 0.003995340761989645 9.1631334287215805e-05 0 0.0039685320166198378 8.6929141820065708e-05 0 0.0039837556469418918 0.00010860480659342056 0 0.0039685320166198378 8.6929141820065708e-05 0 0.0039539847077346806 0.00011190119279295461 0 0.0039837556469418918 0.00010860480659342056 0 0.0039455381302486558 5.5800105084076478e-05 0 0.0039727349530268288 6.9984917759214707e-05 0 0.0039685320166198378 8.6929141820065708e-05 0 0.0039437568464779308 5.1121133573212679e-05 0 0.0039447830626364224 5.7106450108593415e-05 0 0.0039521948763523258 6.5289667946930843e-05 0 0.0039455381302486558 5.5800105084076478e-05 0 0.0039350499254646202 0.00012049349328861232 0 0.0039539847077346806 0.00011190119279295461 0 0.0039450149632210317 5.2322941191430583e-05 0 0.0039381040359144394 0.00010009043738587463 0 0.0039458955200536022 6.1559114392676265e-05 0 0.0039447830626364224 5.7106450108593415e-05 0 0.0039521948763523258 6.5289667946930843e-05 0 0.0039480501114456034 6.5657129332778955e-05 0 0.0039517128302659988 7.0975226522222316e-05 0 0.0039521948763523258 6.5289667946930843e-05 0 0.0039458955200536022 6.1559114392676265e-05 0 0.0039480501114456034 6.5657129332778955e-05 0 0.0039521948763523258 6.5289667946930843e-05 0 0.0039350499254646202 0.00012049349328861232 0 0.003957340347997316 0.0001298325067830408 0 0.0039539847077346806 0.00011190119279295461 0 0.0039350499254646202 0.00012049349328861232 0 0.003957340347997316 0.0001298325067830408 0 0.0039534855359849679 0.00014655406727295619 0 0.0039539847077346806 0.00011190119279295461 0 0.0039971567886150682 0.00013676494637302185 0 0.0039992012836885362 0.00015413175398733468 0 0.0039539847077346806 0.00011190119279295461 0 0.0039837556469418918 0.00010860480659342056 0 0.0039971567886150682 0.00013676494637302185 0 0.003958353485167803 0.00011430166297334864 0 0.0039862449899587572 0.00015040133029283883 0 0.003957340347997316 0.0001298325067830408 0 0.0039539847077346806 0.00011190119279295461 0 0.0039865321382366219 0.00014038346035564532 0 0.003957340347997316 0.0001298325067830408 0 0.0039534855359849679 0.00014655406727295619 0 0.0039865321382366219 0.00014038346035564532 0 0.0039534855359849679 0.00014655406727295619 0 0.0039865321382366219 0.00014038346035564532 0 0.0039712490237737994 0.00017179427527515024 0 0.0039350499254646202 0.00012049349328861232 0 0.0039534855359849679 0.00014655406727295619 0 0.0039257361301945999 0.00017264385324938024 0 0.0039381040359144394 0.00010009043738587463 0 0.003976922618001498 0.00010036244364770005 0 0.0039517128302659988 7.0975226522222316e-05 0 0.0039521948763523258 6.5289667946930843e-05 0 0.003959604145962508 8.3694842056890621e-05 0 0.0040661582611860184 9.7839135259458225e-05 0 0.0040449106586230949 0.00012719964801909115 0 0.0040822387979945109 0.00012894375533435484 0 0.0040449106586230949 0.00012719964801909115 0 0.0040822387979945109 0.00012894375533435484 0 0.0040649072788497744 0.00015002218453838816 0 0.004028584303876581 0.00010023644750934847 0 0.0040661582611860184 9.7839135259458225e-05 0 0.0040449106586230949 0.00012719964801909115 0 0.004028584303876581 0.00010023644750934847 0 0.0040449106586230949 0.00012719964801909115 0 0.0040126343203102932 0.00011629928595382552 0 0.0039837556469418918 0.00010860480659342056 0 0.0040126343203102932 0.00011629928595382552 0 0.0039971567886150682 0.00013676494637302185 0 0.003995340761989645 9.1631334287215805e-05 0 0.0039837556469418918 0.00010860480659342056 0 0.0040126343203102932 0.00011629928595382552 0 0.0040126343203102932 0.00011629928595382552 0 0.0039971567886150682 0.00013676494637302185 0 0.0040223682432204439 0.0001350118831230427 0 0.0040449106586230949 0.00012719964801909115 0 0.0040223682432204439 0.0001350118831230427 0 0.0040347679337430949 0.00015957845833353495 0 0.0040449106586230949 0.00012719964801909115 0 0.0040126343203102932 0.00011629928595382552 0 0.0040223682432204439 0.0001350118831230427 0 0.0039862449899587572 0.00015040133029283883 0 0.004100817490187092 0.00012476922798516414 0 0.0039865321382366219 0.00014038346035564532 0 0.0040199920533784492 0.00016993532717635612 0 0.0039712490237737994 0.00017179427527515024 0 0.0039992012836885362 0.00015413175398733468 0 0.0040338643622335755 0.00016563131906514744 0 0.0040470854223328117 0.00019631723996889604 0 0.0039971567886150682 0.00013676494637302185 0 0.0040223682432204439 0.0001350118831230427 0 0.0040347679337430949 0.00015957845833353495 0 0.0040034263474509986 0.00014000962726915499 0 0.004030425456427766 0.00015780682007302107 0 0.0039971567886150682 0.00013676494637302185 0 0.0039992012836885362 0.00015413175398733468 0 0.0040338643622335755 0.00016563131906514744 0 0.004030425456427766 0.00015780682007302107 0 0.0041416421599856845 0.00014794866966117969 0 0.0040338643622335755 0.00016563131906514744 0 0.0040707600361426649 0.00019513180580996186 0 0.0040470854223328117 0.00019631723996889604 0 0.0040347679337430949 0.00015957845833353495 0 0.0040649072788497744 0.00015002218453838816 0 0.0040693885342377879 0.00018234114926991222 0 0.0040449106586230949 0.00012719964801909115 0 0.0040347679337430949 0.00015957845833353495 0 0.0040649072788497744 0.00015002218453838816 0 0.0040929568079175679 0.00015355287543421389 0 0.0040822387979945109 0.00012894375533435484 0 0.0040649072788497744 0.00015002218453838816 0 0.0040929568079175679 0.00015355287543421389 0 0.0040649072788497744 0.00015002218453838816 0 0.0040693885342377879 0.00018234114926991222 0 0.004100817490187092 0.00012476922798516414 0 0.0042149133542865643 9.6511042622995856e-05 0 0.0041634335661773596 4.4323786018376142e-05 0 0.0041676070714329961 8.9793906847068927e-05 0 0.0042063862629747786 9.0387292150723698e-05 0 0.0041960217763744572 8.126901706036298e-05 0 0.0041802593931224855 8.2128397691874939e-05 0 0.0042115661639154645 0.00010912601283794638 0 0.0041416421599856845 0.00014794866966117969 0 0.004100817490187092 0.00012476922798516414 0 0.004100817490187092 0.00012476922798516414 0 0.004028827319374542 0.00010661951389363078 0 0.0041634335661773596 4.4323786018376142e-05 0 0.0041296696326773141 7.6723945918857569e-05 0 0.0041676070714329961 8.9793906847068927e-05 0 0.0041634335661773596 4.4323786018376142e-05 0 0.0041296696326773141 7.6723945918857569e-05 0 0.0040924369928789063 4.3174150639371782e-05 0 0.0041296696326773141 7.6723945918857569e-05 0 0.0041400787802197735 0.00011745359317144912 0 0.0041676070714329961 8.9793906847068927e-05 0 0.0041296696326773141 7.6723945918857569e-05 0 0.0041400787802197735 0.00011745359317144912 0 0.0040822972269324168 0.00010521014225133306 0 0.0041676070714329961 8.9793906847068927e-05 0 0.0041924333350349674 0.00013861273070092184 0 0.0042063862629747786 9.0387292150723698e-05 0 0.0041400787802197735 0.00011745359317144912 0 0.0041676070714329961 8.9793906847068927e-05 0 0.0041924333350349674 0.00013861273070092184 0 0.0040063761454811296 9.0625798434633995e-05 0 0.0040183501719627127 4.3575870172364688e-05 0 0.0040470954629153472 8.0672480969696555e-05 0 0.003976922618001498 0.00010036244364770005 0 0.004028827319374542 0.00010661951389363078 0 0.0039534855359849679 0.00014655406727295619 0 0.0039257361301945999 0.00017264385324938024 0 0.0039712490237737994 0.00017179427527515024 0 0.0040183501719627127 4.3575870172364688e-05 0 0.0040924369928789063 4.3174150639371782e-05 0 0.0040470954629153472 8.0672480969696555e-05 0 0.0041296696326773141 7.6723945918857569e-05 0 0.0040924369928789063 4.3174150639371782e-05 0 0.0040822972269324168 0.00010521014225133306 0 0.0040924369928789063 4.3174150639371782e-05 0 0.0040822972269324168 0.00010521014225133306 0 0.0040470954629153472 8.0672480969696555e-05 0 0.0040822972269324168 0.00010521014225133306 0 0.0040470954629153472 8.0672480969696555e-05 0 0.0040354236409490974 0.00012106389243705195 0 0.0040063761454811296 9.0625798434633995e-05 0 0.0040470954629153472 8.0672480969696555e-05 0 0.0040354236409490974 0.00012106389243705195 0 0.0040822972269324168 0.00010521014225133306 0 0.0040354236409490974 0.00012106389243705195 0 0.0040561458329993185 0.00017452451033034895 0 0.0039898312617909597 0.00013919996862213989 0 0.0040354236409490974 0.00012106389243705195 0 0.0040561458329993185 0.00017452451033034895 0 0.0040822972269324168 0.00010521014225133306 0 0.0041058827596729365 0.00014613263090176273 0 0.0040561458329993185 0.00017452451033034895 0 0.0041400787802197735 0.00011745359317144912 0 0.0040822972269324168 0.00010521014225133306 0 0.0041058827596729365 0.00014613263090176273 0 0.0048180083711632368 5.9202053610568519e-05 0 0.0047872724675479929 -6.1774734962837601e-05 0 0.0049061759719247703 4.54002789212961e-05 0 0.0041058827596729365 0.00014613263090176273 0 0.0040561458329993185 0.00017452451033034895 0 0.0041407847251406409 0.00018491803153879323 0 0.0044171430051211441 5.6869172466065714e-05 0 0.0045179776890296557 0.00011455805446956014 0 0.0048180083711632368 5.9202053610568519e-05 0 0.0047872724675479929 -6.1774734962837601e-05 0 0.0047093709384237268 9.2701779471286926e-06 0 0.0046345998116119709 -5.4889922081514268e-05 0 0.0047872724675479929 -6.1774734962837601e-05 0 0.0047093709384237268 9.2701779471286926e-06 0 0.0041400787802197735 0.00011745359317144912 0 0.0041924333350349674 0.00013861273070092184 0 0.0041407847251406409 0.00018491803153879323 0 0.0041400787802197735 0.00011745359317144912 0 0.0041058827596729365 0.00014613263090176273 0 0.0041407847251406409 0.00018491803153879323 0 0.0045179776890296557 0.00011455805446956014 0 0.004554712500895783 0.00017073843609017133 0 0.0041924333350349674 0.00013861273070092184 0 0.0041407847251406409 0.00018491803153879323 0 0.0042103848363105349 0.00019138804663871136 0 0.0049201767097449287 0.00010721219593873547 0 0.0049061759719247703 4.54002789212961e-05 0 0.0049127653901888607 0.0001507558706512578 0 0.0041924333350349674 0.00013861273070092184 0 0.0042103848363105349 0.00019138804663871136 0 0.0042252687434492829 0.00015751037653916809 0 0.0042103848363105349 0.00019138804663871136 0 0.0042252687434492829 0.00015751037653916809 0 0.0042527589370512653 0.00016480520241437578 0 0.0041924333350349674 0.00013861273070092184 0 0.0042252687434492829 0.00015751037653916809 0 0.0042418382554776316 0.00013482142223082645 0 0.0042418382554776316 0.00013482142223082645 0 0.0042527589370512653 0.00016480520241437578 0 0.0042732942882372791 0.00015504536284743578 0 0.0042418382554776316 0.00013482142223082645 0 0.0042732942882372791 0.00015504536284743578 0 0.0042400634843279047 0.00011587782484506432 0 0.0042252687434492829 0.00015751037653916809 0 0.0042418382554776316 0.00013482142223082645 0 0.0042527589370512653 0.00016480520241437578 0 0.0042654213334854217 0.00015384745864709047 0 0.0042444826321420964 0.00012500264657335251 0 0.004496804719828865 0.00020616731808268453 0 0.004554712500895783 0.00017073843609017133 0 0.0042656215255698904 0.00019899881554180218 0 0.0042103848363105349 0.00019138804663871136 0 0.0042527589370512653 0.00016480520241437578 0 0.0042527589370512653 0.00016480520241437578 0 0.0043117030312569277 0.00017358444641097512 0 0.0042732942882372791 0.00015504536284743578 0 0.0042656215255698904 0.00019899881554180218 0 0.0042527589370512653 0.00016480520241437578 0 0.0043117030312569277 0.00017358444641097512 0 0.0043795462992772208 0.00018166595243152849 0 0.0043117030312569277 0.00017358444641097512 0 0.0043127500602354674 0.0001715814495729617 0 0.0043117030312569277 0.00017358444641097512 0 0.0043127500602354674 0.0001715814495729617 0 0.0042732942882372791 0.00015504536284743578 0 0.0042840243882350561 0.00016035231953760075 0 0.0043127500602354674 0.0001715814495729617 0 0.0042732942882372791 0.00015504536284743578 0 0.0042840243882350561 0.00016035231953760075 0 0.0042732942882372791 0.00015504536284743578 0 0.0042517336307594678 0.00013850222517433386 0 0.0042732942882372791 0.00015504536284743578 0 0.0042404303723591131 0.00014091003119547516 0 0.0042240498862821134 0.00014244924365984738 0 0.0042732942882372791 0.00015504536284743578 0 0.0042404303723591131 0.00014091003119547516 0 0.0042517336307594678 0.00013850222517433386 0 0.0042404303723591131 0.00014091003119547516 0 0.0042517336307594678 0.00013850222517433386 0 0.0042275853652092524 0.00013010660108232698 0 0.0042404303723591131 0.00014091003119547516 0 0.0042099054631313587 0.00014027679765636324 0 0.0042264216049061809 0.00013769303549759511 0 0.0042404303723591131 0.00014091003119547516 0 0.0042275853652092524 0.00013010660108232698 0 0.0042099054631313587 0.00014027679765636324 0 0.0042099054631313587 0.00014027679765636324 0 0.0042264216049061809 0.00013769303549759511 0 0.0042268057063452723 0.00013906302306150616 0 0.0042060205966751975 0.00014322925955428611 0 0.0041791901861356808 0.00015417554733516002 0 0.0042264216049061809 0.00013769303549759511 0 0.0042268057063452723 0.00013906302306150616 0 0.0042240498862821134 0.00014244924365984738 0 0.0041416421599856845 0.00014794866966117969 0 0.0041791901861356808 0.00015417554733516002 0 0.0042204587059682793 0.00013911017705224964 0 0.0042268057063452723 0.00013906302306150616 0 0.0042240498862821134 0.00014244924365984738 0 0.0041960217763744572 8.126901706036298e-05 0 0.0042115661639154645 0.00010912601283794638 0 0.0042400634843279047 0.00011587782484506432 0 0.0041416421599856845 0.00014794866966117969 0 0.0042444826321420964 0.00012500264657335251 0 0.0042418382554776316 0.00013482142223082645 0 0.0042115661639154645 0.00010912601283794638 0 0.0042400634843279047 0.00011587782484506432 0 0.0041924333350349674 0.00013861273070092184 0 0.0042418382554776316 0.00013482142223082645 0 0.0042063862629747786 9.0387292150723698e-05 0 0.004237988303907615 0.00013144889862138097 0 0.0042149133542865643 9.6511042622995856e-05 0 0.0042404303723591131 0.00014091003119547516 0 0.0042264216049061809 0.00013769303549759511 0 0.0042240498862821134 0.00014244924365984738 0 0.0040017411437537559 -5.1551296200688354e-05 0 0.0040733418739263569 -1.6116690259886594e-07 0 0.0037260568113749682 -4.8950663523266398e-05 0 0.0040017411437537559 -5.1551296200688354e-05 0 0.003836038906625882 -6.7327423732749248e-05 0 0.0037260568113749682 -4.8950663523266398e-05 0 0.003836038906625882 -6.7327423732749248e-05 0 0.0040192634884447711 -8.7436998591086876e-05 0 0.0038180382403995151 -8.4707046235131758e-05 0 0.0040017411437537559 -5.1551296200688354e-05 0 0.003836038906625882 -6.7327423732749248e-05 0 0.0040192634884447711 -8.7436998591086876e-05 0 0.0040017411437537559 -5.1551296200688354e-05 0 0.0040192634884447711 -8.7436998591086876e-05 0 0.0041016639647222988 -4.5143285199407999e-05 0 0.0040017411437537559 -5.1551296200688354e-05 0 0.0041016639647222988 -4.5143285199407999e-05 0 0.0043448241633787512 -5.9992217118054536e-06 0 0.0040682515146530139 -7.6453381188938265e-05 0 0.0042975059176160605 4.5737318845331835e-06 0 0.0040192634884447711 -8.7436998591086876e-05 0 0.0045055027747273506 3.6586001597169044e-05 0 0.0041806920904726855 -2.6416248823238133e-05 0 0.0045055027747273506 3.6586001597169044e-05 0 0.0043561924210112034 4.910904300835753e-05 0 0.004649297700645187 0.00015136102787078633 0 0.0045055027747273506 3.6586001597169044e-05 0 0.0043561924210112034 4.910904300835753e-05 0 0.0041806920904726855 -2.6416248823238133e-05 0 0.0042975059176160605 4.5737318845331835e-06 0 0.0045360669954565627 5.4366181677627926e-05 0 0.0040017411437537559 -5.1551296200688354e-05 0 0.0040733418739263569 -1.6116690259886594e-07 0 0.0043448241633787512 -5.9992217118054536e-06 0 0.0043448241633787512 -5.9992217118054536e-06 0 0.0046260797975985531 2.2692803813873341e-05 0 0.004316764272593661 1.0136334792295237e-05 0 0.0040733418739263569 -1.6116690259886594e-07 0 0.0043448241633787512 -5.9992217118054536e-06 0 0.0049999733186178244 1.1410680660859213e-07 0 0.0043448241633787512 -5.9992217118054536e-06 0 0.0046260797975985531 2.2692803813873341e-05 0 0.0049999733186178244 1.1410680660859213e-07 0 0.0048882409486791113 4.3144103091194217e-05 0 0.004999924775360173 4.3349487984859764e-09 0 0.004999846586627177 3.7069053386625045e-08 0 0.0047542357012283253 2.227419131712343e-05 0 0.004999898527101026 -1.5024016436768041e-08 0 0.0046260797975985531 2.2692803813873341e-05 0 0.0049994445601793929 -3.7998376118450088e-08 0 0.0049999733186178244 1.1410680660859213e-07 0 0.004999846586627177 3.7069053386625045e-08 0 0.0048974641379790282 2.863179331690021e-05 0 0.0049999182555971328 -1.9379077301255955e-08 0 0.0048882409486791113 4.3144103091194217e-05 0 0.004999846586627177 3.7069053386625045e-08 0 0.0048974641379790282 2.863179331690021e-05 0 0.0048882409486791113 4.3144103091194217e-05 0 0.0048974641379790282 2.863179331690021e-05 0 0.0047888303342275085 8.7282561144199014e-05 0 0.0048974641379790282 2.863179331690021e-05 0 0.0047888303342275085 8.7282561144199014e-05 0 0.0048459121274701004 6.826947273315257e-05 0 0.0047888303342275085 8.7282561144199014e-05 0 0.004649297700645187 0.00015136102787078633 0 0.0048459121274701004 6.826947273315257e-05 0 0.0047542357012283253 2.227419131712343e-05 0 0.0045360669954565627 5.4366181677627926e-05 0 0.0048882409486791113 4.3144103091194217e-05 0 0.0047888303342275085 8.7282561144199014e-05 0 0.0047529910489547576 0.00010940258087528687 0 0.0041016639647222988 -4.5143285199407999e-05 0 0.0043448241633787512 -5.9992217118054536e-06 0 0.004316764272593661 1.0136334792295237e-05 0 0.0047888303342275085 8.7282561144199014e-05 0 0.0047529910489547576 0.00010940258087528687 0 0.004649297700645187 0.00015136102787078633 0 0.0045055027747273506 3.6586001597169044e-05 0 0.0047529910489547576 0.00010940258087528687 0 0.004649297700645187 0.00015136102787078633 0 0.004649297700645187 0.00015136102787078633 0 0.0048287596643748721 0.00014174759460458514 0 0.0048501000098597567 0.00022997297978494453 0 0.0048287596643748721 0.00014174759460458514 0 0.0049304221619502217 0.0001381845851677417 0 0.0048459121274701004 6.826947273315257e-05 0 0.004649297700645187 0.00015136102787078633 0 0.0048287596643748721 0.00014174759460458514 0 0.0048459121274701004 6.826947273315257e-05 0 0.0048287596643748721 0.00014174759460458514 0 0.0049304221619502217 0.0001381845851677417 0 0.0048501000098597567 0.00022997297978494453 0 0.0049304221619502217 0.0001381845851677417 0 0.0048459121274701004 6.826947273315257e-05 0 0.0049671116558723631 8.5653566449864809e-06 0 0.0049768868688360819 -2.0735232143461908e-05 0 0.0049671116558723631 8.5653566449864809e-06 0 0.0049722592733095301 -1.7966177117132467e-06 0 0.0049471222635452221 5.052744861363217e-05 0 0.0049655541498823189 1.0821549451933459e-05 0 0.0048974641379790282 2.863179331690021e-05 0 0.0048459121274701004 6.826947273315257e-05 0 0.0049273802628189735 1.9705496289479892e-05 0 0.0048459121274701004 6.826947273315257e-05 0 0.0049273802628189735 1.9705496289479892e-05 0 0.0049671116558723631 8.5653566449864809e-06 0 0.0049671116558723631 8.5653566449864809e-06 0 0.0049999182555971328 -1.9379077301255955e-08 0 0.0049999906216160253 8.2253448376676415e-10 0 0.0049273802628189735 1.9705496289479892e-05 0 0.0049671116558723631 8.5653566449864809e-06 0 0.0049999182555971328 -1.9379077301255955e-08 0 0.0048974641379790282 2.863179331690021e-05 0 0.0049273802628189735 1.9705496289479892e-05 0 0.0049999182555971328 -1.9379077301255955e-08 0 0.0049999906216160253 8.2253448376676415e-10 0 0.0049894918273349189 8.50183129571764e-07 0 0.0049999977085091792 -4.3720758916576697e-09 0 0.0049671116558723631 8.5653566449864809e-06 0 0.0049999906216160253 8.2253448376676415e-10 0 0.0049894918273349189 8.50183129571764e-07 0 0.0049671116558723631 8.5653566449864809e-06 0 0.0049894918273349189 8.50183129571764e-07 0 0.0049722592733095301 -1.7966177117132467e-06 0 0.0049894918273349189 8.50183129571764e-07 0 0.0049967600070166228 2.5080799239872104e-06 0 0.0049722592733095301 -1.7966177117132467e-06 0 0.0049894918273349189 8.50183129571764e-07 0 0.0049967600070166228 2.5080799239872104e-06 0 0.0049999977085091792 -4.3720758916576697e-09 0 0.004959493914610597 -2.7667854622107604e-05 0 0.0049635462161454307 -2.2125447138848404e-05 0 0.0049592126024337073 -3.13380720285546e-05 0 0.0049768868688360819 -2.0735232143461908e-05 0 0.0049722592733095301 -1.7966177117132467e-06 0 0.0049635462161454307 -2.2125447138848404e-05 0 0.004959493914610597 -2.7667854622107604e-05 0 0.0049722592733095301 -1.7966177117132467e-06 0 0.0049635462161454307 -2.2125447138848404e-05 0 0.0049790933373694696 -1.2296129919905441e-05 0 0.0049740791935315399 -3.6505360756809358e-06 0 0.0049635462161454307 -2.2125447138848404e-05 0 0.0049592126024337073 -3.13380720285546e-05 0 0.004961805680771981 -3.3039388743609961e-05 0 0.0049768868688360819 -2.0735232143461908e-05 0 0.0049635462161454307 -2.2125447138848404e-05 0 0.004961805680771981 -3.3039388743609961e-05 0 0.0049592126024337073 -3.13380720285546e-05 0 0.0049566875438039728 -3.8745496777840268e-05 0 0.0049582441418280264 -3.8525377196969644e-05 0 0.0049566875438039728 -3.8745496777840268e-05 0 0.00495493939215246 -4.2952401775322828e-05 0 0.0049582441418280264 -3.8525377196969644e-05 0 0.0049592126024337073 -3.13380720285546e-05 0 0.0049566875438039728 -3.8745496777840268e-05 0 0.004961805680771981 -3.3039388743609961e-05 0 0.0049566875438039728 -3.8745496777840268e-05 0 0.0049521399921059906 -4.3000027172570104e-05 0 0.0049563617790022146 -4.1012734821434379e-05 0 0.0049566875438039728 -3.8745496777840268e-05 0 0.0049521399921059906 -4.3000027172570104e-05 0 0.00495493939215246 -4.2952401775322828e-05 0 0.0049563617790022146 -4.1012734821434379e-05 0 0.00496384530919931 -3.8572642777389477e-05 0 0.0049523679757632749 -4.331993222866666e-05 0 0.0049521399921059906 -4.3000027172570104e-05 0 0.0049563617790022146 -4.1012734821434379e-05 0 0.0049487903416987845 -4.2712633299196613e-05 0 0.0049566875438039728 -3.8745496777840268e-05 0 0.0049563617790022146 -4.1012734821434379e-05 0 0.004961805680771981 -3.3039388743609961e-05 0 0.0049563617790022146 -4.1012734821434379e-05 0 0.004961805680771981 -3.3039388743609961e-05 0 0.00496384530919931 -3.8572642777389477e-05 0 0.004934152342467365 0.00034172842778803678 0 0.0048501000098597567 0.00022997297978494453 0 0.0048417849079272039 0.00035731616956045334 0 0.0049471222635452221 5.052744861363217e-05 0 0.0050054726746720686 0.0001807006404074619 0 0.0049768868688360819 -2.0735232143461908e-05 0 0.004961805680771981 -3.3039388743609961e-05 0 0.00496384530919931 -3.8572642777389477e-05 0 0.0049304221619502217 0.0001381845851677417 0 0.004934152342467365 0.00034172842778803678 0 0.0048501000098597567 0.00022997297978494453 0 0.004649297700645187 0.00015136102787078633 0 0.0048501000098597567 0.00022997297978494453 0 0.0048417849079272039 0.00035731616956045334 0 0.0043561924210112034 4.910904300835753e-05 0 0.004649297700645187 0.00015136102787078633 0 0.0040770939133812079 2.7296825677609547e-05 0 0.0046123602915164128 0.0001411792020200609 0 0.0044565805465205466 0.00019207818261514039 0 0.0041806920904726855 -2.6416248823238133e-05 0 0.0040770939133812079 2.7296825677609547e-05 0 0.004006486831008957 -6.5349713692248394e-05 0 0.0043561924210112034 4.910904300835753e-05 0 0.0041806920904726855 -2.6416248823238133e-05 0 0.0040770939133812079 2.7296825677609547e-05 0 0.0040770939133812079 2.7296825677609547e-05 0 0.0038955174258494081 -9.429645920073399e-05 0 0.004006486831008957 -6.5349713692248394e-05 0 0.0044565805465205466 0.00019207818261514039 0 0.004491362718540612 0.00010636063982591696 0 0.0050054726746720686 0.0001807006404074619 0 0.004491362718540612 0.00010636063982591696 0 0.004934152342467365 0.00034172842778803678 0 0.0048417849079272039 0.00035731616956045334 0 0.0049376062065085132 0.00048457535715941159 0 0.0039263524706627667 -9.6771460443395406e-05 0 0.0039215719028532206 -9.6799089231137134e-05 0 0.004006486831008957 -6.5349713692248394e-05 0 0.0039215719028532206 -9.6799089231137134e-05 0 0.0038955174258494081 -9.429645920073399e-05 0 0.004006486831008957 -6.5349713692248394e-05 0 0.0039263524706627667 -9.6771460443395406e-05 0 0.0039215719028532206 -9.6799089231137134e-05 0 0.0039092963384049148 -9.8625770719308671e-05 0 0.0039215719028532206 -9.6799089231137134e-05 0 0.0039104547259506675 -0.00010243276849035777 0 0.0039092963384049148 -9.8625770719308671e-05 0 0.0039215719028532206 -9.6799089231137134e-05 0 0.0039104547259506675 -0.00010243276849035777 0 0.0038955174258494081 -9.429645920073399e-05 0 0.0039104547259506675 -0.00010243276849035777 0 0.0039176904563266671 -0.00010686224885381013 0 0.0039175466353491986 -0.00010369186561859065 0 0.0043922294534500094 -6.5939644030549458e-06 0 0.004491362718540612 0.00010636063982591696 0 0.004491362718540612 0.00010636063982591696 0 0.0043567782758035453 -3.8976993639476581e-05 0 0.0040192634884447711 -8.7436998591086876e-05 0 0.0041806920904726855 -2.6416248823238133e-05 0 0.004006486831008957 -6.5349713692248394e-05 0 0.0040192634884447711 -8.7436998591086876e-05 0 0.004006486831008957 -6.5349713692248394e-05 0 0.0039405169660632179 -9.3171756086487967e-05 0 0.0039263524706627667 -9.6771460443395406e-05 0 0.004006486831008957 -6.5349713692248394e-05 0 0.0039405169660632179 -9.3171756086487967e-05 0 0.0040192634884447711 -8.7436998591086876e-05 0 0.0039405169660632179 -9.3171756086487967e-05 0 0.0038180382403995151 -8.4707046235131758e-05 0 0.0039405169660632179 -9.3171756086487967e-05 0 0.003881259075199271 -9.5793164488787902e-05 0 0.0038180382403995151 -8.4707046235131758e-05 0 0.0043567782758035453 -3.8976993639476581e-05 0 0.0036298298756122301 -8.0160142661307618e-05 0 0.0039104547259506675 -0.00010243276849035777 0 0.003881259075199271 -9.5793164488787902e-05 0 0.0038341233623518595 -8.3297263787457534e-05 0 0.0036152941823733836 -0.00010929510424853173 0 0.0036100923125372527 -8.1846509349447048e-05 0 0.0035962802082593792 -7.399678503969925e-05 0 0.0039104547259506675 -0.00010243276849035777 0 0.0039175466353491986 -0.00010369186561859065 0 0.0038341233623518595 -8.3297263787457534e-05 0 0.0039104547259506675 -0.00010243276849035777 0 0.0039092963384049148 -9.8625770719308671e-05 0 0.003881259075199271 -9.5793164488787902e-05 0 0.0039263524706627667 -9.6771460443395406e-05 0 0.0039092963384049148 -9.8625770719308671e-05 0 0.003881259075199271 -9.5793164488787902e-05 0 0.0039263524706627667 -9.6771460443395406e-05 0 0.0039405169660632179 -9.3171756086487967e-05 0 0.003881259075199271 -9.5793164488787902e-05 0 0.0049430610570954537 -4.1880598870898251e-05 0 0.0049391782769397582 -3.9526491865123379e-05 0 0.0049416178230015416 -4.3153489678308595e-05 0 0.0040541446959592936 -5.5719244896261764e-05 0 0.0043567782758035453 -3.8976993639476581e-05 0 0.0049430610570954537 -4.1880598870898251e-05 0 0.0049391782769397582 -3.9526491865123379e-05 0 0.0049470175015373478 -4.2945506274638453e-05 0 0.0036293179537231733 -8.5805444796854618e-05 0 0.0036152941823733836 -0.00010929510424853173 0 0.0036100923125372527 -8.1846509349447048e-05 0 0.0040541446959592936 -5.5719244896261764e-05 0 0.0043764383874604204 -9.7626202326796772e-05 0 0.0049391782769397582 -3.9526491865123379e-05 0 0.0049470175015373478 -4.2945506274638453e-05 0 0.0049474842220175938 -4.1548552496548657e-05 0 0.0049521399921059906 -4.3000027172570104e-05 0 0.0049470175015373478 -4.2945506274638453e-05 0 0.0049517580156481509 -4.4789656975606445e-05 0 0.0049521399921059906 -4.3000027172570104e-05 0 0.0049470175015373478 -4.2945506274638453e-05 0 0.0049487903416987845 -4.2712633299196613e-05 0 0.0049563617790022146 -4.1012734821434379e-05 0 0.0049487903416987845 -4.2712633299196613e-05 0 0.0049416178230015416 -4.3153489678308595e-05 0 0.0049563617790022146 -4.1012734821434379e-05 0 0.0049523679757632749 -4.331993222866666e-05 0 0.0049515584912716007 -4.3546877957202266e-05 0 0.0050980173488946526 -8.2546206684840662e-05 0 0.0043567782758035453 -3.8976993639476581e-05 0 0.0049430610570954537 -4.1880598870898251e-05 0 0.0049416178230015416 -4.3153489678308595e-05 0 0.0049452716622399055 -4.2682207171368259e-05 0 0.0049487903416987845 -4.2712633299196613e-05 0 0.0049416178230015416 -4.3153489678308595e-05 0 0.0049452716622399055 -4.2682207171368259e-05 0 0.0049470175015373478 -4.2945506274638453e-05 0 0.0049487903416987845 -4.2712633299196613e-05 0 0.0049452716622399055 -4.2682207171368259e-05 0 0.0049430610570954537 -4.1880598870898251e-05 0 0.0049470175015373478 -4.2945506274638453e-05 0 0.0049452716622399055 -4.2682207171368259e-05 0 0.0049517580156481509 -4.4789656975606445e-05 0 0.0049474842220175938 -4.1548552496548657e-05 0 0.0049550157820995354 -4.8773295180959166e-05 0 0.0049517580156481509 -4.4789656975606445e-05 0 0.0049550157820995354 -4.8773295180959166e-05 0 0.0049563810831844621 -4.740402389055873e-05 0 0.0049470175015373478 -4.2945506274638453e-05 0 0.0049517580156481509 -4.4789656975606445e-05 0 0.0049474842220175938 -4.1548552496548657e-05 0 0.0043764383874604204 -9.7626202326796772e-05 0 0.0043924020722331085 -0.00011388165325373892 0 0.0037036849869975974 -0.00013450771920801825 0 0.0037843406697969794 -9.037235237585489e-05 0 0.0038497580560189443 -0.00018492062197846123 0 0.0037843406697969794 -9.037235237585489e-05 0 0.0038497580560189443 -0.00018492062197846123 0 0.0038645452982498476 -2.0027542350831766e-05 0 0.0040319954295812274 -9.5190006456271215e-05 0 0.0038497580560189443 -0.00018492062197846123 0 0.0038645452982498476 -2.0027542350831766e-05 0 0.0040319954295812274 -9.5190006456271215e-05 0 0.0041589947675221926 -0.000249512430129158 0 0.0038497580560189443 -0.00018492062197846123 0 0.0045598964720682793 -0.00015527438539785659 0 0.0043924020722331085 -0.00011388165325373892 0 0.004960776966349556 -6.4838490875592213e-05 0 0.0049550157820995354 -4.8773295180959166e-05 0 0.0049630106212587722 -5.5118081864868539e-05 0 0.0049550157820995354 -4.8773295180959166e-05 0 0.0049630106212587722 -5.5118081864868539e-05 0 0.0049563810831844621 -4.740402389055873e-05 0 0.004960776966349556 -6.4838490875592213e-05 0 0.0049630106212587722 -5.5118081864868539e-05 0 0.0049630224824623228 -7.0633500719206725e-05 0 0.0049630106212587722 -5.5118081864868539e-05 0 0.0049684493995732423 -5.4055797554077546e-05 0 0.0049630224824623228 -7.0633500719206725e-05 0 0.0049630106212587722 -5.5118081864868539e-05 0 0.0049683955406682762 -4.2644071979433387e-05 0 0.0049684493995732423 -5.4055797554077546e-05 0 0.0049630106212587722 -5.5118081864868539e-05 0 0.0049606551932869095 -4.3393868140124922e-05 0 0.0049683955406682762 -4.2644071979433387e-05 0 0.0049630106212587722 -5.5118081864868539e-05 0 0.0049606551932869095 -4.3393868140124922e-05 0 0.0049563810831844621 -4.740402389055873e-05 0 0.0049517580156481509 -4.4789656975606445e-05 0 0.0049563810831844621 -4.740402389055873e-05 0 0.00495493939215246 -4.2952401775322828e-05 0 0.0049521399921059906 -4.3000027172570104e-05 0 0.0049517580156481509 -4.4789656975606445e-05 0 0.00495493939215246 -4.2952401775322828e-05 0 0.0049606551932869095 -4.3393868140124922e-05 0 0.0049563810831844621 -4.740402389055873e-05 0 0.00495493939215246 -4.2952401775322828e-05 0 0.0049606551932869095 -4.3393868140124922e-05 0 0.00495493939215246 -4.2952401775322828e-05 0 0.0049582441418280264 -3.8525377196969644e-05 0 0.0049606551932869095 -4.3393868140124922e-05 0 0.0049582441418280264 -3.8525377196969644e-05 0 0.0049620327664421562 -3.57441265380752e-05 0 0.0049592126024337073 -3.13380720285546e-05 0 0.0049582441418280264 -3.8525377196969644e-05 0 0.0049620327664421562 -3.57441265380752e-05 0 0.0049606551932869095 -4.3393868140124922e-05 0 0.0049620327664421562 -3.57441265380752e-05 0 0.0049683955406682762 -4.2644071979433387e-05 0 0.0049620327664421562 -3.57441265380752e-05 0 0.0049699496237683343 -3.6756787493648204e-05 0 0.0049683955406682762 -4.2644071979433387e-05 0 0.004959493914610597 -2.7667854622107604e-05 0 0.0049592126024337073 -3.13380720285546e-05 0 0.0049620327664421562 -3.57441265380752e-05 0 0.004959493914610597 -2.7667854622107604e-05 0 0.0049620327664421562 -3.57441265380752e-05 0 0.0049699496237683343 -3.6756787493648204e-05 0 0.0049790933373694696 -1.2296129919905441e-05 0 0.004985247190734547 -2.1068940446106361e-05 0 0.0049967600070166228 2.5080799239872104e-06 0 0.0050027641130977463 -5.6613959967761778e-06 0 0.0049999977085091792 -4.3720758916576697e-09 0 0.0050027641130977463 -5.6613959967761778e-06 0 0.0049999977085091792 -4.3720758916576697e-09 0 0.0050000097618526649 -5.3210922280965781e-09 0 0.0049911416832136828 -1.1237897212322467e-05 0 0.0049999648551077814 -9.1956986824428516e-09 0 0.0049976730551070476 -6.287567713849119e-06 0 0.0049911416832136828 -1.1237897212322467e-05 0 0.0049976730551070476 -6.287567713849119e-06 0 0.0049851410758857406 -2.6434101968703854e-05 0 0.0049999648551077814 -9.1956986824428516e-09 0 0.0049976730551070476 -6.287567713849119e-06 0 0.0050000097618526649 -5.3210922280965781e-09 0 0.0050027641130977463 -5.6613959967761778e-06 0 0.0049976730551070476 -6.287567713849119e-06 0 0.0050000097618526649 -5.3210922280965781e-09 0 0.0050027641130977463 -5.6613959967761778e-06 0 0.0049976730551070476 -6.287567713849119e-06 0 0.0049851410758857406 -2.6434101968703854e-05 0 0.004985247190734547 -2.1068940446106361e-05 0 0.004983607757948998 -2.5428001061257942e-05 0 0.0049699496237683343 -3.6756787493648204e-05 0 0.0049851410758857406 -2.6434101968703854e-05 0 0.0049757470477215758 -4.0341983789775059e-05 0 0.0049851410758857406 -2.6434101968703854e-05 0 0.0049757470477215758 -4.0341983789775059e-05 0 0.0049733188779128397 -3.5047882630499326e-05 0 0.0049699496237683343 -3.6756787493648204e-05 0 0.0049757470477215758 -4.0341983789775059e-05 0 0.0049683955406682762 -4.2644071979433387e-05 0 0.0049757470477215758 -4.0341983789775059e-05 0 0.0049683955406682762 -4.2644071979433387e-05 0 0.0049684493995732423 -5.4055797554077546e-05 0 0.0049757470477215758 -4.0341983789775059e-05 0 0.0049684493995732423 -5.4055797554077546e-05 0 0.0049650401561714781 -4.6768757605411433e-05 0 0.0049684493995732423 -5.4055797554077546e-05 0 0.0049650401561714781 -4.6768757605411433e-05 0 0.0049575300844287122 -6.5127501952458536e-05 0 0.0049650401561714781 -4.6768757605411433e-05 0 0.0049484175379592632 -4.8880766774582115e-05 0 0.0049575300844287122 -6.5127501952458536e-05 0 0.0049589227805446013 -3.7012776053294812e-05 0 0.0049650401561714781 -4.6768757605411433e-05 0 0.0049484175379592632 -4.8880766774582115e-05 0 0.0049589227805446013 -3.7012776053294812e-05 0 0.0049650401561714781 -4.6768757605411433e-05 0 0.0049733188779128397 -3.5047882630499326e-05 0 0.0049757470477215758 -4.0341983789775059e-05 0 0.0049650401561714781 -4.6768757605411433e-05 0 0.0049733188779128397 -3.5047882630499326e-05 0 0.0049911416832136828 -1.1237897212322467e-05 0 0.0049851410758857406 -2.6434101968703854e-05 0 0.004974239182994623 -2.5577300649786821e-05 0 0.0049589227805446013 -3.7012776053294812e-05 0 0.0049733188779128397 -3.5047882630499326e-05 0 0.004974239182994623 -2.5577300649786821e-05 0 0.0049851410758857406 -2.6434101968703854e-05 0 0.0049733188779128397 -3.5047882630499326e-05 0 0.004974239182994623 -2.5577300649786821e-05 0 0.0049589227805446013 -3.7012776053294812e-05 0 0.004974239182994623 -2.5577300649786821e-05 0 0.0049586462352453542 -2.7027538753496592e-05 0 0.0049589227805446013 -3.7012776053294812e-05 0 0.0049586462352453542 -2.7027538753496592e-05 0 0.0049496391454245565 -3.1964384064928773e-05 0 0.004974239182994623 -2.5577300649786821e-05 0 0.0049586462352453542 -2.7027538753496592e-05 0 0.0049703838155681166 -1.8004983613740014e-05 0 0.0049703838155681166 -1.8004983613740014e-05 0 0.0049539769162277123 -1.4381752245628198e-05 0 0.0049982195853532415 -5.1429415031930193e-07 0 0.0050000000532238256 1.3344315388520639e-09 0 0.0050002281572721127 9.9969136599875354e-08 0 0.0049982195853532415 -5.1429415031930193e-07 0 0.0049786196135550445 -7.581675777309917e-06 0 0.0049969664783593966 -1.1019034442208469e-06 0 0.0049586462352453542 -2.7027538753496592e-05 0 0.0049703838155681166 -1.8004983613740014e-05 0 0.0049539769162277123 -1.4381752245628198e-05 0 0.0049999648551077814 -9.1956986824428516e-09 0 0.0050000000532238256 1.3344315388520639e-09 0 0.0049982195853532415 -5.1429415031930193e-07 0 0.0049911416832136828 -1.1237897212322467e-05 0 0.0049982195853532415 -5.1429415031930193e-07 0 0.0049841054972565545 -1.4419461506838085e-05 0 0.0049911416832136828 -1.1237897212322467e-05 0 0.0049999648551077814 -9.1956986824428516e-09 0 0.0049982195853532415 -5.1429415031930193e-07 0 0.0049911416832136828 -1.1237897212322467e-05 0 0.004974239182994623 -2.5577300649786821e-05 0 0.0049841054972565545 -1.4419461506838085e-05 0 0.0049703838155681166 -1.8004983613740014e-05 0 0.0049982195853532415 -5.1429415031930193e-07 0 0.0049841054972565545 -1.4419461506838085e-05 0 0.004974239182994623 -2.5577300649786821e-05 0 0.0049703838155681166 -1.8004983613740014e-05 0 0.0049841054972565545 -1.4419461506838085e-05 0 0.0049962004604499595 -3.4746104289329292e-06 0 0.0050027642376434872 -2.4945451084799028e-06 0 0.0050000128059109021 -2.1867874374053878e-09 0 0.0049539769162277123 -1.4381752245628198e-05 0 0.0049458891514844987 -3.3096366402099392e-05 0 0.0049485185568009021 -2.8209981215557926e-05 0 0.0050000000532238256 1.3344315388520639e-09 0 0.0050002281572721127 9.9969136599875354e-08 0 0.0050000128059109021 -2.1867874374053878e-09 0 0.0049786196135550445 -7.581675777309917e-06 0 0.0049742725999615458 -1.7051695239931445e-05 0 0.0050002281572721127 9.9969136599875354e-08 0 0.0050027642376434872 -2.4945451084799028e-06 0 0.0050000128059109021 -2.1867874374053878e-09 0 0.0049539769162277123 -1.4381752245628198e-05 0 0.0049485185568009021 -2.8209981215557926e-05 0 0.0049519700063414222 -2.5660885260297442e-05 0 0.0049586462352453542 -2.7027538753496592e-05 0 0.0049539769162277123 -1.4381752245628198e-05 0 0.0049519700063414222 -2.5660885260297442e-05 0 0.0049485185568009021 -2.8209981215557926e-05 0 0.0049496391454245565 -3.1964384064928773e-05 0 0.0049467514572680013 -3.0827190025813859e-05 0 0.0049485185568009021 -2.8209981215557926e-05 0 0.0049519700063414222 -2.5660885260297442e-05 0 0.0049496391454245565 -3.1964384064928773e-05 0 0.0049586462352453542 -2.7027538753496592e-05 0 0.0049519700063414222 -2.5660885260297442e-05 0 0.0049496391454245565 -3.1964384064928773e-05 0 0.0049589227805446013 -3.7012776053294812e-05 0 0.0049496391454245565 -3.1964384064928773e-05 0 0.004950220679504411 -3.8767561873530521e-05 0 0.0049496391454245565 -3.1964384064928773e-05 0 0.0049457871640387653 -3.7508704314973389e-05 0 0.004950220679504411 -3.8767561873530521e-05 0 0.0049496391454245565 -3.1964384064928773e-05 0 0.0049467514572680013 -3.0827190025813859e-05 0 0.0049457871640387653 -3.7508704314973389e-05 0 0.0049467514572680013 -3.0827190025813859e-05 0 0.0049470254143248035 -3.4051953827578637e-05 0 0.0049457871640387653 -3.7508704314973389e-05 0 0.0049458891514844987 -3.3096366402099392e-05 0 0.0049485185568009021 -2.8209981215557926e-05 0 0.0049467514572680013 -3.0827190025813859e-05 0 0.0049541025999992657 -2.7529814546342848e-05 0 0.0049458891514844987 -3.3096366402099392e-05 0 0.0049467514572680013 -3.0827190025813859e-05 0 0.0049541025999992657 -2.7529814546342848e-05 0 0.0049467514572680013 -3.0827190025813859e-05 0 0.0049470254143248035 -3.4051953827578637e-05 0 0.0049432959662428387 -4.1651457700382245e-05 0 0.0049470254143248035 -3.4051953827578637e-05 0 0.0049375660728588986 -5.0846130344819682e-05 0 0.0049470254143248035 -3.4051953827578637e-05 0 0.0049457871640387653 -3.7508704314973389e-05 0 0.0049375660728588986 -5.0846130344819682e-05 0 0.0049457871640387653 -3.7508704314973389e-05 0 0.0049484175379592632 -4.8880766774582115e-05 0 0.0049375660728588986 -5.0846130344819682e-05 0 0.0049589227805446013 -3.7012776053294812e-05 0 0.004950220679504411 -3.8767561873530521e-05 0 0.0049484175379592632 -4.8880766774582115e-05 0 0.0049457871640387653 -3.7508704314973389e-05 0 0.004950220679504411 -3.8767561873530521e-05 0 0.0049484175379592632 -4.8880766774582115e-05 0 0.0049484175379592632 -4.8880766774582115e-05 0 0.0049375660728588986 -5.0846130344819682e-05 0 0.0049336419335673579 -7.5015423370307263e-05 0 0.0049484175379592632 -4.8880766774582115e-05 0 0.0049336419335673579 -7.5015423370307263e-05 0 0.0049575300844287122 -6.5127501952458536e-05 0 0.0049154850489496775 -8.1087001771863179e-05 0 0.0049375660728588986 -5.0846130344819682e-05 0 0.0049336419335673579 -7.5015423370307263e-05 0 0.004933093679790437 -5.677537248370436e-05 0 0.0049154850489496775 -8.1087001771863179e-05 0 0.0049375660728588986 -5.0846130344819682e-05 0 0.0049154850489496775 -8.1087001771863179e-05 0 0.0048821878346753276 -0.00013792245688769593 0 0.0049336419335673579 -7.5015423370307263e-05 0 0.0049083302060543774 -0.00010346711422101488 0 0.0049154850489496775 -8.1087001771863179e-05 0 0.0048821878346753276 -0.00013792245688769593 0 0.0048821878346753276 -0.00013792245688769593 0 0.0045539494146478107 -0.0002543561646817459 0 0.0047878983761695162 -9.6459381949822863e-05 0 0.0048622624426978463 -0.00014531243208326471 0 0.0047442532703165612 -0.00016918259752266295 0 0.0048821878346753276 -0.00013792245688769593 0 0.0049336419335673579 -7.5015423370307263e-05 0 0.0049527317143601155 -9.8482477409854525e-05 0 0.0049336419335673579 -7.5015423370307263e-05 0 0.0049575300844287122 -6.5127501952458536e-05 0 0.0049527317143601155 -9.8482477409854525e-05 0 0.0049684493995732423 -5.4055797554077546e-05 0 0.0049575300844287122 -6.5127501952458536e-05 0 0.0049630224824623228 -7.0633500719206725e-05 0 0.004960776966349556 -6.4838490875592213e-05 0 0.0049630224824623228 -7.0633500719206725e-05 0 0.0049527317143601155 -9.8482477409854525e-05 0 0.0049575300844287122 -6.5127501952458536e-05 0 0.0049630224824623228 -7.0633500719206725e-05 0 0.0049527317143601155 -9.8482477409854525e-05 0 0.0041589947675221926 -0.000249512430129158 0 0.0045539494146478107 -0.0002543561646817459 0 0.0045089940095364728 -0.00010854381193771846 0 0.0041589947675221926 -0.000249512430129158 0 0.0045089940095364728 -0.00010854381193771846 0 0.0043351113261551905 -2.9640058903005094e-05 0 0.0045598964720682793 -0.00015527438539785659 0 0.0047442532703165612 -0.00016918259752266295 0 0.0040319954295812274 -9.5190006456271215e-05 0 0.0043351113261551905 -2.9640058903005094e-05 0 0.0042029440064945385 7.475874426129412e-05 0 0.0040319954295812274 -9.5190006456271215e-05 0 0.0041589947675221926 -0.000249512430129158 0 0.0043351113261551905 -2.9640058903005094e-05 0 0.0043351113261551905 -2.9640058903005094e-05 0 0.0044645534001007906 5.9161549773696123e-05 0 0.0042029440064945385 7.475874426129412e-05 0 0.0045089940095364728 -0.00010854381193771846 0 0.0043351113261551905 -2.9640058903005094e-05 0 0.0046613676975353147 2.4493590180689835e-05 0 0.0043351113261551905 -2.9640058903005094e-05 0 0.0045274530085338983 -2.055395068333928e-05 0 0.0044645534001007906 5.9161549773696123e-05 0 0.0043599422196385776 -2.1270276081110347e-05 0 0.0045855102890724952 -3.6091367829443868e-06 0 0.0045274530085338983 -2.055395068333928e-05 0 0.0046463436585479009 3.0913639415788445e-05 0 0.0044645534001007906 5.9161549773696123e-05 0 0.0045103897150912441 -1.911190383815649e-05 0 0.0043164676893352044 -1.4063559204144939e-06 0 0.0045855102890724952 -3.6091367829443868e-06 0 0.0047838108720285174 -1.0981693632141801e-05 0 0.0045274530085338983 -2.055395068333928e-05 0 0.0046463436585479009 3.0913639415788445e-05 0 0.0046857954186796131 -1.8874720533473021e-05 0 0.0046613676975353147 2.4493590180689835e-05 0 0.0048621542448185487 -1.3923181722347019e-06 0 0.0047878983761695162 -9.6459381949822863e-05 0 0.0049072929332322516 -8.8706757277386361e-05 0 0.0048821878346753276 -0.00013792245688769593 0 0.0048692724140071923 -7.242541520959709e-05 0 0.0048821878346753276 -0.00013792245688769593 0 0.0048692724140071923 -7.242541520959709e-05 0 0.0047878983761695162 -9.6459381949822863e-05 0 0.0048621542448185487 -1.3923181722347019e-06 0 0.0048692724140071923 -7.242541520959709e-05 0 0.0047878983761695162 -9.6459381949822863e-05 0 0.0045089940095364728 -0.00010854381193771846 0 0.0046613676975353147 2.4493590180689835e-05 0 0.0047878983761695162 -9.6459381949822863e-05 0 0.0045539494146478107 -0.0002543561646817459 0 0.0045089940095364728 -0.00010854381193771846 0 0.0047878983761695162 -9.6459381949822863e-05 0 0.0042784958667173821 5.3779407529527331e-05 0 0.0041406976892043859 6.0686784951220771e-05 0 0.0042411733989432977 0.0001946481163567785 0 0.0043781866331689063 0.0001245337362793789 0 0.0042784958667173821 5.3779407529527331e-05 0 0.0042411733989432977 0.0001946481163567785 0 0.0044414247162055994 7.6099731607707824e-05 0 0.0043781866331689063 0.0001245337362793789 0 0.0043642846387113377 5.3090573418611329e-05 0 0.0043781866331689063 0.0001245337362793789 0 0.0043642846387113377 5.3090573418611329e-05 0 0.0042784958667173821 5.3779407529527331e-05 0 0.0043569742027167804 -5.5845927791512981e-05 0 0.0043642846387113377 5.3090573418611329e-05 0 0.0042784958667173821 5.3779407529527331e-05 0 0.0044414247162055994 7.6099731607707824e-05 0 0.0043569742027167804 -5.5845927791512981e-05 0 0.0043642846387113377 5.3090573418611329e-05 0 0.0043569742027167804 -5.5845927791512981e-05 0 0.0042784958667173821 5.3779407529527331e-05 0 0.0041788020000637109 -6.3910625023699114e-05 0 0.0041788020000637109 -6.3910625023699114e-05 0 0.0039794041370129259 -6.2054837757578057e-05 0 0.0041406976892043859 6.0686784951220771e-05 0 0.0042784958667173821 5.3779407529527331e-05 0 0.0041788020000637109 -6.3910625023699114e-05 0 0.0041406976892043859 6.0686784951220771e-05 0 0.0043164676893352044 -1.4063559204144939e-06 0 0.0040926251733927289 1.629803059383754e-06 0 0.0039794041370129259 -6.2054837757578057e-05 0 0.0040147358397342155 0.00012803858947883334 0 0.0041406976892043859 6.0686784951220771e-05 0 0.0039794041370129259 -6.2054837757578057e-05 0 0.0040147358397342155 0.00012803858947883334 0 0.0039098871167020724 -2.994897239355405e-06 0 0.0040147358397342155 0.00012803858947883334 0 0.0041406976892043859 6.0686784951220771e-05 0 0.0042411733989432977 0.0001946481163567785 0 0.0039364525799619049 4.7197648494905205e-05 0 0.0040859686390818757 8.0181801132391366e-05 0 0.0038503556971352542 -3.1122583030593813e-05 0 0.0038917211760353962 1.571404069568579e-05 0 0.0039310402852713528 -3.1919949200760158e-05 0 0.0038917211760353962 1.571404069568579e-05 0 0.0038699494468188919 5.7620904269531705e-05 0 0.0038379281176697724 1.3409588587254688e-05 0 0.0038503556971352542 -3.1122583030593813e-05 0 0.0038917211760353962 1.571404069568579e-05 0 0.0038379281176697724 1.3409588587254688e-05 0 0.0038917211760353962 1.571404069568579e-05 0 0.0039516004694394062 2.4332755692321379e-05 0 0.0039310402852713528 -3.1919949200760158e-05 0 0.0040079067285834109 -2.1059947603632023e-05 0 0.0039516004694394062 2.4332755692321379e-05 0 0.0039310402852713528 -3.1919949200760158e-05 0 0.0042177330467597189 8.9617960938338076e-05 0 0.0040859686390818757 8.0181801132391366e-05 0 0.0044327503781983304 0.00020244249766535215 0 0.0043781866331689063 0.0001245337362793789 0 0.0042411733989432977 0.0001946481163567785 0 0.0040079067285834109 -2.1059947603632023e-05 0 0.0040111127309354058 3.2689584156232146e-05 0 0.0039516004694394062 2.4332755692321379e-05 0 0.0040111127309354058 3.2689584156232146e-05 0 0.0039516004694394062 2.4332755692321379e-05 0 0.0039635371385710692 7.2394328847776373e-05 0 0.0040154744354108478 8.452182639640866e-05 0 0.0040111127309354058 3.2689584156232146e-05 0 0.0039635371385710692 7.2394328847776373e-05 0 0.0039516004694394062 2.4332755692321379e-05 0 0.0039635371385710692 7.2394328847776373e-05 0 0.0039165795336288632 6.0184234547333045e-05 0 0.0039635371385710692 7.2394328847776373e-05 0 0.0039310072845228691 0.00010088664997859671 0 0.00397960969529148 0.00011955674175306452 0 0.0039635371385710692 7.2394328847776373e-05 0 0.0039310072845228691 0.00010088664997859671 0 0.0039165795336288632 6.0184234547333045e-05 0 0.0040154744354108478 8.452182639640866e-05 0 0.0039635371385710692 7.2394328847776373e-05 0 0.00397960969529148 0.00011955674175306452 0 0.0039310072845228691 0.00010088664997859671 0 0.00397960969529148 0.00011955674175306452 0 0.0039353019823533293 0.00012979808325714264 0 0.0039662249627506344 0.00015254757012446465 0 0.0038951720146720124 0.00013128416401076359 0 0.0039439011120484656 0.00018463960044299915 0 0.00397960969529148 0.00011955674175306452 0 0.0039353019823533293 0.00012979808325714264 0 0.0039662249627506344 0.00015254757012446465 0 0.0039620864125589723 0.0001526467288570033 0 0.0038932241293212367 0.00014224163843900179 0 0.0039353019823533293 0.00012979808325714264 0 0.0039662249627506344 0.00015254757012446465 0 0.0038951119102882147 0.0001548634493238406 0 0.0040144962578509309 0.00015536804675923184 0 0.00397960969529148 0.00011955674175306452 0 0.0039662249627506344 0.00015254757012446465 0 0.0038932241293212367 0.00014224163843900179 0 0.0038193345330006906 0.00013245646034879135 0 0.003865097113163735 0.00015728969357598377 0 0.0038951720146720124 0.00013128416401076359 0 0.0038055546929755754 0.00011019774943766763 0 0.0038951119102882147 0.0001548634493238406 0 0.0038673699910767999 0.00013459027576502149 0 0.0038201420974549633 0.00014910850545810092 0 0.003865097113163735 0.00015728969357598377 0 0.0038951720146720124 0.00013128416401076359 0 0.0039439011120484656 0.00018463960044299915 0 0.0038951119102882147 0.0001548634493238406 0 0.0038998501169956877 0.00012123477650921882 0 0.0038673699910767999 0.00013459027576502149 0 0.0039353019823533293 0.00012979808325714264 0 0.0038951119102882147 0.0001548634493238406 0 0.0038998501169956877 0.00012123477650921882 0 0.0039310072845228691 0.00010088664997859671 0 0.0038998501169956877 0.00012123477650921882 0 0.0038902600227197436 8.9580675296104144e-05 0 0.0039310072845228691 0.00010088664997859671 0 0.0039353019823533293 0.00012979808325714264 0 0.0038998501169956877 0.00012123477650921882 0 0.0038673699910767999 0.00013459027576502149 0 0.0038461038047754919 0.00012740559259887311 0 0.0038201420974549633 0.00014910850545810092 0 0.0038998501169956877 0.00012123477650921882 0 0.0038653840790674418 0.00011217913937386234 0 0.0038673699910767999 0.00013459027576502149 0 0.0038998501169956877 0.00012123477650921882 0 0.0038653840790674418 0.00011217913937386234 0 0.0038902600227197436 8.9580675296104144e-05 0 0.0038653840790674418 0.00011217913937386234 0 0.0038673699910767999 0.00013459027576502149 0 0.0038461038047754919 0.00012740559259887311 0 0.0038653840790674418 0.00011217913937386234 0 0.0038461038047754919 0.00012740559259887311 0 0.0038262577583535549 0.0001091489958740649 0 0.0038653840790674418 0.00011217913937386234 0 0.0038487044038736915 8.2539690529780482e-05 0 0.0038262577583535549 0.0001091489958740649 0 0.0038653840790674418 0.00011217913937386234 0 0.0038487044038736915 8.2539690529780482e-05 0 0.0038902600227197436 8.9580675296104144e-05 0 0.0038487044038736915 8.2539690529780482e-05 0 0.0038902600227197436 8.9580675296104144e-05 0 0.0038699494468188919 5.7620904269531705e-05 0 0.0039310072845228691 0.00010088664997859671 0 0.0038902600227197436 8.9580675296104144e-05 0 0.0039165795336288632 6.0184234547333045e-05 0 0.0038902600227197436 8.9580675296104144e-05 0 0.0039165795336288632 6.0184234547333045e-05 0 0.0038699494468188919 5.7620904269531705e-05 0 0.0038917211760353962 1.571404069568579e-05 0 0.0039165795336288632 6.0184234547333045e-05 0 0.0038699494468188919 5.7620904269531705e-05 0 0.0038917211760353962 1.571404069568579e-05 0 0.0039516004694394062 2.4332755692321379e-05 0 0.0039165795336288632 6.0184234547333045e-05 0 0.0038699494468188919 5.7620904269531705e-05 0 0.0038171648973320369 4.9908291124778788e-05 0 0.0038379281176697724 1.3409588587254688e-05 0 0.0038487044038736915 8.2539690529780482e-05 0 0.0038699494468188919 5.7620904269531705e-05 0 0.0038171648973320369 4.9908291124778788e-05 0 0.0038171648973320369 4.9908291124778788e-05 0 0.0037745175853517894 2.7141620477561793e-05 0 0.0038041517952540843 1.104178711667345e-05 0 0.0038171648973320369 4.9908291124778788e-05 0 0.0037745175853517894 2.7141620477561793e-05 0 0.003766439277886132 5.7469659013304107e-05 0 0.0037745175853517894 2.7141620477561793e-05 0 0.003766439277886132 5.7469659013304107e-05 0 0.0037347017154191788 3.1289561103978186e-05 0 0.0038171648973320369 4.9908291124778788e-05 0 0.003766439277886132 5.7469659013304107e-05 0 0.0037906961942348028 8.8138003660539999e-05 0 0.003766439277886132 5.7469659013304107e-05 0 0.0037906961942348028 8.8138003660539999e-05 0 0.0037563317620710893 9.7730746443926446e-05 0 0.0037906961942348028 8.8138003660539999e-05 0 0.0037563317620710893 9.7730746443926446e-05 0 0.0037870242809328455 0.0001189065121126713 0 0.0038487044038736915 8.2539690529780482e-05 0 0.0038171648973320369 4.9908291124778788e-05 0 0.0038203880522591064 8.1943929215491293e-05 0 0.0038171648973320369 4.9908291124778788e-05 0 0.0037906961942348028 8.8138003660539999e-05 0 0.0038203880522591064 8.1943929215491293e-05 0 0.0037906961942348028 8.8138003660539999e-05 0 0.0038203880522591064 8.1943929215491293e-05 0 0.0038262577583535549 0.0001091489958740649 0 0.0037906961942348028 8.8138003660539999e-05 0 0.0038262577583535549 0.0001091489958740649 0 0.0037870242809328455 0.0001189065121126713 0 0.0038487044038736915 8.2539690529780482e-05 0 0.0038203880522591064 8.1943929215491293e-05 0 0.0038262577583535549 0.0001091489958740649 0 0.0038461038047754919 0.00012740559259887311 0 0.0038262577583535549 0.0001091489958740649 0 0.0038201420974549633 0.00014910850545810092 0 0.0038262577583535549 0.0001091489958740649 0 0.0038201420974549633 0.00014910850545810092 0 0.0037870242809328455 0.0001189065121126713 0 0.0038055546929755754 0.00011019774943766763 0 0.0037724995138167824 0.00011852518638256487 0 0.0037104326936861333 9.1782579139416514e-05 0 0.0037563317620710893 9.7730746443926446e-05 0 0.0037870242809328455 0.0001189065121126713 0 0.0037343706861091303 0.00014207603208030647 0 0.0037004434388329473 9.6913068543895805e-05 0 0.0036906820383829668 0.00010045016604935253 0 0.0038201420974549633 0.00014910850545810092 0 0.0037870242809328455 0.0001189065121126713 0 0.0037343706861091303 0.00014207603208030647 0 0.0038193345330006906 0.00013245646034879135 0 0.0036906820383829668 0.00010045016604935253 0 0.0036384908915068413 8.0575031184218409e-05 0 0.0036167840403528895 0.00010320600010018637 0 0.003599991577780189 8.8988642130211792e-05 0 0.0036384908915068413 8.0575031184218409e-05 0 0.003599991577780189 8.8988642130211792e-05 0 0.00360182154105728 6.993917240071253e-05 0 0.0036384908915068413 8.0575031184218409e-05 0 0.0036167840403528895 0.00010320600010018637 0 0.003637916450230511 0.00010351756762905836 0 0.0037871281077946524 0.00012630159241410494 0 0.0037004434388329473 9.6913068543895805e-05 0 0.003865097113163735 0.00015728969357598377 0 0.0038055546929755754 0.00011019774943766763 0 0.0037724995138167824 0.00011852518638256487 0 0.003704964614034985 9.4184756590541457e-05 0 0.0036384908915068413 8.0575031184218409e-05 0 0.0036627066498721291 0.00010540454490558613 0 0.0036384908915068413 8.0575031184218409e-05 0 0.003637916450230511 0.00010351756762905836 0 0.0036627066498721291 0.00010540454490558613 0 0.0035711596535186038 9.2551593519627016e-05 0 0.0035343674133377178 0.00010897670488279908 0 0.0035577702300717659 0.00012266156145602356 0 0.0035711596535186038 9.2551593519627016e-05 0 0.0035544230862045393 7.5565311848179426e-05 0 0.0035343674133377178 0.00010897670488279908 0 0.0035711596535186038 9.2551593519627016e-05 0 0.0035806105494080457 0.00011951962594940123 0 0.0035577702300717659 0.00012266156145602356 0 0.0035711596535186038 9.2551593519627016e-05 0 0.0035943285790806336 0.00010386289571371463 0 0.0035806105494080457 0.00011951962594940123 0 0.0036167840403528895 0.00010320600010018637 0 0.0035943285790806336 0.00010386289571371463 0 0.003599991577780189 8.8988642130211792e-05 0 0.0035711596535186038 9.2551593519627016e-05 0 0.0035943285790806336 0.00010386289571371463 0 0.003599991577780189 8.8988642130211792e-05 0 0.0035711596535186038 9.2551593519627016e-05 0 0.003599991577780189 8.8988642130211792e-05 0 0.003583237688110918 6.4004060971189841e-05 0 0.003599991577780189 8.8988642130211792e-05 0 0.00360182154105728 6.993917240071253e-05 0 0.003583237688110918 6.4004060971189841e-05 0 0.0037563317620710893 9.7730746443926446e-05 0 0.0037343706861091303 0.00014207603208030647 0 0.0037236017421888208 9.7107726712877622e-05 0 0.0037343706861091303 0.00014207603208030647 0 0.003697001073792778 0.00013223679142956575 0 0.0037236017421888208 9.7107726712877622e-05 0 0.0036906820383829668 0.00010045016604935253 0 0.0036405245513933238 9.2023363812412945e-05 0 0.003583237688110918 6.4004060971189841e-05 0 0.0035618491074120955 4.2795707625737404e-05 0 0.0035544230862045393 7.5565311848179426e-05 0 0.0035711596535186038 9.2551593519627016e-05 0 0.003583237688110918 6.4004060971189841e-05 0 0.0035544230862045393 7.5565311848179426e-05 0 0.003697001073792778 0.00013223679142956575 0 0.0036516673757973645 5.8499036918679075e-05 0 0.0035618491074120955 4.2795707625737404e-05 0 0.0036405245513933238 9.2023363812412945e-05 0 0.0035654593599441478 4.9247064137158649e-05 0 0.0036516673757973645 5.8499036918679075e-05 0 0.0036473224879794248 5.9571364173715971e-06 0 0.0035618491074120955 4.2795707625737404e-05 0 0.003697001073792778 0.00013223679142956575 0 0.0036516673757973645 5.8499036918679075e-05 0 0.0037236017421888208 9.7107726712877622e-05 0 0.0036516673757973645 5.8499036918679075e-05 0 0.0037236017421888208 9.7107726712877622e-05 0 0.0037157232932388028 5.8439799282181206e-05 0 0.0037563317620710893 9.7730746443926446e-05 0 0.0037236017421888208 9.7107726712877622e-05 0 0.0037157232932388028 5.8439799282181206e-05 0 0.003766439277886132 5.7469659013304107e-05 0 0.0037563317620710893 9.7730746443926446e-05 0 0.0037157232932388028 5.8439799282181206e-05 0 0.0037347017154191788 3.1289561103978186e-05 0 0.0036473224879794248 5.9571364173715971e-06 0 0.0037300569014203544 7.6094966761534595e-06 0 0.0037157232932388028 5.8439799282181206e-05 0 0.0037347017154191788 3.1289561103978186e-05 0 0.0036473224879794248 5.9571364173715971e-06 0 0.003766439277886132 5.7469659013304107e-05 0 0.0037157232932388028 5.8439799282181206e-05 0 0.0037347017154191788 3.1289561103978186e-05 0 0.0037745175853517894 2.7141620477561793e-05 0 0.0037347017154191788 3.1289561103978186e-05 0 0.0037300569014203544 7.6094966761534595e-06 0 0.0036516673757973645 5.8499036918679075e-05 0 0.0037157232932388028 5.8439799282181206e-05 0 0.0036473224879794248 5.9571364173715971e-06 0 0.0036473224879794248 5.9571364173715971e-06 0 0.0037076042784035109 -1.6602696052497027e-05 0 0.0036314863314905409 -4.0051291213111107e-05 0 0.0036473224879794248 5.9571364173715971e-06 0 0.0037076042784035109 -1.6602696052497027e-05 0 0.0037300569014203544 7.6094966761534595e-06 0 0.0037076042784035109 -1.6602696052497027e-05 0 0.0036933858003333794 -3.7756673083791098e-05 0 0.0036314863314905409 -4.0051291213111107e-05 0 0.0037076042784035109 -1.6602696052497027e-05 0 0.0037794110532381108 -4.0481308357569641e-06 0 0.0037634080509859153 -1.5137328315105789e-05 0 0.0037076042784035109 -1.6602696052497027e-05 0 0.0036933858003333794 -3.7756673083791098e-05 0 0.0037634080509859153 -1.5137328315105789e-05 0 0.0037076042784035109 -1.6602696052497027e-05 0 0.0037300569014203544 7.6094966761534595e-06 0 0.0037794110532381108 -4.0481308357569641e-06 0 0.0037745175853517894 2.7141620477561793e-05 0 0.0037300569014203544 7.6094966761534595e-06 0 0.0037794110532381108 -4.0481308357569641e-06 0 0.0037745175853517894 2.7141620477561793e-05 0 0.0038041517952540843 1.104178711667345e-05 0 0.0037794110532381108 -4.0481308357569641e-06 0 0.0038171648973320369 4.9908291124778788e-05 0 0.0038041517952540843 1.104178711667345e-05 0 0.0038379281176697724 1.3409588587254688e-05 0 0.0038041517952540843 1.104178711667345e-05 0 0.0038379281176697724 1.3409588587254688e-05 0 0.0038185661890447844 -6.6982170100840462e-06 0 0.0038503556971352542 -3.1122583030593813e-05 0 0.0038185661890447844 -6.6982170100840462e-06 0 0.0038253150656373182 3.3475528156991219e-06 0 0.0038503556971352542 -3.1122583030593813e-05 0 0.0038379281176697724 1.3409588587254688e-05 0 0.0038185661890447844 -6.6982170100840462e-06 0 0.0038185661890447844 -6.6982170100840462e-06 0 0.0037794110532381108 -4.0481308357569641e-06 0 0.0038253150656373182 3.3475528156991219e-06 0 0.0038041517952540843 1.104178711667345e-05 0 0.0038185661890447844 -6.6982170100840462e-06 0 0.0037794110532381108 -4.0481308357569641e-06 0 0.0037794110532381108 -4.0481308357569641e-06 0 0.0038253150656373182 3.3475528156991219e-06 0 0.0037634080509859153 -1.5137328315105789e-05 0 0.0038253150656373182 3.3475528156991219e-06 0 0.0038645452982498476 -2.0027542350831766e-05 0 0.0037421436172295729 -4.328707499581935e-05 0 0.0039364525799619049 4.7197648494905205e-05 0 0.0038353283925673556 9.4992506479639219e-06 0 0.0040147358397342155 0.00012803858947883334 0 0.0038253150656373182 3.3475528156991219e-06 0 0.0039098871167020724 -2.994897239355405e-06 0 0.0040319954295812274 -9.5190006456271215e-05 0 0.0042029440064945385 7.475874426129412e-05 0 0.0038645452982498476 -2.0027542350831766e-05 0 0.0039794041370129259 -6.2054837757578057e-05 0 0.0039098871167020724 -2.994897239355405e-06 0 0.0038645452982498476 -2.0027542350831766e-05 0 0.0040926251733927289 1.629803059383754e-06 0 0.003888855155556579 -1.1728923696844156e-05 0 0.0038253150656373182 3.3475528156991219e-06 0 0.0039098871167020724 -2.994897239355405e-06 0 0.0038645452982498476 -2.0027542350831766e-05 0 0.0037843406697969794 -9.037235237585489e-05 0 0.0038645452982498476 -2.0027542350831766e-05 0 0.0037421436172295729 -4.328707499581935e-05 0 0.0037036849869975974 -0.00013450771920801825 0 0.0037843406697969794 -9.037235237585489e-05 0 0.0037421436172295729 -4.328707499581935e-05 0 0.0037036849869975974 -0.00013450771920801825 0 0.0037421436172295729 -4.328707499581935e-05 0 0.0036470016757053319 -6.3770327656205439e-05 0 0.0036933858003333794 -3.7756673083791098e-05 0 0.0037421436172295729 -4.328707499581935e-05 0 0.0036470016757053319 -6.3770327656205439e-05 0 0.0038253150656373182 3.3475528156991219e-06 0 0.0037421436172295729 -4.328707499581935e-05 0 0.0037634080509859153 -1.5137328315105789e-05 0 0.0036933858003333794 -3.7756673083791098e-05 0 0.0037421436172295729 -4.328707499581935e-05 0 0.0037634080509859153 -1.5137328315105789e-05 0 0.0035961820991377638 -6.2079986698738448e-05 0 0.0036470016757053319 -6.3770327656205439e-05 0 0.0036118080942065091 -7.445642647710822e-05 0 0.0035961820991377638 -6.2079986698738448e-05 0 0.0036118080942065091 -7.445642647710822e-05 0 0.0035999677838363608 -6.7603567058801739e-05 0 0.0036933858003333794 -3.7756673083791098e-05 0 0.0036470016757053319 -6.3770327656205439e-05 0 0.0036314863314905409 -4.0051291213111107e-05 0 0.0035961820991377638 -6.2079986698738448e-05 0 0.0036470016757053319 -6.3770327656205439e-05 0 0.0036314863314905409 -4.0051291213111107e-05 0 0.0036234789977174788 -0.00011398598760353724 0 0.0037036849869975974 -0.00013450771920801825 0 0.0036470016757053319 -6.3770327656205439e-05 0 0.0040541446959592936 -5.5719244896261764e-05 0 0.0035360192984188175 -0.00012690871846000247 0 0.0036184601574425 -9.092815530066471e-05 0 0.0036470016757053319 -6.3770327656205439e-05 0 0.0036118080942065091 -7.445642647710822e-05 0 0.0036118080942065091 -7.445642647710822e-05 0 0.0036100923125372527 -8.1846509349447048e-05 0 0.0035999677838363608 -6.7603567058801739e-05 0 0.0036184601574425 -9.092815530066471e-05 0 0.0036118080942065091 -7.445642647710822e-05 0 0.0036100923125372527 -8.1846509349447048e-05 0 0.0040541446959592936 -5.5719244896261764e-05 0 0.0035735023125199284 -1.8971270764747068e-05 0 0.003881259075199271 -9.5793164488787902e-05 0 0.0038341233623518595 -8.3297263787457534e-05 0 0.0038180382403995151 -8.4707046235131758e-05 0 0.0036100923125372527 -8.1846509349447048e-05 0 0.0035962802082593792 -7.399678503969925e-05 0 0.0035999677838363608 -6.7603567058801739e-05 0 0.0038341233623518595 -8.3297263787457534e-05 0 0.0038180382403995151 -8.4707046235131758e-05 0 0.0036012824695034942 -5.9423092199697106e-05 0 0.0038180382403995151 -8.4707046235131758e-05 0 0.0036012824695034942 -5.9423092199697106e-05 0 0.0036570968304666497 -6.2422882630484088e-05 0 0.0035961820991377638 -6.2079986698738448e-05 0 0.0035999677838363608 -6.7603567058801739e-05 0 0.0036012824695034942 -5.9423092199697106e-05 0 0.0036298298756122301 -8.0160142661307618e-05 0 0.003646105313883465 -7.4056471132439889e-05 0 0.0035962802082593792 -7.399678503969925e-05 0 0.0035999677838363608 -6.7603567058801739e-05 0 0.0036012824695034942 -5.9423092199697106e-05 0 0.0035690859457706576 -6.1166141110938489e-05 0 0.0036012824695034942 -5.9423092199697106e-05 0 0.0035071387543218605 -5.8065478440021888e-05 0 0.0035961820991377638 -6.2079986698738448e-05 0 0.0035690859457706576 -6.1166141110938489e-05 0 0.0036012824695034942 -5.9423092199697106e-05 0 0.0036012824695034942 -5.9423092199697106e-05 0 0.0035071387543218605 -5.8065478440021888e-05 0 0.0034974877416661504 -6.0591121204979765e-05 0 0.0035071387543218605 -5.8065478440021888e-05 0 0.0033949252398810404 -5.0111567268641005e-05 0 0.0034974877416661504 -6.0591121204979765e-05 0 0.0035690859457706576 -6.1166141110938489e-05 0 0.0035071387543218605 -5.8065478440021888e-05 0 0.0035742562310561565 -3.9653198055348531e-05 0 0.0035071387543218605 -5.8065478440021888e-05 0 0.0035742562310561565 -3.9653198055348531e-05 0 0.0034759136893374714 -2.316989126890557e-05 0 0.0035961820991377638 -6.2079986698738448e-05 0 0.0035690859457706576 -6.1166141110938489e-05 0 0.0036314863314905409 -4.0051291213111107e-05 0 0.0035690859457706576 -6.1166141110938489e-05 0 0.0035742562310561565 -3.9653198055348531e-05 0 0.0036314863314905409 -4.0051291213111107e-05 0 0.0036473224879794248 5.9571364173715971e-06 0 0.0035742562310561565 -3.9653198055348531e-05 0 0.0036314863314905409 -4.0051291213111107e-05 0 0.0036473224879794248 5.9571364173715971e-06 0 0.0035742562310561565 -3.9653198055348531e-05 0 0.0035652273673826567 -5.4587544949075277e-06 0 0.0036473224879794248 5.9571364173715971e-06 0 0.0035652273673826567 -5.4587544949075277e-06 0 0.0035618491074120955 4.2795707625737404e-05 0 0.0035652273673826567 -5.4587544949075277e-06 0 0.0035618491074120955 4.2795707625737404e-05 0 0.0034759136893374714 -2.316989126890557e-05 0 0.0035742562310561565 -3.9653198055348531e-05 0 0.0035652273673826567 -5.4587544949075277e-06 0 0.0034759136893374714 -2.316989126890557e-05 0 0.0035618491074120955 4.2795707625737404e-05 0 0.0034091738173405877 2.7716341912655625e-05 0 0.0034759136893374714 -2.316989126890557e-05 0 0.0035618491074120955 4.2795707625737404e-05 0 0.0035544230862045393 7.5565311848179426e-05 0 0.0035042871253253794 8.3292401073029146e-05 0 0.0035618491074120955 4.2795707625737404e-05 0 0.0035042871253253794 8.3292401073029146e-05 0 0.0034091738173405877 2.7716341912655625e-05 0 0.0035042871253253794 8.3292401073029146e-05 0 0.0034456717555017241 0.00012211871089495618 0 0.0034923433584168129 0.00013158595806707799 0 0.0035042871253253794 8.3292401073029146e-05 0 0.0034456717555017241 0.00012211871089495618 0 0.0034091738173405877 2.7716341912655625e-05 0 0.0035544230862045393 7.5565311848179426e-05 0 0.0035042871253253794 8.3292401073029146e-05 0 0.0035343674133377178 0.00010897670488279908 0 0.0035042871253253794 8.3292401073029146e-05 0 0.0035343674133377178 0.00010897670488279908 0 0.0034923433584168129 0.00013158595806707799 0 0.0033917768341919694 9.3093535305056248e-05 0 0.0034030423125460565 2.5939712141925969e-05 0 0.0032264246010606629 2.7286560556241293e-05 0 0.0033324588802594894 7.2004440739618545e-05 0 0.0034091738173405877 2.7716341912655625e-05 0 0.0032264246010606629 2.7286560556241293e-05 0 0.0034091738173405877 2.7716341912655625e-05 0 0.0033138302730551226 -2.1816223809158769e-05 0 0.0034091738173405877 2.7716341912655625e-05 0 0.0033138302730551226 -2.1816223809158769e-05 0 0.0034759136893374714 -2.316989126890557e-05 0 0.0033138302730551226 -2.1816223809158769e-05 0 0.0034759136893374714 -2.316989126890557e-05 0 0.0033949252398810404 -5.0111567268641005e-05 0 0.0035071387543218605 -5.8065478440021888e-05 0 0.0034759136893374714 -2.316989126890557e-05 0 0.0033949252398810404 -5.0111567268641005e-05 0 0.0025857944350209106 1.4373102727886214e-07 0 0.00290611269441076 -4.1713398414973779e-06 0 0.0034077525200183864 -2.0298714957141851e-07 0 0.0033949252398810404 -5.0111567268641005e-05 0 0.003269150733330966 -4.5157772121178498e-05 0 0.0033614928874913632 -5.3936871548470194e-05 0 0.003269150733330966 -4.5157772121178498e-05 0 0.0031762825430546281 -4.0588606375823988e-05 0 0.0033614928874913632 -5.3936871548470194e-05 0 0.003269150733330966 -4.5157772121178498e-05 0 0.0031115930661470377 -4.1464629089956507e-05 0 0.0031762825430546281 -4.0588606375823988e-05 0 0.0033138302730551226 -2.1816223809158769e-05 0 0.0033949252398810404 -5.0111567268641005e-05 0 0.003269150733330966 -4.5157772121178498e-05 0 0.0033138302730551226 -2.1816223809158769e-05 0 0.003269150733330966 -4.5157772121178498e-05 0 0.0031115930661470377 -4.1464629089956507e-05 0 0.0032264246010606629 2.7286560556241293e-05 0 0.0033138302730551226 -2.1816223809158769e-05 0 0.0031115930661470377 -4.1464629089956507e-05 0 0.0031115930661470377 -4.1464629089956507e-05 0 0.002768672288411436 -4.269455447099048e-06 0 0.0029928314620126565 6.4289619795190344e-05 0 0.0032264246010606629 2.7286560556241293e-05 0 0.0031115930661470377 -4.1464629089956507e-05 0 0.0029928314620126565 6.4289619795190344e-05 0 0.0025853943870161895 -1.1505809163071044e-07 0 0.002768672288411436 -4.269455447099048e-06 0 0.0028915201562218209 -7.8108676203526297e-05 0 0.0031115930661470377 -4.1464629089956507e-05 0 0.002768672288411436 -4.269455447099048e-06 0 0.0028915201562218209 -7.8108676203526297e-05 0 0.0025854239925395721 5.5011994236101176e-09 0 0.002902805779464222 -3.9887585359574071e-05 0 0.00290611269441076 -4.1713398414973779e-06 0 0.0031762825430546281 -4.0588606375823988e-05 0 0.0034077525200183864 -2.0298714957141851e-07 0 0.002902805779464222 -3.9887585359574071e-05 0 0.0031307555296196622 -5.3450005240704089e-05 0 0.0031115930661470377 -4.1464629089956507e-05 0 0.0028915201562218209 -7.8108676203526297e-05 0 0.0031762825430546281 -4.0588606375823988e-05 0 0.0031762825430546281 -4.0588606375823988e-05 0 0.0034077525200183864 -2.0298714957141851e-07 0 0.0034634791009232595 -4.5137079425589747e-05 0 0.0040733418739263569 -1.6116690259886594e-07 0 0.0034077525200183864 -2.0298714957141851e-07 0 0.0037260568113749682 -4.8950663523266398e-05 0 0.0033614928874913632 -5.3936871548470194e-05 0 0.0034974877416661504 -6.0591121204979765e-05 0 0.0034634791009232595 -4.5137079425589747e-05 0 0.0031762825430546281 -4.0588606375823988e-05 0 0.0033614928874913632 -5.3936871548470194e-05 0 0.0034634791009232595 -4.5137079425589747e-05 0 0.0033949252398810404 -5.0111567268641005e-05 0 0.0033614928874913632 -5.3936871548470194e-05 0 0.0034974877416661504 -6.0591121204979765e-05 0 0.0036012824695034942 -5.9423092199697106e-05 0 0.0034974877416661504 -6.0591121204979765e-05 0 0.0036570968304666497 -6.2422882630484088e-05 0 0.0034974877416661504 -6.0591121204979765e-05 0 0.0034634791009232595 -4.5137079425589747e-05 0 0.0036570968304666497 -6.2422882630484088e-05 0 0.0034634791009232595 -4.5137079425589747e-05 0 0.0036570968304666497 -6.2422882630484088e-05 0 0.0037260568113749682 -4.8950663523266398e-05 0 0.003836038906625882 -6.7327423732749248e-05 0 0.0038180382403995151 -8.4707046235131758e-05 0 0.0036570968304666497 -6.2422882630484088e-05 0 0.003836038906625882 -6.7327423732749248e-05 0 0.0036570968304666497 -6.2422882630484088e-05 0 0.0037260568113749682 -4.8950663523266398e-05 0 0.0034077525200183864 -2.0298714957141851e-07 0 0.0034634791009232595 -4.5137079425589747e-05 0 0.0037260568113749682 -4.8950663523266398e-05 0 0.001496726111449355 -3.6028569123884821e-05 0 0.0015629057489909763 -5.0004020930177151e-05 0 0.0015089031885831816 -3.9515534721641013e-05 0 0.001496726111449355 -3.6028569123884821e-05 0 0.0015629057489909763 -5.0004020930177151e-05 0 0.0016097652370227883 -3.2522713167650482e-05 0 0.001496726111449355 -3.6028569123884821e-05 0 0.0016097652370227883 -3.2522713167650482e-05 0 0.001584030773826827 -3.3990352413623203e-08 0 0.001496726111449355 -3.6028569123884821e-05 0 0.0013479658095912614 -1.7658472217329904e-07 0 0.001584030773826827 -3.3990352413623203e-08 0 0.001496726111449355 -3.6028569123884821e-05 0 0.0013479658095912614 -1.7658472217329904e-07 0 0.0013923028956745319 -6.3708633985035931e-06 0 0.001496726111449355 -3.6028569123884821e-05 0 0.0015089031885831816 -3.9515534721641013e-05 0 0.0013923028956745319 -6.3708633985035931e-06 0 0.0015089031885831816 -3.9515534721641013e-05 0 0.0015386456206246174 5.2630482754621701e-06 0 0.0013923028956745319 -6.3708633985035931e-06 0 0.0016109882790753896 -5.7691230364501347e-05 0 0.001537329999726809 -6.8187727249976816e-06 0 0.0015395584713969984 -3.5850034804595618e-05 0 0.0015604231408574559 -4.8467300669734338e-05 0 0.0015386456206246174 5.2630482754621701e-06 0 0.0015395584713969984 -3.5850034804595618e-05 0 0.0015089031885831816 -3.9515534721641013e-05 0 0.0015386456206246174 5.2630482754621701e-06 0 0.0017853963471643247 0.00013817586815518892 0 0.0016584591213896691 1.4729737954302026e-06 0 0.0016018821658556059 -2.4081589812835161e-05 0 0.0015948209926196489 -0.00011823583271679291 0 0.0015386456206246174 5.2630482754621701e-06 0 0.0016653098977080648 -6.7026271088149216e-06 0 0.0016018821658556059 -2.4081589812835161e-05 0 0.0015948209926196489 -0.00011823583271679291 0 0.0018819179190331023 0.00027552199661575892 0 0.0018237771285111895 0.00012611197281833502 0 0.0018976278104057705 0.00018517171344822401 0 0.0016653098977080648 -6.7026271088149216e-06 0 0.0015948209926196489 -0.00011823583271679291 0 0.0016083699631916724 -0.00015040431425424153 0 0.0018237771285111895 0.00012611197281833502 0 0.0018644874930404769 3.0108480425006533e-05 0 0.0018902031184856293 0.00012973163135326346 0 0.0018237771285111895 0.00012611197281833502 0 0.0018902031184856293 0.00012973163135326346 0 0.0018976278104057705 0.00018517171344822401 0 0.0016109882790753896 -5.7691230364501347e-05 0 0.0016584591213896691 1.4729737954302026e-06 0 0.0015589462072607579 -5.1481123676997819e-05 0 0.0015586596424149381 -5.1436224409510587e-05 0 0.0015476935695235082 -4.3031227744386801e-05 0 0.0015604231408574559 -4.8467300669734338e-05 0 0.0015589462072607579 -5.1481123676997819e-05 0 0.0015586596424149381 -5.1436224409510587e-05 0 0.0015629057489909763 -5.0004020930177151e-05 0 0.0015089031885831816 -3.9515534721641013e-05 0 0.0015491129125229052 -5.0792168393738905e-05 0 0.0015395584713969984 -3.5850034804595618e-05 0 0.0015089031885831816 -3.9515534721641013e-05 0 0.0015491129125229052 -5.0792168393738905e-05 0 0.0015395584713969984 -3.5850034804595618e-05 0 0.0015604231408574559 -4.8467300669734338e-05 0 0.0015491129125229052 -5.0792168393738905e-05 0 0.0015589462072607579 -5.1481123676997819e-05 0 0.0015491129125229052 -5.0792168393738905e-05 0 0.0015652294975646828 -4.8529161583387562e-05 0 0.0015604231408574559 -4.8467300669734338e-05 0 0.0015589462072607579 -5.1481123676997819e-05 0 0.0015491129125229052 -5.0792168393738905e-05 0 0.0015629057489909763 -5.0004020930177151e-05 0 0.0015491129125229052 -5.0792168393738905e-05 0 0.0015652294975646828 -4.8529161583387562e-05 0 0.0015629057489909763 -5.0004020930177151e-05 0 0.0015652294975646828 -4.8529161583387562e-05 0 0.0015923758010252468 -3.9553070509481506e-05 0 0.0015652294975646828 -4.8529161583387562e-05 0 0.0015674943040088389 -3.5969322321392999e-05 0 0.0015923758010252468 -3.9553070509481506e-05 0 0.0015674943040088389 -3.5969322321392999e-05 0 0.0015476935695235082 -4.3031227744386801e-05 0 0.0015733904411697676 -1.1162447240217795e-05 0 0.0015589462072607579 -5.1481123676997819e-05 0 0.0015652294975646828 -4.8529161583387562e-05 0 0.0015476935695235082 -4.3031227744386801e-05 0 0.0015652294975646828 -4.8529161583387562e-05 0 0.0015674943040088389 -3.5969322321392999e-05 0 0.0015476935695235082 -4.3031227744386801e-05 0 0.0016584591213896691 1.4729737954302026e-06 0 0.0018368320670269166 7.8210731992180193e-05 0 0.0018489428165660384 0.00018130494881204247 0 0.0018525686525988955 0.00010359024681053973 0 0.0018767895699380282 0.00011684116152477033 0 0.0019115730983586352 0.00013035543320422786 0 0.0017470715095564682 8.7715109154729807e-05 0 0.0018368320670269166 7.8210731992180193e-05 0 0.0016540610350488448 4.1190119492645417e-05 0 0.0018525686525988955 0.00010359024681053973 0 0.0017728563144920322 0.00011848896810639844 0 0.0017658090924292495 9.2166927590068339e-05 0 0.0018489428165660384 0.00018130494881204247 0 0.0018525686525988955 0.00010359024681053973 0 0.0017728563144920322 0.00011848896810639844 0 0.0018397178175367291 0.00010285252775764398 0 0.0017658090924292495 9.2166927590068339e-05 0 0.0017728579922708021 6.650257594540913e-05 0 0.0019028113473525071 0.0001602140515805556 0 0.0018655396747861729 9.3819867753737414e-05 0 0.0019285735907779685 0.00012772297223968262 0 0.0016540610350488448 4.1190119492645417e-05 0 0.0017106059306924964 5.4363949327292389e-05 0 0.0015923758010252468 -3.9553070509481506e-05 0 0.0016253239434271746 -1.9633331448487556e-05 0 0.0015733904411697676 -1.1162447240217795e-05 0 0.0015674943040088389 -3.5969322321392999e-05 0 0.0015923758010252468 -3.9553070509481506e-05 0 0.0015733904411697676 -1.1162447240217795e-05 0 0.0017728563144920322 0.00011848896810639844 0 0.0017658090924292495 9.2166927590068339e-05 0 0.0017427244869593487 6.6275707692709323e-05 0 0.0016253239434271746 -1.9633331448487556e-05 0 0.0015733904411697676 -1.1162447240217795e-05 0 0.0016666875624616027 -1.3495333893712139e-06 0 0.0015733904411697676 -1.1162447240217795e-05 0 0.0016666875624616027 -1.3495333893712139e-06 0 0.0017105069611740493 4.6367693827764324e-05 0 0.0016666875624616027 -1.3495333893712139e-06 0 0.0016561411768232579 -2.6390318522686457e-05 0 0.0017689051927742431 -4.8294032628324395e-06 0 0.0016561411768232579 -2.6390318522686457e-05 0 0.0016983790063373105 -2.1909613407711781e-05 0 0.0017689051927742431 -4.8294032628324395e-06 0 0.0015923758010252468 -3.9553070509481506e-05 0 0.0016253239434271746 -1.9633331448487556e-05 0 0.0016561411768232579 -2.6390318522686457e-05 0 0.0016253239434271746 -1.9633331448487556e-05 0 0.0016666875624616027 -1.3495333893712139e-06 0 0.0016561411768232579 -2.6390318522686457e-05 0 0.0015923758010252468 -3.9553070509481506e-05 0 0.0016561411768232579 -2.6390318522686457e-05 0 0.0016074633468272225 -3.7661852302045967e-05 0 0.0016561411768232579 -2.6390318522686457e-05 0 0.0016074633468272225 -3.7661852302045967e-05 0 0.0016097652370227883 -3.2522713167650482e-05 0 0.0016561411768232579 -2.6390318522686457e-05 0 0.0016097652370227883 -3.2522713167650482e-05 0 0.0016983790063373105 -2.1909613407711781e-05 0 0.0015629057489909763 -5.0004020930177151e-05 0 0.0016074633468272225 -3.7661852302045967e-05 0 0.0016097652370227883 -3.2522713167650482e-05 0 0.0015629057489909763 -5.0004020930177151e-05 0 0.0015923758010252468 -3.9553070509481506e-05 0 0.0016074633468272225 -3.7661852302045967e-05 0 0.0016097652370227883 -3.2522713167650482e-05 0 0.001584030773826827 -3.3990352413623203e-08 0 0.0016983790063373105 -2.1909613407711781e-05 0 0.001584030773826827 -3.3990352413623203e-08 0 0.0016983790063373105 -2.1909613407711781e-05 0 0.0018200681576097952 -1.0687075583417093e-07 0 0.0016983790063373105 -2.1909613407711781e-05 0 0.0017689051927742431 -4.8294032628324395e-06 0 0.0018200681576097952 -1.0687075583417093e-07 0 0.0017689051927742431 -4.8294032628324395e-06 0 0.0018200681576097952 -1.0687075583417093e-07 0 0.0020555706375454245 2.7283266150966111e-07 0 0.0017689051927742431 -4.8294032628324395e-06 0 0.0017105069611740493 4.6367693827764324e-05 0 0.0020555706375454245 2.7283266150966111e-07 0 0.0017105069611740493 4.6367693827764324e-05 0 0.0017201193826454162 7.7817687450608934e-05 0 0.0020555706375454245 2.7283266150966111e-07 0 0.0016666875624616027 -1.3495333893712139e-06 0 0.0017689051927742431 -4.8294032628324395e-06 0 0.0017105069611740493 4.6367693827764324e-05 0 0.0017105069611740493 4.6367693827764324e-05 0 0.0017201193826454162 7.7817687450608934e-05 0 0.0017427244869593487 6.6275707692709323e-05 0 0.0026041415524858404 0.00031617240651759122 0 0.0020566624725250728 8.1186432271611826e-07 0 0.0026809000898054664 7.3514484174012841e-05 0 0.0026041415524858404 0.00031617240651759122 0 0.0026809000898054664 7.3514484174012841e-05 0 0.0028514693948653025 0.00020598038397964011 0 0.0021775635132961443 0.00017939156590234836 0 0.0020560668926474751 8.7457658316768913e-08 0 0.0020566624725250728 8.1186432271611826e-07 0 0.0023207519852284542 -1.1792971461482289e-07 0 0.0026809000898054664 7.3514484174012841e-05 0 0.002768672288411436 -4.269455447099048e-06 0 0.0023207519852284542 -1.1792971461482289e-07 0 0.0026809000898054664 7.3514484174012841e-05 0 0.0025853943870161895 -1.1505809163071044e-07 0 0.002768672288411436 -4.269455447099048e-06 0 0.0023207519852284542 -1.1792971461482289e-07 0 0.0032264246010606629 2.7286560556241293e-05 0 0.0029928314620126565 6.4289619795190344e-05 0 0.0031936268526022533 0.00013948905080623139 0 0.002768672288411436 -4.269455447099048e-06 0 0.0026809000898054664 7.3514484174012841e-05 0 0.0029928314620126565 6.4289619795190344e-05 0 0.0026809000898054664 7.3514484174012841e-05 0 0.0029928314620126565 6.4289619795190344e-05 0 0.0028514693948653025 0.00020598038397964011 0 0.0029928314620126565 6.4289619795190344e-05 0 0.0030574511357056773 0.00021574936730551746 0 0.0028514693948653025 0.00020598038397964011 0 0.0029928314620126565 6.4289619795190344e-05 0 0.0030574511357056773 0.00021574936730551746 0 0.0031936268526022533 0.00013948905080623139 0 0.0030574511357056773 0.00021574936730551746 0 0.0029509361196427843 0.00039897409284095012 0 0.0031874523301480698 0.00031536856853542805 0 0.0030574511357056773 0.00021574936730551746 0 0.0028514693948653025 0.00020598038397964011 0 0.0029509361196427843 0.00039897409284095012 0 0.0026041415524858404 0.00031617240651759122 0 0.0028514693948653025 0.00020598038397964011 0 0.0029509361196427843 0.00039897409284095012 0 0.0017201193826454162 7.7817687450608934e-05 0 0.0017728579922708021 6.650257594540913e-05 0 0.0018081986915045394 3.1980561230507403e-05 0 0.0021775635132961443 0.00017939156590234836 0 0.0023679527051856612 0.00021864946491417675 0 0.0017728563144920322 0.00011848896810639844 0 0.0017105069611740493 4.6367693827764324e-05 0 0.0017427244869593487 6.6275707692709323e-05 0 0.0017201193826454162 7.7817687450608934e-05 0 0.0017728579922708021 6.650257594540913e-05 0 0.0017427244869593487 6.6275707692709323e-05 0 0.0017658090924292495 9.2166927590068339e-05 0 0.0017728579922708021 6.650257594540913e-05 0 0.0017427244869593487 6.6275707692709323e-05 0 0.0019028113473525071 0.0001602140515805556 0 0.0017728579922708021 6.650257594540913e-05 0 0.0018655396747861729 9.3819867753737414e-05 0 0.0023679527051856612 0.00021864946491417675 0 0.002640359559054015 0.00017648365328936326 0 0.0018081986915045394 3.1980561230507403e-05 0 0.0019249769304391137 8.3631446912853227e-05 0 0.0019857397646007194 4.0357613320598166e-05 0 0.0019115730983586352 0.00013035543320422786 0 0.0017686604684997356 6.9493231385453868e-05 0 0.0017728579922708021 6.650257594540913e-05 0 0.0018081986915045394 3.1980561230507403e-05 0 0.0018655396747861729 9.3819867753737414e-05 0 0.0018081986915045394 3.1980561230507403e-05 0 0.0018655396747861729 9.3819867753737414e-05 0 0.0019249769304391137 8.3631446912853227e-05 0 0.0018655396747861729 9.3819867753737414e-05 0 0.0019249769304391137 8.3631446912853227e-05 0 0.0019285735907779685 0.00012772297223968262 0 0.0019570064567638883 0.00010581012552512215 0 0.0020032892356681834 7.2591544421308121e-05 0 0.0019601719815463851 0.00016937216768368209 0 0.0019249769304391137 8.3631446912853227e-05 0 0.0019570064567638883 0.00010581012552512215 0 0.0019285735907779685 0.00012772297223968262 0 0.0027050292057119786 0.00025364797366844385 0 0.0022069257012156214 0.0002241680932414178 0 0.0029509361196427843 0.00039897409284095012 0 0.0031486981827985043 0.00040917358668382363 0 0.0031874523301480698 0.00031536856853542805 0 0.0019249769304391137 8.3631446912853227e-05 0 0.0019687748623307688 7.6589007450750271e-05 0 0.0019570064567638883 0.00010581012552512215 0 0.0019249769304391137 8.3631446912853227e-05 0 0.0019687748623307688 7.6589007450750271e-05 0 0.0019857397646007194 4.0357613320598166e-05 0 0.0019687748623307688 7.6589007450750271e-05 0 0.0019570064567638883 0.00010581012552512215 0 0.0020032892356681834 7.2591544421308121e-05 0 0.0019687748623307688 7.6589007450750271e-05 0 0.0020032892356681834 7.2591544421308121e-05 0 0.0019857397646007194 4.0357613320598166e-05 0 0.0031749904409402803 0.00040854988804120136 0 0.0032155929760897535 0.0004277343569098871 0 0.0032113166164225628 0.00046546670281780481 0 0.0031749904409402803 0.00040854988804120136 0 0.0032026446502544195 0.00039433691029853795 0 0.0032155929760897535 0.0004277343569098871 0 0.0027252199182192459 0.00020662753608832876 0 0.0026900236901356818 0.00029071307698544727 0 0.0027763315555907916 0.00030072597549504336 0 0.0031943716657848739 0.00035869940878450015 0 0.0032371890637731163 0.0004131035214547044 0 0.0031874523301480698 0.00031536856853542805 0 0.0031751900403845885 0.00040694418730294742 0 0.0031943716657848739 0.00035869940878450015 0 0.0031874523301480698 0.00031536856853542805 0 0.0031751900403845885 0.00040694418730294742 0 0.0031486981827985043 0.00040917358668382363 0 0.0031874523301480698 0.00031536856853542805 0 0.0027050292057119786 0.00025364797366844385 0 0.002640359559054015 0.00017648365328936326 0 0.0027050292057119786 0.00025364797366844385 0 0.0029026926057626806 0.00023329141594332763 0 0.0029026926057626806 0.00023329141594332763 0 0.002640359559054015 0.00017648365328936326 0 0.0031749904409402803 0.00040854988804120136 0 0.0031813974785786991 0.00039202198192122531 0 0.0032026446502544195 0.00039433691029853795 0 0.0031777788720713596 0.00039074836537971006 0 0.0032026446502544195 0.00039433691029853795 0 0.0031943716657848739 0.00035869940878450015 0 0.0029026926057626806 0.00023329141594332763 0 0.0030593367561464959 0.00027356210944924273 0 0.0029026926057626806 0.00023329141594332763 0 0.0029806763847534663 0.00028032153178031438 0 0.0032733780995369663 0.00040846505058537985 0 0.0033364662999291039 0.0003498760794768344 0 0.0033512069766311304 0.00050637859540925904 0 0.0032371890637731163 0.0004131035214547044 0 0.0032155929760897535 0.0004277343569098871 0 0.0032459474855188286 0.00045164517722965692 0 0.0032026446502544195 0.00039433691029853795 0 0.0032371890637731163 0.0004131035214547044 0 0.0032155929760897535 0.0004277343569098871 0 0.0032733780995369663 0.00040846505058537985 0 0.0032636326715601584 0.0003324045362029719 0 0.0031874523301480698 0.00031536856853542805 0 0.0032026446502544195 0.00039433691029853795 0 0.0031943716657848739 0.00035869940878450015 0 0.0032371890637731163 0.0004131035214547044 0 0.0032709469041079767 0.00043034589991921949 0 0.0031855033013032013 0.00031577061603658074 0 0.0032733780995369663 0.00040846505058537985 0 0.0032636326715601584 0.0003324045362029719 0 0.0033364662999291039 0.0003498760794768344 0 0.0032575769206528295 0.00024380490859410772 0 0.0033245455924920241 0.00018712580563947964 0 0.0033364662999291039 0.0003498760794768344 0 0.0033909905927257777 0.00017961149874756244 0 0.0034201972487813326 0.00029563770998246932 0 0.0032636326715601584 0.0003324045362029719 0 0.0032575769206528295 0.00024380490859410772 0 0.0033364662999291039 0.0003498760794768344 0 0.0032636326715601584 0.0003324045362029719 0 0.0032575769206528295 0.00024380490859410772 0 0.0031874523301480698 0.00031536856853542805 0 0.0032575769206528295 0.00024380490859410772 0 0.0031874523301480698 0.00031536856853542805 0 0.0031708761661822312 0.00022147328358241639 0 0.0030574511357056773 0.00021574936730551746 0 0.0031874523301480698 0.00031536856853542805 0 0.0031708761661822312 0.00022147328358241639 0 0.0030574511357056773 0.00021574936730551746 0 0.0031936268526022533 0.00013948905080623139 0 0.0031708761661822312 0.00022147328358241639 0 0.0032575769206528295 0.00024380490859410772 0 0.0031936268526022533 0.00013948905080623139 0 0.0031708761661822312 0.00022147328358241639 0 0.0032575769206528295 0.00024380490859410772 0 0.0031936268526022533 0.00013948905080623139 0 0.0033245455924920241 0.00018712580563947964 0 0.0033917768341919694 9.3093535305056248e-05 0 0.0033909905927257777 0.00017961149874756244 0 0.0033324588802594894 7.2004440739618545e-05 0 0.0031936268526022533 0.00013948905080623139 0 0.0033245455924920241 0.00018712580563947964 0 0.0032264246010606629 2.7286560556241293e-05 0 0.0033324588802594894 7.2004440739618545e-05 0 0.0031936268526022533 0.00013948905080623139 0 0.0035343674133377178 0.00010897670488279908 0 0.0035209363652415654 0.00015407950980319272 0 0.0034923433584168129 0.00013158595806707799 0 0.0035343674133377178 0.00010897670488279908 0 0.0035209363652415654 0.00015407950980319272 0 0.0035577702300717659 0.00012266156145602356 0 0.0034612886054789837 0.00017486549250895819 0 0.0035209363652415654 0.00015407950980319272 0 0.0034923433584168129 0.00013158595806707799 0 0.0034456717555017241 0.00012211871089495618 0 0.0034612886054789837 0.00017486549250895819 0 0.0034923433584168129 0.00013158595806707799 0 0.0034612886054789837 0.00017486549250895819 0 0.0035209363652415654 0.00015407950980319272 0 0.0035137464688909997 0.00018610601843835843 0 0.0035209363652415654 0.00015407950980319272 0 0.0035137464688909997 0.00018610601843835843 0 0.0035532900152307721 0.00017485298185107936 0 0.0035137464688909997 0.00018610601843835843 0 0.0035346954773648521 0.00020717854739318303 0 0.0035532900152307721 0.00017485298185107936 0 0.0035137464688909997 0.00018610601843835843 0 0.0034999184971943684 0.00021658934820840744 0 0.0035346954773648521 0.00020717854739318303 0 0.0034999184971943684 0.00021658934820840744 0 0.0035346954773648521 0.00020717854739318303 0 0.0035206793657459488 0.00022815991993266769 0 0.0034612886054789837 0.00017486549250895819 0 0.0035137464688909997 0.00018610601843835843 0 0.0034999184971943684 0.00021658934820840744 0 0.0034612886054789837 0.00017486549250895819 0 0.0034999184971943684 0.00021658934820840744 0 0.003466209668922022 0.00022655537047766913 0 0.003466209668922022 0.00022655537047766913 0 0.0034808065783001611 0.00025673398877934121 0 0.0034700821845339274 0.0002835855840297171 0 0.0034201972487813326 0.00029563770998246932 0 0.0032382316333062675 0.0003692827986026125 0 0.003466209668922022 0.00022655537047766913 0 0.0034920421239274181 0.00023623897039537866 0 0.0034808065783001611 0.00025673398877934121 0 0.0034999184971943684 0.00021658934820840744 0 0.003466209668922022 0.00022655537047766913 0 0.0034920421239274181 0.00023623897039537866 0 0.0034920421239274181 0.00023623897039537866 0 0.0034808065783001611 0.00025673398877934121 0 0.0035072410455598869 0.00025588503064277642 0 0.0035346954773648521 0.00020717854739318303 0 0.0035206793657459488 0.00022815991993266769 0 0.0035408021409885607 0.00024203578812796429 0 0.0035206793657459488 0.00022815991993266769 0 0.0035072410455598869 0.00025588503064277642 0 0.0035408021409885607 0.00024203578812796429 0 0.0034920421239274181 0.00023623897039537866 0 0.0035206793657459488 0.00022815991993266769 0 0.0035072410455598869 0.00025588503064277642 0 0.0034999184971943684 0.00021658934820840744 0 0.0034920421239274181 0.00023623897039537866 0 0.0035206793657459488 0.00022815991993266769 0 0.0035072410455598869 0.00025588503064277642 0 0.0034700821845339274 0.0002835855840297171 0 0.0035360896614479278 0.00029185151950343683 0 0.0035072410455598869 0.00025588503064277642 0 0.0035360896614479278 0.00029185151950343683 0 0.0035408021409885607 0.00024203578812796429 0 0.0032382316333062675 0.0003692827986026125 0 0.0033480748202183329 0.00024941598656739029 0 0.003206756943668902 0.000301920628402982 0 0.0031863202464795944 0.00027624744986281153 0 0.0032338253527285379 0.00028156201675122732 0 0.0029145675502769016 0.0001860432004470363 0 0.003012505931426841 0.00018557472479310445 0 0.0030385233147149043 8.9333890286007791e-05 0 0.0030035252999425837 0.00022889527998325187 0 0.0033480748202183329 0.00024941598656739029 0 0.0029382286774630988 0.00022488349959396935 0 0.0029300588504286066 0.0002310566888371884 0 0.0029533359429035639 0.00024384830163308994 0 0.0029145675502769016 0.0001860432004470363 0 0.003012505931426841 0.00018557472479310445 0 0.002989621182795478 0.00028133444442620889 0 0.0028659951359788658 0.00027509452891317371 0 0.0032382316333062675 0.0003692827986026125 0 0.0029538639395606703 0.00023845465180187799 0 0.0030594498381957542 0.00023672848913768713 0 0.0030678826195295258 0.00038107453363973311 0 0.0030035252999425837 0.00022889527998325187 0 0.0032382316333062675 0.0003692827986026125 0 0.0029117302027599568 0.00033240812658360776 0 0.0029108441715551955 0.00029445016634662422 0 0.0028817231695819024 0.00031629199247514369 0 0.0026379885931284222 0.00023122235235124153 0 0.0026632687390801602 0.00024480921054008734 0 0.0026286789952563532 0.00027057827178455813 0 0.0028659951359788658 0.00027509452891317371 0 0.0028477265276807191 0.0002195390138669835 0 0.0029538639395606703 0.00023845465180187799 0 0.0030594498381957542 0.00023672848913768713 0 0.0029992843969341406 0.00020324955120399834 0 0.0030035252999425837 0.00022889527998325187 0 0.0028477265276807191 0.0002195390138669835 0 0.0034808065783001611 0.00025673398877934121 0 0.0035072410455598869 0.00025588503064277642 0 0.0034700821845339274 0.0002835855840297171 0 0.0032709469041079767 0.00043034589991921949 0 0.0032382316333062675 0.0003692827986026125 0 0.0032371890637731163 0.0004131035214547044 0 0.0032817123693328421 0.00047269186112367667 0 0.0032459474855188286 0.00045164517722965692 0 0.0029108441715551955 0.00029445016634662422 0 0.0028657773751944592 0.00028872193698063683 0 0.0028817231695819024 0.00031629199247514369 0 0.0032817123693328421 0.00047269186112367667 0 0.0032459474855188286 0.00045164517722965692 0 0.0032113166164225628 0.00046546670281780481 0 0.0032382316333062675 0.0003692827986026125 0 0.002835749134083256 0.00035570382965443973 0 0.0032155929760897535 0.0004277343569098871 0 0.0032459474855188286 0.00045164517722965692 0 0.0032113166164225628 0.00046546670281780481 0 0.002835749134083256 0.00035570382965443973 0 0.002566846525586349 0.00023799737028098485 0 0.0025178706420480442 0.00020778267077163395 0 0.0023421130303975294 0.00021507429923071347 0 0.0026051013698969588 0.00035909338765816588 0 0.0021352822371944278 0.00018003806695135867 0 0.002566846525586349 0.00023799737028098485 0 0.0019115730983586352 0.00013035543320422786 0 0.0021352822371944278 0.00018003806695135867 0 0.0019115730983586352 0.00013035543320422786 0 0.0022069257012156214 0.0002241680932414178 0 0.0019788271853047731 0.00016571918785916791 0 0.002123361527770365 0.00024603585616618208 0 0.0021475067683940476 0.00018865736111162027 0 0.0019570064567638883 0.00010581012552512215 0 0.0019285735907779685 0.00012772297223968262 0 0.0019601719815463851 0.00016937216768368209 0 0.0019028113473525071 0.0001602140515805556 0 0.0019285735907779685 0.00012772297223968262 0 0.0019601719815463851 0.00016937216768368209 0 0.0021352822371944278 0.00018003806695135867 0 0.0022069257012156214 0.0002241680932414178 0 0.0025178706420480442 0.00020778267077163395 0 0.0023421130303975294 0.00021507429923071347 0 0.002354342595114735 0.00018616516399679858 0 0.0025875625707652799 0.00017348704569812863 0 0.0026733355299782594 0.00032320759071792011 0 0.0025317484700802086 0.00030399890045344752 0 0.0027050292057119786 0.00025364797366844385 0 0.002835749134083256 0.00035570382965443973 0 0.002835749134083256 0.00035570382965443973 0 0.0022069257012156214 0.0002241680932414178 0 0.0018368320670269166 7.8210731992180193e-05 0 0.0021352822371944278 0.00018003806695135867 0 0.0021386847641622336 8.8664575177358572e-05 0 0.0021823404034907825 0.00017658739374542797 0 0.0022555697551862883 0.00015321481331165629 0 0.0021009241017150345 0.0001757797859447381 0 0.0021386847641622336 8.8664575177358572e-05 0 0.0021823404034907825 0.00017658739374542797 0 0.0021823404034907825 0.00017658739374542797 0 0.0022401268056770245 0.00022647163192873282 0 0.0021759911147757023 0.00023848934292117313 0 0.0018368320670269166 7.8210731992180193e-05 0 0.0020828426549591899 0.00018793676226689721 0 0.0021009241017150345 0.0001757797859447381 0 0.0021823404034907825 0.00017658739374542797 0 0.0021759911147757023 0.00023848934292117313 0 0.0022555697551862883 0.00015321481331165629 0 0.0022401268056770245 0.00022647163192873282 0 0.0023123136630341049 0.00025341849947976873 0 0.0026379885931284222 0.00023122235235124153 0 0.002591927953348666 0.00020626094306527308 0 0.0026286789952563532 0.00027057827178455813 0 0.002566846525586349 0.00023799737028098485 0 0.0023993058966710998 0.00022049452225296104 0 0.0028659951359788658 0.00027509452891317371 0 0.002566846525586349 0.00023799737028098485 0 0.0021823404034907825 0.00017658739374542797 0 0.0022555697551862883 0.00015321481331165629 0 0.0022401268056770245 0.00022647163192873282 0 0.0022401268056770245 0.00022647163192873282 0 0.0022500145620238774 0.0003005931675222279 0 0.0023123136630341049 0.00025341849947976873 0 0.0022401268056770245 0.00022647163192873282 0 0.0022500145620238774 0.0003005931675222279 0 0.0021759911147757023 0.00023848934292117313 0 0.0020976377370789221 0.00020898888353858722 0 0.0020828426549591899 0.00018793676226689721 0 0.0020976377370789221 0.00020898888353858722 0 0.0023993058966710998 0.00022049452225296104 0 0.0020976377370789221 0.00020898888353858722 0 0.0020650426534103475 0.00018802107196348624 0 0.002029479579324435 0.00017343526739366236 0 0.0020564669532425347 0.00019663842593598235 0 0.0020950267968239018 0.00012408383081938552 0 0.0018644874930404769 3.0108480425006533e-05 0 0.0018902031184856293 0.00012973163135326346 0 0.001946846371439138 9.9293410012646447e-05 0 0.0018902031184856293 0.00012973163135326346 0 0.001946846371439138 9.9293410012646447e-05 0 0.0019386066949344525 0.000165561307758511 0 0.00202931194610933 0.00016874628266350025 0 0.001946846371439138 9.9293410012646447e-05 0 0.0019386066949344525 0.000165561307758511 0 0.0018902031184856293 0.00012973163135326346 0 0.0019386066949344525 0.000165561307758511 0 0.0018976278104057705 0.00018517171344822401 0 0.0018819179190331023 0.00027552199661575892 0 0.0018976278104057705 0.00018517171344822401 0 0.001957331940932791 0.00022341452182327918 0 0.0019386066949344525 0.000165561307758511 0 0.0018976278104057705 0.00018517171344822401 0 0.001957331940932791 0.00022341452182327918 0 0.00202931194610933 0.00016874628266350025 0 0.0019386066949344525 0.000165561307758511 0 0.001957331940932791 0.00022341452182327918 0 0.001957331940932791 0.00022341452182327918 0 0.0020215169315493412 0.00026103277497171193 0 0.0019462441653888651 0.00028725538645689918 0 0.0018819179190331023 0.00027552199661575892 0 0.001957331940932791 0.00022341452182327918 0 0.0019462441653888651 0.00028725538645689918 0 0.0020275183647243209 0.00017191639190935979 0 0.0020564669532425347 0.00019663842593598235 0 0.0020215169315493412 0.00026103277497171193 0 0.0020976377370789221 0.00020898888353858722 0 0.0019686031490945659 0.00022871496046406029 0 0.0020275183647243209 0.00017191639190935979 0 0.001957331940932791 0.00022341452182327918 0 0.0020215169315493412 0.00026103277497171193 0 0.0020215169315493412 0.00026103277497171193 0 0.0020917653932794465 0.00024714981020820825 0 0.0020856949462612559 0.00029644828183850847 0 0.0020564669532425347 0.00019663842593598235 0 0.0020215169315493412 0.00026103277497171193 0 0.0020917653932794465 0.00024714981020820825 0 0.0027426618210045373 0.00036768952915403058 0 0.0027420872540237146 0.00029648300627032578 0 0.0028106876521553684 0.00049780800407451219 0 0.0021426202596334892 0.00020871964996397205 0 0.0021905450050099372 0.00029480749475806455 0 0.0021411558780646892 0.00030918662421571333 0 0.0028161265615351335 0.00037253655343377778 0 0.0027420872540237146 0.00029648300627032578 0 0.0028346369905038809 0.00053224620224476651 0 0.0027989933468459973 0.00035260940406855215 0 0.0025895796264837263 0.00044879310582488841 0 0.0020917653932794465 0.00024714981020820825 0 0.0021426202596334892 0.00020871964996397205 0 0.0021411558780646892 0.00030918662421571333 0 0.0020564669532425347 0.00019663842593598235 0 0.0020917653932794465 0.00024714981020820825 0 0.0021426202596334892 0.00020871964996397205 0 0.0024325007940367363 0.0002694534268819475 0 0.0025895796264837263 0.00044879310582488841 0 0.002884018075398185 0.0004428669849884938 0 0.0029046629199019403 0.00048584660961690997 0 0.0028346369905038809 0.00053224620224476651 0 0.002884018075398185 0.0004428669849884938 0 0.0028570791916773422 0.00037032272952753796 0 0.0028346369905038809 0.00053224620224476651 0 0.0028570791916773422 0.00037032272952753796 0 0.0028161265615351335 0.00037253655343377778 0 0.0028346369905038809 0.00053224620224476651 0 0.0029046629199019403 0.00048584660961690997 0 0.0030213907783361448 0.00042091521479403483 0 0.0029866401865309648 0.00056489094440097829 0 0.002884018075398185 0.0004428669849884938 0 0.0029046629199019403 0.00048584660961690997 0 0.0029401817140386772 0.00038291948801420734 0 0.0029046629199019403 0.00048584660961690997 0 0.0029401817140386772 0.00038291948801420734 0 0.0030213907783361448 0.00042091521479403483 0 0.002884018075398185 0.0004428669849884938 0 0.0029401817140386772 0.00038291948801420734 0 0.0028570791916773422 0.00037032272952753796 0 0.0029401817140386772 0.00038291948801420734 0 0.0028570791916773422 0.00037032272952753796 0 0.002899370962162009 0.00031544510481894961 0 0.0028570791916773422 0.00037032272952753796 0 0.0028161265615351335 0.00037253655343377778 0 0.0028306985965441843 0.00029122986231662024 0 0.0028306985965441843 0.00029122986231662024 0 0.0029171283862346304 0.00024178936751118494 0 0.0027809817344544175 0.00024362945200966086 0 0.0028306985965441843 0.00029122986231662024 0 0.002899370962162009 0.00031544510481894961 0 0.0029171283862346304 0.00024178936751118494 0 0.0028570791916773422 0.00037032272952753796 0 0.0028306985965441843 0.00029122986231662024 0 0.002899370962162009 0.00031544510481894961 0 0.0029401817140386772 0.00038291948801420734 0 0.002899370962162009 0.00031544510481894961 0 0.0029635994711590076 0.00029880048378793891 0 0.002899370962162009 0.00031544510481894961 0 0.0029635994711590076 0.00029880048378793891 0 0.0029171283862346304 0.00024178936751118494 0 0.0029551644548270165 0.00026939323669266058 0 0.0029490991326990936 0.00025235573075630617 0 0.003012505931426841 0.00018557472479310445 0 0.002989621182795478 0.00028133444442620889 0 0.0030582052521261251 0.00024779607116475952 0 0.0027574728354478285 0.00015698969128122889 0 0.0029171283862346304 0.00024178936751118494 0 0.0027809817344544175 0.00024362945200966086 0 0.0028477265276807191 0.0002195390138669835 0 0.0029490991326990936 0.00025235573075630617 0 0.0030035252999425837 0.00022889527998325187 0 0.0029490991326990936 0.00025235573075630617 0 0.0027574728354478285 0.00015698969128122889 0 0.0027809817344544175 0.00024362945200966086 0 0.0026646112171166423 0.00023277557757625845 0 0.0028477265276807191 0.0002195390138669835 0 0.0023993058966710998 0.00022049452225296104 0 0.0027426618210045373 0.00036768952915403058 0 0.0026646112171166423 0.00023277557757625845 0 0.0027420872540237146 0.00029648300627032578 0 0.0024325007940367363 0.0002694534268819475 0 0.0023993058966710998 0.00022049452225296104 0 0.0020564669532425347 0.00019663842593598235 0 0.0021426202596334892 0.00020871964996397205 0 0.0020950267968239018 0.00012408383081938552 0 0.0027809817344544175 0.00024362945200966086 0 0.0026646112171166423 0.00023277557757625845 0 0.0027420872540237146 0.00029648300627032578 0 0.0028161265615351335 0.00037253655343377778 0 0.0028306985965441843 0.00029122986231662024 0 0.0027420872540237146 0.00029648300627032578 0 0.0028306985965441843 0.00029122986231662024 0 0.0027809817344544175 0.00024362945200966086 0 0.0027420872540237146 0.00029648300627032578 0 0.0032398169207153234 0.00025555470611019859 0 0.0031441739108504707 0.00037567128552773367 0 0.0031314662550711312 0.00021772124827476553 0 0.0032398169207153234 0.00025555470611019859 0 0.0031441739108504707 0.00037567128552773367 0 0.003316814556838518 0.00035221576147494008 0 0.0029635994711590076 0.00029880048378793891 0 0.002918790233412715 0.00023895849210619008 0 0.0031441739108504707 0.00037567128552773367 0 0.0030582052521261251 0.00024779607116475952 0 0.0031441739108504707 0.00037567128552773367 0 0.0031314662550711312 0.00021772124827476553 0 0.002989621182795478 0.00028133444442620889 0 0.0030582052521261251 0.00024779607116475952 0 0.0031441739108504707 0.00037567128552773367 0 0.0029490991326990936 0.00025235573075630617 0 0.0031350517536780031 0.00036939715481765326 0 0.0029635994711590076 0.00029880048378793891 0 0.0031441739108504707 0.00037567128552773367 0 0.0030213907783361448 0.00042091521479403483 0 0.0029401817140386772 0.00038291948801420734 0 0.0029635994711590076 0.00029880048378793891 0 0.0030213907783361448 0.00042091521479403483 0 0.0030213907783361448 0.00042091521479403483 0 0.0031465367213582519 0.00052031523179253756 0 0.0029866401865309648 0.00056489094440097829 0 0.0031441739108504707 0.00037567128552773367 0 0.0030213907783361448 0.00042091521479403483 0 0.0031465367213582519 0.00052031523179253756 0 0.0031441739108504707 0.00037567128552773367 0 0.003316814556838518 0.00035221576147494008 0 0.0031465367213582519 0.00052031523179253756 0 0.0033401559442516435 0.00041348151193112254 0 0.0032495206982787982 0.00057068684515181956 0 0.0033914694198767556 0.00048000850467401897 0 0.003414227482516376 0.00061623740573146432 0 0.0032468594643122331 0.00059077542838192312 0 0.0034749293252484448 0.00055211355405034111 0 0.0035117797591121109 0.00049466636612423851 0 0.0033914694198767556 0.00048000850467401897 0 0.0034749293252484448 0.00055211355405034111 0 0.0033914694198767556 0.00048000850467401897 0 0.003414227482516376 0.00061623740573146432 0 0.003544473643730583 0.00054573237183304802 0 0.0035897729663545647 0.00057161908942085049 0 0.0035256513468483732 0.00060714097763870972 0 0.003544473643730583 0.00054573237183304802 0 0.0034749293252484448 0.00055211355405034111 0 0.0035256513468483732 0.00060714097763870972 0 0.003544473643730583 0.00054573237183304802 0 0.0034749293252484448 0.00055211355405034111 0 0.0035117797591121109 0.00049466636612423851 0 0.003544473643730583 0.00054573237183304802 0 0.0035117797591121109 0.00049466636612423851 0 0.0035677649091408869 0.00050017596257017293 0 0.003544473643730583 0.00054573237183304802 0 0.0035677649091408869 0.00050017596257017293 0 0.0036069365754129497 0.00053044020234669915 0 0.0035117797591121109 0.00049466636612423851 0 0.0035173077451266391 0.00043795373565491723 0 0.0033914694198767556 0.00048000850467401897 0 0.0035173077451266391 0.00043795373565491723 0 0.0033914694198767556 0.00048000850467401897 0 0.0035254701310916572 0.00037629127459928749 0 0.0035117797591121109 0.00049466636612423851 0 0.0035681341658125123 0.00045265386185899803 0 0.0035173077451266391 0.00043795373565491723 0 0.0035117797591121109 0.00049466636612423851 0 0.0035677649091408869 0.00050017596257017293 0 0.0035681341658125123 0.00045265386185899803 0 0.0035232142698055388 0.00042587170974266322 0 0.00353848143588875 0.00033137707691963727 0 0.0035681341658125123 0.00045265386185899803 0 0.0035173077451266391 0.00043795373565491723 0 0.0035264136208684443 0.00038536481516335134 0 0.0035681341658125123 0.00045265386185899803 0 0.0035264136208684443 0.00038536481516335134 0 0.0035944738915819232 0.00041547016980642568 0 0.003316814556838518 0.00035221576147494008 0 0.0033492026531447496 0.00022136874100024204 0 0.0034718987885608275 0.00020872557393230095 0 0.0032398169207153234 0.00025555470611019859 0 0.003316814556838518 0.00035221576147494008 0 0.0033492026531447496 0.00022136874100024204 0 0.0033401559442516435 0.00041348151193112254 0 0.00353848143588875 0.00033137707691963727 0 0.0035828635057777178 0.00028850571204782244 0 0.0033989624012706315 0.00020070083825626047 0 0.0033492026531447496 0.00022136874100024204 0 0.0034791514934159997 0.0001457237170039481 0 0.0032565513577507712 0.00011529107700191634 0 0.0033492026531447496 0.00022136874100024204 0 0.0034718987885608275 0.00020872557393230095 0 0.0034791514934159997 0.0001457237170039481 0 0.0035264136208684443 0.00038536481516335134 0 0.0035735110954275969 0.00034447174761003036 0 0.0035944738915819232 0.00041547016980642568 0 0.0035742213463798678 0.00033166245516306532 0 0.0035760895308282687 0.00031507820154726189 0 0.0035902113348630525 0.00031703119480311185 0 0.00353848143588875 0.00033137707691963727 0 0.0036150636860889452 0.00033762236050044139 0 0.00353848143588875 0.00033137707691963727 0 0.0035828635057777178 0.00028850571204782244 0 0.0036393641831856745 0.00036893561340053927 0 0.00366088142276346 0.00037188651472875743 0 0.003674320076485973 0.00035970488304437354 0 0.0035828635057777178 0.00028850571204782244 0 0.0036150636860889452 0.00033762236050044139 0 0.0035828635057777178 0.00028850571204782244 0 0.0036646506477601946 0.00028583782738507619 0 0.0036393641831856745 0.00036893561340053927 0 0.0036486247412714822 0.00029140724514642018 0 0.0036819652461978825 0.00032508959170252143 0 0.0036621198340808917 0.00032374974316229062 0 0.0036221197290862094 0.00027303542215417054 0 0.0036693900265433268 0.00025692285828871357 0 0.0036621198340808917 0.00032374974316229062 0 0.0036221197290862094 0.00027303542215417054 0 0.0035830723060191394 0.0003147659939836738 0 0.0036221197290862094 0.00027303542215417054 0 0.0035830723060191394 0.0003147659939836738 0 0.0035637987417290458 0.00025662036221057701 0 0.0035830723060191394 0.0003147659939836738 0 0.0034976589836897497 0.00030389883861238731 0 0.0035637987417290458 0.00025662036221057701 0 0.0032398169207153234 0.00025555470611019859 0 0.0032565513577507712 0.00011529107700191634 0 0.0031314662550711312 0.00021772124827476553 0 0.0032398169207153234 0.00025555470611019859 0 0.0033492026531447496 0.00022136874100024204 0 0.0032565513577507712 0.00011529107700191634 0 0.003012505931426841 0.00018557472479310445 0 0.0031314662550711312 0.00021772124827476553 0 0.0030385233147149043 8.9333890286007791e-05 0 0.0032565513577507712 0.00011529107700191634 0 0.0031314662550711312 0.00021772124827476553 0 0.0030385233147149043 8.9333890286007791e-05 0 0.003012505931426841 0.00018557472479310445 0 0.0030582052521261251 0.00024779607116475952 0 0.0031314662550711312 0.00021772124827476553 0 0.0035360896614479278 0.00029185151950343683 0 0.0035408021409885607 0.00024203578812796429 0 0.0035847812373197897 0.00025382824094510853 0 0.0033989624012706315 0.00020070083825626047 0 0.0033480748202183329 0.00024941598656739029 0 0.0033480748202183329 0.00024941598656739029 0 0.0036033655492035193 0.00025319506100668761 0 0.0035408021409885607 0.00024203578812796429 0 0.0035847812373197897 0.00025382824094510853 0 0.0035606866432933166 0.00021529175707633803 0 0.0035847812373197897 0.00025382824094510853 0 0.0035906335136698451 0.00019982630756929277 0 0.0036289193300045749 0.00021552406655792351 0 0.0035847812373197897 0.00025382824094510853 0 0.0035906335136698451 0.00019982630756929277 0 0.0035606866432933166 0.00021529175707633803 0 0.0035906335136698451 0.00019982630756929277 0 0.0035606866432933166 0.00021529175707633803 0 0.0035532900152307721 0.00017485298185107936 0 0.0035346954773648521 0.00020717854739318303 0 0.0035606866432933166 0.00021529175707633803 0 0.0035532900152307721 0.00017485298185107936 0 0.0035346954773648521 0.00020717854739318303 0 0.0035408021409885607 0.00024203578812796429 0 0.0035606866432933166 0.00021529175707633803 0 0.0035532900152307721 0.00017485298185107936 0 0.0035933557364191539 0.00016677473811563641 0 0.0035770015962982887 0.00014661923722725299 0 0.0035906335136698451 0.00019982630756929277 0 0.0035532900152307721 0.00017485298185107936 0 0.0035933557364191539 0.00016677473811563641 0 0.0035933557364191539 0.00016677473811563641 0 0.0036031999498031251 0.00013275419298404702 0 0.0036219416045541099 0.00017130772382576117 0 0.0035906335136698451 0.00019982630756929277 0 0.0035933557364191539 0.00016677473811563641 0 0.0036219416045541099 0.00017130772382576117 0 0.0035933557364191539 0.00016677473811563641 0 0.0035770015962982887 0.00014661923722725299 0 0.0036031999498031251 0.00013275419298404702 0 0.0035770015962982887 0.00014661923722725299 0 0.0036031999498031251 0.00013275419298404702 0 0.0035806105494080457 0.00011951962594940123 0 0.0036167840403528895 0.00010320600010018637 0 0.0035943285790806336 0.00010386289571371463 0 0.0036031999498031251 0.00013275419298404702 0 0.0035943285790806336 0.00010386289571371463 0 0.0036031999498031251 0.00013275419298404702 0 0.0035806105494080457 0.00011951962594940123 0 0.0035532900152307721 0.00017485298185107936 0 0.0035770015962982887 0.00014661923722725299 0 0.0035577702300717659 0.00012266156145602356 0 0.0035209363652415654 0.00015407950980319272 0 0.0035532900152307721 0.00017485298185107936 0 0.0035577702300717659 0.00012266156145602356 0 0.0035770015962982887 0.00014661923722725299 0 0.0035806105494080457 0.00011951962594940123 0 0.0035577702300717659 0.00012266156145602356 0 0.0036627066498721291 0.00010540454490558613 0 0.0036342163017327464 0.0001259759990006318 0 0.0036505734505643647 0.00015285296886485397 0 0.0036627066498721291 0.00010540454490558613 0 0.0036802701306803973 0.0001365308788408011 0 0.0036505734505643647 0.00015285296886485397 0 0.003637916450230511 0.00010351756762905836 0 0.0036627066498721291 0.00010540454490558613 0 0.0036342163017327464 0.0001259759990006318 0 0.0036167840403528895 0.00010320600010018637 0 0.003637916450230511 0.00010351756762905836 0 0.0036342163017327464 0.0001259759990006318 0 0.0036031999498031251 0.00013275419298404702 0 0.0036342163017327464 0.0001259759990006318 0 0.0036219416045541099 0.00017130772382576117 0 0.0036167840403528895 0.00010320600010018637 0 0.0036031999498031251 0.00013275419298404702 0 0.0036342163017327464 0.0001259759990006318 0 0.0036342163017327464 0.0001259759990006318 0 0.0036219416045541099 0.00017130772382576117 0 0.0036505734505643647 0.00015285296886485397 0 0.0036788788896063907 0.00014248875632206159 0 0.0036691939568052421 0.00019988377492928015 0 0.0036802701306803973 0.0001365308788408011 0 0.0036505734505643647 0.00015285296886485397 0 0.0036750696432412073 0.0001957195077594116 0 0.0036219416045541099 0.00017130772382576117 0 0.0036505734505643647 0.00015285296886485397 0 0.0036750696432412073 0.0001957195077594116 0 0.0035906335136698451 0.00019982630756929277 0 0.0036219416045541099 0.00017130772382576117 0 0.0036289193300045749 0.00021552406655792351 0 0.0036219416045541099 0.00017130772382576117 0 0.0036750696432412073 0.0001957195077594116 0 0.0036289193300045749 0.00021552406655792351 0 0.0036221197290862094 0.00027303542215417054 0 0.0036289193300045749 0.00021552406655792351 0 0.0036693900265433268 0.00025692285828871357 0 0.0036033655492035193 0.00025319506100668761 0 0.0036150012576952229 0.00022129201437119154 0 0.0036221197290862094 0.00027303542215417054 0 0.0035637987417290458 0.00025662036221057701 0 0.0036289193300045749 0.00021552406655792351 0 0.0036691939568052421 0.00019988377492928015 0 0.0036646506477601946 0.00028583782738507619 0 0.0036750696432412073 0.0001957195077594116 0 0.0036289193300045749 0.00021552406655792351 0 0.0036693900265433268 0.00025692285828871357 0 0.0037036148581278301 0.00026295230494331349 0 0.0037222018230794024 0.0003087529442068835 0 0.0036819652461978825 0.00032508959170252143 0 0.0036486247412714822 0.00029140724514642018 0 0.0037036148581278301 0.00026295230494331349 0 0.0036819652461978825 0.00032508959170252143 0 0.0036635830516115525 0.00020939409411515123 0 0.0036486247412714822 0.00029140724514642018 0 0.0037036148581278301 0.00026295230494331349 0 0.0037036148581278301 0.00026295230494331349 0 0.0037699150724733888 0.00026918904432260367 0 0.0037222018230794024 0.0003087529442068835 0 0.0037699150724733888 0.00026918904432260367 0 0.0037381607365838229 0.00018111201376176981 0 0.0038264930045415722 0.00019341932821692178 0 0.0037036148581278301 0.00026295230494331349 0 0.0037699150724733888 0.00026918904432260367 0 0.0037381607365838229 0.00018111201376176981 0 0.0036635830516115525 0.00020939409411515123 0 0.0037036148581278301 0.00026295230494331349 0 0.0037381607365838229 0.00018111201376176981 0 0.0036802701306803973 0.0001365308788408011 0 0.0036635830516115525 0.00020939409411515123 0 0.0037381607365838229 0.00018111201376176981 0 0.0036802701306803973 0.0001365308788408011 0 0.0037381607365838229 0.00018111201376176981 0 0.0037288357390885085 0.00013071511154633206 0 0.0037381607365838229 0.00018111201376176981 0 0.0037288357390885085 0.00013071511154633206 0 0.0037967298530222691 0.0001123619036053445 0 0.0037871281077946524 0.00012630159241410494 0 0.0038703178830947265 0.00014827532855143813 0 0.003704964614034985 9.4184756590541457e-05 0 0.0037288357390885085 0.00013071511154633206 0 0.0037967298530222691 0.0001123619036053445 0 0.003704964614034985 9.4184756590541457e-05 0 0.0036627066498721291 0.00010540454490558613 0 0.0036802701306803973 0.0001365308788408011 0 0.003704964614034985 9.4184756590541457e-05 0 0.0036802701306803973 0.0001365308788408011 0 0.0037288357390885085 0.00013071511154633206 0 0.0038703178830947265 0.00014827532855143813 0 0.0039582606912267476 0.00017110495740633053 0 0.0039662249627506344 0.00015254757012446465 0 0.0039439011120484656 0.00018463960044299915 0 0.0040051502924837289 0.00019663122431226777 0 0.0040144962578509309 0.00015536804675923184 0 0.0039662249627506344 0.00015254757012446465 0 0.0040051502924837289 0.00019663122431226777 0 0.0037967298530222691 0.0001123619036053445 0 0.0039104695430439585 0.00014352534821607227 0 0.0038264930045415722 0.00019341932821692178 0 0.0037381607365838229 0.00018111201376176981 0 0.0037967298530222691 0.0001123619036053445 0 0.0038264930045415722 0.00019341932821692178 0 0.0039104695430439585 0.00014352534821607227 0 0.0038264930045415722 0.00019341932821692178 0 0.003928448920801097 0.00024266021791513178 0 0.0038264930045415722 0.00019341932821692178 0 0.0038461306014657415 0.00026627302371804882 0 0.003928448920801097 0.00024266021791513178 0 0.0037699150724733888 0.00026918904432260367 0 0.0038264930045415722 0.00019341932821692178 0 0.0038461306014657415 0.00026627302371804882 0 0.0037699150724733888 0.00026918904432260367 0 0.0038461306014657415 0.00026627302371804882 0 0.0038140264061123632 0.00032748518577739859 0 0.0038461306014657415 0.00026627302371804882 0 0.0038836099269522009 0.00031776642368493 0 0.003928448920801097 0.00024266021791513178 0 0.0038461306014657415 0.00026627302371804882 0 0.0038836099269522009 0.00031776642368493 0 0.0038140264061123632 0.00032748518577739859 0 0.0038836099269522009 0.00031776642368493 0 0.0038500656840866928 0.00037851066272688057 0 0.0038140264061123632 0.00032748518577739859 0 0.0038836099269522009 0.00031776642368493 0 0.0038500656840866928 0.00037851066272688057 0 0.0039196062773490916 0.00040004577662918422 0 0.0038500656840866928 0.00037851066272688057 0 0.0038513996501793385 0.00045127187602979254 0 0.0039196062773490916 0.00040004577662918422 0 0.0038500656840866928 0.00037851066272688057 0 0.0037826456427462606 0.00040138902764643184 0 0.0038140264061123632 0.00032748518577739859 0 0.0038500656840866928 0.00037851066272688057 0 0.0037826456427462606 0.00040138902764643184 0 0.0038513996501793385 0.00045127187602979254 0 0.0037826456427462606 0.00040138902764643184 0 0.0038140264061123632 0.00032748518577739859 0 0.0037468699840650732 0.00034839444707317327 0 0.0037699150724733888 0.00026918904432260367 0 0.0038140264061123632 0.00032748518577739859 0 0.0037468699840650732 0.00034839444707317327 0 0.0037699150724733888 0.00026918904432260367 0 0.0037222018230794024 0.0003087529442068835 0 0.0037468699840650732 0.00034839444707317327 0 0.0037222018230794024 0.0003087529442068835 0 0.0037468699840650732 0.00034839444707317327 0 0.0037071611238269487 0.00034584787886063161 0 0.0037222018230794024 0.0003087529442068835 0 0.0036819652461978825 0.00032508959170252143 0 0.0037071611238269487 0.00034584787886063161 0 0.0036393641831856745 0.00036893561340053927 0 0.0036819652461978825 0.00032508959170252143 0 0.003674320076485973 0.00035970488304437354 0 0.0036819652461978825 0.00032508959170252143 0 0.0037071611238269487 0.00034584787886063161 0 0.003674320076485973 0.00035970488304437354 0 0.0036150636860889452 0.00033762236050044139 0 0.0037093656737706435 0.0003802040977718641 0 0.0035735110954275969 0.00034447174761003036 0 0.0037152480718205634 0.00038167333039194884 0 0.0036510185710576619 0.00041645803031579456 0 0.0036642573935352684 0.00036840024672837992 0 0.003674320076485973 0.00035970488304437354 0 0.0037152480718205634 0.00038167333039194884 0 0.0037071611238269487 0.00034584787886063161 0 0.003674320076485973 0.00035970488304437354 0 0.0037152480718205634 0.00038167333039194884 0 0.0036150636860889452 0.00033762236050044139 0 0.0036363363886638116 0.00033752270248095344 0 0.0035735110954275969 0.00034447174761003036 0 0.0035944738915819232 0.00041547016980642568 0 0.0036510185710576619 0.00041645803031579456 0 0.0037826456427462606 0.00040138902764643184 0 0.0037468699840650732 0.00034839444707317327 0 0.0037152480718205634 0.00038167333039194884 0 0.0037468699840650732 0.00034839444707317327 0 0.0037071611238269487 0.00034584787886063161 0 0.0037152480718205634 0.00038167333039194884 0 0.0037826456427462606 0.00040138902764643184 0 0.0037152480718205634 0.00038167333039194884 0 0.0037227840555524531 0.00045478769849623818 0 0.0037152480718205634 0.00038167333039194884 0 0.0037227840555524531 0.00045478769849623818 0 0.0036510185710576619 0.00041645803031579456 0 0.0037227840555524531 0.00045478769849623818 0 0.0036364585102808358 0.00047434818523761489 0 0.0036899225676216897 0.00050560892548270897 0 0.0037227840555524531 0.00045478769849623818 0 0.0037395767620803607 0.00051350765949544704 0 0.0037834347818906182 0.00047478009543209084 0 0.0037227840555524531 0.00045478769849623818 0 0.0037395767620803607 0.00051350765949544704 0 0.0036899225676216897 0.00050560892548270897 0 0.0035681341658125123 0.00045265386185899803 0 0.0035944738915819232 0.00041547016980642568 0 0.0036364585102808358 0.00047434818523761489 0 0.0035944738915819232 0.00041547016980642568 0 0.0036510185710576619 0.00041645803031579456 0 0.0036364585102808358 0.00047434818523761489 0 0.0037227840555524531 0.00045478769849623818 0 0.0036510185710576619 0.00041645803031579456 0 0.0036364585102808358 0.00047434818523761489 0 0.0035677649091408869 0.00050017596257017293 0 0.0035681341658125123 0.00045265386185899803 0 0.0036364585102808358 0.00047434818523761489 0 0.0035677649091408869 0.00050017596257017293 0 0.0036364585102808358 0.00047434818523761489 0 0.0036069365754129497 0.00053044020234669915 0 0.0036364585102808358 0.00047434818523761489 0 0.0036069365754129497 0.00053044020234669915 0 0.0036539372430496016 0.00053157805486618267 0 0.0036364585102808358 0.00047434818523761489 0 0.0036539372430496016 0.00053157805486618267 0 0.0036899225676216897 0.00050560892548270897 0 0.0036539372430496016 0.00053157805486618267 0 0.0036445300459411636 0.00056513794637787673 0 0.0036934864310485833 0.00055308248034847333 0 0.0036445300459411636 0.00056513794637787673 0 0.0035897729663545647 0.00057161908942085049 0 0.0036302307782384996 0.0005996387658943951 0 0.0036069365754129497 0.00053044020234669915 0 0.0036539372430496016 0.00053157805486618267 0 0.0036445300459411636 0.00056513794637787673 0 0.0036069365754129497 0.00053044020234669915 0 0.0036445300459411636 0.00056513794637787673 0 0.0035897729663545647 0.00057161908942085049 0 0.003544473643730583 0.00054573237183304802 0 0.0036069365754129497 0.00053044020234669915 0 0.0035897729663545647 0.00057161908942085049 0 0.0037395767620803607 0.00051350765949544704 0 0.0036899225676216897 0.00050560892548270897 0 0.0036934864310485833 0.00055308248034847333 0 0.0036539372430496016 0.00053157805486618267 0 0.0036899225676216897 0.00050560892548270897 0 0.0036934864310485833 0.00055308248034847333 0 0.0036445300459411636 0.00056513794637787673 0 0.0036934864310485833 0.00055308248034847333 0 0.0036696246251260592 0.00059348878135428973 0 0.0036934864310485833 0.00055308248034847333 0 0.0037069572032822694 0.00059905616995757497 0 0.0036696246251260592 0.00059348878135428973 0 0.0036934864310485833 0.00055308248034847333 0 0.0037555944531601332 0.00056558048652994642 0 0.0037069572032822694 0.00059905616995757497 0 0.0037395767620803607 0.00051350765949544704 0 0.0036934864310485833 0.00055308248034847333 0 0.0037555944531601332 0.00056558048652994642 0 0.0037555944531601332 0.00056558048652994642 0 0.0037800900279523143 0.0005220450368713667 0 0.0038124504525538557 0.00054693677671704044 0 0.0037555944531601332 0.00056558048652994642 0 0.0038124504525538557 0.00054693677671704044 0 0.0037896415946537432 0.00059583133264419085 0 0.0037395767620803607 0.00051350765949544704 0 0.0037555944531601332 0.00056558048652994642 0 0.0037800900279523143 0.0005220450368713667 0 0.0037395767620803607 0.00051350765949544704 0 0.0037800900279523143 0.0005220450368713667 0 0.0037834347818906182 0.00047478009543209084 0 0.0037800900279523143 0.0005220450368713667 0 0.0038124504525538557 0.00054693677671704044 0 0.0038251932840042894 0.00050043028573219241 0 0.0038124504525538557 0.00054693677671704044 0 0.0038514500917770809 0.0005725793075799263 0 0.0037896415946537432 0.00059583133264419085 0 0.0038124504525538557 0.00054693677671704044 0 0.0038514500917770809 0.0005725793075799263 0 0.0038673992024793472 0.00051716634873961466 0 0.0038514500917770809 0.0005725793075799263 0 0.0038998685404799355 0.00055383856666485856 0 0.003927240187926566 0.00058961503305317861 0 0.0038514500917770809 0.0005725793075799263 0 0.0038998685404799355 0.00055383856666485856 0 0.0038673992024793472 0.00051716634873961466 0 0.0038998685404799355 0.00055383856666485856 0 0.0038673992024793472 0.00051716634873961466 0 0.0039124548751847529 0.00051999295387651363 0 0.0038673992024793472 0.00051716634873961466 0 0.0039124548751847529 0.00051999295387651363 0 0.0039115605137757543 0.00047698162340215945 0 0.0038124504525538557 0.00054693677671704044 0 0.0038673992024793472 0.00051716634873961466 0 0.0038251932840042894 0.00050043028573219241 0 0.0038513996501793385 0.00045127187602979254 0 0.0039196062773490916 0.00040004577662918422 0 0.0039115605137757543 0.00047698162340215945 0 0.0038673992024793472 0.00051716634873961466 0 0.0038513996501793385 0.00045127187602979254 0 0.0038251932840042894 0.00050043028573219241 0 0.0038673992024793472 0.00051716634873961466 0 0.0038513996501793385 0.00045127187602979254 0 0.0039115605137757543 0.00047698162340215945 0 0.0037826456427462606 0.00040138902764643184 0 0.0038513996501793385 0.00045127187602979254 0 0.0037834347818906182 0.00047478009543209084 0 0.0037826456427462606 0.00040138902764643184 0 0.0037227840555524531 0.00045478769849623818 0 0.0037834347818906182 0.00047478009543209084 0 0.0038513996501793385 0.00045127187602979254 0 0.0037834347818906182 0.00047478009543209084 0 0.0038251932840042894 0.00050043028573219241 0 0.0037800900279523143 0.0005220450368713667 0 0.0037834347818906182 0.00047478009543209084 0 0.0038251932840042894 0.00050043028573219241 0 0.0031382123912001188 0.00025088837333826352 0 0.0031513728054379411 0.0001987730081655611 0 0.0029496006307015762 0.00020532274049558146 0 0.003548652277589953 0.00044947163899998439 0 0.0033174259042383428 0.00018519043209489747 0 0.0026011989332292438 -0.00013962090855425361 0 0.0027371251345237454 -8.3120099141514118e-06 0 0.0027872987687336732 -0.00018982938425123858 0 0.0031382123912001188 0.00025088837333826352 0 0.0031513728054379411 0.0001987730081655611 0 0.0033496565053498942 0.00019043829315892229 0 0.0028384966036499818 3.7781015858033727e-05 0 0.0033174259042383428 0.00018519043209489747 0 0.0038003724093995219 0.00065987631491633487 0 0.0038167720934584553 0.00063448255271035753 0 0.0038416531005491731 0.00063759652588917816 0 0.0038514500917770809 0.0005725793075799263 0 0.0038167720934584553 0.00063448255271035753 0 0.003927240187926566 0.00058961503305317861 0 0.0038167720934584553 0.00063448255271035753 0 0.0038416531005491731 0.00063759652588917816 0 0.0038587187825394101 0.000624298924968873 0 0.0038836245773032352 0.00072359680663455469 0 0.0037725830282157027 0.0003121137256314309 0 0.0038514500917770809 0.0005725793075799263 0 0.0038167720934584553 0.00063448255271035753 0 0.0037896415946537432 0.00059583133264419085 0 0.0038003724093995219 0.00065987631491633487 0 0.0038167720934584553 0.00063448255271035753 0 0.0037887546270870625 0.00062995206407290684 0 0.0038167720934584553 0.00063448255271035753 0 0.0037887546270870625 0.00062995206407290684 0 0.0037896415946537432 0.00059583133264419085 0 0.0038003724093995219 0.00065987631491633487 0 0.0037887546270870625 0.00062995206407290684 0 0.0037441981963978713 0.00062696257624963829 0 0.0037887546270870625 0.00062995206407290684 0 0.0037896415946537432 0.00059583133264419085 0 0.0037441981963978713 0.00062696257624963829 0 0.0037555944531601332 0.00056558048652994642 0 0.0037896415946537432 0.00059583133264419085 0 0.0037441981963978713 0.00062696257624963829 0 0.0037555944531601332 0.00056558048652994642 0 0.0037069572032822694 0.00059905616995757497 0 0.0037441981963978713 0.00062696257624963829 0 0.0038003724093995219 0.00065987631491633487 0 0.0037441981963978713 0.00062696257624963829 0 0.0036813893153669359 0.00067922930584524035 0 0.0037069572032822694 0.00059905616995757497 0 0.003698670430514521 0.00063406214446828707 0 0.0037441981963978713 0.00062696257624963829 0 0.0037069572032822694 0.00059905616995757497 0 0.0036696246251260592 0.00059348878135428973 0 0.0036753136818212808 0.00061993416721188414 0 0.0037069572032822694 0.00059905616995757497 0 0.0036753136818212808 0.00061993416721188414 0 0.003698670430514521 0.00063406214446828707 0 0.003698670430514521 0.00063406214446828707 0 0.0037441981963978713 0.00062696257624963829 0 0.0036813893153669359 0.00067922930584524035 0 0.003698670430514521 0.00063406214446828707 0 0.0036572604439204784 0.00064654836591989577 0 0.0036813893153669359 0.00067922930584524035 0 0.0036753136818212808 0.00061993416721188414 0 0.003698670430514521 0.00063406214446828707 0 0.0036572604439204784 0.00064654836591989577 0 0.0035897729663545647 0.00057161908942085049 0 0.0036302307782384996 0.0005996387658943951 0 0.0036126905150269009 0.00064585439091881388 0 0.0035897729663545647 0.00057161908942085049 0 0.0036126905150269009 0.00064585439091881388 0 0.0035256513468483732 0.00060714097763870972 0 0.0036302307782384996 0.0005996387658943951 0 0.0036493413479254484 0.00062093147108083983 0 0.0036126905150269009 0.00064585439091881388 0 0.0036445300459411636 0.00056513794637787673 0 0.0036696246251260592 0.00059348878135428973 0 0.0036302307782384996 0.0005996387658943951 0 0.0036696246251260592 0.00059348878135428973 0 0.0036302307782384996 0.0005996387658943951 0 0.0036493413479254484 0.00062093147108083983 0 0.0036696246251260592 0.00059348878135428973 0 0.0036753136818212808 0.00061993416721188414 0 0.0036493413479254484 0.00062093147108083983 0 0.0036572604439204784 0.00064654836591989577 0 0.0036126905150269009 0.00064585439091881388 0 0.003679087011393739 0.00068878446619359546 0 0.0036753136818212808 0.00061993416721188414 0 0.0036493413479254484 0.00062093147108083983 0 0.0036572604439204784 0.00064654836591989577 0 0.0036493413479254484 0.00062093147108083983 0 0.0036572604439204784 0.00064654836591989577 0 0.0036126905150269009 0.00064585439091881388 0 0.0036126905150269009 0.00064585439091881388 0 0.003679087011393739 0.00068878446619359546 0 0.0035082732367982469 0.00071298478320582631 0 0.0028348562857087676 0.0003476106576039016 0 0.0028566345554428673 0.00026566682780048654 0 0.0026654415344127846 0.00027297980194341767 0 0.0028348562857087676 0.0003476106576039016 0 0.0027025685355493907 0.00038281950005278955 0 0.0026654415344127846 0.00027297980194341767 0 0.0032076695383713555 0.00041408318493986403 0 0.0030918076876359506 0.00050019534279818301 0 0.003548652277589953 0.00044947163899998439 0 0.0032076695383713555 0.00041408318493986403 0 0.0038003724093995219 0.00065987631491633487 0 0.0036813893153669359 0.00067922930584524035 0 0.0036792520051211093 0.00068722215458952849 0 0.0028384966036499818 3.7781015858033727e-05 0 0.0026048858064866213 0.00012489846370648225 0 0.0031382123912001188 0.00025088837333826352 0 0.0029226852585674703 0.00030993221790772221 0 0.0029496006307015762 0.00020532274049558146 0 0.0036572604439204784 0.00064654836591989577 0 0.0036813893153669359 0.00067922930584524035 0 0.003679087011393739 0.00068878446619359546 0 0.0032163665611255883 0.00042997627396675503 0 0.0032076695383713555 0.00041408318493986403 0 0.0026048858064866213 0.00012489846370648225 0 0.0032076695383713555 0.00041408318493986403 0 0.0024221253588732512 -8.9280206421785493e-05 0 0.002493169350223486 8.3240813846343896e-05 0 0.0025789654725728475 1.0405633261671314e-05 0 0.0026011989332292438 -0.00013962090855425361 0 0.0024221253588732512 -8.9280206421785493e-05 0 0.0025789654725728475 1.0405633261671314e-05 0 0.0026048858064866213 0.00012489846370648225 0 0.0024325985912245799 0.00022199735752075189 0 0.0026048858064866213 0.00012489846370648225 0 0.0022649657296959936 8.3631627438661722e-05 0 0.0021951793687716189 4.0130800808825885e-05 0 0.002166895653914102 0.00012990719755484096 0 0.002127410020899913 5.8322999292915189e-05 0 0.0023735714718038877 0.00010149485486836264 0 0.002493169350223486 8.3240813846343896e-05 0 0.0024701504684664106 0.00022447611318135788 0 0.0024221253588732512 -8.9280206421785493e-05 0 0.0023735714718038877 0.00010149485486836264 0 0.002493169350223486 8.3240813846343896e-05 0 0.0025789654725728475 1.0405633261671314e-05 0 0.0027371251345237454 -8.3120099141514118e-06 0 0.0026196010496656657 0.00016684812084892943 0 0.002493169350223486 8.3240813846343896e-05 0 0.0025789654725728475 1.0405633261671314e-05 0 0.0026196010496656657 0.00016684812084892943 0 0.0026011989332292438 -0.00013962090855425361 0 0.0025789654725728475 1.0405633261671314e-05 0 0.0027371251345237454 -8.3120099141514118e-06 0 0.002686257567224553 -4.1273038089771188e-05 0 0.0026390443262012874 0.00016551168986057881 0 0.0027339398646954748 -2.1702788474599363e-05 0 0.0027572769736011814 0.00010883643700331828 0 0.0028121721305096243 4.4596489514590651e-05 0 0.0027339398646954748 -2.1702788474599363e-05 0 0.0027572769736011814 0.00010883643700331828 0 0.0026196010496656657 0.00016684812084892943 0 0.0027572769736011814 0.00010883643700331828 0 0.0027509399438729928 0.00022275564731933923 0 0.0026196010496656657 0.00016684812084892943 0 0.0027509399438729928 0.00022275564731933923 0 0.0026196010496656657 0.00016684812084892943 0 0.0026405615032680874 0.00033041172230226457 0 0.0026196010496656657 0.00016684812084892943 0 0.0026405615032680874 0.00033041172230226457 0 0.0024701504684664106 0.00022447611318135788 0 0.0026405615032680874 0.00033041172230226457 0 0.0025011154561699403 0.00038897371387813562 0 0.0024701504684664106 0.00022447611318135788 0 0.0027509399438729928 0.00022275564731933923 0 0.0026405615032680874 0.00033041172230226457 0 0.0027564820822651684 0.00041789610346649396 0 0.0028196263672221693 0.00027812176970517833 0 0.0025000642706886696 0.00032598580576846469 0 0.0026405615032680874 0.00033041172230226457 0 0.0026749356747100069 0.00040418204105001869 0 0.0027564820822651684 0.00041789610346649396 0 0.0020252053537295374 0.00028338285708001887 0 0.0025000642706886696 0.00032598580576846469 0 0.0026749356747100069 0.00040418204105001869 0 0.0026743304572879128 0.00048611915467528622 0 0.0027564820822651684 0.00041789610346649396 0 0.0020252053537295374 0.00028338285708001887 0 0.0020406754829587941 0.00031287482914783908 0 0.0015728241968620358 0.00021827210611855845 0 0.0015594939299648661 0.00021888610731169277 0 0.0015599477827806804 0.00021531336581626201 0 0.0026405615032680874 0.00033041172230226457 0 0.0026749356747100069 0.00040418204105001869 0 0.0025011154561699403 0.00038897371387813562 0 0.0026749356747100069 0.00040418204105001869 0 0.0026743304572879128 0.00048611915467528622 0 0.0025011154561699403 0.00038897371387813562 0 0.0015728241968620358 0.00021827210611855845 0 0.0015594939299648661 0.00021888610731169277 0 0.0015583420554866687 0.00022266653442233264 0 0.0020252053537295374 0.00028338285708001887 0 0.0014282050324302641 0.00023455001361551053 0 0.0016223135005387045 0.00016264369569765649 0 0.0015863069252057707 0.00022559372663431951 0 0.0015583420554866687 0.00022266653442233264 0 0.0016369920746260608 0.00019229084762720924 0 0.0016745445113622028 0.00019090614031639855 0 0.0015863069252057707 0.00022559372663431951 0 0.0016369920746260608 0.00019229084762720924 0 0.0016223135005387045 0.00016264369569765649 0 0.0015863069252057707 0.00022559372663431951 0 0.0021605539824962328 0.00026122252303574978 0 0.0021094082430278653 0.00023238589204170127 0 0.0021218438457155709 0.00029623624839890481 0 0.0016369920746260608 0.00019229084762720924 0 0.0016223135005387045 0.00016264369569765649 0 0.0016745445113622028 0.00019090614031639855 0 0.0020252053537295374 0.00028338285708001887 0 0.0018581794939265652 0.00019191485631484491 0 0.0015160475965537851 0.00019104430648165385 0 0.0014958097810935718 0.00019299786204460189 0 0.0015387325816217973 0.00022977735707386895 0 0.0015515035973710453 0.00021861542662033744 0 0.0015524604344823083 0.00022061828448795591 0 0.0015387325816217973 0.00022977735707386895 0 0.0015515035973710453 0.00021861542662033744 0 0.0015524604344823083 0.00022061828448795591 0 0.0015553051109909581 0.00021746951715324831 0 0.0015160475965537851 0.00019104430648165385 0 0.0014937617090179395 0.00016783790605526193 0 0.0014958097810935718 0.00019299786204460189 0 0.0015524604344823083 0.00022061828448795591 0 0.001555638373728732 0.00022163295074567911 0 0.0015594939299648661 0.00021888610731169277 0 0.0015524604344823083 0.00022061828448795591 0 0.001555638373728732 0.00022163295074567911 0 0.0015513821469980253 0.00022621666574631312 0 0.001555638373728732 0.00022163295074567911 0 0.0015594939299648661 0.00021888610731169277 0 0.0015583420554866687 0.00022266653442233264 0 0.0015524604344823083 0.00022061828448795591 0 0.0015594939299648661 0.00021888610731169277 0 0.0015553051109909581 0.00021746951715324831 0 0.0015594939299648661 0.00021888610731169277 0 0.0015599477827806804 0.00021531336581626201 0 0.0015553051109909581 0.00021746951715324831 0 0.0015515035973710453 0.00021861542662033744 0 0.0015553051109909581 0.00021746951715324831 0 0.0015572221445669953 0.00021657362970225574 0 0.0015160475965537851 0.00019104430648165385 0 0.0014950919565378832 0.00015930496276369744 0 0.0014937617090179395 0.00016783790605526193 0 0.0015599477827806804 0.00021531336581626201 0 0.0015553051109909581 0.00021746951715324831 0 0.0015572221445669953 0.00021657362970225574 0 0.0015177243577061427 0.00019357733422764703 0 0.0017319364348268361 0.00020365895516744127 0 0.0020406754829587941 0.00031287482914783908 0 0.0020014500954083185 0.00026129409587858081 0 0.0020014500954083185 0.00026129409587858081 0 0.0017319364348268361 0.00020365895516744127 0 0.0015599477827806804 0.00021531336581626201 0 0.0015601870696346004 0.00021653518109326138 0 0.0015572221445669953 0.00021657362970225574 0 0.0025011154561699403 0.00038897371387813562 0 0.002324507236315769 0.0002900907347208322 0 0.0024701504684664106 0.00022447611318135788 0 0.002493169350223486 8.3240813846343896e-05 0 0.0026196010496656657 0.00016684812084892943 0 0.0024701504684664106 0.00022447611318135788 0 0.0022649657296959936 8.3631627438661722e-05 0 0.0020014500954083185 0.00026129409587858081 0 0.0023735714718038877 0.00010149485486836264 0 0.002324507236315769 0.0002900907347208322 0 0.0024701504684664106 0.00022447611318135788 0 0.002166895653914102 0.00012990719755484096 0 0.0021392468975353842 0.00021502194151041203 0 0.0021139329779017082 0.00020047733228526011 0 0.0014616687711712241 0.0001314196873895283 0 0.001455991002356873 0.00013122000735102634 0 0.0014739855509550666 0.00015307167948892065 0 0.002166895653914102 0.00012990719755484096 0 0.0020962706550821477 0.00016819937499922081 0 0.0021139329779017082 0.00020047733228526011 0 0.001455991002356873 0.00013122000735102634 0 0.001469512093919909 0.00012620373281934505 0 0.0014677601614939229 0.00013690178275167539 0 0.001455991002356873 0.00013122000735102634 0 0.0014354217618754717 0.0001027424692671655 0 0.001469512093919909 0.00012620373281934505 0 0.001455991002356873 0.00013122000735102634 0 0.0014354217618754717 0.0001027424692671655 0 0.0014249325335643759 0.00010438259856349626 0 0.001455342959695839 0.00012149785006095004 0 0.0013942762545861821 7.3384698035093487e-05 0 0.0014616687711712241 0.0001314196873895283 0 0.0014739855509550666 0.00015307167948892065 0 0.0014932391495092491 0.00015947314731879845 0 0.0014571974230741791 0.00013238267273770434 0 0.0014399079180836757 0.00012253865986165143 0 0.0021349865908347893 0.00021390943605115244 0 0.0021139329779017082 0.00020047733228526011 0 0.0021236845206492349 0.00025371807989119284 0 0.001738040385090933 0.00012831840335015052 0 0.0017319364348268361 0.00020365895516744127 0 0.0020962706550821477 0.00016819937499922081 0 0.0021139329779017082 0.00020047733228526011 0 0.0021236845206492349 0.00025371807989119284 0 0.0020014500954083185 0.00026129409587858081 0 0.0020962763692080237 0.00025146977166796579 0 0.0014739855509550666 0.00015307167948892065 0 0.0014937617090179395 0.00016783790605526193 0 0.0014958097810935718 0.00019299786204460189 0 0.0014739855509550666 0.00015307167948892065 0 0.0014932391495092491 0.00015947314731879845 0 0.0014937617090179395 0.00016783790605526193 0 0.0014249325335643759 0.00010438259856349626 0 0.0014234095271793805 0.00010020087225077594 0 0.0014119348382924893 9.8703200801361968e-05 0 0.0014399079180836757 0.00012253865986165143 0 0.0015231158949824293 0.00015978415558088688 0 0.0017319364348268361 0.00020365895516744127 0 0.0016778549373173755 0.00020211827366734683 0 0.0014354217618754717 0.0001027424692671655 0 0.0014249325335643759 0.00010438259856349626 0 0.001428293071674249 0.00010166321342603088 0 0.001428293071674249 0.00010166321342603088 0 0.0014234095271793805 0.00010020087225077594 0 0.0014261164821236696 0.00010130914741861094 0 0.0014249325335643759 0.00010438259856349626 0 0.001428293071674249 0.00010166321342603088 0 0.0014234095271793805 0.00010020087225077594 0 0.0014354217618754717 0.0001027424692671655 0 0.001428293071674249 0.00010166321342603088 0 0.0014261164821236696 0.00010130914741861094 0 0.0014234095271793805 0.00010020087225077594 0 0.0014226391038451498 9.9263526789399267e-05 0 0.0014179934418441936 9.6536107889424823e-05 0 0.0014234095271793805 0.00010020087225077594 0 0.0014226391038451498 9.9263526789399267e-05 0 0.0014261164821236696 0.00010130914741861094 0 0.0014226391038451498 9.9263526789399267e-05 0 0.0014219296502959227 9.8394374407226122e-05 0 0.0014153425746494946 9.0011671918397267e-05 0 0.0014226391038451498 9.9263526789399267e-05 0 0.0014179934418441936 9.6536107889424823e-05 0 0.0014153425746494946 9.0011671918397267e-05 0 0.0014179934418441936 9.6536107889424823e-05 0 0.0014119348382924893 9.8703200801361968e-05 0 0.0014153425746494946 9.0011671918397267e-05 0 0.0014234095271793805 0.00010020087225077594 0 0.0014179934418441936 9.6536107889424823e-05 0 0.0014119348382924893 9.8703200801361968e-05 0 0.00075146944931563911 0.0001538694847725335 0 0.00096220277746956431 0.00013021063517954323 0 0.00047273503296622443 0.00016525864885933342 0 0.00042427261874536967 0.00014605705468528392 0 0.00046875856319993547 0.00013914741932881728 0 0.00075146944931563911 0.0001538694847725335 0 -4.7586680491250203e-05 8.6050017002534991e-05 0 0.0002171529249655873 9.3944707273812793e-05 0 0.00018355289211175737 9.6942166784271298e-05 0 0.00021882772753632564 0.00012707824618519956 0 0.0014183000873050661 0.00010144763448309724 0 0.0014261164821236696 0.00010130914741861094 0 0.0014219296502959227 9.8394374407226122e-05 0 0.0014226391038451498 9.9263526789399267e-05 0 0.0014261164821236696 0.00010130914741861094 0 0.0014219296502959227 9.8394374407226122e-05 0 0.0014261164821236696 0.00010130914741861094 0 0.0014198772305747754 9.912916100109686e-05 0 0.0014259107645666793 9.8451290696922964e-05 0 0.0014354217618754717 0.0001027424692671655 0 0.0014261164821236696 0.00010130914741861094 0 0.0014259107645666793 9.8451290696922964e-05 0 0.00075146944931563911 0.0001538694847725335 0 0.0011641413324439817 8.4097576744130649e-05 0 0.0014183000873050661 0.00010144763448309724 0 0.0014261164821236696 0.00010130914741861094 0 0.0014198772305747754 9.912916100109686e-05 0 0.0011641413324439817 8.4097576744130649e-05 0 0.0011181971728550996 2.7620759545670686e-05 0 0.0014198772305747754 9.912916100109686e-05 0 0.0014243294022857863 9.4809038669783243e-05 0 0.0014213022889570492 9.379607243205064e-05 0 0.0014198772305747754 9.912916100109686e-05 0 0.0014259107645666793 9.8451290696922964e-05 0 0.0014243294022857863 9.4809038669783243e-05 0 0.0014354217618754717 0.0001027424692671655 0 0.0014259107645666793 9.8451290696922964e-05 0 0.0014287579433590863 9.1914210998969952e-05 0 0.0014259107645666793 9.8451290696922964e-05 0 0.0014287579433590863 9.1914210998969952e-05 0 0.0014243294022857863 9.4809038669783243e-05 0 0.0014287579433590863 9.1914210998969952e-05 0 0.0014243294022857863 9.4809038669783243e-05 0 0.0014263795017985565 9.0839929508092337e-05 0 0.0014243294022857863 9.4809038669783243e-05 0 0.0014213022889570492 9.379607243205064e-05 0 0.0014263795017985565 9.0839929508092337e-05 0 0.0014213022889570492 9.379607243205064e-05 0 0.0014263795017985565 9.0839929508092337e-05 0 0.0014225891577382991 8.7511395749353003e-05 0 0.0014263795017985565 9.0839929508092337e-05 0 0.001423957794635191 8.7480279313981553e-05 0 0.0014254790341361422 8.6889768665500704e-05 0 0.0014263795017985565 9.0839929508092337e-05 0 0.001423957794635191 8.7480279313981553e-05 0 0.0014225891577382991 8.7511395749353003e-05 0 0.001463181751062333 5.3759510512445372e-05 0 0.0016338586420724421 0.00012924352449424298 0 0.0018186059280334321 0.00020614425968640675 0 0.0016338586420724421 0.00012924352449424298 0 0.0014263795017985565 9.0839929508092337e-05 0 0.0014287310828926517 9.0458456335613333e-05 0 0.0014287280835878831 9.0794162330751406e-05 0 0.001423957794635191 8.7480279313981553e-05 0 0.0014234102335647987 8.7376158549280623e-05 0 0.0014254790341361422 8.6889768665500704e-05 0 0.0014631127142449181 6.9771240600416658e-05 0 0.0016338586420724421 0.00012924352449424298 0 0.001423957794635191 8.7480279313981553e-05 0 0.0014233679905375778 8.7336949200058579e-05 0 0.0014225891577382991 8.7511395749353003e-05 0 0.0014599506190305647 6.9667447977754605e-05 0 0.0014631127142449181 6.9771240600416658e-05 0 0.0016338586420724421 0.00012924352449424298 0 0.0019757514708473693 0.00040219581699477733 0 0.0016791724077294106 5.7369742306170971e-05 0 0.0016076450281836486 7.7274379376549333e-05 0 0.0017449701593654132 0.00042663374852294154 0 0.001834619209929521 0.00012689232725084904 0 0.0019601450076731745 9.1895518129724889e-05 0 0.0019596451608409394 0.00034285568879299935 0 0.0024089457045643136 0.00045211959912483965 0 0.0023662496632435512 0.00037191930731520704 0 0.0024770460269906312 0.00037796532414035233 0 0.0019601450076731745 9.1895518129724889e-05 0 0.0019596451608409394 0.00034285568879299935 0 0.0021151173609445266 0.00048788385860655515 0 0.0018186059280334321 0.00020614425968640675 0 0.002165625912334569 0.0003575658798394352 0 0.0018186059280334321 0.00020614425968640675 0 0.0021007746355142152 0.00018815160209426109 0 0.0024089457045643136 0.00045211959912483965 0 0.0024770460269906312 0.00037796532414035233 0 0.0025703664883714597 0.00041061570877059004 0 0.0014287579433590863 9.1914210998969952e-05 0 0.0014263795017985565 9.0839929508092337e-05 0 0.0014287310828926517 9.0458456335613333e-05 0 0.001469512093919909 0.00012620373281934505 0 0.0014837253246830298 0.00014284706094791253 0 0.0014677601614939229 0.00013690178275167539 0 0.0013942762545861821 7.3384698035093487e-05 0 0.0018186059280334321 0.00020614425968640675 0 0.0014837253246830298 0.00014284706094791253 0 0.0014677601614939229 0.00013690178275167539 0 0.0014638630500310211 0.00014396440488823815 0 0.0014616687711712241 0.0001314196873895283 0 0.001455991002356873 0.00013122000735102634 0 0.0014638630500310211 0.00014396440488823815 0 0.001738040385090933 0.00012831840335015052 0 0.0021007746355142152 0.00018815160209426109 0 0.001455991002356873 0.00013122000735102634 0 0.0014677601614939229 0.00013690178275167539 0 0.0014638630500310211 0.00014396440488823815 0 0.002166895653914102 0.00012990719755484096 0 0.0020962706550821477 0.00016819937499922081 0 0.0021132892489500398 0.00010840695154794153 0 0.0020962706550821477 0.00016819937499922081 0 0.0021132892489500398 0.00010840695154794153 0 0.0020630832497900431 7.6818596170248336e-05 0 0.002166895653914102 0.00012990719755484096 0 0.0021132892489500398 0.00010840695154794153 0 0.002127410020899913 5.8322999292915189e-05 0 0.0024325985912245799 0.00022199735752075189 0 0.0021007746355142152 0.00018815160209426109 0 0.0021132892489500398 0.00010840695154794153 0 0.002127410020899913 5.8322999292915189e-05 0 0.0020630832497900431 7.6818596170248336e-05 0 0.0027025685355493907 0.00038281950005278955 0 0.0025726726342235684 0.00041559397243893999 0 0.0026314969109612254 0.00034469383021139494 0 0.0025726726342235684 0.00041559397243893999 0 0.0025563757946425992 0.00037001108789972131 0 0.0026314969109612254 0.00034469383021139494 0 0.0024770460269906312 0.00037796532414035233 0 0.0025703664883714597 0.00041061570877059004 0 0.0025563757946425992 0.00037001108789972131 0 0.0021007746355142152 0.00018815160209426109 0 0.002345130123425227 0.00042483957485830721 0 0.0026654415344127846 0.00027297980194341767 0 0.0026314969109612254 0.00034469383021139494 0 0.00248565792861005 0.00028443242487219113 0 0.0030918076876359506 0.00050019534279818301 0 0.0029328769138924939 0.00051068447347659221 0 0.0025563757946425992 0.00037001108789972131 0 0.0026314969109612254 0.00034469383021139494 0 0.00248565792861005 0.00028443242487219113 0 0.0027025685355493907 0.00038281950005278955 0 0.0026654415344127846 0.00027297980194341767 0 0.0026314969109612254 0.00034469383021139494 0 0.0034749293252484448 0.00055211355405034111 0 0.0035256513468483732 0.00060714097763870972 0 0.003414227482516376 0.00061623740573146432 0 0.0035082732367982469 0.00071298478320582631 0 0.0035256513468483732 0.00060714097763870972 0 0.003414227482516376 0.00061623740573146432 0 0.0036126905150269009 0.00064585439091881388 0 0.0035082732367982469 0.00071298478320582631 0 0.0035256513468483732 0.00060714097763870972 0 0.0035082732367982469 0.00071298478320582631 0 0.003414227482516376 0.00061623740573146432 0 0.0033154327324289232 0.00072939841446135469 0 0.003414227482516376 0.00061623740573146432 0 0.0032468594643122331 0.00059077542838192312 0 0.0033154327324289232 0.00072939841446135469 0 0.0032468594643122331 0.00059077542838192312 0 0.0033154327324289232 0.00072939841446135469 0 0.0031039462157791561 0.00073680898720904914 0 0.0032495206982787982 0.00057068684515181956 0 0.0026429956932830442 0.00051435405309590394 0 0.0032468594643122331 0.00059077542838192312 0 0.0031039462157791561 0.00073680898720904914 0 0.0030934917422047047 0.00071870391346071354 0 0.0031465367213582519 0.00052031523179253756 0 0.0029866401865309648 0.00056489094440097829 0 0.0029375869825464342 0.0007137746520758983 0 0.0029328769138924939 0.00051068447347659221 0 0.0025568631330215616 0.00047045741431276945 0 0.0023662496632435512 0.00037191930731520704 0 0.00248565792861005 0.00028443242487219113 0 0.0023232302547240044 0.0002933302118776869 0 0.0019596451608409394 0.00034285568879299935 0 0.0021151173609445266 0.00048788385860655515 0 0.0020850007732630222 0.00055898611733961375 0 0.002165625912334569 0.0003575658798394352 0 0.0025568631330215616 0.00047045741431276945 0 0.0023662496632435512 0.00037191930731520704 0 0.0024770460269906312 0.00037796532414035233 0 0.00248565792861005 0.00028443242487219113 0 0.0024770460269906312 0.00037796532414035233 0 0.0025563757946425992 0.00037001108789972131 0 0.00248565792861005 0.00028443242487219113 0 0.0021742920666465576 0.00041340064210089271 0 0.0021238181299604733 0.00035630732358864458 0 0.0020556427924026421 0.00041704920688716101 0 0.0016846681201906698 0.00023655153804536371 0 0.0016952979533561389 0.00023243243837932267 0 0.0016842076149274239 0.00023516935528963796 0 0.0019572113700158508 0.0003496613488185594 0 0.001869638141917719 0.00032725388538676331 0 0.0017887892156268008 0.00034899993445651733 0 0.0017327784470473873 0.00034755684310349907 0 0.0017488239734334359 0.00038737148854873122 0 0.0019757514708473693 0.00040219581699477733 0 0.002224832433997734 0.00047000907907580289 0 0.0021151173609445266 0.00048788385860655515 0 0.0020850007732630222 0.00055898611733961375 0 0.0021441611125084287 0.00056254947359614773 0 0.0025568631330215616 0.00047045741431276945 0 0.002224832433997734 0.00047000907907580289 0 0.0025568631330215616 0.00047045741431276945 0 0.0026429956932830442 0.00051435405309590394 0 0.0025216160749116034 0.00043172627510564915 0 0.0025534634285190125 0.00043379273994124598 0 0.0025334626478853853 0.00045267926543947172 0 0.002224832433997734 0.00047000907907580289 0 0.0026429956932830442 0.00051435405309590394 0 0.0024898000923595704 0.00047344169709409963 0 0.0024878515917724038 0.00048538664192375561 0 0.0024841088528596649 0.00047898125981632288 0 0.0027467116285797037 0.00060658798456519447 0 0.0026429956932830442 0.00051435405309590394 0 0.002224832433997734 0.00047000907907580289 0 0.0019572113700158508 0.0003496613488185594 0 0.0017887892156268008 0.00034899993445651733 0 0.0017511679124557126 0.00038560642624386668 0 0.0018279810084518219 0.00038101315291558696 0 0.0022342358365307039 0.00041287236014232037 0 0.0021746058169691365 0.00041667172927815308 0 0.0021911302247678102 0.00032087676307612301 0 0.0019857742765893895 0.00051480489946671107 0 0.002224832433997734 0.00047000907907580289 0 0.0019572113700158508 0.0003496613488185594 0 0.0021712592282188562 0.00033993757201022321 0 0.002224832433997734 0.00047000907907580289 0 0.0025895796264837263 0.00044879310582488841 0 0.0029175580811487229 0.00053659508873205291 0 0.0027467116285797037 0.00060658798456519447 0 0.0027467116285797037 0.00060658798456519447 0 0.0025895796264837263 0.00044879310582488841 0 0.0029046629199019403 0.00048584660961690997 0 0.0029866401865309648 0.00056489094440097829 0 0.0029225716161416122 0.00068696643683000339 0 0.0024898000923595704 0.00047344169709409963 0 0.0024878515917724038 0.00048538664192375561 0 0.0025101034318539103 0.00052207221841141824 0 0.0029046629199019403 0.00048584660961690997 0 0.0029179388352688984 0.00068110707410433868 0 0.0028346369905038809 0.00053224620224476651 0 0.0022342358365307039 0.00041287236014232037 0 0.0021911302247678102 0.00032087676307612301 0 0.0021905450050099372 0.00029480749475806455 0 0.0029866401865309648 0.00056489094440097829 0 0.0029225716161416122 0.00068696643683000339 0 0.0029375869825464342 0.0007137746520758983 0 0.0021911302247678102 0.00032087676307612301 0 0.0021905450050099372 0.00029480749475806455 0 0.0021411558780646892 0.00030918662421571333 0 0.0021911302247678102 0.00032087676307612301 0 0.0021411558780646892 0.00030918662421571333 0 0.0021238181299604733 0.00035630732358864458 0 0.0021742920666465576 0.00041340064210089271 0 0.0021911302247678102 0.00032087676307612301 0 0.0021238181299604733 0.00035630732358864458 0 0.0021238181299604733 0.00035630732358864458 0 0.0020856949462612559 0.00029644828183850847 0 0.0020464583916690315 0.00035099395898049996 0 0.0021411558780646892 0.00030918662421571333 0 0.0021238181299604733 0.00035630732358864458 0 0.0020856949462612559 0.00029644828183850847 0 0.0020917653932794465 0.00024714981020820825 0 0.0021411558780646892 0.00030918662421571333 0 0.0020856949462612559 0.00029644828183850847 0 0.0020215169315493412 0.00026103277497171193 0 0.0020856949462612559 0.00029644828183850847 0 0.0020464583916690315 0.00035099395898049996 0 0.0019865349355031501 0.00032863687244420807 0 0.0020464583916690315 0.00035099395898049996 0 0.0019356578755255344 0.00042026652840931297 0 0.0020215169315493412 0.00026103277497171193 0 0.0019865349355031501 0.00032863687244420807 0 0.0020464583916690315 0.00035099395898049996 0 0.0020215169315493412 0.00026103277497171193 0 0.0019865349355031501 0.00032863687244420807 0 0.0019462441653888651 0.00028725538645689918 0 0.0021238181299604733 0.00035630732358864458 0 0.0020464583916690315 0.00035099395898049996 0 0.0020556427924026421 0.00041704920688716101 0 0.0019865349355031501 0.00032863687244420807 0 0.0019462441653888651 0.00028725538645689918 0 0.0019356578755255344 0.00042026652840931297 0 0.0016653098977080648 -6.7026271088149216e-06 0 0.0017251597971574661 0.00014830888431763623 0 0.0016618019267330537 7.3552517432974061e-05 0 0.0017853963471643247 0.00013817586815518892 0 0.0017909008946743305 0.00026772611792037976 0 0.0018819179190331023 0.00027552199661575892 0 0.0019462441653888651 0.00028725538645689918 0 0.0019356578755255344 0.00042026652840931297 0 0.0016764171604458629 0.00012366871754057224 0 0.0017251597971574661 0.00014830888431763623 0 0.0016618019267330537 7.3552517432974061e-05 0 0.0016929821198910157 0.00014959619757826061 0 0.0016764171604458629 0.00012366871754057224 0 0.0017251597971574661 0.00014830888431763623 0 0.0017424524035082494 0.00024507851600621955 0 0.0017909008946743305 0.00026772611792037976 0 0.0017909008946743305 0.00026772611792037976 0 0.0015957024229446353 0.00021201319335560056 0 0.001724782496538814 0.00014898630667627683 0 0.0017128159083211972 0.00019700272710570211 0 0.0017572914685644557 0.00023909824648506048 0 0.0016929821198910157 0.00014959619757826061 0 0.0016798070916145982 0.00018742564367110048 0 0.0016361707517463346 0.00013805622773844381 0 0.0016929821198910157 0.00014959619757826061 0 0.001724782496538814 0.00014898630667627683 0 0.0017128159083211972 0.00019700272710570211 0 0.0016929821198910157 0.00014959619757826061 0 0.0017128159083211972 0.00019700272710570211 0 0.0016798070916145982 0.00018742564367110048 0 0.0016850080014489169 0.00023611484871496611 0 0.0016842076149274239 0.00023516935528963796 0 0.0016840505329425754 0.00023581080526014839 0 0.0016846681201906698 0.00023655153804536371 0 0.0016842076149274239 0.00023516935528963796 0 0.0016840505329425754 0.00023581080526014839 0 0.0017909008946743305 0.00026772611792037976 0 0.001869638141917719 0.00032725388538676331 0 0.0020464583916690315 0.00035099395898049996 0 0.0019356578755255344 0.00042026652840931297 0 0.0020556427924026421 0.00041704920688716101 0 0.0012249020435160809 0.00013074920232133581 0 0.0012502565819613449 0.00014948534238659099 0 0.0012724579240497309 0.00014142578850918165 0 0.0016846681201906698 0.00023655153804536371 0 0.0016660881397218264 0.00024145244692315882 0 0.0016675460016380686 0.00024517421178624281 0 0.0017078189683686284 0.00023251313211542545 0 0.0015957024229446353 0.00021201319335560056 0 0.0014202236338149619 0.00016780083941504617 0 0.0015191155011863098 0.00016942822511905483 0 0.0016846681201906698 0.00023655153804536371 0 0.0016675460016380686 0.00024517421178624281 0 0.0016917374607523154 0.00024966788839133036 0 0.0011892369118408814 9.3134465073973181e-05 0 0.0011961000552657484 0.00013769390574862225 0 0.0011431397547477904 0.00011039827832112705 0 0.0017128159083211972 0.00019700272710570211 0 0.0016798070916145982 0.00018742564367110048 0 0.0017181533491445005 0.0002545586709841227 0 0.0016798070916145982 0.00018742564367110048 0 0.0017181533491445005 0.0002545586709841227 0 0.0016388558699608269 0.00019700690730296939 0 0.0017128159083211972 0.00019700272710570211 0 0.0017181533491445005 0.0002545586709841227 0 0.0017572914685644557 0.00023909824648506048 0 0.0015333070836375169 0.00021815643340088628 0 0.0015957024229446353 0.00021201319335560056 0 0.0015327652643423648 0.00022038486684080956 0 0.0015232399215647353 0.00022395443679950269 0 0.0015206823870796493 0.00021735612553428518 0 0.0015957024229446353 0.00021201319335560056 0 0.0014202236338149619 0.00016780083941504617 0 0.0011892369118408814 9.3134465073973181e-05 0 0.0012124372163359238 9.8775878033544338e-05 0 0.0011961000552657484 0.00013769390574862225 0 0.0015333070836375169 0.00021815643340088628 0 0.0014202236338149619 0.00016780083941504617 0 0.0015333070836375169 0.00021815643340088628 0 0.0013938770876168783 0.00019163969552548241 0 0.0011961000552657484 0.00013769390574862225 0 0.0012311280753646956 0.00016934209515257886 0 0.0011643860881117543 0.00018738386404854867 0 0.0011961000552657484 0.00013769390574862225 0 0.0011643860881117543 0.00018738386404854867 0 0.0011431397547477904 0.00011039827832112705 0 0.0012347086855378309 0.0001673037605658769 0 0.0012693833575962957 0.00015927444074994633 0 0.0012311280753646956 0.00016934209515257886 0 0.0012124372163359238 9.8775878033544338e-05 0 0.0011961000552657484 0.00013769390574862225 0 0.0012347086855378309 0.0001673037605658769 0 0.0012249020435160809 0.00013074920232133581 0 0.0012502565819613449 0.00014948534238659099 0 0.0012347086855378309 0.0001673037605658769 0 0.0014202236338149619 0.00016780083941504617 0 0.0011897818129074681 0.00012884176283785813 0 0.0011961000552657484 0.00013769390574862225 0 0.0012347086855378309 0.0001673037605658769 0 0.0012311280753646956 0.00016934209515257886 0 0.0010138372062971151 4.5310634444841821e-05 0 0.0010376730302963991 7.4159970310005025e-05 0 0.0012502565819613449 0.00014948534238659099 0 0.0012347086855378309 0.0001673037605658769 0 0.0012693833575962957 0.00015927444074994633 0 0.0010138372062971151 4.5310634444841821e-05 0 0.0015191155011863098 0.00016942822511905483 0 0.0012502565819613449 0.00014948534238659099 0 0.0012693833575962957 0.00015927444074994633 0 0.0012724579240497309 0.00014142578850918165 0 0.0016846681201906698 0.00023655153804536371 0 0.0016952979533561389 0.00023243243837932267 0 0.0016917374607523154 0.00024966788839133036 0 0.0019572113700158508 0.0003496613488185594 0 0.0015191155011863098 0.00016942822511905483 0 0.0017887892156268008 0.00034899993445651733 0 0.0018279810084518219 0.00038101315291558696 0 0.0018573746666976578 0.00016505720908967009 0 0.0017887892156268008 0.00034899993445651733 0 0.0018573746666976578 0.00016505720908967009 0 0.0017069531127813075 0.00012107292064486757 0 0.0017887892156268008 0.00034899993445651733 0 0.0017327784470473873 0.00034755684310349907 0 0.0017069531127813075 0.00012107292064486757 0 0.0019757514708473693 0.00040219581699477733 0 0.0013785986606038463 5.2032019326522078e-05 0 0.0016791724077294106 5.7369742306170971e-05 0 0.0017449701593654132 0.00042663374852294154 0 0.0017065203277980142 4.9746240670372257e-05 0 0.00077983825264078095 -6.6133233091859276e-05 0 0.00084779288320279377 -8.5145669954235384e-05 0 0.00080262681677687364 -3.8888563348964521e-05 0 0.0010138372062971151 4.5310634444841821e-05 0 0.0013785986606038463 5.2032019326522078e-05 0 0.0015191155011863098 0.00016942822511905483 0 0.0013785986606038463 5.2032019326522078e-05 0 0.0012644468326727634 9.4072506829270518e-05 0 0.0012735969881493632 4.1644776960350349e-05 0 0.0013623413097336469 6.6836756596684862e-05 0 0.0014631127142449181 6.9771240600416658e-05 0 0.0013785986606038463 5.2032019326522078e-05 0 0.00085140515418280309 -1.2336243367145238e-05 0 0.00084779288320279377 -8.5145669954235384e-05 0 0.00080262681677687364 -3.8888563348964521e-05 0 0.0011181971728550996 2.7620759545670686e-05 0 0.0013785986606038463 5.2032019326522078e-05 0 0.00085140515418280309 -1.2336243367145238e-05 0 0.00080262681677687364 -3.8888563348964521e-05 0 0.00080500006955818663 -3.9828182097356165e-06 0 0.00077983825264078095 -6.6133233091859276e-05 0 0.00080262681677687364 -3.8888563348964521e-05 0 0.00076983390100464962 -2.1974621534475294e-06 0 0.0008271988167664068 -2.6804292082691491e-05 0 0.00081486923924575945 3.7861751768520653e-05 0 0.00077260842554092784 3.1424722208560604e-05 0 0.0010138372062971151 4.5310634444841821e-05 0 0.00078091970216750137 -7.3659812611114111e-06 0 0.00079353683369174787 -2.9595812111876242e-05 0 0.00078091970216750137 -7.3659812611114111e-06 0 0.00080262681677687364 -3.8888563348964521e-05 0 0.00080500006955818663 -3.9828182097356165e-06 0 0.00075782757436807077 1.2414184951140165e-06 0 0.00078091970216750137 -7.3659812611114111e-06 0 0.00075171739288153281 4.5756682886326134e-05 0 0.00078091970216750137 -7.3659812611114111e-06 0 0.00047686945147637217 2.8387427035669556e-05 0 0.00075782757436807077 1.2414184951140165e-06 0 0.00074569830237638092 5.0858885443233416e-05 0 0.00080648204008856785 3.466070147937205e-05 0 0.00074569830237638092 5.0858885443233416e-05 0 0.00080648204008856785 3.466070147937205e-05 0 0.00079562193083979711 6.5817531566823894e-05 0 0.00075405958133775459 -2.8969117641536129e-06 0 0.00074569830237638092 5.0858885443233416e-05 0 0.00070387243873273463 5.1946805038223049e-05 0 0.00085587245221241024 6.6293875841433677e-05 0 0.00085140515418280309 -1.2336243367145238e-05 0 0.00080648204008856785 3.466070147937205e-05 0 0.00085587245221241024 6.6293875841433677e-05 0 0.00080648204008856785 3.466070147937205e-05 0 0.00079562193083979711 6.5817531566823894e-05 0 0.00085140515418280309 -1.2336243367145238e-05 0 0.00080500006955818663 -3.9828182097356165e-06 0 0.00080648204008856785 3.466070147937205e-05 0 0.00080500006955818663 -3.9828182097356165e-06 0 0.00075782757436807077 1.2414184951140165e-06 0 0.00080648204008856785 3.466070147937205e-05 0 0.00085587245221241024 6.6293875841433677e-05 0 0.00079562193083979711 6.5817531566823894e-05 0 0.00077321705864463795 0.00011109426034024863 0 0.00086044972395259405 0.00014671054454164407 0 0.00085587245221241024 6.6293875841433677e-05 0 0.00077321705864463795 0.00011109426034024863 0 0.00015042845390230472 5.5545482655788936e-05 0 -0.00020955054125906041 4.1825297235644918e-05 0 0.00074569830237638092 5.0858885443233416e-05 0 0.00077321705864463795 0.00011109426034024863 0 0.00070387243873273463 5.1946805038223049e-05 0 0.00015042845390230472 5.5545482655788936e-05 0 0.00047686945147637217 2.8387427035669556e-05 0 0.00074569830237638092 5.0858885443233416e-05 0 0.00079562193083979711 6.5817531566823894e-05 0 0.00077321705864463795 0.00011109426034024863 0 -0.00047559996150142058 -9.6751761883270264e-06 0 -0.00047627095676768406 -1.0945071668521396e-05 0 -0.0004806582176220686 -9.59172819215835e-06 0 -0.00047627095676768406 -1.0945071668521396e-05 0 -0.00047673467623123559 -1.2210367819229757e-05 0 -0.0004806582176220686 -9.59172819215835e-06 0 0.00075146944931563911 0.0001538694847725335 0 0.00015042845390230472 5.5545482655788936e-05 0 0.0002171529249655873 9.3944707273812793e-05 0 0.00014750338913085208 6.6519689339625005e-05 0 0.00018355289211175737 9.6942166784271298e-05 0 -0.00047559996150142058 -9.6751761883270264e-06 0 -0.00047571601089281443 -1.0177738050658692e-05 0 -0.0004806582176220686 -9.59172819215835e-06 0 -0.00017964029832588709 5.3443322871701009e-06 0 -4.7586680491250203e-05 8.6050017002534991e-05 0 0.00015042845390230472 5.5545482655788936e-05 0 -0.00017964029832588709 5.3443322871701009e-06 0 -0.00047528028582423105 -1.2185427215744139e-05 0 -0.00047568164380499986 -1.896578727608191e-05 0 -0.0004767765559396314 -1.4787538315736365e-05 0 -0.00052191501835591257 1.7465439932522652e-05 0 -0.00047127013120581176 -2.6261320699938774e-05 0 -0.00047627095676768406 -1.0945071668521396e-05 0 -0.00047673467623123559 -1.2210367819229757e-05 0 -0.0004767765559396314 -1.4787538315736365e-05 0 -0.00047528028582423105 -1.2185427215744139e-05 0 -0.00047627095676768406 -1.0945071668521396e-05 0 -0.0004767765559396314 -1.4787538315736365e-05 0 -0.00047559996150142058 -9.6751761883270264e-06 0 -0.00047627095676768406 -1.0945071668521396e-05 0 -0.00047378195952298445 -9.6368249785843633e-06 0 0.00017308465182838104 4.3267452338545368e-05 0 0.00014372691393996575 3.2177520184032419e-05 0 0.00015126039678744417 2.4761256878808083e-05 0 -0.00047528028582423105 -1.2185427215744139e-05 0 -0.00047627095676768406 -1.0945071668521396e-05 0 -0.00047378195952298445 -9.6368249785843633e-06 0 -0.00020955054125906041 4.1825297235644918e-05 0 0.00047686945147637217 2.8387427035669556e-05 0 -0.00020955054125906041 4.1825297235644918e-05 0 -0.00017168280917165886 4.0085792524888699e-05 0 -0.00051478986537947032 -7.8301548224878544e-07 0 -0.00055562725167290306 4.3028871478304595e-05 0 -0.00051480451860195175 6.4899186822925541e-05 0 -0.00051478986537947032 -7.8301548224878544e-07 0 -0.00051480451860195175 6.4899186822925541e-05 0 -0.00047334411915776341 3.3544988106385433e-05 0 -0.00052191501835591257 1.7465439932522652e-05 0 -0.00020955054125906041 4.1825297235644918e-05 0 0.00020983986338219069 2.5360214686002046e-05 0 0.00020493356619890918 4.8909034739163554e-05 0 0.00024531784272493372 4.2716499166908731e-05 0 0.00015264276037570541 -1.1175252207242037e-06 0 0.00020983986338219069 2.5360214686002046e-05 0 0.00018038882432514544 3.0957647243098766e-05 0 0.00018038882432514544 3.0957647243098766e-05 0 0.00017793890092413154 6.2008914947954267e-05 0 0.00016148939639397254 2.7937149214551468e-05 0 0.00020983986338219069 2.5360214686002046e-05 0 0.00018038882432514544 3.0957647243098766e-05 0 0.00020493356619890918 4.8909034739163554e-05 0 0.00018038882432514544 3.0957647243098766e-05 0 0.00017793890092413154 6.2008914947954267e-05 0 0.00020493356619890918 4.8909034739163554e-05 0 0.00017793890092413154 6.2008914947954267e-05 0 0.00013462681505363648 2.0270012362903538e-05 0 0.00016148939639397254 2.7937149214551468e-05 0 0.00015264276037570541 -1.1175252207242037e-06 0 0.00013462681505363648 2.0270012362903538e-05 0 0.00016148939639397254 2.7937149214551468e-05 0 0.00015264276037570541 -1.1175252207242037e-06 0 0.00018038882432514544 3.0957647243098766e-05 0 0.00016148939639397254 2.7937149214551468e-05 0 0.00043114823396093733 3.0885327628059217e-05 0 0.00047686945147637217 2.8387427035669556e-05 0 0.00073227669303960489 4.5971850577553124e-05 0 0.00077238872719171856 8.1599840960808331e-05 0 0.00077260842554092784 3.1424722208560604e-05 0 0.00081486923924575945 3.7861751768520653e-05 0 0.00077238872719171856 8.1599840960808331e-05 0 0.00077260842554092784 3.1424722208560604e-05 0 0.0008271988167664068 -2.6804292082691491e-05 0 0.00077260842554092784 3.1424722208560604e-05 0 0.00075913206549864517 -8.2255319171373895e-06 0 0.00073227669303960489 4.5971850577553124e-05 0 0.00077260842554092784 3.1424722208560604e-05 0 0.00075913206549864517 -8.2255319171373895e-06 0 0.00073227669303960489 4.5971850577553124e-05 0 0.00075913206549864517 -8.2255319171373895e-06 0 0.00069203429747629946 1.090527731691866e-05 0 0.0010376730302963991 7.4159970310005025e-05 0 0.00072396528173242236 0.00010059576014463704 0 0.00017793890092413154 6.2008914947954267e-05 0 0.00020493356619890918 4.8909034739163554e-05 0 0.00024901414544201128 0.00012885507731179172 0 0.00043114823396093733 3.0885327628059217e-05 0 0.00072396528173242236 0.00010059576014463704 0 0.00072396528173242236 0.00010059576014463704 0 0.00046623917423983758 6.8520487191042149e-05 0 0.00024901414544201128 0.00012885507731179172 0 0.0004237439012168869 8.1839574635589953e-05 0 0.00031726509152436432 3.8042421226000165e-05 0 0.00078706643071418448 9.5455103729776504e-05 0 0.0007191274105492675 8.0028205625680979e-05 0 0.00071505858310076144 0.0001149734844394153 0 -0.00037359191125881509 5.9334283909883516e-05 0 -8.0265254788002374e-05 -3.0243095273976949e-05 0 -3.2127440479351086e-05 0.0001358595174445623 0 0.00026525252794241505 3.4468144476515247e-05 0 0.00020258213006429032 9.0692782014133518e-06 0 0.00029475824276126828 3.0500666458007992e-06 0 4.390796864898013e-05 4.6589343420754227e-05 0 9.0112385717799843e-05 6.7038371039925337e-05 0 -0.00037359191125881509 5.9334283909883516e-05 0 -0.00047315512538314278 0.0001277678613061825 0 -3.2127440479351086e-05 0.0001358595174445623 0 0.00046623917423983758 6.8520487191042149e-05 0 4.390796864898013e-05 4.6589343420754227e-05 0 -0.00051480451860195175 6.4899186822925541e-05 0 -0.00047315512538314278 0.0001277678613061825 0 -0.00047334411915776341 3.3544988106385433e-05 0 0.0002954139311173917 4.1383760453947981e-05 0 4.390796864898013e-05 4.6589343420754227e-05 0 0.00020493356619890918 4.8909034739163554e-05 0 0.00024901414544201128 0.00012885507731179172 0 0.00031726509152436432 3.8042421226000165e-05 0 -0.00017168280917165886 4.0085792524888699e-05 0 4.390796864898013e-05 4.6589343420754227e-05 0 -0.00037359191125881509 5.9334283909883516e-05 0 -0.00047315512538314278 0.0001277678613061825 0 -0.00047334411915776341 3.3544988106385433e-05 0 -0.00051478986537947032 -7.8301548224878544e-07 0 -0.00047334411915776341 3.3544988106385433e-05 0 -0.00047174491725751155 -3.7509920378882085e-06 0 -0.00047334411915776341 3.3544988106385433e-05 0 -0.00044494275462130873 6.7713528026298975e-06 0 -0.00047174491725751155 -3.7509920378882085e-06 0 -0.00047334411915776341 3.3544988106385433e-05 0 -0.00044494275462130873 6.7713528026298975e-06 0 -0.00042496029350772653 2.2223366147279756e-05 0 -0.00037359191125881509 5.9334283909883516e-05 0 -0.00047334411915776341 3.3544988106385433e-05 0 -0.00042496029350772653 2.2223366147279756e-05 0 -0.00037359191125881509 5.9334283909883516e-05 0 -0.00043352375375277396 1.5427185139994703e-06 0 -0.00044421252082560431 -1.1209804543458639e-05 0 -0.00037942678225325347 5.869153106903329e-05 0 -0.00025916152516194458 -0.0001440411575667151 0 -0.00037359191125881509 5.9334283909883516e-05 0 -7.937318322307575e-05 -0.00024071972989405925 0 -8.0265254788002374e-05 -3.0243095273976949e-05 0 -0.00037359191125881509 5.9334283909883516e-05 0 -0.00042496029350772653 2.2223366147279756e-05 0 -0.00043352375375277396 1.5427185139994703e-06 0 -0.00044494275462130873 6.7713528026298975e-06 0 -0.00042496029350772653 2.2223366147279756e-05 0 -0.00043352375375277396 1.5427185139994703e-06 0 -0.00044494275462130873 6.7713528026298975e-06 0 -0.00043352375375277396 1.5427185139994703e-06 0 -0.00045258088674919182 -7.1055405628327075e-06 0 -0.00043352375375277396 1.5427185139994703e-06 0 -0.00045258088674919182 -7.1055405628327075e-06 0 -0.00044940149964120573 -1.1105492958903217e-05 0 -0.00044940149964120573 -1.1105492958903217e-05 0 -0.00045829978253062668 -1.6403560543787912e-05 0 -0.00044421252082560431 -1.1209804543458639e-05 0 -0.00043352375375277396 1.5427185139994703e-06 0 -0.00044940149964120573 -1.1105492958903217e-05 0 -0.00044421252082560431 -1.1209804543458639e-05 0 -0.00044940149964120573 -1.1105492958903217e-05 0 -0.00045829978253062668 -1.6403560543787912e-05 0 -0.00046645627972769887 -1.9897249233242666e-05 0 -0.00045258088674919182 -7.1055405628327075e-06 0 -0.00044940149964120573 -1.1105492958903217e-05 0 -0.00046657628477206705 -1.6811445268483626e-05 0 -0.00044940149964120573 -1.1105492958903217e-05 0 -0.00046657628477206705 -1.6811445268483626e-05 0 -0.00046533847221454084 -1.9231556136522474e-05 0 -0.00046657628477206705 -1.6811445268483626e-05 0 -0.00047568164380499986 -1.896578727608191e-05 0 -0.00047174491725751155 -3.7509920378882085e-06 0 -0.00051478986537947032 -7.8301548224878544e-07 0 -0.00047568164380499986 -1.896578727608191e-05 0 -0.00047174491725751155 -3.7509920378882085e-06 0 -0.00044494275462130873 6.7713528026298975e-06 0 -0.00045258088674919182 -7.1055405628327075e-06 0 -0.00047174491725751155 -3.7509920378882085e-06 0 -0.00045258088674919182 -7.1055405628327075e-06 0 -0.00046657628477206705 -1.6811445268483626e-05 0 -0.00047174491725751155 -3.7509920378882085e-06 0 0.00011926025664073433 -0.00017528708796235882 0 -0.00013511544168256942 -0.00010123549971369505 0 9.3061718627733772e-05 -2.0174965761310367e-07 0 0.00013539903664330205 -3.4108279860306925e-05 0 4.9633049057962388e-05 6.0349909623578255e-07 0 -0.00025916152516194458 -0.0001440411575667151 0 -0.00013511544168256942 -0.00010123549971369505 0 0.00010419232597947184 -0.00025697355116600787 0 -7.937318322307575e-05 -0.00024071972989405925 0 0.00015488319588721145 -0.00050299979767481689 0 -0.00045829978253062668 -1.6403560543787912e-05 0 -0.00044421252082560431 -1.1209804543458639e-05 0 -0.00047463922341075751 -2.3184996576443635e-05 0 0.00011926025664073433 -0.00017528708796235882 0 7.379755179921385e-05 2.5447494867079676e-05 0 0.00010419232597947184 -0.00025697355116600787 0 3.6082073101867598e-06 -0.00012713917512135301 0 6.8560399063428184e-05 2.6083595255051112e-05 0 0.00010419232597947184 -0.00025697355116600787 0 -7.937318322307575e-05 -0.00024071972989405925 0 3.6082073101867598e-06 -0.00012713917512135301 0 -7.937318322307575e-05 -0.00024071972989405925 0 3.6082073101867598e-06 -0.00012713917512135301 0 -8.0265254788002374e-05 -3.0243095273976949e-05 0 3.6082073101867598e-06 -0.00012713917512135301 0 -8.0265254788002374e-05 -3.0243095273976949e-05 0 6.8560399063428184e-05 2.6083595255051112e-05 0 0.0001815020654587199 -2.3092807098431787e-05 0 0.0003644393618814761 2.4280570961674654e-07 0 6.8560399063428184e-05 2.6083595255051112e-05 0 9.3061718627733772e-05 -2.0174965761310367e-07 0 0.0001815020654587199 -2.3092807098431787e-05 0 0.0003644393618814761 2.4280570961674654e-07 0 9.3061718627733772e-05 -2.0174965761310367e-07 0 0.00013539903664330205 -3.4108279860306925e-05 0 0.0001815020654587199 -2.3092807098431787e-05 0 0.00013539903664330205 -3.4108279860306925e-05 0 0.0001815020654587199 -2.3092807098431787e-05 0 6.8560399063428184e-05 2.6083595255051112e-05 0 0.00036476683449677841 2.2725992223538515e-08 0 9.0112385717799843e-05 6.7038371039925337e-05 0 0.0003644393618814761 2.4280570961674654e-07 0 -3.2127440479351086e-05 0.0001358595174445623 0 6.8560399063428184e-05 2.6083595255051112e-05 0 0.0003826789054760507 1.338503232516526e-09 0 0.00039455448997645256 9.0933041149145653e-06 0 0.0003821066627002154 1.7113829846629003e-07 0 0.00036531543684015184 -1.6988257616843323e-07 0 0.00032015933145321295 1.5890996368914988e-05 0 0.00036531543684015184 -1.6988257616843323e-07 0 0.00029475824276126828 3.0500666458007992e-06 0 0.00032015933145321295 1.5890996368914988e-05 0 0.00038306128377299043 2.4380178827473005e-10 0 0.00049591783092742064 1.595194606477052e-06 0 0.00049179453154149055 -1.2139442071455768e-05 0 0.00046623917423983758 6.8520487191042149e-05 0 0.00039455448997645256 9.0933041149145653e-06 0 0.00026525252794241505 3.4468144476515247e-05 0 0.00029475824276126828 3.0500666458007992e-06 0 0.00032015933145321295 1.5890996368914988e-05 0 -8.0265254788002374e-05 -3.0243095273976949e-05 0 -3.2127440479351086e-05 0.0001358595174445623 0 6.8560399063428184e-05 2.6083595255051112e-05 0 0.00049705680692593791 -1.326795210228831e-06 0 0.00049591783092742064 1.595194606477052e-06 0 0.0004881627198447559 -5.1215492787564371e-06 0 0.0007191274105492675 8.0028205625680979e-05 0 0.00067722923524527997 9.9311504430864753e-05 0 0.00068650120291274808 6.5243754427274015e-05 0 0.0007191274105492675 8.0028205625680979e-05 0 0.00071505858310076144 0.0001149734844394153 0 0.00067722923524527997 9.9311504430864753e-05 0 0.00046623917423983758 6.8520487191042149e-05 0 0.00059879871452967371 5.4670711010894973e-05 0 0.00067722923524527997 9.9311504430864753e-05 0 0.00063840120213768889 8.2908636028052694e-05 0 0.00068650120291274808 6.5243754427274015e-05 0 0.00038306128377299043 2.4380178827473005e-10 0 0.00049179453154149055 -1.2139442071455768e-05 0 0.00058712154284270863 1.0117559065084384e-09 0 0.00049591783092742064 1.595194606477052e-06 0 0.0004881627198447559 -5.1215492787564371e-06 0 0.00049179453154149055 -1.2139442071455768e-05 0 0.0004881627198447559 -5.1215492787564371e-06 0 0.00049179453154149055 -1.2139442071455768e-05 0 0.0005322928150458203 1.9399541749453944e-05 0 0.00059879871452967371 5.4670711010894973e-05 0 0.00062623006043417012 1.9917186321479349e-05 0 0.00049179453154149055 -1.2139442071455768e-05 0 0.0005322928150458203 1.9399541749453944e-05 0 0.00058712154284270863 1.0117559065084384e-09 0 0.00062623006043417012 1.9917186321479349e-05 0 0.00058757122427232115 5.469972171325089e-08 0 0.00060441633910260871 1.4992710009831039e-08 0 0.0006220249867010956 -6.5930497434215132e-11 0 0.00058765943761414743 7.5884095664341714e-11 0 0.00062623006043417012 1.9917186321479349e-05 0 0.00062215653298973688 3.8029772542018934e-08 0 0.00069974446629701573 3.1977172686469612e-05 0 0.00078005643625454074 -1.3066097021174364e-05 0 0.00082655137306402446 1.0045922727760064e-05 0 0.00069974446629701573 3.1977172686469612e-05 0 0.00062242980079055211 1.4450744029270507e-07 0 0.00078005643625454074 -1.3066097021174364e-05 0 0.00062242980079055211 1.4450744029270507e-07 0 0.00078005643625454074 -1.3066097021174364e-05 0 0.00086713030297457655 -1.360363113236995e-07 0 0.00062623006043417012 1.9917186321479349e-05 0 0.00071653883280328875 4.4076846774321088e-05 0 0.00078005643625454074 -1.3066097021174364e-05 0 0.00086713030297457655 -1.360363113236995e-07 0 0.00083955094276654625 -9.2248887899442828e-06 0 0.00083955094276654625 -9.2248887899442828e-06 0 0.00082655137306402446 1.0045922727760064e-05 0 0.00084768623679429972 5.6730825927949348e-06 0 0.00078005643625454074 -1.3066097021174364e-05 0 0.00083955094276654625 -9.2248887899442828e-06 0 0.00082655137306402446 1.0045922727760064e-05 0 0.0011275631686473006 0.00010579476555999536 0 0.0010839756828233259 0.00013483945662207868 0 0.0007191274105492675 8.0028205625680979e-05 0 0.00068650120291274808 6.5243754427274015e-05 0 0.00073460333026890122 4.8099746640219142e-05 0 0.00071653883280328875 4.4076846774321088e-05 0 0.0010839756828233259 0.00013483945662207868 0 0.0011643860881117543 0.00018738386404854867 0 0.0010976656038250213 0.00012768757800234146 0 0.0011431397547477904 0.00011039827832112705 0 0.00072396528173242236 0.00010059576014463704 0 0.0010839756828233259 0.00013483945662207868 0 0.00078706643071418448 9.5455103729776504e-05 0 0.0007191274105492675 8.0028205625680979e-05 0 0.00073460333026890122 4.8099746640219142e-05 0 0.0010839756828233259 0.00013483945662207868 0 0.0013938770876168783 0.00019163969552548241 0 0.001705119913817362 0.00025705998519026191 0 0.0016180471127460771 0.00029164301772384763 0 0.0015702818498198319 0.00022182693443789758 0 0.0015333070836375169 0.00021815643340088628 0 0.0016502075717704828 0.00024008107322393143 0 0.0017181533491445005 0.0002545586709841227 0 0.0015702818498198319 0.00022182693443789758 0 0.0016388558699608269 0.00019700690730296939 0 0.0015239240781899899 0.00033302680605061486 0 0.0016180471127460771 0.00029164301772384763 0 0.0015702818498198319 0.00022182693443789758 0 0.0015239240781899899 0.00033302680605061486 0 0.0015702818498198319 0.00022182693443789758 0 0.0015146597863503486 0.00016782049016188583 0 0.001375792707230028 0.00021816619069082635 0 0.0015239240781899899 0.00033302680605061486 0 0.0015146597863503486 0.00016782049016188583 0 0.0014712663970459221 9.7712391690329086e-05 0 0.0015146597863503486 0.00016782049016188583 0 0.0015784106096471411 9.8849224859753486e-05 0 0.0015702818498198319 0.00022182693443789758 0 0.0015146597863503486 0.00016782049016188583 0 0.0015877059497770199 0.00016467947781324607 0 0.0015146597863503486 0.00016782049016188583 0 0.0015877059497770199 0.00016467947781324607 0 0.0015784106096471411 9.8849224859753486e-05 0 0.0016798070916145982 0.00018742564367110048 0 0.0016388558699608269 0.00019700690730296939 0 0.0016361707517463346 0.00013805622773844381 0 0.0016388558699608269 0.00019700690730296939 0 0.0015877059497770199 0.00016467947781324607 0 0.0016361707517463346 0.00013805622773844381 0 0.0015702818498198319 0.00022182693443789758 0 0.0016388558699608269 0.00019700690730296939 0 0.0015877059497770199 0.00016467947781324607 0 0.0015877059497770199 0.00016467947781324607 0 0.0015784106096471411 9.8849224859753486e-05 0 0.0016361707517463346 0.00013805622773844381 0 0.0016764171604458629 0.00012366871754057224 0 0.0016361707517463346 0.00013805622773844381 0 0.0016618019267330537 7.3552517432974061e-05 0 0.0016929821198910157 0.00014959619757826061 0 0.0016764171604458629 0.00012366871754057224 0 0.0016361707517463346 0.00013805622773844381 0 0.0015784106096471411 9.8849224859753486e-05 0 0.0016361707517463346 0.00013805622773844381 0 0.0016618019267330537 7.3552517432974061e-05 0 0.0015784106096471411 9.8849224859753486e-05 0 0.0016618019267330537 7.3552517432974061e-05 0 0.0016089097033487297 2.4391719625451836e-05 0 0.0016018821658556059 -2.4081589812835161e-05 0 0.0016089097033487297 2.4391719625451836e-05 0 0.0015386456206246174 5.2630482754621701e-06 0 0.0015784106096471411 9.8849224859753486e-05 0 0.0016089097033487297 2.4391719625451836e-05 0 0.0015386456206246174 5.2630482754621701e-06 0 0.0016653098977080648 -6.7026271088149216e-06 0 0.0016018821658556059 -2.4081589812835161e-05 0 0.0016089097033487297 2.4391719625451836e-05 0 0.0016653098977080648 -6.7026271088149216e-06 0 0.0016618019267330537 7.3552517432974061e-05 0 0.0016089097033487297 2.4391719625451836e-05 0 0.0014712663970459221 9.7712391690329086e-05 0 0.0015386456206246174 5.2630482754621701e-06 0 0.0013923028956745319 -6.3708633985035931e-06 0 0.0014712663970459221 9.7712391690329086e-05 0 0.0015784106096471411 9.8849224859753486e-05 0 0.0015386456206246174 5.2630482754621701e-06 0 0.0013479658095912614 -1.7658472217329904e-07 0 0.0013923028956745319 -6.3708633985035931e-06 0 0.0011125667992979416 3.7000757717161085e-07 0 0.00086713030297457655 -1.360363113236995e-07 0 0.00083955094276654625 -9.2248887899442828e-06 0 0.0011116750618185526 1.3286310258749963e-07 0 0.0011275631686473006 0.00010579476555999536 0 0.0011119577083659115 -1.1196151441453538e-08 0 0.001375792707230028 0.00021816619069082635 0 0.0013923028956745319 -6.3708633985035931e-06 0 0.0011125667992979416 3.7000757717161085e-07 0 0.001375792707230028 0.00021816619069082635 0 0.0014712663970459221 9.7712391690329086e-05 0 0.0013923028956745319 -6.3708633985035931e-06 0 0.001375792707230028 0.00021816619069082635 0 0.0014712663970459221 9.7712391690329086e-05 0 0.0015146597863503486 0.00016782049016188583 0 0.0039195100893097889 -2.2814654596124889e-05 0 0.0038658475255506242 1.1347777964488772e-05 0 0.0038801580305355765 -5.6672409250962182e-05 0 0.0039195100893097889 -2.2814654596124889e-05 0 0.0038658475255506242 1.1347777964488772e-05 0 0.0039098343320463228 1.2889587453237703e-05 0 0.0038658475255506242 1.1347777964488772e-05 0 0.0039098343320463228 1.2889587453237703e-05 0 0.0038963068160161362 1.8954485742070198e-05 0 0.0039195100893097889 -2.2814654596124889e-05 0 0.0039098343320463228 1.2889587453237703e-05 0 0.0039552073932059319 -1.1945880088077766e-05 0 0.0039552073932059319 -1.1945880088077766e-05 0 0.0039929632432563747 -3.4164621891760643e-05 0 0.0039594278141806523 -3.7357686902403327e-05 0 0.0039552073932059319 -1.1945880088077766e-05 0 0.0039929632432563747 -3.4164621891760643e-05 0 0.0040180428241329228 1.0134729242198093e-05 0 0.0039929632432563747 -3.4164621891760643e-05 0 0.0039837168345247332 -5.6931959524759019e-05 0 0.0040259239695832946 -5.5566880897824773e-05 0 0.0039929632432563747 -3.4164621891760643e-05 0 0.0040180428241329228 1.0134729242198093e-05 0 0.0040259239695832946 -5.5566880897824773e-05 0 0.0039929632432563747 -3.4164621891760643e-05 0 0.0039837168345247332 -5.6931959524759019e-05 0 0.0039594278141806523 -3.7357686902403327e-05 0 0.0039195100893097889 -2.2814654596124889e-05 0 0.0039552073932059319 -1.1945880088077766e-05 0 0.0039594278141806523 -3.7357686902403327e-05 0 0.0039837168345247332 -5.6931959524759019e-05 0 0.0039594278141806523 -3.7357686902403327e-05 0 0.0039434946163530386 -6.391314745938499e-05 0 0.0039195100893097889 -2.2814654596124889e-05 0 0.0039594278141806523 -3.7357686902403327e-05 0 0.0039434946163530386 -6.391314745938499e-05 0 0.0039837168345247332 -5.6931959524759019e-05 0 0.0039434946163530386 -6.391314745938499e-05 0 0.0039647478597682499 -8.0506590119367073e-05 0 0.0039837168345247332 -5.6931959524759019e-05 0 0.0039777650341063795 -7.7907252227088267e-05 0 0.0039647478597682499 -8.0506590119367073e-05 0 0.0039777650341063795 -7.7907252227088267e-05 0 0.0039674640694519247 -0.00010118740244968112 0 0.0039701532571792472 -9.2191246910837722e-05 0 0.0039777650341063795 -7.7907252227088267e-05 0 0.0039647478597682499 -8.0506590119367073e-05 0 0.0039674640694519247 -0.00010118740244968112 0 0.0039647478597682499 -8.0506590119367073e-05 0 0.0039674640694519247 -0.00010118740244968112 0 0.0039480007148436332 -0.00010257206882654928 0 0.0039674640694519247 -0.00010118740244968112 0 0.0039480007148436332 -0.00010257206882654928 0 0.0039627467403727879 -0.00011884135051514932 0 0.0039674640694519247 -0.00010118740244968112 0 0.0039701532571792472 -9.2191246910837722e-05 0 0.0039672628021871024 -0.0001008157218131898 0 0.0039434946163530386 -6.391314745938499e-05 0 0.0039480007148436332 -0.00010257206882654928 0 0.0039067140635035249 -9.7576916477608256e-05 0 0.0039434946163530386 -6.391314745938499e-05 0 0.0039647478597682499 -8.0506590119367073e-05 0 0.0039480007148436332 -0.00010257206882654928 0 0.0039480007148436332 -0.00010257206882654928 0 0.0039067140635035249 -9.7576916477608256e-05 0 0.0039222806464596074 -0.0001252272467657329 0 0.0039067140635035249 -9.7576916477608256e-05 0 0.0038801580305355765 -5.6672409250962182e-05 0 0.0038333097215229608 -0.00012188203275026045 0 0.0039067140635035249 -9.7576916477608256e-05 0 0.0038751912778210158 -0.00014905777741021451 0 0.0039222806464596074 -0.0001252272467657329 0 0.0039067140635035249 -9.7576916477608256e-05 0 0.0038333097215229608 -0.00012188203275026045 0 0.0038751912778210158 -0.00014905777741021451 0 0.0039434946163530386 -6.391314745938499e-05 0 0.0039067140635035249 -9.7576916477608256e-05 0 0.0038801580305355765 -5.6672409250962182e-05 0 0.0039195100893097889 -2.2814654596124889e-05 0 0.0039434946163530386 -6.391314745938499e-05 0 0.0038801580305355765 -5.6672409250962182e-05 0 0.0038658475255506242 1.1347777964488772e-05 0 0.0038801580305355765 -5.6672409250962182e-05 0 0.0037685233403695808 -6.7716812741306615e-05 0 0.0038801580305355765 -5.6672409250962182e-05 0 0.0038333097215229608 -0.00012188203275026045 0 0.0037685233403695808 -6.7716812741306615e-05 0 0.0036298829014530937 -0.00012220025712327058 0 0.0037685233403695808 -6.7716812741306615e-05 0 0.003738246463823675 -0.00016589121109581302 0 0.0038333097215229608 -0.00012188203275026045 0 0.0037685233403695808 -6.7716812741306615e-05 0 0.003738246463823675 -0.00016589121109581302 0 0.0036298829014530937 -0.00012220025712327058 0 0.0036734139808564494 -3.4158224058056912e-05 0 0.0037685233403695808 -6.7716812741306615e-05 0 0.0036734139808564494 -3.4158224058056912e-05 0 0.0037685233403695808 -6.7716812741306615e-05 0 0.0037503367905611564 -5.4460571492990252e-06 0 0.0036025136803587198 -0.00014300408447522455 0 0.0036195792423554026 -5.2923537550058707e-05 0 0.0034945748173873551 -0.00023012017756384194 0 0.0035430877479856447 -0.00020043778893201833 0 0.003577276395871598 -0.00015461066897683041 0 0.0034877491162890063 -0.00016893394797459294 0 0.003529769075409262 -9.0889784099349851e-05 0 0.003577276395871598 -0.00015461066897683041 0 0.0035888622468244103 -7.4756606161584794e-05 0 0.003529769075409262 -9.0889784099349851e-05 0 0.0035888622468244103 -7.4756606161584794e-05 0 0.003529769075409262 -9.0889784099349851e-05 0 0.0035644810648621885 -3.3591364264060055e-05 0 0.0034877491162890063 -0.00016893394797459294 0 0.003529769075409262 -9.0889784099349851e-05 0 0.0034609809354325611 -7.2118042185947189e-05 0 0.003529769075409262 -9.0889784099349851e-05 0 0.0034609809354325611 -7.2118042185947189e-05 0 0.0035160948899298251 -2.8930382830471106e-05 0 0.0036341786648921358 -0.00013249688921090555 0 0.0036493124682138822 -0.00018474435873132135 0 0.0036938615089531861 -0.00015031864987843848 0 0.0035430877479856447 -0.00020043778893201833 0 0.0036015480560323276 -8.8909208155944655e-05 0 0.003529769075409262 -9.0889784099349851e-05 0 0.0035160948899298251 -2.8930382830471106e-05 0 0.0035644810648621885 -3.3591364264060055e-05 0 0.0035160948899298251 -2.8930382830471106e-05 0 0.0035644810648621885 -3.3591364264060055e-05 0 0.00357261517776626 1.4459073736816835e-05 0 0.0036015480560323276 -8.8909208155944655e-05 0 0.0037357329114190039 -4.5686387937663021e-05 0 0.0039168405309794128 3.6908923054380421e-05 0 0.0039181271477631997 3.2612649471497239e-05 0 0.0039241877437142707 3.4910506994994831e-05 0 0.0037357329114190039 -4.5686387937663021e-05 0 0.0038405495890221596 -3.2254950271151135e-05 0 0.0036938615089531861 -0.00015031864987843848 0 0.0037382290289961644 -0.0001156561587129221 0 0.0036784646636717341 -9.8271080889945249e-05 0 0.0036262035713971103 -0.00012311778815081431 0 0.0038405495890221596 -3.2254950271151135e-05 0 0.0036341786648921358 -0.00013249688921090555 0 0.0036938615089531861 -0.00015031864987843848 0 0.0036784646636717341 -9.8271080889945249e-05 0 0.0038658475255506242 1.1347777964488772e-05 0 0.0037503367905611564 -5.4460571492990252e-06 0 0.0036893385594687455 8.6279466551817028e-05 0 0.0038658475255506242 1.1347777964488772e-05 0 0.0037685233403695808 -6.7716812741306615e-05 0 0.0037503367905611564 -5.4460571492990252e-06 0 0.0038709788540427959 2.2860432671968103e-05 0 0.0037805422232171457 2.9936068456447714e-05 0 0.0035888622468244103 -7.4756606161584794e-05 0 0.0035644810648621885 -3.3591364264060055e-05 0 0.0036012296267773922 5.8249123796713778e-06 0 0.0036734139808564494 -3.4158224058056912e-05 0 0.0037503367905611564 -5.4460571492990252e-06 0 0.0036893385594687455 8.6279466551817028e-05 0 0.0036195792423554026 -5.2923537550058707e-05 0 0.0037805422232171457 2.9936068456447714e-05 0 0.0039098732250675613 2.9610595833146266e-05 0 0.0039104710810936253 2.8117513825282248e-05 0 0.0038963068160161362 1.8954485742070198e-05 0 0.0035644810648621885 -3.3591364264060055e-05 0 0.00357261517776626 1.4459073736816835e-05 0 0.0036012296267773922 5.8249123796713778e-06 0 0.0037357329114190039 -4.5686387937663021e-05 0 0.0037805422232171457 2.9936068456447714e-05 0 0.0039168405309794128 3.6908923054380421e-05 0 0.0039105270370119218 3.870465479908701e-05 0 0.0039104710810936253 2.8117513825282248e-05 0 0.0039168405309794128 3.6908923054380421e-05 0 0.0039181271477631997 3.2612649471497239e-05 0 0.0039104710810936253 2.8117513825282248e-05 0 0.0037805422232171457 2.9936068456447714e-05 0 0.003882623558735668 3.7463431911353549e-05 0 0.0038658475255506242 1.1347777964488772e-05 0 0.0039098732250675613 2.9610595833146266e-05 0 0.0038963068160161362 1.8954485742070198e-05 0 0.0039098343320463228 1.2889587453237703e-05 0 0.0038963068160161362 1.8954485742070198e-05 0 0.0039124076273227733 3.0710351731834429e-05 0 0.0039104710810936253 2.8117513825282248e-05 0 0.0038963068160161362 1.8954485742070198e-05 0 0.0039124076273227733 3.0710351731834429e-05 0 0.0039104710810936253 2.8117513825282248e-05 0 0.0039124076273227733 3.0710351731834429e-05 0 0.0039180514391389887 3.3075209635963825e-05 0 0.0039181271477631997 3.2612649471497239e-05 0 0.0039104710810936253 2.8117513825282248e-05 0 0.0039180514391389887 3.3075209635963825e-05 0 0.0039124076273227733 3.0710351731834429e-05 0 0.0039180514391389887 3.3075209635963825e-05 0 0.0039254326186752052 4.3563748259058782e-05 0 0.0039180514391389887 3.3075209635963825e-05 0 0.0039261243406106079 3.7972590379498667e-05 0 0.0039254326186752052 4.3563748259058782e-05 0 0.0039124076273227733 3.0710351731834429e-05 0 0.0039254326186752052 4.3563748259058782e-05 0 0.0039263783280079293 5.0880274327325844e-05 0 0.0039240773550042376 3.4429648815155375e-05 0 0.0039241877437142707 3.4910506994994831e-05 0 0.0039268664979801131 3.5774303671512158e-05 0 0.0039241877437142707 3.4910506994994831e-05 0 0.0039224787993468032 3.4141635792968224e-05 0 0.0039268664979801131 3.5774303671512158e-05 0 0.0039181271477631997 3.2612649471497239e-05 0 0.0039241877437142707 3.4910506994994831e-05 0 0.0039224787993468032 3.4141635792968224e-05 0 0.0039181271477631997 3.2612649471497239e-05 0 0.0039180514391389887 3.3075209635963825e-05 0 0.0039224787993468032 3.4141635792968224e-05 0 0.0039224787993468032 3.4141635792968224e-05 0 0.0039261243406106079 3.7972590379498667e-05 0 0.0039268664979801131 3.5774303671512158e-05 0 0.0039180514391389887 3.3075209635963825e-05 0 0.0039224787993468032 3.4141635792968224e-05 0 0.0039261243406106079 3.7972590379498667e-05 0 0.0039261243406106079 3.7972590379498667e-05 0 0.0039268664979801131 3.5774303671512158e-05 0 0.0039303160699588899 3.8291547100561621e-05 0 0.0039301184996948339 3.9580461833645739e-05 0 0.0039268664979801131 3.5774303671512158e-05 0 0.0039303160699588899 3.8291547100561621e-05 0 0.0039301184996948339 3.9580461833645739e-05 0 0.0039339819907715876 4.4400921490360968e-05 0 0.0039367260330705573 4.1892633694853452e-05 0 0.0039301184996948339 3.9580461833645739e-05 0 0.0039303160699588899 3.8291547100561621e-05 0 0.0039367260330705573 4.1892633694853452e-05 0 0.0039261243406106079 3.7972590379498667e-05 0 0.0039303160699588899 3.8291547100561621e-05 0 0.0039367260330705573 4.1892633694853452e-05 0 0.0039261243406106079 3.7972590379498667e-05 0 0.0039367260330705573 4.1892633694853452e-05 0 0.0039254326186752052 4.3563748259058782e-05 0 0.0039606969246520239 4.8482016414802597e-05 0 0.0039367260330705573 4.1892633694853452e-05 0 0.0039391687404404119 4.7585318796639897e-05 0 0.0039450149632210317 5.2322941191430583e-05 0 0.0039380402526806978 4.2958848505512459e-05 0 0.0039386689056034457 4.8783309233624496e-05 0 0.0039437568464779308 5.1121133573212679e-05 0 0.0039367260330705573 4.1892633694853452e-05 0 0.0039339819907715876 4.4400921490360968e-05 0 0.0039386689056034457 4.8783309233624496e-05 0 0.0039367260330705573 4.1892633694853452e-05 0 0.0039254326186752052 4.3563748259058782e-05 0 0.0039322791897303741 5.1152135055083085e-05 0 0.0039263783280079293 5.0880274327325844e-05 0 0.0039367260330705573 4.1892633694853452e-05 0 0.0039254326186752052 4.3563748259058782e-05 0 0.0039391687404404119 4.7585318796639897e-05 0 0.0039254326186752052 4.3563748259058782e-05 0 0.0039391687404404119 4.7585318796639897e-05 0 0.0039322791897303741 5.1152135055083085e-05 0 0.0039606969246520239 4.8482016414802597e-05 0 0.0039391687404404119 4.7585318796639897e-05 0 0.0039322791897303741 5.1152135055083085e-05 0 0.0039322791897303741 5.1152135055083085e-05 0 0.003933951198054386 6.6006957407729164e-05 0 0.0039263783280079293 5.0880274327325844e-05 0 0.0039904342548802057 4.4180991665056665e-05 0 0.0040209239946884714 5.5874565477265654e-05 0 0.0041283171267478018 6.4435016953552835e-05 0 0.0041077168478145408 4.3246013951225489e-05 0 0.0041283672481235711 6.6809647176541406e-05 0 0.0040209239946884714 5.5874565477265654e-05 0 0.0040526430146115566 7.5350047859158357e-05 0 0.003933951198054386 6.6006957407729164e-05 0 0.0039425874652826457 5.7625145312834802e-05 0 0.0039752879775978231 8.9606849364476317e-05 0 0.0039425874652826457 5.7625145312834802e-05 0 0.003971933950311618 4.155837875957861e-05 0 0.0039752879775978231 8.9606849364476317e-05 0 0.003933951198054386 6.6006957407729164e-05 0 0.0039425874652826457 5.7625145312834802e-05 0 0.0039263783280079293 5.0880274327325844e-05 0 0.0039425874652826457 5.7625145312834802e-05 0 0.0039263783280079293 5.0880274327325844e-05 0 0.0039268073814393289 3.2325941380231003e-05 0 0.0039124076273227733 3.0710351731834429e-05 0 0.0039263783280079293 5.0880274327325844e-05 0 0.0039268073814393289 3.2325941380231003e-05 0 0.0039425874652826457 5.7625145312834802e-05 0 0.0039268073814393289 3.2325941380231003e-05 0 0.003971933950311618 4.155837875957861e-05 0 0.0039268073814393289 3.2325941380231003e-05 0 0.0039524402893430103 1.6915273999467205e-05 0 0.003971933950311618 4.155837875957861e-05 0 0.0039098343320463228 1.2889587453237703e-05 0 0.0039268073814393289 3.2325941380231003e-05 0 0.0039524402893430103 1.6915273999467205e-05 0 0.0039098343320463228 1.2889587453237703e-05 0 0.0039552073932059319 -1.1945880088077766e-05 0 0.0039524402893430103 1.6915273999467205e-05 0 0.0039098343320463228 1.2889587453237703e-05 0 0.0039124076273227733 3.0710351731834429e-05 0 0.0039268073814393289 3.2325941380231003e-05 0 0.0039552073932059319 -1.1945880088077766e-05 0 0.0039524402893430103 1.6915273999467205e-05 0 0.0040180428241329228 1.0134729242198093e-05 0 0.0039524402893430103 1.6915273999467205e-05 0 0.0040180428241329228 1.0134729242198093e-05 0 0.003971933950311618 4.155837875957861e-05 0 0.0040180428241329228 1.0134729242198093e-05 0 0.003971933950311618 4.155837875957861e-05 0 0.0040825506546226398 7.6803010393639945e-05 0 0.0040180428241329228 1.0134729242198093e-05 0 0.0040825506546226398 7.6803010393639945e-05 0 0.0040875933087651363 4.8871145870259617e-05 0 0.0040817843416720246 7.5605260552427444e-05 0 0.0040526430146115566 7.5350047859158357e-05 0 0.003971933950311618 4.155837875957861e-05 0 0.0040825506546226398 7.6803010393639945e-05 0 0.0039752879775978231 8.9606849364476317e-05 0 0.0041379070943538508 7.4176746869824859e-05 0 0.0041283171267478018 6.4435016953552835e-05 0 0.0041283672481235711 6.6809647176541406e-05 0 0.0041379070943538508 7.4176746869824859e-05 0 0.0040825506546226398 7.6803010393639945e-05 0 0.0041283672481235711 6.6809647176541406e-05 0 0.004152064838102815 9.2438010770995883e-05 0 0.0041379070943538508 7.4176746869824859e-05 0 0.0040825506546226398 7.6803010393639945e-05 0 0.004152064838102815 9.2438010770995883e-05 0 0.0040825506546226398 7.6803010393639945e-05 0 0.0041372455009703012 9.0382520862320983e-05 0 0.0041836832730605374 0.00010781994511997586 0 0.004152064838102815 9.2438010770995883e-05 0 0.0041372455009703012 9.0382520862320983e-05 0 0.0040825506546226398 7.6803010393639945e-05 0 0.0041372455009703012 9.0382520862320983e-05 0 0.0040875933087651363 4.8871145870259617e-05 0 0.0041372455009703012 9.0382520862320983e-05 0 0.0040875933087651363 4.8871145870259617e-05 0 0.0041252941382618983 4.6017056496062599e-05 0 0.0041372455009703012 9.0382520862320983e-05 0 0.004158184978613387 7.7163347464633366e-05 0 0.0041252941382618983 4.6017056496062599e-05 0 0.0041836832730605374 0.00010781994511997586 0 0.0041372455009703012 9.0382520862320983e-05 0 0.004181592420311007 0.00012012868875885342 0 0.0041372455009703012 9.0382520862320983e-05 0 0.004158184978613387 7.7163347464633366e-05 0 0.004181592420311007 0.00012012868875885342 0 0.004181592420311007 0.00012012868875885342 0 0.0041430482597734639 0.00016263390403881083 0 0.0041721080963586796 0.00017798031374298274 0 0.004182101828730655 0.00012280861066992093 0 0.0041823696948647257 0.00013012674829896109 0 0.004163262842643403 0.00012551933849253615 0 0.004181592420311007 0.00012012868875885342 0 0.0041430482597734639 0.00016263390403881083 0 0.004163262842643403 0.00012551933849253615 0 0.0041430482597734639 0.00016263390403881083 0 0.0041209693553466839 0.00014541204055897906 0 0.0041430482597734639 0.00016263390403881083 0 0.0041721080963586796 0.00017798031374298274 0 0.0041514492058916169 0.000225374370690762 0 0.004158184978613387 7.7163347464633366e-05 0 0.004181592420311007 0.00012012868875885342 0 0.0041965413065146234 7.934325847823502e-05 0 0.004158184978613387 7.7163347464633366e-05 0 0.0041965413065146234 7.934325847823502e-05 0 0.0041726622439603568 2.1881035389672037e-05 0 0.0041965413065146234 7.934325847823502e-05 0 0.0041726622439603568 2.1881035389672037e-05 0 0.0042220906286968545 3.3992419943949422e-05 0 0.0041823696948647257 0.00013012674829896109 0 0.0041946025153231535 0.00012616894816487898 0 0.0042220906286968545 3.3992419943949422e-05 0 0.0042500101978661239 -1.5165860603884275e-05 0 0.0041963757029160297 -2.7149426510564663e-05 0 0.0041946025153231535 0.00012616894816487898 0 0.0040962998717275472 0.00012086177335243628 0 0.0040962998717275472 0.00012086177335243628 0 0.0040745829592774936 -6.9199609416212643e-05 0 0.0041726622439603568 2.1881035389672037e-05 0 0.0041323530945171867 -4.209143880867035e-05 0 0.0041963757029160297 -2.7149426510564663e-05 0 0.0041726622439603568 2.1881035389672037e-05 0 0.0042220906286968545 3.3992419943949422e-05 0 0.0041963757029160297 -2.7149426510564663e-05 0 0.0040724414610665361 5.5003287298409606e-06 0 0.0041252941382618983 4.6017056496062599e-05 0 0.0041323530945171867 -4.209143880867035e-05 0 0.0041726622439603568 2.1881035389672037e-05 0 0.0041252941382618983 4.6017056496062599e-05 0 0.0041323530945171867 -4.209143880867035e-05 0 0.0040180428241329228 1.0134729242198093e-05 0 0.0040724414610665361 5.5003287298409606e-06 0 0.0040875933087651363 4.8871145870259617e-05 0 0.0040180428241329228 1.0134729242198093e-05 0 0.0040724414610665361 5.5003287298409606e-06 0 0.0040259239695832946 -5.5566880897824773e-05 0 0.0040724414610665361 5.5003287298409606e-06 0 0.0040875933087651363 4.8871145870259617e-05 0 0.0041252941382618983 4.6017056496062599e-05 0 0.004158184978613387 7.7163347464633366e-05 0 0.0041726622439603568 2.1881035389672037e-05 0 0.0041252941382618983 4.6017056496062599e-05 0 0.0039582606912267476 0.00017110495740633053 0 0.0040359758186759116 0.00019976648509256774 0 0.0040144962578509309 0.00015536804675923184 0 0.0040051502924837289 0.00019663122431226777 0 0.0040614833805186108 0.00016321007992658841 0 0.0040051502924837289 0.00019663122431226777 0 0.0040614833805186108 0.00016321007992658841 0 0.0040405103876447381 0.00020120932237523484 0 0.0040614833805186108 0.00016321007992658841 0 0.0041043912208637732 0.00018632262358979227 0 0.0040405103876447381 0.00020120932237523484 0 0.0040614833805186108 0.00016321007992658841 0 0.0041209693553466839 0.00014541204055897906 0 0.0041043912208637732 0.00018632262358979227 0 0.0041430482597734639 0.00016263390403881083 0 0.0041209693553466839 0.00014541204055897906 0 0.0041043912208637732 0.00018632262358979227 0 0.0041430482597734639 0.00016263390403881083 0 0.0041514492058916169 0.000225374370690762 0 0.0041043912208637732 0.00018632262358979227 0 0.0041514492058916169 0.000225374370690762 0 0.0041043912208637732 0.00018632262358979227 0 0.0041088158148022353 0.00023623465595081072 0 0.0041043912208637732 0.00018632262358979227 0 0.0041088158148022353 0.00023623465595081072 0 0.0040715316868512354 0.00023304952292411868 0 0.0041514492058916169 0.000225374370690762 0 0.0041088158148022353 0.00023623465595081072 0 0.0041245013178666037 0.00027799629576522337 0 0.0040962998717275472 0.00012086177335243628 0 0.0041021325349959144 0.00026163042506421142 0 0.0041088158148022353 0.00023623465595081072 0 0.0041245013178666037 0.00027799629576522337 0 0.0040803150038923137 0.00027363274218310095 0 0.0041088158148022353 0.00023623465595081072 0 0.0040803150038923137 0.00027363274218310095 0 0.0040715316868512354 0.00023304952292411868 0 0.0040803150038923137 0.00027363274218310095 0 0.0040158749009909728 0.00028581932234450735 0 0.0040475386955928002 0.00030789873273071093 0 0.0040803150038923137 0.00027363274218310095 0 0.0040715316868512354 0.00023304952292411868 0 0.0040158749009909728 0.00028581932234450735 0 0.0041043912208637732 0.00018632262358979227 0 0.0040715316868512354 0.00023304952292411868 0 0.0040405103876447381 0.00020120932237523484 0 0.0040715316868512354 0.00023304952292411868 0 0.0040405103876447381 0.00020120932237523484 0 0.0040158749009909728 0.00028581932234450735 0 0.0040405103876447381 0.00020120932237523484 0 0.0040158749009909728 0.00028581932234450735 0 0.003928448920801097 0.00024266021791513178 0 0.0040158749009909728 0.00028581932234450735 0 0.003928448920801097 0.00024266021791513178 0 0.0039538380144313844 0.00033029963544604023 0 0.0038836099269522009 0.00031776642368493 0 0.003928448920801097 0.00024266021791513178 0 0.0039538380144313844 0.00033029963544604023 0 0.0039104695430439585 0.00014352534821607227 0 0.0040405103876447381 0.00020120932237523484 0 0.003928448920801097 0.00024266021791513178 0 0.0039196062773490916 0.00040004577662918422 0 0.0040006068711104783 0.00038476017627474756 0 0.0039556453827979607 0.00044738588892211968 0 0.0039196062773490916 0.00040004577662918422 0 0.0039538380144313844 0.00033029963544604023 0 0.0040006068711104783 0.00038476017627474756 0 0.0038836099269522009 0.00031776642368493 0 0.0039196062773490916 0.00040004577662918422 0 0.0039538380144313844 0.00033029963544604023 0 0.0040158749009909728 0.00028581932234450735 0 0.0039538380144313844 0.00033029963544604023 0 0.0040006068711104783 0.00038476017627474756 0 0.0040158749009909728 0.00028581932234450735 0 0.0040246508482213875 0.00033184478850541513 0 0.0040475386955928002 0.00030789873273071093 0 0.0040159321736666686 0.00029355762047415129 0 0.004012498171425267 0.00034685717089492186 0 0.0040246508482213875 0.00033184478850541513 0 0.0040730899887094236 0.00033256935769847501 0 0.0040430594750014755 0.00036908983656220581 0 0.0040246508482213875 0.00033184478850541513 0 0.0040730899887094236 0.00033256935769847501 0 0.0040475386955928002 0.00030789873273071093 0 0.0040803150038923137 0.00027363274218310095 0 0.0040730899887094236 0.00033256935769847501 0 0.0040475386955928002 0.00030789873273071093 0 0.0040962998717275472 0.00012086177335243628 0 0.0039953771153976771 0.00012884638682824864 0 0.003948420487944723 -9.0888074334640441e-05 0 0.0039412238723088647 -8.0490003504453113e-05 0 0.0039507927850810148 -8.2695399887943051e-05 0 0.0041128421763262082 0.00027850252590535699 0 0.0040803150038923137 0.00027363274218310095 0 0.0040730899887094236 0.00033256935769847501 0 0.0039412238723088647 -8.0490003504453113e-05 0 0.0039452563242813833 -7.947019062383697e-05 0 0.0039507927850810148 -8.2695399887943051e-05 0 0.0039412238723088647 -8.0490003504453113e-05 0 0.0039452563242813833 -7.947019062383697e-05 0 0.0039404913890119259 -7.8952948870806728e-05 0 0.0039404913890119259 -7.8952948870806728e-05 0 0.0039392688809257032 -7.9836087662583992e-05 0 0.0039388180420557263 -7.9534955382932544e-05 0 0.0039452563242813833 -7.947019062383697e-05 0 0.0039404913890119259 -7.8952948870806728e-05 0 0.0039392688809257032 -7.9836087662583992e-05 0 0.0039392688809257032 -7.9836087662583992e-05 0 0.003934565178515188 -8.2163347079391722e-05 0 0.003933483842719597 -8.4600378184500395e-05 0 0.003934565178515188 -8.2163347079391722e-05 0 0.0039388180420557263 -7.9534955382932544e-05 0 0.0039372349344721962 -8.2004066974470819e-05 0 0.0039392688809257032 -7.9836087662583992e-05 0 0.003934565178515188 -8.2163347079391722e-05 0 0.0039388180420557263 -7.9534955382932544e-05 0 0.0039392180932644443 -7.9526257874620363e-05 0 0.003939529698767253 -7.8316208960097801e-05 0 0.003939026245577619 -7.9563358636609678e-05 0 0.0039388180420557263 -7.9534955382932544e-05 0 0.0039372349344721962 -8.2004066974470819e-05 0 0.0039390870415580946 -8.1000654829532033e-05 0 0.0039388180420557263 -7.9534955382932544e-05 0 0.0039390870415580946 -8.1000654829532033e-05 0 0.0039392180932644443 -7.9526257874620363e-05 0 0.0039390870415580946 -8.1000654829532033e-05 0 0.003939026245577619 -7.9563358636609678e-05 0 0.0039390434767864625 -8.0766853457397614e-05 0 0.0039390870415580946 -8.1000654829532033e-05 0 0.0039392180932644443 -7.9526257874620363e-05 0 0.003939026245577619 -7.9563358636609678e-05 0 0.0039388180420557263 -7.9534955382932544e-05 0 0.0039392180932644443 -7.9526257874620363e-05 0 0.003939529698767253 -7.8316208960097801e-05 0 0.0039404913890119259 -7.8952948870806728e-05 0 0.0039388180420557263 -7.9534955382932544e-05 0 0.003939529698767253 -7.8316208960097801e-05 0 0.0039953771153976771 0.00012884638682824864 0 0.0040082558544197655 0.00011748178526732004 0 0.0039412238723088647 -8.0490003504453113e-05 0 0.0039404913890119259 -7.8952948870806728e-05 0 0.003939529698767253 -7.8316208960097801e-05 0 0.004012498171425267 0.00034685717089492186 0 0.0040155743389711151 0.00047209920554446244 0 0.0040006068711104783 0.00038476017627474756 0 0.0039935208990773807 0.00048669792364239365 0 0.0039556453827979607 0.00044738588892211968 0 0.0040246508482213875 0.00033184478850541513 0 0.0040248552128177165 0.00036840876403869112 0 0.0040430594750014755 0.00036908983656220581 0 0.0040248552128177165 0.00036840876403869112 0 0.0040430594750014755 0.00036908983656220581 0 0.0040206115793516017 0.0003967528277322064 0 0.0040082558544197655 0.00011748178526732004 0 0.003912377749823409 0.00028464095067605417 0 0.003939529698767253 -7.8316208960097801e-05 0 0.003939026245577619 -7.9563358636609678e-05 0 0.0039378651509146519 -7.8636600261811066e-05 0 0.0039935208990773807 0.00048669792364239365 0 0.0039712460785613192 0.00054118166749678469 0 0.0039881068737201543 0.00059743139683535575 0 0.0040155743389711151 0.00047209920554446244 0 0.003912377749823409 0.00028464095067605417 0 0.0039463370641202537 0.00050383916775186368 0 0.0039712460785613192 0.00054118166749678469 0 0.0039369805516203116 0.00054904927957976908 0 0.0039935208990773807 0.00048669792364239365 0 0.0039463370641202537 0.00050383916775186368 0 0.0039712460785613192 0.00054118166749678469 0 0.0039712460785613192 0.00054118166749678469 0 0.0039578821624063603 0.00057546319921393323 0 0.0039881068737201543 0.00059743139683535575 0 0.0039712460785613192 0.00054118166749678469 0 0.0039578821624063603 0.00057546319921393323 0 0.0039369805516203116 0.00054904927957976908 0 0.0038998685404799355 0.00055383856666485856 0 0.0039369805516203116 0.00054904927957976908 0 0.003927240187926566 0.00058961503305317861 0 0.0039578821624063603 0.00057546319921393323 0 0.0039369805516203116 0.00054904927957976908 0 0.003927240187926566 0.00058961503305317861 0 0.0038998685404799355 0.00055383856666485856 0 0.0039369805516203116 0.00054904927957976908 0 0.0039124548751847529 0.00051999295387651363 0 0.0039463370641202537 0.00050383916775186368 0 0.0039369805516203116 0.00054904927957976908 0 0.0039124548751847529 0.00051999295387651363 0 0.0039463370641202537 0.00050383916775186368 0 0.0039115605137757543 0.00047698162340215945 0 0.0039556453827979607 0.00044738588892211968 0 0.0039196062773490916 0.00040004577662918422 0 0.0039115605137757543 0.00047698162340215945 0 0.0039556453827979607 0.00044738588892211968 0 0.0039463370641202537 0.00050383916775186368 0 0.0039124548751847529 0.00051999295387651363 0 0.0039115605137757543 0.00047698162340215945 0 0.0039935208990773807 0.00048669792364239365 0 0.0039463370641202537 0.00050383916775186368 0 0.0039556453827979607 0.00044738588892211968 0 0.0039752351369937763 -7.5196139030852155e-05 0 0.0039593022893086149 -7.8141087714535663e-05 0 0.0039796629065401417 -7.2225228700191699e-05 0 0.0039752351369937763 -7.5196139030852155e-05 0 0.0039966151342792459 -6.3064087717638035e-05 0 0.0039825878293062982 -8.384539901039949e-05 0 0.0039752351369937763 -7.5196139030852155e-05 0 0.0039966151342792459 -6.3064087717638035e-05 0 0.0039796629065401417 -7.2225228700191699e-05 0 0.0039837168345247332 -5.6931959524759019e-05 0 0.0039966151342792459 -6.3064087717638035e-05 0 0.0040259239695832946 -5.5566880897824773e-05 0 0.0039837168345247332 -5.6931959524759019e-05 0 0.0039777650341063795 -7.7907252227088267e-05 0 0.0039966151342792459 -6.3064087717638035e-05 0 0.0040724414610665361 5.5003287298409606e-06 0 0.0040259239695832946 -5.5566880897824773e-05 0 0.0041323530945171867 -4.209143880867035e-05 0 0.0039966151342792459 -6.3064087717638035e-05 0 0.0040259239695832946 -5.5566880897824773e-05 0 0.0039825878293062982 -8.384539901039949e-05 0 0.0040278694629650065 -5.8866306263363386e-05 0 0.0040565630563525945 -6.0705062616929371e-05 0 0.0039752351369937763 -7.5196139030852155e-05 0 0.0039825878293062982 -8.384539901039949e-05 0 0.0039645946913320464 -8.1192848624416986e-05 0 0.0039825878293062982 -8.384539901039949e-05 0 0.0039645946913320464 -8.1192848624416986e-05 0 0.0039601330033433258 -9.1139736630579217e-05 0 0.0040565630563525945 -6.0705062616929371e-05 0 0.0040745829592774936 -6.9199609416212643e-05 0 0.003948420487944723 -9.0888074334640441e-05 0 0.0039601330033433258 -9.1139736630579217e-05 0 0.0039507927850810148 -8.2695399887943051e-05 0 0.0039645946913320464 -8.1192848624416986e-05 0 0.0039601330033433258 -9.1139736630579217e-05 0 0.0039507927850810148 -8.2695399887943051e-05 0 0.0039452563242813833 -7.947019062383697e-05 0 0.0039507927850810148 -8.2695399887943051e-05 0 0.0039593022893086149 -7.8141087714535663e-05 0 0.0039752351369937763 -7.5196139030852155e-05 0 0.0039645946913320464 -8.1192848624416986e-05 0 0.0039593022893086149 -7.8141087714535663e-05 0 0.0039645946913320464 -8.1192848624416986e-05 0 0.0039507927850810148 -8.2695399887943051e-05 0 0.0039593022893086149 -7.8141087714535663e-05 0 0.0039593022893086149 -7.8141087714535663e-05 0 0.0039460880010581756 -8.0941308787385699e-05 0 0.0039617520479364003 -8.0621340387321356e-05 0 0.0039452563242813833 -7.947019062383697e-05 0 0.0039392688809257032 -7.9836087662583992e-05 0 0.0039460880010581756 -8.0941308787385699e-05 0 0.0039452563242813833 -7.947019062383697e-05 0 0.0039593022893086149 -7.8141087714535663e-05 0 0.0039460880010581756 -8.0941308787385699e-05 0 0.0039392688809257032 -7.9836087662583992e-05 0 0.0039460880010581756 -8.0941308787385699e-05 0 0.003933483842719597 -8.4600378184500395e-05 0 0.0039460880010581756 -8.0941308787385699e-05 0 0.003933483842719597 -8.4600378184500395e-05 0 0.0039463202510761179 -8.3554454878570364e-05 0 0.0039617520479364003 -8.0621340387321356e-05 0 0.0039463202510761179 -8.3554454878570364e-05 0 0.0039520474199739248 -8.5826082470604945e-05 0 0.0039460880010581756 -8.0941308787385699e-05 0 0.0039617520479364003 -8.0621340387321356e-05 0 0.0039463202510761179 -8.3554454878570364e-05 0 0.0039617520479364003 -8.0621340387321356e-05 0 0.003965234687915686 -8.5885262371382577e-05 0 0.0039767328015223088 -7.911903514491977e-05 0 0.0039617520479364003 -8.0621340387321356e-05 0 0.003965234687915686 -8.5885262371382577e-05 0 0.0039520474199739248 -8.5826082470604945e-05 0 0.0039593022893086149 -7.8141087714535663e-05 0 0.0039617520479364003 -8.0621340387321356e-05 0 0.0039796629065401417 -7.2225228700191699e-05 0 0.0039617520479364003 -8.0621340387321356e-05 0 0.0039796629065401417 -7.2225228700191699e-05 0 0.0039767328015223088 -7.911903514491977e-05 0 0.0039966151342792459 -6.3064087717638035e-05 0 0.0039796629065401417 -7.2225228700191699e-05 0 0.0039767328015223088 -7.911903514491977e-05 0 0.0039777650341063795 -7.7907252227088267e-05 0 0.0039966151342792459 -6.3064087717638035e-05 0 0.0039767328015223088 -7.911903514491977e-05 0 0.0039777650341063795 -7.7907252227088267e-05 0 0.0039767328015223088 -7.911903514491977e-05 0 0.0039701532571792472 -9.2191246910837722e-05 0 0.003965234687915686 -8.5885262371382577e-05 0 0.0039767328015223088 -7.911903514491977e-05 0 0.0039701532571792472 -9.2191246910837722e-05 0 0.003965234687915686 -8.5885262371382577e-05 0 0.0039701532571792472 -9.2191246910837722e-05 0 0.0039598482766647521 -8.9823088292508366e-05 0 0.0039701532571792472 -9.2191246910837722e-05 0 0.0039672628021871024 -0.0001008157218131898 0 0.0039634994377945607 -9.5811802949649663e-05 0 0.0039701532571792472 -9.2191246910837722e-05 0 0.0039634994377945607 -9.5811802949649663e-05 0 0.0039598482766647521 -8.9823088292508366e-05 0 0.0039634994377945607 -9.5811802949649663e-05 0 0.0039568423980456654 -8.8477575726628819e-05 0 0.0039598482766647521 -8.9823088292508366e-05 0 0.0039672628021871024 -0.0001008157218131898 0 0.0039634994377945607 -9.5811802949649663e-05 0 0.0039644967640440091 -0.00010260017622895775 0 0.0039634994377945607 -9.5811802949649663e-05 0 0.0039568423980456654 -8.8477575726628819e-05 0 0.0039644967640440091 -0.00010260017622895775 0 0.0039568423980456654 -8.8477575726628819e-05 0 0.0039620844647160654 -9.1443755123598184e-05 0 0.0039644967640440091 -0.00010260017622895775 0 0.0039568423980456654 -8.8477575726628819e-05 0 0.0039620844647160654 -9.1443755123598184e-05 0 0.0039502877286905899 -7.4406400598884216e-05 0 0.0039462910514527277 -8.0276401032574623e-05 0 0.0039328131609021322 -6.1331969023191251e-05 0 0.0039502877286905899 -7.4406400598884216e-05 0 0.0039568423980456654 -8.8477575726628819e-05 0 0.0039462910514527277 -8.0276401032574623e-05 0 0.0039502877286905899 -7.4406400598884216e-05 0 0.0039462910514527277 -8.0276401032574623e-05 0 0.0039598482766647521 -8.9823088292508366e-05 0 0.0039520474199739248 -8.5826082470604945e-05 0 0.0039568423980456654 -8.8477575726628819e-05 0 0.0039462910514527277 -8.0276401032574623e-05 0 0.0039598482766647521 -8.9823088292508366e-05 0 0.003965234687915686 -8.5885262371382577e-05 0 0.0039598482766647521 -8.9823088292508366e-05 0 0.0039520474199739248 -8.5826082470604945e-05 0 0.0039462910514527277 -8.0276401032574623e-05 0 0.0039520474199739248 -8.5826082470604945e-05 0 0.0039366302123520196 -8.3486734410971795e-05 0 0.0039463202510761179 -8.3554454878570364e-05 0 0.0039520474199739248 -8.5826082470604945e-05 0 0.0039366302123520196 -8.3486734410971795e-05 0 0.003933483842719597 -8.4600378184500395e-05 0 0.0039463202510761179 -8.3554454878570364e-05 0 0.0039366302123520196 -8.3486734410971795e-05 0 0.003933483842719597 -8.4600378184500395e-05 0 0.0039366302123520196 -8.3486734410971795e-05 0 0.003917552517110714 -9.351883003763786e-05 0 0.0039366302123520196 -8.3486734410971795e-05 0 0.003917552517110714 -9.351883003763786e-05 0 0.0039163496135665018 -7.1476006345707412e-05 0 0.003917552517110714 -9.351883003763786e-05 0 0.0039163496135665018 -7.1476006345707412e-05 0 0.0038836124528562922 -7.4357043796355411e-05 0 0.0039163496135665018 -7.1476006345707412e-05 0 0.003930477781362198 -6.9133545934059912e-05 0 0.003914459139643057 -4.3662193029884133e-05 0 0.0039163496135665018 -7.1476006345707412e-05 0 0.0038836124528562922 -7.4357043796355411e-05 0 0.003882106191742779 -4.4064873346296801e-05 0 0.0039462910514527277 -8.0276401032574623e-05 0 0.0039366302123520196 -8.3486734410971795e-05 0 0.003930477781362198 -6.9133545934059912e-05 0 0.0039366302123520196 -8.3486734410971795e-05 0 0.0039163496135665018 -7.1476006345707412e-05 0 0.003930477781362198 -6.9133545934059912e-05 0 0.0039462910514527277 -8.0276401032574623e-05 0 0.003930477781362198 -6.9133545934059912e-05 0 0.0039328131609021322 -6.1331969023191251e-05 0 0.0039328131609021322 -6.1331969023191251e-05 0 0.003914459139643057 -4.3662193029884133e-05 0 0.0039109652070071915 -4.0473674862990107e-05 0 0.003930477781362198 -6.9133545934059912e-05 0 0.0039328131609021322 -6.1331969023191251e-05 0 0.003914459139643057 -4.3662193029884133e-05 0 0.0039328131609021322 -6.1331969023191251e-05 0 0.0039109652070071915 -4.0473674862990107e-05 0 0.0039381287495504902 -5.43744663556015e-05 0 0.0039042024117363059 -3.2289622135304843e-05 0 0.0039045680442208177 -1.3906313310121459e-05 0 0.003914459139643057 -4.3662193029884133e-05 0 0.003882106191742779 -4.4064873346296801e-05 0 0.0038726966373054277 3.1125872073924682e-05 0 0.0039163496135665018 -7.1476006345707412e-05 0 0.003914459139643057 -4.3662193029884133e-05 0 0.003882106191742779 -4.4064873346296801e-05 0 0.003914459139643057 -4.3662193029884133e-05 0 0.0038998509800758771 -3.4569837757010038e-05 0 0.0039109652070071915 -4.0473674862990107e-05 0 0.0038998509800758771 -3.4569837757010038e-05 0 0.003896017274330631 -3.7906327914108538e-05 0 0.0038991166976583775 -3.4301979208680675e-05 0 0.003914459139643057 -4.3662193029884133e-05 0 0.0038998509800758771 -3.4569837757010038e-05 0 0.003896017274330631 -3.7906327914108538e-05 0 0.0038998509800758771 -3.4569837757010038e-05 0 0.0038951874306612359 -3.1769039518954102e-05 0 0.0039109652070071915 -4.0473674862990107e-05 0 0.0038998509800758771 -3.4569837757010038e-05 0 0.0038951874306612359 -3.1769039518954102e-05 0 0.0038971513108614709 -3.0108384117446235e-05 0 0.0039109652070071915 -4.0473674862990107e-05 0 0.0039223852960288443 -3.669569939736391e-05 0 0.0039381287495504902 -5.43744663556015e-05 0 0.0038951874306612359 -3.1769039518954102e-05 0 0.0039109652070071915 -4.0473674862990107e-05 0 0.0039049545563727478 -3.2664910852865779e-05 0 0.0039109652070071915 -4.0473674862990107e-05 0 0.0039223852960288443 -3.669569939736391e-05 0 0.0039049545563727478 -3.2664910852865779e-05 0 0.0039223852960288443 -3.669569939736391e-05 0 0.0039394490608931805 -3.8923738343930104e-05 0 0.0039256199746742458 -2.0578963974907739e-05 0 0.0039223852960288443 -3.669569939736391e-05 0 0.0039394490608931805 -3.8923738343930104e-05 0 0.0039381287495504902 -5.43744663556015e-05 0 0.0033886470602115548 -0.00014203447883350556 0 0.0037311611259892934 -0.00014828388593044278 0 0.0039394490608931805 -3.8923738343930104e-05 0 0.0039381287495504902 -5.43744663556015e-05 0 0.0039672038894088858 -6.2293869731989358e-05 0 0.0039394490608931805 -3.8923738343930104e-05 0 0.0039497697500862246 -2.7008023161524795e-05 0 0.0039672038894088858 -6.2293869731989358e-05 0 0.0034138994077939043 -0.00021431037360710296 0 0.0034245862578882996 -0.00021657175701508759 0 0.0034247291736192037 -0.00022771457031907415 0 0.0039620844647160654 -9.1443755123598184e-05 0 0.0039502877286905899 -7.4406400598884216e-05 0 0.0039672038894088858 -6.2293869731989358e-05 0 0.0039502877286905899 -7.4406400598884216e-05 0 0.0039381287495504902 -5.43744663556015e-05 0 0.0039672038894088858 -6.2293869731989358e-05 0 0.0039328131609021322 -6.1331969023191251e-05 0 0.0039502877286905899 -7.4406400598884216e-05 0 0.0039381287495504902 -5.43744663556015e-05 0 0.0034858319388216354 -0.00011986482263242866 0 0.0032659893533585342 -3.250741284111674e-05 0 0.0027371251345237454 -8.3120099141514118e-06 0 0.002857117357065622 -0.0001913329800461351 0 0.0027872987687336732 -0.00018982938425123858 0 0.0028556242844953702 -0.0002108974296542167 0 0.002906814781894528 -0.00021238539942809037 0 0.0028881224702367288 -3.9866391765179875e-05 0 0.002686257567224553 -4.1273038089771188e-05 0 0.0031997197696741865 -2.8672577846611286e-08 0 0.0031997197696741865 -2.8672577846611286e-08 0 0.0034858319388216354 -0.00011986482263242866 0 0.0034043958113637428 1.3245969513315204e-05 0 0.0034342443563122127 -3.6028325220846457e-05 0 0.0035263366256807495 9.2734283132471292e-06 0 0.0031997197696741865 -2.8672577846611286e-08 0 0.0035027635192441771 0.00012872834846100215 0 0.0033174259042383428 0.00018519043209489747 0 0.0035027635192441771 0.00012872834846100215 0 0.0031997197696741865 -2.8672577846611286e-08 0 0.0033174259042383428 0.00018519043209489747 0 0.0033751219426255905 0.00016964579607096659 0 0.0033056933432698541 0.00017251641107274933 0 0.0033874385123063063 0.00014915359407843002 0 0.0038167720934584553 0.00063448255271035753 0 0.003927240187926566 0.00058961503305317861 0 0.0039711026443313121 0.00062868298936388149 0 0.003927240187926566 0.00058961503305317861 0 0.0039641526413399207 0.00059679015493482824 0 0.0039711026443313121 0.00062868298936388149 0 0.0039578821624063603 0.00057546319921393323 0 0.0039641526413399207 0.00059679015493482824 0 0.0039881068737201543 0.00059743139683535575 0 0.0039578821624063603 0.00057546319921393323 0 0.003927240187926566 0.00058961503305317861 0 0.0039641526413399207 0.00059679015493482824 0 0.0037725830282157027 0.0003121137256314309 0 0.003912377749823409 0.00028464095067605417 0 0.0039641526413399207 0.00059679015493482824 0 0.0039711026443313121 0.00062868298936388149 0 0.0039881068737201543 0.00059743139683535575 0 0.0038416531005491731 0.00063759652588917816 0 0.0038587187825394101 0.000624298924968873 0 0.00385560641743768 0.00062993893914975983 0 0.0037725830282157027 0.0003121137256314309 0 0.0037350601429700053 0.00013433789458750826 0 0.0035027635192441771 0.00012872834846100215 0 0.0036452629343382958 2.4065872163913753e-05 0 0.0034342443563122127 -3.6028325220846457e-05 0 0.0035319234219799694 -6.2900895652333818e-05 0 0.0035263366256807495 9.2734283132471292e-06 0 0.0036336276135920434 6.606454179969217e-05 0 0.0035834930462463862 0.00014923023450940241 0 0.0037057548292319252 0.00011546654850517221 0 0.0037725830282157027 0.0003121137256314309 0 0.0035027635192441771 0.00012872834846100215 0 0.0036899507606408589 -0.00011423054145254551 0 0.0037290097616581807 -0.00012503834947377802 0 0.0036884264981234842 -9.4764775198978782e-05 0 0.0036452629343382958 2.4065872163913753e-05 0 0.0034858319388216354 -0.00011986482263242866 0 0.0036452629343382958 2.4065872163913753e-05 0 0.0037350601429700053 0.00013433789458750826 0 0.0036452629343382958 2.4065872163913753e-05 0 0.003848799263667743 -3.7516169163637889e-05 0 0.0039379571327254051 -7.8534761600862322e-05 0 0.0039385477795026809 -7.9387054858884068e-05 0 0.0039385629031100143 -7.8379078880940777e-05 0 0.0039379571327254051 -7.8534761600862322e-05 0 0.0039368436677124866 -7.7480066112041673e-05 0 0.0039385629031100143 -7.8379078880940777e-05 0 0.0037350601429700053 0.00013433789458750826 0 0.003848799263667743 -3.7516169163637889e-05 0 0.0036501940828421605 4.3031274436825019e-05 0 0.0036541632961050318 -9.7486529658081515e-06 0 0.0038412651862714977 -1.0014944546765927e-05 0 0.0038430059801850039 0.0002876519921019235 0 0.0038640263179273229 0.00028757973960830515 0 0.0038673752593846181 0.00024777220204823155 0 0.0039379571327254051 -7.8534761600862322e-05 0 0.0039368436677124866 -7.7480066112041673e-05 0 0.0039378651509146519 -7.8636600261811066e-05 0 0.0036336276135920434 6.606454179969217e-05 0 0.0037057548292319252 0.00011546654850517221 0 0.0037095142557961127 6.602105826554229e-05 0 0.0037350601429700053 0.00013433789458750826 0 0.003912377749823409 0.00028464095067605417 0 0.0039379571327254051 -7.8534761600862322e-05 0 0.0039378651509146519 -7.8636600261811066e-05 0 0.0039385477795026809 -7.9387054858884068e-05 0 0.003939026245577619 -7.9563358636609678e-05 0 0.0039378651509146519 -7.8636600261811066e-05 0 0.0039385477795026809 -7.9387054858884068e-05 0 0.003939026245577619 -7.9563358636609678e-05 0 0.0039385477795026809 -7.9387054858884068e-05 0 0.0039390434767864625 -8.0766853457397614e-05 0 0.0039385477795026809 -7.9387054858884068e-05 0 0.0039385629031100143 -7.8379078880940777e-05 0 0.0039390434767864625 -8.0766853457397614e-05 0 0.0037290097616581807 -0.00012503834947377802 0 0.0036884264981234842 -9.4764775198978782e-05 0 0.0037652429997116861 -9.8210339552847207e-05 0 0.0034858319388216354 -0.00011986482263242866 0 0.0037955857232961532 -0.00010736800024978631 0 0.0036892273951879052 -0.00011470175127196375 0 0.0037485633364550417 -6.3283975321460663e-05 0 0.003676686184078749 -1.400350321425938e-05 0 0.0036892273951879052 -0.00011470175127196375 0 0.0037485633364550417 -6.3283975321460663e-05 0 0.0037631463087675478 -0.00011457357377958544 0 0.0037485633364550417 -6.3283975321460663e-05 0 0.0038002537620062736 -7.7919346325162989e-05 0 0.0038010360991024713 -4.2398883063550177e-05 0 0.0038002537620062736 -7.7919346325162989e-05 0 0.0038439592787389031 -6.5295930452780623e-05 0 0.0038010360991024713 -4.2398883063550177e-05 0 0.0038002537620062736 -7.7919346325162989e-05 0 0.0038384831652614592 -0.00010241529077811456 0 0.0037631463087675478 -0.00011457357377958544 0 0.0038002537620062736 -7.7919346325162989e-05 0 0.0038384831652614592 -0.00010241529077811456 0 0.0038439592787389031 -6.5295930452780623e-05 0 0.0038172086792496243 -0.00010422767120810913 0 0.0037955857232961532 -0.00010736800024978631 0 0.0037485633364550417 -6.3283975321460663e-05 0 0.0038002537620062736 -7.7919346325162989e-05 0 0.0037631463087675478 -0.00011457357377958544 0 0.003848799263667743 -3.7516169163637889e-05 0 0.0038786929572545877 -0.00010700622631338093 0 0.0039401626180708294 -8.3248452746125895e-05 0 0.0039390173051324544 -8.4343823626129282e-05 0 0.0039387853965565656 -8.7143641858363269e-05 0 0.003848799263667743 -3.7516169163637889e-05 0 0.0039711573131229029 -9.2328401926571046e-05 0 0.0039385629031100143 -7.8379078880940777e-05 0 0.0039390434767864625 -8.0766853457397614e-05 0 0.0039390173051324544 -8.4343823626129282e-05 0 0.0037290097616581807 -0.00012503834947377802 0 0.0037652429997116861 -9.8210339552847207e-05 0 0.0038268684209584315 -0.00012532918472603306 0 0.0039390870415580946 -8.1000654829532033e-05 0 0.0039390434767864625 -8.0766853457397614e-05 0 0.0039390173051324544 -8.4343823626129282e-05 0 0.0039372349344721962 -8.2004066974470819e-05 0 0.0039390173051324544 -8.4343823626129282e-05 0 0.0039346346517798612 -8.5048161188618892e-05 0 0.0039390173051324544 -8.4343823626129282e-05 0 0.0039387853965565656 -8.7143641858363269e-05 0 0.0039346346517798612 -8.5048161188618892e-05 0 0.0039372349344721962 -8.2004066974470819e-05 0 0.0039390870415580946 -8.1000654829532033e-05 0 0.0039390173051324544 -8.4343823626129282e-05 0 0.0038384831652614592 -0.00010241529077811456 0 0.0037652429997116861 -9.8210339552847207e-05 0 0.0038268684209584315 -0.00012532918472603306 0 0.003917552517110714 -9.351883003763786e-05 0 0.0039387853965565656 -8.7143641858363269e-05 0 0.0039346346517798612 -8.5048161188618892e-05 0 0.003912805497838491 -9.6937702327714619e-05 0 0.0038786929572545877 -0.00010700622631338093 0 0.003917552517110714 -9.351883003763786e-05 0 0.0038384831652614592 -0.00010241529077811456 0 0.0038268684209584315 -0.00012532918472603306 0 0.003934565178515188 -8.2163347079391722e-05 0 0.0039372349344721962 -8.2004066974470819e-05 0 0.0039346346517798612 -8.5048161188618892e-05 0 0.003934565178515188 -8.2163347079391722e-05 0 0.003933483842719597 -8.4600378184500395e-05 0 0.003917552517110714 -9.351883003763786e-05 0 0.003934565178515188 -8.2163347079391722e-05 0 0.003917552517110714 -9.351883003763786e-05 0 0.0039346346517798612 -8.5048161188618892e-05 0 0.003917552517110714 -9.351883003763786e-05 0 0.0038384831652614592 -0.00010241529077811456 0 0.0038836124528562922 -7.4357043796355411e-05 0 0.0038384831652614592 -0.00010241529077811456 0 0.0038836124528562922 -7.4357043796355411e-05 0 0.0038439592787389031 -6.5295930452780623e-05 0 0.0038836124528562922 -7.4357043796355411e-05 0 0.0038439592787389031 -6.5295930452780623e-05 0 0.003882106191742779 -4.4064873346296801e-05 0 0.003882106191742779 -4.4064873346296801e-05 0 0.0038415535122879609 -1.2301422587742541e-05 0 0.0038726966373054277 3.1125872073924682e-05 0 0.0038439592787389031 -6.5295930452780623e-05 0 0.003882106191742779 -4.4064873346296801e-05 0 0.0038415535122879609 -1.2301422587742541e-05 0 0.0038415535122879609 -1.2301422587742541e-05 0 0.0038726966373054277 3.1125872073924682e-05 0 0.0037834401983541277 3.2906019172551641e-05 0 0.0039045680442208177 -1.3906313310121459e-05 0 0.0036990756203919761 2.8867872346604973e-05 0 0.0037834401983541277 3.2906019172551641e-05 0 0.003751627331584051 0.00012812711494687631 0 0.0038068189769106691 0.00012336624749006292 0 0.0038726966373054277 3.1125872073924682e-05 0 0.0037834401983541277 3.2906019172551641e-05 0 0.0038027844961658519 9.7495926628818477e-05 0 0.0037942945362297634 7.5665761325918488e-05 0 0.0036990756203919761 2.8867872346604973e-05 0 0.0038415535122879609 -1.2301422587742541e-05 0 0.0037834401983541277 3.2906019172551641e-05 0 0.0038010360991024713 -4.2398883063550177e-05 0 0.0037834401983541277 3.2906019172551641e-05 0 0.0038010360991024713 -4.2398883063550177e-05 0 0.0037465900512023073 -7.3345794070647756e-06 0 0.0038439592787389031 -6.5295930452780623e-05 0 0.0038415535122879609 -1.2301422587742541e-05 0 0.0038010360991024713 -4.2398883063550177e-05 0 0.0037485633364550417 -6.3283975321460663e-05 0 0.0038010360991024713 -4.2398883063550177e-05 0 0.0037465900512023073 -7.3345794070647756e-06 0 0.0037485633364550417 -6.3283975321460663e-05 0 0.0037465900512023073 -7.3345794070647756e-06 0 0.003676686184078749 -1.400350321425938e-05 0 0.0037465900512023073 -7.3345794070647756e-06 0 0.0037200275900930845 5.5518450323519935e-05 0 0.003676686184078749 -1.400350321425938e-05 0 0.0037834401983541277 3.2906019172551641e-05 0 0.0037465900512023073 -7.3345794070647756e-06 0 0.0037200275900930845 5.5518450323519935e-05 0 0.0037834401983541277 3.2906019172551641e-05 0 0.0037200275900930845 5.5518450323519935e-05 0 0.003751627331584051 0.00012812711494687631 0 0.0037200275900930845 5.5518450323519935e-05 0 0.0036539640968435124 9.6812763664600991e-05 0 0.003676686184078749 -1.400350321425938e-05 0 0.0037200275900930845 5.5518450323519935e-05 0 0.0037070133628682822 0.00010906354896513981 0 0.003751627331584051 0.00012812711494687631 0 0.0037200275900930845 5.5518450323519935e-05 0 0.0036539640968435124 9.6812763664600991e-05 0 0.0037070133628682822 0.00010906354896513981 0 0.0032753604336216661 0.00010897407371129747 0 0.0032659893533585342 -3.250741284111674e-05 0 0.002868891246843691 0.00013042230442916755 0 0.0028121721305096243 4.4596489514590651e-05 0 0.0028881224702367288 -3.9866391765179875e-05 0 0.0027572769736011814 0.00010883643700331828 0 0.002868891246843691 0.00013042230442916755 0 0.0028121721305096243 4.4596489514590651e-05 0 0.0027339398646954748 -2.1702788474599363e-05 0 0.0028121721305096243 4.4596489514590651e-05 0 0.0028881224702367288 -3.9866391765179875e-05 0 0.0027339398646954748 -2.1702788474599363e-05 0 0.0028556242844953702 -0.0002108974296542167 0 0.0028881224702367288 -3.9866391765179875e-05 0 0.0027509399438729928 0.00022275564731933923 0 0.0028368000277694968 0.00030226345087244202 0 0.0027675133144447217 0.00043254208877125424 0 0.0028452274051599018 0.00036613808280167135 0 0.0028368000277694968 0.00030226345087244202 0 0.0027675133144447217 0.00043254208877125424 0 0.00283622532088002 0.00029377150262589817 0 0.0028468466637229135 0.00016139705514281097 0 0.003018287093758701 0.00013619242487177962 0 0.0028452274051599018 0.00036613808280167135 0 0.0028368000277694968 0.00030226345087244202 0 0.0028513133928769118 0.00030012000369252222 0 0.0026186190872001815 0.00024650313912481521 0 0.0030913138776203484 0.00028877820479941094 0 0.0030579411695164558 0.00029279298998648477 0 0.0030913138776203484 0.00028877820479941094 0 0.0027509399438729928 0.00022275564731933923 0 0.0028368000277694968 0.00030226345087244202 0 0.0028516372788815083 0.000300173917782847 0 0.0027509399438729928 0.00022275564731933923 0 0.002868891246843691 0.00013042230442916755 0 0.0028516372788815083 0.000300173917782847 0 0.0032753604336216661 0.00010897407371129747 0 0.0030913138776203484 0.00028877820479941094 0 0.0036539640968435124 9.6812763664600991e-05 0 0.0036342817269905147 0.0002258235666182579 0 0.0037019721554927502 0.00015674289432621164 0 0.0027572769736011814 0.00010883643700331828 0 0.0027509399438729928 0.00022275564731933923 0 0.002868891246843691 0.00013042230442916755 0 0.0036539640968435124 9.6812763664600991e-05 0 0.0037019721554927502 0.00015674289432621164 0 0.0037070133628682822 0.00010906354896513981 0 0.0037019721554927502 0.00015674289432621164 0 0.0037070133628682822 0.00010906354896513981 0 0.003751627331584051 0.00012812711494687631 0 0.003068483530169544 0.00014914349376103056 0 0.0034736344849257503 0.00010708918373812602 0 0.0037019721554927502 0.00015674289432621164 0 0.003751627331584051 0.00012812711494687631 0 0.0037648971623670023 0.00016110087430570361 0 0.0037019721554927502 0.00015674289432621164 0 0.0037012319270880302 0.00021629051452179564 0 0.0037648971623670023 0.00016110087430570361 0 0.003068483530169544 0.00014914349376103056 0 0.0030041452034075405 8.1652734040295842e-05 0 0.0031331648871379993 0.00016088855653607431 0 0.0032439449549018329 0.00014435148295149249 0 0.0032193490270921747 8.6293661539720297e-05 0 0.002409456613076406 0.00011322706043881378 0 0.0024771683352072024 5.6498718514345779e-05 0 0.002511859765377899 0.00011587405650497219 0 0.0024771683352072024 5.6498718514345779e-05 0 0.002511859765377899 0.00011587405650497219 0 0.0025538106148581888 4.5675510940045134e-05 0 0.0030913138776203484 0.00028877820479941094 0 0.003068483530169544 0.00014914349376103056 0 0.0036342817269905147 0.0002258235666182579 0 0.0037019721554927502 0.00015674289432621164 0 0.0037012319270880302 0.00021629051452179564 0 0.0026186190872001815 0.00024650313912481521 0 0.003068483530169544 0.00014914349376103056 0 0.0030041452034075405 8.1652734040295842e-05 0 0.0023393863396192088 5.4394612799076363e-05 0 0.002511859765377899 0.00011587405650497219 0 0.0025538106148581888 4.5675510940045134e-05 0 0.0025969353211093165 0.00015343700194048621 0 0.002863072772536359 0.00015445715056297034 0 0.0028043796154214031 -3.9033151634231895e-05 0 0.0028516834768702402 -6.0746560986891561e-05 0 0.002863072772536359 0.00015445715056297034 0 0.0029438737550481196 0.00014264871370085337 0 0.0028516834768702402 -6.0746560986891561e-05 0 0.0033642705295409019 3.1505154110964716e-05 0 0.0030041452034075405 8.1652734040295842e-05 0 0.0033972472572001608 3.7830307224795011e-05 0 0.0033936814212235222 3.8401806385130863e-05 0 0.003393215537215766 3.5600011655956492e-05 0 0.0030041452034075405 8.1652734040295842e-05 0 0.0034736344849257503 0.00010708918373812602 0 0.0035878933230844251 0.00017636023645033799 0 0.0034736344849257503 0.00010708918373812602 0 0.003751627331584051 0.00012812711494687631 0 0.0037646228940862794 0.0001594040230707965 0 0.0038068189769106691 0.00012336624749006292 0 0.0034736344849257503 0.00010708918373812602 0 0.0036990756203919761 2.8867872346604973e-05 0 0.0038875907284360457 -2.9940267561542171e-05 0 0.0038874189455407335 -3.4433386439389752e-05 0 0.0038908665919146824 -3.2716440403771743e-05 0 0.0033972472572001608 3.7830307224795011e-05 0 0.003393215537215766 3.5600011655956492e-05 0 0.0033972388952394563 3.2887499152295301e-05 0 0.0033642705295409019 3.1505154110964716e-05 0 0.0036990756203919761 2.8867872346604973e-05 0 0.0038144402742001041 -2.6104929785963921e-06 0 0.0037184319172301732 -6.1692653413048256e-05 0 0.0038991166976583775 -3.4301979208680675e-05 0 0.0038936915673075346 -2.9243901343647923e-05 0 0.003907990677123753 -4.2272693511504772e-05 0 0.0038875907284360457 -2.9940267561542171e-05 0 0.0038908665919146824 -3.2716440403771743e-05 0 0.0038903472305550817 -3.0818603787055539e-05 0 0.0037184319172301732 -6.1692653413048256e-05 0 0.003896668465393873 -6.2406833814483508e-05 0 0.003896017274330631 -3.7906327914108538e-05 0 0.0038874189455407335 -3.4433386439389752e-05 0 0.0038908665919146824 -3.2716440403771743e-05 0 0.0038908665919146824 -3.2716440403771743e-05 0 0.0038991166976583775 -3.4301979208680675e-05 0 0.0038936915673075346 -2.9243901343647923e-05 0 0.003896017274330631 -3.7906327914108538e-05 0 0.0038908665919146824 -3.2716440403771743e-05 0 0.0038991166976583775 -3.4301979208680675e-05 0 0.0033642705295409019 3.1505154110964716e-05 0 0.0027678051922721335 3.758572343693245e-05 0 0.0037184319172301732 -6.1692653413048256e-05 0 0.0033555433251276435 -2.992645669373284e-05 0 0.0038704734760569653 -8.3313069075368723e-05 0 0.0038555987886378365 -0.00010920585026745298 0 0.0038528835009993445 -9.0795305736263645e-05 0 0.0038704734760569653 -8.3313069075368723e-05 0 0.0038431948880716048 -7.5942413591528917e-05 0 0.0038528835009993445 -9.0795305736263645e-05 0 0.0032837630992253999 2.3269991141947595e-05 0 0.0032680265975181823 7.1933126380557895e-06 0 0.0032700524306965312 -1.4773613760380798e-05 0 0.0032837630992253999 2.3269991141947595e-05 0 0.0032686789422425168 2.5437877802319602e-05 0 0.0032680265975181823 7.1933126380557895e-06 0 0.0033642705295409019 3.1505154110964716e-05 0 0.0037184319172301732 -6.1692653413048256e-05 0 0.0032680265975181823 7.1933126380557895e-06 0 0.0032497409208569394 -5.051727303163263e-06 0 0.0032700524306965312 -1.4773613760380798e-05 0 0.0032686789422425168 2.5437877802319602e-05 0 0.0032680265975181823 7.1933126380557895e-06 0 0.0032497409208569394 -5.051727303163263e-06 0 0.0027310469158412388 0.00010655128951702737 0 0.0027107354293412259 9.4011715075917131e-05 0 0.0027181182938121923 7.2993490206560034e-05 0 0.0024087607409676351 0.00010221549021831884 0 0.002383305406834707 2.2241283371265935e-05 0 0.0024307444840319546 9.1964366734724066e-05 0 0.0027678051922721335 3.758572343693245e-05 0 0.0025544270197087604 5.4564532922900221e-05 0 0.0027105002855561436 0.00011663035043314288 0 0.0027310469158412388 0.00010655128951702737 0 0.0027107354293412259 9.4011715075917131e-05 0 0.0033555433251276435 -2.992645669373284e-05 0 0.0027678051922721335 3.758572343693245e-05 0 0.0027678051922721335 3.758572343693245e-05 0 0.0023393863396192088 5.4394612799076363e-05 0 0.002383305406834707 2.2241283371265935e-05 0 0.0023852709469222399 -5.2015763841504231e-06 0 0.0024307444840319546 9.1964366734724066e-05 0 0.0020536844257698847 -4.4493164679259537e-05 0 0.0023393863396192088 5.4394612799076363e-05 0 0.0025544270197087604 5.4564532922900221e-05 0 0.0022816080283700525 1.4807578575299357e-05 0 0.002383305406834707 2.2241283371265935e-05 0 0.0023852709469222399 -5.2015763841504231e-06 0 0.0023602220246624265 -5.8308113731866215e-05 0 0.0027181182938121923 7.2993490206560034e-05 0 0.002702823438358122 7.8348621959485504e-05 0 0.0026941087469739551 6.1066982730738679e-05 0 0.0027107354293412259 9.4011715075917131e-05 0 0.0027181182938121923 7.2993490206560034e-05 0 0.002702823438358122 7.8348621959485504e-05 0 0.0027181182938121923 7.2993490206560034e-05 0 0.0026941087469739551 6.1066982730738679e-05 0 0.002705053835237641 3.8522202799510842e-05 0 0.0017496626790357806 -3.2786882450038172e-06 0 0.0016902795152067584 6.2239563466560142e-06 0 0.0016811491193928503 -3.2091682515186019e-05 0 0.0017496626790357806 -3.2786882450038172e-06 0 0.0016811491193928503 -3.2091682515186019e-05 0 0.0017204256702845015 -6.6938512283919415e-05 0 0.0016902795152067584 6.2239563466560142e-06 0 0.0016811491193928503 -3.2091682515186019e-05 0 0.0016484045238475227 4.4305263745820585e-06 0 0.0016902795152067584 6.2239563466560142e-06 0 0.0016484045238475227 4.4305263745820585e-06 0 0.0016667832459286961 1.8158275993847505e-05 0 0.0023393863396192088 5.4394612799076363e-05 0 0.002055779986788304 8.6384131804483809e-05 0 0.0016811491193928503 -3.2091682515186019e-05 0 0.0017204256702845015 -6.6938512283919415e-05 0 0.0016710507503128553 -3.8507500874984828e-05 0 0.002511859765377899 0.00011587405650497219 0 0.0025969353211093165 0.00015343700194048621 0 0.0024970299706556912 0.00019943366631826941 0 0.002409456613076406 0.00011322706043881378 0 0.002511859765377899 0.00011587405650497219 0 0.0024970299706556912 0.00019943366631826941 0 0.0016811491193928503 -3.2091682515186019e-05 0 0.0016710507503128553 -3.8507500874984828e-05 0 0.001664747450594591 -2.827962170595382e-05 0 0.0016710507503128553 -3.8507500874984828e-05 0 0.001664747450594591 -2.827962170595382e-05 0 0.0016562221840282214 -2.5589777746657751e-05 0 0.0016811491193928503 -3.2091682515186019e-05 0 0.001664747450594591 -2.827962170595382e-05 0 0.0016571204138267604 -1.9417863005334046e-05 0 0.0016811491193928503 -3.2091682515186019e-05 0 0.0016484045238475227 4.4305263745820585e-06 0 0.00158874245631888 7.7755382546611579e-06 0 0.0016661063139521155 -4.0378339721278959e-05 0 0.0016650143613165663 4.6832926495434512e-05 0 0.002055779986788304 8.6384131804483809e-05 0 0.00204466156859698 0.00015594305267589427 0 0.0016484045238475227 4.4305263745820585e-06 0 0.00158874245631888 7.7755382546611579e-06 0 0.0016242371028514237 1.4225357516401143e-05 0 0.0022874904589620412 0.00022464908259206253 0 0.0022841131344846898 0.00022591517033763655 0 0.0022859752482805831 0.00021702739949830624 0 0.0018581794939265652 0.00019191485631484491 0 0.0025000642706886696 0.00032598580576846469 0 0.001664747450594591 -2.827962170595382e-05 0 0.0016582198541529327 -2.3544159761620681e-05 0 0.0016562221840282214 -2.5589777746657751e-05 0 0.001664747450594591 -2.827962170595382e-05 0 0.0016582198541529327 -2.3544159761620681e-05 0 0.0016571204138267604 -1.9417863005334046e-05 0 0.0016582198541529327 -2.3544159761620681e-05 0 0.0016562221840282214 -2.5589777746657751e-05 0 0.001655155534237798 -2.1085164417716715e-05 0 0.00204466156859698 0.00015594305267589427 0 0.0017769390065932326 9.1103867367916299e-05 0 0.0016582198541529327 -2.3544159761620681e-05 0 0.001655155534237798 -2.1085164417716715e-05 0 0.0016571204138267604 -1.9417863005334046e-05 0 0.0017769390065932326 9.1103867367916299e-05 0 0.0016627787719829853 9.3245888647113271e-05 0 0.0017081767949567233 3.5117065229037642e-05 0 0.0017272401004825319 4.5872495603857233e-05 0 0.0017064374543195216 5.7053683027362287e-05 0 0.0017769390065932326 9.1103867367916299e-05 0 0.0016650143613165663 4.6832926495434512e-05 0 0.0016650143613165663 4.6832926495434512e-05 0 0.0016488472734541351 3.7997242706332925e-05 0 0.0017094535356677683 0.00014434009569993402 0 0.0017078003216522645 0.00013692351184085958 0 0.0017061042260154986 0.00015403573242001481 0 0.0018581794939265652 0.00019191485631484491 0 0.0015509855532239087 0.00021156069235814422 0 0.0017168999837458526 0.00014208786753768638 0 0.0017094535356677683 0.00014434009569993402 0 0.0017078003216522645 0.00013692351184085958 0 0.0017168999837458526 0.00014208786753768638 0 0.0017094535356677683 0.00014434009569993402 0 0.0017162466458656392 0.00014864050541274005 0 0.0017769390065932326 9.1103867367916299e-05 0 0.0018581794939265652 0.00019191485631484491 0 0.0019057800139820071 0.00018020334564215724 0 0.0019046115235776615 0.00019141707083325537 0 0.00189396408936036 0.00018558927354818871 0 0.00204466156859698 0.00015594305267589427 0 0.0018581794939265652 0.00019191485631484491 0 0.0022931893239327501 0.00021242740775099516 0 0.0022874904589620412 0.00022464908259206253 0 0.0022859752482805831 0.00021702739949830624 0 0.002409456613076406 0.00011322706043881378 0 0.0024970299706556912 0.00019943366631826941 0 0.0023949575906794781 0.00024516973695094411 0 0.0026186190872001815 0.00024650313912481521 0 0.00204466156859698 0.00015594305267589427 0 0.0026186190872001815 0.00024650313912481521 0 0.0025000642706886696 0.00032598580576846469 0 0.0023648022416975921 -0.00021774790717344171 0 0.0024411195849182946 -0.00018844677406984193 0 0.0024178624059420627 -8.6880791824507596e-05 0 0.0037173833419911202 -3.5802435507107265e-05 0 0.0037170779749547524 -5.8836389160791324e-05 0 0.0036576555478720894 -1.2094726855936899e-05 0 0.0024600765458712036 -0.00026306083403015962 0 0.0025225476960517982 -0.0001889441004680329 0 0.0025330735030884787 -0.00032459081848559189 0 0.0023648022416975921 -0.00021774790717344171 0 0.0024411195849182946 -0.00018844677406984193 0 0.0024600765458712036 -0.00026306083403015962 0 0.0024411195849182946 -0.00018844677406984193 0 0.0024600765458712036 -0.00026306083403015962 0 0.0025225476960517982 -0.0001889441004680329 0 0.0033886470602115548 -0.00014203447883350556 0 0.0029103560584037508 -0.00031304946858140163 0 0.0023648022416975921 -0.00021774790717344171 0 0.0024600765458712036 -0.00026306083403015962 0 0.0024463903231182124 -0.00039570762091352646 0 0.0024463903231182124 -0.00039570762091352646 0 0.0025330735030884787 -0.00032459081848559189 0 0.0025997633923062198 -0.0004263810362104045 0 0.0024600765458712036 -0.00026306083403015962 0 0.0024463903231182124 -0.00039570762091352646 0 0.0025330735030884787 -0.00032459081848559189 0 0.0037070943316307343 -5.959539910984166e-05 0 0.0037170779749547524 -5.8836389160791324e-05 0 0.0037358156665796703 -3.188994984049189e-05 0 0.0030089054252106207 -0.00012439573301597346 0 0.0033886470602115548 -0.00014203447883350556 0 0.0033886470602115548 -0.00014203447883350556 0 0.0039161136344469495 -3.4295897836173487e-05 0 0.0039394490608931805 -3.8923738343930104e-05 0 0.0039497697500862246 -2.7008023161524795e-05 0 0.0039256199746742458 -2.0578963974907739e-05 0 0.0037173833419911202 -3.5802435507107265e-05 0 0.0037070943316307343 -5.959539910984166e-05 0 0.0037170779749547524 -5.8836389160791324e-05 0 0.0037170779749547524 -5.8836389160791324e-05 0 0.0037358156665796703 -3.188994984049189e-05 0 0.0037921276926890426 -5.3907051478713095e-05 0 0.0037170779749547524 -5.8836389160791324e-05 0 0.0037921276926890426 -5.3907051478713095e-05 0 0.0038191164757919874 -9.9208529302571787e-05 0 0.0039256199746742458 -2.0578963974907739e-05 0 0.0039049545563727478 -3.2664910852865779e-05 0 0.003875012209590965 -2.5533797228673001e-05 0 0.0039161136344469495 -3.4295897836173487e-05 0 0.0038433993332479205 -2.3701415643267734e-05 0 0.0037921276926890426 -5.3907051478713095e-05 0 0.0038431948880716048 -7.5942413591528917e-05 0 0.0038191164757919874 -9.9208529302571787e-05 0 0.0037921276926890426 -5.3907051478713095e-05 0 0.003875012209590965 -2.5533797228673001e-05 0 0.003907990677123753 -4.2272693511504772e-05 0 0.0037899009057481598 -5.134888802370261e-05 0 0.003896668465393873 -6.2406833814483508e-05 0 0.0037358156665796703 -3.188994984049189e-05 0 0.0037921276926890426 -5.3907051478713095e-05 0 0.003875012209590965 -2.5533797228673001e-05 0 0.0039223852960288443 -3.669569939736391e-05 0 0.0039256199746742458 -2.0578963974907739e-05 0 0.0039049545563727478 -3.2664910852865779e-05 0 0.0038951874306612359 -3.1769039518954102e-05 0 0.0039049545563727478 -3.2664910852865779e-05 0 0.003875012209590965 -2.5533797228673001e-05 0 0.0038998509800758771 -3.4569837757010038e-05 0 0.0038991166976583775 -3.4301979208680675e-05 0 0.0038971513108614709 -3.0108384117446235e-05 0 0.0038951874306612359 -3.1769039518954102e-05 0 0.0038971513108614709 -3.0108384117446235e-05 0 0.003875012209590965 -2.5533797228673001e-05 0 0.0038971513108614709 -3.0108384117446235e-05 0 0.003875012209590965 -2.5533797228673001e-05 0 0.003907990677123753 -4.2272693511504772e-05 0 0.0038991166976583775 -3.4301979208680675e-05 0 0.0038971513108614709 -3.0108384117446235e-05 0 0.003907990677123753 -4.2272693511504772e-05 0 0.0033555433251276435 -2.992645669373284e-05 0 0.0037701184874993025 -8.6200748895273819e-05 0 0.0038431948880716048 -7.5942413591528917e-05 0 0.0038528835009993445 -9.0795305736263645e-05 0 0.0038191164757919874 -9.9208529302571787e-05 0 0.0038555987886378365 -0.00010920585026745298 0 0.0038528835009993445 -9.0795305736263645e-05 0 0.0038191164757919874 -9.9208529302571787e-05 0 0.0034902540407550724 5.9688809842148315e-06 0 0.0036051215796587305 -4.1169040348356815e-05 0 0.0035886978198092271 3.299586616904345e-05 0 0.0036916858995362759 -5.2000382591411897e-05 0 0.0037701184874993025 -8.6200748895273819e-05 0 0.0037170779749547524 -5.8836389160791324e-05 0 0.0036051215796587305 -4.1169040348356815e-05 0 0.0036576555478720894 -1.2094726855936899e-05 0 0.0036051215796587305 -4.1169040348356815e-05 0 0.0036576555478720894 -1.2094726855936899e-05 0 0.0035886978198092271 3.299586616904345e-05 0 0.0035886978198092271 3.299586616904345e-05 0 0.0036537027093827691 7.1814229238884359e-05 0 0.0035392985098344778 9.2869176944911869e-05 0 0.0036576555478720894 -1.2094726855936899e-05 0 0.0035886978198092271 3.299586616904345e-05 0 0.0036537027093827691 7.1814229238884359e-05 0 0.0027105002855561436 0.00011663035043314288 0 0.0027107354293412259 9.4011715075917131e-05 0 0.0026883620156781065 8.5198994693722659e-05 0 0.0033555433251276435 -2.992645669373284e-05 0 0.0031219400328836772 0.00010621695497670684 0 0.0034902540407550724 5.9688809842148315e-06 0 0.0035886978198092271 3.299586616904345e-05 0 0.0035392985098344778 9.2869176944911869e-05 0 0.0027107354293412259 9.4011715075917131e-05 0 0.0026883620156781065 8.5198994693722659e-05 0 0.002702823438358122 7.8348621959485504e-05 0 0.0026883620156781065 8.5198994693722659e-05 0 0.0026941087469739551 6.1066982730738679e-05 0 0.0026673676107071527 5.3458638418084323e-05 0 0.0031219400328836772 0.00010621695497670684 0 0.0028829891271301275 7.352079466404911e-05 0 0.0026883620156781065 8.5198994693722659e-05 0 0.002702823438358122 7.8348621959485504e-05 0 0.0026941087469739551 6.1066982730738679e-05 0 0.0029998323950414978 -9.4350335357033165e-06 0 0.0028829891271301275 7.352079466404911e-05 0 0.0023262787979535077 -7.96448966291351e-05 0 0.0023695524206781881 -2.9570794572224006e-05 0 0.0022982074840668634 4.0266554753975882e-06 0 0.0036537027093827691 7.1814229238884359e-05 0 0.0035392985098344778 9.2869176944911869e-05 0 0.0035836634999105981 0.00017807946561467506 0 0.0023695524206781881 -2.9570794572224006e-05 0 0.0023552831083736947 1.650184844635999e-05 0 0.0022982074840668634 4.0266554753975882e-06 0 0.0023695524206781881 -2.9570794572224006e-05 0 0.0024178624059420627 -8.6880791824507596e-05 0 0.0024156979332316487 6.341779120716199e-06 0 0.0023695524206781881 -2.9570794572224006e-05 0 0.0024156979332316487 6.341779120716199e-06 0 0.0023552831083736947 1.650184844635999e-05 0 0.0030089054252106207 -0.00012439573301597346 0 0.0029998323950414978 -9.4350335357033165e-06 0 0.0037173833419911202 -3.5802435507107265e-05 0 0.0036576555478720894 -1.2094726855936899e-05 0 0.0036537027093827691 7.1814229238884359e-05 0 0.0023262787979535077 -7.96448966291351e-05 0 0.0023695524206781881 -2.9570794572224006e-05 0 0.0024178624059420627 -8.6880791824507596e-05 0 0.0023648022416975921 -0.00021774790717344171 0 0.0023262787979535077 -7.96448966291351e-05 0 0.0024178624059420627 -8.6880791824507596e-05 0 0.0024178624059420627 -8.6880791824507596e-05 0 0.0025236485761633278 6.9147426694569723e-06 0 0.0025225476960517982 -0.0001889441004680329 0 0.0024411195849182946 -0.00018844677406984193 0 0.0024178624059420627 -8.6880791824507596e-05 0 0.0025225476960517982 -0.0001889441004680329 0 0.0024156979332316487 6.341779120716199e-06 0 0.0025236485761633278 6.9147426694569723e-06 0 0.0024392590392180585 3.7394599464370831e-05 0 0.0024178624059420627 -8.6880791824507596e-05 0 0.0024156979332316487 6.341779120716199e-06 0 0.0025236485761633278 6.9147426694569723e-06 0 0.0025236485761633278 6.9147426694569723e-06 0 0.0026736475238358882 -0.00015446182388107474 0 0.0028614796168669175 0.0001346078053003803 0 0.0025266683360363833 1.5657750176858136e-05 0 0.0026539093378982314 8.7855212631190397e-05 0 0.0025236485761633278 6.9147426694569723e-06 0 0.0024525751064177191 5.1417020886641604e-05 0 0.002468760129177675 3.1880908451923807e-05 0 0.0026736475238358882 -0.00015446182388107474 0 0.0028614796168669175 0.0001346078053003803 0 0.0029056526010376236 -8.3030859360786575e-05 0 0.0025236485761633278 6.9147426694569723e-06 0 0.0026736475238358882 -0.00015446182388107474 0 0.0025225476960517982 -0.0001889441004680329 0 0.003022392639525702 6.2709221923630784e-05 0 0.0031568756436327772 -1.4381564567610132e-05 0 0.003159060292174401 0.00020442723487105438 0 0.0028614796168669175 0.0001346078053003803 0 0.003022392639525702 6.2709221923630784e-05 0 0.0029056526010376236 -8.3030859360786575e-05 0 0.0028614796168669175 0.0001346078053003803 0 0.003022392639525702 6.2709221923630784e-05 0 0.003159060292174401 0.00020442723487105438 0 0.003022392639525702 6.2709221923630784e-05 0 0.0029056526010376236 -8.3030859360786575e-05 0 0.0031568756436327772 -1.4381564567610132e-05 0 0.0029056526010376236 -8.3030859360786575e-05 0 0.0031568756436327772 -1.4381564567610132e-05 0 0.0032584904352212928 -0.0002495030661160704 0 0.0029056526010376236 -8.3030859360786575e-05 0 0.0030520384386981585 -0.00036501478936678698 0 0.0032584904352212928 -0.0002495030661160704 0 0.0029061513661917146 -7.9502866935028958e-05 0 0.0028087798278086111 -0.00032742937865270724 0 0.0029056526010376236 -8.3030859360786575e-05 0 0.0030520384386981585 -0.00036501478936678698 0 0.0028700053406231782 -0.00030076058605312038 0 0.0030520384386981585 -0.00036501478936678698 0 0.0028165817858481776 -0.0005318536254413337 0 0.0030459793745496152 -0.00056123442617467257 0 0.0030520384386981585 -0.00036501478936678698 0 0.0028700053406231782 -0.00030076058605312038 0 0.0028165817858481776 -0.0005318536254413337 0 0.0030520384386981585 -0.00036501478936678698 0 0.0030459793745496152 -0.00056123442617467257 0 0.0032852057174378 -0.00059122690927241434 0 0.0030520384386981585 -0.00036501478936678698 0 0.0032852057174378 -0.00059122690927241434 0 0.0032584904352212928 -0.0002495030661160704 0 0.0026736475238358882 -0.00015446182388107474 0 0.0025225476960517982 -0.0001889441004680329 0 0.0026492535626606449 -0.00031015384029579721 0 0.0025225476960517982 -0.0001889441004680329 0 0.0026492535626606449 -0.00031015384029579721 0 0.0025330735030884787 -0.00032459081848559189 0 0.0026736475238358882 -0.00015446182388107474 0 0.0029056526010376236 -8.3030859360786575e-05 0 0.0028126476661770226 -0.00028458180987852487 0 0.0026736475238358882 -0.00015446182388107474 0 0.0028126476661770226 -0.00028458180987852487 0 0.0026492535626606449 -0.00031015384029579721 0 0.0028087798278086111 -0.00032742937865270724 0 0.003249219481349225 -0.00036698968117865549 0 0.0029103560584037508 -0.00031304946858140163 0 0.003249219481349225 -0.00036698968117865549 0 0.0028126476661770226 -0.00028458180987852487 0 0.0026492535626606449 -0.00031015384029579721 0 0.0027625570130335067 -0.00045307834105384195 0 0.0026492535626606449 -0.00031015384029579721 0 0.0025997633923062198 -0.0004263810362104045 0 0.0027625570130335067 -0.00045307834105384195 0 0.0026492535626606449 -0.00031015384029579721 0 0.0025330735030884787 -0.00032459081848559189 0 0.0025997633923062198 -0.0004263810362104045 0 0.0034245862578882996 -0.00021657175701508759 0 0.0034298385177327657 -0.00022301208914816861 0 0.0034247291736192037 -0.00022771457031907415 0 0.0034247291736192037 -0.00022771457031907415 0 0.0034350867374395148 -0.0002286655386447095 0 0.0034359071454531992 -0.00023899718434907785 0 0.0034298385177327657 -0.00022301208914816861 0 0.0034247291736192037 -0.00022771457031907415 0 0.0034350867374395148 -0.0002286655386447095 0 0.0037311611259892934 -0.00014828388593044278 0 0.0037234232684914422 -0.00019421144021762807 0 0.0039535405355577676 -0.00029296845608093837 0 0.0038872193460305435 -0.0002963377273918363 0 0.0039245357349196753 -0.00021680923482171775 0 0.0037232239350811136 -0.00023875817908098086 0 0.0037234232684914422 -0.00019421144021762807 0 0.0034245862578882996 -0.00021657175701508759 0 0.0034298385177327657 -0.00022301208914816861 0 0.0034342241976784713 -0.00021928999573814987 0 0.0034298385177327657 -0.00022301208914816861 0 0.0034350867374395148 -0.0002286655386447095 0 0.0034342241976784713 -0.00021928999573814987 0 0.0039535405355577676 -0.00029296845608093837 0 0.0039249755937659963 -0.00037924010493748696 0 0.0038872193460305435 -0.0002963377273918363 0 0.0037232239350811136 -0.00023875817908098086 0 0.003249219481349225 -0.00036698968117865549 0 0.003249219481349225 -0.00036698968117865549 0 0.0034749603121751139 -0.00047280771243980729 0 0.0039249755937659963 -0.00037924010493748696 0 0.0038425379902855025 -0.00036801945316164024 0 0.0038872193460305435 -0.0002963377273918363 0 0.0038425379902855025 -0.00036801945316164024 0 0.003815558333431778 -0.00029170621779413833 0 0.0038872193460305435 -0.0002963377273918363 0 0.0034749603121751139 -0.00047280771243980729 0 0.0034921649527962645 -0.00044658111411697871 0 0.0038425379902855025 -0.00036801945316164024 0 0.003815558333431778 -0.00029170621779413833 0 0.0037624732646885741 -0.00035732204379809772 0 0.003815558333431778 -0.00029170621779413833 0 0.0037597882565083155 -0.00025360607236159498 0 0.0037624732646885741 -0.00035732204379809772 0 0.003815558333431778 -0.00029170621779413833 0 0.0038872193460305435 -0.0002963377273918363 0 0.0038678856057889521 -0.00022222501591550244 0 0.0038872193460305435 -0.0002963377273918363 0 0.0038678856057889521 -0.00022222501591550244 0 0.0039245357349196753 -0.00021680923482171775 0 0.0038678856057889521 -0.00022222501591550244 0 0.0038091610174155405 -0.00020178105900850357 0 0.0038751912778210158 -0.00014905777741021451 0 0.0038678856057889521 -0.00022222501591550244 0 0.0039195492720724484 -0.00016351352155953358 0 0.0039245357349196753 -0.00021680923482171775 0 0.003815558333431778 -0.00029170621779413833 0 0.0038091610174155405 -0.00020178105900850357 0 0.0037597882565083155 -0.00025360607236159498 0 0.003815558333431778 -0.00029170621779413833 0 0.0038678856057889521 -0.00022222501591550244 0 0.0038091610174155405 -0.00020178105900850357 0 0.0038333097215229608 -0.00012188203275026045 0 0.0038091610174155405 -0.00020178105900850357 0 0.003738246463823675 -0.00016589121109581302 0 0.0038333097215229608 -0.00012188203275026045 0 0.0038091610174155405 -0.00020178105900850357 0 0.0038751912778210158 -0.00014905777741021451 0 0.0038678856057889521 -0.00022222501591550244 0 0.0038751912778210158 -0.00014905777741021451 0 0.0039195492720724484 -0.00016351352155953358 0 0.0038751912778210158 -0.00014905777741021451 0 0.0039222806464596074 -0.0001252272467657329 0 0.0039195492720724484 -0.00016351352155953358 0 0.0039480007148436332 -0.00010257206882654928 0 0.0039222806464596074 -0.0001252272467657329 0 0.0039452852452127535 -0.0001282786033229492 0 0.0039222806464596074 -0.0001252272467657329 0 0.0039195492720724484 -0.00016351352155953358 0 0.0039452852452127535 -0.0001282786033229492 0 0.0039195492720724484 -0.00016351352155953358 0 0.0039615471047541352 -0.00014378326216242396 0 0.0039452852452127535 -0.0001282786033229492 0 0.0039615471047541352 -0.00014378326216242396 0 0.0039452852452127535 -0.0001282786033229492 0 0.0039627467403727879 -0.00011884135051514932 0 0.0039615471047541352 -0.00014378326216242396 0 0.0039627467403727879 -0.00011884135051514932 0 0.0039655684599127286 -0.00012400584804424131 0 0.0039480007148436332 -0.00010257206882654928 0 0.0039452852452127535 -0.0001282786033229492 0 0.0039627467403727879 -0.00011884135051514932 0 0.0039674640694519247 -0.00010118740244968112 0 0.0039627467403727879 -0.00011884135051514932 0 0.0039668751662377752 -0.00010801275854372392 0 0.0039674640694519247 -0.00010118740244968112 0 0.0039672628021871024 -0.0001008157218131898 0 0.0039668751662377752 -0.00010801275854372392 0 0.0039668751662377752 -0.00010801275854372392 0 0.0039644967640440091 -0.00010260017622895775 0 0.0039660678389711254 -0.00011383694600552139 0 0.0039672628021871024 -0.0001008157218131898 0 0.0039668751662377752 -0.00010801275854372392 0 0.0039644967640440091 -0.00010260017622895775 0 0.0039644967640440091 -0.00010260017622895775 0 0.0039660678389711254 -0.00011383694600552139 0 0.0039655784400373139 -0.00010678245240010019 0 0.0039627467403727879 -0.00011884135051514932 0 0.0039668751662377752 -0.00010801275854372392 0 0.0039660678389711254 -0.00011383694600552139 0 0.0039627467403727879 -0.00011884135051514932 0 0.0039660678389711254 -0.00011383694600552139 0 0.0039655684599127286 -0.00012400584804424131 0 0.0039660678389711254 -0.00011383694600552139 0 0.0039655684599127286 -0.00012400584804424131 0 0.0039655784400373139 -0.00010678245240010019 0 0.0039620844647160654 -9.1443755123598184e-05 0 0.0039672038894088858 -6.2293869731989358e-05 0 0.0039724720714202719 -0.00010747098940939236 0 0.0039655684599127286 -0.00012400584804424131 0 0.0039655784400373139 -0.00010678245240010019 0 0.0039724720714202719 -0.00010747098940939236 0 0.0039620844647160654 -9.1443755123598184e-05 0 0.0039655784400373139 -0.00010678245240010019 0 0.0039724720714202719 -0.00010747098940939236 0 0.0039620844647160654 -9.1443755123598184e-05 0 0.0039644967640440091 -0.00010260017622895775 0 0.0039655784400373139 -0.00010678245240010019 0 0.0039535405355577676 -0.00029296845608093837 0 0.0039245357349196753 -0.00021680923482171775 0 0.0039861718464418439 -0.00019148617728390418 0 0.0039195492720724484 -0.00016351352155953358 0 0.0039615471047541352 -0.00014378326216242396 0 0.0039245357349196753 -0.00021680923482171775 0 0.0039615471047541352 -0.00014378326216242396 0 0.0039245357349196753 -0.00021680923482171775 0 0.0039861718464418439 -0.00019148617728390418 0 0.0039615471047541352 -0.00014378326216242396 0 0.0039655684599127286 -0.00012400584804424131 0 0.0039724720714202719 -0.00010747098940939236 0 0.0038569496842021963 -0.00020286160772098181 0 0.0037234232684914422 -0.00019421144021762807 0 0.0035666439518480158 -0.00023596646450426697 0 0.0035103433181832809 -0.00027655276109393522 0 0.0035583243555799508 -0.0003172197955694328 0 0.0035067021511019005 -0.00033685376679346539 0 0.0035263851006154712 -0.00033264119098963437 0 0.0035103506209614986 -0.00032236715216175726 0 0.0034945748173873551 -0.00023012017756384194 0 0.0035189841814021795 -0.00030771069989920721 0 0.0035188184519772824 -0.000304870189176383 0 0.0035263851006154712 -0.00033264119098963437 0 0.0035103506209614986 -0.00032236715216175726 0 0.0034877491162890063 -0.00016893394797459294 0 0.0035666439518480158 -0.00023596646450426697 0 0.0035103433181832809 -0.00027655276109393522 0 0.003577276395871598 -0.00015461066897683041 0 0.0034877491162890063 -0.00016893394797459294 0 0.0035666439518480158 -0.00023596646450426697 0 0.0036025136803587198 -0.00014300408447522455 0 0.0035730668375469504 -0.00023140660458183655 0 0.0036298829014530937 -0.00012220025712327058 0 0.0035666439518480158 -0.00023596646450426697 0 0.003738246463823675 -0.00016589121109581302 0 0.0035666439518480158 -0.00023596646450426697 0 0.003738246463823675 -0.00016589121109581302 0 0.0036265790520745474 -0.00026742238105298492 0 0.003738246463823675 -0.00016589121109581302 0 0.0036680659640178992 -0.00029689700405493262 0 0.0036265790520745474 -0.00026742238105298492 0 0.0037262179032567736 -0.00017128693467499521 0 0.0037410715426106525 -0.00026041831075566502 0 0.0038091610174155405 -0.00020178105900850357 0 0.003738246463823675 -0.00016589121109581302 0 0.0037597882565083155 -0.00025360607236159498 0 0.0035666439518480158 -0.00023596646450426697 0 0.0036265790520745474 -0.00026742238105298492 0 0.0035583243555799508 -0.0003172197955694328 0 0.0036265790520745474 -0.00026742238105298492 0 0.0035583243555799508 -0.0003172197955694328 0 0.0035926526588384287 -0.00034327242997579985 0 0.0035583243555799508 -0.0003172197955694328 0 0.0035926526588384287 -0.00034327242997579985 0 0.003518386203471423 -0.00040793757491905044 0 0.0036680659640178992 -0.00029689700405493262 0 0.0036265790520745474 -0.00026742238105298492 0 0.0035926526588384287 -0.00034327242997579985 0 0.0036680659640178992 -0.00029689700405493262 0 0.0035926526588384287 -0.00034327242997579985 0 0.0036475848271101401 -0.00042761285315815432 0 0.0037410715426106525 -0.00026041831075566502 0 0.0034921649527962645 -0.00044658111411697871 0 0.0034921649527962645 -0.00044658111411697871 0 0.0035148647162852676 -0.00041307970658284161 0 0.0035926526588384287 -0.00034327242997579985 0 0.0036475848271101401 -0.00042761285315815432 0 0.003518386203471423 -0.00040793757491905044 0 0.0033509411621787688 -0.00042050653543488975 0 0.003518386203471423 -0.00040793757491905044 0 0.0034493103662742827 -0.0003261582413995598 0 0.0035583243555799508 -0.0003172197955694328 0 0.003518386203471423 -0.00040793757491905044 0 0.0035231884013476522 -0.00037306293624038281 0 0.003518386203471423 -0.00040793757491905044 0 0.0035231884013476522 -0.00037306293624038281 0 0.0035147266792555838 -0.00037358743866214799 0 0.0035231884013476522 -0.00037306293624038281 0 0.0035216928425163291 -0.00035758307313715889 0 0.0035438850563351862 -0.00035087492274131108 0 0.0035231884013476522 -0.00037306293624038281 0 0.0035438850563351862 -0.00035087492274131108 0 0.0035147266792555838 -0.00037358743866214799 0 0.0035189841814021795 -0.00030771069989920721 0 0.0035243677008698678 -0.00036814951649662137 0 0.0035263851006154712 -0.00033264119098963437 0 0.0035231884013476522 -0.00037306293624038281 0 0.0035171433029485906 -0.00035146979677164967 0 0.0035103433181832809 -0.00027655276109393522 0 0.0035583243555799508 -0.0003172197955694328 0 0.0035231884013476522 -0.00037306293624038281 0 0.0035067021511019005 -0.00033685376679346539 0 0.0035263851006154712 -0.00033264119098963437 0 0.0035171433029485906 -0.00035146979677164967 0 0.0035067021511019005 -0.00033685376679346539 0 0.0035071853824936473 -0.0003486248124062122 0 0.0035171433029485906 -0.00035146979677164967 0 0.0035071853824936473 -0.0003486248124062122 0 0.0035171433029485906 -0.00035146979677164967 0 0.0035216928425163291 -0.00035758307313715889 0 0.0035071853824936473 -0.0003486248124062122 0 0.0035065853798452681 -0.00035673526714250588 0 0.0035216928425163291 -0.00035758307313715889 0 0.0035231884013476522 -0.00037306293624038281 0 0.0035171433029485906 -0.00035146979677164967 0 0.0035216928425163291 -0.00035758307313715889 0 0.0035065853798452681 -0.00035673526714250588 0 0.0035216928425163291 -0.00035758307313715889 0 0.0035184969953767175 -0.00035828280988393517 0 0.0035184969953767175 -0.00035828280988393517 0 0.0035438850563351862 -0.00035087492274131108 0 0.0035102680613647219 -0.00037345838152068295 0 0.0035216928425163291 -0.00035758307313715889 0 0.0035184969953767175 -0.00035828280988393517 0 0.0035438850563351862 -0.00035087492274131108 0 0.0035438850563351862 -0.00035087492274131108 0 0.0034509513600068952 -0.00020883529111989822 0 0.0035968820871162092 -0.00013849149147870355 0 0.0035486528739886096 -0.00034123521862784793 0 0.0035474045684473045 -0.00025939820911461331 0 0.0035438850563351862 -0.00035087492274131108 0 0.0035102680613647219 -0.00037345838152068295 0 0.0035208448628091431 -0.00037734271385179752 0 0.0035051323560958106 -0.00036391029626128097 0 0.0035184969953767175 -0.00035828280988393517 0 0.0035102680613647219 -0.00037345838152068295 0 0.0033509411621787688 -0.00042050653543488975 0 0.0034493103662742827 -0.0003261582413995598 0 0.0032584904352212928 -0.0002495030661160704 0 0.0034921649527962645 -0.00044658111411697871 0 0.003219915969804778 -0.00027897708413407912 0 0.003518386203471423 -0.00040793757491905044 0 0.0035147266792555838 -0.00037358743866214799 0 0.0034493103662742827 -0.0003261582413995598 0 0.0035438850563351862 -0.00035087492274131108 0 0.0034493103662742827 -0.0003261582413995598 0 0.0034509513600068952 -0.00020883529111989822 0 0.0035438850563351862 -0.00035087492274131108 0 0.0035147266792555838 -0.00037358743866214799 0 0.0034493103662742827 -0.0003261582413995598 0 0.0034493103662742827 -0.0003261582413995598 0 0.0034509513600068952 -0.00020883529111989822 0 0.0032584904352212928 -0.0002495030661160704 0 0.0034509513600068952 -0.00020883529111989822 0 0.0032584904352212928 -0.0002495030661160704 0 0.0033644812016330608 -1.7173106741318356e-05 0 0.0031568756436327772 -1.4381564567610132e-05 0 0.0032584904352212928 -0.0002495030661160704 0 0.0033644812016330608 -1.7173106741318356e-05 0 0.0034509513600068952 -0.00020883529111989822 0 0.0033644812016330608 -1.7173106741318356e-05 0 0.0035968820871162092 -0.00013849149147870355 0 0.0034480248086953399 0.00011323559886747084 0 0.0033644812016330608 -1.7173106741318356e-05 0 0.0035968820871162092 -0.00013849149147870355 0 0.0034480248086953399 0.00011323559886747084 0 0.0033644812016330608 -1.7173106741318356e-05 0 0.003159060292174401 0.00020442723487105438 0 0.0031568756436327772 -1.4381564567610132e-05 0 0.0033644812016330608 -1.7173106741318356e-05 0 0.003159060292174401 0.00020442723487105438 0 0.0035006955221487113 -0.00038381812307424325 0 0.0035102680613647219 -0.00037345838152068295 0 0.0035208448628091431 -0.00037734271385179752 0 0.0035474045684473045 -0.00025939820911461331 0 0.0036414581715483556 -0.00013010987004704225 0 0.0034480248086953399 0.00011323559886747084 0 0.0035968820871162092 -0.00013849149147870355 0 0.0036109185807868521 0.00010463379282225428 0 0.0035006955221487113 -0.00038381812307424325 0 0.0035208448628091431 -0.00037734271385179752 0 0.0035056994620454845 -0.00038373356638307638 0 0.0035006955221487113 -0.00038381812307424325 0 0.0035056994620454845 -0.00038373356638307638 0 0.0034968148378355739 -0.00038596835527055011 0 0.0035056994620454845 -0.00038373356638307638 0 0.0034953793637183539 -0.00038271673327713976 0 0.0034968148378355739 -0.00038596835527055011 0 0.0034480248086953399 0.00011323559886747084 0 0.0036109185807868521 0.00010463379282225428 0 0.0035353505363162271 0.00022583292734069507 0 0.0036414581715483556 -0.00013010987004704225 0 0.0028862873709054808 -3.4623238000981089e-05 0 0.0036109185807868521 0.00010463379282225428 0 0.0035353505363162271 0.00022583292734069507 0 0.003627851939998733 0.00033273675670003811 0 0.0028862873709054808 -3.4623238000981089e-05 0 0.0028603919082583781 0.000172397939383926 0 0.0035353505363162271 0.00022583292734069507 0 0.003627851939998733 0.00033273675670003811 0 0.0033982119173667402 0.00026187422655629282 0 0.0022425948755797464 -3.3929481598138916e-06 0 0.0022896284407598021 2.0714934385856454e-05 0 0.0022635539835026293 -2.0348105904903844e-05 0 0.0022440337638088208 -3.0308254068057539e-05 0 0.0022461676899353201 -3.737656743547416e-05 0 0.0022562779745396687 -3.5451645150065494e-05 0 0.0028862873709054808 -3.4623238000981089e-05 0 0.0021780106265471733 2.2572222429643907e-05 0 0.0022440337638088208 -3.0308254068057539e-05 0 0.0022349098219630399 -3.3718561684632275e-05 0 0.0022461676899353201 -3.737656743547416e-05 0 0.0026652619912557705 -0.00019970301892807926 0 0.0027388273526362337 -0.00017398023669517649 0 0.0027735855685178641 -0.00026905146736848866 0 0.0028862873709054808 -3.4623238000981089e-05 0 0.002271178893115277 -0.00016344175443016651 0 0.0028862873709054808 -3.4623238000981089e-05 0 0.0032291149262589068 -0.00038293007325215133 0 0.0034480248086953399 0.00011323559886747084 0 0.0033982119173667402 0.00026187422655629282 0 0.003159060292174401 0.00020442723487105438 0 0.0028603919082583781 0.000172397939383926 0 0.0027543508160461877 0.00012129981617288762 0 0.0034480248086953399 0.00011323559886747084 0 0.0035353505363162271 0.00022583292734069507 0 0.0033982119173667402 0.00026187422655629282 0 0.0022896284407598021 2.0714934385856454e-05 0 0.0023186317395773857 -1.0426917526708133e-05 0 0.0022635539835026293 -2.0348105904903844e-05 0 0.0022896284407598021 2.0714934385856454e-05 0 0.0023186317395773857 -1.0426917526708133e-05 0 0.002362399757232422 5.0034314576642705e-05 0 0.0023186317395773857 -1.0426917526708133e-05 0 0.002317497181212201 -4.8186717106480014e-05 0 0.002285299876281113 -4.3719915099615122e-05 0 0.0023186317395773857 -1.0426917526708133e-05 0 0.002285299876281113 -4.3719915099615122e-05 0 0.0022635539835026293 -2.0348105904903844e-05 0 0.0023111757386534092 -5.9470056745970205e-05 0 0.0021780106265471733 2.2572222429643907e-05 0 0.002285299876281113 -4.3719915099615122e-05 0 0.0022567555410169453 -5.1730830569473279e-05 0 0.0022562779745396687 -3.5451645150065494e-05 0 0.0022526942052755201 -7.5328273743510682e-05 0 0.0022760448414785349 -6.9674273548648709e-05 0 0.0022517436170768046 -0.00010933611484066237 0 0.0022567555410169453 -5.1730830569473279e-05 0 0.0022526942052755201 -7.5328273743510682e-05 0 0.0022760448414785349 -6.9674273548648709e-05 0 0.002285299876281113 -4.3719915099615122e-05 0 0.0022567555410169453 -5.1730830569473279e-05 0 0.0022760448414785349 -6.9674273548648709e-05 0 0.0022760448414785349 -6.9674273548648709e-05 0 0.0023068066910546807 -7.9997631179561186e-05 0 0.0022517436170768046 -0.00010933611484066237 0 0.002317497181212201 -4.8186717106480014e-05 0 0.002285299876281113 -4.3719915099615122e-05 0 0.0022760448414785349 -6.9674273548648709e-05 0 0.002317497181212201 -4.8186717106480014e-05 0 0.0022760448414785349 -6.9674273548648709e-05 0 0.0023068066910546807 -7.9997631179561186e-05 0 0.0020294237526760519 0.0001335575692929231 0 0.0021023095598096467 5.3476051350912957e-05 0 0.0020139032455362138 3.0617983013803788e-05 0 0.0022349098219630399 -3.3718561684632275e-05 0 0.0022461676899353201 -3.737656743547416e-05 0 0.0022421577882321508 -4.7922576968196892e-05 0 0.002271178893115277 -0.00016344175443016651 0 0.0021411598626923153 4.0159103466627287e-05 0 0.0022567555410169453 -5.1730830569473279e-05 0 0.0022461676899353201 -3.737656743547416e-05 0 0.0022562779745396687 -3.5451645150065494e-05 0 0.0022567555410169453 -5.1730830569473279e-05 0 0.0022461676899353201 -3.737656743547416e-05 0 0.0022421577882321508 -4.7922576968196892e-05 0 0.0021760711049852023 -2.5709681178341185e-05 0 0.0021023095598096467 5.3476051350912957e-05 0 0.0020938833108620643 -5.4509505578009548e-05 0 0.0022216489466284402 -6.0488459569309997e-05 0 0.0021411598626923153 4.0159103466627287e-05 0 0.0022567555410169453 -5.1730830569473279e-05 0 0.0022526942052755201 -7.5328273743510682e-05 0 0.0022421577882321508 -4.7922576968196892e-05 0 0.0021023095598096467 5.3476051350912957e-05 0 0.0020139032455362138 3.0617983013803788e-05 0 0.0020938833108620643 -5.4509505578009548e-05 0 0.0020139032455362138 3.0617983013803788e-05 0 0.0020938833108620643 -5.4509505578009548e-05 0 0.0019943900981408929 -9.7070343932600286e-05 0 0.0021128709440829006 -0.00017103778047839586 0 0.0020938833108620643 -5.4509505578009548e-05 0 0.0019943900981408929 -9.7070343932600286e-05 0 0.00072073902232347052 -0.00042480587806222302 0 0.00065016692400227713 -0.00042080598027462477 0 0.0007481266002277592 -0.00048838081826375207 0 0.00072073902232347052 -0.00042480587806222302 0 0.00065016692400227713 -0.00042080598027462477 0 0.00065082626697117083 -0.00033511440351448481 0 0.0013464228280027483 -0.00027719033679913201 0 0.0014228492599959216 -0.00030004183628829179 0 0.0021128709440829006 -0.00017103778047839586 0 0.0020938833108620643 -5.4509505578009548e-05 0 0.0021772741889780648 -0.00010715395199268048 0 0.0021760711049852023 -2.5709681178341185e-05 0 0.0020938833108620643 -5.4509505578009548e-05 0 0.0021772741889780648 -0.00010715395199268048 0 0.0021760711049852023 -2.5709681178341185e-05 0 0.0022517436170768046 -0.00010933611484066237 0 0.0021772741889780648 -0.00010715395199268048 0 0.0022216489466284402 -6.0488459569309997e-05 0 0.0022485601882985787 -0.00010109683735594455 0 0.0023068066910546807 -7.9997631179561186e-05 0 0.0022517436170768046 -0.00010933611484066237 0 0.0023013077849859428 -0.00011822321579946662 0 0.0023013077849859428 -0.00011822321579946662 0 0.002244237556647322 -0.00015823250741151779 0 0.0023170204733033548 -0.00016098874490554359 0 0.002244237556647322 -0.00015823250741151779 0 0.0022766697190232466 -0.00020602317951885877 0 0.0023170204733033548 -0.00016098874490554359 0 0.0022517436170768046 -0.00010933611484066237 0 0.0023013077849859428 -0.00011822321579946662 0 0.002244237556647322 -0.00015823250741151779 0 0.0021128709440829006 -0.00017103778047839586 0 0.002244237556647322 -0.00015823250741151779 0 0.0022117405182304354 -0.00021939672815745812 0 0.0021128709440829006 -0.00017103778047839586 0 0.0021772741889780648 -0.00010715395199268048 0 0.002244237556647322 -0.00015823250741151779 0 0.0022517436170768046 -0.00010933611484066237 0 0.0021772741889780648 -0.00010715395199268048 0 0.002244237556647322 -0.00015823250741151779 0 0.00053464762299151305 -0.00034345075065296625 0 0.00049739727403750602 -0.00027404066098456648 0 0.00065082626697117083 -0.00033511440351448481 0 0.0022117405182304354 -0.00021939672815745812 0 0.0022766697190232466 -0.00020602317951885877 0 0.0022714662469240665 -0.00025596475401660075 0 0.002244237556647322 -0.00015823250741151779 0 0.0022117405182304354 -0.00021939672815745812 0 0.0022766697190232466 -0.00020602317951885877 0 -0.00043977969788650407 -0.00027061750540340556 0 -0.0017099803977691844 -0.00033104900637063718 0 -0.00056062794279321943 -0.00027154009492760112 0 -0.00080869521658738161 -0.00017848109809879021 0 -0.00096026156331786633 -0.00043454188779477735 0 0.00053464762299151305 -0.00034345075065296625 0 0.00047689926650968983 -0.00028266821902110521 0 0.00040475507215437679 -0.00024963375986789688 0 0.0014963197132615664 -0.0003336392429444148 0 0.0006962305721915456 -0.00012708247984223044 0 0.00047689926650968983 -0.00028266821902110521 0 0.00041717591150838455 -0.00024412184844726386 0 0.00049536054202308898 -0.00027353125538512026 0 9.0346662656175299e-05 -0.00031729998977019934 0 -0.00012325728431584806 -0.00040075814886472212 0 -0.00043977969788650407 -0.00027061750540340556 0 -0.00012325728431584806 -0.00040075814886472212 0 0.00047689926650968983 -0.00028266821902110521 0 0.00041717591150838455 -0.00024412184844726386 0 0.00040475507215437679 -0.00024963375986789688 0 -0.0020607040170766556 -9.1793134902950823e-05 0 -0.0020065881720297807 -0.00011088673053616101 0 -0.0020511786124162196 -0.00015512680299184143 0 -0.00043977969788650407 -0.00027061750540340556 0 -0.00058605286166773488 8.6729822263594225e-05 0 0.000401071082219444 -0.00026150088836849575 0 0.00012136127961327156 -0.0003763600836313287 0 -0.0004461170471237166 6.3252235026509454e-05 0 -0.00043977969788650407 -0.00027061750540340556 0 0.0006962305721915456 -0.00012708247984223044 0 -0.00012325728431584806 -0.00040075814886472212 0 0.00015993360458773018 -0.00041311445240201224 0 -0.00012325728431584806 -0.00040075814886472212 0 -0.00087187708737962693 -0.00050843112306932854 0 -0.00080869521658738161 -0.00017848109809879021 0 -0.0012252989840840299 -0.00038153930253970593 0 -0.00096026156331786633 -0.00043454188779477735 0 0.00053464762299151305 -0.00034345075065296625 0 0.00047689926650968983 -0.00028266821902110521 0 0.00049739727403750602 -0.00027404066098456648 0 -0.00030525408018726273 -0.00053771480703211508 0 -0.000459247247005129 -0.00048351789181043825 0 -0.00043025248904947301 -0.00059788378833189717 0 -0.00051662045799934621 -0.00056030885220460552 0 -0.000459247247005129 -0.00048351789181043825 0 -0.00043025248904947301 -0.00059788378833189717 0 -0.00051662045799934621 -0.00056030885220460552 0 -0.000459247247005129 -0.00048351789181043825 0 -0.00058665366537244152 -0.00050241622177343999 0 -0.000459247247005129 -0.00048351789181043825 0 -0.00058665366537244152 -0.00050241622177343999 0 -0.00060651316774859565 -0.00043178931214039998 0 0.00072073902232347052 -0.00042480587806222302 0 0.00065082626697117083 -0.00033511440351448481 0 0.00077615131508597759 -0.00038602104823814 0 0.00015993360458773018 -0.00041311445240201224 0 -8.1486084495799879e-06 -0.00044388938001792863 0 0.0013464228280027483 -0.00027719033679913201 0 0.0014963197132615664 -0.0003336392429444148 0 0.00065016692400227713 -0.00042080598027462477 0 0.00053464762299151305 -0.00034345075065296625 0 0.00065082626697117083 -0.00033511440351448481 0 0.00042907552203369015 0.00031715748892644137 0 0.00045097863221971727 0.00030639134145448485 0 0.00041867751243634092 0.0002855950030297881 0 0.00042907552203369015 0.00031715748892644137 0 0.00045097863221971727 0.00030639134145448485 0 0.00048383381615128932 0.00034416017034677031 0 0.0013529547815032484 4.4441356019055853e-05 0 0.0016496602107024456 9.4928217814755256e-05 0 0.00047767716706233269 0.00031917324742082538 0 0.00045097863221971727 0.00030639134145448485 0 0.00048383381615128932 0.00034416017034677031 0 0.00047767716706233269 0.00031917324742082538 0 0.00048383381615128932 0.00034416017034677031 0 0.00048551203065364407 0.00033799213694843557 0 0.0016496602107024456 9.4928217814755256e-05 0 0.0015172816606200746 0.00022524091091070359 0 0.00047767716706233269 0.00031917324742082538 0 0.00045097863221971727 0.00030639134145448485 0 0.00047990211560435762 0.00029493948597027463 0 0.00045097863221971727 0.00030639134145448485 0 0.00047990211560435762 0.00029493948597027463 0 0.0004396033830801834 0.00028113604515994081 0 0.00047990211560435762 0.00029493948597027463 0 0.0004396033830801834 0.00028113604515994081 0 0.00046943071936927824 0.00025766067078112167 0 0.00042907552203369015 0.00031715748892644137 0 0.00041867751243634092 0.0002855950030297881 0 0.00038737129935380901 0.00029592018197404307 0 0.0004396033830801834 0.00028113604515994081 0 0.00041867751243634092 0.0002855950030297881 0 0.00042168376216456492 0.00026409742362411536 0 0.00045097863221971727 0.00030639134145448485 0 0.0004396033830801834 0.00028113604515994081 0 0.00041867751243634092 0.0002855950030297881 0 0.00038737129935380901 0.00029592018197404307 0 0.00035036242295094798 0.00027096542282668487 0 0.00039332194625249858 0.00025843424340410073 0 0.00041867751243634092 0.0002855950030297881 0 0.00038737129935380901 0.00029592018197404307 0 0.00039332194625249858 0.00025843424340410073 0 0.0022766697190232466 -0.00020602317951885877 0 0.0022714662469240665 -0.00025596475401660075 0 0.0023397604331619709 -0.00022395638650285873 0 0.0006962305721915456 -0.00012708247984223044 0 0.0014922045245690564 7.9376253179209809e-05 0 0.00034297473053142627 0.00027631472157045649 0 0.00038737129935380901 0.00029592018197404307 0 0.00035036242295094798 0.00027096542282668487 0 0.0006962305721915456 -0.00012708247984223044 0 -0.00058605286166773488 8.6729822263594225e-05 0 0.0022766697190232466 -0.00020602317951885877 0 0.0023397604331619709 -0.00022395638650285873 0 0.0023170204733033548 -0.00016098874490554359 0 0.0013529547815032484 4.4441356019055853e-05 0 0.0014922045245690564 7.9376253179209809e-05 0 0.0023397604331619709 -0.00022395638650285873 0 0.0023699666421068358 -0.00015254949343516288 0 0.0023170204733033548 -0.00016098874490554359 0 0.002396514883072453 -0.00019215390903819834 0 0.0023397604331619709 -0.00022395638650285873 0 0.0023699666421068358 -0.00015254949343516288 0 0.0023699666421068358 -0.00015254949343516288 0 0.0023170204733033548 -0.00016098874490554359 0 0.0023567549242113862 -0.00010065818488331882 0 0.0023013077849859428 -0.00011822321579946662 0 0.0023170204733033548 -0.00016098874490554359 0 0.0023567549242113862 -0.00010065818488331882 0 0.0023068066910546807 -7.9997631179561186e-05 0 0.0023013077849859428 -0.00011822321579946662 0 0.0023567549242113862 -0.00010065818488331882 0 0.0023699666421068358 -0.00015254949343516288 0 0.0023567549242113862 -0.00010065818488331882 0 0.0024293663296260232 -0.00010241616571800117 0 0.002396514883072453 -0.00019215390903819834 0 0.0023699666421068358 -0.00015254949343516288 0 0.0024121802052960899 -0.00014826030887796337 0 0.0023699666421068358 -0.00015254949343516288 0 0.0024121802052960899 -0.00014826030887796337 0 0.0024293663296260232 -0.00010241616571800117 0 0.002396514883072453 -0.00019215390903819834 0 0.0024121802052960899 -0.00014826030887796337 0 0.0024429071994827851 -0.00016630113018897342 0 0.0016496602107024456 9.4928217814755256e-05 0 0.0025659849198212017 -8.1251045081288991e-06 0 0.0024121802052960899 -0.00014826030887796337 0 0.0024429071994827851 -0.00016630113018897342 0 0.0024293663296260232 -0.00010241616571800117 0 0.002408833625142973 0.00026974927229901012 0 0.0024569817337003388 0.00015377617457116086 0 0.0023767332814029572 0.00018663074580812865 0 0.0024569817337003388 0.00015377617457116086 0 0.0024758681635530726 6.4242101055928612e-05 0 0.0024286385459609669 6.6626127846056328e-05 0 0.0023567549242113862 -0.00010065818488331882 0 0.0024293663296260232 -0.00010241616571800117 0 0.002419763820722981 -3.8488256232492291e-05 0 0.0025659849198212017 -8.1251045081288991e-06 0 0.0024246809198555622 2.8326687342915141e-05 0 0.0023068066910546807 -7.9997631179561186e-05 0 0.0023567549242113862 -0.00010065818488331882 0 0.0023511502635114199 -6.1664921915830932e-05 0 0.002317497181212201 -4.8186717106480014e-05 0 0.0023068066910546807 -7.9997631179561186e-05 0 0.0023511502635114199 -6.1664921915830932e-05 0 0.0023567549242113862 -0.00010065818488331882 0 0.002419763820722981 -3.8488256232492291e-05 0 0.0023511502635114199 -6.1664921915830932e-05 0 0.002419763820722981 -3.8488256232492291e-05 0 0.0023511502635114199 -6.1664921915830932e-05 0 0.0023590596234651026 -2.7999271105354282e-05 0 0.002419763820722981 -3.8488256232492291e-05 0 0.0023590596234651026 -2.7999271105354282e-05 0 0.0023817587694265614 7.3350041243901512e-06 0 0.0023186317395773857 -1.0426917526708133e-05 0 0.002317497181212201 -4.8186717106480014e-05 0 0.0023590596234651026 -2.7999271105354282e-05 0 0.002317497181212201 -4.8186717106480014e-05 0 0.0023511502635114199 -6.1664921915830932e-05 0 0.0023590596234651026 -2.7999271105354282e-05 0 0.0023186317395773857 -1.0426917526708133e-05 0 0.0023817587694265614 7.3350041243901512e-06 0 0.002362399757232422 5.0034314576642705e-05 0 0.0023186317395773857 -1.0426917526708133e-05 0 0.0023590596234651026 -2.7999271105354282e-05 0 0.0023817587694265614 7.3350041243901512e-06 0 0.002419763820722981 -3.8488256232492291e-05 0 0.0023817587694265614 7.3350041243901512e-06 0 0.0024335248590399627 2.9943693251302773e-05 0 0.0026539093378982314 8.7855212631190397e-05 0 0.0027543508160461877 0.00012129981617288762 0 0.0024525751064177191 5.1417020886641604e-05 0 0.0024335248590399627 2.9943693251302773e-05 0 0.002362399757232422 5.0034314576642705e-05 0 0.0023817587694265614 7.3350041243901512e-06 0 0.0024335248590399627 2.9943693251302773e-05 0 0.002362399757232422 5.0034314576642705e-05 0 0.0024758681635530726 6.4242101055928612e-05 0 0.0024286385459609669 6.6626127846056328e-05 0 0.002468760129177675 3.1880908451923807e-05 0 0.0024286385459609669 6.6626127846056328e-05 0 0.002468760129177675 3.1880908451923807e-05 0 0.0024392590392180585 3.7394599464370831e-05 0 0.0024246809198555622 2.8326687342915141e-05 0 0.002440417409340521 2.6942671249989892e-05 0 0.0024758681635530726 6.4242101055928612e-05 0 0.0024335248590399627 2.9943693251302773e-05 0 0.002468760129177675 3.1880908451923807e-05 0 0.0024525751064177191 5.1417020886641604e-05 0 0.0024335248590399627 2.9943693251302773e-05 0 0.002468760129177675 3.1880908451923807e-05 0 0.0025236485761633278 6.9147426694569723e-06 0 0.002468760129177675 3.1880908451923807e-05 0 0.0024392590392180585 3.7394599464370831e-05 0 0.0024156979332316487 6.341779120716199e-06 0 0.0024392590392180585 3.7394599464370831e-05 0 0.0023860767634116572 4.3677104833837258e-05 0 0.0024286385459609669 6.6626127846056328e-05 0 0.0024392590392180585 3.7394599464370831e-05 0 0.0024015760978308822 6.141614226094926e-05 0 0.0024392590392180585 3.7394599464370831e-05 0 0.0024015760978308822 6.141614226094926e-05 0 0.0023860767634116572 4.3677104833837258e-05 0 0.0024015760978308822 6.141614226094926e-05 0 0.0023860767634116572 4.3677104833837258e-05 0 0.0023722663828923967 6.9347467275624836e-05 0 0.0023860767634116572 4.3677104833837258e-05 0 0.0023473961174113405 3.753577880205541e-05 0 0.0023722663828923967 6.9347467275624836e-05 0 0.0023860767634116572 4.3677104833837258e-05 0 0.0023552831083736947 1.650184844635999e-05 0 0.0023473961174113405 3.753577880205541e-05 0 0.0024156979332316487 6.341779120716199e-06 0 0.0023860767634116572 4.3677104833837258e-05 0 0.0023552831083736947 1.650184844635999e-05 0 0.0023552831083736947 1.650184844635999e-05 0 0.0022982074840668634 4.0266554753975882e-06 0 0.002329888251857612 5.6778315834102494e-05 0 0.0026512321217649079 6.6571104302519621e-05 0 0.0026280136423495579 2.8206015195236183e-05 0 0.0026805784524457608 1.5637883348046822e-05 0 0.0028829891271301275 7.352079466404911e-05 0 0.0023816193884771816 -3.9569556931399137e-05 0 0.002340561349102873 3.6230754111143265e-05 0 0.0023816193884771816 -3.9569556931399137e-05 0 0.0028829891271301275 7.352079466404911e-05 0 0.0026408615924282505 4.109838586955236e-05 0 0.0026673676107071527 5.3458638418084323e-05 0 0.0026880756454472419 3.8081778444926327e-05 0 0.0026805784524457608 1.5637883348046822e-05 0 0.0026941087469739551 6.1066982730738679e-05 0 0.0026880756454472419 3.8081778444926327e-05 0 0.002705053835237641 3.8522202799510842e-05 0 0.0026941087469739551 6.1066982730738679e-05 0 0.0026673676107071527 5.3458638418084323e-05 0 0.0026880756454472419 3.8081778444926327e-05 0 0.0026880756454472419 3.8081778444926327e-05 0 0.0026951896186535574 1.9714149916748874e-05 0 0.002705053835237641 3.8522202799510842e-05 0 0.0026880756454472419 3.8081778444926327e-05 0 0.0026805784524457608 1.5637883348046822e-05 0 0.0026951896186535574 1.9714149916748874e-05 0 0.0026805784524457608 1.5637883348046822e-05 0 0.0026951896186535574 1.9714149916748874e-05 0 0.0026683934683661517 -3.5714806066984804e-05 0 0.0017845334055082011 7.0690433179315025e-05 0 0.0018222245067516551 0.0001516264326604844 0 0.001767375538292765 0.0001301828865673339 0 0.0022455274780276689 4.3065496573223034e-05 0 0.0022829086641861515 4.1686587422798521e-05 0 0.0026280136423495579 2.8206015195236183e-05 0 0.0026805784524457608 1.5637883348046822e-05 0 0.0026683934683661517 -3.5714806066984804e-05 0 0.0022386842004341258 -0.00012681241159837647 0 0.0022119082115205626 -1.3718380778296821e-05 0 0.0021496747301468634 6.4524675522040668e-06 0 0.0023816193884771816 -3.9569556931399137e-05 0 0.0023257825964646318 1.9973814470886798e-05 0 0.0022386842004341258 -0.00012681241159837647 0 0.0022119082115205626 -1.3718380778296821e-05 0 0.0022997651205817157 -2.0930723631579921e-05 0 0.0023816193884771816 -3.9569556931399137e-05 0 0.0022829086641861515 4.1686587422798521e-05 0 0.0022119082115205626 -1.3718380778296821e-05 0 0.0022393405802311637 5.275781461108865e-05 0 0.0022997651205817157 -2.0930723631579921e-05 0 0.0022119082115205626 -1.3718380778296821e-05 0 0.0022393405802311637 5.275781461108865e-05 0 0.0021567481827232454 2.3492259297117375e-05 0 0.0022393405802311637 5.275781461108865e-05 0 0.0021567481827232454 2.3492259297117375e-05 0 0.0021597586638918667 0.00010837290570977889 0 0.0018222245067516551 0.0001516264326604844 0 0.0017855638968788062 0.00020516075478800653 0 0.001767375538292765 0.0001301828865673339 0 0.0022119082115205626 -1.3718380778296821e-05 0 0.0021496747301468634 6.4524675522040668e-06 0 0.0021567481827232454 2.3492259297117375e-05 0 0.0022829086641861515 4.1686587422798521e-05 0 0.0022631061672118047 2.3526250327917779e-05 0 0.0022829086641861515 4.1686587422798521e-05 0 0.0019490505412772983 0.00010940591573073268 0 0.0021494666145333166 6.153738770683043e-06 0 0.0021567481827232454 2.3492259297117375e-05 0 0.0020969620470246237 7.9617284128823015e-05 0 0.0020969620470246237 7.9617284128823015e-05 0 0.0021597586638918667 0.00010837290570977889 0 0.0020430968469791408 0.00015586537968852786 0 0.0021567481827232454 2.3492259297117375e-05 0 0.0020969620470246237 7.9617284128823015e-05 0 0.0021597586638918667 0.00010837290570977889 0 0.0021597586638918667 0.00010837290570977889 0 0.0022503913863972857 0.00012343243024137677 0 0.0021880720766143807 0.00021196097160091891 0 0.0022393405802311637 5.275781461108865e-05 0 0.0021597586638918667 0.00010837290570977889 0 0.0022503913863972857 0.00012343243024137677 0 0.0022393405802311637 5.275781461108865e-05 0 0.0022503913863972857 0.00012343243024137677 0 0.0023642224637214636 9.7183072100510574e-05 0 0.0022503913863972857 0.00012343243024137677 0 0.0023642224637214636 9.7183072100510574e-05 0 0.002308312179819087 0.00016961300150696981 0 0.0024569817337003388 0.00015377617457116086 0 0.0024286385459609669 6.6626127846056328e-05 0 0.0023642224637214636 9.7183072100510574e-05 0 0.0024286385459609669 6.6626127846056328e-05 0 0.0024015760978308822 6.141614226094926e-05 0 0.0023642224637214636 9.7183072100510574e-05 0 0.0023669874274647165 9.432067854956039e-05 0 0.0023257825964646318 1.9973814470886798e-05 0 0.0024015760978308822 6.141614226094926e-05 0 0.0023642224637214636 9.7183072100510574e-05 0 0.0023722663828923967 6.9347467275624836e-05 0 0.0022393405802311637 5.275781461108865e-05 0 0.0023642224637214636 9.7183072100510574e-05 0 0.0022997651205817157 -2.0930723631579921e-05 0 0.0015376056690801884 0.0001186711501844897 0 0.0014010455318074224 0.00015433246575320299 0 0.0014059232023530927 0.00022513881520834318 0 0.0014010455318074224 0.00015433246575320299 0 0.0012973808816821397 0.00027230202726242413 0 0.0012856015517989921 0.00017266056850338756 0 0.0013735884767821429 0.0002456935277010446 0 0.0015925390575201497 0.000112748814388353 0 0.001570908674918887 7.8653814415863843e-05 0 0.0015633026526803704 0.00013918670062494699 0 0.0015031541251896588 0.00016303249694147578 0 0.0015047153986103505 0.00016232384307659933 0 0.001500006473733193 0.0001696101292836243 0 0.0015925390575201497 0.000112748814388353 0 0.001570908674918887 7.8653814415863843e-05 0 0.0016120039492326036 7.894440974979259e-05 0 0.0015376056690801884 0.0001186711501844897 0 0.0016627787719829853 9.3245888647113271e-05 0 0.001570908674918887 7.8653814415863843e-05 0 0.0015770327754719849 1.5544908299429223e-05 0 0.0015941733024265226 4.7757787137215742e-05 0 0.0014059232023530927 0.00022513881520834318 0 0.0015509855532239087 0.00021156069235814422 0 0.0012973808816821397 0.00027230202726242413 0 0.0013079272780377165 0.00036882508731782217 0 0.0013513451714553238 0.00029873439789925965 0 0.0015047153986103505 0.00016232384307659933 0 0.0015042952522682773 0.00015472482894970024 0 0.0015076516194020642 0.00015305328736953393 0 0.0015031541251896588 0.00016303249694147578 0 0.0015047153986103505 0.00016232384307659933 0 0.0015042952522682773 0.00015472482894970024 0 0.0017094535356677683 0.00014434009569993402 0 0.0017061042260154986 0.00015403573242001481 0 0.0017162466458656392 0.00014864050541274005 0 0.0015509855532239087 0.00021156069235814422 0 0.0016627787719829853 9.3245888647113271e-05 0 0.0015981383713662989 1.3434900742462385e-05 0 0.0015941733024265226 4.7757787137215742e-05 0 0.0016098353544113291 3.1786730322001175e-05 0 0.0015981383713662989 1.3434900742462385e-05 0 0.0015770327754719849 1.5544908299429223e-05 0 0.0015941733024265226 4.7757787137215742e-05 0 0.00158874245631888 7.7755382546611579e-06 0 0.0015981383713662989 1.3434900742462385e-05 0 0.0016242371028514237 1.4225357516401143e-05 0 0.0016650143613165663 4.6832926495434512e-05 0 0.0016627787719829853 9.3245888647113271e-05 0 0.0015895674038257481 8.724347706651911e-06 0 0.0015981383713662989 1.3434900742462385e-05 0 0.0015770327754719849 1.5544908299429223e-05 0 0.001570908674918887 7.8653814415863843e-05 0 0.0015941733024265226 4.7757787137215742e-05 0 0.0016120039492326036 7.894440974979259e-05 0 0.0015941733024265226 4.7757787137215742e-05 0 0.0016284056146006701 4.4713319473416502e-05 0 0.0016098353544113291 3.1786730322001175e-05 0 0.0016284056146006701 4.4713319473416502e-05 0 0.0016468668446381128 7.5355427969039696e-05 0 0.0016120039492326036 7.894440974979259e-05 0 0.0015941733024265226 4.7757787137215742e-05 0 0.0016284056146006701 4.4713319473416502e-05 0 0.0016120039492326036 7.894440974979259e-05 0 0.0016284056146006701 4.4713319473416502e-05 0 0.0016098353544113291 3.1786730322001175e-05 0 0.0016242371028514237 1.4225357516401143e-05 0 0.0016284056146006701 4.4713319473416502e-05 0 0.0016242371028514237 1.4225357516401143e-05 0 0.0016478228735688741 2.4419175561189919e-05 0 0.0015981383713662989 1.3434900742462385e-05 0 0.0016098353544113291 3.1786730322001175e-05 0 0.0016242371028514237 1.4225357516401143e-05 0 0.0016284056146006701 4.4713319473416502e-05 0 0.0016478228735688741 2.4419175561189919e-05 0 0.0016694740252758821 4.0556797367015916e-05 0 0.0016484045238475227 4.4305263745820585e-06 0 0.0016478228735688741 2.4419175561189919e-05 0 0.0016667832459286961 1.8158275993847505e-05 0 0.0016484045238475227 4.4305263745820585e-06 0 0.0016242371028514237 1.4225357516401143e-05 0 0.0016478228735688741 2.4419175561189919e-05 0 0.0016478228735688741 2.4419175561189919e-05 0 0.0016694740252758821 4.0556797367015916e-05 0 0.0016667832459286961 1.8158275993847505e-05 0 0.0016284056146006701 4.4713319473416502e-05 0 0.0016468668446381128 7.5355427969039696e-05 0 0.0016694740252758821 4.0556797367015916e-05 0 0.0016468668446381128 7.5355427969039696e-05 0 0.0016393043699414909 0.0001130926620471671 0 0.0016792103779404951 8.5858635015182422e-05 0 0.0016468668446381128 7.5355427969039696e-05 0 0.0016120039492326036 7.894440974979259e-05 0 0.0016393043699414909 0.0001130926620471671 0 0.0015925390575201497 0.000112748814388353 0 0.0016120039492326036 7.894440974979259e-05 0 0.0016393043699414909 0.0001130926620471671 0 0.0016393043699414909 0.0001130926620471671 0 0.0016792103779404951 8.5858635015182422e-05 0 0.0016840912058708082 0.00014022214296756618 0 0.0016792103779404951 8.5858635015182422e-05 0 0.0017191306600382527 9.8414514628384866e-05 0 0.0016840912058708082 0.00014022214296756618 0 0.0016792103779404951 8.5858635015182422e-05 0 0.0017177482944464404 4.5283820881301112e-05 0 0.0017191306600382527 9.8414514628384866e-05 0 0.0016792103779404951 8.5858635015182422e-05 0 0.0016694740252758821 4.0556797367015916e-05 0 0.0017177482944464404 4.5283820881301112e-05 0 0.0017496626790357806 -3.2786882450038172e-06 0 0.0016902795152067584 6.2239563466560142e-06 0 0.0017177482944464404 4.5283820881301112e-05 0 0.0016468668446381128 7.5355427969039696e-05 0 0.0016792103779404951 8.5858635015182422e-05 0 0.0016694740252758821 4.0556797367015916e-05 0 0.0016902795152067584 6.2239563466560142e-06 0 0.0016694740252758821 4.0556797367015916e-05 0 0.0017177482944464404 4.5283820881301112e-05 0 0.0016902795152067584 6.2239563466560142e-06 0 0.0016694740252758821 4.0556797367015916e-05 0 0.0016667832459286961 1.8158275993847505e-05 0 0.0017845334055082011 7.0690433179315025e-05 0 0.0017177482944464404 4.5283820881301112e-05 0 0.0017688272805887017 3.7136204670177018e-05 0 0.0017496626790357806 -3.2786882450038172e-06 0 0.0017177482944464404 4.5283820881301112e-05 0 0.0017688272805887017 3.7136204670177018e-05 0 0.0020536844257698847 -4.4493164679259537e-05 0 0.0022816080283700525 1.4807578575299357e-05 0 0.0022455274780276689 4.3065496573223034e-05 0 0.0022816080283700525 1.4807578575299357e-05 0 0.0017845334055082011 7.0690433179315025e-05 0 0.0017191306600382527 9.8414514628384866e-05 0 0.001767375538292765 0.0001301828865673339 0 0.0017845334055082011 7.0690433179315025e-05 0 0.0017177482944464404 4.5283820881301112e-05 0 0.0017191306600382527 9.8414514628384866e-05 0 0.0017855638968788062 0.00020516075478800653 0 0.001767375538292765 0.0001301828865673339 0 0.0017346324476577013 0.00017797249644725316 0 0.0017191306600382527 9.8414514628384866e-05 0 0.001767375538292765 0.0001301828865673339 0 0.0017346324476577013 0.00017797249644725316 0 0.0017154932142528266 9.9388858554423943e-05 0 0.001753535286207636 0.00018141325535395579 0 0.0017855638968788062 0.00020516075478800653 0 0.0017346324476577013 0.00017797249644725316 0 0.0017469862444182095 0.0002596217012556096 0 0.001753535286207636 0.00018141325535395579 0 0.001232229809679164 0.00026657963785701408 0 0.0019490505412772983 0.00010940591573073268 0 0.001232229809679164 0.00026657963785701408 0 0.0017211901471142512 0.0001668258863334678 0 0.0016474367779092734 0.00020148755163132575 0 0.0017279467101915342 0.00023061750998593086 0 0.0010594120960836795 0.00019912831355390945 0 0.001232229809679164 0.00026657963785701408 0 0.00049589048512104546 0.00020505006772909287 0 0.00053148188336577678 0.00024669686506497226 0 0.00058887882322633859 0.00022728338664633054 0 0.0017211901471142512 0.0001668258863334678 0 0.0016840912058708082 0.00014022214296756618 0 0.0016474367779092734 0.00020148755163132575 0 0.0017191306600382527 9.8414514628384866e-05 0 0.0017211901471142512 0.0001668258863334678 0 0.0016840912058708082 0.00014022214296756618 0 0.0016840912058708082 0.00014022214296756618 0 0.0016455156017268697 0.00015129543221773921 0 0.0016474367779092734 0.00020148755163132575 0 0.0016393043699414909 0.0001130926620471671 0 0.0016840912058708082 0.00014022214296756618 0 0.0016455156017268697 0.00015129543221773921 0 0.0016109560974864846 0.00014959725210923598 0 0.0016474367779092734 0.00020148755163132575 0 0.0015594821103444957 0.00016784842912005406 0 0.0016393043699414909 0.0001130926620471671 0 0.0016455156017268697 0.00015129543221773921 0 0.0016109560974864846 0.00014959725210923598 0 0.0015925390575201497 0.000112748814388353 0 0.0016393043699414909 0.0001130926620471671 0 0.0016109560974864846 0.00014959725210923598 0 0.0016455156017268697 0.00015129543221773921 0 0.0016109560974864846 0.00014959725210923598 0 0.0016474367779092734 0.00020148755163132575 0 0.00049589048512104546 0.00020505006772909287 0 0.00046088120259195141 0.00022623126780072314 0 0.00043102487014743562 0.00021048375714591736 0 0.0010594120960836795 0.00019912831355390945 0 0.00098959811611613294 0.0001918324326999207 0 0.00049589048512104546 0.00020505006772909287 0 0.00046088120259195141 0.00022623126780072314 0 0.00049266657720362713 0.00025841217506905281 0 0.00046088120259195141 0.00022623126780072314 0 0.00043128759270237837 0.00022402380549279454 0 0.00043102487014743562 0.00021048375714591736 0 0.00049589048512104546 0.00020505006772909287 0 0.00043102487014743562 0.00021048375714591736 0 0.00043252840614699652 0.00020156904902719294 0 0.00046088120259195141 0.00022623126780072314 0 0.00043128759270237837 0.00022402380549279454 0 0.00042659887854103103 0.00023877741977468988 0 0.00043128759270237837 0.00022402380549279454 0 0.00042539047739301433 0.0002196347108589064 0 0.00042031267858079843 0.00022638171906871036 0 0.00043128759270237837 0.00022402380549279454 0 0.00042659887854103103 0.00023877741977468988 0 0.00042031267858079843 0.00022638171906871036 0 0.00043128759270237837 0.00022402380549279454 0 0.00042539047739301433 0.0002196347108589064 0 0.00043102487014743562 0.00021048375714591736 0 0.00098959811611613294 0.0001918324326999207 0 0.0014010455318074224 0.00015433246575320299 0 0.001563532531049026 0.00015598337199490355 0 0.0015594821103444957 0.00016784842912005406 0 0.0015619333185289878 0.00013877998612200462 0 0.00043102487014743562 0.00021048375714591736 0 0.00043140290216214008 0.00021010683616388867 0 0.00042034645288458356 0.00021852593998529361 0 0.001563532531049026 0.00015598337199490355 0 0.0015594821103444957 0.00016784842912005406 0 0.0015836916645936619 0.00014580942147838179 0 0.00090749457949117738 0.00021209236265946958 0 0.00098959811611613294 0.0001918324326999207 0 0.0016109560974864846 0.00014959725210923598 0 0.0015594821103444957 0.00016784842912005406 0 0.0015836916645936619 0.00014580942147838179 0 0.0015925390575201497 0.000112748814388353 0 0.0016109560974864846 0.00014959725210923598 0 0.0015836916645936619 0.00014580942147838179 0 0.0015925390575201497 0.000112748814388353 0 0.0015836916645936619 0.00014580942147838179 0 0.0015633026526803704 0.00013918670062494699 0 0.001563532531049026 0.00015598337199490355 0 0.0015836916645936619 0.00014580942147838179 0 0.0015633026526803704 0.00013918670062494699 0 0.0014334989415834456 0.00015745394712729434 0 0.0014010455318074224 0.00015433246575320299 0 0.000417604969432505 0.00027282279604350806 0 0.00040308779044415517 0.00025728663220216211 0 0.00040821275558419046 0.00026003236040658955 0 0.000417604969432505 0.00027282279604350806 0 0.00041271651951316397 0.0002509977121995156 0 0.00040821275558419046 0.00026003236040658955 0 0.000417604969432505 0.00027282279604350806 0 0.00042659887854103103 0.00023877741977468988 0 0.00041271651951316397 0.0002509977121995156 0 0.00046088120259195141 0.00022623126780072314 0 0.000417604969432505 0.00027282279604350806 0 0.00042659887854103103 0.00023877741977468988 0 0.00046088120259195141 0.00022623126780072314 0 0.000417604969432505 0.00027282279604350806 0 0.00049266657720362713 0.00025841217506905281 0 0.000417604969432505 0.00027282279604350806 0 0.00035868158208119934 0.0002810849000389176 0 0.00038895936526407677 0.00025892998078347578 0 0.00042694569113530212 0.00027838614572800078 0 0.00041441128201555544 0.00029559048550561741 0 0.000417604969432505 0.00027282279604350806 0 0.00049266657720362713 0.00025841217506905281 0 0.00051353378342699119 0.00031737985014706073 0 0.00051353378342699119 0.00031737985014706073 0 0.00054244837894957404 0.00029650153947772894 0 0.00062723325857867935 0.00034944539562945437 0 0.00049266657720362713 0.00025841217506905281 0 0.00051353378342699119 0.00031737985014706073 0 0.00054244837894957404 0.00029650153947772894 0 0.00049589048512104546 0.00020505006772909287 0 0.00049266657720362713 0.00025841217506905281 0 0.00053148188336577678 0.00024669686506497226 0 0.00049266657720362713 0.00025841217506905281 0 0.00054244837894957404 0.00029650153947772894 0 0.00053148188336577678 0.00024669686506497226 0 0.00054244837894957404 0.00029650153947772894 0 0.00053148188336577678 0.00024669686506497226 0 0.00058887882322633859 0.00022728338664633054 0 0.00039040134605461635 0.00033925025146392876 0 0.001232229809679164 0.00026657963785701408 0 0.001232229809679164 0.00026657963785701408 0 0.0007050776866303881 0.00036016708275050707 0 0.00054244837894957404 0.00029650153947772894 0 0.00060559637131169951 0.00020907130161003208 0 0.0006159791802966679 0.00028199191868647069 0 0.00041441128201555544 0.00029559048550561741 0 0.00056182328936476081 0.00030632730354949165 0 0.00054244837894957404 0.00029650153947772894 0 0.0006159791802966679 0.00028199191868647069 0 0.00062723325857867935 0.00034944539562945437 0 0.0007050776866303881 0.00036016708275050707 0 0.00056182328936476081 0.00030632730354949165 0 0.00035868158208119934 0.0002810849000389176 0 0.00033260506904438705 0.0002546183715749793 0 0.00030367702145922022 0.00027330334766085689 0 0.00033260506904438705 0.0002546183715749793 0 0.00030367702145922022 0.00027330334766085689 0 0.0002939411970317403 0.00024109519693685084 0 0.00033260506904438705 0.0002546183715749793 0 0.00033417513750933679 0.00021763998543786024 0 0.0002939411970317403 0.00024109519693685084 0 0.00033417513750933679 0.00021763998543786024 0 0.0002939411970317403 0.00024109519693685084 0 0.00028325621646694155 0.00020820328790625164 0 0.00033260506904438705 0.0002546183715749793 0 0.00033417513750933679 0.00021763998543786024 0 0.00036042038486950944 0.00024942402621597502 0 0.00033417513750933679 0.00021763998543786024 0 0.00036042038486950944 0.00024942402621597502 0 0.00038122553380712254 0.00023420819058639513 0 -0.00026927334892170375 0.00025682148926135833 0 -0.00025347473599664515 0.00027045186519630376 0 0.00035868158208119934 0.0002810849000389176 0 0.00033260506904438705 0.0002546183715749793 0 0.00036042038486950944 0.00024942402621597502 0 0.00036042038486950944 0.00024942402621597502 0 0.00038895936526407677 0.00025892998078347578 0 0.00038122553380712254 0.00023420819058639513 0 0.00035868158208119934 0.0002810849000389176 0 0.00036042038486950944 0.00024942402621597502 0 0.00038895936526407677 0.00025892998078347578 0 0.00038122553380712254 0.00023420819058639513 0 0.00040308779044415517 0.00025728663220216211 0 0.00040095578993627046 0.00025899988624518801 0 -0.00088007770628292868 0.00030359074683756034 0 -0.00089409172337876462 0.00033955650985909432 0 -0.00092844788416316867 0.00029179966360522516 0 -0.00025347473599664515 0.00027045186519630376 0 -0.00023186401229571344 0.00027025553580363367 0 0.000417604969432505 0.00027282279604350806 0 0.00038895936526407677 0.00025892998078347578 0 0.00040308779044415517 0.00025728663220216211 0 0.00038895936526407677 0.00025892998078347578 0 0.00038122553380712254 0.00023420819058639513 0 0.00040308779044415517 0.00025728663220216211 0 0.00055525807095486589 0.00039287663248925879 0 0.00062100222373628238 0.00036637755963664592 0 0.00055105968350922872 0.0003401986255100126 0 0.00055525807095486589 0.00039287663248925879 0 0.00055105968350922872 0.0003401986255100126 0 0.00051476361861471588 0.00034075604719926522 0 0.002408833625142973 0.00026974927229901012 0 0.0023121905286862515 0.00024107759760491797 0 0.0023767332814029572 0.00018663074580812865 0 0.000482231236026621 0.00034512567869578002 0 0.00055525807095486589 0.00039287663248925879 0 0.00051476361861471588 0.00034075604719926522 0 0.0016496602107024456 9.4928217814755256e-05 0 0.001391309857346733 0.00033190526612822771 0 0.0024569817337003388 0.00015377617457116086 0 0.0023642224637214636 9.7183072100510574e-05 0 0.0023767332814029572 0.00018663074580812865 0 0.0023121905286862515 0.00024107759760491797 0 0.002308312179819087 0.00016961300150696981 0 0.0021880720766143807 0.00021196097160091891 0 0.0023642224637214636 9.7183072100510574e-05 0 0.0023767332814029572 0.00018663074580812865 0 0.002308312179819087 0.00016961300150696981 0 0.0023121905286862515 0.00024107759760491797 0 0.0023767332814029572 0.00018663074580812865 0 0.002308312179819087 0.00016961300150696981 0 0.0022503913863972857 0.00012343243024137677 0 0.002308312179819087 0.00016961300150696981 0 0.0021880720766143807 0.00021196097160091891 0 0.00081563849586693577 0.00051589516110910299 0 0.00079239134476921051 0.000422394424042909 0 0.00067767251639380601 0.00045457339489440326 0 0.0021597586638918667 0.00010837290570977889 0 0.0020430968469791408 0.00015586537968852786 0 0.0021880720766143807 0.00021196097160091891 0 0.001232229809679164 0.00026657963785701408 0 0.0014827907509029228 0.00035356314429464453 0 0.00079239134476921051 0.000422394424042909 0 0.00067767251639380601 0.00045457339489440326 0 0.00070793689117023954 0.00037921015050297705 0 0.00079239134476921051 0.000422394424042909 0 0.00077203595389495046 0.00033656243876765084 0 0.00070793689117023954 0.00037921015050297705 0 0.00067767251639380601 0.00045457339489440326 0 0.00070793689117023954 0.00037921015050297705 0 0.00062100222373628238 0.00036637755963664592 0 0.001391309857346733 0.00033190526612822771 0 0.0014827907509029228 0.00035356314429464453 0 0.00055525807095486589 0.00039287663248925879 0 0.00067767251639380601 0.00045457339489440326 0 0.00062100222373628238 0.00036637755963664592 0 0.00070793689117023954 0.00037921015050297705 0 0.00062100222373628238 0.00036637755963664592 0 0.00067699537264424565 0.00031617689394258976 0 0.00058815100399868135 0.00030498224139547916 0 0.00058086436241975941 0.00028342606075883121 0 0.00057460493588249199 0.0003062654000750233 0 0.00065335925959404326 0.00031722286084900052 0 0.0005758170894125022 0.00030313657677865578 0 0.00062100222373628238 0.00036637755963664592 0 0.00067699537264424565 0.00031617689394258976 0 0.00057460493588249199 0.0003062654000750233 0 0.00058815100399868135 0.00030498224139547916 0 0.00060410183635032895 0.00028891127646419495 0 0.00058086436241975941 0.00028342606075883121 0 0.00077203595389495046 0.00033656243876765084 0 0.00070793689117023954 0.00037921015050297705 0 0.00067699537264424565 0.00031617689394258976 0 0.00056182328936476081 0.00030632730354949165 0 0.0004390690283663712 0.00026235207828929723 0 0.00056182328936476081 0.00030632730354949165 0 0.00065335925959404326 0.00031722286084900052 0 0.0006080457010650144 0.00030947341820934806 0 0.00058815100399868135 0.00030498224139547916 0 0.00060410183635032895 0.00028891127646419495 0 0.0004390690283663712 0.00026235207828929723 0 -0.00016435503027517596 0.00034752703105653238 0 0.00060410183635032895 0.00028891127646419495 0 0.00058086436241975941 0.00028342606075883121 0 0.00059929513736117432 0.00026488567224521909 0 0.00058086436241975941 0.00028342606075883121 0 0.00055372413976947801 0.00028074512928350442 0 0.00055388382153530107 0.00024650326467881984 0 0.00058086436241975941 0.00028342606075883121 0 0.00055372413976947801 0.00028074512928350442 0 0.00057460493588249199 0.0003062654000750233 0 0.00055372413976947801 0.00028074512928350442 0 0.00052395545436997653 0.00030749144982089398 0 0.00051364445112296326 0.00026804214749071758 0 0.00055372413976947801 0.00028074512928350442 0 0.00051364445112296326 0.00026804214749071758 0 0.00055388382153530107 0.00024650326467881984 0 0.00055372413976947801 0.00028074512928350442 0 0.00057460493588249199 0.0003062654000750233 0 0.00052395545436997653 0.00030749144982089398 0 0.00057460493588249199 0.0003062654000750233 0 0.00055105968350922872 0.0003401986255100126 0 0.00052395545436997653 0.00030749144982089398 0 0.00055105968350922872 0.0003401986255100126 0 0.00051476361861471588 0.00034075604719926522 0 0.00052395545436997653 0.00030749144982089398 0 0.00062100222373628238 0.00036637755963664592 0 0.00057460493588249199 0.0003062654000750233 0 0.00055105968350922872 0.0003401986255100126 0 0.000482231236026621 0.00034512567869578002 0 0.00049651275914824986 0.00033403915473468964 0 0.00051476361861471588 0.00034075604719926522 0 0.00049651275914824986 0.00033403915473468964 0 0.00051476361861471588 0.00034075604719926522 0 0.00049787957712873001 0.00031853452978776827 0 0.00047767716706233269 0.00031917324742082538 0 0.00048846309893528408 0.000326520444595494 0 0.00048551203065364407 0.00033799213694843557 0 0.00048846309893528408 0.000326520444595494 0 0.00048551203065364407 0.00033799213694843557 0 0.00049651275914824986 0.00033403915473468964 0 0.00048846309893528408 0.000326520444595494 0 0.00049651275914824986 0.00033403915473468964 0 0.00049787957712873001 0.00031853452978776827 0 0.000482231236026621 0.00034512567869578002 0 0.00048551203065364407 0.00033799213694843557 0 0.00049651275914824986 0.00033403915473468964 0 0.00051476361861471588 0.00034075604719926522 0 0.00052395545436997653 0.00030749144982089398 0 0.00049787957712873001 0.00031853452978776827 0 0.00047767716706233269 0.00031917324742082538 0 0.00047990211560435762 0.00029493948597027463 0 0.00049787957712873001 0.00031853452978776827 0 0.00047990211560435762 0.00029493948597027463 0 0.00052395545436997653 0.00030749144982089398 0 0.00049787957712873001 0.00031853452978776827 0 0.00047767716706233269 0.00031917324742082538 0 0.00048846309893528408 0.000326520444595494 0 0.00049787957712873001 0.00031853452978776827 0 0.00047990211560435762 0.00029493948597027463 0 0.00052395545436997653 0.00030749144982089398 0 0.00051364445112296326 0.00026804214749071758 0 0.00047990211560435762 0.00029493948597027463 0 0.00051364445112296326 0.00026804214749071758 0 0.00046943071936927824 0.00025766067078112167 0 0.00051364445112296326 0.00026804214749071758 0 0.00047189215786166961 0.00022637004756417245 0 0.00055388382153530107 0.00024650326467881984 0 -0.00024507695794254381 0.00037542278763228642 0 -0.00013817471118666831 0.00038623477327844524 0 0.00062179397218565407 0.00032786726086022033 0 -0.00024507695794254381 0.00037542278763228642 0 0.00051364445112296326 0.00026804214749071758 0 0.00047572085793833589 0.00022516632260616127 0 0.00046943071936927824 0.00025766067078112167 0 -0.0016680933305616983 0.00033992546373347565 0 -0.0016754229758704827 0.00033105182894991811 0 -0.0010155714053512984 0.00048620343492245075 0 -0.0009032027972042182 0.00039913160098277656 0 -0.0010492167685381764 0.00044633782214554163 0 -0.002453387736428881 0.00026933250535522983 0 -0.0023763980186843224 0.00027188789026716111 0 -0.0024879820844824537 0.0003074742359542194 0 -0.0010155714053512984 0.00048620343492245075 0 -0.0009032027972042182 0.00039913160098277656 0 -0.00086419856561573138 0.00051387719432230145 0 -0.0009032027972042182 0.00039913160098277656 0 -0.00086419856561573138 0.00051387719432230145 0 -0.00082476572819911015 0.000439168584070252 0 -0.00013817471118666831 0.00038623477327844524 0 -0.00016435503027517596 0.00034752703105653238 0 0.00058086436241975941 0.00028342606075883121 0 0.00055388382153530107 0.00024650326467881984 0 0.00059929513736117432 0.00026488567224521909 0 -0.00086419856561573138 0.00051387719432230145 0 -0.00071235119610227337 0.0005401739196384906 0 -0.00082476572819911015 0.000439168584070252 0 -0.00016435503027517596 0.00034752703105653238 0 -0.00075668017307529609 0.0004236472108577201 0 -0.00078981282452072967 0.00032545646308171903 0 -0.00078885836849006911 0.00036101406220820966 0 -0.00081021502606139185 0.00034693741301239345 0 -0.00071235119610227337 0.0005401739196384906 0 -0.00073788523142865768 0.00044258962549655669 0 -0.00082476572819911015 0.000439168584070252 0 -0.00075668017307529609 0.0004236472108577201 0 -0.0014707855724249053 0.00034754219099365405 0 -0.00078885836849006911 0.00036101406220820966 0 -0.00080745417099408162 0.00038078682297466951 0 -0.00078814517064199345 0.00039537358905746445 0 -0.00078885836849006911 0.00036101406220820966 0 -0.00080745417099408162 0.00038078682297466951 0 -0.00081021502606139185 0.00034693741301239345 0 -0.0009032027972042182 0.00039913160098277656 0 -0.00082476572819911015 0.000439168584070252 0 -0.00076389903668263356 0.00034576001152338091 0 -0.00073788523142865768 0.00044258962549655669 0 -0.00082476572819911015 0.000439168584070252 0 -0.00076389903668263356 0.00034576001152338091 0 -0.0016680933305616983 0.00033992546373347565 0 -0.0014707855724249053 0.00034754219099365405 0 -0.0023763980186843224 0.00027188789026716111 0 -0.002245957881238287 0.00022827304347601841 0 -0.0023816212633286631 0.00014067625004130662 0 -0.00080745417099408162 0.00038078682297466951 0 -0.00078814517064199345 0.00039537358905746445 0 -0.00082352430491432194 0.00041012444315747365 0 -0.0014707855724249053 0.00034754219099365405 0 -0.0013767058337927542 0.00040346576131524526 0 -0.0014707855724249053 0.00034754219099365405 0 -0.0022781829359200373 0.00015965943866602637 0 -0.0021082391251978708 0.00045420909122039594 0 -0.0021609033604465468 0.00022744395014945431 0 -0.0019060675992167463 0.00037837481704616359 0 -0.0021609033604465468 0.00022744395014945431 0 -0.0019060675992167463 0.00037837481704616359 0 -0.0019558353882617044 0.00015062709743787021 0 -0.002245957881238287 0.00022827304347601841 0 -0.0022721895226466295 0.00012139923284663742 0 -0.0023816212633286631 0.00014067625004130662 0 -0.0023816212633286631 0.00014067625004130662 0 -0.0024651427876135347 0.00018595665509124319 0 -0.0024497594309304859 4.350040439812914e-05 0 -0.002618221884899484 0.00022548276754571394 0 -0.0024085780986896677 3.1990701164028135e-05 0 -0.002453387736428881 0.00026933250535522983 0 -0.0024651427876135347 0.00018595665509124319 0 -0.0024879820844824537 0.0003074742359542194 0 -0.002453387736428881 0.00026933250535522983 0 -0.0023763980186843224 0.00027188789026716111 0 -0.0024651427876135347 0.00018595665509124319 0 -0.0023763980186843224 0.00027188789026716111 0 -0.0023816212633286631 0.00014067625004130662 0 -0.0024651427876135347 0.00018595665509124319 0 -0.00089409172337876462 0.00033955650985909432 0 -0.00090094000028967793 0.00038865671149159435 0 -0.00093107101850571302 0.00035419875499873737 0 -0.00090094000028967793 0.00038865671149159435 0 -0.00093107101850571302 0.00035419875499873737 0 -0.00095729368409266631 0.00037663995383236228 0 -0.00089409172337876462 0.00033955650985909432 0 -0.00093107101850571302 0.00035419875499873737 0 -0.00093821178882334821 0.00032776528140827948 0 -0.00089409172337876462 0.00033955650985909432 0 -0.00092844788416316867 0.00029179966360522516 0 -0.00093821178882334821 0.00032776528140827948 0 -0.00083428644885033922 0.00031494360618897091 0 -0.00088007770628292868 0.00030359074683756034 0 -0.00089409172337876462 0.00033955650985909432 0 -0.00083428644885033922 0.00031494360618897091 0 -0.00089409172337876462 0.00033955650985909432 0 -0.00086478375668142145 0.00036386621455159742 0 -0.00089409172337876462 0.00033955650985909432 0 -0.00086478375668142145 0.00036386621455159742 0 -0.00090094000028967793 0.00038865671149159435 0 -0.00086478375668142145 0.00036386621455159742 0 -0.00083209244212002363 0.00036875570527401119 0 -0.00085631255089017443 0.00039138569633238494 0 -0.00083428644885033922 0.00031494360618897091 0 -0.00086478375668142145 0.00036386621455159742 0 -0.00083209244212002363 0.00036875570527401119 0 -0.00083428644885033922 0.00031494360618897091 0 -0.00081021502606139185 0.00034693741301239345 0 -0.00083209244212002363 0.00036875570527401119 0 -0.00083428644885033922 0.00031494360618897091 0 -0.00078981282452072967 0.00032545646308171903 0 -0.00081021502606139185 0.00034693741301239345 0 -0.00026927334892170375 0.00025682148926135833 0 -0.00016435503027517596 0.00034752703105653238 0 -0.00080745417099408162 0.00038078682297466951 0 -0.00081021502606139185 0.00034693741301239345 0 -0.00083209244212002363 0.00036875570527401119 0 -0.00080745417099408162 0.00038078682297466951 0 -0.00083209244212002363 0.00036875570527401119 0 -0.00082352430491432194 0.00041012444315747365 0 -0.00083209244212002363 0.00036875570527401119 0 -0.00082352430491432194 0.00041012444315747365 0 -0.00085631255089017443 0.00039138569633238494 0 -0.0019060675992167463 0.00037837481704616359 0 -0.0017024629697127459 0.00030230240355500832 0 -0.0019558353882617044 0.00015062709743787021 0 -0.0013767058337927542 0.00040346576131524526 0 -0.0012163202597654749 0.00034326353699785738 0 -0.00082352430491432194 0.00041012444315747365 0 -0.00086225192780105199 0.00042530045820141603 0 -0.00085631255089017443 0.00039138569633238494 0 -0.00086225192780105199 0.00042530045820141603 0 -0.00085631255089017443 0.00039138569633238494 0 -0.00090094000028967793 0.00038865671149159435 0 -0.00086478375668142145 0.00036386621455159742 0 -0.00085631255089017443 0.00039138569633238494 0 -0.00090094000028967793 0.00038865671149159435 0 -0.0012163202597654749 0.00034326353699785738 0 -0.0015532567738855588 0.00038475592055963549 0 -0.00086225192780105199 0.00042530045820141603 0 -0.00090360785473434467 0.00044022009749114017 0 -0.00090094000028967793 0.00038865671149159435 0 -0.00090360785473434467 0.00044022009749114017 0 -0.00090094000028967793 0.00038865671149159435 0 -0.00094496681515311319 0.00041442107557898583 0 -0.0016357054125013546 0.00049457281584073783 0 -0.0017361869870060264 0.00043694874003909537 0 -0.0017312776597635622 0.00047762174591880081 0 -0.0016357054125013546 0.00049457281584073783 0 -0.0017312776597635622 0.00047762174591880081 0 -0.0017223881957235815 0.00051035800184590107 0 -0.0015532567738855588 0.00038475592055963549 0 -0.0012458851207701981 0.00045740424977772624 0 -0.0028693365809875533 0.0002404552754206831 0 -0.0029004541216880223 0.00033711695585237359 0 -0.0027089473353859822 0.00040441240256571995 0 -0.0015532567738855588 0.00038475592055963549 0 -0.0021514891690529929 0.00041313491360408253 0 -0.0021782565283524125 0.00042817502089011384 0 -0.002183184745788757 0.00024850543936363921 0 -0.001952387912106443 0.00033221126647639841 0 -0.002581814097811701 0.00028073964618337814 0 -0.0021514891690529929 0.00041313491360408253 0 -0.0016357054125013546 0.00049457281584073783 0 -0.0017223881957235815 0.00051035800184590107 0 -0.001746976273326593 0.00054137456014537145 0 -0.0015532567738855588 0.00038475592055963549 0 -0.0021592593814393911 0.00015664516223513758 0 -0.0021782565283524125 0.00042817502089011384 0 -0.002183184745788757 0.00024850543936363921 0 -0.0024184977030812047 0.0002856103814815067 0 -0.0017024629697127459 0.00030230240355500832 0 -0.0014990346808162172 0.00022651885806157133 0 -0.0017501079236030752 7.3362520058694168e-05 0 -0.002581814097811701 0.00028073964618337814 0 -0.0027402072846971644 0.00022075359794678 0 -0.0029004541216880223 0.00033711695585237359 0 -0.0029787811865929453 0.00025704088341893289 0 -0.0030883691925644827 0.00027112204438947489 0 -0.0028693365809875533 0.0002404552754206831 0 -0.0029004541216880223 0.00033711695585237359 0 -0.0029787811865929453 0.00025704088341893289 0 -0.002183184745788757 0.00024850543936363921 0 -0.0024217574479380795 0.00016163605271013269 0 -0.0024184977030812047 0.0002856103814815067 0 -0.0029787811865929453 0.00025704088341893289 0 -0.0030883691925644827 0.00027112204438947489 0 -0.0030802078143588917 0.00015408739256622669 0 -0.0017024629697127459 0.00030230240355500832 0 -0.0017501079236030752 7.3362520058694168e-05 0 -0.0019558353882617044 0.00015062709743787021 0 -0.0017501079236030752 7.3362520058694168e-05 0 -0.0019558353882617044 0.00015062709743787021 0 -0.0020044496219603259 -7.9521687171615508e-05 0 -0.0021592593814393911 0.00015664516223513758 0 -0.0022432975806903508 2.5293232750187545e-05 0 -0.0027402072846971644 0.00022075359794678 0 -0.0030065361734668175 0.00013490671130040235 0 -0.0024217574479380795 0.00016163605271013269 0 -0.0026674863648289593 0.00013740511748309192 0 -0.0026690953718524154 7.2873173067738314e-05 0 -0.0024217574479380795 0.00016163605271013269 0 -0.0024184977030812047 0.0002856103814815067 0 -0.0026674863648289593 0.00013740511748309192 0 -0.003406690038665278 0.0001919357223170971 0 -0.0034721896898564936 0.00013844209102632297 0 -0.0030883691925644827 0.00027112204438947489 0 -0.0030802078143588917 0.00015408739256622669 0 -0.0032752253606293585 0.00020679690067577835 0 -0.0030802078143588917 0.00015408739256622669 0 -0.0032752253606293585 0.00020679690067577835 0 -0.0032897130697348669 6.7766879677702888e-05 0 -0.0037218874011351864 0.00022805782029217605 0 -0.0037789674776572599 0.00020938027586324599 0 -0.0037358396852780616 0.00016866897349849676 0 -0.0037218874011351864 0.00022805782029217605 0 -0.0036981108710408233 0.00017972549348094612 0 -0.0037358396852780616 0.00016866897349849676 0 -0.0033029450901399561 0.00023171762730658107 0 -0.003406690038665278 0.0001919357223170971 0 -0.0028693365809875533 0.0002404552754206831 0 -0.0029787811865929453 0.00025704088341893289 0 -0.0030802078143588917 0.00015408739256622669 0 -0.0036688518201568117 0.00024625198341309549 0 -0.0037218874011351864 0.00022805782029217605 0 -0.0036782752718906232 0.00020824960014628879 0 -0.0036782752718906232 0.00020824960014628879 0 -0.0036683310412745926 0.00017948310253146027 0 -0.0036981108710408233 0.00017972549348094612 0 -0.0037218874011351864 0.00022805782029217605 0 -0.0036782752718906232 0.00020824960014628879 0 -0.0036981108710408233 0.00017972549348094612 0 -0.0036782752718906232 0.00020824960014628879 0 -0.0036446270331233644 0.00020246581974293549 0 -0.0036683310412745926 0.00017948310253146027 0 -0.0036688518201568117 0.00024625198341309549 0 -0.0036782752718906232 0.00020824960014628879 0 -0.0036446270331233644 0.00020246581974293549 0 -0.0024497594309304859 4.350040439812914e-05 0 -0.0022999640446230993 7.312553869385895e-06 0 -0.0024328258892537097 -6.9166484537306946e-05 0 -0.0024497594309304859 4.350040439812914e-05 0 -0.0024328258892537097 -6.9166484537306946e-05 0 -0.0025561069312155537 -4.8149138332301312e-05 0 -0.0025061734386190265 0.00021530811286326341 0 -0.0024497594309304859 4.350040439812914e-05 0 -0.0026285204518910481 8.1926058423549474e-05 0 -0.0023816212633286631 0.00014067625004130662 0 -0.0024497594309304859 4.350040439812914e-05 0 -0.0022999640446230993 7.312553869385895e-06 0 -0.0022721895226466295 0.00012139923284663742 0 -0.0023816212633286631 0.00014067625004130662 0 -0.0022999640446230993 7.312553869385895e-06 0 -0.0022781829359200373 0.00015965943866602637 0 -0.0021995901932926956 -2.1075801811963007e-05 0 -0.0021609033604465468 0.00022744395014945431 0 -0.0019558353882617044 0.00015062709743787021 0 -0.0022149458701527752 -1.5456640638471141e-06 0 -0.0019558353882617044 0.00015062709743787021 0 -0.0020044496219603259 -7.9521687171615508e-05 0 -0.0022149458701527752 -1.5456640638471141e-06 0 -0.0020044496219603259 -7.9521687171615508e-05 0 -0.0022149458701527752 -1.5456640638471141e-06 0 -0.0022658361420911533 -0.00023190192115081921 0 -0.0022999640446230993 7.312553869385895e-06 0 -0.0023289755468990305 -0.00011650769854267008 0 -0.0024328258892537097 -6.9166484537306946e-05 0 -0.0021995901932926956 -2.1075801811963007e-05 0 -0.0030367745911622436 5.3882181733600157e-05 0 -0.0030367745911622436 5.3882181733600157e-05 0 -0.0030065361734668175 0.00013490671130040235 0 -0.0022432975806903508 2.5293232750187545e-05 0 -0.0030367745911622436 5.3882181733600157e-05 0 -0.0026674863648289593 0.00013740511748309192 0 -0.0029273739483008506 -1.664270005766732e-05 0 -0.0026690953718524154 7.2873173067738314e-05 0 -0.0034638211909978843 0.00014245383793006622 0 -0.0032752253606293585 0.00020679690067577835 0 -0.0032897130697348669 6.7766879677702888e-05 0 -0.0034721896898564936 0.00013844209102632297 0 -0.0039794639104020852 0.00014525531040738822 0 -0.0030367745911622436 5.3882181733600157e-05 0 -0.0039794639104020852 0.00014525531040738822 0 -0.0034638211909978843 0.00014245383793006622 0 -0.0032897130697348669 6.7766879677702888e-05 0 -0.003503124603807947 -1.9622004592971927e-05 0 -0.0037789674776572599 0.00020938027586324599 0 -0.0038416306613860149 0.00018757897791847416 0 -0.0038104989465253701 0.00016656821964161346 0 -0.0030367745911622436 5.3882181733600157e-05 0 -0.0041341544726201584 9.6546857226757033e-05 0 -0.0030367745911622436 5.3882181733600157e-05 0 -0.003390389256703789 -8.7810751630386567e-05 0 -0.0043673228985807435 0.0002286481049129614 0 -0.0043604715911810654 0.00021373342120075556 0 -0.004294935596760815 0.00021203764740618635 0 -0.0031326035158580727 0.00020222090271306272 0 -0.0037705109583692099 -1.9926250560350885e-05 0 -0.0037047140860567173 -0.00014098182101634273 0 -0.0042658450939643622 0.00028636584730262559 0 -0.0043673228985807435 0.0002286481049129614 0 -0.004294935596760815 0.00021203764740618635 0 -0.0023289755468990305 -0.00011650769854267008 0 -0.0024328258892537097 -6.9166484537306946e-05 0 -0.0024914647494492753 -0.00017301803451689384 0 -0.004302213311270852 5.4984091857255865e-05 0 -0.0042644458134479769 3.6268091239283787e-05 0 -0.0042509424580818153 -3.7818266109395346e-05 0 -0.003390389256703789 -8.7810751630386567e-05 0 -0.0034016698126813879 -4.2374425682388594e-05 0 -0.0024328258892537097 -6.9166484537306946e-05 0 -0.0024914647494492753 -0.00017301803451689384 0 -0.0025561069312155537 -4.8149138332301312e-05 0 -0.0042932749025147154 5.8504726605242927e-05 0 -0.004302213311270852 5.4984091857255865e-05 0 -0.0042644458134479769 3.6268091239283787e-05 0 -0.0042932749025147154 5.8504726605242927e-05 0 -0.0043111281511586603 7.4064754852412362e-05 0 -0.0042561663893889816 7.7160606215689246e-05 0 -0.0042932749025147154 5.8504726605242927e-05 0 -0.0042561663893889816 7.7160606215689246e-05 0 -0.0042644458134479769 3.6268091239283787e-05 0 -0.0042932749025147154 5.8504726605242927e-05 0 -0.0043003109770431156 5.5871376683375539e-05 0 -0.0043111281511586603 7.4064754852412362e-05 0 -0.003390389256703789 -8.7810751630386567e-05 0 -0.0041341544726201584 9.6546857226757033e-05 0 -0.0035593417629784896 -0.000119957953692648 0 -0.003390389256703789 -8.7810751630386567e-05 0 -0.0043562257259116971 0.00020218896774859839 0 -0.0043604715911810654 0.00021373342120075556 0 -0.0043481272142222079 0.00021558360181444551 0 -0.0041341544726201584 9.6546857226757033e-05 0 -0.0042109581407311003 0.0001829376427260848 0 -0.0043111281511586603 7.4064754852412362e-05 0 -0.0042561663893889816 7.7160606215689246e-05 0 -0.0042481165529530077 0.00012929340092592055 0 -0.0042561663893889816 7.7160606215689246e-05 0 -0.004209246185987483 8.6640416309400958e-05 0 -0.0042481165529530077 0.00012929340092592055 0 -0.0042561663893889816 7.7160606215689246e-05 0 -0.004209246185987483 8.6640416309400958e-05 0 -0.0042185775400871688 2.8109633939976405e-05 0 -0.0042561663893889816 7.7160606215689246e-05 0 -0.0042644458134479769 3.6268091239283787e-05 0 -0.0042185775400871688 2.8109633939976405e-05 0 -0.004209246185987483 8.6640416309400958e-05 0 -0.0041603874148402878 3.648349425025369e-05 0 -0.0041493074733157465 9.4335541614314471e-05 0 -0.004209246185987483 8.6640416309400958e-05 0 -0.0041603874148402878 3.648349425025369e-05 0 -0.0042185775400871688 2.8109633939976405e-05 0 -0.0041603874148402878 3.648349425025369e-05 0 -0.0041720185659385959 -3.1466913892540061e-05 0 -0.0041038242651024398 -2.9573228541117009e-06 0 -0.0041603874148402878 3.648349425025369e-05 0 -0.0041720185659385959 -3.1466913892540061e-05 0 -0.0042185775400871688 2.8109633939976405e-05 0 -0.0042644458134479769 3.6268091239283787e-05 0 -0.0042185775400871688 2.8109633939976405e-05 0 -0.0042509424580818153 -3.7818266109395346e-05 0 -0.0041720185659385959 -3.1466913892540061e-05 0 -0.0042185775400871688 2.8109633939976405e-05 0 -0.0042509424580818153 -3.7818266109395346e-05 0 -0.0034016698126813879 -4.2374425682388594e-05 0 -0.0034323295657638546 7.7534999794680052e-07 0 -0.0041720185659385959 -3.1466913892540061e-05 0 -0.0042509424580818153 -3.7818266109395346e-05 0 -0.0041916364207563893 -0.00012813559560193006 0 -0.0024497594309304859 4.350040439812914e-05 0 -0.0025561069312155537 -4.8149138332301312e-05 0 -0.0026285204518910481 8.1926058423549474e-05 0 -0.0041720185659385959 -3.1466913892540061e-05 0 -0.0041345428581249762 -9.2719515273691558e-05 0 -0.0041916364207563893 -0.00012813559560193006 0 -0.0041345428581249762 -9.2719515273691558e-05 0 -0.0041916364207563893 -0.00012813559560193006 0 -0.0040810167281411644 -0.00014318105654797869 0 -0.0040368287467884428 -0.00011294885971406996 0 -0.0040810167281411644 -0.00014318105654797869 0 -0.0040041355881263625 -0.00015508484535933057 0 -0.0040368287467884428 -0.00011294885971406996 0 -0.0040810167281411644 -0.00014318105654797869 0 -0.0040825017416802898 -6.9583282948584309e-05 0 -0.0041345428581249762 -9.2719515273691558e-05 0 -0.0040810167281411644 -0.00014318105654797869 0 -0.0040825017416802898 -6.9583282948584309e-05 0 -0.0041720185659385959 -3.1466913892540061e-05 0 -0.0041345428581249762 -9.2719515273691558e-05 0 -0.0040825017416802898 -6.9583282948584309e-05 0 -0.0040368287467884428 -0.00011294885971406996 0 -0.0040825017416802898 -6.9583282948584309e-05 0 -0.0040169499835981158 -6.4338913275245474e-05 0 -0.0040825017416802898 -6.9583282948584309e-05 0 -0.0040519703576702721 -2.4219270296880909e-05 0 -0.0040169499835981158 -6.4338913275245474e-05 0 -0.0040519703576702721 -2.4219270296880909e-05 0 -0.0040067665472597914 7.6324492822334455e-06 0 -0.0040169499835981158 -6.4338913275245474e-05 0 -0.0040519703576702721 -2.4219270296880909e-05 0 -0.0041038242651024398 -2.9573228541117009e-06 0 -0.0040566269576457455 2.7848510393458019e-05 0 -0.0040519703576702721 -2.4219270296880909e-05 0 -0.0040566269576457455 2.7848510393458019e-05 0 -0.0040067665472597914 7.6324492822334455e-06 0 -0.0041720185659385959 -3.1466913892540061e-05 0 -0.0040825017416802898 -6.9583282948584309e-05 0 -0.0041038242651024398 -2.9573228541117009e-06 0 -0.0040825017416802898 -6.9583282948584309e-05 0 -0.0040519703576702721 -2.4219270296880909e-05 0 -0.0041038242651024398 -2.9573228541117009e-06 0 -0.0041603874148402878 3.648349425025369e-05 0 -0.0041038242651024398 -2.9573228541117009e-06 0 -0.0041053479003249158 5.4478761941427177e-05 0 -0.0041603874148402878 3.648349425025369e-05 0 -0.0041053479003249158 5.4478761941427177e-05 0 -0.0041493074733157465 9.4335541614314471e-05 0 -0.0041038242651024398 -2.9573228541117009e-06 0 -0.0041053479003249158 5.4478761941427177e-05 0 -0.0040566269576457455 2.7848510393458019e-05 0 -0.0041053479003249158 5.4478761941427177e-05 0 -0.0040567036478069887 8.3489167862371789e-05 0 -0.0041052910780265362 0.00010866907656012108 0 -0.0041053479003249158 5.4478761941427177e-05 0 -0.0041493074733157465 9.4335541614314471e-05 0 -0.0041052910780265362 0.00010866907656012108 0 -0.0040292369769166373 5.2102458237058213e-05 0 -0.0040567036478069887 8.3489167862371789e-05 0 -0.0039985259047612461 8.9830963710587703e-05 0 -0.0040292369769166373 5.2102458237058213e-05 0 -0.0040566269576457455 2.7848510393458019e-05 0 -0.0040567036478069887 8.3489167862371789e-05 0 -0.0040292369769166373 5.2102458237058213e-05 0 -0.0040566269576457455 2.7848510393458019e-05 0 -0.0040067665472597914 7.6324492822334455e-06 0 -0.0041053479003249158 5.4478761941427177e-05 0 -0.0040566269576457455 2.7848510393458019e-05 0 -0.0040567036478069887 8.3489167862371789e-05 0 -0.0039396334566024465 2.677963429486128e-05 0 -0.0040067665472597914 7.6324492822334455e-06 0 -0.0039985259047612461 8.9830963710587703e-05 0 -0.0040292369769166373 5.2102458237058213e-05 0 -0.0040067665472597914 7.6324492822334455e-06 0 -0.0039985259047612461 8.9830963710587703e-05 0 -0.00401423208895466 6.7436303666650361e-05 0 -0.0041370130968890273 0.00016036126574151422 0 -0.0039396334566024465 2.677963429486128e-05 0 -0.0039692179006655046 -4.2629356710340859e-05 0 -0.0040067665472597914 7.6324492822334455e-06 0 -0.0039396334566024465 2.677963429486128e-05 0 -0.0039692179006655046 -4.2629356710340859e-05 0 -0.0039286940086848956 -3.9476356712106643e-05 0 -0.0039692179006655046 -4.2629356710340859e-05 0 -0.0040067665472597914 7.6324492822334455e-06 0 -0.0040169499835981158 -6.4338913275245474e-05 0 -0.0039253152160846853 0.00019410300024070627 0 -0.0038036329447001826 1.1043752437710934e-05 0 -0.0040939217499586789 0.00010627918345906209 0 -0.0038605394671722996 0.00016521194912343868 0 -0.0041192345120393409 0.00027913385036801308 0 -0.0040939217499586789 0.00010627918345906209 0 -0.0038605394671722996 0.00016521194912343868 0 -0.0038871934979997232 -3.7309416494133232e-06 0 -0.00401423208895466 6.7436303666650361e-05 0 -0.0038959061621142918 5.8283505483256872e-08 0 -0.0039396334566024465 2.677963429486128e-05 0 -0.0039286940086848956 -3.9476356712106643e-05 0 -0.0038871934979997232 -3.7309416494133232e-06 0 -0.0039286940086848956 -3.9476356712106643e-05 0 -0.0038871934979997232 -3.7309416494133232e-06 0 -0.0038799820384374474 -9.637456790583428e-05 0 -0.0038871934979997232 -3.7309416494133232e-06 0 -0.0038118117138313972 -7.4307928969100543e-05 0 -0.0037893238992109807 -3.4565233388960063e-06 0 -0.0038605394671722996 0.00016521194912343868 0 -0.0038871934979997232 -3.7309416494133232e-06 0 -0.0037893238992109807 -3.4565233388960063e-06 0 -0.0038871934979997232 -3.7309416494133232e-06 0 -0.0038799820384374474 -9.637456790583428e-05 0 -0.0038118117138313972 -7.4307928969100543e-05 0 -0.0038799820384374474 -9.637456790583428e-05 0 -0.0038762885952760358 -0.00017809304260400327 0 -0.0037613269329005135 -0.00019180008125540269 0 -0.0038799820384374474 -9.637456790583428e-05 0 -0.0038118117138313972 -7.4307928969100543e-05 0 -0.0037613269329005135 -0.00019180008125540269 0 -0.0039286940086848956 -3.9476356712106643e-05 0 -0.0038799820384374474 -9.637456790583428e-05 0 -0.0039437091023407107 -0.00010800426239356256 0 -0.0038799820384374474 -9.637456790583428e-05 0 -0.0038762885952760358 -0.00017809304260400327 0 -0.0039437091023407107 -0.00010800426239356256 0 -0.0039188228344924558 -0.00024021872309700301 0 -0.0038762885952760358 -0.00017809304260400327 0 -0.0039437091023407107 -0.00010800426239356256 0 -0.0039041950406597022 -0.00013691755404966345 0 -0.0039437091023407107 -0.00010800426239356256 0 -0.0039300942706256966 -0.0001327089009210111 0 -0.0039115394047072004 -0.0001893454231240386 0 -0.0039404239096107055 -0.00012439290218092423 0 -0.0039041950406597022 -0.00013691755404966345 0 -0.0039300942706256966 -0.0001327089009210111 0 -0.003909921930421164 -0.00015928072711012971 0 -0.0038762885952760358 -0.00017809304260400327 0 -0.0038232948995043539 -0.00026307559607302193 0 -0.0037613269329005135 -0.00019180008125540269 0 -0.0039188228344924558 -0.00024021872309700301 0 -0.0038762885952760358 -0.00017809304260400327 0 -0.0038232948995043539 -0.00026307559607302193 0 -0.0039692179006655046 -4.2629356710340859e-05 0 -0.0040169499835981158 -6.4338913275245474e-05 0 -0.0039683414664000325 -0.00011724062379356893 0 -0.0039692179006655046 -4.2629356710340859e-05 0 -0.0039286940086848956 -3.9476356712106643e-05 0 -0.0039437091023407107 -0.00010800426239356256 0 -0.0039692179006655046 -4.2629356710340859e-05 0 -0.0039437091023407107 -0.00010800426239356256 0 -0.0039683414664000325 -0.00011724062379356893 0 -0.0039437091023407107 -0.00010800426239356256 0 -0.0039300942706256966 -0.0001327089009210111 0 -0.0039683414664000325 -0.00011724062379356893 0 -0.0039300942706256966 -0.0001327089009210111 0 -0.0039683414664000325 -0.00011724062379356893 0 -0.0039311890760416529 -0.00015060496644425815 0 -0.0039683414664000325 -0.00011724062379356893 0 -0.0040041355881263625 -0.00015508484535933057 0 -0.0039311890760416529 -0.00015060496644425815 0 -0.0040368287467884428 -0.00011294885971406996 0 -0.0039683414664000325 -0.00011724062379356893 0 -0.0040041355881263625 -0.00015508484535933057 0 -0.0040368287467884428 -0.00011294885971406996 0 -0.0040169499835981158 -6.4338913275245474e-05 0 -0.0039683414664000325 -0.00011724062379356893 0 -0.0039677012116474024 -0.00019608629148129932 0 -0.0040041355881263625 -0.00015508484535933057 0 -0.0039311890760416529 -0.00015060496644425815 0 -0.0039677012116474024 -0.00019608629148129932 0 -0.0040041355881263625 -0.00015508484535933057 0 -0.0040037636380833228 -0.00021723058903444018 0 -0.0039677012116474024 -0.00019608629148129932 0 -0.0039311890760416529 -0.00015060496644425815 0 -0.0039045019418756234 -0.0002145062369496635 0 -0.0039311890760416529 -0.00015060496644425815 0 -0.0039045019418756234 -0.0002145062369496635 0 -0.0038479012828537473 -0.00015857381379709982 0 -0.0039045019418756234 -0.0002145062369496635 0 -0.0038545310536309239 -0.0002729117621953011 0 -0.0039699303914394104 -0.00027360476615171834 0 -0.0039677012116474024 -0.00019608629148129932 0 -0.0039045019418756234 -0.0002145062369496635 0 -0.0039699303914394104 -0.00027360476615171834 0 -0.0039677012116474024 -0.00019608629148129932 0 -0.0039699303914394104 -0.00027360476615171834 0 -0.0040037636380833228 -0.00021723058903444018 0 -0.0038232948995043539 -0.00026307559607302193 0 -0.0038444081325997117 -0.00038599113166585928 0 -0.0037326322454467068 -0.00032076042558106845 0 -0.0039188228344924558 -0.00024021872309700301 0 -0.0038232948995043539 -0.00026307559607302193 0 -0.0038444081325997117 -0.00038599113166585928 0 -0.0039115394047072004 -0.0001893454231240386 0 -0.0037877958017904253 -0.00023814263694423227 0 -0.0037877958017904253 -0.00023814263694423227 0 -0.0038866079579471342 -0.00015992100802772705 0 -0.0039045019418756234 -0.0002145062369496635 0 -0.0038479012828537473 -0.00015857381379709982 0 -0.0038159934907918292 -0.0002142667457518076 0 -0.0037666497656614457 -0.00017382400907852073 0 -0.0038479012828537473 -0.00015857381379709982 0 -0.0038159934907918292 -0.0002142667457518076 0 -0.0039041950406597022 -0.00013691755404966345 0 -0.0038762274978156701 -0.00016905598880491998 0 -0.003909921930421164 -0.00015928072711012971 0 -0.0039300942706256966 -0.0001327089009210111 0 -0.0039311890760416529 -0.00015060496644425815 0 -0.003909921930421164 -0.00015928072711012971 0 -0.0039198090559800936 -0.00015165132990786385 0 -0.0038866079579471342 -0.00015992100802772705 0 -0.0039045019418756234 -0.0002145062369496635 0 -0.0038159934907918292 -0.0002142667457518076 0 -0.0038545310536309239 -0.0002729117621953011 0 -0.0038159934907918292 -0.0002142667457518076 0 -0.0038545310536309239 -0.0002729117621953011 0 -0.0036951938523874534 -0.00025603820833074024 0 -0.0031152728060307956 -0.00033850413134468838 0 -0.0032065016251738589 -0.00037763846491142925 0 -0.0037666497656614457 -0.00017382400907852073 0 -0.0038159934907918292 -0.0002142667457518076 0 -0.0036951938523874534 -0.00025603820833074024 0 -0.0037877958017904253 -0.00023814263694423227 0 -0.0032065016251738589 -0.00037763846491142925 0 -0.0025855095651535209 -0.00035155917959228092 0 -0.0024211873255673409 -0.00042339523144916649 0 -0.0027480275857362938 -0.0004830005128107165 0 -0.0026744453977791778 -0.00028585030657618695 0 -0.0025855095651535209 -0.00035155917959228092 0 -0.0027480275857362938 -0.0004830005128107165 0 -0.0026744453977791778 -0.00028585030657618695 0 -0.0025855095651535209 -0.00035155917959228092 0 -0.0024986693787249293 -0.00021443115770473949 0 -0.0024211873255673409 -0.00042339523144916649 0 -0.0024986693787249293 -0.00021443115770473949 0 -0.0021776614651194417 -0.00023485260014469947 0 -0.0025855095651535209 -0.00035155917959228092 0 -0.0024211873255673409 -0.00042339523144916649 0 -0.0024986693787249293 -0.00021443115770473949 0 -0.0020473039440249835 -0.00030603198860630951 0 -0.0017099803977691844 -0.00033104900637063718 0 -0.0012252989840840299 -0.00038153930253970593 0 -0.0013502761810442298 -0.00059271736853571853 0 -0.00096026156331786633 -0.00043454188779477735 0 -0.00087187708737962693 -0.00050843112306932854 0 -0.0012996702879778063 -0.00049170012960597057 0 -0.00051662045799934621 -0.00056030885220460552 0 -0.00055106764724325435 -0.00065186662413688678 0 -0.00059662894430304123 -0.00056656522745624188 0 -0.0012252989840840299 -0.00038153930253970593 0 -0.0013502761810442298 -0.00059271736853571853 0 -0.0016291047739001704 -0.00057976828508746409 0 -0.00051662045799934621 -0.00056030885220460552 0 -0.00043025248904947301 -0.00059788378833189717 0 -0.00055106764724325435 -0.00065186662413688678 0 -0.0023457874652932803 -0.00034277627966409715 0 -0.0020473039440249835 -0.00030603198860630951 0 -0.0020473039440249835 -0.00030603198860630951 0 -0.0012996702879778063 -0.00049170012960597057 0 -0.002003714701287288 -0.00039361600958054697 0 -0.0018328914302613126 -0.00032007789042440044 0 -0.0019969831821692453 -0.00031345475821066934 0 -0.0021086910625901113 -0.00035460714600193651 0 -0.0021776614651194417 -0.00023485260014469947 0 -0.0020682080687004704 -0.0002216428481449149 0 -0.0021086910625901113 -0.00035460714600193651 0 -0.0020682080687004704 -0.0002216428481449149 0 -0.0019950471810601259 -0.00024298942956974188 0 -0.0024211873255673409 -0.00042339523144916649 0 -0.0021086910625901113 -0.00035460714600193651 0 -0.0021776614651194417 -0.00023485260014469947 0 -0.0031152728060307956 -0.00033850413134468838 0 -0.0031516685310797182 -0.00035825543233069271 0 -0.0020473039440249835 -0.00030603198860630951 0 -0.00234945034729034 -0.00020670245155113124 0 -0.0023375622295656734 -0.00021955069194020064 0 -0.0021776614651194417 -0.00023485260014469947 0 -0.0022232929721991796 -0.00017006113116655071 0 -0.0021776614651194417 -0.00023485260014469947 0 -0.0022232929721991796 -0.00017006113116655071 0 -0.0021186728632170341 -0.00017316781904932815 0 -0.0020607040170766556 -9.1793134902950823e-05 0 -0.0022232929721991796 -0.00017006113116655071 0 -0.0021186728632170341 -0.00017316781904932815 0 -0.0021776614651194417 -0.00023485260014469947 0 -0.0021186728632170341 -0.00017316781904932815 0 -0.0020682080687004704 -0.0002216428481449149 0 -0.0020682080687004704 -0.0002216428481449149 0 -0.0020511786124162196 -0.00015512680299184143 0 -0.002001132612523584 -0.00017736670404190887 0 -0.0020607040170766556 -9.1793134902950823e-05 0 -0.0021186728632170341 -0.00017316781904932815 0 -0.0020511786124162196 -0.00015512680299184143 0 -0.0021186728632170341 -0.00017316781904932815 0 -0.0020682080687004704 -0.0002216428481449149 0 -0.0020511786124162196 -0.00015512680299184143 0 -0.0010129525906759707 3.0596140963401741e-05 0 -0.0010412183205869845 5.5306932401524556e-05 0 -0.0010817406343234847 6.5460677397899262e-05 0 -0.0019340960891770463 -0.00016849504449181971 0 -0.0019950471810601259 -0.00024298942956974188 0 -0.0018671308887981029 -0.00029719406667738895 0 -0.0020065881720297807 -0.00011088673053616101 0 -0.0020511786124162196 -0.00015512680299184143 0 -0.002001132612523584 -0.00017736670404190887 0 -0.0020065881720297807 -0.00011088673053616101 0 -0.002001132612523584 -0.00017736670404190887 0 -0.0019340960891770463 -0.00016849504449181971 0 -0.00058605286166773488 8.6729822263594225e-05 0 -0.00020350170195221706 0.00014012233705197965 0 -0.00058605286166773488 8.6729822263594225e-05 0 -0.0012892360816583362 1.0430101939040683e-05 0 -0.0012892360816583362 1.0430101939040683e-05 0 -0.0011073357296904692 -2.1808871483194887e-06 0 -0.002001132612523584 -0.00017736670404190887 0 -0.0019340960891770463 -0.00016849504449181971 0 -0.0019950471810601259 -0.00024298942956974188 0 -0.0020682080687004704 -0.0002216428481449149 0 -0.002001132612523584 -0.00017736670404190887 0 -0.0019950471810601259 -0.00024298942956974188 0 -0.0039699303914394104 -0.00027360476615171834 0 -0.0040502669615389512 -0.00027985115582519039 0 -0.0040370372074964717 -0.00023786080542800194 0 -0.0031516685310797182 -0.00035825543233069271 0 -0.0024793124323175294 -3.8815826435159768e-05 0 -0.0021086910625901113 -0.00035460714600193651 0 -0.0019950471810601259 -0.00024298942956974188 0 -0.0018671308887981029 -0.00029719406667738895 0 -0.0024793124323175294 -3.8815826435159768e-05 0 -0.0032421836882367914 -0.00010567968740890992 0 -0.0040502669615389512 -0.00027985115582519039 0 -0.0040370372074964717 -0.00023786080542800194 0 -0.0040796028287431304 -0.00023839794696408034 0 -0.0010583528916722296 6.3802892999341448e-05 0 -0.0010761224581874399 8.7241125367702859e-05 0 -0.0010686389403933051 7.2373953764595127e-05 0 -0.0012892360816583362 1.0430101939040683e-05 0 -0.0024793124323175294 -3.8815826435159768e-05 0 -0.0010761224581874399 8.7241125367702859e-05 0 -0.0010686389403933051 7.2373953764595127e-05 0 -0.0010817406343234847 6.5460677397899262e-05 0 -0.0010412183205869845 5.5306932401524556e-05 0 -0.0010686389403933051 7.2373953764595127e-05 0 -0.0010817406343234847 6.5460677397899262e-05 0 0.00041867751243634092 0.0002855950030297881 0 0.00039332194625249858 0.00025843424340410073 0 0.00042168376216456492 0.00026409742362411536 0 -0.0010761224581874399 8.7241125367702859e-05 0 -0.0010817406343234847 6.5460677397899262e-05 0 -0.0011135631960877673 8.1327787438591263e-05 0 -0.00020350170195221706 0.00014012233705197965 0 -0.00082079792664107221 0.0001940897666666282 0 0.00039332194625249858 0.00025843424340410073 0 0.00042168376216456492 0.00026409742362411536 0 0.00042447498862846874 0.00024853243624986516 0 0.0004396033830801834 0.00028113604515994081 0 0.00042168376216456492 0.00026409742362411536 0 0.00043250277542066521 0.00024970764320066737 0 0.0004396033830801834 0.00028113604515994081 0 0.00046943071936927824 0.00025766067078112167 0 0.00045268771829277141 0.00022102652990007676 0 0.00057400175496683068 0.00022481072695635743 0 -0.00035428993162937172 0.00022463730777110471 0 0.00042168376216456492 0.00026409742362411536 0 0.00042447498862846874 0.00024853243624986516 0 0.00043250277542066521 0.00024970764320066737 0 -0.00082079792664107221 0.0001940897666666282 0 -0.00035428993162937172 0.00022463730777110471 0 0.00047572085793833589 0.00022516632260616127 0 0.00046943071936927824 0.00025766067078112167 0 0.00045268771829277141 0.00022102652990007676 0 -0.00024507695794254381 0.00037542278763228642 0 -0.00035428993162937172 0.00022463730777110471 0 -0.00068278850782989688 0.00049821637123640479 0 -0.0010025238093192576 0.00043962237675404184 0 -0.00094426234264990581 0.00025608180249356565 0 -0.0019067489786453102 0.00040151773718664972 0 -0.0016933564454458046 0.00028995940323922088 0 -0.0019648848413607134 -4.568031660773847e-05 0 -0.00068278850782989688 0.00049821637123640479 0 -0.00094426234264990581 0.00025608180249356565 0 -0.00092470503907956928 0.00019433447181207373 0 -0.00024507695794254381 0.00037542278763228642 0 -0.0016754229758704827 0.00033105182894991811 0 -0.00035428993162937172 0.00022463730777110471 0 -0.0013363290626792086 0.00034011401688068921 0 -0.0013363290626792086 0.00034011401688068921 0 -0.0016754229758704827 0.00033105182894991811 0 -0.00082079792664107221 0.0001940897666666282 0 -0.0013363290626792086 0.00034011401688068921 0 -0.0019067489786453102 0.00040151773718664972 0 -0.0017046821445944093 0.0003258799737152078 0 -0.0016933564454458046 0.00028995940323922088 0 -0.00076744067049821368 0.00012735235220303487 0 -0.00086104647893631907 0.00011097924504367396 0 -0.00088124422005438378 0.00017140325511646743 0 -0.0016754229758704827 0.00033105182894991811 0 -0.0022674171767499596 0.00015870044331245189 0 -0.0019067489786453102 0.00040151773718664972 0 -0.0019648848413607134 -4.568031660773847e-05 0 -0.0024117705359405633 -5.1859394245283012e-05 0 -0.0025892368021157878 0.00027597639615645594 0 -0.0019067489786453102 0.00040151773718664972 0 -0.0024117705359405633 -5.1859394245283012e-05 0 -0.0024793124323175294 -3.8815826435159768e-05 0 -0.00082079792664107221 0.0001940897666666282 0 -0.0026273216737712503 0.00030110500767100513 0 -0.0026119221458168174 0.0002046414939465717 0 -0.0027012485729822388 0.00021364659206743 0 -0.0019648848413607134 -4.568031660773847e-05 0 -0.0022364470620957807 -0.00037866227858797543 0 -0.0024117705359405633 -5.1859394245283012e-05 0 -0.0022674171767499596 0.00015870044331245189 0 -0.0032817948290335556 -9.7057787411846083e-05 0 -0.0032817948290335556 -9.7057787411846083e-05 0 -0.0032421836882367914 -0.00010567968740890992 0 -0.0025061734386190265 0.00021530811286326341 0 -0.0025536980008078023 0.00038727299417849699 0 -0.0026273216737712503 0.00030110500767100513 0 -0.0025061734386190265 0.00021530811286326341 0 -0.0026273216737712503 0.00030110500767100513 0 -0.0026119221458168174 0.0002046414939465717 0 -0.002618221884899484 0.00022548276754571394 0 -0.0016754229758704827 0.00033105182894991811 0 -0.0025061734386190265 0.00021530811286326341 0 -0.0026285204518910481 8.1926058423549474e-05 0 -0.0026119221458168174 0.0002046414939465717 0 -0.0041916364207563893 -0.00012813559560193006 0 -0.0040810167281411644 -0.00014318105654797869 0 -0.004133438124389076 -0.00021793866182072988 0 -0.0034323295657638546 7.7534999794680052e-07 0 -0.0032817948290335556 -9.7057787411846083e-05 0 -0.0026285204518910481 8.1926058423549474e-05 0 -0.0026119221458168174 0.0002046414939465717 0 -0.0027012485729822388 0.00021364659206743 0 -0.0040810167281411644 -0.00014318105654797869 0 -0.0040405595870585086 -0.00019443300324622942 0 -0.0040714369475273555 -0.00020356176713666447 0 -0.0040810167281411644 -0.00014318105654797869 0 -0.0041037392494703354 -0.00019691698312239954 0 -0.0040714369475273555 -0.00020356176713666447 0 -0.0043040661040060942 -0.00027857698299719558 0 -0.0032817948290335556 -9.7057787411846083e-05 0 -0.0040041355881263625 -0.00015508484535933057 0 -0.0040405595870585086 -0.00019443300324622942 0 -0.0040037636380833228 -0.00021723058903444018 0 -0.0040810167281411644 -0.00014318105654797869 0 -0.0040041355881263625 -0.00015508484535933057 0 -0.0040405595870585086 -0.00019443300324622942 0 -0.0040405595870585086 -0.00019443300324622942 0 -0.0040037636380833228 -0.00021723058903444018 0 -0.0040370372074964717 -0.00023786080542800194 0 -0.0039699303914394104 -0.00027360476615171834 0 -0.0040037636380833228 -0.00021723058903444018 0 -0.0040370372074964717 -0.00023786080542800194 0 -0.0040405595870585086 -0.00019443300324622942 0 -0.0040370372074964717 -0.00023786080542800194 0 -0.0040714369475273555 -0.00020356176713666447 0 -0.0040370372074964717 -0.00023786080542800194 0 -0.0040796028287431304 -0.00023839794696408034 0 -0.0040714369475273555 -0.00020356176713666447 0 -0.0041037392494703354 -0.00019691698312239954 0 -0.0040796028287431304 -0.00023839794696408034 0 -0.0040714369475273555 -0.00020356176713666447 0 -0.0012455535201153359 -2.4521510381931475e-05 0 -0.0013002561403667786 9.3817558108950785e-06 0 -0.0012038969639271528 3.1242701580608933e-05 0 -0.0012455535201153359 -2.4521510381931475e-05 0 -0.0012038969639271528 3.1242701580608933e-05 0 -0.0010452360060111921 2.7607436941005335e-05 0 -0.0012455535201153359 -2.4521510381931475e-05 0 -0.0013797635498193654 -2.7989140377426232e-05 0 -0.0013002561403667786 9.3817558108950785e-06 0 -0.0009676022038032034 -1.1353929624080773e-07 0 -0.0012455535201153359 -2.4521510381931475e-05 0 -0.0010452360060111921 2.7607436941005335e-05 0 -0.0012433538391765152 -4.539301949559658e-08 0 -0.0012455535201153359 -2.4521510381931475e-05 0 -0.0014009898533666623 -2.9407363323784573e-05 0 -0.0009676022038032034 -1.1353929624080773e-07 0 -0.0012433538391765152 -4.539301949559658e-08 0 -0.0012455535201153359 -2.4521510381931475e-05 0 -0.0012455535201153359 -2.4521510381931475e-05 0 -0.0014142986801149117 -4.7461135934953193e-05 0 -0.0014009898533666623 -2.9407363323784573e-05 0 -0.0012455535201153359 -2.4521510381931475e-05 0 -0.0013797635498193654 -2.7989140377426232e-05 0 -0.0014142986801149117 -4.7461135934953193e-05 0 -0.0013797635498193654 -2.7989140377426232e-05 0 -0.0014566446320073833 -4.8898063618885393e-05 0 -0.0014142986801149117 -4.7461135934953193e-05 0 -0.0013797635498193654 -2.7989140377426232e-05 0 -0.0014431741870074917 -2.011653051925045e-05 0 -0.0014566446320073833 -4.8898063618885393e-05 0 -0.0014431741870074917 -2.011653051925045e-05 0 -0.0014870546730614135 -4.1539180521218311e-05 0 -0.0014566446320073833 -4.8898063618885393e-05 0 -0.0014431741870074917 -2.011653051925045e-05 0 -0.0014865853062494519 -7.9942498618169988e-06 0 -0.0014870546730614135 -4.1539180521218311e-05 0 -0.0014566357453730421 3.2952314899652258e-05 0 -0.001385069174042494 4.6780012164822024e-06 0 -0.0013584826307175353 6.0509096693372005e-05 0 -0.0014431741870074917 -2.011653051925045e-05 0 -0.0014566357453730421 3.2952314899652258e-05 0 -0.001385069174042494 4.6780012164822024e-06 0 -0.0014431741870074917 -2.011653051925045e-05 0 -0.0014566357453730421 3.2952314899652258e-05 0 -0.0014865853062494519 -7.9942498618169988e-06 0 -0.0013797635498193654 -2.7989140377426232e-05 0 -0.001385069174042494 4.6780012164822024e-06 0 -0.0013002561403667786 9.3817558108950785e-06 0 -0.0013797635498193654 -2.7989140377426232e-05 0 -0.0014431741870074917 -2.011653051925045e-05 0 -0.001385069174042494 4.6780012164822024e-06 0 -0.001385069174042494 4.6780012164822024e-06 0 -0.0013002561403667786 9.3817558108950785e-06 0 -0.0013584826307175353 6.0509096693372005e-05 0 -0.0013584826307175353 6.0509096693372005e-05 0 -0.0014359309686736337 0.00011077303492186978 0 -0.0012782442469202258 0.00014782895309801403 0 -0.0013002561403667786 9.3817558108950785e-06 0 -0.0013584826307175353 6.0509096693372005e-05 0 -0.0012572745169194409 8.3515107327416908e-05 0 -0.0010653533002138069 0.00014372390290879285 0 -0.00085165770876743528 6.7533796294774374e-05 0 -0.0013584826307175353 6.0509096693372005e-05 0 -0.0012572745169194409 8.3515107327416908e-05 0 -0.0012782442469202258 0.00014782895309801403 0 -0.0014566357453730421 3.2952314899652258e-05 0 -0.0013584826307175353 6.0509096693372005e-05 0 -0.0014359309686736337 0.00011077303492186978 0 -0.00050290996462355189 2.288717862064986e-05 0 -0.00051806708544519539 2.3261386729241092e-05 0 -0.00050011512194549361 9.1209168611499082e-06 0 -0.00050410148999730994 2.4147047882925629e-05 0 -0.00050290996462355189 2.288717862064986e-05 0 -0.00051806708544519539 2.3261386729241092e-05 0 -0.00050410148999730994 2.4147047882925629e-05 0 -0.00050290996462355189 2.288717862064986e-05 0 -0.00050579094197336161 2.3744062791842996e-05 0 -0.00097741964754270326 6.8291743211481155e-05 0 -0.00085165770876743528 6.7533796294774374e-05 0 -0.00049691761727388786 4.3944784956035878e-05 0 -0.00053589150220490975 4.582762507522092e-05 0 -0.00051482625340887247 8.035331533120686e-06 0 -0.0012653156881676944 0.00016301376488485789 0 -0.0010464391296696861 0.00014515033702059977 0 -0.0011533542580986101 8.6098059295470445e-05 0 -0.00085165770876743528 6.7533796294774374e-05 0 -0.00080465153256592732 7.7795620345969481e-05 0 -0.00053589150220490975 4.582762507522092e-05 0 -0.00051482625340887247 8.035331533120686e-06 0 -0.00054247611209955573 -4.1704430611627194e-06 0 -0.0012572745169194409 8.3515107327416908e-05 0 -0.0011533542580986101 8.6098059295470445e-05 0 -0.0012038969639271528 3.1242701580608933e-05 0 -0.0012572745169194409 8.3515107327416908e-05 0 -0.0012653156881676944 0.00016301376488485789 0 -0.0011533542580986101 8.6098059295470445e-05 0 -0.0010464391296696861 0.00014515033702059977 0 -0.0011533542580986101 8.6098059295470445e-05 0 -0.0010452360060111921 2.7607436941005335e-05 0 -0.0011533542580986101 8.6098059295470445e-05 0 -0.0012038969639271528 3.1242701580608933e-05 0 -0.0010452360060111921 2.7607436941005335e-05 0 -0.0013002561403667786 9.3817558108950785e-06 0 -0.0012572745169194409 8.3515107327416908e-05 0 -0.0012038969639271528 3.1242701580608933e-05 0 -0.0009676022038032034 -1.1353929624080773e-07 0 -0.0010452360060111921 2.7607436941005335e-05 0 -0.0006921930030027554 4.6090838402859507e-07 0 -0.00053589150220490975 4.582762507522092e-05 0 -0.00069151327765659362 1.1734031666845324e-07 0 -0.00058452800385697275 -4.5763547413228686e-06 0 -0.00080465153256592732 7.7795620345969481e-05 0 -0.00069182718584296309 5.4054579184123825e-08 0 -0.0010464391296696861 0.00014515033702059977 0 -0.0010452360060111921 2.7607436941005335e-05 0 -0.0006921930030027554 4.6090838402859507e-07 0 -0.00053589150220490975 4.582762507522092e-05 0 -0.00058452800385697275 -4.5763547413228686e-06 0 -0.00054247611209955573 -4.1704430611627194e-06 0 -0.00069151327765659362 1.1734031666845324e-07 0 -0.00053463588049800425 -1.9036590884790123e-06 0 -0.00043522845871058304 -8.2164693794998277e-08 0 -0.00069151327765659362 1.1734031666845324e-07 0 -0.00058452800385697275 -4.5763547413228686e-06 0 -0.00053463588049800425 -1.9036590884790123e-06 0 -0.00053463588049800425 -1.9036590884790123e-06 0 -0.00054247611209955573 -4.1704430611627194e-06 0 -0.00051537944629578749 -1.024395527277606e-05 0 -0.00058452800385697275 -4.5763547413228686e-06 0 -0.00053463588049800425 -1.9036590884790123e-06 0 -0.00054247611209955573 -4.1704430611627194e-06 0 -0.00051482625340887247 8.035331533120686e-06 0 -0.00051537944629578749 -1.024395527277606e-05 0 -0.00048792105462208663 -7.9346554774620935e-06 0 -0.00051482625340887247 8.035331533120686e-06 0 -0.00054247611209955573 -4.1704430611627194e-06 0 -0.00051537944629578749 -1.024395527277606e-05 0 -0.00049380818313571827 -1.8188986280977549e-05 0 -0.00051537944629578749 -1.024395527277606e-05 0 -0.00050470786946415645 -1.9193611678104879e-05 0 -0.00049380818313571827 -1.8188986280977549e-05 0 -0.00051537944629578749 -1.024395527277606e-05 0 -0.00048792105462208663 -7.9346554774620935e-06 0 -0.00053463588049800425 -1.9036590884790123e-06 0 -0.00043522845871058304 -8.2164693794998277e-08 0 -0.00025722980701281534 -1.1758476598024595e-05 0 -0.00053463588049800425 -1.9036590884790123e-06 0 -0.00051537944629578749 -1.024395527277606e-05 0 -0.00050470786946415645 -1.9193611678104879e-05 0 -0.00049378282071864453 -2.6991037253684536e-05 0 -0.00042146562508100528 9.5115309714992507e-06 0 -0.00043522845871058304 -8.2164693794998277e-08 0 -0.00025722980701281534 -1.1758476598024595e-05 0 -0.00017886854948575797 6.0450149503665299e-08 0 -0.00050470786946415645 -1.9193611678104879e-05 0 -0.00048263996355294353 -2.0869980173756517e-05 0 -0.00047463922341075751 -2.3184996576443635e-05 0 -0.00025722980701281534 -1.1758476598024595e-05 0 -0.00017886854948575797 6.0450149503665299e-08 0 -0.00022039492353171365 5.4173738949232199e-05 0 -0.00049380818313571827 -1.8188986280977549e-05 0 -0.00050470786946415645 -1.9193611678104879e-05 0 -0.00048263996355294353 -2.0869980173756517e-05 0 -0.00048263996355294353 -2.0869980173756517e-05 0 -0.00047463922341075751 -2.3184996576443635e-05 0 -0.00046645627972769887 -1.9897249233242666e-05 0 -0.00045829978253062668 -1.6403560543787912e-05 0 -0.00047463922341075751 -2.3184996576443635e-05 0 -0.00046645627972769887 -1.9897249233242666e-05 0 -0.00042146562508100528 9.5115309714992507e-06 0 -0.00013511544168256942 -0.00010123549971369505 0 9.3061718627733772e-05 -2.0174965761310367e-07 0 -0.00017845085579697989 1.5787181046934897e-07 0 4.9633049057962388e-05 6.0349909623578255e-07 0 -0.00017864974037222516 5.641177918489713e-08 0 -0.00013511544168256942 -0.00010123549971369505 0 -0.00047568164380499986 -1.896578727608191e-05 0 -0.00049004028148841837 -1.5001801740603732e-05 0 -0.00048060025434174138 -1.4513206827665217e-05 0 -0.00046657628477206705 -1.6811445268483626e-05 0 -0.00047568164380499986 -1.896578727608191e-05 0 -0.00049004028148841837 -1.5001801740603732e-05 0 -0.00046657628477206705 -1.6811445268483626e-05 0 -0.00046533847221454084 -1.9231556136522474e-05 0 -0.00047503468580680999 -2.2294799500281189e-05 0 -0.00048263996355294353 -2.0869980173756517e-05 0 -0.00046645627972769887 -1.9897249233242666e-05 0 -0.00047503468580680999 -2.2294799500281189e-05 0 -0.00046533847221454084 -1.9231556136522474e-05 0 -0.00046645627972769887 -1.9897249233242666e-05 0 -0.00047503468580680999 -2.2294799500281189e-05 0 -0.000467954862923043 -1.8718042903235194e-05 0 -0.00048798390262141402 -1.3627148177059371e-05 0 -0.00044940149964120573 -1.1105492958903217e-05 0 -0.00046533847221454084 -1.9231556136522474e-05 0 -0.00046645627972769887 -1.9897249233242666e-05 0 -0.00049380818313571827 -1.8188986280977549e-05 0 -0.00048263996355294353 -2.0869980173756517e-05 0 -0.00047503468580680999 -2.2294799500281189e-05 0 -0.00049004028148841837 -1.5001801740603732e-05 0 -0.0004885760375705438 -6.0632367095214071e-06 0 -0.00048060025434174138 -1.4513206827665217e-05 0 -0.00049004028148841837 -1.5001801740603732e-05 0 -0.0004885760375705438 -6.0632367095214071e-06 0 -0.00050747418623630042 2.6632290265714735e-06 0 -0.00049380818313571827 -1.8188986280977549e-05 0 -0.00047503468580680999 -2.2294799500281189e-05 0 -0.00048792105462208663 -7.9346554774620935e-06 0 -0.00048798390262141402 -1.3627148177059371e-05 0 -0.00045313804561490081 -1.6020888795665266e-05 0 -0.00049691761727388786 4.3944784956035878e-05 0 -0.00051482625340887247 8.035331533120686e-06 0 -0.00048792105462208663 -7.9346554774620935e-06 0 -0.00051806708544519539 2.3261386729241092e-05 0 -0.00050747418623630042 2.6632290265714735e-06 0 -0.00050011512194549361 9.1209168611499082e-06 0 -0.00085165770876743528 6.7533796294774374e-05 0 -0.00045313804561490081 -1.6020888795665266e-05 0 -0.0004885760375705438 -6.0632367095214071e-06 0 -0.00050747418623630042 2.6632290265714735e-06 0 -0.00050011512194549361 9.1209168611499082e-06 0 -0.0004885760375705438 -6.0632367095214071e-06 0 -0.00050011512194549361 9.1209168611499082e-06 0 -0.00048096976926866633 1.9277404079428382e-06 0 -0.00050290996462355189 2.288717862064986e-05 0 -0.00050011512194549361 9.1209168611499082e-06 0 -0.00048096976926866633 1.9277404079428382e-06 0 -0.00050202652075306831 2.1947911446714663e-05 0 -0.00049402483618083174 1.0666929788996314e-05 0 -0.0004885760375705438 -6.0632367095214071e-06 0 -0.00048096976926866633 1.9277404079428382e-06 0 -0.00047429535410983473 -1.2564109961201337e-05 0 -0.00050675929680795014 1.9938853304917358e-05 0 -0.00049809674587612048 1.711758836726997e-05 0 -0.00050267970164958231 2.472801334977263e-05 0 -0.00050675929680795014 1.9938853304917358e-05 0 -0.00049898157337862497 5.9938105354524129e-06 0 -0.00049809674587612048 1.711758836726997e-05 0 -0.00049402483618083174 1.0666929788996314e-05 0 -0.00048655849177213999 -2.8104899063263369e-06 0 -0.0004885760375705438 -6.0632367095214071e-06 0 -0.00048060025434174138 -1.4513206827665217e-05 0 -0.00047429535410983473 -1.2564109961201337e-05 0 -0.00047429535410983473 -1.2564109961201337e-05 0 -0.00047673467623123559 -1.2210367819229757e-05 0 -0.0004767765559396314 -1.4787538315736365e-05 0 -0.00047568164380499986 -1.896578727608191e-05 0 -0.00048060025434174138 -1.4513206827665217e-05 0 -0.0004767765559396314 -1.4787538315736365e-05 0 -0.00048060025434174138 -1.4513206827665217e-05 0 -0.00047429535410983473 -1.2564109961201337e-05 0 -0.0004767765559396314 -1.4787538315736365e-05 0 -0.00047571601089281443 -1.0177738050658692e-05 0 -0.00047937904294242332 -1.0340334738743262e-06 0 -0.0004806582176220686 -9.59172819215835e-06 0 -0.00047571601089281443 -1.0177738050658692e-05 0 -0.00047937904294242332 -1.0340334738743262e-06 0 -0.00047139671743069895 -5.2991904375582412e-06 0 -0.00049898157337862497 5.9938105354524129e-06 0 -0.00047937904294242332 -1.0340334738743262e-06 0 -0.0004806582176220686 -9.59172819215835e-06 0 -0.00047429535410983473 -1.2564109961201337e-05 0 -0.00047673467623123559 -1.2210367819229757e-05 0 -0.0004806582176220686 -9.59172819215835e-06 0 -0.00048655849177213999 -2.8104899063263369e-06 0 -0.00048138099915168424 -9.0690464964517583e-06 0 -0.00049898157337862497 5.9938105354524129e-06 0 -0.00047937904294242332 -1.0340334738743262e-06 0 -0.00048693805970323326 1.2088248825278453e-05 0 -0.00047937904294242332 -1.0340334738743262e-06 0 -0.00048693805970323326 1.2088248825278453e-05 0 -0.00047431970498020953 4.3679176733332086e-06 0 -0.00048693805970323326 1.2088248825278453e-05 0 -0.00048752062244684767 2.2849344045660319e-05 0 -0.00047867030262176705 1.593201812803179e-05 0 -0.00049898157337862497 5.9938105354524129e-06 0 -0.00048693805970323326 1.2088248825278453e-05 0 -0.00049809674587612048 1.711758836726997e-05 0 -0.00049809674587612048 1.711758836726997e-05 0 -0.0004947644094906936 2.1767020108369993e-05 0 -0.00050267970164958231 2.472801334977263e-05 0 -0.00048693805970323326 1.2088248825278453e-05 0 -0.00049809674587612048 1.711758836726997e-05 0 -0.0004947644094906936 2.1767020108369993e-05 0 -0.00048693805970323326 1.2088248825278453e-05 0 -0.0004947644094906936 2.1767020108369993e-05 0 -0.00048752062244684767 2.2849344045660319e-05 0 -0.0004947644094906936 2.1767020108369993e-05 0 -0.00048752062244684767 2.2849344045660319e-05 0 -0.00049306549413275869 2.7869698770701214e-05 0 -0.00048752062244684767 2.2849344045660319e-05 0 -0.00049306549413275869 2.7869698770701214e-05 0 -0.0004871188735444935 2.7845550601962117e-05 0 -0.0010201942751417836 4.0896422740600951e-05 0 -0.0010933826878079637 6.0299795174301011e-05 0 -0.0015634778284910336 5.0280823014336864e-05 0 -0.0015765164628539509 4.2330679915899755e-05 0 -0.0015766809292398019 4.3426819996943624e-05 0 -0.00049306549413275869 2.7869698770701214e-05 0 -0.00050185895761141485 3.1763123047445748e-05 0 -0.00049306228215868677 3.5491584250652445e-05 0 -0.00049306549413275869 2.7869698770701214e-05 0 -0.00049306228215868677 3.5491584250652445e-05 0 -0.00049005871332801919 3.0468401693631493e-05 0 -0.0004947644094906936 2.1767020108369993e-05 0 -0.00049306549413275869 2.7869698770701214e-05 0 -0.00050267970164958231 2.472801334977263e-05 0 -0.00049306549413275869 2.7869698770701214e-05 0 -0.00050185895761141485 3.1763123047445748e-05 0 -0.00050267970164958231 2.472801334977263e-05 0 -0.00050267970164958231 2.472801334977263e-05 0 -0.00050579094197336161 2.3744062791842996e-05 0 -0.00050789629112608426 2.6298482066779871e-05 0 -0.00050675929680795014 1.9938853304917358e-05 0 -0.00050267970164958231 2.472801334977263e-05 0 -0.00050579094197336161 2.3744062791842996e-05 0 -0.00050290996462355189 2.288717862064986e-05 0 -0.00050675929680795014 1.9938853304917358e-05 0 -0.00050579094197336161 2.3744062791842996e-05 0 -0.00097741964754270326 6.8291743211481155e-05 0 -0.0010139282154781172 5.1535875293633235e-05 0 -0.00050410148999730994 2.4147047882925629e-05 0 -0.00050579094197336161 2.3744062791842996e-05 0 -0.00050789629112608426 2.6298482066779871e-05 0 -0.0014566357453730421 3.2952314899652258e-05 0 -0.0014359309686736337 0.00011077303492186978 0 -0.001522737863486063 7.6000871305385227e-05 0 -0.0010201942751417836 4.0896422740600951e-05 0 -0.0010139282154781172 5.1535875293633235e-05 0 -0.0015634778284910336 5.0280823014336864e-05 0 -0.001522737863486063 7.6000871305385227e-05 0 -0.001548368199936534 3.7912158934010943e-05 0 -0.00050185895761141485 3.1763123047445748e-05 0 -0.00050267970164958231 2.472801334977263e-05 0 -0.00050789629112608426 2.6298482066779871e-05 0 -0.001522737863486063 7.6000871305385227e-05 0 -0.001548368199936534 3.7912158934010943e-05 0 -0.001517109346240453 2.1707034375085363e-05 0 -0.001548368199936534 3.7912158934010943e-05 0 -0.001517109346240453 2.1707034375085363e-05 0 -0.0015504978903256475 8.6799944359387117e-06 0 -0.0014566357453730421 3.2952314899652258e-05 0 -0.001522737863486063 7.6000871305385227e-05 0 -0.001517109346240453 2.1707034375085363e-05 0 -0.0014566357453730421 3.2952314899652258e-05 0 -0.001517109346240453 2.1707034375085363e-05 0 -0.0014865853062494519 -7.9942498618169988e-06 0 -0.0014865853062494519 -7.9942498618169988e-06 0 -0.0014870546730614135 -4.1539180521218311e-05 0 -0.0015264749196811226 -2.4863022106949577e-05 0 -0.001517109346240453 2.1707034375085363e-05 0 -0.0014865853062494519 -7.9942498618169988e-06 0 -0.0015264749196811226 -2.4863022106949577e-05 0 -0.001517109346240453 2.1707034375085363e-05 0 -0.0015504978903256475 8.6799944359387117e-06 0 -0.0015264749196811226 -2.4863022106949577e-05 0 -0.0015504978903256475 8.6799944359387117e-06 0 -0.0015264749196811226 -2.4863022106949577e-05 0 -0.0015712337026477462 -3.3349025759914948e-05 0 -0.0015504978903256475 8.6799944359387117e-06 0 -0.0016069386409384519 -5.3253368601420855e-06 0 -0.0015712337026477462 -3.3349025759914948e-05 0 -0.0015504978903256475 8.6799944359387117e-06 0 -0.0016069386409384519 -5.3253368601420855e-06 0 -0.0016214006779714054 4.5380543510036052e-05 0 -0.0016069386409384519 -5.3253368601420855e-06 0 -0.0016273446360221711 -5.6046151800306312e-05 0 -0.0015712337026477462 -3.3349025759914948e-05 0 -0.0017274144424010011 0.00010023365018190375 0 -0.0019200509193501487 1.5029303597099969e-05 0 -0.0016789338700853001 -8.865039410960911e-05 0 -0.0016069386409384519 -5.3253368601420855e-06 0 -0.0016506685229931463 1.0221228224787221e-05 0 -0.0016273446360221711 -5.6046151800306312e-05 0 -0.00171901701460319 7.5002085185782701e-05 0 -0.0016242282278408134 -5.905336419223257e-05 0 -0.0016069386409384519 -5.3253368601420855e-06 0 -0.0016506685229931463 1.0221228224787221e-05 0 -0.0016214006779714054 4.5380543510036052e-05 0 -0.0017274144424010011 0.00010023365018190375 0 -0.0018307831812352418 0.00028523753183142746 0 -0.0018288180843168908 0.00015429288132239673 0 -0.0016235969400604554 4.1816521279182723e-05 0 -0.0014156730050931059 0.0001723033276814952 0 -0.0015634778284910336 5.0280823014336864e-05 0 -0.0015684626619645622 3.3567141952550347e-05 0 -0.0015765164628539509 4.2330679915899755e-05 0 -0.0016506685229931463 1.0221228224787221e-05 0 -0.0016214006779714054 4.5380543510036052e-05 0 -0.0016807495852727528 7.4351535242344471e-05 0 -0.00171901701460319 7.5002085185782701e-05 0 -0.0014156730050931059 0.0001723033276814952 0 -0.0015634778284910336 5.0280823014336864e-05 0 -0.001548368199936534 3.7912158934010943e-05 0 -0.0015684626619645622 3.3567141952550347e-05 0 -0.001548368199936534 3.7912158934010943e-05 0 -0.0015504978903256475 8.6799944359387117e-06 0 -0.0015684626619645622 3.3567141952550347e-05 0 -0.0015431724306275646 9.0873522234668926e-06 0 -0.0016235969400604554 4.1816521279182723e-05 0 -0.002009720255736099 0.00015666608154637842 0 -0.0021120595678793424 0.00023215316272949727 0 -0.0019118218545419083 0.00021692000258897464 0 -0.0017673979678677813 0.00016391646183653712 0 -0.0012542810411774645 9.3948281520512837e-05 0 -0.002009720255736099 0.00015666608154637842 0 -0.0021120595678793424 0.00023215316272949727 0 -0.0021533419738814876 0.00015562298196808896 0 -0.0021120595678793424 0.00023215316272949727 0 -0.0019118218545419083 0.00021692000258897464 0 -0.0018667487630522979 0.00030303579253963418 0 -0.0019118218545419083 0.00021692000258897464 0 -0.0018307831812352418 0.00028523753183142746 0 -0.0018288180843168908 0.00015429288132239673 0 -0.0019118218545419083 0.00021692000258897464 0 -0.0018307831812352418 0.00028523753183142746 0 -0.0018667487630522979 0.00030303579253963418 0 -0.0019118218545419083 0.00021692000258897464 0 -0.0018288180843168908 0.00015429288132239673 0 -0.0019130884447150509 0.00014396097141251729 0 -0.002009720255736099 0.00015666608154637842 0 -0.0019118218545419083 0.00021692000258897464 0 -0.0019130884447150509 0.00014396097141251729 0 -0.002009720255736099 0.00015666608154637842 0 -0.0019130884447150509 0.00014396097141251729 0 -0.0019200509193501487 1.5029303597099969e-05 0 -0.0017274144424010011 0.00010023365018190375 0 -0.0018288180843168908 0.00015429288132239673 0 -0.0019200509193501487 1.5029303597099969e-05 0 -0.0018288180843168908 0.00015429288132239673 0 -0.0019130884447150509 0.00014396097141251729 0 -0.0019200509193501487 1.5029303597099969e-05 0 -0.002009720255736099 0.00015666608154637842 0 -0.0019200509193501487 1.5029303597099969e-05 0 -0.0021533419738814876 0.00015562298196808896 0 -0.0022853077297076848 0.00017359773206428392 0 -0.0021533419738814876 0.00015562298196808896 0 -0.0021958192203155053 0.00020070468095522725 0 -0.0021033036422715853 9.9777017461665554e-05 0 -0.0021553854661503194 0.0001505050304558529 0 -0.0021369723918203986 0.00017788552988270528 0 -0.0021694825992439001 0.00016901554359239493 0 -0.0021533419738814876 0.00015562298196808896 0 -0.0021369723918203986 0.00017788552988270528 0 -0.0021533419738814876 0.00015562298196808896 0 -0.0021958192203155053 0.00020070468095522725 0 -0.0021461019487188366 0.00015326805941244436 0 -0.0016196773321284126 0.00015601096852245019 0 -0.0021029970733453525 0.00013883793911623353 0 -0.0020176954004820728 0.00012069279978744171 0 -0.0020170123402586141 0.00020540801764014246 0 -0.0021029970733453525 0.00013883793911623353 0 -0.0020948699187864285 2.7555627935551825e-05 0 -0.0020176954004820728 0.00012069279978744171 0 -0.0010145805774082455 0.00029204450314364603 0 -0.00083451458922978417 0.00021037803148648106 0 -0.00077754048077368178 0.00033371912369301179 0 -0.0020948699187864285 2.7555627935551825e-05 0 -0.0019697909903258486 4.9923346613818196e-05 0 -0.0020176954004820728 0.00012069279978744171 0 -0.0016196773321284126 0.00015601096852245019 0 -0.0011885287330309126 0.00019029426657567422 0 -0.0012768388960011678 0.00010035429350885095 0 -0.00124009733461049 0.00010768034363069928 0 -0.0012558276206561339 8.6402090927254445e-05 0 -0.0021120595678793424 0.00023215316272949727 0 -0.0021694825992439001 0.00016901554359239493 0 -0.0021533419738814876 0.00015562298196808896 0 -0.0017673979678677813 0.00016391646183653712 0 -0.0016196773321284126 0.00015601096852245019 0 -0.00124009733461049 0.00010768034363069928 0 -0.0012558276206561339 8.6402090927254445e-05 0 -0.0012340610785402132 5.7789952045837319e-05 0 -0.0012558276206561339 8.6402090927254445e-05 0 -0.0012340610785402132 5.7789952045837319e-05 0 -0.0012747437631882032 7.60413562017673e-05 0 -0.0010145805774082455 0.00029204450314364603 0 -0.00090865528275330782 0.00013443338164386399 0 -0.0010085427815141516 -1.0579329631892018e-05 0 -0.0016196773321284126 0.00015601096852245019 0 -0.00084580478086683964 6.8445199103180069e-05 0 -0.00090865528275330782 0.00013443338164386399 0 -0.0010085427815141516 -1.0579329631892018e-05 0 -0.00077575702893266959 4.4725781591427494e-05 0 -0.0010145805774082455 0.00029204450314364603 0 -0.00090865528275330782 0.00013443338164386399 0 -0.00083451458922978417 0.00021037803148648106 0 -0.00047214016933926024 0.00013266803332777358 0 -0.00047115505078172774 0.00011378328131047596 0 -0.00041260425663635367 0.00010531027020672271 0 -0.00084580478086683964 6.8445199103180069e-05 0 -0.00026824407949885314 5.2801139304006744e-05 0 -0.00047010842178810515 0.00013384748377695709 0 -0.00047115505078172774 0.00011378328131047596 0 -0.00048816459784112374 0.00010741564760545402 0 -0.00084580478086683964 6.8445199103180069e-05 0 -0.00068466775359240909 0.00011552582940185727 0 -0.00084580478086683964 6.8445199103180069e-05 0 -0.00085292162984545387 0.00011977674484521136 0 -0.00047010842178810515 0.00013384748377695709 0 -0.00051195593839213833 0.0001218683953242413 0 -0.00052963174915111205 0.00016742400360793361 0 -0.00047010842178810515 0.00013384748377695709 0 -0.00051195593839213833 0.0001218683953242413 0 -0.00048816459784112374 0.00010741564760545402 0 -0.00054228407553444857 0.00012307708438011284 0 -0.00057772489621332084 0.00013783232033978796 0 -0.0005339014246850079 8.8027865777080415e-05 0 -0.00048550049682569006 6.3108045463557364e-05 0 -0.00051604297256324823 7.0151672511019081e-05 0 -0.00051195593839213833 0.0001218683953242413 0 -0.00054228407553444857 0.00012307708438011284 0 -0.0005339014246850079 8.8027865777080415e-05 0 -0.00054228407553444857 0.00012307708438011284 0 -0.00055116379008120176 0.00014807077454197394 0 -0.00057772489621332084 0.00013783232033978796 0 -0.00051195593839213833 0.0001218683953242413 0 -0.00055116379008120176 0.00014807077454197394 0 -0.00052963174915111205 0.00016742400360793361 0 -0.00051195593839213833 0.0001218683953242413 0 -0.00054228407553444857 0.00012307708438011284 0 -0.00055116379008120176 0.00014807077454197394 0 -0.00085292162984545387 0.00011977674484521136 0 -0.0012542810411774645 9.3948281520512837e-05 0 -0.0012768388960011678 0.00010035429350885095 0 -0.0012747437631882032 7.60413562017673e-05 0 -0.0013122509370044524 9.4355498738487711e-05 0 -0.00055116379008120176 0.00014807077454197394 0 -0.00052963174915111205 0.00016742400360793361 0 -0.00061199238081000539 0.00020567762082958054 0 -0.0012768388960011678 0.00010035429350885095 0 -0.0012558276206561339 8.6402090927254445e-05 0 -0.0012747437631882032 7.60413562017673e-05 0 -0.00062104654648683115 0.00020396534738597783 0 -0.00061199238081000539 0.00020567762082958054 0 -0.00057772489621332084 0.00013783232033978796 0 -0.00055116379008120176 0.00014807077454197394 0 -0.00061199238081000539 0.00020567762082958054 0 -0.00057772489621332084 0.00013783232033978796 0 -0.0010933826878079637 6.0299795174301011e-05 0 -0.00048550049682569006 6.3108045463557364e-05 0 -0.00049306228215868677 3.5491584250652445e-05 0 -0.00049005871332801919 3.0468401693631493e-05 0 -0.00048429104427274387 2.7019724751323968e-05 0 -0.0012206304119097423 4.5336140400119551e-05 0 -0.0012189875838865716 4.2153056927400796e-05 0 -0.0012156763210792914 4.2510309655919624e-05 0 -0.0014156730050931059 0.0001723033276814952 0 -0.0012542810411774645 9.3948281520512837e-05 0 -0.0014156730050931059 0.0001723033276814952 0 -0.0010933826878079637 6.0299795174301011e-05 0 -0.0010933826878079637 6.0299795174301011e-05 0 -0.0012542810411774645 9.3948281520512837e-05 0 -0.00049005871332801919 3.0468401693631493e-05 0 -0.0004871188735444935 2.7845550601962117e-05 0 -0.00048429104427274387 2.7019724751323968e-05 0 -0.00049306549413275869 2.7869698770701214e-05 0 -0.00049005871332801919 3.0468401693631493e-05 0 -0.0004871188735444935 2.7845550601962117e-05 0 -0.00048429104427274387 2.7019724751323968e-05 0 -0.00048297383958176694 2.8676321603709238e-05 0 -0.00048758662707545518 3.6663914208224854e-05 0 -0.0004871188735444935 2.7845550601962117e-05 0 -0.00048429104427274387 2.7019724751323968e-05 0 -0.00048297383958176694 2.8676321603709238e-05 0 -0.00048752062244684767 2.2849344045660319e-05 0 -0.0004871188735444935 2.7845550601962117e-05 0 -0.00048297383958176694 2.8676321603709238e-05 0 -0.00048297383958176694 2.8676321603709238e-05 0 -0.00048758662707545518 3.6663914208224854e-05 0 -0.00047691357126580303 4.4346658441269775e-05 0 -0.00048752062244684767 2.2849344045660319e-05 0 -0.00048297383958176694 2.8676321603709238e-05 0 -0.00047867030262176705 1.593201812803179e-05 0 -0.00048201063972751299 2.7374894904394027e-05 0 -0.00047598335034181754 3.335679551810578e-05 0 -0.0005339014246850079 8.8027865777080415e-05 0 -0.00049222530142634449 5.6926989421731825e-05 0 -0.00049370088718458764 8.4413152052391545e-05 0 -0.00051604297256324823 7.0151672511019081e-05 0 -0.00049464915265067216 5.4330056433552977e-05 0 -0.00048758662707545518 3.6663914208224854e-05 0 -0.00048320591916495151 5.3888326208875426e-05 0 -0.00047691357126580303 4.4346658441269775e-05 0 -0.00048758662707545518 3.6663914208224854e-05 0 -0.00048320591916495151 5.3888326208875426e-05 0 -0.00049222530142634449 5.6926989421731825e-05 0 -0.00047598335034181754 3.335679551810578e-05 0 -0.00049971729017441987 1.8006166089346351e-05 0 -0.00048320591916495151 5.3888326208875426e-05 0 -0.00047691357126580303 4.4346658441269775e-05 0 -0.00047092044517277196 5.9997397096247305e-05 0 -0.00048693805970323326 1.2088248825278453e-05 0 -0.00047867030262176705 1.593201812803179e-05 0 -0.00047431970498020953 4.3679176733332086e-06 0 -0.00047092044517277196 5.9997397096247305e-05 0 -0.00049196394293737921 5.7571840062506457e-05 0 -0.00046368842546387179 8.4418837641021775e-05 0 -0.00048320591916495151 5.3888326208875426e-05 0 -0.00047092044517277196 5.9997397096247305e-05 0 -0.00049196394293737921 5.7571840062506457e-05 0 -0.00048320591916495151 5.3888326208875426e-05 0 -0.00049196394293737921 5.7571840062506457e-05 0 -0.00049222530142634449 5.6926989421731825e-05 0 -3.4375925594765779e-05 7.9444642287544934e-05 0 -4.7586680491250203e-05 8.6050017002534991e-05 0 0.00041553263472125638 9.3180900784262284e-05 0 0.00042427261874536967 0.00014605705468528392 0 0.00046875856319993547 0.00013914741932881728 0 -0.00047937904294242332 -1.0340334738743262e-06 0 -0.00047431970498020953 4.3679176733332086e-06 0 -0.00047139671743069895 -5.2991904375582412e-06 0 -0.00049971729017441987 1.8006166089346351e-05 0 -4.7586680491250203e-05 8.6050017002534991e-05 0 0.0014119348382924893 9.8703200801361968e-05 0 0.0014153425746494946 9.0011671918397267e-05 0 0.0013974654822090638 8.3572456061197628e-05 0 0.00086893374675072789 9.5826735188549715e-05 0 0.00093197049258905631 0.00016895702976289391 0 0.00096220277746956431 0.00013021063517954323 0 0.00086893374675072789 9.5826735188549715e-05 0 0.00041553263472125638 9.3180900784262284e-05 0 0.00042427261874536967 0.00014605705468528392 0 0.00037242935332178635 0.0001272212199320328 0 0.00041553263472125638 9.3180900784262284e-05 0 0.00037242935332178635 0.0001272212199320328 0 0.00035476203826372178 8.7046151457277878e-05 0 0.00041553263472125638 9.3180900784262284e-05 0 0.00035476203826372178 8.7046151457277878e-05 0 0.00035705926280271059 4.244906910376723e-05 0 0.00037242935332178635 0.0001272212199320328 0 0.00035476203826372178 8.7046151457277878e-05 0 0.00031638359387617154 0.00010723259129062069 0 0.00035476203826372178 8.7046151457277878e-05 0 0.00035705926280271059 4.244906910376723e-05 0 0.00029301799910405954 5.4556378572058898e-05 0 -3.4375925594765779e-05 7.9444642287544934e-05 0 -1.8618545200839157e-05 5.8788793500235232e-05 0 -0.00049196394293737921 5.7571840062506457e-05 0 -0.00047086823020331864 6.0968832980620999e-05 0 -0.00049222530142634449 5.6926989421731825e-05 0 -0.00047086823020331864 6.0968832980620999e-05 0 -0.00049222530142634449 5.6926989421731825e-05 0 -0.00049370088718458764 8.4413152052391545e-05 0 -0.00047086823020331864 6.0968832980620999e-05 0 -0.00049370088718458764 8.4413152052391545e-05 0 -0.00046979479299171808 8.9140647537728696e-05 0 -0.00049370088718458764 8.4413152052391545e-05 0 -0.00048816459784112374 0.00010741564760545402 0 -0.00046979479299171808 8.9140647537728696e-05 0 -0.00051195593839213833 0.0001218683953242413 0 -0.0005339014246850079 8.8027865777080415e-05 0 -0.00049370088718458764 8.4413152052391545e-05 0 -0.00051195593839213833 0.0001218683953242413 0 -0.00049370088718458764 8.4413152052391545e-05 0 -0.00048816459784112374 0.00010741564760545402 0 -0.00047115505078172774 0.00011378328131047596 0 -0.00046979479299171808 8.9140647537728696e-05 0 -0.00041260425663635367 0.00010531027020672271 0 -1.8618545200839157e-05 5.8788793500235232e-05 0 -0.00026824407949885314 5.2801139304006744e-05 0 -0.00047086823020331864 6.0968832980620999e-05 0 -0.00046979479299171808 8.9140647537728696e-05 0 -0.00041260425663635367 0.00010531027020672271 0 -0.00047115505078172774 0.00011378328131047596 0 -0.00048816459784112374 0.00010741564760545402 0 -0.00046979479299171808 8.9140647537728696e-05 0 0.00027249426988790681 0.00011743418172168672 0 0.00031975907215547379 0.00011799452768872131 0 0.00035705926280271059 4.244906910376723e-05 0 0.00029240884193051898 -1.082139672782861e-05 0 0.00029301799910405954 5.4556378572058898e-05 0 0.00029240884193051898 -1.082139672782861e-05 0 0.00027030789385058937 -8.4440273738964849e-08 0 0.00029301799910405954 5.4556378572058898e-05 0 -0.00026824407949885314 5.2801139304006744e-05 0 0.00027249426988790681 0.00011743418172168672 0 0.00038828250536843953 0.00022671436115570201 0 0.00040501169406422622 0.00022109178934034293 0 0.0004004618597504082 0.00023381912882472649 0 0.00027249426988790681 0.00011743418172168672 0 0.00039837012379789142 0.00017781835234920038 0 0.00041175916426316577 0.00021590406003490069 0 0.00040501169406422622 0.00022109178934034293 0 0.00041243833486960595 0.00022123009383379999 0 0.00041243833486960595 0.00022123009383379999 0 0.00041535841928765847 0.00022668633826295782 0 0.00041074315368676837 0.00022049381513219234 0 0.00041243833486960595 0.00022123009383379999 0 0.00042057572708389311 0.00022189924094821866 0 0.00041535841928765847 0.00022668633826295782 0 0.00041175916426316577 0.00021590406003490069 0 0.00041243833486960595 0.00022123009383379999 0 0.00042057572708389311 0.00022189924094821866 0 0.00040501169406422622 0.00022109178934034293 0 0.00041243833486960595 0.00022123009383379999 0 0.00041074315368676837 0.00022049381513219234 0 0.00035476203826372178 8.7046151457277878e-05 0 0.00029301799910405954 5.4556378572058898e-05 0 0.00031638359387617154 0.00010723259129062069 0 0.00031975907215547379 0.00011799452768872131 0 0.00093197049258905631 0.00016895702976289391 0 0.00042057572708389311 0.00022189924094821866 0 0.00043175726374804414 0.00023366699861393386 0 0.00041535841928765847 0.00022668633826295782 0 0.00093197049258905631 0.00016895702976289391 0 0.00099734557363874887 0.00024281072064027482 0 0.001520550542513488 0.00024413414554370737 0 0.0015533539823797777 0.00024089462327555811 0 0.0015415545028275761 0.00023900429449823284 0 0.0015423034769969405 0.00025041669401558404 0 0.0015512451848555887 0.00024065345589891957 0 0.0015651610012489192 0.00024045457713399001 0 0.0015533539823797777 0.00024089462327555811 0 0.0015423034769969405 0.00025041669401558404 0 0.0015472529450400584 0.00024335708482400232 0 0.0015472529450400584 0.00024335708482400232 0 0.0015512451848555887 0.00024065345589891957 0 0.0015478531805558529 0.00023530916088526155 0 0.0015423034769969405 0.00025041669401558404 0 0.0015472529450400584 0.00024335708482400232 0 0.0015512451848555887 0.00024065345589891957 0 0.0015533539823797777 0.00024089462327555811 0 0.0015472529450400584 0.00024335708482400232 0 0.0015415545028275761 0.00023900429449823284 0 0.0015472529450400584 0.00024335708482400232 0 0.0015415545028275761 0.00023900429449823284 0 0.0015478531805558529 0.00023530916088526155 0 0.0015415545028275761 0.00023900429449823284 0 0.0015478531805558529 0.00023530916088526155 0 0.0015387325816217973 0.00022977735707386895 0 0.0015478531805558529 0.00023530916088526155 0 0.0015513821469980253 0.00022621666574631312 0 0.0015387325816217973 0.00022977735707386895 0 0.0015512451848555887 0.00024065345589891957 0 0.0015478531805558529 0.00023530916088526155 0 0.0015562303210872029 0.00023251321319628604 0 0.0015478531805558529 0.00023530916088526155 0 0.0015562303210872029 0.00023251321319628604 0 0.0015513821469980253 0.00022621666574631312 0 0.0015562303210872029 0.00023251321319628604 0 0.0015513821469980253 0.00022621666574631312 0 0.0015583420554866687 0.00022266653442233264 0 0.001555638373728732 0.00022163295074567911 0 0.0015513821469980253 0.00022621666574631312 0 0.0015583420554866687 0.00022266653442233264 0 0.0015524604344823083 0.00022061828448795591 0 0.0015513821469980253 0.00022621666574631312 0 0.0015387325816217973 0.00022977735707386895 0 0.0015177243577061427 0.00019357733422764703 0 0.0015431370859967377 0.00023455309746012713 0 0.0015231158949824293 0.00015978415558088688 0 0.00093197049258905631 0.00016895702976289391 0 0.0014958097810935718 0.00019299786204460189 0 0.001520550542513488 0.00024413414554370737 0 0.0015387325816217973 0.00022977735707386895 0 0.001520550542513488 0.00024413414554370737 0 0.0015415545028275761 0.00023900429449823284 0 0.0015387325816217973 0.00022977735707386895 0 0.0015509855532239087 0.00021156069235814422 0 0.0014908447465663455 0.00028770530241437287 0 0.0016394847748032783 0.00020150778474644745 0 0.0016139993113845326 0.00022359409252967739 0 0.0015863069252057707 0.00022559372663431951 0 0.0016382426191677215 0.00022224691438060243 0 0.001594911416599207 0.00024402866308249438 0 0.0016139993113845326 0.00022359409252967739 0 0.0013079272780377165 0.00036882508731782217 0 0.0014223216089034149 0.0003101148572928726 0 0.0013513451714553238 0.00029873439789925965 0 0.0018581794939265652 0.00019191485631484491 0 0.0015122987232301769 0.00024007674148109913 0 0.001594911416599207 0.00024402866308249438 0 0.0016139993113845326 0.00022359409252967739 0 0.0015863069252057707 0.00022559372663431951 0 0.0016394847748032783 0.00020150778474644745 0 0.0016382426191677215 0.00022224691438060243 0 0.0016139993113845326 0.00022359409252967739 0 0.0015863069252057707 0.00022559372663431951 0 0.0015583420554866687 0.00022266653442233264 0 0.001568544554756851 0.00023259391211569839 0 0.0015562303210872029 0.00023251321319628604 0 0.0015583420554866687 0.00022266653442233264 0 0.001568544554756851 0.00023259391211569839 0 0.0015562303210872029 0.00023251321319628604 0 0.001568544554756851 0.00023259391211569839 0 0.0015651610012489192 0.00024045457713399001 0 0.001568544554756851 0.00023259391211569839 0 0.0015651610012489192 0.00024045457713399001 0 0.0015785379783190268 0.00023597617485954423 0 0.0015512451848555887 0.00024065345589891957 0 0.0015562303210872029 0.00023251321319628604 0 0.0015651610012489192 0.00024045457713399001 0 0.001594911416599207 0.00024402866308249438 0 0.0015863069252057707 0.00022559372663431951 0 0.0015785379783190268 0.00023597617485954423 0 0.001594911416599207 0.00024402866308249438 0 0.0015651610012489192 0.00024045457713399001 0 0.0015785379783190268 0.00023597617485954423 0 0.0015863069252057707 0.00022559372663431951 0 0.001568544554756851 0.00023259391211569839 0 0.0015785379783190268 0.00023597617485954423 0 0.00099734557363874887 0.00024281072064027482 0 0.00089153312912997171 0.0001875313338451106 0 0.0015533539823797777 0.00024089462327555811 0 0.001464759368495105 0.00024288927844222044 0 0.0014220741579126415 0.00017583380241303778 0 0.0015423034769969405 0.00025041669401558404 0 0.0014223216089034149 0.0003101148572928726 0 0.001464759368495105 0.00024288927844222044 0 0.0015488413241063459 0.00024902569931782196 0 0.0014908447465663455 0.00028770530241437287 0 0.0015423034769969405 0.00025041669401558404 0 0.001594911416599207 0.00024402866308249438 0 0.0015651610012489192 0.00024045457713399001 0 0.0015533539823797777 0.00024089462327555811 0 0.0015423034769969405 0.00025041669401558404 0 0.001464759368495105 0.00024288927844222044 0 0.001464759368495105 0.00024288927844222044 0 0.0013735884767821429 0.0002456935277010446 0 0.0014220741579126415 0.00017583380241303778 0 0.0014223216089034149 0.0003101148572928726 0 0.0013513451714553238 0.00029873439789925965 0 0.0013735884767821429 0.0002456935277010446 0 0.0014223216089034149 0.0003101148572928726 0 0.001464759368495105 0.00024288927844222044 0 0.0013735884767821429 0.0002456935277010446 0 0.0012973808816821397 0.00027230202726242413 0 0.0013513451714553238 0.00029873439789925965 0 0.0013735884767821429 0.0002456935277010446 0 0.00043140290216214008 0.00021010683616388867 0 0.00041430426338449325 0.00021678518300126528 0 0.00042034645288458356 0.00021852593998529361 0 0.0012856015517989921 0.00017266056850338756 0 0.0013735884767821429 0.0002456935277010446 0 0.0014220741579126415 0.00017583380241303778 0 0.00098959811611613294 0.0001918324326999207 0 0.00089153312912997171 0.0001875313338451106 0 0.0012881665023603787 0.00012096200041924684 0 0.0012856015517989921 0.00017266056850338756 0 0.0014220741579126415 0.00017583380241303778 0 0.00041430426338449325 0.00021678518300126528 0 0.00041102203939931235 0.00022196344452850145 0 0.00042034645288458356 0.00021852593998529361 0 0.00041535841928765847 0.00022668633826295782 0 0.00041430426338449325 0.00021678518300126528 0 0.00041074315368676837 0.00022049381513219234 0 0.00041430426338449325 0.00021678518300126528 0 0.00041074315368676837 0.00022049381513219234 0 0.00041102203939931235 0.00022196344452850145 0 0.00040501169406422622 0.00022109178934034293 0 0.00041074315368676837 0.00022049381513219234 0 0.00041102203939931235 0.00022196344452850145 0 0.00041102203939931235 0.00022196344452850145 0 0.00040743504913195804 0.00023279253739769969 0 0.00041373489328606683 0.00022824695462542383 0 0.00040501169406422622 0.00022109178934034293 0 0.00041102203939931235 0.00022196344452850145 0 0.00040743504913195804 0.00023279253739769969 0 0.00040501169406422622 0.00022109178934034293 0 0.00040743504913195804 0.00023279253739769969 0 0.0004004618597504082 0.00023381912882472649 0 0.00042539047739301433 0.0002196347108589064 0 0.00043102487014743562 0.00021048375714591736 0 0.00042034645288458356 0.00021852593998529361 0 0.00042034645288458356 0.00021852593998529361 0 0.00041373489328606683 0.00022824695462542383 0 0.00042031267858079843 0.00022638171906871036 0 0.00042539047739301433 0.0002196347108589064 0 0.00042034645288458356 0.00021852593998529361 0 0.00042031267858079843 0.00022638171906871036 0 0.00041102203939931235 0.00022196344452850145 0 0.00042034645288458356 0.00021852593998529361 0 0.00041373489328606683 0.00022824695462542383 0 0.00041373489328606683 0.00022824695462542383 0 0.00041730833789752682 0.00023765720898164458 0 0.00041159240405309536 0.00023817009421308764 0 0.00040743504913195804 0.00023279253739769969 0 0.00041373489328606683 0.00022824695462542383 0 0.00041159240405309536 0.00023817009421308764 0 0.00042659887854103103 0.00023877741977468988 0 0.00042031267858079843 0.00022638171906871036 0 0.00041730833789752682 0.00023765720898164458 0 0.00041373489328606683 0.00022824695462542383 0 0.00042031267858079843 0.00022638171906871036 0 0.00041730833789752682 0.00023765720898164458 0 0.00041730833789752682 0.00023765720898164458 0 0.00041159240405309536 0.00023817009421308764 0 0.00041271651951316397 0.0002509977121995156 0 0.00042659887854103103 0.00023877741977468988 0 0.00041730833789752682 0.00023765720898164458 0 0.00041271651951316397 0.0002509977121995156 0 0.00041159240405309536 0.00023817009421308764 0 0.00041271651951316397 0.0002509977121995156 0 0.0004078605608739616 0.00024442452371415091 0 0.00041271651951316397 0.0002509977121995156 0 0.00040705962871000613 0.00025343440479107872 0 0.0004078605608739616 0.00024442452371415091 0 0.00040705962871000613 0.00025343440479107872 0 0.00040821275558419046 0.00026003236040658955 0 0.00039907192773730102 0.00025263753981791736 0 0.00040705962871000613 0.00025343440479107872 0 0.0004040719079204936 0.00025340437259011158 0 0.00039907192773730102 0.00025263753981791736 0 0.00041271651951316397 0.0002509977121995156 0 0.00040705962871000613 0.00025343440479107872 0 0.00040821275558419046 0.00026003236040658955 0 0.00035802321754993451 0.00020648204868299472 0 0.00032748122134598106 0.00022676482542220318 0 0.00036311684170796849 0.00024481918782843452 0 0.00042699999687753501 0.00026506108372722744 0 0.00038186761186790805 0.00023593531534581684 0 0.00040705962871000613 0.00025343440479107872 0 0.0004040719079204936 0.00025340437259011158 0 0.00040383528091265036 0.00024373594463967168 0 0.00042699999687753501 0.00026506108372722744 0 2.7461282596772223e-05 0.00010697957899710268 0 0.0004040719079204936 0.00025340437259011158 0 0.00040383528091265036 0.00024373594463967168 0 0.00039286548853768448 0.00024313902091234815 0 0.00040705962871000613 0.00025343440479107872 0 0.00040383528091265036 0.00024373594463967168 0 0.0004078605608739616 0.00024442452371415091 0 0.00040743504913195804 0.00023279253739769969 0 0.00040383528091265036 0.00024373594463967168 0 0.0004078605608739616 0.00024442452371415091 0 0.00040743504913195804 0.00023279253739769969 0 0.00041159240405309536 0.00023817009421308764 0 0.0004078605608739616 0.00024442452371415091 0 0.00040743504913195804 0.00023279253739769969 0 0.00040383528091265036 0.00024373594463967168 0 0.0004004618597504082 0.00023381912882472649 0 -3.7365521529020295e-06 8.7692063302124285e-05 0 2.6096631761198343e-05 7.4340093096807725e-05 0 4.4045776625819551e-05 0.00012846841719849221 0 0.00027249426988790681 0.00011743418172168672 0 2.7461282596772223e-05 0.00010697957899710268 0 0.00038828250536843953 0.00022671436115570201 0 0.0004004618597504082 0.00023381912882472649 0 0.00039286548853768448 0.00024313902091234815 0 0.00040383528091265036 0.00024373594463967168 0 0.0004004618597504082 0.00023381912882472649 0 0.00039286548853768448 0.00024313902091234815 0 -0.00026824407949885314 5.2801139304006744e-05 0 2.7461282596772223e-05 0.00010697957899710268 0 -0.00074974679592461888 -0.00012832039552124978 0 -0.00060333295440885939 -6.0976560937811354e-07 0 -0.00077575702893266959 4.4725781591427494e-05 0 -0.0010085427815141516 -1.0579329631892018e-05 0 -0.00074974679592461888 -0.00012832039552124978 0 -0.00077575702893266959 4.4725781591427494e-05 0 -0.00077575702893266959 4.4725781591427494e-05 0 -0.00083451458922978417 0.00021037803148648106 0 -0.00068061507529263386 0.00021417990880079734 0 -0.00090865528275330782 0.00013443338164386399 0 -0.00077575702893266959 4.4725781591427494e-05 0 -0.00083451458922978417 0.00021037803148648106 0 0.00035802321754993451 0.00020648204868299472 0 0.00029874530439131532 0.00015620195323546896 0 0.00032748122134598106 0.00022676482542220318 0 2.7461282596772223e-05 0.00010697957899710268 0 -9.655784574253711e-05 0.00021159132137238176 0 -0.00060333295440885939 -6.0976560937811354e-07 0 -0.00068061507529263386 0.00021417990880079734 0 -0.00053954241421961071 0.0001960149023637012 0 -0.00060333295440885939 -6.0976560937811354e-07 0 -0.00077575702893266959 4.4725781591427494e-05 0 -0.00068061507529263386 0.00021417990880079734 0 -0.00068061507529263386 0.00021417990880079734 0 -0.00077168296450924026 0.00034073095366597835 0 -0.00047431608617588551 0.00039446450540173606 0 -0.00068061507529263386 0.00021417990880079734 0 -0.00053954241421961071 0.0001960149023637012 0 -0.00047431608617588551 0.00039446450540173606 0 -0.0011885287330309126 0.00019029426657567422 0 -0.00048702149035916915 0.00036074920780247331 0 -0.00084670834112155944 0.0003248361717386429 0 -0.0011885287330309126 0.00019029426657567422 0 -0.00083451458922978417 0.00021037803148648106 0 -0.00068061507529263386 0.00021417990880079734 0 -0.00077168296450924026 0.00034073095366597835 0 -0.0011885287330309126 0.00019029426657567422 0 -0.0015076638115561571 0.00019987225776143999 0 -0.0019697909903258486 4.9923346613818196e-05 0 -0.0020176954004820728 0.00012069279978744171 0 -0.0019220424410624976 0.00015014013314528247 0 -0.0020176954004820728 0.00012069279978744171 0 -0.0019220424410624976 0.00015014013314528247 0 -0.0020170123402586141 0.00020540801764014246 0 -0.0010614585710783996 0.00025286475763148836 0 -0.0010049835683696856 0.00029662962898767615 0 -0.00098124853936773938 0.00026873796194657715 0 -0.0010614585710783996 0.00025286475763148836 0 -0.001034884774983321 0.00030518482370477362 0 -0.0010049835683696856 0.00029662962898767615 0 -0.00097608995967051089 0.0002822848361283766 0 -0.00097176695233732499 0.00030720664123267804 0 -0.00092844788416316867 0.00029179966360522516 0 -0.0010049835683696856 0.00029662962898767615 0 -0.00098124853936773938 0.00026873796194657715 0 -0.00097176695233732499 0.00030720664123267804 0 -0.00048702149035916915 0.00036074920780247331 0 -0.00092363317862506741 0.00022284527600064747 0 -0.00048702149035916915 0.00036074920780247331 0 -0.00023186401229571344 0.00027025553580363367 0 -0.00097176695233732499 0.00030720664123267804 0 -0.00092844788416316867 0.00029179966360522516 0 -0.00093821178882334821 0.00032776528140827948 0 0.00035506355928933232 0.00027330865266729694 0 0.00040095578993627046 0.00025899988624518801 0 0.00039907192773730102 0.00025263753981791736 0 0.00040308779044415517 0.00025728663220216211 0 0.00040095578993627046 0.00025899988624518801 0 0.00039907192773730102 0.00025263753981791736 0 0.00040308779044415517 0.00025728663220216211 0 0.00040821275558419046 0.00026003236040658955 0 0.00039907192773730102 0.00025263753981791736 0 0.00035506355928933232 0.00027330865266729694 0 0.00039907192773730102 0.00025263753981791736 0 0.00036311684170796849 0.00024481918782843452 0 0.00035802321754993451 0.00020648204868299472 0 0.00039907192773730102 0.00025263753981791736 0 0.00036311684170796849 0.00024481918782843452 0 -9.655784574253711e-05 0.00021159132137238176 0 -0.00048702149035916915 0.00036074920780247331 0 0.00032748122134598106 0.00022676482542220318 0 0.00035506355928933232 0.00027330865266729694 0 0.00036311684170796849 0.00024481918782843452 0 -0.00095729368409266631 0.00037663995383236228 0 -0.00096764326728902752 0.00034627327805707901 0 -0.00099104846501237151 0.00038836781971143776 0 -0.00096764326728902752 0.00034627327805707901 0 -0.001010041687233831 0.00035009360645590231 0 -0.00099104846501237151 0.00038836781971143776 0 -0.0014181365055373491 0.00031980458861891959 0 -0.0016273258866264591 0.00039964981044021735 0 -0.00093107101850571302 0.00035419875499873737 0 -0.00095729368409266631 0.00037663995383236228 0 -0.00096764326728902752 0.00034627327805707901 0 -0.00097176695233732499 0.00030720664123267804 0 -0.00093821178882334821 0.00032776528140827948 0 -0.00096764326728902752 0.00034627327805707901 0 -0.00093107101850571302 0.00035419875499873737 0 -0.00093821178882334821 0.00032776528140827948 0 -0.00096764326728902752 0.00034627327805707901 0 -0.00097176695233732499 0.00030720664123267804 0 -0.00096764326728902752 0.00034627327805707901 0 -0.001010041687233831 0.00035009360645590231 0 -0.0010049835683696856 0.00029662962898767615 0 -0.00097176695233732499 0.00030720664123267804 0 -0.001010041687233831 0.00035009360645590231 0 -0.0019220424410624976 0.00015014013314528247 0 -0.0019498796088347166 0.00028852381224636766 0 -0.0018669090354142355 0.00025725043886463001 0 -0.001034884774983321 0.00030518482370477362 0 -0.0010049835683696856 0.00029662962898767615 0 -0.001010041687233831 0.00035009360645590231 0 -0.0015076638115561571 0.00019987225776143999 0 -0.0014181365055373491 0.00031980458861891959 0 -0.0019220424410624976 0.00015014013314528247 0 -0.0020170123402586141 0.00020540801764014246 0 -0.0019498796088347166 0.00028852381224636766 0 -0.0020170123402586141 0.00020540801764014246 0 -0.002026492784555117 0.00028142278357206919 0 -0.0019498796088347166 0.00028852381224636766 0 -0.002026492784555117 0.00028142278357206919 0 -0.0019498796088347166 0.00028852381224636766 0 -0.0019663923467467615 0.00036562777980433866 0 -0.002026492784555117 0.00028142278357206919 0 -0.0019663923467467615 0.00036562777980433866 0 -0.0020514788053483282 0.00035446188103038854 0 -0.0019498796088347166 0.00028852381224636766 0 -0.0019663923467467615 0.00036562777980433866 0 -0.0018382304754302416 0.0003601341688107074 0 -0.0020158934391065805 0.00026771715134779757 0 -0.0016273258866264591 0.00039964981044021735 0 -0.0019498796088347166 0.00028852381224636766 0 -0.0018669090354142355 0.00025725043886463001 0 -0.0018049846590821705 0.00037882499338926602 0 -0.0019663923467467615 0.00036562777980433866 0 -0.001908200384811904 0.00042354692522797557 0 -0.0018382304754302416 0.0003601341688107074 0 -0.001908200384811904 0.00042354692522797557 0 -0.0018505106184761888 0.00043906329425510982 0 -0.0018382304754302416 0.0003601341688107074 0 -0.0019663923467467615 0.00036562777980433866 0 -0.0020037597686506513 0.00045978324170665725 0 -0.0020514788053483282 0.00035446188103038854 0 -0.0019663923467467615 0.00036562777980433866 0 -0.0020037597686506513 0.00045978324170665725 0 -0.001908200384811904 0.00042354692522797557 0 -0.0022948200560077661 0.00038928279259154222 0 -0.0023020484215089195 0.00039986748999149544 0 -0.0022969805531640772 0.00039552784212427299 0 -0.0021554643879908228 0.00042206534752970001 0 -0.0020607053464950864 0.00046145895523181909 0 -0.0020037597686506513 0.00045978324170665725 0 -0.001908200384811904 0.00042354692522797557 0 -0.001866539870749355 0.00050339240547210605 0 -0.001908200384811904 0.00042354692522797557 0 -0.001866539870749355 0.00050339240547210605 0 -0.0018505106184761888 0.00043906329425510982 0 -0.001866539870749355 0.00050339240547210605 0 -0.0017894171396269016 0.00046812975771925633 0 -0.0018505106184761888 0.00043906329425510982 0 -0.001866539870749355 0.00050339240547210605 0 -0.0017894171396269016 0.00046812975771925633 0 -0.0017619460669656211 0.00050950882027291436 0 -0.0018369773396416265 0.00043263026694766995 0 -0.0016273258866264591 0.00039964981044021735 0 -0.0016273258866264591 0.00039964981044021735 0 -0.0012458851207701981 0.00045740424977772624 0 -0.0017894171396269016 0.00046812975771925633 0 -0.0018505106184761888 0.00043906329425510982 0 -0.0018382304754302416 0.0003601341688107074 0 -0.0017894171396269016 0.00046812975771925633 0 -0.001826077667609657 0.00038331749449514063 0 -0.0017361869870060264 0.00043694874003909537 0 -0.00095729368409266631 0.00037663995383236228 0 -0.00099104846501237151 0.00038836781971143776 0 -0.00094496681515311319 0.00041442107557898583 0 -0.00090094000028967793 0.00038865671149159435 0 -0.00095729368409266631 0.00037663995383236228 0 -0.00094496681515311319 0.00041442107557898583 0 -0.0017894171396269016 0.00046812975771925633 0 -0.0017361869870060264 0.00043694874003909537 0 -0.0017312776597635622 0.00047762174591880081 0 -0.0017894171396269016 0.00046812975771925633 0 -0.0017312776597635622 0.00047762174591880081 0 -0.0017619460669656211 0.00050950882027291436 0 -0.0017312776597635622 0.00047762174591880081 0 -0.0017223881957235815 0.00051035800184590107 0 -0.0017619460669656211 0.00050950882027291436 0 -0.0017223881957235815 0.00051035800184590107 0 -0.0017619460669656211 0.00050950882027291436 0 -0.0017448551845929646 0.00054148235391855292 0 -0.0018997440572658915 0.00039770383913813979 0 -0.0021514891690529929 0.00041313491360408253 0 -0.0023401504149649648 0.00039192027679493363 0 -0.0023197930827798911 0.00038924156598671488 0 -0.0023315668457832644 0.00037773520526640503 0 -0.0021514891690529929 0.00041313491360408253 0 -0.002972037810895254 0.00034489660030825403 0 -0.001866539870749355 0.00050339240547210605 0 -0.0017619460669656211 0.00050950882027291436 0 -0.0017448551845929646 0.00054148235391855292 0 -0.0023020484215089195 0.00039986748999149544 0 -0.0023401504149649648 0.00039192027679493363 0 -0.0023197930827798911 0.00038924156598671488 0 -0.0020607053464950864 0.00046145895523181909 0 -0.0021514891690529929 0.00041313491360408253 0 -0.0023020484215089195 0.00039986748999149544 0 -0.0023197930827798911 0.00038924156598671488 0 -0.0023118039019611918 0.00038570038738805029 0 -0.0025127610368983135 0.0003980959007499152 0 -0.002972037810895254 0.00034489660030825403 0 -0.0023197930827798911 0.00038924156598671488 0 -0.0023138680129820319 0.00038509100611340856 0 -0.0023315668457832644 0.00037773520526640503 0 -0.002390399687041681 0.0003546626873731167 0 -0.0025127610368983135 0.0003980959007499152 0 -0.0036160478425941605 0.000265713321984918 0 -0.0036257077207320024 0.00023145177165707876 0 -0.0035945415667224404 0.00022824352857853163 0 -0.002972037810895254 0.00034489660030825403 0 -0.0033190797941776481 0.00025205158917802575 0 -0.0029590760291182279 0.0003135030997536993 0 -0.002984201978389711 0.0003032398221034551 0 -0.0029580311501485727 0.00026356319740898203 0 -0.0028693365809875533 0.0002404552754206831 0 -0.0027089473353859822 0.00040441240256571995 0 -0.002654456016271988 0.00033001646162601094 0 -0.0036688518201568117 0.00024625198341309549 0 -0.0036160478425941605 0.000265713321984918 0 -0.0036257077207320024 0.00023145177165707876 0 -0.0033029450901399561 0.00023171762730658107 0 -0.002972037810895254 0.00034489660030825403 0 -0.0036688518201568117 0.00024625198341309549 0 -0.0036257077207320024 0.00023145177165707876 0 -0.0036446270331233644 0.00020246581974293549 0 -0.0036257077207320024 0.00023145177165707876 0 -0.0035945415667224404 0.00022824352857853163 0 -0.0036124468750071848 0.00019238905377017446 0 -0.0035945415667224404 0.00022824352857853163 0 -0.0036124468750071848 0.00019238905377017446 0 -0.003572801375829424 0.00019175874412182139 0 -0.0036124468750071848 0.00019238905377017446 0 -0.0036446270331233644 0.00020246581974293549 0 -0.0036444051900806295 0.00015778028105956917 0 -0.0036257077207320024 0.00023145177165707876 0 -0.0036124468750071848 0.00019238905377017446 0 -0.0036446270331233644 0.00020246581974293549 0 -0.0029305717212270255 0.00022091328111655925 0 -0.0029028794922714833 0.00024642033481989215 0 -0.0028832586797938558 0.00021542973487690434 0 -0.0033190797941776481 0.00025205158917802575 0 -0.0032400581025990045 0.00021535647152042 0 -0.0029580311501485727 0.00026356319740898203 0 -0.0029305717212270255 0.00022091328111655925 0 -0.0029028794922714833 0.00024642033481989215 0 -0.0029580311501485727 0.00026356319740898203 0 -0.0029028794922714833 0.00024642033481989215 0 -0.0029144260051560942 0.00028453800765223906 0 -0.0029028794922714833 0.00024642033481989215 0 -0.0029144260051560942 0.00028453800765223906 0 -0.0028661049385775485 0.00025425054674104895 0 -0.0022985136696816364 0.00040343515648391589 0 -0.0023029002225531192 0.00040612786947004798 0 -0.0023068456000738791 0.00041165528371576787 0 -0.002617788565361183 0.00034699292464930115 0 -0.0026421993114926537 0.00028742179384124496 0 -0.0022985136696816364 0.00040343515648391589 0 -0.0022992375025598722 0.00039685655429208137 0 -0.0023029002225531192 0.00040612786947004798 0 -0.0025127610368983135 0.0003980959007499152 0 -0.002617788565361183 0.00034699292464930115 0 -0.0029590760291182279 0.0003135030997536993 0 -0.0029580311501485727 0.00026356319740898203 0 -0.0029144260051560942 0.00028453800765223906 0 -0.0023020484215089195 0.00039986748999149544 0 -0.0023118039019611918 0.00038570038738805029 0 -0.0022969805531640772 0.00039552784212427299 0 -0.0025127610368983135 0.0003980959007499152 0 -0.0022380880815270521 0.00041866960172270089 0 -0.0022955665471403163 0.00039743024225320328 0 -0.0022985136696816364 0.00040343515648391589 0 -0.0022969805531640772 0.00039552784212427299 0 -0.0022985136696816364 0.00040343515648391589 0 -0.0022969805531640772 0.00039552784212427299 0 -0.0022992375025598722 0.00039685655429208137 0 -0.0022948200560077661 0.00038928279259154222 0 -0.0022969805531640772 0.00039552784212427299 0 -0.0022992375025598722 0.00039685655429208137 0 -0.0022992375025598722 0.00039685655429208137 0 -0.0023085138991252329 0.00039055519740209587 0 -0.0023069611108369643 0.00040987837582682026 0 -0.0022992375025598722 0.00039685655429208137 0 -0.0023085138991252329 0.00039055519740209587 0 -0.0023011223726352864 0.00038768433911434252 0 -0.0023085138991252329 0.00039055519740209587 0 -0.0023195235413872683 0.00040644422301231548 0 -0.0023311696474194233 0.00039364459591111246 0 -0.0023085138991252329 0.00039055519740209587 0 -0.0023195235413872683 0.00040644422301231548 0 -0.0023069611108369643 0.00040987837582682026 0 -0.0023195235413872683 0.00040644422301231548 0 -0.002318346237246866 0.00042651313277910331 0 -0.0023336912601130315 0.00042374699717868535 0 -0.0023195235413872683 0.00040644422301231548 0 -0.0023069611108369643 0.00040987837582682026 0 -0.002318346237246866 0.00042651313277910331 0 -0.0022992375025598722 0.00039685655429208137 0 -0.0023069611108369643 0.00040987837582682026 0 -0.0023029002225531192 0.00040612786947004798 0 -0.0023010019539344969 0.00048779669043136711 0 -0.0026421993114926537 0.00028742179384124496 0 -0.0023069611108369643 0.00040987837582682026 0 -0.0023029002225531192 0.00040612786947004798 0 -0.0023068456000738791 0.00041165528371576787 0 -0.0023069611108369643 0.00040987837582682026 0 -0.0022995703899101085 0.00043177671169407697 0 -0.002318346237246866 0.00042651313277910331 0 -0.0022995703899101085 0.00043177671169407697 0 -0.002318346237246866 0.00042651313277910331 0 -0.002329982536884101 0.00045279244553952166 0 -0.002318346237246866 0.00042651313277910331 0 -0.002329982536884101 0.00045279244553952166 0 -0.0023336912601130315 0.00042374699717868535 0 -0.0030195177005108488 0.00010312353644607549 0 -0.0029580153705995788 6.038288591647512e-05 0 -0.0029993006792665856 4.780877429179452e-05 0 -0.0026421993114926537 0.00028742179384124496 0 -0.0026342525750897537 0.00026741500471956064 0 -0.0029580153705995788 6.038288591647512e-05 0 -0.0029993006792665856 4.780877429179452e-05 0 -0.0029613639992992612 1.5612321806641053e-05 0 -0.0030195177005108488 0.00010312353644607549 0 -0.0029993006792665856 4.780877429179452e-05 0 -0.0030428821408277728 4.9660078872252122e-05 0 -0.0026421993114926537 0.00028742179384124496 0 -0.0029669426853757464 0.00011947468125092828 0 -0.0029028794922714833 0.00024642033481989215 0 -0.0028661049385775485 0.00025425054674104895 0 -0.0028832586797938558 0.00021542973487690434 0 -0.0023692395413348554 0.00044796813890774059 0 -0.0023658938194174224 0.00045940174027746261 0 -0.0023517921098707402 0.00045327255927042555 0 -0.0023692395413348554 0.00044796813890774059 0 -0.0023517921098707402 0.00045327255927042555 0 -0.0023514890509955932 0.00043721067724913952 0 -0.0023692395413348554 0.00044796813890774059 0 -0.0023778469396616027 0.00046064090799527988 0 -0.0023658938194174224 0.00045940174027746261 0 -0.0023778469396616027 0.00046064090799527988 0 -0.0023658938194174224 0.00045940174027746261 0 -0.0023627920170297368 0.00047260511409706591 0 -0.0023658938194174224 0.00045940174027746261 0 -0.0023517921098707402 0.00045327255927042555 0 -0.0023627920170297368 0.00047260511409706591 0 -0.0026342525750897537 0.00026741500471956064 0 -0.0027307867918665023 0.0001169783739784876 0 -0.002329982536884101 0.00045279244553952166 0 -0.0023517921098707402 0.00045327255927042555 0 -0.0023514890509955932 0.00043721067724913952 0 -0.002329982536884101 0.00045279244553952166 0 -0.0023517921098707402 0.00045327255927042555 0 -0.0023627920170297368 0.00047260511409706591 0 -0.002329982536884101 0.00045279244553952166 0 -0.0023336912601130315 0.00042374699717868535 0 -0.0023514890509955932 0.00043721067724913952 0 -0.0023692395413348554 0.00044796813890774059 0 -0.0023514890509955932 0.00043721067724913952 0 -0.0023672365792516991 0.00042832376556109481 0 -0.0023336912601130315 0.00042374699717868535 0 -0.0023514890509955932 0.00043721067724913952 0 -0.0023672365792516991 0.00042832376556109481 0 -0.0023336912601130315 0.00042374699717868535 0 -0.0023672365792516991 0.00042832376556109481 0 -0.0023592747152819372 0.00040842212574512067 0 -0.0023195235413872683 0.00040644422301231548 0 -0.0023336912601130315 0.00042374699717868535 0 -0.0023311696474194233 0.00039364459591111246 0 -0.0023336912601130315 0.00042374699717868535 0 -0.0023592747152819372 0.00040842212574512067 0 -0.0023311696474194233 0.00039364459591111246 0 -0.0023085138991252329 0.00039055519740209587 0 -0.0023311696474194233 0.00039364459591111246 0 -0.0023109208801120299 0.00037010871901847493 0 -0.0023592747152819372 0.00040842212574512067 0 -0.0023311696474194233 0.00039364459591111246 0 -0.0023766810866902984 0.00038950610097668976 0 -0.0023311696474194233 0.00039364459591111246 0 -0.0023489428210025313 0.00036084559122229513 0 -0.0023766810866902984 0.00038950610097668976 0 -0.0023489428210025313 0.00036084559122229513 0 -0.0022984966595298172 0.00034457787444855381 0 -0.0023109208801120299 0.00037010871901847493 0 -0.0023489428210025313 0.00036084559122229513 0 -0.0022984966595298172 0.00034457787444855381 0 -0.0023887743217022462 0.00032126483888320295 0 -0.0022984966595298172 0.00034457787444855381 0 -0.0023109208801120299 0.00037010871901847493 0 -0.0023040854070183235 0.00037223157160514884 0 -0.0022967795312193525 0.00034898844082431715 0 -0.002225202777212415 0.00038877040335504672 0 -0.0022984966595298172 0.00034457787444855381 0 -0.0021467384643510663 0.00040814584286149425 0 -0.0022126873707665564 0.00028173538826376838 0 -0.0023311696474194233 0.00039364459591111246 0 -0.0023489428210025313 0.00036084559122229513 0 -0.0023109208801120299 0.00037010871901847493 0 -0.0023085138991252329 0.00039055519740209587 0 -0.0023011223726352864 0.00038768433911434252 0 -0.0023040854070183235 0.00037223157160514884 0 -0.0023085138991252329 0.00039055519740209587 0 -0.0023109208801120299 0.00037010871901847493 0 -0.0023040854070183235 0.00037223157160514884 0 -0.0022948200560077661 0.00038928279259154222 0 -0.0022992375025598722 0.00039685655429208137 0 -0.0023011223726352864 0.00038768433911434252 0 -0.0022948200560077661 0.00038928279259154222 0 -0.0023011223726352864 0.00038768433911434252 0 -0.0023040854070183235 0.00037223157160514884 0 -0.0021554643879908228 0.00042206534752970001 0 -0.002225202777212415 0.00038877040335504672 0 -0.0020514788053483282 0.00035446188103038854 0 -0.0021467384643510663 0.00040814584286149425 0 -0.002116080192359514 0.00025418285658460439 0 -0.0020037597686506513 0.00045978324170665725 0 -0.0020514788053483282 0.00035446188103038854 0 -0.0021467384643510663 0.00040814584286149425 0 -0.0021467384643510663 0.00040814584286149425 0 -0.002116080192359514 0.00025418285658460439 0 -0.0022126873707665564 0.00028173538826376838 0 -0.002026492784555117 0.00028142278357206919 0 -0.0020514788053483282 0.00035446188103038854 0 -0.002116080192359514 0.00025418285658460439 0 -0.0021461019487188366 0.00015326805941244436 0 -0.0021147207883460807 0.00025085328489713593 0 -0.0021029970733453525 0.00013883793911623353 0 -0.0020170123402586141 0.00020540801764014246 0 -0.002116080192359514 0.00025418285658460439 0 -0.0020170123402586141 0.00020540801764014246 0 -0.002026492784555117 0.00028142278357206919 0 -0.002116080192359514 0.00025418285658460439 0 -0.002116080192359514 0.00025418285658460439 0 -0.0021958192203155053 0.00020070468095522725 0 -0.0022126873707665564 0.00028173538826376838 0 -0.0021369723918203986 0.00017788552988270528 0 -0.002116080192359514 0.00025418285658460439 0 -0.0021958192203155053 0.00020070468095522725 0 -0.0021958192203155053 0.00020070468095522725 0 -0.0023015103227499657 0.00025578002519443036 0 -0.0022126873707665564 0.00028173538826376838 0 -0.0022853077297076848 0.00017359773206428392 0 -0.0021958192203155053 0.00020070468095522725 0 -0.0023015103227499657 0.00025578002519443036 0 -0.0022853077297076848 0.00017359773206428392 0 -0.0023015103227499657 0.00025578002519443036 0 -0.0023899765778400955 0.00022848137412706832 0 -0.0021033036422715853 9.9777017461665554e-05 0 -0.0020379285376788225 7.3451317236961444e-05 0 -0.0022984966595298172 0.00034457787444855381 0 -0.0023015103227499657 0.00025578002519443036 0 -0.0023650776227382934 0.00027940380995878549 0 -0.0022984966595298172 0.00034457787444855381 0 -0.0023650776227382934 0.00027940380995878549 0 -0.0023887743217022462 0.00032126483888320295 0 -0.0022984966595298172 0.00034457787444855381 0 -0.0023015103227499657 0.00025578002519443036 0 -0.0022126873707665564 0.00028173538826376838 0 -0.0024135118107708898 0.00028494675453966437 0 -0.0023899765778400955 0.00022848137412706832 0 -0.0024785145727942676 0.00028618046618406648 0 -0.0020379285376788225 7.3451317236961444e-05 0 -0.0020149107979365506 9.8134984312810505e-05 0 -0.0024135118107708898 0.00028494675453966437 0 -0.0024785145727942676 0.00028618046618406648 0 -0.0024377344434471249 0.00030861278542584317 0 -0.0024785145727942676 0.00028618046618406648 0 -0.0024858832130276597 0.00030361384996709415 0 -0.0024377344434471249 0.00030861278542584317 0 -0.0024135118107708898 0.00028494675453966437 0 -0.0024377344434471249 0.00030861278542584317 0 -0.0023887743217022462 0.00032126483888320295 0 -0.0024135118107708898 0.00028494675453966437 0 -0.0023650776227382934 0.00027940380995878549 0 -0.0023887743217022462 0.00032126483888320295 0 -0.0023015103227499657 0.00025578002519443036 0 -0.0023650776227382934 0.00027940380995878549 0 -0.0023899765778400955 0.00022848137412706832 0 -0.0024135118107708898 0.00028494675453966437 0 -0.0023650776227382934 0.00027940380995878549 0 -0.0023899765778400955 0.00022848137412706832 0 -0.0017274144424010011 0.00010023365018190375 0 -0.0016789338700853001 -8.865039410960911e-05 0 -0.0016273446360221711 -5.6046151800306312e-05 0 -0.0016789338700853001 -8.865039410960911e-05 0 -0.0016273446360221711 -5.6046151800306312e-05 0 -0.0015818411407071905 -6.9019735618446946e-05 0 -0.0016789338700853001 -8.865039410960911e-05 0 -0.0015818411407071905 -6.9019735618446946e-05 0 -0.001548223074209656 -9.3084691464765645e-05 0 -0.0016273446360221711 -5.6046151800306312e-05 0 -0.0015818411407071905 -6.9019735618446946e-05 0 -0.0015712337026477462 -3.3349025759914948e-05 0 -0.0015818411407071905 -6.9019735618446946e-05 0 -0.0015712337026477462 -3.3349025759914948e-05 0 -0.0015494119721537278 -5.3844833816618623e-05 0 -0.0015264749196811226 -2.4863022106949577e-05 0 -0.0015712337026477462 -3.3349025759914948e-05 0 -0.0015494119721537278 -5.3844833816618623e-05 0 -0.0015264749196811226 -2.4863022106949577e-05 0 -0.0015494119721537278 -5.3844833816618623e-05 0 -0.0015181591579910172 -5.7569683315494862e-05 0 -0.0015494119721537278 -5.3844833816618623e-05 0 -0.0015181591579910172 -5.7569683315494862e-05 0 -0.0015372417852840435 -7.1241870781797896e-05 0 -0.0015818411407071905 -6.9019735618446946e-05 0 -0.0015494119721537278 -5.3844833816618623e-05 0 -0.0015372417852840435 -7.1241870781797896e-05 0 -0.0014870546730614135 -4.1539180521218311e-05 0 -0.0015264749196811226 -2.4863022106949577e-05 0 -0.0015181591579910172 -5.7569683315494862e-05 0 -0.0014870546730614135 -4.1539180521218311e-05 0 -0.0015181591579910172 -5.7569683315494862e-05 0 -0.0015018857200963073 -6.1421100879759401e-05 0 -0.0015181591579910172 -5.7569683315494862e-05 0 -0.0015018857200963073 -6.1421100879759401e-05 0 -0.0015192522964873982 -7.0528633831987262e-05 0 -0.0015018857200963073 -6.1421100879759401e-05 0 -0.0015192522964873982 -7.0528633831987262e-05 0 -0.0015199803104074907 -6.5062800392557795e-05 0 -0.0015192522964873982 -7.0528633831987262e-05 0 -0.0015108661372722288 -5.152116836262483e-05 0 -0.0015199803104074907 -6.5062800392557795e-05 0 -0.0015192522964873982 -7.0528633831987262e-05 0 -0.0015372417852840435 -7.1241870781797896e-05 0 -0.001548223074209656 -9.3084691464765645e-05 0 -0.0020149107979365506 9.8134984312810505e-05 0 -0.0019890922314839353 0.00012841951882694119 0 -0.0015192522964873982 -7.0528633831987262e-05 0 -0.001548223074209656 -9.3084691464765645e-05 0 -0.0015108661372722288 -5.152116836262483e-05 0 -0.0015818411407071905 -6.9019735618446946e-05 0 -0.0015372417852840435 -7.1241870781797896e-05 0 -0.001548223074209656 -9.3084691464765645e-05 0 -0.0015181591579910172 -5.7569683315494862e-05 0 -0.0015192522964873982 -7.0528633831987262e-05 0 -0.0015372417852840435 -7.1241870781797896e-05 0 -0.0025030975747751005 0.00026278878169790651 0 -0.0024858832130276597 0.00030361384996709415 0 -0.0024657407502174161 0.00030787155075169949 0 -0.0025030975747751005 0.00026278878169790651 0 -0.0024858832130276597 0.00030361384996709415 0 -0.0025619371967900775 0.00020744630780534658 0 -0.0024911020375502314 0.0002965937019690397 0 -0.0025040494219166804 0.00028697920546610521 0 -0.0024785145727942676 0.00028618046618406648 0 -0.0024858832130276597 0.00030361384996709415 0 -0.0024657407502174161 0.00030787155075169949 0 -0.0024657407502174161 0.00030787155075169949 0 -0.0024752918339558832 0.00016280843024066877 0 -0.002329512419656907 0.0002669281319872719 0 -0.0025030975747751005 0.00026278878169790651 0 -0.0024657407502174161 0.00030787155075169949 0 -0.0024752918339558832 0.00016280843024066877 0 -0.0025030975747751005 0.00026278878169790651 0 -0.0025619371967900775 0.00020744630780534658 0 -0.0024752918339558832 0.00016280843024066877 0 -0.0024199561278352368 0.00035283562540717713 0 -0.0023766810866902984 0.00038950610097668976 0 -0.0024153558346350977 0.00039391263056598637 0 -0.0024510017879004272 0.0003754591822367279 0 -0.0024199561278352368 0.00035283562540717713 0 -0.0024153558346350977 0.00039391263056598637 0 -0.0024858832130276597 0.00030361384996709415 0 -0.0024510017879004272 0.0003754591822367279 0 -0.0024199561278352368 0.00035283562540717713 0 -0.0024199561278352368 0.00035283562540717713 0 -0.0024377344434471249 0.00030861278542584317 0 -0.0023887743217022462 0.00032126483888320295 0 -0.0024858832130276597 0.00030361384996709415 0 -0.0024199561278352368 0.00035283562540717713 0 -0.0024377344434471249 0.00030861278542584317 0 -0.0023489428210025313 0.00036084559122229513 0 -0.0024199561278352368 0.00035283562540717713 0 -0.0023887743217022462 0.00032126483888320295 0 -0.0023489428210025313 0.00036084559122229513 0 -0.0024199561278352368 0.00035283562540717713 0 -0.0023766810866902984 0.00038950610097668976 0 -0.0023766810866902984 0.00038950610097668976 0 -0.0024153558346350977 0.00039391263056598637 0 -0.0023962706667532739 0.00041771767239060252 0 -0.0023592747152819372 0.00040842212574512067 0 -0.0023766810866902984 0.00038950610097668976 0 -0.0023962706667532739 0.00041771767239060252 0 -0.0024510017879004272 0.0003754591822367279 0 -0.0024153558346350977 0.00039391263056598637 0 -0.0024303353072012662 0.00040992400596586077 0 -0.0024153558346350977 0.00039391263056598637 0 -0.0023962706667532739 0.00041771767239060252 0 -0.0024303353072012662 0.00040992400596586077 0 -0.0023962706667532739 0.00041771767239060252 0 -0.0024238134842740067 0.00043702861573069365 0 -0.0024303353072012662 0.00040992400596586077 0 -0.0023672365792516991 0.00042832376556109481 0 -0.0023592747152819372 0.00040842212574512067 0 -0.0023962706667532739 0.00041771767239060252 0 -0.0023672365792516991 0.00042832376556109481 0 -0.0023962706667532739 0.00041771767239060252 0 -0.0023943334209371118 0.00044768900354087048 0 -0.0023692395413348554 0.00044796813890774059 0 -0.0023672365792516991 0.00042832376556109481 0 -0.0023943334209371118 0.00044768900354087048 0 -0.0023962706667532739 0.00041771767239060252 0 -0.0023943334209371118 0.00044768900354087048 0 -0.0024238134842740067 0.00043702861573069365 0 -0.0023943334209371118 0.00044768900354087048 0 -0.0024231870080146903 0.00046415213210501135 0 -0.0023935277968016536 0.00046901229762064654 0 -0.0023943334209371118 0.00044768900354087048 0 -0.0024238134842740067 0.00043702861573069365 0 -0.0024231870080146903 0.00046415213210501135 0 -0.0023778469396616027 0.00046064090799527988 0 -0.0023943334209371118 0.00044768900354087048 0 -0.0023935277968016536 0.00046901229762064654 0 -0.0023692395413348554 0.00044796813890774059 0 -0.0023778469396616027 0.00046064090799527988 0 -0.0023943334209371118 0.00044768900354087048 0 -0.0026190387693000661 -2.1323251752275421e-05 0 -0.0025735448935078329 -2.5561724595042158e-05 0 -0.0025410468386571666 -1.7406452580446399e-05 0 -0.0026190387693000661 -2.1323251752275421e-05 0 -0.0026914564233219448 -1.5752993996871691e-05 0 -0.0027989594709224917 6.4446578657294718e-06 0 -0.0025735448935078329 -2.5561724595042158e-05 0 -0.0025860600965880529 -1.5195872246940824e-05 0 -0.0025596013207835316 -1.2035634010255575e-05 0 -0.0026190387693000661 -2.1323251752275421e-05 0 -0.0025735448935078329 -2.5561724595042158e-05 0 -0.0025596013207835316 -1.2035634010255575e-05 0 -0.0024927282508847358 0.00023602121496941284 0 -0.0026244219705145247 0.00012088152542557856 0 -0.0026507688324769276 -5.449466358761995e-05 0 -0.0026244219705145247 0.00012088152542557856 0 -0.0025735448935078329 -2.5561724595042158e-05 0 -0.0025860600965880529 -1.5195872246940824e-05 0 -0.0025410468386571666 -1.7406452580446399e-05 0 -0.0025860600965880529 -1.5195872246940824e-05 0 -0.0025410468386571666 -1.7406452580446399e-05 0 -0.0025203177678931733 4.7522912211593016e-05 0 -0.0025203177678931733 4.7522912211593016e-05 0 -0.0024752918339558832 0.00016280843024066877 0 -0.0024307734161260028 2.2421129760518446e-05 0 -0.0025410468386571666 -1.7406452580446399e-05 0 -0.0025203177678931733 4.7522912211593016e-05 0 -0.0024307734161260028 2.2421129760518446e-05 0 -0.0024927282508847358 0.00023602121496941284 0 -0.0025098934568160147 0.00023717564772463771 0 -0.0025860600965880529 -1.5195872246940824e-05 0 -0.0025203177678931733 4.7522912211593016e-05 0 -0.0025883316297880187 7.4750897073180673e-05 0 -0.0025040494219166804 0.00028697920546610521 0 -0.0025098934568160147 0.00023717564772463771 0 -0.0025203177678931733 4.7522912211593016e-05 0 -0.0025883316297880187 7.4750897073180673e-05 0 -0.0024752918339558832 0.00016280843024066877 0 -0.0025619371967900775 0.00020744630780534658 0 -0.0025883316297880187 7.4750897073180673e-05 0 -0.0024752918339558832 0.00016280843024066877 0 -0.0024752918339558832 0.00016280843024066877 0 -0.0023023056558057402 9.3470446668764704e-05 0 -0.0024307734161260028 2.2421129760518446e-05 0 -0.0023023056558057402 9.3470446668764704e-05 0 -0.0019792668061512008 9.6076055131626321e-05 0 -0.002329512419656907 0.0002669281319872719 0 -0.0023023056558057402 9.3470446668764704e-05 0 -0.0022903655781612775 5.243126498359305e-07 0 -0.0019792668061512008 9.6076055131626321e-05 0 -0.0023023056558057402 9.3470446668764704e-05 0 -0.0022903655781612775 5.243126498359305e-07 0 -0.0024307734161260028 2.2421129760518446e-05 0 -0.0025410468386571666 -1.7406452580446399e-05 0 -0.0024307734161260028 2.2421129760518446e-05 0 -0.0024973949077596639 -2.4172758260629549e-05 0 -0.0022903655781612775 5.243126498359305e-07 0 -0.0024307734161260028 2.2421129760518446e-05 0 -0.0024973949077596639 -2.4172758260629549e-05 0 -0.0022903655781612775 5.243126498359305e-07 0 -0.0024973949077596639 -2.4172758260629549e-05 0 -0.002451488073142564 -2.8585372311687233e-05 0 -0.0024973949077596639 -2.4172758260629549e-05 0 -0.002451488073142564 -2.8585372311687233e-05 0 -0.0025665044499476376 -3.2978088078630721e-05 0 -0.002451488073142564 -2.8585372311687233e-05 0 -0.0025665044499476376 -3.2978088078630721e-05 0 -0.0026139623518961637 -4.645865098382334e-05 0 -0.002451488073142564 -2.8585372311687233e-05 0 -0.0025460340847506982 -3.3605723605208136e-05 0 -0.0026139623518961637 -4.645865098382334e-05 0 -0.0026190387693000661 -2.1323251752275421e-05 0 -0.0025410468386571666 -1.7406452580446399e-05 0 -0.0024973949077596639 -2.4172758260629549e-05 0 -0.0026190387693000661 -2.1323251752275421e-05 0 -0.0024973949077596639 -2.4172758260629549e-05 0 -0.0025665044499476376 -3.2978088078630721e-05 0 -0.0026190387693000661 -2.1323251752275421e-05 0 -0.0025665044499476376 -3.2978088078630721e-05 0 -0.0026525032310306912 -4.7239638011073477e-05 0 -0.0023463605530124306 -4.1410984491549731e-08 0 -0.0025460340847506982 -3.3605723605208136e-05 0 -0.0026220870001525268 -5.728812067330618e-08 0 -0.0023463605530124306 -4.1410984491549731e-08 0 -0.0022911581938673993 -1.0285860934252916e-05 0 -0.0025460340847506982 -3.3605723605208136e-05 0 -0.002451488073142564 -2.8585372311687233e-05 0 -0.0022911581938673993 -1.0285860934252916e-05 0 -0.0025460340847506982 -3.3605723605208136e-05 0 -0.0022903655781612775 5.243126498359305e-07 0 -0.002451488073142564 -2.8585372311687233e-05 0 -0.0022911581938673993 -1.0285860934252916e-05 0 -0.0023463605530124306 -4.1410984491549731e-08 0 -0.0022911581938673993 -1.0285860934252916e-05 0 -0.0020705754705820953 4.1865878815901707e-08 0 -0.0022911581938673993 -1.0285860934252916e-05 0 -0.0020705754705820953 4.1865878815901707e-08 0 -0.0020941283812227615 2.9232100077351917e-05 0 -0.0022903655781612775 5.243126498359305e-07 0 -0.0022911581938673993 -1.0285860934252916e-05 0 -0.0020941283812227615 2.9232100077351917e-05 0 -0.0022903655781612775 5.243126498359305e-07 0 -0.0020941283812227615 2.9232100077351917e-05 0 -0.0019792668061512008 9.6076055131626321e-05 0 -0.0020705754705820953 4.1865878815901707e-08 0 -0.0020941283812227615 2.9232100077351917e-05 0 -0.0017948647263284687 6.8380300671988001e-08 0 -0.0020941283812227615 2.9232100077351917e-05 0 -0.0019792668061512008 9.6076055131626321e-05 0 -0.0017948647263284687 6.8380300671988001e-08 0 -0.0017948647263284687 6.8380300671988001e-08 0 -0.0017254721588135606 -1.1573364019776825e-05 0 -0.0015190906193593813 -7.4872905824934557e-08 0 -0.0017254721588135606 -1.1573364019776825e-05 0 -0.0015727020915111071 -5.0824437715817883e-05 0 -0.0015329623803018297 -4.281003452803247e-05 0 -0.0019792668061512008 9.6076055131626321e-05 0 -0.0017948647263284687 6.8380300671988001e-08 0 -0.0017254721588135606 -1.1573364019776825e-05 0 -0.0019792668061512008 9.6076055131626321e-05 0 -0.0017254721588135606 -1.1573364019776825e-05 0 -0.0015984616222478279 2.5268422271882221e-05 0 -0.0019645122470058774 9.9936889794438583e-05 0 -0.0019639141607581175 0.00013589608410952001 0 -0.0024752918339558832 0.00016280843024066877 0 -0.0023023056558057402 9.3470446668764704e-05 0 -0.002329512419656907 0.0002669281319872719 0 -0.0015984616222478279 2.5268422271882221e-05 0 -0.00154962755653602 -3.8995625730770504e-05 0 -0.0015727020915111071 -5.0824437715817883e-05 0 -0.0015108661372722288 -5.152116836262483e-05 0 -0.00154962755653602 -3.8995625730770504e-05 0 -0.0015199803104074907 -6.5062800392557795e-05 0 -0.0019890922314839353 0.00012841951882694119 0 -0.0019639141607581175 0.00013589608410952001 0 -0.0015108661372722288 -5.152116836262483e-05 0 -0.0015984616222478279 2.5268422271882221e-05 0 -0.00154962755653602 -3.8995625730770504e-05 0 -0.0017254721588135606 -1.1573364019776825e-05 0 -0.0015984616222478279 2.5268422271882221e-05 0 -0.0015727020915111071 -5.0824437715817883e-05 0 -0.0015727020915111071 -5.0824437715817883e-05 0 -0.0014985786326746347 -6.1230896420670056e-05 0 -0.0015329623803018297 -4.281003452803247e-05 0 -0.0015727020915111071 -5.0824437715817883e-05 0 -0.0015199803104074907 -6.5062800392557795e-05 0 -0.0014985786326746347 -6.1230896420670056e-05 0 -0.0015018857200963073 -6.1421100879759401e-05 0 -0.0015199803104074907 -6.5062800392557795e-05 0 -0.0014985786326746347 -6.1230896420670056e-05 0 -0.00154962755653602 -3.8995625730770504e-05 0 -0.0015727020915111071 -5.0824437715817883e-05 0 -0.0015199803104074907 -6.5062800392557795e-05 0 -0.0015018857200963073 -6.1421100879759401e-05 0 -0.0014566446320073833 -4.8898063618885393e-05 0 -0.0014985786326746347 -6.1230896420670056e-05 0 -0.0014870546730614135 -4.1539180521218311e-05 0 -0.0015018857200963073 -6.1421100879759401e-05 0 -0.0014566446320073833 -4.8898063618885393e-05 0 -0.0014566446320073833 -4.8898063618885393e-05 0 -0.0014985786326746347 -6.1230896420670056e-05 0 -0.0014142986801149117 -4.7461135934953193e-05 0 -0.0014985786326746347 -6.1230896420670056e-05 0 -0.0014142986801149117 -4.7461135934953193e-05 0 -0.0015329623803018297 -4.281003452803247e-05 0 -0.0014142986801149117 -4.7461135934953193e-05 0 -0.0014009898533666623 -2.9407363323784573e-05 0 -0.0015329623803018297 -4.281003452803247e-05 0 -0.0012433538391765152 -4.539301949559658e-08 0 -0.0014009898533666623 -2.9407363323784573e-05 0 -0.0015190906193593813 -7.4872905824934557e-08 0 -0.0014009898533666623 -2.9407363323784573e-05 0 -0.0015190906193593813 -7.4872905824934557e-08 0 -0.0015329623803018297 -4.281003452803247e-05 0 -0.0017254721588135606 -1.1573364019776825e-05 0 -0.0015190906193593813 -7.4872905824934557e-08 0 -0.0015329623803018297 -4.281003452803247e-05 0 -0.0034737550654129075 -5.1467685400911537e-08 0 -0.0032225699653372205 2.1396235497487376e-05 0 -0.003224213810812066 -3.2755075051071281e-05 0 -0.0034492481676192221 -3.0736243825975945e-09 0 -0.0034737550654129075 -5.1467685400911537e-08 0 -0.003224213810812066 -3.2755075051071281e-05 0 -0.0034492481676192221 -3.0736243825975945e-09 0 -0.0037250840084954466 -1.4074161173396559e-07 0 -0.0034737550654129075 -5.1467685400911537e-08 0 -0.0037250840084954466 -1.4074161173396559e-07 0 -0.0034737550654129075 -5.1467685400911537e-08 0 -0.0036724097984644336 2.1053910887680252e-05 0 -0.0034737550654129075 -5.1467685400911537e-08 0 -0.0032225699653372205 2.1396235497487376e-05 0 -0.0034792991606194183 4.8696206451325107e-05 0 -0.0032165319248296533 9.5672939332613924e-06 0 -0.0033780817589430003 0.00016512915369421965 0 -0.0030965569333571783 0.00013915096275949606 0 -0.0032225699653372205 2.1396235497487376e-05 0 -0.0032162579432157071 0.00023399908573450029 0 -0.0030965569333571783 0.00013915096275949606 0 -0.0030380407848160508 4.344570812112035e-05 0 -0.0032225699653372205 2.1396235497487376e-05 0 -0.0030380407848160508 4.344570812112035e-05 0 -0.0032225699653372205 2.1396235497487376e-05 0 -0.0030493335639568495 -2.5880688023165777e-05 0 -0.0032225699653372205 2.1396235497487376e-05 0 -0.0030493335639568495 -2.5880688023165777e-05 0 -0.003224213810812066 -3.2755075051071281e-05 0 -0.0030493335639568495 -2.5880688023165777e-05 0 -0.0030342156987258765 -6.0196729848568312e-05 0 -0.003224213810812066 -3.2755075051071281e-05 0 -0.0030493335639568495 -2.5880688023165777e-05 0 -0.0029559622089733758 -7.1053100964136884e-05 0 -0.0030342156987258765 -6.0196729848568312e-05 0 -0.0029559622089733758 -7.1053100964136884e-05 0 -0.0030342156987258765 -6.0196729848568312e-05 0 -0.0029005078590877459 -8.0156164374109874e-05 0 -0.0030342156987258765 -6.0196729848568312e-05 0 -0.0030413362586661128 -4.7782004276948137e-05 0 -0.0029005078590877459 -8.0156164374109874e-05 0 -0.0030342156987258765 -6.0196729848568312e-05 0 -0.0030413362586661128 -4.7782004276948137e-05 0 -0.003224213810812066 -3.2755075051071281e-05 0 -0.0030413362586661128 -4.7782004276948137e-05 0 -0.003224213810812066 -3.2755075051071281e-05 0 -0.0031735738321515832 -8.9409547208006148e-08 0 -0.0034492481676192221 -3.0736243825975945e-09 0 -0.003224213810812066 -3.2755075051071281e-05 0 -0.0031735738321515832 -8.9409547208006148e-08 0 -0.0031735738321515832 -8.9409547208006148e-08 0 -0.0028880302639014122 -4.8212815741698316e-05 0 -0.0028978287193484309 -5.961515651054869e-08 0 -0.0030413362586661128 -4.7782004276948137e-05 0 -0.0031735738321515832 -8.9409547208006148e-08 0 -0.0028880302639014122 -4.8212815741698316e-05 0 -0.0028880302639014122 -4.8212815741698316e-05 0 -0.0027399089662434907 -4.067444049054495e-05 0 -0.0027951852091476917 -7.0532713283897531e-05 0 -0.0028880302639014122 -4.8212815741698316e-05 0 -0.0028978287193484309 -5.961515651054869e-08 0 -0.0027399089662434907 -4.067444049054495e-05 0 -0.0028978287193484309 -5.961515651054869e-08 0 -0.0027399089662434907 -4.067444049054495e-05 0 -0.0026220870001525268 -5.728812067330618e-08 0 -0.0027399089662434907 -4.067444049054495e-05 0 -0.0025460340847506982 -3.3605723605208136e-05 0 -0.0026988664668364405 -5.6338842392512227e-05 0 -0.0027399089662434907 -4.067444049054495e-05 0 -0.0025460340847506982 -3.3605723605208136e-05 0 -0.0026220870001525268 -5.728812067330618e-08 0 -0.0026525032310306912 -4.7239638011073477e-05 0 -0.0026139623518961637 -4.645865098382334e-05 0 -0.0027135979389929206 -6.4843767707253673e-05 0 -0.0025665044499476376 -3.2978088078630721e-05 0 -0.0026525032310306912 -4.7239638011073477e-05 0 -0.0026139623518961637 -4.645865098382334e-05 0 -0.0025460340847506982 -3.3605723605208136e-05 0 -0.0026139623518961637 -4.645865098382334e-05 0 -0.0026988664668364405 -5.6338842392512227e-05 0 -0.0026139623518961637 -4.645865098382334e-05 0 -0.0026988664668364405 -5.6338842392512227e-05 0 -0.0027135979389929206 -6.4843767707253673e-05 0 -0.0027399089662434907 -4.067444049054495e-05 0 -0.0026988664668364405 -5.6338842392512227e-05 0 -0.0027951852091476917 -7.0532713283897531e-05 0 -0.0026988664668364405 -5.6338842392512227e-05 0 -0.0027135979389929206 -6.4843767707253673e-05 0 -0.0027951852091476917 -7.0532713283897531e-05 0 -0.0027135979389929206 -6.4843767707253673e-05 0 -0.0027933521653261142 -8.1696769961995961e-05 0 -0.0027951852091476917 -7.0532713283897531e-05 0 -0.0026525032310306912 -4.7239638011073477e-05 0 -0.0027135979389929206 -6.4843767707253673e-05 0 -0.0027359461081498037 -6.8391434488053178e-05 0 -0.0027135979389929206 -6.4843767707253673e-05 0 -0.0027933521653261142 -8.1696769961995961e-05 0 -0.0027359461081498037 -6.8391434488053178e-05 0 -0.0027933521653261142 -8.1696769961995961e-05 0 -0.0029005078590877459 -8.0156164374109874e-05 0 -0.0028358774259821706 -9.1059575674487514e-05 0 -0.0027933521653261142 -8.1696769961995961e-05 0 -0.0027951852091476917 -7.0532713283897531e-05 0 -0.0029005078590877459 -8.0156164374109874e-05 0 -0.0028880302639014122 -4.8212815741698316e-05 0 -0.0027951852091476917 -7.0532713283897531e-05 0 -0.0029005078590877459 -8.0156164374109874e-05 0 -0.0030413362586661128 -4.7782004276948137e-05 0 -0.0028880302639014122 -4.8212815741698316e-05 0 -0.0029005078590877459 -8.0156164374109874e-05 0 -0.0029559622089733758 -7.1053100964136884e-05 0 -0.0029005078590877459 -8.0156164374109874e-05 0 -0.0028807184211470604 -8.9433342994328668e-05 0 -0.0029005078590877459 -8.0156164374109874e-05 0 -0.0028807184211470604 -8.9433342994328668e-05 0 -0.0028358774259821706 -9.1059575674487514e-05 0 -0.0028807184211470604 -8.9433342994328668e-05 0 -0.0028537922913814927 -9.7217782350297028e-05 0 -0.0028601583125650505 -7.6925240500813857e-05 0 -0.0028807184211470604 -8.9433342994328668e-05 0 -0.0028537922913814927 -9.7217782350297028e-05 0 -0.0028327298208909854 -9.2665076228935403e-05 0 -0.0028537922913814927 -9.7217782350297028e-05 0 -0.0028327298208909854 -9.2665076228935403e-05 0 -0.0028048019175830885 -7.6171248362329224e-05 0 -0.0027881232036647725 -9.9480534841234224e-05 0 -0.0027624089659257678 -5.5947860337146771e-05 0 -0.0027878109738974379 -6.1592619189554531e-05 0 -0.0028191089823972576 -9.7192435301419707e-05 0 -0.0027780400831566589 -6.8195314061207386e-05 0 -0.0028807184211470604 -8.9433342994328668e-05 0 -0.0028327298208909854 -9.2665076228935403e-05 0 -0.0028358774259821706 -9.1059575674487514e-05 0 -0.0028327298208909854 -9.2665076228935403e-05 0 -0.0028358774259821706 -9.1059575674487514e-05 0 -0.0027966270822111601 -8.5556334990626376e-05 0 -0.0027933521653261142 -8.1696769961995961e-05 0 -0.0028358774259821706 -9.1059575674487514e-05 0 -0.0027966270822111601 -8.5556334990626376e-05 0 -0.0027933521653261142 -8.1696769961995961e-05 0 -0.0027359461081498037 -6.8391434488053178e-05 0 -0.0027966270822111601 -8.5556334990626376e-05 0 -0.0027359461081498037 -6.8391434488053178e-05 0 -0.0028048019175830885 -7.6171248362329224e-05 0 -0.0027010425253956964 -4.6962696670178484e-05 0 -0.0027359461081498037 -6.8391434488053178e-05 0 -0.0027966270822111601 -8.5556334990626376e-05 0 -0.0028048019175830885 -7.6171248362329224e-05 0 -0.0028327298208909854 -9.2665076228935403e-05 0 -0.0027966270822111601 -8.5556334990626376e-05 0 -0.0028048019175830885 -7.6171248362329224e-05 0 -0.0027624089659257678 -5.5947860337146771e-05 0 -0.0027635671486276633 -3.3694731928205598e-05 0 -0.0027878109738974379 -6.1592619189554531e-05 0 -0.0027081953020867693 -1.7180264271092451e-05 0 -0.0027780400831566589 -6.8195314061207386e-05 0 -0.0026914564233219448 -1.5752993996871691e-05 0 -0.0027989594709224917 6.4446578657294718e-06 0 -0.0027635671486276633 -3.3694731928205598e-05 0 -0.0026914564233219448 -1.5752993996871691e-05 0 -0.0027624089659257678 -5.5947860337146771e-05 0 -0.0027635671486276633 -3.3694731928205598e-05 0 -0.0027989594709224917 6.4446578657294718e-06 0 -0.0027635671486276633 -3.3694731928205598e-05 0 -0.0027878109738974379 -6.1592619189554531e-05 0 -0.0026914564233219448 -1.5752993996871691e-05 0 -0.0028048019175830885 -7.6171248362329224e-05 0 -0.0027010425253956964 -4.6962696670178484e-05 0 -0.0026190387693000661 -2.1323251752275421e-05 0 -0.0026525032310306912 -4.7239638011073477e-05 0 -0.0027010425253956964 -4.6962696670178484e-05 0 -0.0026190387693000661 -2.1323251752275421e-05 0 -0.0026914564233219448 -1.5752993996871691e-05 0 -0.0027010425253956964 -4.6962696670178484e-05 0 -0.0026525032310306912 -4.7239638011073477e-05 0 -0.0027359461081498037 -6.8391434488053178e-05 0 -0.0027010425253956964 -4.6962696670178484e-05 0 -0.0028613442127067793 -1.4769079410667075e-05 0 -0.0028434290953867894 1.6130100810050875e-05 0 -0.0028956014479240969 9.4183180248691213e-06 0 -0.0028613442127067793 -1.4769079410667075e-05 0 -0.0028434290953867894 1.6130100810050875e-05 0 -0.0028222086793727209 -2.2998566537823757e-05 0 -0.0026244219705145247 0.00012088152542557856 0 -0.0025904685411159657 0.00026117264059725341 0 -0.0026244219705145247 0.00012088152542557856 0 -0.0028271791900706658 -0.00010165861190057899 0 -0.0027791434187520196 2.5627412928816845e-05 0 -0.0028434290953867894 1.6130100810050875e-05 0 -0.0028222086793727209 -2.2998566537823757e-05 0 -0.0027791434187520196 2.5627412928816845e-05 0 -0.0028222086793727209 -2.2998566537823757e-05 0 -0.0027878109738974379 -6.1592619189554531e-05 0 -0.0028222086793727209 -2.2998566537823757e-05 0 -0.0027878109738974379 -6.1592619189554531e-05 0 -0.0028261502672712307 -6.4474901383774946e-05 0 -0.0028261502672712307 -6.4474901383774946e-05 0 -0.002843575882589214 -3.8115675624839336e-05 0 -0.0028661706194070976 -5.2882711165972133e-05 0 -0.0028222086793727209 -2.2998566537823757e-05 0 -0.0028261502672712307 -6.4474901383774946e-05 0 -0.002843575882589214 -3.8115675624839336e-05 0 -0.0028613442127067793 -1.4769079410667075e-05 0 -0.0028222086793727209 -2.2998566537823757e-05 0 -0.002843575882589214 -3.8115675624839336e-05 0 -0.0028613442127067793 -1.4769079410667075e-05 0 -0.002843575882589214 -3.8115675624839336e-05 0 -0.0028661706194070976 -5.2882711165972133e-05 0 -0.0028261502672712307 -6.4474901383774946e-05 0 -0.0028661706194070976 -5.2882711165972133e-05 0 -0.0028662660786625319 -8.9906158879076822e-05 0 -0.0028261502672712307 -6.4474901383774946e-05 0 -0.0028662660786625319 -8.9906158879076822e-05 0 -0.0028335031163791284 -0.00010808639844279726 0 -0.0027881232036647725 -9.9480534841234224e-05 0 -0.0028261502672712307 -6.4474901383774946e-05 0 -0.0028335031163791284 -0.00010808639844279726 0 -0.0027881232036647725 -9.9480534841234224e-05 0 -0.0027878109738974379 -6.1592619189554531e-05 0 -0.0028261502672712307 -6.4474901383774946e-05 0 -0.0028191089823972576 -9.7192435301419707e-05 0 -0.002847690674619418 -0.0001225870510680555 0 -0.0027881232036647725 -9.9480534841234224e-05 0 -0.0028335031163791284 -0.00010808639844279726 0 -0.0028164714228454666 -0.00015169117721184001 0 -0.0028335031163791284 -0.00010808639844279726 0 -0.0028713359740105992 -0.0001344026164935057 0 -0.0028164714228454666 -0.00015169117721184001 0 -0.0028662660786625319 -8.9906158879076822e-05 0 -0.0028335031163791284 -0.00010808639844279726 0 -0.0028713359740105992 -0.0001344026164935057 0 -0.0028713359740105992 -0.0001344026164935057 0 -0.0028720385002320588 -0.00017585446595608519 0 -0.0028164714228454666 -0.00015169117721184001 0 -0.0028720385002320588 -0.00017585446595608519 0 -0.002844323418910132 -0.00020142752835613855 0 -0.0028980262737097178 -0.00020741965012392491 0 -0.0028720385002320588 -0.00017585446595608519 0 -0.002844323418910132 -0.00020142752835613855 0 -0.0028164714228454666 -0.00015169117721184001 0 -0.0027598363218944988 -7.7483945957368768e-05 0 -0.002847690674619418 -0.0001225870510680555 0 -0.0028379897171123083 -1.4527876186560887e-05 0 -0.0028601583125650505 -7.6925240500813857e-05 0 -0.0028903486872868481 -1.9340856916881628e-05 0 -0.0028807184211470604 -8.9433342994328668e-05 0 -0.0028601583125650505 -7.6925240500813857e-05 0 -0.0029232749509430118 -5.2874437869961415e-05 0 -0.0029559622089733758 -7.1053100964136884e-05 0 -0.0028807184211470604 -8.9433342994328668e-05 0 -0.0029232749509430118 -5.2874437869961415e-05 0 -0.0030493335639568495 -2.5880688023165777e-05 0 -0.0029559622089733758 -7.1053100964136884e-05 0 -0.0029232749509430118 -5.2874437869961415e-05 0 -0.0030493335639568495 -2.5880688023165777e-05 0 -0.0029232749509430118 -5.2874437869961415e-05 0 -0.0029487707115274622 1.0760360764929586e-05 0 -0.0029232749509430118 -5.2874437869961415e-05 0 -0.0028903486872868481 -1.9340856916881628e-05 0 -0.0029487707115274622 1.0760360764929586e-05 0 -0.0028601583125650505 -7.6925240500813857e-05 0 -0.0029232749509430118 -5.2874437869961415e-05 0 -0.0028903486872868481 -1.9340856916881628e-05 0 -0.0028903486872868481 -1.9340856916881628e-05 0 -0.0029487707115274622 1.0760360764929586e-05 0 -0.0028860668907701816 5.2647400545062117e-05 0 -0.0029487707115274622 1.0760360764929586e-05 0 -0.002974807293345779 9.9684528652310163e-05 0 -0.0028860668907701816 5.2647400545062117e-05 0 -0.0030380407848160508 4.344570812112035e-05 0 -0.0030493335639568495 -2.5880688023165777e-05 0 -0.0029487707115274622 1.0760360764929586e-05 0 -0.0030380407848160508 4.344570812112035e-05 0 -0.0029487707115274622 1.0760360764929586e-05 0 -0.002974807293345779 9.9684528652310163e-05 0 -0.0030965569333571783 0.00013915096275949606 0 -0.0030380407848160508 4.344570812112035e-05 0 -0.002974807293345779 9.9684528652310163e-05 0 -0.002974807293345779 9.9684528652310163e-05 0 -0.0028860668907701816 5.2647400545062117e-05 0 -0.0028991755046492637 0.00014679896282975428 0 -0.0028262621843286417 7.7137796063112717e-05 0 -0.0029537231349027232 0.00028678784420291714 0 -0.0031890664419158225 0.00024837057806677043 0 -0.0028262621843286417 7.7137796063112717e-05 0 -0.0028860668907701816 5.2647400545062117e-05 0 -0.0028991755046492637 0.00014679896282975428 0 -0.0028568448858054298 8.8091775359665925e-05 0 -0.0030014524301839895 0.00019804031707399436 0 -0.0036691459954322071 -6.7884237163706929e-05 0 -0.0036854596299973211 -7.2529517637806001e-05 0 -0.0036847310122549918 -9.7671259660572389e-05 0 -0.003540260425577466 -0.00010196596965832236 0 -0.0038131154306726678 8.3954440680696337e-05 0 -0.0028262621843286417 7.7137796063112717e-05 0 -0.0027930596154579507 7.4058060517325771e-05 0 -0.0029537231349027232 0.00028678784420291714 0 -0.003540260425577466 -0.00010196596965832236 0 -0.0041965112444311775 -0.00014587206690477815 0 -0.003540260425577466 -0.00010196596965832236 0 -0.0032479533451563194 -0.00014894281291627967 0 -0.002844323418910132 -0.00020142752835613855 0 -0.0028697864888120456 -0.00024749198913769647 0 -0.0028980262737097178 -0.00020741965012392491 0 -0.0027598363218944988 -7.7483945957368768e-05 0 -0.003540260425577466 -0.00010196596965832236 0 -0.0028379897171123083 -1.4527876186560887e-05 0 -0.0028262621843286417 7.7137796063112717e-05 0 -0.0027930596154579507 7.4058060517325771e-05 0 -0.0028379897171123083 -1.4527876186560887e-05 0 -0.0028262621843286417 7.7137796063112717e-05 0 -0.0028860668907701816 5.2647400545062117e-05 0 -0.0028379897171123083 -1.4527876186560887e-05 0 -0.0028903486872868481 -1.9340856916881628e-05 0 -0.0028860668907701816 5.2647400545062117e-05 0 -0.0037055974582183935 -4.8599841595556306e-05 0 -0.0036830023400624785 -4.2647138707399523e-05 0 -0.0036961904435628386 -5.742760901863008e-05 0 -0.0037053870727900089 -5.1139101426573567e-05 0 -0.0037013954544022911 -8.055683529641406e-05 0 -0.0037055974582183935 -4.8599841595556306e-05 0 -0.0036961904435628386 -5.742760901863008e-05 0 -0.0037046230830972012 -6.8986975448069669e-05 0 -0.0037055974582183935 -4.8599841595556306e-05 0 -0.0037113976959911362 -6.6033950094158346e-05 0 -0.0037168326324551618 -5.1767770444063284e-05 0 -0.0037055974582183935 -4.8599841595556306e-05 0 -0.0036933573547457818 -7.8147861693917482e-05 0 -0.0037113976959911362 -6.6033950094158346e-05 0 -0.0037055974582183935 -4.8599841595556306e-05 0 -0.0037168326324551618 -5.1767770444063284e-05 0 -0.0037156606495090069 -3.1960403044345524e-05 0 -0.0036691459954322071 -6.7884237163706929e-05 0 -0.0036830023400624785 -4.2647138707399523e-05 0 -0.0036872784217076627 -6.1413503460792997e-05 0 -0.0036830023400624785 -4.2647138707399523e-05 0 -0.0036872784217076627 -6.1413503460792997e-05 0 -0.0036961904435628386 -5.742760901863008e-05 0 -0.0036872784217076627 -6.1413503460792997e-05 0 -0.0036961904435628386 -5.742760901863008e-05 0 -0.003694247706783821 -6.811730520077066e-05 0 -0.0036691459954322071 -6.7884237163706929e-05 0 -0.0036872784217076627 -6.1413503460792997e-05 0 -0.0036854596299973211 -7.2529517637806001e-05 0 -0.0036872784217076627 -6.1413503460792997e-05 0 -0.003694247706783821 -6.811730520077066e-05 0 -0.0036854596299973211 -7.2529517637806001e-05 0 -0.003694247706783821 -6.811730520077066e-05 0 -0.0036854596299973211 -7.2529517637806001e-05 0 -0.0036968968870318632 -7.9888546463319872e-05 0 -0.003694247706783821 -6.811730520077066e-05 0 -0.0036968968870318632 -7.9888546463319872e-05 0 -0.0037046230830972012 -6.8986975448069669e-05 0 -0.0036968968870318632 -7.9888546463319872e-05 0 -0.0037046230830972012 -6.8986975448069669e-05 0 -0.0037030437625204748 -8.5767868487295339e-05 0 -0.0036933573547457818 -7.8147861693917482e-05 0 -0.003715245053308979 -0.00011303861832723045 0 -0.0036803710617093629 -0.00012441434897223999 0 -0.0037013954544022911 -8.055683529641406e-05 0 -0.0038080654677901042 -0.00010067085258760453 0 -0.0036933573547457818 -7.8147861693917482e-05 0 -0.0037113976959911362 -6.6033950094158346e-05 0 -0.003715245053308979 -0.00011303861832723045 0 -0.0036961904435628386 -5.742760901863008e-05 0 -0.003694247706783821 -6.811730520077066e-05 0 -0.0037046230830972012 -6.8986975448069669e-05 0 -0.0037276610210200743 -6.8067220529775875e-05 0 -0.0037424922887613413 -7.6914453679985997e-05 0 -0.0037274167428841504 -0.00011060946149715547 0 -0.0037113976959911362 -6.6033950094158346e-05 0 -0.0037662190606534691 -0.00013451933863392365 0 -0.003715245053308979 -0.00011303861832723045 0 -0.0037216052480819849 -6.9049721969961607e-05 0 -0.0037187368489276268 -0.00013060224518585776 0 -0.0037113976959911362 -6.6033950094158346e-05 0 -0.0037276610210200743 -6.8067220529775875e-05 0 -0.0037274167428841504 -0.00011060946149715547 0 -0.0037276610210200743 -6.8067220529775875e-05 0 -0.0037424922887613413 -7.6914453679985997e-05 0 -0.003740177324681568 -5.917179011792281e-05 0 -0.0037579755971292078 -9.4121611317171243e-05 0 -0.0037424922887613413 -7.6914453679985997e-05 0 -0.0037274167428841504 -0.00011060946149715547 0 -0.0037579755971292078 -9.4121611317171243e-05 0 -0.0037424922887613413 -7.6914453679985997e-05 0 -0.0037610235903998129 -5.9886536679413389e-05 0 -0.0037610235903998129 -5.9886536679413389e-05 0 -0.0037439599787665464 -4.4782237618165039e-05 0 -0.0037592009465939064 -3.1372041460818825e-05 0 -0.0037610235903998129 -5.9886536679413389e-05 0 -0.003740177324681568 -5.917179011792281e-05 0 -0.0037439599787665464 -4.4782237618165039e-05 0 -0.0037424922887613413 -7.6914453679985997e-05 0 -0.0037610235903998129 -5.9886536679413389e-05 0 -0.003740177324681568 -5.917179011792281e-05 0 -0.003740177324681568 -5.917179011792281e-05 0 -0.0037439599787665464 -4.4782237618165039e-05 0 -0.0037276128444221493 -4.6887452156731619e-05 0 -0.0037439599787665464 -4.4782237618165039e-05 0 -0.0037276128444221493 -4.6887452156731619e-05 0 -0.0037307846924603386 -2.6608232874240463e-05 0 -0.0037276610210200743 -6.8067220529775875e-05 0 -0.0037276128444221493 -4.6887452156731619e-05 0 -0.0037168326324551618 -5.1767770444063284e-05 0 -0.0037113976959911362 -6.6033950094158346e-05 0 -0.0037276610210200743 -6.8067220529775875e-05 0 -0.0037168326324551618 -5.1767770444063284e-05 0 -0.0037276610210200743 -6.8067220529775875e-05 0 -0.003740177324681568 -5.917179011792281e-05 0 -0.0037276128444221493 -4.6887452156731619e-05 0 -0.0037276128444221493 -4.6887452156731619e-05 0 -0.0037168326324551618 -5.1767770444063284e-05 0 -0.0037156606495090069 -3.1960403044345524e-05 0 -0.0037156606495090069 -3.1960403044345524e-05 0 -0.0037205890477018284 -8.982747375362691e-06 0 -0.0037001418829314967 -1.3406647585431394e-05 0 -0.0037276128444221493 -4.6887452156731619e-05 0 -0.0037156606495090069 -3.1960403044345524e-05 0 -0.0037307846924603386 -2.6608232874240463e-05 0 -0.0037156606495090069 -3.1960403044345524e-05 0 -0.0037307846924603386 -2.6608232874240463e-05 0 -0.0037205890477018284 -8.982747375362691e-06 0 -0.0037307846924603386 -2.6608232874240463e-05 0 -0.0037381901861949784 -1.2610545869421516e-05 0 -0.0037592009465939064 -3.1372041460818825e-05 0 -0.0037439599787665464 -4.4782237618165039e-05 0 -0.0037307846924603386 -2.6608232874240463e-05 0 -0.0037592009465939064 -3.1372041460818825e-05 0 -0.0037307846924603386 -2.6608232874240463e-05 0 -0.0037381901861949784 -1.2610545869421516e-05 0 -0.0037205890477018284 -8.982747375362691e-06 0 -0.0037381901861949784 -1.2610545869421516e-05 0 -0.0037205890477018284 -8.982747375362691e-06 0 -0.0037170539404284852 6.7806667542866203e-06 0 -0.0037381901861949784 -1.2610545869421516e-05 0 -0.0037170539404284852 6.7806667542866203e-06 0 -0.0037871194597640804 -6.6847761806345458e-06 0 -0.0037205890477018284 -8.982747375362691e-06 0 -0.0037229742519666788 3.5123659477533255e-07 0 -0.0037170539404284852 6.7806667542866203e-06 0 -0.0037205890477018284 -8.982747375362691e-06 0 -0.0037001418829314967 -1.3406647585431394e-05 0 -0.0037229742519666788 3.5123659477533255e-07 0 -0.0033253172913624172 -8.2977419729540419e-05 0 -0.0033469734016429342 -5.7647864781839487e-05 0 -0.0037055974582183935 -4.8599841595556306e-05 0 -0.0037156606495090069 -3.1960403044345524e-05 0 -0.0037001418829314967 -1.3406647585431394e-05 0 -0.0037055974582183935 -4.8599841595556306e-05 0 -0.0036830023400624785 -4.2647138707399523e-05 0 -0.0037001418829314967 -1.3406647585431394e-05 0 -0.0032479533451563194 -0.00014894281291627967 0 -0.0033253172913624172 -8.2977419729540419e-05 0 -0.0028720385002320588 -0.00017585446595608519 0 -0.0028980262737097178 -0.00020741965012392491 0 -0.002934141711747283 -0.00016426120269800272 0 -0.0028713359740105992 -0.0001344026164935057 0 -0.0028720385002320588 -0.00017585446595608519 0 -0.002934141711747283 -0.00016426120269800272 0 -0.0028713359740105992 -0.0001344026164935057 0 -0.002934141711747283 -0.00016426120269800272 0 -0.0029126116274002592 -0.00010612055697574963 0 -0.0028662660786625319 -8.9906158879076822e-05 0 -0.0028713359740105992 -0.0001344026164935057 0 -0.0029126116274002592 -0.00010612055697574963 0 -0.002934141711747283 -0.00016426120269800272 0 -0.0029126116274002592 -0.00010612055697574963 0 -0.0029756039356770582 -0.00011567560619559939 0 -0.0029126116274002592 -0.00010612055697574963 0 -0.0029411552053331524 -6.7539635395419295e-05 0 -0.0028975133898270417 -7.1492140835828011e-05 0 -0.0029126116274002592 -0.00010612055697574963 0 -0.0029411552053331524 -6.7539635395419295e-05 0 -0.0029756039356770582 -0.00011567560619559939 0 -0.0029411552053331524 -6.7539635395419295e-05 0 -0.0028975133898270417 -7.1492140835828011e-05 0 -0.0029025005278827611 -3.7965633290892261e-05 0 -0.0028662660786625319 -8.9906158879076822e-05 0 -0.0029126116274002592 -0.00010612055697574963 0 -0.0028975133898270417 -7.1492140835828011e-05 0 -0.0028661706194070976 -5.2882711165972133e-05 0 -0.0028662660786625319 -8.9906158879076822e-05 0 -0.0028975133898270417 -7.1492140835828011e-05 0 -0.0028661706194070976 -5.2882711165972133e-05 0 -0.0028975133898270417 -7.1492140835828011e-05 0 -0.0029025005278827611 -3.7965633290892261e-05 0 -0.0028613442127067793 -1.4769079410667075e-05 0 -0.0029025005278827611 -3.7965633290892261e-05 0 -0.0029075800045087336 -1.0564401214265222e-05 0 -0.0028613442127067793 -1.4769079410667075e-05 0 -0.0028661706194070976 -5.2882711165972133e-05 0 -0.0029025005278827611 -3.7965633290892261e-05 0 -0.0029411552053331524 -6.7539635395419295e-05 0 -0.002934066450093442 -1.8767331890462052e-05 0 -0.0029739799304242366 -2.4180293640711534e-05 0 -0.0029411552053331524 -6.7539635395419295e-05 0 -0.0029025005278827611 -3.7965633290892261e-05 0 -0.002934066450093442 -1.8767331890462052e-05 0 -0.0029025005278827611 -3.7965633290892261e-05 0 -0.002934066450093442 -1.8767331890462052e-05 0 -0.0029075800045087336 -1.0564401214265222e-05 0 -0.002934066450093442 -1.8767331890462052e-05 0 -0.0029187023925551828 1.4961666309711427e-05 0 -0.0029075800045087336 -1.0564401214265222e-05 0 -0.0029580153705995788 6.038288591647512e-05 0 -0.0029187023925551828 1.4961666309711427e-05 0 -0.0028966593221785315 1.7438694449423938e-05 0 -0.002934066450093442 -1.8767331890462052e-05 0 -0.0029187023925551828 1.4961666309711427e-05 0 -0.0029613639992992612 1.5612321806641053e-05 0 -0.002934066450093442 -1.8767331890462052e-05 0 -0.0029613639992992612 1.5612321806641053e-05 0 -0.0029739799304242366 -2.4180293640711534e-05 0 -0.0029580153705995788 6.038288591647512e-05 0 -0.0029187023925551828 1.4961666309711427e-05 0 -0.0029613639992992612 1.5612321806641053e-05 0 -0.0023778469396616027 0.00046064090799527988 0 -0.0023935277968016536 0.00046901229762064654 0 -0.0023627920170297368 0.00047260511409706591 0 -0.0025904685411159657 0.00026117264059725341 0 -0.0027307867918665023 0.0001169783739784876 0 -0.0028613442127067793 -1.4769079410667075e-05 0 -0.002899674967068781 1.5370785094592785e-05 0 -0.0029075800045087336 -1.0564401214265222e-05 0 -0.0028951378967856703 6.6095088539979151e-05 0 -0.0027307867918665023 0.0001169783739784876 0 -0.0028887587727911964 5.1556553908683932e-06 0 -0.0027307867918665023 0.0001169783739784876 0 -0.0029187023925551828 1.4961666309711427e-05 0 -0.002899674967068781 1.5370785094592785e-05 0 -0.0029075800045087336 -1.0564401214265222e-05 0 -0.0030428821408277728 4.9660078872252122e-05 0 -0.0030102011058105215 3.7963590953131736e-06 0 -0.0030650365168738104 -2.4426984486781704e-06 0 -0.0029993006792665856 4.780877429179452e-05 0 -0.0030428821408277728 4.9660078872252122e-05 0 -0.0030102011058105215 3.7963590953131736e-06 0 -0.0029993006792665856 4.780877429179452e-05 0 -0.0030102011058105215 3.7963590953131736e-06 0 -0.0029613639992992612 1.5612321806641053e-05 0 -0.0030102011058105215 3.7963590953131736e-06 0 -0.0029613639992992612 1.5612321806641053e-05 0 -0.0029739799304242366 -2.4180293640711534e-05 0 -0.0029411552053331524 -6.7539635395419295e-05 0 -0.0029739799304242366 -2.4180293640711534e-05 0 -0.003019649744647049 -6.1498948812873592e-05 0 -0.0030102011058105215 3.7963590953131736e-06 0 -0.0029739799304242366 -2.4180293640711534e-05 0 -0.003019649744647049 -6.1498948812873592e-05 0 -0.0030102011058105215 3.7963590953131736e-06 0 -0.003019649744647049 -6.1498948812873592e-05 0 -0.0030650365168738104 -2.4426984486781704e-06 0 -0.0033650673405491941 -6.3771060773926727e-05 0 -0.0033021747253274966 6.7878671401831541e-05 0 -0.0037017551404682917 -3.7590036477989436e-05 0 -0.0037229742519666788 3.5123659477533255e-07 0 -0.00368877755036874 -1.5499547425074101e-05 0 -0.0033650673405491941 -6.3771060773926727e-05 0 -0.0033469734016429342 -5.7647864781839487e-05 0 -0.0029411552053331524 -6.7539635395419295e-05 0 -0.003019649744647049 -6.1498948812873592e-05 0 -0.0029756039356770582 -0.00011567560619559939 0 -0.00368877755036874 -1.5499547425074101e-05 0 -0.0037170539404284852 6.7806667542866203e-06 0 -0.0036721873027693677 9.6330456035409638e-06 0 -0.0037229742519666788 3.5123659477533255e-07 0 -0.00368877755036874 -1.5499547425074101e-05 0 -0.0037170539404284852 6.7806667542866203e-06 0 -0.00368877755036874 -1.5499547425074101e-05 0 -0.0036721873027693677 9.6330456035409638e-06 0 -0.0036397195221810649 4.0426356648117572e-06 0 -0.003593921467444547 8.0021038008612708e-05 0 -0.0036061576067499832 0.00011227409724651197 0 -0.0036211755348370851 8.8308888881823692e-05 0 -0.003593921467444547 8.0021038008612708e-05 0 -0.0035699435665538519 0.00011712859593416895 0 -0.0036061576067499832 0.00011227409724651197 0 -0.0036134265411606808 4.8065200463979748e-05 0 -0.0036475623793771599 2.2427770643183169e-05 0 -0.0037017551404682917 -3.7590036477989436e-05 0 -0.00368877755036874 -1.5499547425074101e-05 0 -0.0036611925987400512 -3.7205200870461452e-05 0 -0.00368877755036874 -1.5499547425074101e-05 0 -0.0036397195221810649 4.0426356648117572e-06 0 -0.0036611925987400512 -3.7205200870461452e-05 0 -0.0037017551404682917 -3.7590036477989436e-05 0 -0.0036611925987400512 -3.7205200870461452e-05 0 -0.0036723063911530168 -7.1405613237917733e-05 0 -0.0036475623793771599 2.2427770643183169e-05 0 -0.0033021747253274966 6.7878671401831541e-05 0 -0.0035699435665538519 0.00011712859593416895 0 -0.0036021540794958251 0.00015162177017619642 0 -0.0036061576067499832 0.00011227409724651197 0 -0.0035699435665538519 0.00011712859593416895 0 -0.0035494916727006353 0.0001556869188526955 0 -0.0036021540794958251 0.00015162177017619642 0 -0.003572801375829424 0.00019175874412182139 0 -0.0035494916727006353 0.0001556869188526955 0 -0.0036021540794958251 0.00015162177017619642 0 -0.0029305717212270255 0.00022091328111655925 0 -0.0028832586797938558 0.00021542973487690434 0 -0.0029015341279404541 0.00017585804723632836 0 -0.0032400581025990045 0.00021535647152042 0 -0.0033021747253274966 6.7878671401831541e-05 0 -0.0029669426853757464 0.00011947468125092828 0 -0.0033021747253274966 6.7878671401831541e-05 0 -0.0036124468750071848 0.00019238905377017446 0 -0.0036444051900806295 0.00015778028105956917 0 -0.0036021540794958251 0.00015162177017619642 0 -0.0036124468750071848 0.00019238905377017446 0 -0.003572801375829424 0.00019175874412182139 0 -0.0036021540794958251 0.00015162177017619642 0 -0.0036021540794958251 0.00015162177017619642 0 -0.0036291727528089289 0.0001325094389079777 0 -0.0036061576067499832 0.00011227409724651197 0 -0.0036444051900806295 0.00015778028105956917 0 -0.0036021540794958251 0.00015162177017619642 0 -0.0036291727528089289 0.0001325094389079777 0 -0.0036444051900806295 0.00015778028105956917 0 -0.0036291727528089289 0.0001325094389079777 0 -0.0036583112886538214 0.00011867503177408026 0 -0.0036301982332322537 0.00010701614669834846 0 -0.003646573966964516 8.9063923947658262e-05 0 -0.0036583112886538214 0.00011867503177408026 0 -0.0036291727528089289 0.0001325094389079777 0 -0.0036301982332322537 0.00010701614669834846 0 -0.0036583112886538214 0.00011867503177408026 0 -0.0036291727528089289 0.0001325094389079777 0 -0.0036061576067499832 0.00011227409724651197 0 -0.0036301982332322537 0.00010701614669834846 0 -0.0036061576067499832 0.00011227409724651197 0 -0.0036301982332322537 0.00010701614669834846 0 -0.0036211755348370851 8.8308888881823692e-05 0 -0.0036301982332322537 0.00010701614669834846 0 -0.0036211755348370851 8.8308888881823692e-05 0 -0.003646573966964516 8.9063923947658262e-05 0 -0.0036211755348370851 8.8308888881823692e-05 0 -0.003646573966964516 8.9063923947658262e-05 0 -0.0036315896821140924 6.1785141551941818e-05 0 -0.003593921467444547 8.0021038008612708e-05 0 -0.0036211755348370851 8.8308888881823692e-05 0 -0.0036315896821140924 6.1785141551941818e-05 0 -0.003646573966964516 8.9063923947658262e-05 0 -0.0036315896821140924 6.1785141551941818e-05 0 -0.0036638982943600351 6.9239625429945361e-05 0 -0.0036320552265571957 6.3162456645165463e-05 0 -0.0036798392002743681 7.60971337895066e-05 0 -0.003662407273264735 4.4477048980309522e-05 0 -0.0036315896821140924 6.1785141551941818e-05 0 -0.003685654307268004 8.2142917161555565e-05 0 -0.0036379071462914582 4.3372306171097431e-05 0 -0.0036267437404253577 4.3220616140235135e-05 0 -0.0036284268002130036 2.6707207073519637e-05 0 -0.003662407273264735 4.4477048980309522e-05 0 -0.0036379071462914582 4.3372306171097431e-05 0 -0.0036284268002130036 2.6707207073519637e-05 0 -0.0036379071462914582 4.3372306171097431e-05 0 -0.0036315896821140924 6.1785141551941818e-05 0 -0.0036267437404253577 4.3220616140235135e-05 0 -0.003662407273264735 4.4477048980309522e-05 0 -0.0036379071462914582 4.3372306171097431e-05 0 -0.0036315896821140924 6.1785141551941818e-05 0 -0.0036134265411606808 4.8065200463979748e-05 0 -0.003625438756965531 4.1143804159298683e-05 0 -0.0036397195221810649 4.0426356648117572e-06 0 -0.0036267437404253577 4.3220616140235135e-05 0 -0.0036456198451667444 4.7494349506360956e-05 0 -0.003593921467444547 8.0021038008612708e-05 0 -0.0036315896821140924 6.1785141551941818e-05 0 -0.0036267437404253577 4.3220616140235135e-05 0 -0.0037190445010908484 8.0192181186218214e-06 0 -0.0037168001160873617 1.7635867881264508e-05 0 -0.0036721873027693677 9.6330456035409638e-06 0 -0.0036397195221810649 4.0426356648117572e-06 0 -0.0036456198451667444 4.7494349506360956e-05 0 -0.0037170539404284852 6.7806667542866203e-06 0 -0.0036721873027693677 9.6330456035409638e-06 0 -0.0036456198451667444 4.7494349506360956e-05 0 -0.0037871194597640804 -6.6847761806345458e-06 0 -0.0037592009465939064 -3.1372041460818825e-05 0 -0.0037955572990453902 -4.3002063820458859e-05 0 -0.0037381901861949784 -1.2610545869421516e-05 0 -0.0037871194597640804 -6.6847761806345458e-06 0 -0.0037592009465939064 -3.1372041460818825e-05 0 -0.0037871194597640804 -6.6847761806345458e-06 0 -0.0037955572990453902 -4.3002063820458859e-05 0 -0.0038444781615284891 -3.5475561714016387e-05 0 -0.0036267437404253577 4.3220616140235135e-05 0 -0.0036456198451667444 4.7494349506360956e-05 0 -0.0036284268002130036 2.6707207073519637e-05 0 -0.0037168001160873617 1.7635867881264508e-05 0 -0.0037406011803041393 -4.6870699040598934e-06 0 -0.0037955572990453902 -4.3002063820458859e-05 0 -0.0038151803417183928 -7.0249792375836343e-05 0 -0.0038444781615284891 -3.5475561714016387e-05 0 -0.0037955572990453902 -4.3002063820458859e-05 0 -0.0037859072014132271 -7.9392525165105645e-05 0 -0.0038151803417183928 -7.0249792375836343e-05 0 -0.0037610235903998129 -5.9886536679413389e-05 0 -0.0037955572990453902 -4.3002063820458859e-05 0 -0.0037859072014132271 -7.9392525165105645e-05 0 -0.0037610235903998129 -5.9886536679413389e-05 0 -0.0037592009465939064 -3.1372041460818825e-05 0 -0.0037955572990453902 -4.3002063820458859e-05 0 -0.0037579755971292078 -9.4121611317171243e-05 0 -0.0037610235903998129 -5.9886536679413389e-05 0 -0.0037859072014132271 -7.9392525165105645e-05 0 -0.0038151803417183928 -7.0249792375836343e-05 0 -0.0038455258048674416 -0.00010667141215863865 0 -0.0038060295832583997 -9.8937120476385329e-05 0 -0.0037859072014132271 -7.9392525165105645e-05 0 -0.0038151803417183928 -7.0249792375836343e-05 0 -0.0038060295832583997 -9.8937120476385329e-05 0 -0.0038517925291309684 -7.2717890025655188e-05 0 -0.0038703853071719333 -9.2693523510958814e-05 0 -0.0038455258048674416 -0.00010667141215863865 0 -0.0038151803417183928 -7.0249792375836343e-05 0 -0.0038517925291309684 -7.2717890025655188e-05 0 -0.0038455258048674416 -0.00010667141215863865 0 -0.0038907256316467066 -0.00010785816295057642 0 -0.0038703853071719333 -9.2693523510958814e-05 0 -0.0038939502431418523 -6.6794856521498378e-05 0 -0.0038517925291309684 -7.2717890025655188e-05 0 -0.0038703853071719333 -9.2693523510958814e-05 0 -0.0038939502431418523 -6.6794856521498378e-05 0 -0.003662407273264735 4.4477048980309522e-05 0 -0.0036284268002130036 2.6707207073519637e-05 0 -0.0036820835792819679 -1.7063267049238672e-05 0 -0.0037406011803041393 -4.6870699040598934e-06 0 -0.0037752672219668951 -4.4145089591042713e-05 0 -0.0038517925291309684 -7.2717890025655188e-05 0 -0.0038444781615284891 -3.5475561714016387e-05 0 -0.0038939502431418523 -6.6794856521498378e-05 0 -0.0038151803417183928 -7.0249792375836343e-05 0 -0.0038517925291309684 -7.2717890025655188e-05 0 -0.0038444781615284891 -3.5475561714016387e-05 0 -0.0039256235070351158 -0.00011132937487453265 0 -0.0038455258048674416 -0.00010667141215863865 0 -0.0038714545792144133 -0.00017682062352244348 0 -0.0038455258048674416 -0.00010667141215863865 0 -0.0038118736013975289 -0.0001323264289568051 0 -0.0038714545792144133 -0.00017682062352244348 0 -0.0039256235070351158 -0.00011132937487453265 0 -0.0038714545792144133 -0.00017682062352244348 0 -0.0039611980479282438 -0.00018045283415321625 0 -0.0038784991828599521 -0.00011375815082686649 0 -0.0038907256316467066 -0.00010785816295057642 0 -0.0038703853071719333 -9.2693523510958814e-05 0 -0.0038784991828599521 -0.00011375815082686649 0 -0.0038703853071719333 -9.2693523510958814e-05 0 -0.0038455258048674416 -0.00010667141215863865 0 -0.0038701797168539005 -0.00011227944254248646 0 -0.0038628643234562953 -0.00010798243235693594 0 -0.0038455258048674416 -0.00010667141215863865 0 -0.0038060295832583997 -9.8937120476385329e-05 0 -0.0038118736013975289 -0.0001323264289568051 0 -0.0037579755971292078 -9.4121611317171243e-05 0 -0.0037859072014132271 -7.9392525165105645e-05 0 -0.0037792780091100114 -0.00011396583408951544 0 -0.0037859072014132271 -7.9392525165105645e-05 0 -0.0038060295832583997 -9.8937120476385329e-05 0 -0.0037792780091100114 -0.00011396583408951544 0 -0.0038060295832583997 -9.8937120476385329e-05 0 -0.0037792780091100114 -0.00011396583408951544 0 -0.0038118736013975289 -0.0001323264289568051 0 -0.0037792780091100114 -0.00011396583408951544 0 -0.0037789781419757269 -0.00014111084049601305 0 -0.0037594760486461243 -0.00012423739760190609 0 -0.0037789781419757269 -0.00014111084049601305 0 -0.003806386599837965 -0.00016829253106092292 0 -0.0037543645953216917 -0.00016320196197702215 0 -0.0037792780091100114 -0.00011396583408951544 0 -0.0037789781419757269 -0.00014111084049601305 0 -0.0038118736013975289 -0.0001323264289568051 0 -0.0037789781419757269 -0.00014111084049601305 0 -0.0038118736013975289 -0.0001323264289568051 0 -0.003806386599837965 -0.00016829253106092292 0 -0.0038118736013975289 -0.0001323264289568051 0 -0.003806386599837965 -0.00016829253106092292 0 -0.0038714545792144133 -0.00017682062352244348 0 -0.0043371741015743176 -8.4033260511481209e-06 0 -0.004364213065591668 -8.5511285431071521e-05 0 -0.0044201996836875585 -9.32011339007659e-06 0 -0.0040830359069616937 -8.6370581779728723e-05 0 -0.004096513991038225 -9.6714139833911495e-05 0 -0.0043371741015743176 -8.4033260511481209e-06 0 -0.0042949431879712174 -7.8507870297539952e-05 0 -0.0042509855806000096 -8.379609983383305e-06 0 -0.0040830359069616937 -8.6370581779728723e-05 0 -0.0039996867891960858 -0.00010596380447971359 0 -0.0043371741015743176 -8.4033260511481209e-06 0 -0.0042949431879712174 -7.8507870297539952e-05 0 -0.004364213065591668 -8.5511285431071521e-05 0 -0.0042949431879712174 -7.8507870297539952e-05 0 -0.0043095428161417561 -0.00010126311174413385 0 -0.004364213065591668 -8.5511285431071521e-05 0 -0.0043097155779562692 -0.00014557212945942743 0 -0.0043306220558504468 -0.00018099809042379674 0 -0.0042557553450471601 -0.00011054637829431384 0 -0.0044074936106415228 -0.00010929264732020004 0 -0.0044302013459694475 -9.9937161955516559e-05 0 -0.0043510174708016021 -0.00010041552394902775 0 -0.0044074936106415228 -0.00010929264732020004 0 -0.0043095428161417561 -0.00010126311174413385 0 -0.004364213065591668 -8.5511285431071521e-05 0 -0.0043386322398206723 -0.00014682109420650951 0 -0.004364213065591668 -8.5511285431071521e-05 0 -0.0044459402324955651 -7.7908497569412511e-05 0 -0.0043906375229124392 -0.00014754855748300537 0 -0.0047407307599013375 -2.9061675494211349e-05 0 -0.0047957976577905036 -7.5779644457650786e-05 0 -0.004364213065591668 -8.5511285431071521e-05 0 -0.0044201996836875585 -9.32011339007659e-06 0 -0.0044459402324955651 -7.7908497569412511e-05 0 -0.004096513991038225 -9.6714139833911495e-05 0 -0.0044660781268643195 -5.4972699133336071e-05 0 -0.0047407307599013375 -2.9061675494211349e-05 0 -0.0044660781268643195 -5.4972699133336071e-05 0 -0.0044201996836875585 -9.32011339007659e-06 0 -0.0044459402324955651 -7.7908497569412511e-05 0 -0.0045010636964642877 -1.0065493782523455e-05 0 -0.0049816232047187829 -8.7941019103720285e-06 0 -0.0049853443903704981 -9.0655832060477052e-06 0 -0.004981089878677963 -1.0597683527164779e-05 0 -0.0049816232047187829 -8.7941019103720285e-06 0 -0.0049822193260430844 -1.2173707667219105e-05 0 -0.0049853443903704981 -9.0655832060477052e-06 0 -0.0049961513110409585 -8.5050488378522116e-06 0 -0.0049946157044534773 -5.3653893026760482e-06 0 -0.0049889621570692651 -9.6350554017618813e-06 0 -0.0049822193260430844 -1.2173707667219105e-05 0 -0.0049853443903704981 -9.0655832060477052e-06 0 -0.0049889621570692651 -9.6350554017618813e-06 0 -0.005020260382265853 -1.2522531732965001e-05 0 -0.004978723350412927 -9.6062177599291403e-06 0 -0.0049816232047187829 -8.7941019103720285e-06 0 -0.0049822193260430844 -1.2173707667219105e-05 0 -0.0049759198489290474 -1.2706722453900325e-05 0 -0.005020260382265853 -1.2522531732965001e-05 0 -0.0047957976577905036 -7.5779644457650786e-05 0 -0.0049961513110409585 -8.5050488378522116e-06 0 -0.0049979298684228284 -4.2636762862805772e-06 0 -0.0049946157044534773 -5.3653893026760482e-06 0 -0.0049961513110409585 -8.5050488378522116e-06 0 -0.0049979298684228284 -4.2636762862805772e-06 0 -0.0049982367671269198 -7.8730958752561042e-06 0 -0.0049946157044534773 -5.3653893026760482e-06 0 -0.0049927814038715594 -4.4664693145784716e-06 0 -0.0049889621570692651 -9.6350554017618813e-06 0 -0.0049979298684228284 -4.2636762862805772e-06 0 -0.0049946157044534773 -5.3653893026760482e-06 0 -0.004996354091731753 -2.446605601920665e-06 0 -0.0049946157044534773 -5.3653893026760482e-06 0 -0.004996354091731753 -2.446605601920665e-06 0 -0.0049927814038715594 -4.4664693145784716e-06 0 -0.0049979298684228284 -4.2636762862805772e-06 0 -0.004996354091731753 -2.446605601920665e-06 0 -0.0049986047853981556 -1.2479070807886618e-06 0 -0.0049979298684228284 -4.2636762862805772e-06 0 -0.0049986047853981556 -1.2479070807886618e-06 0 -0.0049998032878871973 -1.3952410280874906e-06 0 -0.0049986047853981556 -1.2479070807886618e-06 0 -0.0049999985438010453 -6.2145398016481781e-10 0 -0.0049998032878871973 -1.3952410280874906e-06 0 -0.004996354091731753 -2.446605601920665e-06 0 -0.0049986047853981556 -1.2479070807886618e-06 0 -0.0049999961589073123 -6.1747965627453088e-10 0 -0.0049986047853981556 -1.2479070807886618e-06 0 -0.0049999985438010453 -6.2145398016481781e-10 0 -0.0049999961589073123 -6.1747965627453088e-10 0 -0.0050000008009846181 -7.8712441472503512e-10 0 -0.0049998032878871973 -1.3952410280874906e-06 0 -0.0050006507245641671 -1.0990554146534305e-06 0 -0.0049999985438010453 -6.2145398016481781e-10 0 -0.0050000008009846181 -7.8712441472503512e-10 0 -0.0049998032878871973 -1.3952410280874906e-06 0 -0.0049979298684228284 -4.2636762862805772e-06 0 -0.0049998032878871973 -1.3952410280874906e-06 0 -0.0050004598424674652 -3.7227217195193833e-06 0 -0.0049692570540099757 -1.5308604773256339e-05 0 -0.0049429615877100482 -3.777314439613862e-05 0 -0.0049774130823338758 -3.5130342953822273e-05 0 -0.0049998032878871973 -1.3952410280874906e-06 0 -0.0050006507245641671 -1.0990554146534305e-06 0 -0.0050004598424674652 -3.7227217195193833e-06 0 -0.004980690896038119 -1.2954752432592198e-05 0 -0.0049955596411156312 -5.1306811024661639e-06 0 -0.0049578923716590119 -5.2396605600817545e-05 0 -0.0049429615877100482 -3.777314439613862e-05 0 -0.0049774130823338758 -3.5130342953822273e-05 0 -0.0049578923716590119 -5.2396605600817545e-05 0 -0.0049429615877100482 -3.777314439613862e-05 0 -0.0049374751535534202 -5.9682632459800584e-05 0 -0.0049429615877100482 -3.777314439613862e-05 0 -0.0049150997378712208 -6.5896540126491311e-05 0 -0.0049374751535534202 -5.9682632459800584e-05 0 -0.0049955596411156312 -5.1306811024661639e-06 0 -0.0047957976577905036 -7.5779644457650786e-05 0 -0.0049979298684228284 -4.2636762862805772e-06 0 -0.0050004598424674652 -3.7227217195193833e-06 0 -0.0049982367671269198 -7.8730958752561042e-06 0 -0.004364213065591668 -8.5511285431071521e-05 0 -0.0043906375229124392 -0.00014754855748300537 0 -0.0043386322398206723 -0.00014682109420650951 0 -0.0047957976577905036 -7.5779644457650786e-05 0 -0.0046754856769970704 -7.6262483605368299e-05 0 -0.0049150997378712208 -6.5896540126491311e-05 0 -0.0049374751535534202 -5.9682632459800584e-05 0 -0.0049411614178154345 -6.711903322497444e-05 0 -0.0047508105502111408 -0.00011158383966792206 0 -0.0046754856769970704 -7.6262483605368299e-05 0 -0.0049578923716590119 -5.2396605600817545e-05 0 -0.0049414315592056866 -6.598851827788947e-05 0 -0.004983924017283663 -6.3442777044140316e-05 0 -0.0046754856769970704 -7.6262483605368299e-05 0 -0.0047776281824789615 -8.151907849861225e-05 0 -0.0045747957823893855 -7.4959218644091207e-05 0 -0.0045833539183230063 -8.8481877627512407e-05 0 -0.004554451513211941 -8.7288438011546489e-05 0 -0.0049578923716590119 -5.2396605600817545e-05 0 -0.0049374751535534202 -5.9682632459800584e-05 0 -0.0049414315592056866 -6.598851827788947e-05 0 -0.0044074936106415228 -0.00010929264732020004 0 -0.0046754856769970704 -7.6262483605368299e-05 0 -0.0047776281824789615 -8.151907849861225e-05 0 -0.0048199295852713034 -3.1047497556495932e-05 0 -0.004554451513211941 -8.7288438011546489e-05 0 -0.0045267515964645868 -8.6001973066978358e-05 0 -0.0045379201406624972 -7.0265686201913101e-05 0 -0.004983924017283663 -6.3442777044140316e-05 0 -0.0049774130823338758 -3.5130342953822273e-05 0 -0.0050090189884973869 -2.8400963594876128e-05 0 -0.004983924017283663 -6.3442777044140316e-05 0 -0.0050090189884973869 -2.8400963594876128e-05 0 -0.0050180307788793288 -6.2991198020152271e-05 0 -0.0049578923716590119 -5.2396605600817545e-05 0 -0.004983924017283663 -6.3442777044140316e-05 0 -0.0049774130823338758 -3.5130342953822273e-05 0 -0.0049692570540099757 -1.5308604773256339e-05 0 -0.0049774130823338758 -3.5130342953822273e-05 0 -0.0049925289156887084 -1.4360750728041687e-05 0 -0.0049774130823338758 -3.5130342953822273e-05 0 -0.0049925289156887084 -1.4360750728041687e-05 0 -0.0050090189884973869 -2.8400963594876128e-05 0 -0.0049999775881557889 1.5867163085393707e-08 0 -0.0050315773100459028 -1.9487201759887404e-05 0 -0.005000031026601467 1.8412889170959919e-09 0 -0.0049925289156887084 -1.4360750728041687e-05 0 -0.0050090189884973869 -2.8400963594876128e-05 0 -0.005000031026601467 1.8412889170959919e-09 0 -0.004999955044410735 -5.024597058224244e-10 0 -0.0049925289156887084 -1.4360750728041687e-05 0 -0.004980690896038119 -1.2954752432592198e-05 0 -0.0049999986024821287 2.5329161772439404e-09 0 -0.0050000008009846181 -7.8712441472503512e-10 0 -0.0050006507245641671 -1.0990554146534305e-06 0 -0.0050000008924722707 -1.3514162632973457e-10 0 -0.0049692570540099757 -1.5308604773256339e-05 0 -0.004999955044410735 -5.024597058224244e-10 0 -0.0049925289156887084 -1.4360750728041687e-05 0 -0.004999998461725128 -9.1409504094134403e-11 0 -0.004998935841117296 -4.3523538117920279e-07 0 -0.0049986153434708408 -4.4262109188490084e-07 0 -0.004999998461725128 -9.1409504094134403e-11 0 -0.0049986153434708408 -4.4262109188490084e-07 0 -0.0049991842367940759 -3.3566147043001455e-07 0 -0.0049999994920322853 -3.0307114136182857e-10 0 -0.004999998461725128 -9.1409504094134403e-11 0 -0.004998935841117296 -4.3523538117920279e-07 0 -0.0050315773100459028 -1.9487201759887404e-05 0 -0.0048199295852713034 -3.1047497556495932e-05 0 -0.004998935841117296 -4.3523538117920279e-07 0 -0.0049986153434708408 -4.4262109188490084e-07 0 -0.0049972021568390835 -8.439576744208772e-07 0 -0.0047451142886808665 -3.9131543635736232e-06 0 -0.0047547676722084001 -3.3325368535035724e-05 0 -0.004783514984785367 -4.8692081045353922e-06 0 -0.0048199295852713034 -3.1047497556495932e-05 0 -0.004923262116154307 -1.5673290304564171e-07 0 -0.0049986153434708408 -4.4262109188490084e-07 0 -0.0049972021568390835 -8.439576744208772e-07 0 -0.0049978223456517449 -8.8794832029039958e-07 0 -0.0048479214702496273 -2.8498796243970725e-05 0 -0.004923262116154307 -1.5673290304564171e-07 0 -0.0047739308689951051 -3.3875689403955449e-05 0 -0.0047547676722084001 -3.3325368535035724e-05 0 -0.004783514984785367 -4.8692081045353922e-06 0 -0.0046345490166761335 -5.0385340186257412e-05 0 -0.0045177580290725319 -5.6053380706247851e-05 0 -0.0047739308689951051 -3.3875689403955449e-05 0 -0.0047547676722084001 -3.3325368535035724e-05 0 -0.0047632585168280572 -6.268316476024063e-05 0 -0.0045185226121824797 -6.9013204311231045e-05 0 -0.0045102786648948054 -5.1962395523581187e-05 0 -0.0045212691118226194 -5.7906050311318003e-05 0 -0.0049121860300164674 -3.9637239390460932e-05 0 -0.0049036842358929659 -5.9770429005875568e-05 0 -0.0049170687742671696 -5.490566288218876e-05 0 -0.0048479214702496273 -2.8498796243970725e-05 0 -0.0045177580290725319 -5.6053380706247851e-05 0 -0.0045102786648948054 -5.1962395523581187e-05 0 -0.0045109125780406784 -4.8971353460301375e-05 0 -0.0045212691118226194 -5.7906050311318003e-05 0 -0.0045177580290725319 -5.6053380706247851e-05 0 -0.0043002511870059408 -0.00010382962279406831 0 -0.0043002511870059408 -0.00010382962279406831 0 -0.0044488311836599417 -5.633894706997831e-05 0 -0.004479942053683285 -0.00011221784691440974 0 -0.0045197566649474519 2.8033718071882816e-05 0 -0.0044289067889906235 2.8079842345463631e-05 0 -0.0049036842358929659 -5.9770429005875568e-05 0 -0.0049049684287625342 -6.3562938615429099e-05 0 -0.0049170687742671696 -5.490566288218876e-05 0 -0.0045177580290725319 -5.6053380706247851e-05 0 -0.0044488311836599417 -5.633894706997831e-05 0 -0.0045212691118226194 -5.7906050311318003e-05 0 -0.0045379201406624972 -7.0265686201913101e-05 0 -0.0045362055756921872 -5.6908005832746325e-05 0 -0.0045109125780406784 -4.8971353460301375e-05 0 -0.0045281249608081428 -4.8872610303038652e-05 0 -0.0045212691118226194 -5.7906050311318003e-05 0 -0.0043002511870059408 -0.00010382962279406831 0 -0.004350751915065963 -7.4039587076882673e-05 0 -0.0045281249608081428 -4.8872610303038652e-05 0 -0.0045212691118226194 -5.7906050311318003e-05 0 -0.0045362055756921872 -5.6908005832746325e-05 0 -0.0045267515964645868 -8.6001973066978358e-05 0 -0.0045185226121824797 -6.9013204311231045e-05 0 -0.0045379201406624972 -7.0265686201913101e-05 0 -0.0045185226121824797 -6.9013204311231045e-05 0 -0.0045212691118226194 -5.7906050311318003e-05 0 -0.0045379201406624972 -7.0265686201913101e-05 0 -0.0048199295852713034 -3.1047497556495932e-05 0 -0.0046345490166761335 -5.0385340186257412e-05 0 -0.0045379201406624972 -7.0265686201913101e-05 0 -0.0045575793232527475 -7.3180281132065111e-05 0 -0.0045473440679772558 -6.183752917250517e-05 0 -0.004554451513211941 -8.7288438011546489e-05 0 -0.0045379201406624972 -7.0265686201913101e-05 0 -0.0045575793232527475 -7.3180281132065111e-05 0 -0.0045747957823893855 -7.4959218644091207e-05 0 -0.0045575793232527475 -7.3180281132065111e-05 0 -0.0045598330212824724 -6.1646175406429886e-05 0 -0.0045747957823893855 -7.4959218644091207e-05 0 -0.004554451513211941 -8.7288438011546489e-05 0 -0.0045575793232527475 -7.3180281132065111e-05 0 -0.0045575793232527475 -7.3180281132065111e-05 0 -0.0045598330212824724 -6.1646175406429886e-05 0 -0.0045473440679772558 -6.183752917250517e-05 0 -0.0043097155779562692 -0.00014557212945942743 0 -0.0042557553450471601 -0.00011054637829431384 0 -0.0042467948254340622 -3.8852433693079611e-05 0 -0.0043510174708016021 -0.00010041552394902775 0 -0.0039996867891960858 -0.00010596380447971359 0 -0.0045598330212824724 -6.1646175406429886e-05 0 -0.0045473440679772558 -6.183752917250517e-05 0 -0.0045445649413535117 -4.8546355882387401e-05 0 -0.0042557553450471601 -0.00011054637829431384 0 -0.0042467948254340622 -3.8852433693079611e-05 0 -0.0041829093822149162 -3.8952605873299856e-05 0 -0.0039996867891960858 -0.00010596380447971359 0 -0.0041737138817689425 -9.2930664677752568e-05 0 -0.0044302013459694475 -9.9937161955516559e-05 0 -0.0041737138817689425 -9.2930664677752568e-05 0 -0.0045281249608081428 -4.8872610303038652e-05 0 -0.0045362055756921872 -5.6908005832746325e-05 0 -0.0045445649413535117 -4.8546355882387401e-05 0 -0.004350751915065963 -7.4039587076882673e-05 0 -0.0041737138817689425 -9.2930664677752568e-05 0 -0.0045379201406624972 -7.0265686201913101e-05 0 -0.0045362055756921872 -5.6908005832746325e-05 0 -0.0045473440679772558 -6.183752917250517e-05 0 -0.0045362055756921872 -5.6908005832746325e-05 0 -0.0045473440679772558 -6.183752917250517e-05 0 -0.0045445649413535117 -4.8546355882387401e-05 0 -0.0041737138817689425 -9.2930664677752568e-05 0 -0.0039124459112037449 -0.00012698580682841948 0 -0.0041164463568594345 -9.9185187381989475e-05 0 -0.0041282760662812263 -9.9493992608363252e-05 0 -0.004117808716433571 -9.0180394602058217e-05 0 -0.0037760358050488254 -0.00021881849780074414 0 -0.0037718942471733764 -0.00018512464941158646 0 -0.0037250733986074437 -0.00016934663214618977 0 -0.0037718942471733764 -0.00018512464941158646 0 -0.0037662190606534691 -0.00013451933863392365 0 -0.0037250733986074437 -0.00016934663214618977 0 -0.0038213031419073173 -0.00021803364448461069 0 -0.0037718942471733764 -0.00018512464941158646 0 -0.0037662190606534691 -0.00013451933863392365 0 -0.0037543645953216917 -0.00016320196197702215 0 -0.0037594760486461243 -0.00012423739760190609 0 -0.0037274167428841504 -0.00011060946149715547 0 -0.0039996867891960858 -0.00010596380447971359 0 -0.0037187368489276268 -0.00013060224518585776 0 -0.0037789781419757269 -0.00014111084049601305 0 -0.0037543645953216917 -0.00016320196197702215 0 -0.0037594760486461243 -0.00012423739760190609 0 -0.0038213031419073173 -0.00021803364448461069 0 -0.0037760358050488254 -0.00021881849780074414 0 -0.0037718942471733764 -0.00018512464941158646 0 -0.0037579755971292078 -9.4121611317171243e-05 0 -0.0037594760486461243 -0.00012423739760190609 0 -0.0037274167428841504 -0.00011060946149715547 0 -0.0037579755971292078 -9.4121611317171243e-05 0 -0.0037792780091100114 -0.00011396583408951544 0 -0.0037594760486461243 -0.00012423739760190609 0 -0.0037662190606534691 -0.00013451933863392365 0 -0.003715245053308979 -0.00011303861832723045 0 -0.0037250733986074437 -0.00016934663214618977 0 -0.003715245053308979 -0.00011303861832723045 0 -0.0036803710617093629 -0.00012441434897223999 0 -0.0037250733986074437 -0.00016934663214618977 0 -0.0038080654677901042 -0.00010067085258760453 0 -0.0039124459112037449 -0.00012698580682841948 0 -0.0036968968870318632 -7.9888546463319872e-05 0 -0.0037093457342767468 -8.9201323203881276e-05 0 -0.0036847310122549918 -9.7671259660572389e-05 0 -0.0036854596299973211 -7.2529517637806001e-05 0 -0.0036968968870318632 -7.9888546463319872e-05 0 -0.0036847310122549918 -9.7671259660572389e-05 0 -0.0037228784121198523 -6.0191164819976989e-05 0 -0.0038080654677901042 -0.00010067085258760453 0 -0.0037075749341688017 -0.00013082273464034728 0 -0.0037093457342767468 -8.9201323203881276e-05 0 -0.0036847310122549918 -9.7671259660572389e-05 0 -0.0044488311836599417 -5.633894706997831e-05 0 -0.0041965112444311775 -0.00014587206690477815 0 -0.0043002511870059408 -0.00010382962279406831 0 -0.0038080654677901042 -0.00010067085258760453 0 -0.0037075749341688017 -0.00013082273464034728 0 -0.0037045476873639425 -0.00013088426587984313 0 -0.0036847310122549918 -9.7671259660572389e-05 0 -0.0045948078832108146 -7.354519551734678e-05 0 -0.0046668607079711566 -0.0001118187915455455 0 -0.0046464449902255348 -0.00014925407808263994 0 -0.0041053826361432183 -9.9162889030162852e-05 0 -0.0041164463568594345 -9.9185187381989475e-05 0 -0.004117808716433571 -9.0180394602058217e-05 0 -0.0041053826361432183 -9.9162889030162852e-05 0 -0.0041072819360281681 -8.1252874084717421e-05 0 -0.004117808716433571 -9.0180394602058217e-05 0 -0.0046668607079711566 -0.0001118187915455455 0 -0.0049110452436987341 -0.00014287886733262053 0 -0.0047407788225318952 -5.006276425422222e-05 0 -0.0048986832834266737 -0.00017016210083650667 0 -0.0042686557374086139 3.0964331227240728e-05 0 -0.0046668607079711566 -0.0001118187915455455 0 -0.0046677026422714749 -0.00013540515836912614 0 -0.0046846930372884234 -0.00013052674711693652 0 -0.0049110452436987341 -0.00014287886733262053 0 -0.0049297035441009038 -7.6132630822517007e-05 0 -0.0047407788225318952 -5.006276425422222e-05 0 -0.0045948078832108146 -7.354519551734678e-05 0 -0.0046668607079711566 -0.0001118187915455455 0 -0.0047407788225318952 -5.006276425422222e-05 0 -0.0046668607079711566 -0.0001118187915455455 0 -0.0046677026422714749 -0.00013540515836912614 0 -0.0046464449902255348 -0.00014925407808263994 0 -0.0046475569509102808 -0.00017213991901878485 0 -0.0046464449902255348 -0.00014925407808263994 0 -0.0046720995671022218 -0.00014994069956539979 0 -0.0046677026422714749 -0.00013540515836912614 0 -0.0046464449902255348 -0.00014925407808263994 0 -0.0046720995671022218 -0.00014994069956539979 0 -0.0046677026422714749 -0.00013540515836912614 0 -0.0046720995671022218 -0.00014994069956539979 0 -0.0046846930372884234 -0.00013052674711693652 0 -0.0029537231349027232 0.00028678784420291714 0 -0.0031890664419158225 0.00024837057806677043 0 -0.0031403373978979516 0.00052066639003654888 0 -0.0038131154306726678 8.3954440680696337e-05 0 -0.0042686557374086139 3.0964331227240728e-05 0 -0.0031890664419158225 0.00024837057806677043 0 -0.0035525015609104995 0.00044871929543642786 0 -0.0031403373978979516 0.00052066639003654888 0 -0.0030014524301839895 0.00019804031707399436 0 -0.0035127095092655986 0.0002820100642768851 0 -0.0030965569333571783 0.00013915096275949606 0 -0.002974807293345779 9.9684528652310163e-05 0 -0.0030280178876302757 0.00024848388295638403 0 -0.002974807293345779 9.9684528652310163e-05 0 -0.0028991755046492637 0.00014679896282975428 0 -0.0030280178876302757 0.00024848388295638403 0 -0.0042358495231026036 6.6257197978489816e-05 0 -0.0042390303395156616 5.708434332325528e-05 0 -0.0042531527599317448 6.2993484821201385e-05 0 -0.0035127095092655986 0.0002820100642768851 0 -0.0042686557374086139 3.0964331227240728e-05 0 -0.0042390303395156616 5.708434332325528e-05 0 -0.0042531527599317448 6.2993484821201385e-05 0 -0.0042459779773830614 4.8782555145444542e-05 0 -0.0049110452436987341 -0.00014287886733262053 0 -0.0049297035441009038 -7.6132630822517007e-05 0 -0.00498618901649657 -3.5428731984751465e-05 0 -0.0042686557374086139 3.0964331227240728e-05 0 -0.0046452233899388073 6.1096866985506408e-06 0 -0.0049297035441009038 -7.6132630822517007e-05 0 -0.0049497547736732251 -4.6347701376382789e-05 0 -0.004935596529898818 -5.6670809785655386e-05 0 -0.0049297035441009038 -7.6132630822517007e-05 0 -0.0049497547736732251 -4.6347701376382789e-05 0 -0.00498618901649657 -3.5428731984751465e-05 0 -0.0042390303395156616 5.708434332325528e-05 0 -0.0042459779773830614 4.8782555145444542e-05 0 -0.0042337473578974482 5.268749247273282e-05 0 -0.00498618901649657 -3.5428731984751465e-05 0 -0.0049815348013850401 -2.1937272058528721e-05 0 -0.0049909641643787845 -1.8134923315395545e-05 0 -0.0046452233899388073 6.1096866985506408e-06 0 -0.0047444879956032339 -2.7822119589803703e-05 0 -0.00498618901649657 -3.5428731984751465e-05 0 -0.0049815348013850401 -2.1937272058528721e-05 0 -0.0049659995322663625 -2.9090545726842565e-05 0 -0.0049497547736732251 -4.6347701376382789e-05 0 -0.0049659995322663625 -2.9090545726842565e-05 0 -0.004944931870387941 -4.1407384899278457e-05 0 -0.0049497547736732251 -4.6347701376382789e-05 0 -0.00498618901649657 -3.5428731984751465e-05 0 -0.0049659995322663625 -2.9090545726842565e-05 0 -0.0049815348013850401 -2.1937272058528721e-05 0 -0.0049659995322663625 -2.9090545726842565e-05 0 -0.0049685935916282519 -1.7898858870949367e-05 0 -0.0049659995322663625 -2.9090545726842565e-05 0 -0.004953853967171384 -2.588341109165896e-05 0 -0.0049685935916282519 -1.7898858870949367e-05 0 -0.0049659995322663625 -2.9090545726842565e-05 0 -0.004953853967171384 -2.588341109165896e-05 0 -0.004944931870387941 -4.1407384899278457e-05 0 -0.004953853967171384 -2.588341109165896e-05 0 -0.0049378294378788186 -3.2356823829886884e-05 0 -0.0049522133783735543 -1.5533041774990827e-05 0 -0.004953853967171384 -2.588341109165896e-05 0 -0.004944931870387941 -4.1407384899278457e-05 0 -0.0049378294378788186 -3.2356823829886884e-05 0 -0.004944931870387941 -4.1407384899278457e-05 0 -0.0049319826050877886 -5.0195613689502247e-05 0 -0.0049378294378788186 -3.2356823829886884e-05 0 -0.0048968713125547274 -7.0220857965750313e-05 0 -0.0049000811895976489 -6.0895438330701772e-05 0 -0.0049297035441009038 -7.6132630822517007e-05 0 -0.004935596529898818 -5.6670809785655386e-05 0 -0.0049308719962268526 -6.0996720500169025e-05 0 -0.0049497547736732251 -4.6347701376382789e-05 0 -0.004944931870387941 -4.1407384899278457e-05 0 -0.004935596529898818 -5.6670809785655386e-05 0 -0.004944931870387941 -4.1407384899278457e-05 0 -0.004935596529898818 -5.6670809785655386e-05 0 -0.0049319826050877886 -5.0195613689502247e-05 0 -0.004935596529898818 -5.6670809785655386e-05 0 -0.0049308719962268526 -6.0996720500169025e-05 0 -0.0049319826050877886 -5.0195613689502247e-05 0 -0.0049121860300164674 -3.9637239390460932e-05 0 -0.0049170687742671696 -5.490566288218876e-05 0 -0.0049319826050877886 -5.0195613689502247e-05 0 -0.0044488311836599417 -5.633894706997831e-05 0 -0.0049000811895976489 -6.0895438330701772e-05 0 -0.0049049684287625342 -6.3562938615429099e-05 0 -0.0049170687742671696 -5.490566288218876e-05 0 -0.0049308719962268526 -6.0996720500169025e-05 0 -0.0049170687742671696 -5.490566288218876e-05 0 -0.0049308719962268526 -6.0996720500169025e-05 0 -0.0049319826050877886 -5.0195613689502247e-05 0 -0.0049121860300164674 -3.9637239390460932e-05 0 -0.0049378294378788186 -3.2356823829886884e-05 0 -0.0049217271645791037 -1.35922477965789e-05 0 -0.0049121860300164674 -3.9637239390460932e-05 0 -0.0049319826050877886 -5.0195613689502247e-05 0 -0.0049378294378788186 -3.2356823829886884e-05 0 -0.004923262116154307 -1.5673290304564171e-07 0 -0.0049532896364929127 -1.333205602371831e-05 0 -0.0049378294378788186 -3.2356823829886884e-05 0 -0.0049217271645791037 -1.35922477965789e-05 0 -0.0049522133783735543 -1.5533041774990827e-05 0 -0.004953853967171384 -2.588341109165896e-05 0 -0.0049522133783735543 -1.5533041774990827e-05 0 -0.0049685935916282519 -1.7898858870949367e-05 0 -0.0049522133783735543 -1.5533041774990827e-05 0 -0.0049753394214049973 -7.6981895248029152e-06 0 -0.0049685935916282519 -1.7898858870949367e-05 0 -0.0049522133783735543 -1.5533041774990827e-05 0 -0.0049698939907783053 -3.7032685507401508e-06 0 -0.0049753394214049973 -7.6981895248029152e-06 0 -0.0049986153434708408 -4.4262109188490084e-07 0 -0.0049978223456517449 -8.8794832029039958e-07 0 -0.0049991842367940759 -3.3566147043001455e-07 0 -0.004923262116154307 -1.5673290304564171e-07 0 -0.0049916977711372545 -3.9575585570403411e-06 0 -0.0049506617309037441 -1.4831355827542191e-05 0 -0.0049522133783735543 -1.5533041774990827e-05 0 -0.0049698939907783053 -3.7032685507401508e-06 0 -0.0049698939907783053 -3.7032685507401508e-06 0 -0.0049880942259902649 -9.5097988002335338e-07 0 -0.0049753394214049973 -7.6981895248029152e-06 0 -0.0049698939907783053 -3.7032685507401508e-06 0 -0.0049999627458966901 6.7891624481712791e-09 0 -0.0049880942259902649 -9.5097988002335338e-07 0 -0.0049999627458966901 6.7891624481712791e-09 0 -0.0049999935615711788 -1.1028423852778151e-09 0 -0.0049880942259902649 -9.5097988002335338e-07 0 -0.0049916977711372545 -3.9575585570403411e-06 0 -0.0049999886078691182 -5.1097891100830559e-09 0 -0.004999998461725128 -9.1409504094134403e-11 0 -0.0049991842367940759 -3.3566147043001455e-07 0 -0.0050000000510997565 -1.6887201889684041e-10 0 -0.0049949010812968802 -6.8010869546631678e-07 0 -0.0049943228212182 -2.3691586977894513e-06 0 -0.0049999922841765321 2.1819752516232129e-10 0 -0.0049949010812968802 -6.8010869546631678e-07 0 -0.0049999935615711788 -1.1028423852778151e-09 0 -0.0049999922841765321 2.1819752516232129e-10 0 -0.0049949010812968802 -6.8010869546631678e-07 0 -0.0049999935615711788 -1.1028423852778151e-09 0 -0.0049880942259902649 -9.5097988002335338e-07 0 -0.0049949010812968802 -6.8010869546631678e-07 0 -0.0049880942259902649 -9.5097988002335338e-07 0 -0.0049885265106806879 -3.8709725405008809e-06 0 -0.0049880942259902649 -9.5097988002335338e-07 0 -0.0049885265106806879 -3.8709725405008809e-06 0 -0.0049753394214049973 -7.6981895248029152e-06 0 -0.0049949010812968802 -6.8010869546631678e-07 0 -0.0049885265106806879 -3.8709725405008809e-06 0 -0.0049943228212182 -2.3691586977894513e-06 0 -0.0049885265106806879 -3.8709725405008809e-06 0 -0.0049839409560410424 -1.1053064675180116e-05 0 -0.0049915447404551786 -6.579560312409928e-06 0 -0.0049885265106806879 -3.8709725405008809e-06 0 -0.0049915447404551786 -6.579560312409928e-06 0 -0.0049943228212182 -2.3691586977894513e-06 0 -0.0049885265106806879 -3.8709725405008809e-06 0 -0.0049753394214049973 -7.6981895248029152e-06 0 -0.0049839409560410424 -1.1053064675180116e-05 0 -0.0049753394214049973 -7.6981895248029152e-06 0 -0.0049685935916282519 -1.7898858870949367e-05 0 -0.0049839409560410424 -1.1053064675180116e-05 0 -0.0049815348013850401 -2.1937272058528721e-05 0 -0.0049685935916282519 -1.7898858870949367e-05 0 -0.0049839409560410424 -1.1053064675180116e-05 0 -0.0049839409560410424 -1.1053064675180116e-05 0 -0.0049911832812866274 -1.326698972464763e-05 0 -0.0049915447404551786 -6.579560312409928e-06 0 -0.0050608218351685151 -3.7217571593163758e-05 0 -0.0047444879956032339 -2.7822119589803703e-05 0 -0.0049815348013850401 -2.1937272058528721e-05 0 -0.0049839409560410424 -1.1053064675180116e-05 0 -0.0049909641643787845 -1.8134923315395545e-05 0 -0.0049911832812866274 -1.326698972464763e-05 0 -0.0049915447404551786 -6.579560312409928e-06 0 -0.0049945126401585273 -7.1559664047777197e-06 0 -0.0049657966697547991 -1.8148105810270068e-05 0 -0.0049764229486869149 -8.6890877372658568e-06 0 -0.0049783929684062951 -2.5924822728424672e-05 0 -0.0047444879956032339 -2.7822119589803703e-05 0 -0.0049963977763765079 1.3516741565408496e-05 0 -0.0046699895457519907 -2.4539393089833114e-05 0 -0.0045394879053531458 -7.1702927305398805e-06 0 -0.0046066195149902589 3.1413867831527579e-05 0 -0.0048527156866989387 -2.4052717978452902e-05 0 -0.0045380536544384689 2.4904366134158108e-05 0 -0.0049849886960275187 -9.1842144701999246e-06 0 -0.0049764229486869149 -8.6890877372658568e-06 0 -0.0049783929684062951 -2.5924822728424672e-05 0 -0.0049849886960275187 -9.1842144701999246e-06 0 -0.00499179422348788 -4.7046085449185762e-06 0 -0.004996280144478618 -2.0799949407076667e-06 0 -0.0048527156866989387 -2.4052717978452902e-05 0 -0.0049023100042964278 -2.0679629813240799e-05 0 -0.0046699895457519907 -2.4539393089833114e-05 0 -0.0048088738736294205 -1.7990780931463497e-05 0 -0.0046984944933219502 -1.7755219580447461e-05 0 -0.0049849886960275187 -9.1842144701999246e-06 0 -0.00499179422348788 -4.7046085449185762e-06 0 -0.0049764229486869149 -8.6890877372658568e-06 0 -0.00499179422348788 -4.7046085449185762e-06 0 -0.0049945126401585273 -7.1559664047777197e-06 0 -0.0049942021730459895 -4.5094052268590783e-06 0 -0.0049849678229644603 -1.1485342246925283e-05 0 -0.0049963977763765079 1.3516741565408496e-05 0 -0.0049915447404551786 -6.579560312409928e-06 0 -0.0049942021730459895 -4.5094052268590783e-06 0 -0.0049943228212182 -2.3691586977894513e-06 0 -0.0049915447404551786 -6.579560312409928e-06 0 -0.0049945126401585273 -7.1559664047777197e-06 0 -0.0049942021730459895 -4.5094052268590783e-06 0 -0.0049942021730459895 -4.5094052268590783e-06 0 -0.0049943228212182 -2.3691586977894513e-06 0 -0.0049962902201230825 -2.0025375426396775e-06 0 -0.00499179422348788 -4.7046085449185762e-06 0 -0.0049962902201230825 -2.0025375426396775e-06 0 -0.004996280144478618 -2.0799949407076667e-06 0 -0.00499179422348788 -4.7046085449185762e-06 0 -0.0049942021730459895 -4.5094052268590783e-06 0 -0.0049962902201230825 -2.0025375426396775e-06 0 -0.0049023100042964278 -2.0679629813240799e-05 0 -0.0049999556474788079 -3.372297643380526e-08 0 -0.0049962902201230825 -2.0025375426396775e-06 0 -0.004996280144478618 -2.0799949407076667e-06 0 -0.004999999149244214 -1.5289191338163896e-09 0 -0.0049943228212182 -2.3691586977894513e-06 0 -0.0049962902201230825 -2.0025375426396775e-06 0 -0.0049999922841765321 2.1819752516232129e-10 0 -0.0049962902201230825 -2.0025375426396775e-06 0 -0.004999999149244214 -1.5289191338163896e-09 0 -0.0049999922841765321 2.1819752516232129e-10 0 -0.0049998619390034605 1.5090833132168264e-08 0 -0.0048615578521930495 -1.332688397548202e-05 0 -0.0045800708233011186 -1.4479082566550327e-07 0 -0.0049996027246137975 -3.107919565555464e-08 0 -0.0049998619390034605 1.5090833132168264e-08 0 -0.0048615578521930495 -1.332688397548202e-05 0 -0.0048088738736294205 -1.7990780931463497e-05 0 -0.0049996027246137975 -3.107919565555464e-08 0 -0.0048615578521930495 -1.332688397548202e-05 0 -0.0048088738736294205 -1.7990780931463497e-05 0 -0.0048615578521930495 -1.332688397548202e-05 0 -0.0046984944933219502 -1.7755219580447461e-05 0 -0.0045800708233011186 -1.4479082566550327e-07 0 -0.0046984944933219502 -1.7755219580447461e-05 0 -0.0045394879053531458 -7.1702927305398805e-06 0 -0.0048615578521930495 -1.332688397548202e-05 0 -0.0045800708233011186 -1.4479082566550327e-07 0 -0.0046984944933219502 -1.7755219580447461e-05 0 -0.0046699895457519907 -2.4539393089833114e-05 0 -0.0046984944933219502 -1.7755219580447461e-05 0 -0.0045394879053531458 -7.1702927305398805e-06 0 -0.0045800708233011186 -1.4479082566550327e-07 0 -0.0045394879053531458 -7.1702927305398805e-06 0 -0.0041521957732720497 7.035048668371847e-06 0 -0.0045394879053531458 -7.1702927305398805e-06 0 -0.0041521957732720497 7.035048668371847e-06 0 -0.0044622421751142451 5.4064893816624355e-05 0 -0.0045800708233011186 -1.4479082566550327e-07 0 -0.0041521957732720497 7.035048668371847e-06 0 -0.0040014416882161183 2.93339352373046e-07 0 -0.0041966507358621513 1.6831685617804126e-05 0 -0.0043471565510497202 -2.0694443741822343e-06 0 -0.0039448321036745781 0.00010664778745008326 0 -0.0040008243324051607 1.2959858947973586e-07 0 -0.0041521957732720497 7.035048668371847e-06 0 -0.0042582069823382867 -2.2492988878417056e-06 0 -0.0040014416882161183 2.93339352373046e-07 0 -0.0041521957732720497 7.035048668371847e-06 0 -0.004253890571272032 -3.7099321111907957e-05 0 -0.0042582069823382867 -2.2492988878417056e-06 0 -0.0042971995574591498 2.5879216246209389e-05 0 -0.0042582069823382867 -2.2492988878417056e-06 0 -0.0040014416882161183 2.93339352373046e-07 0 -0.0042793543333000924 9.8715783570185312e-06 0 -0.0042582069823382867 -2.2492988878417056e-06 0 -0.0042995940237443974 -3.1954123568304344e-05 0 -0.004253890571272032 -3.7099321111907957e-05 0 -0.0042582069823382867 -2.2492988878417056e-06 0 -0.0042995940237443974 -3.1954123568304344e-05 0 -0.0039448321036745781 0.00010664778745008326 0 -0.0040851792900854422 0.00012825468713458245 0 -0.004253890571272032 -3.7099321111907957e-05 0 -0.0042995940237443974 -3.1954123568304344e-05 0 -0.0043416050395559775 -8.3542896994584086e-05 0 -0.0043471565510497202 -2.0694443741822343e-06 0 -0.0045380536544384689 2.4904366134158108e-05 0 -0.0045394879053531458 -7.1702927305398805e-06 0 -0.0044622421751142451 5.4064893816624355e-05 0 -0.0046066195149902589 3.1413867831527579e-05 0 -0.0042385342245848537 4.2430397448030032e-05 0 -0.0042371930874722076 4.3382105423242604e-05 0 -0.0042384656183219981 4.1698484095859481e-05 0 -0.0042373072639721203 4.1248907122275166e-05 0 -0.0042035054517652656 4.1733357338626644e-06 0 -0.0042995940237443974 -3.1954123568304344e-05 0 -0.0043416050395559775 -8.3542896994584086e-05 0 -0.0043437224196259949 -2.2041119840347204e-05 0 -0.0045380536544384689 2.4904366134158108e-05 0 -0.0042035054517652656 4.1733357338626644e-06 0 -0.0042459779773830614 4.8782555145444542e-05 0 -0.0042412551197029457 3.8537694198688863e-05 0 -0.0042371930874722076 4.3382105423242604e-05 0 -0.0042412551197029457 3.8537694198688863e-05 0 -0.0042385342245848537 4.2430397448030032e-05 0 -0.0042371930874722076 4.3382105423242604e-05 0 -0.0047444879956032339 -2.7822119589803703e-05 0 -0.0045380536544384689 2.4904366134158108e-05 0 -0.0042371930874722076 4.3382105423242604e-05 0 -0.0042337473578974482 5.268749247273282e-05 0 -0.0042222739237323548 4.761720087051647e-05 0 -0.0042459779773830614 4.8782555145444542e-05 0 -0.0042371930874722076 4.3382105423242604e-05 0 -0.0042337473578974482 5.268749247273282e-05 0 -0.0042337473578974482 5.268749247273282e-05 0 -0.0042222739237323548 4.761720087051647e-05 0 -0.0042213776697431682 5.7320890451768913e-05 0 -0.0042793543333000924 9.8715783570185312e-06 0 -0.0042995940237443974 -3.1954123568304344e-05 0 -0.0043437224196259949 -2.2041119840347204e-05 0 -0.0039448321036745781 0.00010664778745008326 0 -0.0042035054517652656 4.1733357338626644e-06 0 -0.0042035054517652656 4.1733357338626644e-06 0 -0.0037999555711947762 0.00014468658139703006 0 -0.0039448321036745781 0.00010664778745008326 0 -0.0037999555711947762 0.00014468658139703006 0 -0.0039550587547501539 9.1704441425002266e-05 0 -0.0039915480909707814 7.3726451814363407e-05 0 -0.003992572980996742 0.0001133173612920938 0 -0.0033829120386011068 0.00023092568746622125 0 -0.0034659671199484604 9.5662517928369307e-05 0 -0.0034032486322448066 3.5003640226561595e-05 0 -0.0033829120386011068 0.00023092568746622125 0 -0.0034659671199484604 9.5662517928369307e-05 0 -0.00357827822683324 0.00011168784175585898 0 -0.0037999555711947762 0.00014468658139703006 0 -0.0033780817589430003 0.00016512915369421965 0 -0.0036350750879968288 0.00021127334883474415 0 -0.003626946964165849 0.00020728799992407085 0 -0.0036326273949805758 0.00020037736669385487 0 -0.0037999555711947762 0.00014468658139703006 0 -0.0039724326924704704 0.00017649480533776571 0 -0.0036187500474556917 0.00020323447325636384 0 -0.003626946964165849 0.00020728799992407085 0 -0.0036326273949805758 0.00020037736669385487 0 -0.0042390303395156616 5.708434332325528e-05 0 -0.0042337473578974482 5.268749247273282e-05 0 -0.0042301404636854549 6.1845335803866351e-05 0 -0.0042337473578974482 5.268749247273282e-05 0 -0.0042213776697431682 5.7320890451768913e-05 0 -0.0042301404636854549 6.1845335803866351e-05 0 -0.0042358495231026036 6.6257197978489816e-05 0 -0.0042390303395156616 5.708434332325528e-05 0 -0.0042301404636854549 6.1845335803866351e-05 0 -0.0035127095092655986 0.0002820100642768851 0 -0.0039724326924704704 0.00017649480533776571 0 -0.0035127095092655986 0.0002820100642768851 0 -0.0033780817589430003 0.00016512915369421965 0 -0.0030965569333571783 0.00013915096275949606 0 -0.0030280178876302757 0.00024848388295638403 0 -0.0032162579432157071 0.00023399908573450029 0 -0.0032225699653372205 2.1396235497487376e-05 0 -0.0033925763082435965 7.3075961261993047e-05 0 -0.0034792991606194183 4.8696206451325107e-05 0 -0.0034659671199484604 9.5662517928369307e-05 0 -0.0034032486322448066 3.5003640226561595e-05 0 -0.0034792991606194183 4.8696206451325107e-05 0 -0.0033780817589430003 0.00016512915369421965 0 -0.0034700750921466878 7.3395876121374747e-05 0 -0.0034737550654129075 -5.1467685400911537e-08 0 -0.0034792991606194183 4.8696206451325107e-05 0 -0.0036724097984644336 2.1053910887680252e-05 0 -0.0034792991606194183 4.8696206451325107e-05 0 -0.0036724097984644336 2.1053910887680252e-05 0 -0.00357827822683324 0.00011168784175585898 0 -0.0037250840084954466 -1.4074161173396559e-07 0 -0.0036724097984644336 2.1053910887680252e-05 0 -0.0040003251189911901 5.8912379188056509e-07 0 -0.0036724097984644336 2.1053910887680252e-05 0 -0.0040003251189911901 5.8912379188056509e-07 0 -0.00357827822683324 0.00011168784175585898 0 -0.0035415554655459612 0.00034929535466443162 0 -0.0033829120386011068 0.00023092568746622125 0 -0.00357827822683324 0.00011168784175585898 0 -0.0035415554655459612 0.00034929535466443162 0 -0.0040003251189911901 5.8912379188056509e-07 0 -0.00357827822683324 0.00011168784175585898 0 -0.0034659671199484604 9.5662517928369307e-05 0 -0.0034792991606194183 4.8696206451325107e-05 0 -0.00357827822683324 0.00011168784175585898 0 -0.0042274292827580483 0.00055544946476449562 0 -0.0042110468101495633 0.00047232789938296554 0 -0.0042596351460255965 0.00049661820617696308 0 -0.0042274292827580483 0.00055544946476449562 0 -0.0041629875385694017 0.00051414113770435288 0 -0.0042110468101495633 0.00047232789938296554 0 -0.0042274292827580483 0.00055544946476449562 0 -0.0041629875385694017 0.00051414113770435288 0 -0.0042267431100763159 0.00060838078898986286 0 -0.0042198139000203805 0.00057952799519879732 0 -0.0042243608934352415 0.00060095139117701197 0 -0.0041629875385694017 0.00051414113770435288 0 -0.0042110468101495633 0.00047232789938296554 0 -0.0041364209677805719 0.00041426770983649986 0 -0.0042198139000203805 0.00057952799519879732 0 -0.0042260686238987759 0.00050279117243277221 0 -0.0042110468101495633 0.00047232789938296554 0 -0.0042596351460255965 0.00049661820617696308 0 -0.0042617239089264456 0.00043372191323240737 0 -0.0042596351460255965 0.00049661820617696308 0 -0.0042929539252563112 0.00046346976979874736 0 -0.0042617239089264456 0.00043372191323240737 0 -0.0043172759400216644 0.00044583909187936258 0 -0.0042929539252563112 0.00046346976979874736 0 -0.004332191758895515 0.00047143251122233577 0 -0.0043172759400216644 0.00044583909187936258 0 -0.0042929539252563112 0.00046346976979874736 0 -0.0043050365012618618 0.0004162698006878624 0 -0.0043172759400216644 0.00044583909187936258 0 -0.0043389053241137112 0.00043149488944750446 0 -0.004332191758895515 0.00047143251122233577 0 -0.0042596351460255965 0.00049661820617696308 0 -0.0042929539252563112 0.00046346976979874736 0 -0.0042992579237243391 0.00050421213677946197 0 -0.0042992579237243391 0.00050421213677946197 0 -0.0043334313717813683 0.00050714841367955493 0 -0.004332191758895515 0.00047143251122233577 0 -0.0042929539252563112 0.00046346976979874736 0 -0.0042992579237243391 0.00050421213677946197 0 -0.004332191758895515 0.00047143251122233577 0 -0.0042992579237243391 0.00050421213677946197 0 -0.0043240074110085071 0.00053953537523650393 0 -0.0043334313717813683 0.00050714841367955493 0 -0.0043240074110085071 0.00053953537523650393 0 -0.0042742885126400782 0.00054227500283480124 0 -0.0043078461226435678 0.0005712697215910765 0 -0.0042992579237243391 0.00050421213677946197 0 -0.0043240074110085071 0.00053953537523650393 0 -0.0042742885126400782 0.00054227500283480124 0 -0.0042274292827580483 0.00055544946476449562 0 -0.0042596351460255965 0.00049661820617696308 0 -0.0042742885126400782 0.00054227500283480124 0 -0.0042596351460255965 0.00049661820617696308 0 -0.0042992579237243391 0.00050421213677946197 0 -0.0042742885126400782 0.00054227500283480124 0 -0.0042742885126400782 0.00054227500283480124 0 -0.0042429106206400904 0.00058863437490437674 0 -0.0043078461226435678 0.0005712697215910765 0 -0.0042274292827580483 0.00055544946476449562 0 -0.0042742885126400782 0.00054227500283480124 0 -0.0042429106206400904 0.00058863437490437674 0 -0.0042429106206400904 0.00058863437490437674 0 -0.0043078461226435678 0.0005712697215910765 0 -0.0043361762074853802 0.00060349376654383565 0 -0.0042413083345082267 0.00061565851858587535 0 -0.0043105805780546827 0.00050217603813036194 0 -0.0043078461226435678 0.0005712697215910765 0 -0.0043398782730801151 0.00056746736438143756 0 -0.0043323050412790182 0.00058207046832084366 0 -0.0043240074110085071 0.00053953537523650393 0 -0.0043078461226435678 0.0005712697215910765 0 -0.0043398782730801151 0.00056746736438143756 0 -0.0043078461226435678 0.0005712697215910765 0 -0.0043323050412790182 0.00058207046832084366 0 -0.0043361762074853802 0.00060349376654383565 0 -0.0042542595795235288 0.00059045218855246562 0 -0.0042474427935204661 0.0005906598028204734 0 -0.0042569049575570533 0.00058770103998613706 0 -0.0042429106206400904 0.00058863437490437674 0 -0.0042474427935204661 0.0005906598028204734 0 -0.0042569049575570533 0.00058770103998613706 0 -0.0042506139857878987 0.000395132415195275 0 -0.0042762239458093761 0.0004342398051986359 0 -0.004215064461263786 0.00042407098061640727 0 -0.0042721718718274721 0.00046641082907943141 0 -0.0043105805780546827 0.00050217603813036194 0 -0.0042721718718274721 0.00046641082907943141 0 -0.0041694990981150622 0.00048526566161122422 0 -0.0042542595795235288 0.00059045218855246562 0 -0.0042474427935204661 0.0005906598028204734 0 -0.0042466406750997603 0.00059767618324230057 0 -0.0042429106206400904 0.00058863437490437674 0 -0.0042474427935204661 0.0005906598028204734 0 -0.0042293662658098221 0.00059257499778411326 0 -0.0041896450329783263 0.00058117194451941777 0 -0.0041694990981150622 0.00048526566161122422 0 -0.0042474427935204661 0.0005906598028204734 0 -0.0042293662658098221 0.00059257499778411326 0 -0.0042466406750997603 0.00059767618324230057 0 -0.0042429106206400904 0.00058863437490437674 0 -0.0042293662658098221 0.00059257499778411326 0 -0.0042264312491985595 0.00059543408798251357 0 -0.0042274292827580483 0.00055544946476449562 0 -0.0042264312491985595 0.00059543408798251357 0 -0.0042267431100763159 0.00060838078898986286 0 -0.0042274292827580483 0.00055544946476449562 0 -0.0042429106206400904 0.00058863437490437674 0 -0.0042264312491985595 0.00059543408798251357 0 -0.0042264312491985595 0.00059543408798251357 0 -0.0042267431100763159 0.00060838078898986286 0 -0.0042539224773619775 0.00058365085087772549 0 -0.0041539617088970169 0.0005549029684294842 0 -0.0042539224773619775 0.00058365085087772549 0 -0.0042402617792583639 0.00051746645105305944 0 -0.0041896450329783263 0.00058117194451941777 0 -0.0042522283243598786 0.00058221160134714592 0 -0.0042293662658098221 0.00059257499778411326 0 -0.0042264312491985595 0.00059543408798251357 0 -0.0042539224773619775 0.00058365085087772549 0 -0.0042539224773619775 0.00058365085087772549 0 -0.0043389486562886402 0.00057644450067392621 0 -0.0043028546828684251 0.00051919944649692063 0 -0.0042539224773619775 0.00058365085087772549 0 -0.0043389486562886402 0.00057644450067392621 0 -0.0042849516529140964 0.00062667773460466591 0 -0.0043389486562886402 0.00057644450067392621 0 -0.0042849516529140964 0.00062667773460466591 0 -0.0043415504202206261 0.00068352239490634579 0 -0.0042849516529140964 0.00062667773460466591 0 -0.0043415504202206261 0.00068352239490634579 0 -0.0042737247424447424 0.00066015724270494531 0 -0.0042267431100763159 0.00060838078898986286 0 -0.0042849516529140964 0.00062667773460466591 0 -0.0042737247424447424 0.00066015724270494531 0 -0.0042267431100763159 0.00060838078898986286 0 -0.0042539224773619775 0.00058365085087772549 0 -0.0042849516529140964 0.00062667773460466591 0 -0.0045170758613159645 0.0006282698418081413 0 -0.0046296088935743841 0.00056692054202336646 0 -0.0044739221125932697 0.00054907543652834374 0 -0.0045170758613159645 0.0006282698418081413 0 -0.0046296088935743841 0.00056692054202336646 0 -0.0046235374799041993 0.00073704602534694328 0 -0.0045170758613159645 0.0006282698418081413 0 -0.0044739221125932697 0.00054907543652834374 0 -0.0043415504202206261 0.00068352239490634579 0 -0.0043389486562886402 0.00057644450067392621 0 -0.0044739221125932697 0.00054907543652834374 0 -0.0043415504202206261 0.00068352239490634579 0 -0.0043415504202206261 0.00068352239490634579 0 -0.0041939564387092256 0.00070358501423332335 0 -0.0042100874009862316 0.00065959211474045745 0 -0.0043434223340824835 0.00069029861613517012 0 -0.0044089177650387728 0.00071528495816049252 0 -0.0045170758613159645 0.0006282698418081413 0 -0.0043415504202206261 0.00068352239490634579 0 -0.0046235374799041993 0.00073704602534694328 0 -0.0042100874009862316 0.00065959211474045745 0 -0.0042645675409619188 0.00066458401896083092 0 -0.0042019753245948034 0.00064989234271977238 0 -0.0043415504202206261 0.00068352239490634579 0 -0.0042100874009862316 0.00065959211474045745 0 -0.0042645675409619188 0.00066458401896083092 0 -0.0042645675409619188 0.00066458401896083092 0 -0.0042019753245948034 0.00064989234271977238 0 -0.0042370871807807615 0.00064451731872480571 0 -0.0042100874009862316 0.00065959211474045745 0 -0.0042019753245948034 0.00064989234271977238 0 -0.0041505420285408235 0.00064379855505980964 0 -0.0042724092210571435 0.00065771411369853084 0 -0.0042267431100763159 0.00060838078898986286 0 -0.0042737247424447424 0.00066015724270494531 0 -0.0042645675409619188 0.00066458401896083092 0 -0.0042737247424447424 0.00066015724270494531 0 -0.0042370871807807615 0.00064451731872480571 0 -0.0043415504202206261 0.00068352239490634579 0 -0.0042645675409619188 0.00066458401896083092 0 -0.0042737247424447424 0.00066015724270494531 0 -0.0042724092210571435 0.00065771411369853084 0 -0.0042737247424447424 0.00066015724270494531 0 -0.0042370871807807615 0.00064451731872480571 0 -0.0042724092210571435 0.00065771411369853084 0 -0.0042370871807807615 0.00064451731872480571 0 -0.0043152459010070508 0.00060064585914023012 0 -0.0042370871807807615 0.00064451731872480571 0 -0.0042423877662765303 0.00052200461513020942 0 -0.0043152459010070508 0.00060064585914023012 0 -0.0042274339503174845 0.0006402930555421734 0 -0.004161523850146261 0.00056368145003633265 0 -0.0042370871807807615 0.00064451731872480571 0 -0.004106824415450518 0.00052662039127076535 0 -0.0042423877662765303 0.00052200461513020942 0 -0.004106824415450518 0.00052662039127076535 0 -0.0042423877662765303 0.00052200461513020942 0 -0.0041436206535889631 0.00041509123751866828 0 -0.0041505420285408235 0.00064379855505980964 0 -0.0041570850474070605 0.00064819089239128238 0 -0.0040777885137795785 0.00064596133112024463 0 -0.0042019753245948034 0.00064989234271977238 0 -0.0041505420285408235 0.00064379855505980964 0 -0.0041570850474070605 0.00064819089239128238 0 -0.0042019753245948034 0.00064989234271977238 0 -0.0042370871807807615 0.00064451731872480571 0 -0.0041570850474070605 0.00064819089239128238 0 -0.0042370871807807615 0.00064451731872480571 0 -0.0042151815133915438 0.00060960707498432676 0 -0.0041570850474070605 0.00064819089239128238 0 -0.0042151815133915438 0.00060960707498432676 0 -0.0041570850474070605 0.00064819089239128238 0 -0.0040777885137795785 0.00064596133112024463 0 -0.0042151815133915438 0.00060960707498432676 0 -0.0040777885137795785 0.00064596133112024463 0 -0.0041460848437955694 0.00045852538770480207 0 -0.0040777885137795785 0.00064596133112024463 0 -0.003968232936246173 0.00053434130742267502 0 -0.0041460848437955694 0.00045852538770480207 0 -0.003968232936246173 0.00053434130742267502 0 -0.0041460848437955694 0.00045852538770480207 0 -0.0039136579182936374 0.00042336401922066772 0 -0.004161523850146261 0.00056368145003633265 0 -0.0040609044324014694 0.0004085123780949439 0 -0.004106824415450518 0.00052662039127076535 0 -0.0039791499058847166 0.00036245320564095841 0 -0.0041436206535889631 0.00041509123751866828 0 -0.0038605394671722996 0.00016521194912343868 0 -0.0039791499058847166 0.00036245320564095841 0 -0.0041192345120393409 0.00027913385036801308 0 -0.0039923626665961066 0.00022045166061364951 0 -0.0038574003076785029 0.0002880267754526823 0 -0.0039136579182936374 0.00042336401922066772 0 -0.0039253152160846853 0.00019410300024070627 0 -0.0040609044324014694 0.0004085123780949439 0 -0.0039923626665961066 0.00022045166061364951 0 -0.0041460848437955694 0.00045852538770480207 0 -0.0039136579182936374 0.00042336401922066772 0 -0.0042423877662765303 0.00052200461513020942 0 -0.0042529465434341133 0.00036998243814909658 0 -0.0041436206535889631 0.00041509123751866828 0 -0.0042423877662765303 0.00052200461513020942 0 -0.0042529465434341133 0.00036998243814909658 0 -0.0043530231347734018 0.00046379171156572016 0 -0.0042529465434341133 0.00036998243814909658 0 -0.0041436206535889631 0.00041509123751866828 0 -0.0041192345120393409 0.00027913385036801308 0 -0.0039791499058847166 0.00036245320564095841 0 -0.0041436206535889631 0.00041509123751866828 0 -0.0041192345120393409 0.00027913385036801308 0 -0.0040939217499586789 0.00010627918345906209 0 -0.0041192345120393409 0.00027913385036801308 0 -0.0042736186994585734 0.00022462036616201979 0 -0.0042529465434341133 0.00036998243814909658 0 -0.0041192345120393409 0.00027913385036801308 0 -0.0042736186994585734 0.00022462036616201979 0 -0.0042529465434341133 0.00036998243814909658 0 -0.0042736186994585734 0.00022462036616201979 0 -0.0043689780471187246 0.00028908622111651434 0 -0.0041370130968890273 0.00016036126574151422 0 -0.0041751084555157495 0.00025280858091526119 0 -0.0040567036478069887 8.3489167862371789e-05 0 -0.0039985259047612461 8.9830963710587703e-05 0 -0.0040429895447746198 0.00014013008927840821 0 -0.0040567036478069887 8.3489167862371789e-05 0 -0.0040429895447746198 0.00014013008927840821 0 -0.0040744125456452507 0.0001754119406866994 0 -0.0041751084555157495 0.00025280858091526119 0 -0.0041183063481470446 0.00022120744551580709 0 -0.0040567036478069887 8.3489167862371789e-05 0 -0.0041052910780265362 0.00010866907656012108 0 -0.0040744125456452507 0.0001754119406866994 0 -0.0040744125456452507 0.0001754119406866994 0 -0.0041405995433725961 0.00014999033578864864 0 -0.0041847233317930258 0.00022935145988960188 0 -0.0041493074733157465 9.4335541614314471e-05 0 -0.0041052910780265362 0.00010866907656012108 0 -0.0041405995433725961 0.00014999033578864864 0 -0.0041052910780265362 0.00010866907656012108 0 -0.0040744125456452507 0.0001754119406866994 0 -0.0041405995433725961 0.00014999033578864864 0 -0.0040744125456452507 0.0001754119406866994 0 -0.0042206426169217907 0.00029015516448996484 0 -0.0041847233317930258 0.00022935145988960188 0 -0.0041183063481470446 0.00022120744551580709 0 -0.0042171800016091165 0.00028588740355523905 0 -0.0041600406128532016 0.00026451715019548428 0 -0.0041848472672228422 0.00030012061850901789 0 -0.0042206426169217907 0.00029015516448996484 0 -0.0041600406128532016 0.00026451715019548428 0 -0.004157998719115436 0.00029401626374025639 0 -0.0041848472672228422 0.00030012061850901789 0 -0.004157998719115436 0.00029401626374025639 0 -0.0041848472672228422 0.00030012061850901789 0 -0.0041854794244440864 0.00034436652356873039 0 -0.0042529465434341133 0.00036998243814909658 0 -0.0043689780471187246 0.00028908622111651434 0 -0.0043530231347734018 0.00046379171156572016 0 -0.0041336006401563909 0.0002482693106948491 0 -0.004157998719115436 0.00029401626374025639 0 -0.0041300073025671794 0.00032111502573078975 0 -0.0041751084555157495 0.00025280858091526119 0 -0.0042470895672219264 0.00039404866679039637 0 -0.0041336006401563909 0.0002482693106948491 0 -0.0041600406128532016 0.00026451715019548428 0 -0.004157998719115436 0.00029401626374025639 0 -0.0042470895672219264 0.00039404866679039637 0 -0.0042260686238987759 0.00050279117243277221 0 -0.0042423877662765303 0.00052200461513020942 0 -0.0043530231347734018 0.00046379171156572016 0 -0.0043152459010070508 0.00060064585914023012 0 -0.0041300073025671794 0.00032111502573078975 0 -0.0041854794244440864 0.00034436652356873039 0 -0.0041364209677805719 0.00041426770983649986 0 -0.004157998719115436 0.00029401626374025639 0 -0.0041300073025671794 0.00032111502573078975 0 -0.0041854794244440864 0.00034436652356873039 0 -0.0041854794244440864 0.00034436652356873039 0 -0.0042072029234000137 0.00031536676518151291 0 -0.0042267132310800197 0.00034144910090115171 0 -0.0041848472672228422 0.00030012061850901789 0 -0.0041854794244440864 0.00034436652356873039 0 -0.0042072029234000137 0.00031536676518151291 0 -0.0042110468101495633 0.00047232789938296554 0 -0.0042090380004427544 0.00041027467081924165 0 -0.0041364209677805719 0.00041426770983649986 0 -0.0041854794244440864 0.00034436652356873039 0 -0.0042090380004427544 0.00041027467081924165 0 -0.0041364209677805719 0.00041426770983649986 0 -0.0041854794244440864 0.00034436652356873039 0 -0.0042090380004427544 0.00041027467081924165 0 -0.0042425300075261555 0.00038618372232626338 0 -0.0042806801024775779 0.00038310412323224033 0 -0.0043050365012618618 0.0004162698006878624 0 -0.0043070773550784357 0.00037202112698855123 0 -0.0043251980428678886 0.00038824353709150173 0 -0.0043050365012618618 0.0004162698006878624 0 -0.0043359785184408856 0.00040729954766164755 0 -0.0043251980428678886 0.00038824353709150173 0 -0.0043050365012618618 0.0004162698006878624 0 -0.0043070773550784357 0.00037202112698855123 0 -0.0043251980428678886 0.00038824353709150173 0 -0.0043249722735337077 0.00036657266664088509 0 -0.0043070773550784357 0.00037202112698855123 0 -0.0043050365012618618 0.0004162698006878624 0 -0.0043389053241137112 0.00043149488944750446 0 -0.0043359785184408856 0.00040729954766164755 0 -0.0043172759400216644 0.00044583909187936258 0 -0.0043050365012618618 0.0004162698006878624 0 -0.0043389053241137112 0.00043149488944750446 0 -0.0042929539252563112 0.00046346976979874736 0 -0.0043050365012618618 0.0004162698006878624 0 -0.0042617239089264456 0.00043372191323240737 0 -0.0042806801024775779 0.00038310412323224033 0 -0.0043050365012618618 0.0004162698006878624 0 -0.0042617239089264456 0.00043372191323240737 0 -0.0042110468101495633 0.00047232789938296554 0 -0.0042090380004427544 0.00041027467081924165 0 -0.0042617239089264456 0.00043372191323240737 0 -0.0042090380004427544 0.00041027467081924165 0 -0.0042617239089264456 0.00043372191323240737 0 -0.0042425300075261555 0.00038618372232626338 0 -0.0042806801024775779 0.00038310412323224033 0 -0.0042617239089264456 0.00043372191323240737 0 -0.0042425300075261555 0.00038618372232626338 0 -0.0042806801024775779 0.00038310412323224033 0 -0.0042425300075261555 0.00038618372232626338 0 -0.0042589001951036315 0.00035700446538609144 0 -0.0042425300075261555 0.00038618372232626338 0 -0.0042589001951036315 0.00035700446538609144 0 -0.0042267132310800197 0.00034144910090115171 0 -0.0041854794244440864 0.00034436652356873039 0 -0.0042425300075261555 0.00038618372232626338 0 -0.0042267132310800197 0.00034144910090115171 0 -0.0042072029234000137 0.00031536676518151291 0 -0.0042267132310800197 0.00034144910090115171 0 -0.0042405859010976521 0.000319809896823561 0 -0.0042589001951036315 0.00035700446538609144 0 -0.0042405859010976521 0.000319809896823561 0 -0.0042714545666433833 0.00033010376595076006 0 -0.0042589001951036315 0.00035700446538609144 0 -0.0042267132310800197 0.00034144910090115171 0 -0.0042405859010976521 0.000319809896823561 0 -0.0042405859010976521 0.000319809896823561 0 -0.0042714545666433833 0.00033010376595076006 0 -0.0042628389667339313 0.00028332963360584625 0 -0.0042940806424539906 0.00031876993520572509 0 -0.0042714545666433833 0.00033010376595076006 0 -0.0042628389667339313 0.00028332963360584625 0 -0.0042940806424539906 0.00031876993520572509 0 -0.0042714545666433833 0.00033010376595076006 0 -0.0042910087327331179 0.00035156229411818221 0 -0.0042589001951036315 0.00035700446538609144 0 -0.0042714545666433833 0.00033010376595076006 0 -0.0042910087327331179 0.00035156229411818221 0 -0.0042806801024775779 0.00038310412323224033 0 -0.0042589001951036315 0.00035700446538609144 0 -0.0042910087327331179 0.00035156229411818221 0 -0.0042806801024775779 0.00038310412323224033 0 -0.0042910087327331179 0.00035156229411818221 0 -0.0043070773550784357 0.00037202112698855123 0 -0.0043249722735337077 0.00036657266664088509 0 -0.0043070773550784357 0.00037202112698855123 0 -0.0043164619089384086 0.00034459794153840571 0 -0.0042910087327331179 0.00035156229411818221 0 -0.0043070773550784357 0.00037202112698855123 0 -0.0043164619089384086 0.00034459794153840571 0 -0.0042940806424539906 0.00031876993520572509 0 -0.0043164619089384086 0.00034459794153840571 0 -0.0043188598850744109 0.00031016454847207075 0 -0.0043164619089384086 0.00034459794153840571 0 -0.0043188598850744109 0.00031016454847207075 0 -0.004333629302200521 0.00033180356505277316 0 -0.0042940806424539906 0.00031876993520572509 0 -0.0042910087327331179 0.00035156229411818221 0 -0.0043164619089384086 0.00034459794153840571 0 -0.0043188598850744109 0.00031016454847207075 0 -0.0042980277256459542 0.00028082078614657458 0 -0.0043240724669345977 0.00026964821241935879 0 -0.0042980277256459542 0.00028082078614657458 0 -0.0042976674652673704 0.0002087097925980468 0 -0.0043240724669345977 0.00026964821241935879 0 -0.0042980277256459542 0.00028082078614657458 0 -0.0042628389667339313 0.00028332963360584625 0 -0.0042976674652673704 0.0002087097925980468 0 -0.0042940806424539906 0.00031876993520572509 0 -0.0043188598850744109 0.00031016454847207075 0 -0.0042980277256459542 0.00028082078614657458 0 -0.0042940806424539906 0.00031876993520572509 0 -0.0042980277256459542 0.00028082078614657458 0 -0.0042628389667339313 0.00028332963360584625 0 -0.0042628389667339313 0.00028332963360584625 0 -0.0041847233317930258 0.00022935145988960188 0 -0.0042976674652673704 0.0002087097925980468 0 -0.0042072029234000137 0.00031536676518151291 0 -0.0042405859010976521 0.000319809896823561 0 -0.0042206426169217907 0.00029015516448996484 0 -0.0041848472672228422 0.00030012061850901789 0 -0.0042072029234000137 0.00031536676518151291 0 -0.0042206426169217907 0.00029015516448996484 0 -0.0042405859010976521 0.000319809896823561 0 -0.0042206426169217907 0.00029015516448996484 0 -0.0042628389667339313 0.00028332963360584625 0 -0.0042206426169217907 0.00029015516448996484 0 -0.0042628389667339313 0.00028332963360584625 0 -0.0041847233317930258 0.00022935145988960188 0 -0.0041847233317930258 0.00022935145988960188 0 -0.0041907169609877682 0.00013743059758808545 0 -0.0042481165529530077 0.00012929340092592055 0 -0.0041729112500267984 0.00023174982363097758 0 -0.0043035367016478285 0.00016786181613248505 0 -0.0041405995433725961 0.00014999033578864864 0 -0.0041847233317930258 0.00022935145988960188 0 -0.0041907169609877682 0.00013743059758808545 0 -0.004209246185987483 8.6640416309400958e-05 0 -0.0041907169609877682 0.00013743059758808545 0 -0.0042481165529530077 0.00012929340092592055 0 -0.0041493074733157465 9.4335541614314471e-05 0 -0.0041405995433725961 0.00014999033578864864 0 -0.0041907169609877682 0.00013743059758808545 0 -0.004209246185987483 8.6640416309400958e-05 0 -0.0041493074733157465 9.4335541614314471e-05 0 -0.0041907169609877682 0.00013743059758808545 0 -0.0042976674652673704 0.0002087097925980468 0 -0.0043367602444490056 0.00023984731231909873 0 -0.0043240724669345977 0.00026964821241935879 0 -0.0042976674652673704 0.0002087097925980468 0 -0.0043481272142222079 0.00021558360181444551 0 -0.0043367602444490056 0.00023984731231909873 0 -0.0041341544726201584 9.6546857226757033e-05 0 -0.0043035367016478285 0.00016786181613248505 0 -0.0043562257259116971 0.00020218896774859839 0 -0.0042976674652673704 0.0002087097925980468 0 -0.0043481272142222079 0.00021558360181444551 0 -0.0043604715911810654 0.00021373342120075556 0 -0.0043481272142222079 0.00021558360181444551 0 -0.0043611256634390628 0.00020930061624030926 0 -0.0043481272142222079 0.00021558360181444551 0 -0.0043367602444490056 0.00023984731231909873 0 -0.0043611008090355388 0.00024640507741811445 0 -0.0043481272142222079 0.00021558360181444551 0 -0.0043611008090355388 0.00024640507741811445 0 -0.0043611256634390628 0.00020930061624030926 0 -0.0043367602444490056 0.00023984731231909873 0 -0.0043240724669345977 0.00026964821241935879 0 -0.0043509035816518523 0.00027634551683805537 0 -0.0043611008090355388 0.00024640507741811445 0 -0.0043509035816518523 0.00027634551683805537 0 -0.0043755883114936335 0.00027900541024724777 0 -0.0043367602444490056 0.00023984731231909873 0 -0.0043611008090355388 0.00024640507741811445 0 -0.0043509035816518523 0.00027634551683805537 0 -0.0043509035816518523 0.00027634551683805537 0 -0.0043755883114936335 0.00027900541024724777 0 -0.0043778588080410708 0.00031419588948007409 0 -0.0043509035816518523 0.00027634551683805537 0 -0.0043454731986123183 0.0003097370320776767 0 -0.0043778588080410708 0.00031419588948007409 0 -0.0043240724669345977 0.00026964821241935879 0 -0.0043509035816518523 0.00027634551683805537 0 -0.0043454731986123183 0.0003097370320776767 0 -0.0043188598850744109 0.00031016454847207075 0 -0.0043240724669345977 0.00026964821241935879 0 -0.0043454731986123183 0.0003097370320776767 0 -0.0043611008090355388 0.00024640507741811445 0 -0.0044141406883226866 0.00027909347236901452 0 -0.0043611256634390628 0.00020930061624030926 0 -0.0044141406883226866 0.00027909347236901452 0 -0.0043755883114936335 0.00027900541024724777 0 -0.0043778588080410708 0.00031419588948007409 0 -0.0043611008090355388 0.00024640507741811445 0 -0.0044141406883226866 0.00027909347236901452 0 -0.0043755883114936335 0.00027900541024724777 0 -0.0043604715911810654 0.00021373342120075556 0 -0.0043611256634390628 0.00020930061624030926 0 -0.004294935596760815 0.00021203764740618635 0 -0.0041525180418783055 0.00021526552439684536 0 -0.0039794639104020852 0.00014525531040738822 0 -0.0044141406883226866 0.00027909347236901452 0 -0.0043611256634390628 0.00020930061624030926 0 -0.004421043298572006 0.00018278581767209654 0 -0.0044506811819134285 0.00015907149965283728 0 -0.0039794639104020852 0.00014525531040738822 0 -0.0038544371406040992 0.00013601488950278485 0 -0.0038416306613860149 0.00018757897791847416 0 -0.0038104989465253701 0.00016656821964161346 0 -0.0037789674776572599 0.00020938027586324599 0 -0.0038104989465253701 0.00016656821964161346 0 -0.0037761330494969995 0.00016443353504663614 0 -0.0038104989465253701 0.00016656821964161346 0 -0.0037761330494969995 0.00016443353504663614 0 -0.0038016349446388805 0.0001349279466687104 0 -0.0038016349446388805 0.0001349279466687104 0 -0.0037634439371223741 0.00014184561957046981 0 -0.0037713373308280204 0.00011603235803262895 0 -0.0037761330494969995 0.00016443353504663614 0 -0.0038016349446388805 0.0001349279466687104 0 -0.0037634439371223741 0.00014184561957046981 0 -0.0038544371406040992 0.00013601488950278485 0 -0.0038016349446388805 0.0001349279466687104 0 -0.0038299476687657318 0.00010724519267104814 0 -0.0038544371406040992 0.00013601488950278485 0 -0.0038104989465253701 0.00016656821964161346 0 -0.0038016349446388805 0.0001349279466687104 0 -0.0038299476687657318 0.00010724519267104814 0 -0.0038241720014991123 7.644837721572587e-05 0 -0.0038675288255893016 8.3740813568697282e-05 0 -0.0038299476687657318 0.00010724519267104814 0 -0.0037970613521025177 9.9916876381423537e-05 0 -0.0038241720014991123 7.644837721572587e-05 0 -0.0038016349446388805 0.0001349279466687104 0 -0.0038299476687657318 0.00010724519267104814 0 -0.0037970613521025177 9.9916876381423537e-05 0 -0.0038016349446388805 0.0001349279466687104 0 -0.0037970613521025177 9.9916876381423537e-05 0 -0.0037713373308280204 0.00011603235803262895 0 -0.0037970613521025177 9.9916876381423537e-05 0 -0.0037713373308280204 0.00011603235803262895 0 -0.0037681297955716904 9.0060182338650013e-05 0 -0.0040343495531754382 0.00025553539249820542 0 -0.0040880871146162651 0.00026430107924282068 0 -0.0040819009478318185 0.0002376843745152378 0 -0.0039153140821819926 0.00017652587095987805 0 -0.0039354781256480866 0.0001660075068742624 0 -0.0040343495531754382 0.00025553539249820542 0 -0.0040819009478318185 0.0002376843745152378 0 -0.0040669982556294114 0.0002172698106117496 0 -0.0037970613521025177 9.9916876381423537e-05 0 -0.0037819666814507555 6.9999941836134831e-05 0 -0.0038241720014991123 7.644837721572587e-05 0 -0.0039772875578889949 0.00021091543063801166 0 -0.0039293803249184599 0.00020299656253854425 0 -0.0040441940489006492 0.00011157372793567206 0 -0.0037970613521025177 9.9916876381423537e-05 0 -0.0037819666814507555 6.9999941836134831e-05 0 -0.0037681297955716904 9.0060182338650013e-05 0 -0.0039354781256480866 0.0001660075068742624 0 -0.0041075215157049417 0.00021714763420749677 0 -0.0040880871146162651 0.00026430107924282068 0 -0.0041218839302574134 0.00024935952330426249 0 -0.0041413057867336405 0.00027281603727850542 0 -0.0040880871146162651 0.00026430107924282068 0 -0.0040819009478318185 0.0002376843745152378 0 -0.0041080788736649783 0.00022733366942242017 0 -0.0040880871146162651 0.00026430107924282068 0 -0.0041218839302574134 0.00024935952330426249 0 -0.0041080788736649783 0.00022733366942242017 0 -0.0041218839302574134 0.00024935952330426249 0 -0.0041413057867336405 0.00027281603727850542 0 -0.0041498627184240406 0.00023308449831888699 0 -0.0041218839302574134 0.00024935952330426249 0 -0.0041498627184240406 0.00023308449831888699 0 -0.0041080788736649783 0.00022733366942242017 0 -0.0043956496708319045 0.00038460507254037507 0 -0.0043884086559079338 0.00037472143317546702 0 -0.0043818730979041454 0.00038673676318119168 0 -0.0043956496708319045 0.00038460507254037507 0 -0.0043884086559079338 0.00037472143317546702 0 -0.0044098512948024778 0.00037571777145715908 0 -0.0043956496708319045 0.00038460507254037507 0 -0.0044098512948024778 0.00037571777145715908 0 -0.0043919392590265425 0.00040051561384646611 0 -0.0043956496708319045 0.00038460507254037507 0 -0.0043919392590265425 0.00040051561384646611 0 -0.0043818730979041454 0.00038673676318119168 0 -0.0043874008708292434 0.00041673155690909462 0 -0.0043705648127576888 0.00042476926093948923 0 -0.004402625581932878 0.00043663560461656953 0 -0.0044098512948024778 0.00037571777145715908 0 -0.0043919392590265425 0.00040051561384646611 0 -0.0044015441136043051 0.00043491536786646235 0 -0.0043919392590265425 0.00040051561384646611 0 -0.0043874008708292434 0.00041673155690909462 0 -0.0044015441136043051 0.00043491536786646235 0 -0.0041075215157049417 0.00021714763420749677 0 -0.0042819310586324644 0.00034597287181448302 0 -0.0043489185020724533 0.00041279016707757791 0 -0.0042819310586324644 0.00034597287181448302 0 -0.0043705648127576888 0.00042476926093948923 0 -0.0043754172499436547 0.00040412588206818425 0 -0.0043561242823268393 0.0004078805901458461 0 -0.0043919392590265425 0.00040051561384646611 0 -0.0043874008708292434 0.00041673155690909462 0 -0.0043754172499436547 0.00040412588206818425 0 -0.0043874008708292434 0.00041673155690909462 0 -0.0043705648127576888 0.00042476926093948923 0 -0.0043754172499436547 0.00040412588206818425 0 -0.0043705648127576888 0.00042476926093948923 0 -0.0043389053241137112 0.00043149488944750446 0 -0.0043561242823268393 0.0004078805901458461 0 -0.0043389053241137112 0.00043149488944750446 0 -0.0043561242823268393 0.0004078805901458461 0 -0.0043359785184408856 0.00040729954766164755 0 -0.0043251980428678886 0.00038824353709150173 0 -0.0043359785184408856 0.00040729954766164755 0 -0.0043480150647091124 0.00039008425921115966 0 -0.0043561242823268393 0.0004078805901458461 0 -0.0043359785184408856 0.00040729954766164755 0 -0.0043480150647091124 0.00039008425921115966 0 -0.0043480150647091124 0.00039008425921115966 0 -0.0043392715255280183 0.00037442036713561074 0 -0.0043581094430158174 0.00037309789188999331 0 -0.0043251980428678886 0.00038824353709150173 0 -0.0043480150647091124 0.00039008425921115966 0 -0.0043392715255280183 0.00037442036713561074 0 -0.0043251980428678886 0.00038824353709150173 0 -0.0043249722735337077 0.00036657266664088509 0 -0.0043392715255280183 0.00037442036713561074 0 -0.0043919392590265425 0.00040051561384646611 0 -0.0043754172499436547 0.00040412588206818425 0 -0.0043818730979041454 0.00038673676318119168 0 -0.0043754172499436547 0.00040412588206818425 0 -0.0043818730979041454 0.00038673676318119168 0 -0.0043655137802150077 0.00038893152257370937 0 -0.0043561242823268393 0.0004078805901458461 0 -0.0043480150647091124 0.00039008425921115966 0 -0.0043655137802150077 0.00038893152257370937 0 -0.0043754172499436547 0.00040412588206818425 0 -0.0043561242823268393 0.0004078805901458461 0 -0.0043655137802150077 0.00038893152257370937 0 -0.0043655137802150077 0.00038893152257370937 0 -0.0043581094430158174 0.00037309789188999331 0 -0.0043736344483380468 0.00037171192158819404 0 -0.0043480150647091124 0.00039008425921115966 0 -0.0043655137802150077 0.00038893152257370937 0 -0.0043581094430158174 0.00037309789188999331 0 -0.0043818730979041454 0.00038673676318119168 0 -0.0043655137802150077 0.00038893152257370937 0 -0.0043736344483380468 0.00037171192158819404 0 -0.0043884086559079338 0.00037472143317546702 0 -0.0043818730979041454 0.00038673676318119168 0 -0.0043736344483380468 0.00037171192158819404 0 -0.0043884086559079338 0.00037472143317546702 0 -0.0043736344483380468 0.00037171192158819404 0 -0.004384595607740298 0.00035527318697094017 0 -0.0043736344483380468 0.00037171192158819404 0 -0.0043627792329955671 0.00035290954980775379 0 -0.004384595607740298 0.00035527318697094017 0 -0.0043581094430158174 0.00037309789188999331 0 -0.0043627792329955671 0.00035290954980775379 0 -0.0043409809299729601 0.00035424599028696511 0 -0.0043581094430158174 0.00037309789188999331 0 -0.0043736344483380468 0.00037171192158819404 0 -0.0043627792329955671 0.00035290954980775379 0 -0.0043627792329955671 0.00035290954980775379 0 -0.0043494326464639348 0.00033272103087111709 0 -0.0043668077155403435 0.00033140420139055228 0 -0.0043627792329955671 0.00035290954980775379 0 -0.0043668077155403435 0.00033140420139055228 0 -0.004384595607740298 0.00035527318697094017 0 -0.0043249722735337077 0.00036657266664088509 0 -0.0043392715255280183 0.00037442036713561074 0 -0.0043409809299729601 0.00035424599028696511 0 -0.0043392715255280183 0.00037442036713561074 0 -0.0043581094430158174 0.00037309789188999331 0 -0.0043409809299729601 0.00035424599028696511 0 -0.0043627792329955671 0.00035290954980775379 0 -0.0043409809299729601 0.00035424599028696511 0 -0.0043494326464639348 0.00033272103087111709 0 -0.0043409809299729601 0.00035424599028696511 0 -0.004333629302200521 0.00033180356505277316 0 -0.0043494326464639348 0.00033272103087111709 0 -0.0043249722735337077 0.00036657266664088509 0 -0.0043164619089384086 0.00034459794153840571 0 -0.0043409809299729601 0.00035424599028696511 0 -0.0043164619089384086 0.00034459794153840571 0 -0.0043409809299729601 0.00035424599028696511 0 -0.004333629302200521 0.00033180356505277316 0 -0.0043188598850744109 0.00031016454847207075 0 -0.004333629302200521 0.00033180356505277316 0 -0.0043454731986123183 0.0003097370320776767 0 -0.004333629302200521 0.00033180356505277316 0 -0.0043494326464639348 0.00033272103087111709 0 -0.0043454731986123183 0.0003097370320776767 0 -0.0043454731986123183 0.0003097370320776767 0 -0.0043668077155403435 0.00033140420139055228 0 -0.0043778588080410708 0.00031419588948007409 0 -0.0043668077155403435 0.00033140420139055228 0 -0.0043778588080410708 0.00031419588948007409 0 -0.004384595607740298 0.00035527318697094017 0 -0.0043494326464639348 0.00033272103087111709 0 -0.0043454731986123183 0.0003097370320776767 0 -0.0043668077155403435 0.00033140420139055228 0 -0.0038544371406040992 0.00013601488950278485 0 -0.0038299476687657318 0.00010724519267104814 0 -0.0038675288255893016 8.3740813568697282e-05 0 -0.0044141406883226866 0.00027909347236901452 0 -0.0044098512948024778 0.00037571777145715908 0 -0.0043778588080410708 0.00031419588948007409 0 -0.0041525180418783055 0.00021526552439684536 0 -0.0041075215157049417 0.00021714763420749677 0 -0.0044098512948024778 0.00037571777145715908 0 -0.0043778588080410708 0.00031419588948007409 0 -0.004384595607740298 0.00035527318697094017 0 -0.0043884086559079338 0.00037472143317546702 0 -0.0044098512948024778 0.00037571777145715908 0 -0.004384595607740298 0.00035527318697094017 0 -0.0036771276467505104 0.00014988066439480029 0 -0.0036900332225730283 0.00012253242372033314 0 -0.0036583112886538214 0.00011867503177408026 0 -0.0036444051900806295 0.00015778028105956917 0 -0.0036771276467505104 0.00014988066439480029 0 -0.0036583112886538214 0.00011867503177408026 0 -0.0036446270331233644 0.00020246581974293549 0 -0.0036444051900806295 0.00015778028105956917 0 -0.0036683310412745926 0.00017948310253146027 0 -0.0036444051900806295 0.00015778028105956917 0 -0.0036771276467505104 0.00014988066439480029 0 -0.0036683310412745926 0.00017948310253146027 0 -0.0036771276467505104 0.00014988066439480029 0 -0.0036981108710408233 0.00017972549348094612 0 -0.0037088461765254154 0.00014320097751705202 0 -0.0036771276467505104 0.00014988066439480029 0 -0.0036683310412745926 0.00017948310253146027 0 -0.0036981108710408233 0.00017972549348094612 0 -0.0036771276467505104 0.00014988066439480029 0 -0.0037088461765254154 0.00014320097751705202 0 -0.0036900332225730283 0.00012253242372033314 0 -0.0037088461765254154 0.00014320097751705202 0 -0.0037386734990411687 0.00013290090622341771 0 -0.0037358396852780616 0.00016866897349849676 0 -0.0037088461765254154 0.00014320097751705202 0 -0.0037386734990411687 0.00013290090622341771 0 -0.0037118939353136347 0.00010824824003142664 0 -0.0036981108710408233 0.00017972549348094612 0 -0.0037088461765254154 0.00014320097751705202 0 -0.0037358396852780616 0.00016866897349849676 0 -0.0037761330494969995 0.00016443353504663614 0 -0.0037358396852780616 0.00016866897349849676 0 -0.0037634439371223741 0.00014184561957046981 0 -0.0037789674776572599 0.00020938027586324599 0 -0.0037761330494969995 0.00016443353504663614 0 -0.0037358396852780616 0.00016866897349849676 0 -0.0037386734990411687 0.00013290090622341771 0 -0.0037358396852780616 0.00016866897349849676 0 -0.0037634439371223741 0.00014184561957046981 0 -0.0037386734990411687 0.00013290090622341771 0 -0.0037634439371223741 0.00014184561957046981 0 -0.0037713373308280204 0.00011603235803262895 0 -0.0037386734990411687 0.00013290090622341771 0 -0.003761141796734555 9.9742538785588079e-05 0 -0.003737655508474126 0.00010861530542220954 0 -0.0037386734990411687 0.00013290090622341771 0 -0.0037713373308280204 0.00011603235803262895 0 -0.0037672022956268423 8.9177295097683299e-05 0 -0.0037320162839818362 0.00012988727040298613 0 -0.0038066501092961507 0.000109548454365071 0 -0.0037453089622756252 9.7323006025284021e-05 0 -0.003761141796734555 9.9742538785588079e-05 0 -0.003737655508474126 0.00010861530542220954 0 -0.0037791471015173952 0.00010430151677840975 0 -0.0038066501092961507 0.000109548454365071 0 -0.0039153140821819926 0.00017652587095987805 0 -0.0038066501092961507 0.000109548454365071 0 -0.0038066501092961507 0.000109548454365071 0 -0.0038734174475539862 0.00013323570728420451 0 -0.003761141796734555 9.9742538785588079e-05 0 -0.0037587206806472067 8.1294521317754249e-05 0 -0.0037507967249428725 8.7370542604454205e-05 0 -0.0038612047119687704 0.00014126506792611407 0 -0.0038644735385254211 0.00013662083736044065 0 -0.0038664073142172044 0.00014212338008458489 0 -0.0037589376602847639 8.0922068888975764e-05 0 -0.0037507967249428725 8.7370542604454205e-05 0 -0.0037271248230773355 8.8698381064873433e-05 0 -0.0038697990018923462 0.00013685489780572666 0 -0.0038734174475539862 0.00013323570728420451 0 -0.0038612047119687704 0.00014126506792611407 0 -0.0038650413777672203 0.00013495782595348581 0 -0.0038644735385254211 0.00013662083736044065 0 -0.0038650413777672203 0.00013495782595348581 0 -0.0038644735385254211 0.00013662083736044065 0 -0.0038660013200792231 0.00014177721809710209 0 -0.0038734174475539862 0.00013323570728420451 0 -0.0038221855694993015 0.00013768931085159626 0 -0.0039153140821819926 0.00017652587095987805 0 -0.0038734174475539862 0.00013323570728420451 0 -0.0037453089622756252 9.7323006025284021e-05 0 -0.003761141796734555 9.9742538785588079e-05 0 -0.0037507967249428725 8.7370542604454205e-05 0 -0.0037453089622756252 9.7323006025284021e-05 0 -0.0037507967249428725 8.7370542604454205e-05 0 -0.0037271248230773355 8.8698381064873433e-05 0 -0.0037589376602847639 8.0922068888975764e-05 0 -0.0037271248230773355 8.8698381064873433e-05 0 -0.0037094528134262576 7.3961040295452907e-05 0 -0.0038734174475539862 0.00013323570728420451 0 -0.0037072165066134866 7.7575454345713086e-05 0 -0.0037271248230773355 8.8698381064873433e-05 0 -0.0037118939353136347 0.00010824824003142664 0 -0.0037094528134262576 7.3961040295452907e-05 0 -0.0037271248230773355 8.8698381064873433e-05 0 -0.0037118939353136347 0.00010824824003142664 0 -0.003737655508474126 0.00010861530542220954 0 -0.0037453089622756252 9.7323006025284021e-05 0 -0.0037271248230773355 8.8698381064873433e-05 0 -0.003737655508474126 0.00010861530542220954 0 -0.0037386734990411687 0.00013290090622341771 0 -0.0037118939353136347 0.00010824824003142664 0 -0.003737655508474126 0.00010861530542220954 0 -0.0037088461765254154 0.00014320097751705202 0 -0.0037118939353136347 0.00010824824003142664 0 -0.0036900332225730283 0.00012253242372033314 0 -0.0037118939353136347 0.00010824824003142664 0 -0.0036900332225730283 0.00012253242372033314 0 -0.0036787414534776657 9.5653385991336306e-05 0 -0.0037072165066134866 7.7575454345713086e-05 0 -0.0036798392002743681 7.60971337895066e-05 0 -0.0037094528134262576 7.3961040295452907e-05 0 -0.0036787414534776657 9.5653385991336306e-05 0 -0.0036638982943600351 6.9239625429945361e-05 0 -0.0037118939353136347 0.00010824824003142664 0 -0.0037094528134262576 7.3961040295452907e-05 0 -0.0036787414534776657 9.5653385991336306e-05 0 -0.003646573966964516 8.9063923947658262e-05 0 -0.0036787414534776657 9.5653385991336306e-05 0 -0.0036638982943600351 6.9239625429945361e-05 0 -0.0036900332225730283 0.00012253242372033314 0 -0.0036787414534776657 9.5653385991336306e-05 0 -0.0036583112886538214 0.00011867503177408026 0 -0.003646573966964516 8.9063923947658262e-05 0 -0.0036787414534776657 9.5653385991336306e-05 0 -0.0036583112886538214 0.00011867503177408026 0 -0.003662407273264735 4.4477048980309522e-05 0 -0.003685654307268004 8.2142917161555565e-05 0 -0.0037234902132673811 2.732389536169201e-05 0 -0.0037460119266887054 9.3942556092996551e-05 0 -0.003685654307268004 8.2142917161555565e-05 0 -0.0037234902132673811 2.732389536169201e-05 0 -0.0037460119266887054 9.3942556092996551e-05 0 -0.0037234902132673811 2.732389536169201e-05 0 -0.0037858875080144516 4.0960613171359188e-05 0 -0.0038064029656466511 0.00010426534114911196 0 -0.0037460119266887054 9.3942556092996551e-05 0 -0.0037858875080144516 4.0960613171359188e-05 0 -0.0038734174475539862 0.00013323570728420451 0 -0.0038458109588926674 6.1934449377232413e-05 0 -0.0038734174475539862 0.00013323570728420451 0 -0.0039923975921960725 0.00012973978345763026 0 -0.0039391733366829339 0.00012150925589228218 0 -0.0039382180229948034 0.00010345094517669999 0 -0.0039343292966236296 9.8069949361100447e-05 0 -0.0040433015175175193 0.00017018379280183915 0 -0.0040471211924961283 0.00016275101960097616 0 -0.0040424462148834833 0.00015674513527336027 0 -0.0040471211924961283 0.00016275101960097616 0 -0.0040424462148834833 0.00015674513527336027 0 -0.004048018898104049 0.00015275176748956288 0 -0.0039923975921960725 0.00012973978345763026 0 -0.0040852632135431931 0.00013192701171871747 0 -0.0039382180229948034 0.00010345094517669999 0 -0.0039343292966236296 9.8069949361100447e-05 0 -0.0039367150716666599 8.5784040264600062e-05 0 -0.0040424462148834833 0.00015674513527336027 0 -0.004048018898104049 0.00015275176748956288 0 -0.0040413473893620988 0.00014419906189489854 0 -0.0041683874490353028 0.00018117593514700906 0 -0.0040852632135431931 0.00013192701171871747 0 -0.0042682181857050935 0.00018741223252815244 0 -0.0042538017057830065 0.00017063046546503041 0 -0.0042674767596729037 0.00016210680718849459 0 -0.0042538017057830065 0.00017063046546503041 0 -0.0042674767596729037 0.00016210680718849459 0 -0.0042594624448275536 0.0001553224196441417 0 -0.0040852632135431931 0.00013192701171871747 0 -0.004167153522792821 9.6086443200182867e-05 0 -0.0042674767596729037 0.00016210680718849459 0 -0.0042709315639405691 0.00014234278470922924 0 -0.0042594624448275536 0.0001553224196441417 0 -0.0042538017057830065 0.00017063046546503041 0 -0.0042594624448275536 0.0001553224196441417 0 -0.0042467124457793897 0.00014417162620295677 0 -0.0042766070644990051 0.00016644665169490125 0 -0.0042639815395952452 0.00013720567036439149 0 -0.0042709315639405691 0.00014234278470922924 0 -0.0042467124457793897 0.00014417162620295677 0 -0.0042658110422805927 0.00012645074159647925 0 -0.0042709315639405691 0.00014234278470922924 0 -0.0042594624448275536 0.0001553224196441417 0 -0.0042467124457793897 0.00014417162620295677 0 -0.0040597411812420114 6.6345554777070992e-05 0 -0.0040917108120509483 3.5999505813535864e-05 0 -0.0040347052287287482 -1.4277901892948694e-05 0 -0.0039415463425593687 3.3266599558717475e-05 0 -0.0039061170187760954 -4.5931747396707543e-05 0 -0.0040562627685110089 6.0680264610402683e-05 0 -0.0040047436188254413 -1.2973769923427009e-06 0 -0.0040347052287287482 -1.4277901892948694e-05 0 -0.0039415463425593687 3.3266599558717475e-05 0 -0.0040528287544483888 1.2088948609628045e-05 0 -0.004104992046029066 0.00012074224789499455 0 -0.0040597411812420114 6.6345554777070992e-05 0 -0.0040917108120509483 3.5999505813535864e-05 0 -0.0038458109588926674 6.1934449377232413e-05 0 -0.0039415463425593687 3.3266599558717475e-05 0 -0.0037234902132673811 2.732389536169201e-05 0 -0.0037858875080144516 4.0960613171359188e-05 0 -0.003767060046510388 -1.9716137408644368e-05 0 -0.0039343292966236296 9.8069949361100447e-05 0 -0.0039367150716666599 8.5784040264600062e-05 0 -0.0039282475765007388 7.4902686660999879e-05 0 -0.0040852632135431931 0.00013192701171871747 0 -0.0039415463425593687 3.3266599558717475e-05 0 -0.0037234902132673811 2.732389536169201e-05 0 -0.003767060046510388 -1.9716137408644368e-05 0 -0.0037247189612566742 -1.4842605323478889e-05 0 -0.0037247189612566742 -1.4842605323478889e-05 0 -0.0036820835792819679 -1.7063267049238672e-05 0 -0.0037383648147878627 -5.5369346941665119e-05 0 -0.003767060046510388 -1.9716137408644368e-05 0 -0.0037247189612566742 -1.4842605323478889e-05 0 -0.0037383648147878627 -5.5369346941665119e-05 0 -0.0037752672219668951 -4.4145089591042713e-05 0 -0.0039061170187760954 -4.5931747396707543e-05 0 -0.0037234902132673811 2.732389536169201e-05 0 -0.0037247189612566742 -1.4842605323478889e-05 0 -0.0036820835792819679 -1.7063267049238672e-05 0 -0.003662407273264735 4.4477048980309522e-05 0 -0.0037234902132673811 2.732389536169201e-05 0 -0.0036820835792819679 -1.7063267049238672e-05 0 -0.0042758926452555347 0.00035980245718303464 0 -0.0042829129903406852 0.00035930390964638344 0 -0.0042747021915882392 0.00036765724760417709 0 -0.0042109988740064129 0.00025313116041207249 0 -0.0043242478179104918 0.00041710591969884472 0 -0.0043314886324592114 0.00045187836889459961 0 -0.0043242478179104918 0.00041710591969884472 0 -0.0043240074110085071 0.00053953537523650393 0 -0.0043876777582599266 0.00051079651498101887 0 -0.0043334313717813683 0.00050714841367955493 0 -0.0043240074110085071 0.00053953537523650393 0 -0.0043876777582599266 0.00051079651498101887 0 -0.0043398782730801151 0.00056746736438143756 0 -0.0043876777582599266 0.00051079651498101887 0 -0.0043334313717813683 0.00050714841367955493 0 -0.004332191758895515 0.00047143251122233577 0 -0.0043876777582599266 0.00051079651498101887 0 -0.004332191758895515 0.00047143251122233577 0 -0.0043654317888467383 0.00045270556158798019 0 -0.0043876777582599266 0.00051079651498101887 0 -0.0043654317888467383 0.00045270556158798019 0 -0.004402625581932878 0.00043663560461656953 0 -0.0043389053241137112 0.00043149488944750446 0 -0.004332191758895515 0.00047143251122233577 0 -0.0043654317888467383 0.00045270556158798019 0 -0.0043705648127576888 0.00042476926093948923 0 -0.0043389053241137112 0.00043149488944750446 0 -0.0043654317888467383 0.00045270556158798019 0 -0.0043705648127576888 0.00042476926093948923 0 -0.0043654317888467383 0.00045270556158798019 0 -0.004402625581932878 0.00043663560461656953 0 -0.0041498627184240406 0.00023308449831888699 0 -0.0041080788736649783 0.00022733366942242017 0 -0.004107111929041036 0.00017853132543729032 0 -0.0043314886324592114 0.00045187836889459961 0 -0.0042819310586324644 0.00034597287181448302 0 -0.0042758926452555347 0.00035980245718303464 0 -0.0042773054610473014 0.00035224162223752923 0 -0.0042829129903406852 0.00035930390964638344 0 -0.0042819310586324644 0.00034597287181448302 0 -0.0042109988740064129 0.00025313116041207249 0 -0.0041080788736649783 0.00022733366942242017 0 -0.0040859709414955746 0.00021426344563844186 0 -0.004107111929041036 0.00017853132543729032 0 -0.0040819009478318185 0.0002376843745152378 0 -0.0041080788736649783 0.00022733366942242017 0 -0.0040859709414955746 0.00021426344563844186 0 -0.0040819009478318185 0.0002376843745152378 0 -0.0040859709414955746 0.00021426344563844186 0 -0.0040669982556294114 0.0002172698106117496 0 -0.0041365103300232079 0.00018559447933851089 0 -0.0042109988740064129 0.00025313116041207249 0 -0.0040859709414955746 0.00021426344563844186 0 -0.0040657269774544364 0.0002106874162327701 0 -0.004107111929041036 0.00017853132543729032 0 -0.0039153140821819926 0.00017652587095987805 0 -0.0041365103300232079 0.00018559447933851089 0 -0.0040343495531754382 0.00025553539249820542 0 -0.0040669982556294114 0.0002172698106117496 0 -0.0040656255612042148 0.00021051461017605058 0 -0.0040433015175175193 0.00017018379280183915 0 -0.0040471211924961283 0.00016275101960097616 0 -0.0040561287390073163 0.00016125729108175643 0 -0.0040471211924961283 0.00016275101960097616 0 -0.004048018898104049 0.00015275176748956288 0 -0.0040561287390073163 0.00016125729108175643 0 -0.0038734174475539862 0.00013323570728420451 0 -0.0041365103300232079 0.00018559447933851089 0 -0.0040859709414955746 0.00021426344563844186 0 -0.0040669982556294114 0.0002172698106117496 0 -0.0040657269774544364 0.0002106874162327701 0 -0.0041329160735575502 0.00018930948182840524 0 -0.0041365103300232079 0.00018559447933851089 0 -0.0041683874490353028 0.00018117593514700906 0 -0.0041365103300232079 0.00018559447933851089 0 -0.0042818001694067071 0.00018903827876152817 0 -0.0042949076912096448 0.00018462489610087976 0 -0.0042820941898607514 0.00016571662871213143 0 -0.0042682181857050935 0.00018741223252815244 0 -0.0042818001694067071 0.00018903827876152817 0 -0.0042820941898607514 0.00016571662871213143 0 -0.0042682181857050935 0.00018741223252815244 0 -0.004282122200375894 0.00020270359019904769 0 -0.0042818001694067071 0.00018903827876152817 0 -0.004282122200375894 0.00020270359019904769 0 -0.0042818001694067071 0.00018903827876152817 0 -0.0042949076912096448 0.00018462489610087976 0 -0.004291461007222319 0.00030935458119961 0 -0.0042899398904257128 0.00030727204976661708 0 -0.0042941218139678885 0.00030205087669682847 0 -0.0041919996650624678 0.0002318668360332305 0 -0.0042094493564558124 0.00021866443117922731 0 -0.004205259227919666 0.00021326955176526714 0 -0.0041365103300232079 0.00018559447933851089 0 -0.004270189972650747 0.00023708463868469084 0 -0.0042109988740064129 0.00025313116041207249 0 -0.004270189972650747 0.00023708463868469084 0 -0.0043120136065156181 0.00024437329776424798 0 -0.0043110756709703645 0.00021738471128571876 0 -0.0043250533252624486 0.00022493245383526026 0 -0.0043120136065156181 0.00024437329776424798 0 -0.0043110756709703645 0.00021738471128571876 0 -0.0042927482071138086 0.00021953291402655031 0 -0.004270189972650747 0.00023708463868469084 0 -0.0043050179823917499 0.00026932582542040575 0 -0.004270189972650747 0.00023708463868469084 0 -0.0042891383321916896 0.00019119492862036458 0 -0.0043110756709703645 0.00021738471128571876 0 -0.0042927482071138086 0.00021953291402655031 0 -0.0043056914813104441 0.00020001388822128152 0 -0.0042682181857050935 0.00018741223252815244 0 -0.0042674767596729037 0.00016210680718849459 0 -0.0042820941898607514 0.00016571662871213143 0 -0.0042887491008903079 0.00015713069019595227 0 -0.0043398020578164437 0.00015907594886202192 0 -0.0043714174074374022 0.00017067020743980542 0 -0.0042766070644990051 0.00016644665169490125 0 -0.0043433187569009383 0.00018315556700044245 0 -0.0042674767596729037 0.00016210680718849459 0 -0.0042709315639405691 0.00014234278470922924 0 -0.0042820941898607514 0.00016571662871213143 0 -0.0042731367627858183 0.00019453817542134936 0 -0.0042927482071138086 0.00021953291402655031 0 -0.0043056914813104441 0.00020001388822128152 0 -0.0042766070644990051 0.00016644665169490125 0 -0.0042891383321916896 0.00019119492862036458 0 -0.0042887491008903079 0.00015713069019595227 0 -0.0043398020578164437 0.00015907594886202192 0 -0.0043033315679852861 0.00011681768364495848 0 -0.0043110756709703645 0.00021738471128571876 0 -0.0043056914813104441 0.00020001388822128152 0 -0.0043381279837971347 0.00020547594063369189 0 -0.0043433187569009383 0.00018315556700044245 0 -0.0043633768938808621 0.000239721480125955 0 -0.0043714174074374022 0.00017067020743980542 0 -0.0044063163574282489 0.00014679319562114148 0 -0.0044401983136902615 0.00018076938110135512 0 -0.0043714174074374022 0.00017067020743980542 0 -0.0044063163574282489 0.00014679319562114148 0 -0.0043737238982577619 0.00013482462755016206 0 -0.0043398020578164437 0.00015907594886202192 0 -0.0043714174074374022 0.00017067020743980542 0 -0.0043737238982577619 0.00013482462755016206 0 -0.0044063163574282489 0.00014679319562114148 0 -0.0044401983136902615 0.00018076938110135512 0 -0.0044362977497903605 0.00013909405267202709 0 -0.0043633768938808621 0.000239721480125955 0 -0.0044230372645392771 0.00021869693383613699 0 -0.0044401983136902615 0.00018076938110135512 0 -0.0044694330861117949 0.00013620731009539921 0 -0.0044362977497903605 0.00013909405267202709 0 -0.0043633768938808621 0.000239721480125955 0 -0.004332625075365232 0.00035418768769801551 0 -0.004291461007222319 0.00030935458119961 0 -0.0042941218139678885 0.00030205087669682847 0 -0.0043024868980077857 0.00030209025087328854 0 -0.0043633768938808621 0.000239721480125955 0 -0.0043050179823917499 0.00026932582542040575 0 -0.0043110756709703645 0.00021738471128571876 0 -0.0043381279837971347 0.00020547594063369189 0 -0.0043250533252624486 0.00022493245383526026 0 -0.0042982974294345482 0.00029650262737113174 0 -0.0042941218139678885 0.00030205087669682847 0 -0.0043024868980077857 0.00030209025087328854 0 -0.0043876777582599266 0.00051079651498101887 0 -0.0043398782730801151 0.00056746736438143756 0 -0.0043729885818992367 0.00057703172730298822 0 -0.0043242478179104918 0.00041710591969884472 0 -0.0043352913750753621 0.00049562750686640031 0 -0.0043318285061047408 0.00042672485557823393 0 -0.004330669227912704 0.00042765979396982656 0 -0.0043314428083225326 0.00042825522449587523 0 -0.0043242478179104918 0.00041710591969884472 0 -0.004332625075365232 0.00035418768769801551 0 -0.0042982974294345482 0.00029650262737113174 0 -0.0043024868980077857 0.00030209025087328854 0 -0.0043035659958839323 0.0002977085359764712 0 -0.0043419744830602977 0.00045930335437047588 0 -0.0043283070731790114 0.00047042712835277783 0 -0.0043470748507911513 0.00047323245804004477 0 -0.0043398782730801151 0.00056746736438143756 0 -0.0043729885818992367 0.00057703172730298822 0 -0.0043503649766793188 0.00059504488918900127 0 -0.0043398782730801151 0.00056746736438143756 0 -0.0043485504160397214 0.00059357930137689751 0 -0.0043323050412790182 0.00058207046832084366 0 -0.0043352913750753621 0.00049562750686640031 0 -0.0043301210660298319 0.00041437503199676453 0 -0.0043526725661001027 0.00057373588858822483 0 -0.0043352913750753621 0.00049562750686640031 0 -0.0043485504160397214 0.00059357930137689751 0 -0.0043323050412790182 0.00058207046832084366 0 -0.0043361762074853802 0.00060349376654383565 0 -0.0043352913750753621 0.00049562750686640031 0 -0.0043105805780546827 0.00050217603813036194 0 -0.0043336487393599637 0.00040492379051140608 0 -0.0043189310856315095 0.00041691437399184606 0 -0.0043129024064503477 0.00040219715008733988 0 -0.0042506139857878987 0.000395132415195275 0 -0.0042783947824978387 0.00042344979264527884 0 -0.0042762239458093761 0.0004342398051986359 0 -0.004330669227912704 0.00042765979396982656 0 -0.004330897663448156 0.00042823769611353188 0 -0.0043314428083225326 0.00042825522449587523 0 -0.0043189310856315095 0.00041691437399184606 0 -0.0043051670153976445 0.00041462808705064512 0 -0.0043129024064503477 0.00040219715008733988 0 -0.0043105805780546827 0.00050217603813036194 0 -0.0043301210660298319 0.00041437503199676453 0 -0.0043051670153976445 0.00041462808705064512 0 -0.0043129024064503477 0.00040219715008733988 0 -0.0042996600856287518 0.00039937080160203054 0 -0.0043546995133162568 0.00028625477469203529 0 -0.0043809743538404866 0.00029063056563335602 0 -0.0043833753251712997 0.00027887723159905175 0 -0.0043327978370009098 0.0003775411744547259 0 -0.0043233025178802077 0.00037601147680711499 0 -0.0043264759894391684 0.00036008632534848017 0 -0.0043301210660298319 0.00041437503199676453 0 -0.004332625075365232 0.00035418768769801551 0 -0.0043301210660298319 0.00041437503199676453 0 -0.0043477560739665503 0.00034037745771480193 0 -0.004332625075365232 0.00035418768769801551 0 -0.0043477560739665503 0.00034037745771480193 0 -0.0043477560739665503 0.00034037745771480193 0 -0.0044230372645392771 0.00021869693383613699 0 -0.0043477560739665503 0.00034037745771480193 0 -0.0043352000755075143 0.0003293435378173807 0 -0.0043546995133162568 0.00028625477469203529 0 -0.0043833753251712997 0.00027887723159905175 0 -0.0043750528602471417 0.00025533783727346021 0 -0.0043846069279707472 0.00032236583333811419 0 -0.00439337206012054 0.00027878009722967072 0 -0.0043675151205477035 0.00027486615713876432 0 -0.0042721718718274721 0.00046641082907943141 0 -0.0043352000755075143 0.0003293435378173807 0 -0.0043129024064503477 0.00040219715008733988 0 -0.0042996600856287518 0.00039937080160203054 0 -0.0043047776677371521 0.00037387573483011431 0 -0.0043336487393599637 0.00040492379051140608 0 -0.0043129024064503477 0.00040219715008733988 0 -0.0043047776677371521 0.00037387573483011431 0 -0.0043352000755075143 0.0003293435378173807 0 -0.0042969476905211964 0.00032976332863990431 0 -0.0044230372645392771 0.00021869693383613699 0 -0.0044157791894059032 0.00025202713010345702 0 -0.0043352000755075143 0.0003293435378173807 0 -0.0044157791894059032 0.00025202713010345702 0 -0.00439337206012054 0.00027878009722967072 0 -0.0043675151205477035 0.00027486615713876432 0 -0.0043765947394682064 0.00026103384422673386 0 -0.0043565657248977076 0.00029108820392094372 0 -0.0043594890947166896 0.00027626947936971839 0 -0.0043440267157535371 0.0002777039393367737 0 -0.0042969476905211964 0.00032976332863990431 0 -0.0044157791894059032 0.00025202713010345702 0 -0.0044157791894059032 0.00025202713010345702 0 -0.0044526485280753396 0.0002060924916436847 0 -0.0044230372645392771 0.00021869693383613699 0 -0.0044671711660656732 0.00017906078568951639 0 -0.0044495966401822988 0.00022532798413099774 0 -0.004451363051711967 0.0002093679973082594 0 -0.0044432781940061308 0.00020784451942469049 0 -0.0044495966401822988 0.00022532798413099774 0 -0.0044565040699277797 0.00021480005986607899 0 -0.004451363051711967 0.0002093679973082594 0 -0.0044526485280753396 0.0002060924916436847 0 -0.0044671711660656732 0.00017906078568951639 0 -0.0045407182854963098 0.00019236516861996565 0 -0.0045367221567679241 0.00019676729434387543 0 -0.0045428412197134277 0.0001940528719259434 0 -0.0045398467963995897 0.00019165428169485869 0 -0.0045407182854963098 0.00019236516861996565 0 -0.0045367221567679241 0.00019676729434387543 0 -0.0044526485280753396 0.0002060924916436847 0 -0.004502447290284233 0.00016784678386549983 0 -0.0044671711660656732 0.00017906078568951639 0 -0.004502447290284233 0.00016784678386549983 0 -0.0044744276286615902 0.00018486588187174521 0 -0.0044744479721074946 0.00018483755131453686 0 -0.0044745006881505827 0.00018478232405027612 0 -0.0044157791894059032 0.00025202713010345702 0 -0.0043472962662086979 0.00031477686489836859 0 -0.004346901904176542 0.00030114746322247479 0 -0.0043524963303541477 0.00030057588120026258 0 -0.0043444938262684691 0.00031229207559467932 0 -0.0042969476905211964 0.00032976332863990431 0 -0.0043472962662086979 0.00031477686489836859 0 -0.0043472962662086979 0.00031477686489836859 0 -0.0045638386931443576 0.00020136747481985014 0 -0.0045367221567679241 0.00019676729434387543 0 -0.0045419799291506477 0.00020119477338485526 0 -0.0045385430236562167 0.00020757047621936946 0 -0.0045367221567679241 0.00019676729434387543 0 -0.0045385430236562167 0.00020757047621936946 0 -0.0045352362812155879 0.00020825908586909173 0 -0.0045367221567679241 0.00019676729434387543 0 -0.0045419799291506477 0.00020119477338485526 0 -0.0045428412197134277 0.0001940528719259434 0 -0.0046045778366325604 0.00011189629026409504 0 -0.0046000457997739394 9.8780089235728059e-05 0 -0.0046011859627293076 9.7743623494666475e-05 0 -0.004502447290284233 0.00016784678386549983 0 -0.0047319021208896946 8.9874687777941669e-05 0 -0.004502447290284233 0.00016784678386549983 0 -0.004564364556890365 5.7815757684433167e-05 0 -0.0044467397222229567 7.8607196163088175e-05 0 -0.004522550086447392 0.00011565164028461043 0 -0.0044424697019806881 3.0749273901914062e-05 0 -0.0046045778366325604 0.00011189629026409504 0 -0.0045967500189792194 0.00010182052024472692 0 -0.0046000457997739394 9.8780089235728059e-05 0 -0.0045419799291506477 0.00020119477338485526 0 -0.0045428412197134277 0.0001940528719259434 0 -0.0045493648868699917 0.00020589374720752696 0 -0.004564364556890365 5.7815757684433167e-05 0 -0.0047122783196647863 5.5296321700108007e-05 0 -0.0044467397222229567 7.8607196163088175e-05 0 -0.004522550086447392 0.00011565164028461043 0 -0.0044424200068800927 0.00011619068154223458 0 -0.0044671711660656732 0.00017906078568951639 0 -0.0044275771357784226 0.00011238208521253257 0 -0.0045285569649037866 0.00013235202062801147 0 -0.004522550086447392 0.00011565164028461043 0 -0.0044424200068800927 0.00011619068154223458 0 -0.0044636315019425266 0.00011989772313987607 0 -0.0044362977497903605 0.00013909405267202709 0 -0.0044088320572951535 0.00010865580435816727 0 -0.0044694330861117949 0.00013620731009539921 0 -0.0044636315019425266 0.00011989772313987607 0 -0.0044362977497903605 0.00013909405267202709 0 -0.0044063163574282489 0.00014679319562114148 0 -0.0044362977497903605 0.00013909405267202709 0 -0.0044088320572951535 0.00010865580435816727 0 -0.0043737238982577619 0.00013482462755016206 0 -0.0044088320572951535 0.00010865580435816727 0 -0.0043551581180379436 9.6636240720576083e-05 0 -0.0044424200068800927 0.00011619068154223458 0 -0.0043551581180379436 9.6636240720576083e-05 0 -0.0044057497756281204 7.9503299146472026e-05 0 -0.0044275771357784226 0.00011238208521253257 0 -0.0043623370486862165 9.8900704407831372e-05 0 -0.0044063163574282489 0.00014679319562114148 0 -0.0043737238982577619 0.00013482462755016206 0 -0.0044088320572951535 0.00010865580435816727 0 -0.0044467397222229567 7.8607196163088175e-05 0 -0.0044424200068800927 0.00011619068154223458 0 -0.0044057497756281204 7.9503299146472026e-05 0 -0.0043398020578164437 0.00015907594886202192 0 -0.0043033315679852861 0.00011681768364495848 0 -0.0043408451953797162 6.7775678757830751e-05 0 -0.0043398020578164437 0.00015907594886202192 0 -0.0043551581180379436 9.6636240720576083e-05 0 -0.0043491728774493798 8.0449751480828576e-05 0 -0.0043321751343154595 0.0001634153377549327 0 -0.0043905550883374693 5.2417676884094683e-05 0 -0.0043398020578164437 0.00015907594886202192 0 -0.0043737238982577619 0.00013482462755016206 0 -0.0043551581180379436 9.6636240720576083e-05 0 -0.0043033315679852861 0.00011681768364495848 0 -0.0043408451953797162 6.7775678757830751e-05 0 -0.0042824649785436746 7.6274704436765086e-05 0 -0.0046701885900652541 -1.3941636309802481e-05 0 -0.0045766377930838986 -3.3111029887798388e-05 0 -0.0045901709728604139 -1.613227754566813e-06 0 -0.0045904900132441254 -5.8509373737337229e-06 0 -0.0045818399034194867 -1.3735279998273386e-07 0 -0.0045052260171264151 2.5994723393582278e-05 0 -0.0045766377930838986 -3.3111029887798388e-05 0 -0.0044496945162442042 8.057502651708089e-06 0 -0.0044757014173565273 -1.118887144681211e-05 0 -0.0044219231303787585 -1.427025730451628e-06 0 -0.0043905550883374693 5.2417676884094683e-05 0 -0.0043573318861030007 4.7959588712308191e-05 0 -0.0044496945162442042 8.057502651708089e-06 0 -0.0044745590664664369 1.9789261663791396e-05 0 -0.0044264595774709606 2.5139478798737235e-05 0 -0.0043905550883374693 5.2417676884094683e-05 0 -0.0045052260171264151 2.5994723393582278e-05 0 -0.0044496945162442042 8.057502651708089e-06 0 -0.0044745590664664369 1.9789261663791396e-05 0 -0.0044757014173565273 -1.118887144681211e-05 0 -0.0043459506824699845 7.6461030472163149e-05 0 -0.0043477391227665814 2.7050348191644551e-05 0 -0.0043702111249050296 7.3906495853546706e-05 0 -0.0043905550883374693 5.2417676884094683e-05 0 -0.0043737697803701578 5.8485935348166019e-05 0 -0.0043551581180379436 9.6636240720576083e-05 0 -0.0043491728774493798 8.0449751480828576e-05 0 -0.0043702111249050296 7.3906495853546706e-05 0 -0.0044467397222229567 7.8607196163088175e-05 0 -0.0044245148641179266 4.8364846273338502e-05 0 -0.0044424697019806881 3.0749273901914062e-05 0 -0.0044467397222229567 7.8607196163088175e-05 0 -0.0044057497756281204 7.9503299146472026e-05 0 -0.0044245148641179266 4.8364846273338502e-05 0 -0.0044057497756281204 7.9503299146472026e-05 0 -0.0043969724980515114 6.2956010926197364e-05 0 -0.0044245148641179266 4.8364846273338502e-05 0 -0.0043551581180379436 9.6636240720576083e-05 0 -0.0044057497756281204 7.9503299146472026e-05 0 -0.0043702111249050296 7.3906495853546706e-05 0 -0.0044057497756281204 7.9503299146472026e-05 0 -0.0043702111249050296 7.3906495853546706e-05 0 -0.0043969724980515114 6.2956010926197364e-05 0 -0.0043969724980515114 6.2956010926197364e-05 0 -0.0043929053854216589 4.4830624410815319e-05 0 -0.0044245148641179266 4.8364846273338502e-05 0 -0.0043702111249050296 7.3906495853546706e-05 0 -0.0043969724980515114 6.2956010926197364e-05 0 -0.0043929053854216589 4.4830624410815319e-05 0 -0.0043477391227665814 2.7050348191644551e-05 0 -0.0043702111249050296 7.3906495853546706e-05 0 -0.0043929053854216589 4.4830624410815319e-05 0 -0.0046372620332872103 1.8047860579975149e-05 0 -0.0046596616463084623 1.3635266748171803e-05 0 -0.0046449255792340672 1.042293275264006e-05 0 -0.0043477391227665814 2.7050348191644551e-05 0 -0.0043929053854216589 4.4830624410815319e-05 0 -0.0044251280028362585 1.2034803699038091e-05 0 -0.0045052260171264151 2.5994723393582278e-05 0 -0.0046322315631805427 3.6679345243807249e-05 0 -0.0046081716179361349 4.7293003641516568e-05 0 -0.0046284041912387289 6.850306958731458e-05 0 -0.0046599094613454933 3.7379517088220389e-05 0 -0.0043929053854216589 4.4830624410815319e-05 0 -0.0044251280028362585 1.2034803699038091e-05 0 -0.0044245148641179266 4.8364846273338502e-05 0 -0.0044251280028362585 1.2034803699038091e-05 0 -0.0044245148641179266 4.8364846273338502e-05 0 -0.0044429894580829783 3.0666384142400101e-05 0 -0.0045130248802424293 7.7292146461747113e-05 0 -0.004564364556890365 5.7815757684433167e-05 0 -0.0046322315631805427 3.6679345243807249e-05 0 -0.004564364556890365 5.7815757684433167e-05 0 -0.0048491485640480359 -2.6294712822176224e-06 0 -0.0048471010527235334 7.9481844531339159e-07 0 -0.0048499131333002285 -8.0246668152830301e-07 0 -0.0048514287337938621 5.1872324187673726e-07 0 -0.00484975978156764 7.6658778398912442e-06 0 -0.0048499131333002285 -8.0246668152830301e-07 0 -0.004853226988621743 1.238675815033416e-06 0 -0.0048527359806107414 5.2840740945222951e-06 0 -0.0048471010527235334 7.9481844531339159e-07 0 -0.0048499131333002285 -8.0246668152830301e-07 0 -0.0048500637927254685 1.1550591702130268e-05 0 -0.0048491485640480359 -2.6294712822176224e-06 0 -0.0048499131333002285 -8.0246668152830301e-07 0 -0.004853226988621743 1.238675815033416e-06 0 -0.0046596616463084623 1.3635266748171803e-05 0 -0.0046462420653782628 3.2650518217487458e-07 0 -0.0046445360341002967 -2.7528913898655588e-06 0 -0.0046322315631805427 3.6679345243807249e-05 0 -0.0047639545845992977 -5.4867465210059767e-06 0 -0.0046596616463084623 1.3635266748171803e-05 0 -0.0046495352910815831 6.3500509800084661e-06 0 -0.0046462420653782628 3.2650518217487458e-07 0 -0.0046596616463084623 1.3635266748171803e-05 0 -0.0046449255792340672 1.042293275264006e-05 0 -0.0046495352910815831 6.3500509800084661e-06 0 -0.0046439170867650084 5.4547805714044758e-06 0 -0.0046495352910815831 6.3500509800084661e-06 0 -0.0046459469449512455 -1.0880641354470302e-07 0 -0.0046979948470034514 -2.029869501983544e-05 0 -0.0047130869660200816 -2.2983225544904164e-05 0 -0.0046449255792340672 1.042293275264006e-05 0 -0.0046439170867650084 5.4547805714044758e-06 0 -0.0046495352910815831 6.3500509800084661e-06 0 -0.0047130869660200816 -2.2983225544904164e-05 0 -0.0047639545845992977 -5.4867465210059767e-06 0 -0.0047092185369926138 -1.0263199277366628e-05 0 -0.0047246709258736905 -1.7083721570465188e-05 0 -0.0047407521020914577 -1.8383769258182392e-06 0 -0.0047094315869533974 -2.5531085128925593e-05 0 -0.0047354984699038401 -4.3599206306635323e-05 0 -0.0047292153115071726 -2.7195300921568049e-05 0 -0.0047094315869533974 -2.5531085128925593e-05 0 -0.0047246709258736905 -1.7083721570465188e-05 0 -0.0047292153115071726 -2.7195300921568049e-05 0 -0.0046372620332872103 1.8047860579975149e-05 0 -0.0046449255792340672 1.042293275264006e-05 0 -0.0046378223204349527 5.4231885155812653e-06 0 -0.0045052260171264151 2.5994723393582278e-05 0 -0.0046701885900652541 -1.3941636309802481e-05 0 -0.0047130869660200816 -2.2983225544904164e-05 0 -0.0046701885900652541 -1.3941636309802481e-05 0 -0.0046439170867650084 5.4547805714044758e-06 0 -0.0046459469449512455 -1.0880641354470302e-07 0 -0.0046378223204349527 5.4231885155812653e-06 0 -0.0046449255792340672 1.042293275264006e-05 0 -0.0046439170867650084 5.4547805714044758e-06 0 -0.0046378223204349527 5.4231885155812653e-06 0 -0.0047094315869533974 -2.5531085128925593e-05 0 -0.0047092185369926138 -1.0263199277366628e-05 0 -0.0047246709258736905 -1.7083721570465188e-05 0 -0.004737329345081579 -1.5965910426036461e-05 0 -0.0047378910979012714 -1.7045364725281207e-05 0 -0.0047381814181290715 -1.5198488182334154e-05 0 -0.0046701885900652541 -1.3941636309802481e-05 0 -0.0047992243134589076 -1.5424234875218897e-05 0 -0.0047370516228800886 -1.6372347064056132e-05 0 -0.004737329345081579 -1.5965910426036461e-05 0 -0.0047378910979012714 -1.7045364725281207e-05 0 -0.0047995029449114839 -2.5608127959061183e-05 0 -0.0048135196958578796 -1.1179092247196766e-05 0 -0.004813354018804992 -2.3594348995811699e-06 0 -0.0047639545845992977 -5.4867465210059767e-06 0 -0.0048550940217961837 -1.1908661068843667e-05 0 -0.0047639545845992977 -5.4867465210059767e-06 0 -0.0047992243134589076 -1.5424234875218897e-05 0 -0.0048546275608875077 3.0994834011074901e-06 0 -0.0048527359806107414 5.2840740945222951e-06 0 -0.0048560225094781001 1.1482558529416186e-05 0 -0.0047092185369926138 -1.0263199277366628e-05 0 -0.0047407521020914577 -1.8383769258182392e-06 0 -0.0047350437579358907 1.6318139806699626e-05 0 -0.0048550940217961837 -1.1908661068843667e-05 0 -0.0049442147580675859 -7.4973112229450936e-06 0 -0.0047992243134589076 -1.5424234875218897e-05 0 -0.0048002232931548539 -1.3630372409857222e-06 0 -0.0048598883755389876 -3.3975188094011896e-05 0 -0.0048599024993156567 -3.1044022576533121e-05 0 -0.0048802204360876046 -1.4040905067630185e-05 0 -0.0048599024993156567 -3.1044022576533121e-05 0 -0.0048802204360876046 -1.4040905067630185e-05 0 -0.0048789351233496925 -1.1344956235260159e-06 0 -0.0047992243134589076 -1.5424234875218897e-05 0 -0.0048550940217961837 -1.1908661068843667e-05 0 -0.0048499131333002285 -8.0246668152830301e-07 0 -0.0048500637927254685 1.1550591702130268e-05 0 -0.0048567193886857015 1.1170102090923666e-05 0 -0.004853226988621743 1.238675815033416e-06 0 -0.0048546275608875077 3.0994834011074901e-06 0 -0.0048527359806107414 5.2840740945222951e-06 0 -0.004991045433275226 9.9253786748053668e-06 0 -0.0049950726331978376 1.1921484849204017e-05 0 -0.0049952705236691796 6.2104066374448627e-06 0 -0.0048618545045962473 6.8214266155725275e-05 0 -0.0048298235570655703 8.9260481962909262e-05 0 -0.0045877304021152048 0.00018533773837839986 0 -0.0047319021208896946 8.9874687777941669e-05 0 -0.0045419799291506477 0.00020119477338485526 0 -0.0045385430236562167 0.00020757047621936946 0 -0.0045493648868699917 0.00020589374720752696 0 -0.0046924470709370182 0.00014630906024444716 0 -0.0046901607402529419 0.00013862361748699371 0 -0.0047028552324074229 0.00013667572806388119 0 -0.0046901607402529419 0.00013862361748699371 0 -0.0046841642752004824 0.00014653847331732342 0 -0.0046864232735648699 0.00013969934775323362 0 -0.0046924470709370182 0.00014630906024444716 0 -0.0046901607402529419 0.00013862361748699371 0 -0.0046841642752004824 0.00014653847331732342 0 -0.0045877304021152048 0.00018533773837839986 0 -0.0045638386931443576 0.00020136747481985014 0 -0.004991045433275226 9.9253786748053668e-06 0 -0.0049950726331978376 1.1921484849204017e-05 0 -0.0049900401206154719 1.6309707797205475e-05 0 -0.0049368581197294049 1.8254839571518436e-06 0 -0.0047319021208896946 8.9874687777941669e-05 0 -0.0048471010527235334 7.9481844531339159e-07 0 -0.0048500637927254685 1.1550591702130268e-05 0 -0.0048426585990817813 -1.0677023524852144e-06 0 -0.0046322315631805427 3.6679345243807249e-05 0 -0.0047122783196647863 5.5296321700108007e-05 0 -0.0048491485640480359 -2.6294712822176224e-06 0 -0.0048471010527235334 7.9481844531339159e-07 0 -0.0048438090588737099 -2.1287581310632053e-06 0 -0.0047122783196647863 5.5296321700108007e-05 0 -0.0047319021208896946 8.9874687777941669e-05 0 -0.0048471010527235334 7.9481844531339159e-07 0 -0.0048438090588737099 -2.1287581310632053e-06 0 -0.0048426585990817813 -1.0677023524852144e-06 0 -0.0048618545045962473 6.8214266155725275e-05 0 -0.0047319021208896946 8.9874687777941669e-05 0 -0.0039256235070351158 -0.00011132937487453265 0 -0.0040098291617697316 -0.00012395975950932575 0 -0.0039611980479282438 -0.00018045283415321625 0 -0.0044680466342176565 -1.3995391594654043e-05 0 -0.0045023677487630344 -8.9768123894241097e-05 0 -0.0044061651472657951 -8.9266331019093316e-05 0 -0.004132681995539662 -8.0776066784779747e-05 0 -0.0044660781268643195 -5.4972699133336071e-05 0 -0.0038622165541394539 -0.00010922227533572467 0 -0.0040256130533045447 -7.361763847875764e-05 0 -0.0038939502431418523 -6.6794856521498378e-05 0 -0.0039253127609952124 -0.00011106005816828719 0 -0.0039377595212471226 -9.5593689676072672e-05 0 -0.0038907256316467066 -0.00010785816295057642 0 -0.0039348710311587643 -0.00012543764672231779 0 -0.0039453735404948419 -0.00011300511208289674 0 -0.0038701797168539005 -0.00011227944254248646 0 -0.004132681995539662 -8.0776066784779747e-05 0 -0.0038784991828599521 -0.00011375815082686649 0 -0.0038907256316467066 -0.00010785816295057642 0 -0.0039348710311587643 -0.00012543764672231779 0 -0.0038907256316467066 -0.00010785816295057642 0 -0.0038939502431418523 -6.6794856521498378e-05 0 -0.0039253127609952124 -0.00011106005816828719 0 -0.0040256130533045447 -7.361763847875764e-05 0 -0.0042971499492113849 -1.0490401749606375e-05 0 -0.0039770426663488512 -5.7786734088304757e-05 0 -0.0040478394541022438 2.717965482286929e-05 0 -0.0042197632629803047 -8.3921313685594412e-05 0 -0.004132681995539662 -8.0776066784779747e-05 0 -0.0040256130533045447 -7.361763847875764e-05 0 -0.0040256130533045447 -7.361763847875764e-05 0 -0.0039061170187760954 -4.5931747396707543e-05 0 -0.0040972663708568145 -4.3993824001804795e-05 0 -0.0041371980332722928 3.9857726531292562e-06 0 -0.004388804981945482 -9.8966670839417843e-05 0 -0.0044680466342176565 -1.3995391594654043e-05 0 -0.0046065359469011791 -4.002589362011093e-05 0 -0.0045023677487630344 -8.9768123894241097e-05 0 -0.004132681995539662 -8.0776066784779747e-05 0 -0.0045529191753292432 -4.3196400345080096e-05 0 -0.0041371980332722928 3.9857726531292562e-06 0 -0.004388804981945482 -9.8966670839417843e-05 0 -0.0044004642002006692 -2.4341436383513597e-05 0 -0.0046065359469011791 -4.002589362011093e-05 0 -0.0045992362651490291 -8.9930959472242774e-05 0 -0.0045023677487630344 -8.9768123894241097e-05 0 -0.0045529191753292432 -4.3196400345080096e-05 0 -0.0047514334579305973 -6.1726778754259929e-05 0 -0.0047571163097229145 -4.7549545481682083e-05 0 -0.0047523335841984293 -3.3155372070901077e-05 0 -0.0047598718148764473 -3.3317868345882754e-05 0 -0.0045529191753292432 -4.3196400345080096e-05 0 -0.0042971499492113849 -1.0490401749606375e-05 0 -0.0040917108120509483 3.5999505813535864e-05 0 -0.0040347052287287482 -1.4277901892948694e-05 0 -0.0040782487245729845 -4.7979505954555029e-05 0 -0.004167153522792821 9.6086443200182867e-05 0 -0.0042971499492113849 -1.0490401749606375e-05 0 -0.0040047436188254413 -1.2973769923427009e-06 0 -0.0040347052287287482 -1.4277901892948694e-05 0 -0.0040782487245729845 -4.7979505954555029e-05 0 -0.0039061170187760954 -4.5931747396707543e-05 0 -0.0042971499492113849 -1.0490401749606375e-05 0 -0.0042467124457793897 0.00014417162620295677 0 -0.0042323222338249622 8.5745295608047399e-05 0 -0.0042658110422805927 0.00012645074159647925 0 -0.0042323222338249622 8.5745295608047399e-05 0 -0.0042658110422805927 0.00012645074159647925 0 -0.0042824649785436746 7.6274704436765086e-05 0 -0.0042971499492113849 -1.0490401749606375e-05 0 -0.0043573318861030007 4.7959588712308191e-05 0 -0.0042887491008903079 0.00015713069019595227 0 -0.0043033315679852861 0.00011681768364495848 0 -0.0042658110422805927 0.00012645074159647925 0 -0.0043033315679852861 0.00011681768364495848 0 -0.0042658110422805927 0.00012645074159647925 0 -0.0042824649785436746 7.6274704436765086e-05 0 -0.0044496945162442042 8.057502651708089e-06 0 -0.0044264595774709606 2.5139478798737235e-05 0 -0.0044219231303787585 -1.427025730451628e-06 0 -0.0043766237266732698 3.0479052639676019e-05 0 -0.0044264595774709606 2.5139478798737235e-05 0 -0.0044219231303787585 -1.427025730451628e-06 0 -0.0044291982925754791 -5.1644199390624002e-05 0 -0.0044372598079965297 5.2098547297689823e-07 0 -0.0045388539442544088 -7.2558355845271224e-05 0 -0.0042971499492113849 -1.0490401749606375e-05 0 -0.0045766377930838986 -3.3111029887798388e-05 0 -0.0045529191753292432 -4.3196400345080096e-05 0 -0.0045766377930838986 -3.3111029887798388e-05 0 -0.0047571163097229145 -4.7549545481682083e-05 0 -0.0047354984699038401 -4.3599206306635323e-05 0 -0.0047523335841984293 -3.3155372070901077e-05 0 -0.0047354984699038401 -4.3599206306635323e-05 0 -0.0047390803949123646 -3.0092701324435459e-05 0 -0.0047523335841984293 -3.3155372070901077e-05 0 -0.0047354984699038401 -4.3599206306635323e-05 0 -0.0047292153115071726 -2.7195300921568049e-05 0 -0.0047390803949123646 -3.0092701324435459e-05 0 -0.0047292153115071726 -2.7195300921568049e-05 0 -0.0047390803949123646 -3.0092701324435459e-05 0 -0.0047374361866236578 -1.9484131507360084e-05 0 -0.0047390803949123646 -3.0092701324435459e-05 0 -0.0047479227015920448 -2.5807869824229193e-05 0 -0.0047523335841984293 -3.3155372070901077e-05 0 -0.0047390803949123646 -3.0092701324435459e-05 0 -0.0047479227015920448 -2.5807869824229193e-05 0 -0.0047374361866236578 -1.9484131507360084e-05 0 -0.0047512117679691926 -1.5233295313636781e-05 0 -0.0047374361866236578 -1.9484131507360084e-05 0 -0.0047407521020914577 -1.8383769258182392e-06 0 -0.0047479227015920448 -2.5807869824229193e-05 0 -0.0047512117679691926 -1.5233295313636781e-05 0 -0.0047374361866236578 -1.9484131507360084e-05 0 -0.0047246709258736905 -1.7083721570465188e-05 0 -0.0047292153115071726 -2.7195300921568049e-05 0 -0.0047374361866236578 -1.9484131507360084e-05 0 -0.0047246709258736905 -1.7083721570465188e-05 0 -0.0047374361866236578 -1.9484131507360084e-05 0 -0.0047407521020914577 -1.8383769258182392e-06 0 -0.0047407521020914577 -1.8383769258182392e-06 0 -0.0047648032285435129 1.844506346407137e-05 0 -0.0047350437579358907 1.6318139806699626e-05 0 -0.0049879816197346081 -1.0805705447454811e-06 0 -0.0049896120755646683 -2.3432431828804967e-06 0 -0.0049893491784190214 -1.9777973634852014e-06 0 -0.0047407521020914577 -1.8383769258182392e-06 0 -0.0047675088461615516 -5.9986270682707075e-06 0 -0.0047648032285435129 1.844506346407137e-05 0 -0.004981171193101013 -1.0043410320103897e-05 0 -0.0049838895097087301 -9.191187457790878e-06 0 -0.0049850265463520461 -7.6667744668756986e-06 0 -0.0049277639649786837 -6.0321869553752907e-07 0 -0.0049915448491991022 -4.8885834131006876e-06 0 -0.0047512117679691926 -1.5233295313636781e-05 0 -0.0047407521020914577 -1.8383769258182392e-06 0 -0.0047675088461615516 -5.9986270682707075e-06 0 -0.0049277639649786837 -6.0321869553752907e-07 0 -0.0048782896227494675 9.8074873784623337e-06 0 -0.004981171193101013 -1.0043410320103897e-05 0 -0.0049821108379896539 -1.0104019691944019e-05 0 -0.0049838895097087301 -9.191187457790878e-06 0 -0.004981171193101013 -1.0043410320103897e-05 0 -0.0049821108379896539 -1.0104019691944019e-05 0 -0.0049807697668636363 -1.0373400186337677e-05 0 -0.0049277639649786837 -6.0321869553752907e-07 0 -0.0049322216361281064 -4.5294856873865755e-06 0 -0.0047512117679691926 -1.5233295313636781e-05 0 -0.0047675088461615516 -5.9986270682707075e-06 0 -0.0047617055763141151 -3.3215224109465272e-05 0 -0.0049809113707590209 -9.9311568733818082e-06 0 -0.0049807697668636363 -1.0373400186337677e-05 0 -0.0049787310093224934 -1.2670715109343385e-05 0 -0.0049807697668636363 -1.0373400186337677e-05 0 -0.0049787310093224934 -1.2670715109343385e-05 0 -0.0049817113657385217 -1.0927468920327305e-05 0 -0.0049821108379896539 -1.0104019691944019e-05 0 -0.0049807697668636363 -1.0373400186337677e-05 0 -0.0049817113657385217 -1.0927468920327305e-05 0 -0.0049277639649786837 -6.0321869553752907e-07 0 -0.0047514334579305973 -6.1726778754259929e-05 0 -0.0047479227015920448 -2.5807869824229193e-05 0 -0.0047512117679691926 -1.5233295313636781e-05 0 -0.0047617055763141151 -3.3215224109465272e-05 0 -0.0047479227015920448 -2.5807869824229193e-05 0 -0.0047523335841984293 -3.3155372070901077e-05 0 -0.0047617055763141151 -3.3215224109465272e-05 0 -0.0047539754993777012 -5.4240363552653947e-05 0 -0.0047514334579305973 -6.1726778754259929e-05 0 -0.0049787310093224934 -1.2670715109343385e-05 0 -0.0049816044986196193 -1.1626794283936386e-05 0 -0.0049817113657385217 -1.0927468920327305e-05 0 -0.0047514334579305973 -6.1726778754259929e-05 0 -0.0047901277793946564 -5.0117842944628854e-05 0 -0.0049817113657385217 -1.0927468920327305e-05 0 -0.0049832142134124697 -1.0025415937265748e-05 0 -0.0049832562664346471 -1.0337958211317832e-05 0 -0.0049816044986196193 -1.1626794283936386e-05 0 -0.0049817113657385217 -1.0927468920327305e-05 0 -0.0049832562664346471 -1.0337958211317832e-05 0 -0.0049821108379896539 -1.0104019691944019e-05 0 -0.0049817113657385217 -1.0927468920327305e-05 0 -0.0049832142134124697 -1.0025415937265748e-05 0 -0.0049821108379896539 -1.0104019691944019e-05 0 -0.0049832142134124697 -1.0025415937265748e-05 0 -0.0049838895097087301 -9.191187457790878e-06 0 -0.0049832142134124697 -1.0025415937265748e-05 0 -0.0049838895097087301 -9.191187457790878e-06 0 -0.0049852467210611011 -9.3220752507349729e-06 0 -0.0049838895097087301 -9.191187457790878e-06 0 -0.0049852467210611011 -9.3220752507349729e-06 0 -0.0049864417981154933 -8.2801478176843982e-06 0 -0.0049832142134124697 -1.0025415937265748e-05 0 -0.0049852467210611011 -9.3220752507349729e-06 0 -0.0049832562664346471 -1.0337958211317832e-05 0 -0.0049852467210611011 -9.3220752507349729e-06 0 -0.0049853443903704981 -9.0655832060477052e-06 0 -0.0049832562664346471 -1.0337958211317832e-05 0 -0.0049852467210611011 -9.3220752507349729e-06 0 -0.0049853443903704981 -9.0655832060477052e-06 0 -0.0049874709025346737 -8.8376345029963444e-06 0 -0.0049853443903704981 -9.0655832060477052e-06 0 -0.0049832562664346471 -1.0337958211317832e-05 0 -0.004981089878677963 -1.0597683527164779e-05 0 -0.0047901277793946564 -5.0117842944628854e-05 0 -0.0044660781268643195 -5.4972699133336071e-05 0 -0.0049816044986196193 -1.1626794283936386e-05 0 -0.0049832562664346471 -1.0337958211317832e-05 0 -0.004981089878677963 -1.0597683527164779e-05 0 -0.0049927814038715594 -4.4664693145784716e-06 0 -0.0049889621570692651 -9.6350554017618813e-06 0 -0.0049895193338134834 -6.5419000132455717e-06 0 -0.0049927814038715594 -4.4664693145784716e-06 0 -0.0049895193338134834 -6.5419000132455717e-06 0 -0.0049929343152897258 -3.3797360427787419e-06 0 -0.0049889621570692651 -9.6350554017618813e-06 0 -0.0049874709025346737 -8.8376345029963444e-06 0 -0.0049895193338134834 -6.5419000132455717e-06 0 -0.0049853443903704981 -9.0655832060477052e-06 0 -0.0049889621570692651 -9.6350554017618813e-06 0 -0.0049874709025346737 -8.8376345029963444e-06 0 -0.0049874709025346737 -8.8376345029963444e-06 0 -0.0049864417981154933 -8.2801478176843982e-06 0 -0.0049895193338134834 -6.5419000132455717e-06 0 -0.0049864417981154933 -8.2801478176843982e-06 0 -0.0049881585835822939 -6.4772577904383254e-06 0 -0.0049895193338134834 -6.5419000132455717e-06 0 -0.0049852467210611011 -9.3220752507349729e-06 0 -0.0049874709025346737 -8.8376345029963444e-06 0 -0.0049864417981154933 -8.2801478176843982e-06 0 -0.0049838895097087301 -9.191187457790878e-06 0 -0.0049864417981154933 -8.2801478176843982e-06 0 -0.0049850265463520461 -7.6667744668756986e-06 0 -0.0049864417981154933 -8.2801478176843982e-06 0 -0.0049881585835822939 -6.4772577904383254e-06 0 -0.0049850265463520461 -7.6667744668756986e-06 0 -0.0049881585835822939 -6.4772577904383254e-06 0 -0.0049895193338134834 -6.5419000132455717e-06 0 -0.0049914511527208126 -3.3963747346319796e-06 0 -0.0049881585835822939 -6.4772577904383254e-06 0 -0.0049914511527208126 -3.3963747346319796e-06 0 -0.0049850265463520461 -7.6667744668756986e-06 0 -0.0049895193338134834 -6.5419000132455717e-06 0 -0.0049914511527208126 -3.3963747346319796e-06 0 -0.0049929343152897258 -3.3797360427787419e-06 0 -0.0049914511527208126 -3.3963747346319796e-06 0 -0.0049905757074453659 -2.8152863015252228e-06 0 -0.0049920087369747183 -2.6504614033737246e-06 0 -0.0049914511527208126 -3.3963747346319796e-06 0 -0.0049902953885553204 -2.6963609199979182e-06 0 -0.0049896120755646683 -2.3432431828804967e-06 0 -0.0049898534880057797 -3.9157214758367751e-06 0 -0.0049915448491991022 -4.8885834131006876e-06 0 -0.0048698552216205719 1.4211640111361165e-05 0 -0.0049683961402000008 2.1473204527989315e-06 0 -0.0049914511527208126 -3.3963747346319796e-06 0 -0.0049905757074453659 -2.8152863015252228e-06 0 -0.0049902953885553204 -2.6963609199979182e-06 0 -0.0049902953885553204 -2.6963609199979182e-06 0 -0.0049896120755646683 -2.3432431828804967e-06 0 -0.0049893491784190214 -1.9777973634852014e-06 0 -0.0049905757074453659 -2.8152863015252228e-06 0 -0.0049902953885553204 -2.6963609199979182e-06 0 -0.0049893491784190214 -1.9777973634852014e-06 0 -0.0048698552216205719 1.4211640111361165e-05 0 -0.0048782896227494675 9.8074873784623337e-06 0 -0.0048698552216205719 1.4211640111361165e-05 0 -0.0048002232931548539 -1.3630372409857222e-06 0 -0.0047619807474868882 4.3142103537827212e-05 0 -0.0047648032285435129 1.844506346407137e-05 0 -0.0047350437579358907 1.6318139806699626e-05 0 -0.0048999808884295556 5.8200194080368581e-06 0 -0.0048802204360876046 -1.4040905067630185e-05 0 -0.0048789351233496925 -1.1344956235260159e-06 0 -0.0049948380550335113 -1.4333700593896851e-05 0 -0.0049960676296249354 -6.8176162116008947e-06 0 -0.0049932243992478944 -9.6030015691588715e-06 0 -0.0049948380550335113 -1.4333700593896851e-05 0 -0.0049960676296249354 -6.8176162116008947e-06 0 -0.0050006696047337025 -4.8558345834735066e-06 0 -0.0049442147580675859 -7.4973112229450936e-06 0 -0.0049683961402000008 2.1473204527989315e-06 0 -0.0048999808884295556 5.8200194080368581e-06 0 -0.0048789351233496925 -1.1344956235260159e-06 0 -0.0048974250731948325 2.8260222571696859e-05 0 -0.0049960676296249354 -6.8176162116008947e-06 0 -0.0049983165375722541 -2.5528467488079175e-06 0 -0.0049935905600304734 -4.5878142622649076e-06 0 -0.0049960676296249354 -6.8176162116008947e-06 0 -0.0049983165375722541 -2.5528467488079175e-06 0 -0.0050006696047337025 -4.8558345834735066e-06 0 -0.0049983165375722541 -2.5528467488079175e-06 0 -0.0049999918597523176 5.5223464346483186e-11 0 -0.0049935905600304734 -4.5878142622649076e-06 0 -0.0049983165375722541 -2.5528467488079175e-06 0 -0.0050000048346908969 3.1778642972253127e-10 0 -0.0050006696047337025 -4.8558345834735066e-06 0 -0.0050000156417108008 -1.1333974558224187e-08 0 -0.0049683961402000008 2.1473204527989315e-06 0 -0.0049983165375722541 -2.5528467488079175e-06 0 -0.0049999918597523176 5.5223464346483186e-11 0 -0.0050000048346908969 3.1778642972253127e-10 0 -0.0049999970590132604 -2.3837151855411056e-09 0 -0.0049975487671560116 -2.4459621565652247e-07 0 -0.0049999926211538957 8.664531433472329e-11 0 -0.0049999970590132604 -2.3837151855411056e-09 0 -0.0049975487671560116 -2.4459621565652247e-07 0 -0.0049981462723707312 1.2722878352131695e-06 0 -0.0049914511527208126 -3.3963747346319796e-06 0 -0.0049920087369747183 -2.6504614033737246e-06 0 -0.0049951339917537925 -1.6729344626374272e-06 0 -0.0049975487671560116 -2.4459621565652247e-07 0 -0.0049920087369747183 -2.6504614033737246e-06 0 -0.0049951339917537925 -1.6729344626374272e-06 0 -0.0049995419233517689 2.4988086757326538e-06 0 -0.0049683961402000008 2.1473204527989315e-06 0 -0.0049929343152897258 -3.3797360427787419e-06 0 -0.0049951339917537925 -1.6729344626374272e-06 0 -0.0049959874217122748 -1.6771681423787551e-06 0 -0.0049914511527208126 -3.3963747346319796e-06 0 -0.0049929343152897258 -3.3797360427787419e-06 0 -0.0049951339917537925 -1.6729344626374272e-06 0 -0.0049951339917537925 -1.6729344626374272e-06 0 -0.0049999926211538957 8.664531433472329e-11 0 -0.0049959874217122748 -1.6771681423787551e-06 0 -0.0049975487671560116 -2.4459621565652247e-07 0 -0.0049951339917537925 -1.6729344626374272e-06 0 -0.0049999926211538957 8.664531433472329e-11 0 -0.0049999961589073123 -6.1747965627453088e-10 0 -0.0049999926211538957 8.664531433472329e-11 0 -0.0049959874217122748 -1.6771681423787551e-06 0 -0.004996354091731753 -2.446605601920665e-06 0 -0.0049999961589073123 -6.1747965627453088e-10 0 -0.0049959874217122748 -1.6771681423787551e-06 0 -0.004996354091731753 -2.446605601920665e-06 0 -0.0049927814038715594 -4.4664693145784716e-06 0 -0.0049959874217122748 -1.6771681423787551e-06 0 -0.0049927814038715594 -4.4664693145784716e-06 0 -0.0049929343152897258 -3.3797360427787419e-06 0 -0.0049959874217122748 -1.6771681423787551e-06 0 -0.0049952705236691796 6.2104066374448627e-06 0 -0.0049957278497828154 3.1544607030024144e-06 0 -0.004997371396758825 2.5174566370419499e-06 0 -0.0049978961384163712 5.1866943258917998e-06 0 -0.0049952705236691796 6.2104066374448627e-06 0 -0.004997371396758825 2.5174566370419499e-06 0 -0.0049978961384163712 5.1866943258917998e-06 0 -0.004997371396758825 2.5174566370419499e-06 0 -0.0049989154559697008 2.0154164989938599e-06 0 -0.0049950726331978376 1.1921484849204017e-05 0 -0.0049952705236691796 6.2104066374448627e-06 0 -0.0049979812270156982 8.5758800518066143e-06 0 -0.0049978961384163712 5.1866943258917998e-06 0 -0.0049952705236691796 6.2104066374448627e-06 0 -0.0049979812270156982 8.5758800518066143e-06 0 -0.004991045433275226 9.9253786748053668e-06 0 -0.0049952705236691796 6.2104066374448627e-06 0 -0.0049932346700620051 5.2074165051144743e-06 0 -0.0049368581197294049 1.8254839571518436e-06 0 -0.0049215705276166059 1.6292965174148492e-05 0 -0.0048567193886857015 1.1170102090923666e-05 0 -0.0048627437600761237 2.2914774934657166e-05 0 -0.0048576457205863561 2.4254758423258527e-05 0 -0.0048500637927254685 1.1550591702130268e-05 0 -0.0048567193886857015 1.1170102090923666e-05 0 -0.0048576457205863561 2.4254758423258527e-05 0 -0.00484975978156764 7.6658778398912442e-06 0 -0.004929886671554134 4.9828060859656573e-06 0 -0.0048550940217961837 -1.1908661068843667e-05 0 -0.004929886671554134 4.9828060859656573e-06 0 -0.004985539311370712 -2.6321251921156751e-05 0 -0.0049948380550335113 -1.4333700593896851e-05 0 -0.0049875384679299948 -1.3364678705680176e-05 0 -0.004929886671554134 4.9828060859656573e-06 0 -0.0050030090826557435 -3.2326244435626162e-06 0 -0.0049962357311211791 -1.6622220660439256e-06 0 -0.0049983206357616088 -2.5308266054439903e-07 0 -0.00499771325347488 -2.1475840450572169e-07 0 -0.0049875384679299948 -1.3364678705680176e-05 0 -0.0049932243992478944 -9.6030015691588715e-06 0 -0.0049935905600304734 -4.5878142622649076e-06 0 -0.004929886671554134 4.9828060859656573e-06 0 -0.0049576238474347226 1.1884172858932023e-05 0 -0.0049948380550335113 -1.4333700593896851e-05 0 -0.0049875384679299948 -1.3364678705680176e-05 0 -0.0049932243992478944 -9.6030015691588715e-06 0 -0.0049960676296249354 -6.8176162116008947e-06 0 -0.0049932243992478944 -9.6030015691588715e-06 0 -0.0049935905600304734 -4.5878142622649076e-06 0 -0.0049215705276166059 1.6292965174148492e-05 0 -0.0049576238474347226 1.1884172858932023e-05 0 -0.0049952705236691796 6.2104066374448627e-06 0 -0.0049932346700620051 5.2074165051144743e-06 0 -0.0049957278497828154 3.1544607030024144e-06 0 -0.0048627437600761237 2.2914774934657166e-05 0 -0.0048576457205863561 2.4254758423258527e-05 0 -0.0048644639450687328 3.6328486336761297e-05 0 -0.0049932346700620051 5.2074165051144743e-06 0 -0.0049957278497828154 3.1544607030024144e-06 0 -0.0049960620729246003 1.8832490507355688e-06 0 -0.0049957278497828154 3.1544607030024144e-06 0 -0.0049978612605313145 1.0914536713630157e-06 0 -0.0049960620729246003 1.8832490507355688e-06 0 -0.0049978612605313145 1.0914536713630157e-06 0 -0.0049960620729246003 1.8832490507355688e-06 0 -0.0049983038272976323 6.28925581371728e-07 0 -0.0049983206357616088 -2.5308266054439903e-07 0 -0.00499771325347488 -2.1475840450572169e-07 0 -0.0049994669168033079 1.4245163715974254e-07 0 -0.0049576238474347226 1.1884172858932023e-05 0 -0.0049868469174721448 -1.4614421575635323e-06 0 -0.0049974137924964201 9.0952436898594002e-07 0 -0.0049983038272976323 6.28925581371728e-07 0 -0.0049994669168033079 1.4245163715974254e-07 0 -0.0049999999914271953 7.6383224045834738e-10 0 -0.0049983206357616088 -2.5308266054439903e-07 0 -0.0049994669168033079 1.4245163715974254e-07 0 -0.0049976644470544175 -2.8011314968621588e-07 0 -0.0050030090826557435 -3.2326244435626162e-06 0 -0.0049999999914271953 7.6383224045834738e-10 0 -0.0049999962715033403 4.7566233276934003e-10 0 -0.0049994669168033079 1.4245163715974254e-07 0 -0.0049576238474347226 1.1884172858932023e-05 0 -0.0050042938277276164 -4.3206944826794589e-07 0 -0.0049983038272976323 6.28925581371728e-07 0 -0.0049999962715033403 4.7566233276934003e-10 0 -0.0049994669168033079 1.4245163715974254e-07 0 -0.0049978612605313145 1.0914536713630157e-06 0 -0.0049983038272976323 6.28925581371728e-07 0 -0.0049999962715033403 4.7566233276934003e-10 0 -0.0049978612605313145 1.0914536713630157e-06 0 -0.0049999962715033403 4.7566233276934003e-10 0 -0.0049999969126161394 5.0147028506593814e-10 0 -0.0049978612605313145 1.0914536713630157e-06 0 -0.0049999969126161394 5.0147028506593814e-10 0 -0.004997371396758825 2.5174566370419499e-06 0 -0.0049957278497828154 3.1544607030024144e-06 0 -0.0049978612605313145 1.0914536713630157e-06 0 -0.004997371396758825 2.5174566370419499e-06 0 -0.0049999969126161394 5.0147028506593814e-10 0 -0.004997371396758825 2.5174566370419499e-06 0 -0.0049989154559697008 2.0154164989938599e-06 0 -0.0049999969126161394 5.0147028506593814e-10 0 -0.0049999995079742857 9.9207337601378543e-10 0 -0.0049989154559697008 2.0154164989938599e-06 0 -0.0049999995079742857 9.9207337601378543e-10 0 -0.0049997328013731005 8.4010227885467214e-07 0 -0.0049989154559697008 2.0154164989938599e-06 0 -0.0049999995079742857 9.9207337601378543e-10 0 -0.0049997328013731005 8.4010227885467214e-07 0 -0.0049999999171428684 6.0826361770238521e-10 0 -0.0049997328013731005 8.4010227885467214e-07 0 -0.004999797415944072 1.6799386036833559e-06 0 -0.0049987372780915763 2.8126104452521033e-06 0 -0.0049997328013731005 8.4010227885467214e-07 0 -0.0049989154559697008 2.0154164989938599e-06 0 -0.0049987372780915763 2.8126104452521033e-06 0 -0.0050001489440318937 5.7629293211053132e-07 0 -0.0049999999171428684 6.0826361770238521e-10 0 -0.0050000005854878267 1.2057491006384654e-10 0 -0.0049664314973278945 1.5875811951386967e-05 0 -0.0049924061945952206 3.8783120273615673e-06 0 -0.0049999350700731214 -1.8700169335355875e-08 0 -0.004981328280070369 1.051846451128995e-05 0 -0.0049999951269578957 7.3087088982762095e-10 0 -0.0049997328013731005 8.4010227885467214e-07 0 -0.0050001489440318937 5.7629293211053132e-07 0 -0.0049999999171428684 6.0826361770238521e-10 0 -0.0049997328013731005 8.4010227885467214e-07 0 -0.0050001489440318937 5.7629293211053132e-07 0 -0.004999797415944072 1.6799386036833559e-06 0 -0.0049664314973278945 1.5875811951386967e-05 0 -0.004931998601687429 4.0482694146682215e-05 0 -0.0049571354909069623 4.1513431246871079e-05 0 -0.004981328280070369 1.051846451128995e-05 0 -0.0049746627953823098 1.4870947341761735e-05 0 -0.0049589672083472924 1.4309376978437388e-05 0 -0.0049743124209562749 2.1965678236792674e-05 0 -0.0049806736900914013 1.1063742220875141e-05 0 -0.0049664314973278945 1.5875811951386967e-05 0 -0.0049571354909069623 4.1513431246871079e-05 0 -0.0049924061945952206 3.8783120273615673e-06 0 -0.0050060661749480014 4.7113262456599279e-06 0 -0.0049717877257496271 1.720520466280527e-05 0 -0.0049589672083472924 1.4309376978437388e-05 0 -0.0049806736900914013 1.1063742220875141e-05 0 -0.0049924061945952206 3.8783120273615673e-06 0 -0.0049589672083472924 1.4309376978437388e-05 0 -0.0049743124209562749 2.1965678236792674e-05 0 -0.004961172069136848 3.8598730015708852e-05 0 -0.0050060661749480014 4.7113262456599279e-06 0 -0.0046684585676627852 0.0001310912596622726 0 -0.004931998601687429 4.0482694146682215e-05 0 -0.0049571354909069623 4.1513431246871079e-05 0 -0.0049185194660894271 9.8099273969351719e-05 0 -0.0049589672083472924 1.4309376978437388e-05 0 -0.0049305964134306593 4.3830126363393387e-05 0 -0.004961172069136848 3.8598730015708852e-05 0 -0.0049305964134306593 4.3830126363393387e-05 0 -0.004961172069136848 3.8598730015708852e-05 0 -0.0049472775280516284 6.1324253428746573e-05 0 -0.0046684585676627852 0.0001310912596622726 0 -0.0045775486906365365 0.00020715880512815521 0 -0.004961172069136848 3.8598730015708852e-05 0 -0.0049472775280516284 6.1324253428746573e-05 0 -0.004967129717535464 5.836905729211018e-05 0 -0.0050301853408684111 -6.5129080670117556e-06 0 -0.0048904844806177067 6.0006970183935645e-05 0 -0.0049978961384163712 5.1866943258917998e-06 0 -0.0049989154559697008 2.0154164989938599e-06 0 -0.0050000353251396139 6.0104154871261927e-06 0 -0.004931998601687429 4.0482694146682215e-05 0 -0.0049185194660894271 9.8099273969351719e-05 0 -0.0048954299767843944 7.456007057236996e-05 0 -0.0049746627953823098 1.4870947341761735e-05 0 -0.0048904844806177067 6.0006970183935645e-05 0 -0.0046784446235356575 0.00015342797052281566 0 -0.0046838904124152404 0.00015282804923362855 0 -0.00467652306428508 0.00014954489707697452 0 -0.0046788790521320022 0.0001569474985251975 0 -0.0046784446235356575 0.00015342797052281566 0 -0.0046838904124152404 0.00015282804923362855 0 -0.0046684585676627852 0.0001310912596622726 0 -0.0048904844806177067 6.0006970183935645e-05 0 -0.0046748962609917573 0.00015417186017594012 0 -0.0046788790521320022 0.0001569474985251975 0 -0.0046784446235356575 0.00015342797052281566 0 -0.0046684585676627852 0.0001310912596622726 0 -0.0044110726051090265 0.00028138770502908879 0 -0.0046748962609917573 0.00015417186017594012 0 -0.0046784446235356575 0.00015342797052281566 0 -0.00467652306428508 0.00014954489707697452 0 -0.0049978961384163712 5.1866943258917998e-06 0 -0.0050000353251396139 6.0104154871261927e-06 0 -0.0049979812270156982 8.5758800518066143e-06 0 -0.0048904844806177067 6.0006970183935645e-05 0 -0.0048298235570655703 8.9260481962909262e-05 0 -0.0046924470709370182 0.00014630906024444716 0 -0.0046838904124152404 0.00015282804923362855 0 -0.0046841642752004824 0.00014653847331732342 0 -0.0046841642752004824 0.00014653847331732342 0 -0.0046796670955347149 0.00014214026403868826 0 -0.00467652306428508 0.00014954489707697452 0 -0.0046838904124152404 0.00015282804923362855 0 -0.0046841642752004824 0.00014653847331732342 0 -0.00467652306428508 0.00014954489707697452 0 -0.0046841642752004824 0.00014653847331732342 0 -0.0046796670955347149 0.00014214026403868826 0 -0.0046864232735648699 0.00013969934775323362 0 -0.0044249104946596143 0.00027366283237643068 0 -0.0045638386931443576 0.00020136747481985014 0 -0.0041808409099410972 0.00037309893329617644 0 -0.0041901348695890022 0.00037340923649378994 0 -0.0041861412421739224 0.0003868811989627593 0 -0.0041808409099410972 0.00037309893329617644 0 -0.0041901348695890022 0.00037340923649378994 0 -0.0041874954035559953 0.00035608090219596902 0 -0.0041901348695890022 0.00037340923649378994 0 -0.0041874954035559953 0.00035608090219596902 0 -0.004198600639507717 0.00035848415486944393 0 -0.0042001204044315255 0.00033800980596830843 0 -0.0041874954035559953 0.00035608090219596902 0 -0.004198600639507717 0.00035848415486944393 0 -0.0044249104946596143 0.00027366283237643068 0 -0.0044110726051090265 0.00028138770502908879 0 -0.0042118620003971747 0.00035347437742816505 0 -0.004198600639507717 0.00035848415486944393 0 -0.0041979390542255506 0.0003718044859700249 0 -0.0042001204044315255 0.00033800980596830843 0 -0.0042118620003971747 0.00035347437742816505 0 -0.004198600639507717 0.00035848415486944393 0 -0.0049472775280516284 6.1324253428746573e-05 0 -0.004967129717535464 5.836905729211018e-05 0 -0.0049623471353904573 8.0299031014477931e-05 0 -0.0045775486906365365 0.00020715880512815521 0 -0.0045184028447904506 0.00026803213585709052 0 -0.0042118620003971747 0.00035347437742816505 0 -0.0042263522019440969 0.000364657100468677 0 -0.0042196971259894451 0.00037104240991947882 0 -0.0042118620003971747 0.00035347437742816505 0 -0.0042196971259894451 0.00037104240991947882 0 -0.0042028368825340213 0.00037540284609754494 0 -0.0042196971259894451 0.00037104240991947882 0 -0.0042028368825340213 0.00037540284609754494 0 -0.0041981624044910362 0.00039861996219324458 0 -0.0042196971259894451 0.00037104240991947882 0 -0.0042517205001567394 0.00035836180436544027 0 -0.0042477766782340097 0.00039808917571154651 0 -0.0042517205001567394 0.00035836180436544027 0 -0.0042477766782340097 0.00039808917571154651 0 -0.0042864690899905656 0.00035118655042237122 0 -0.0045184028447904506 0.00026803213585709052 0 -0.0042657810506578544 0.0004183962272218761 0 -0.0042538884269823687 0.00032297575329089193 0 -0.0042196971259894451 0.00037104240991947882 0 -0.0042517205001567394 0.00035836180436544027 0 -0.0042538884269823687 0.00032297575329089193 0 -0.0042517205001567394 0.00035836180436544027 0 -0.0042864690899905656 0.00035118655042237122 0 -0.0042118620003971747 0.00035347437742816505 0 -0.0041979390542255506 0.0003718044859700249 0 -0.0042028368825340213 0.00037540284609754494 0 -0.0041901348695890022 0.00037340923649378994 0 -0.004198600639507717 0.00035848415486944393 0 -0.0041979390542255506 0.0003718044859700249 0 -0.0041901348695890022 0.00037340923649378994 0 -0.0041979390542255506 0.0003718044859700249 0 -0.0041935845966348554 0.00038707578027465686 0 -0.0041979390542255506 0.0003718044859700249 0 -0.0042028368825340213 0.00037540284609754494 0 -0.0041935845966348554 0.00038707578027465686 0 -0.0041981624044910362 0.00039861996219324458 0 -0.0041957098856589565 0.00048717319299140089 0 -0.0041115369793552287 0.00047138530472458915 0 -0.0042028368825340213 0.00037540284609754494 0 -0.0041935845966348554 0.00038707578027465686 0 -0.0041981624044910362 0.00039861996219324458 0 -0.0041956275813473014 0.0003995186922359487 0 -0.004147685220333778 0.00043345155420484457 0 -0.0041935845966348554 0.00038707578027465686 0 -0.0041981624044910362 0.00039861996219324458 0 -0.0041925844957888319 0.00039187404305745068 0 -0.0042196971259894451 0.00037104240991947882 0 -0.0042477766782340097 0.00039808917571154651 0 -0.0041981624044910362 0.00039861996219324458 0 -0.0041981624044910362 0.00039861996219324458 0 -0.0042326283321806593 0.0004541194893395255 0 -0.0041957098856589565 0.00048717319299140089 0 -0.0042477766782340097 0.00039808917571154651 0 -0.0041981624044910362 0.00039861996219324458 0 -0.0042326283321806593 0.0004541194893395255 0 -0.0042477766782340097 0.00039808917571154651 0 -0.0042326283321806593 0.0004541194893395255 0 -0.0042734670765990183 0.0004639399930365387 0 -0.0041539617088970169 0.0005549029684294842 0 -0.0041957098856589565 0.00048717319299140089 0 -0.0042402617792583639 0.00051746645105305944 0 -0.0042326283321806593 0.0004541194893395255 0 -0.0042402617792583639 0.00051746645105305944 0 -0.0042734670765990183 0.0004639399930365387 0 -0.0042326283321806593 0.0004541194893395255 0 -0.0041957098856589565 0.00048717319299140089 0 -0.0042402617792583639 0.00051746645105305944 0 -0.0041539617088970169 0.0005549029684294842 0 -0.0041957098856589565 0.00048717319299140089 0 -0.0041115369793552287 0.00047138530472458915 0 -0.0041925844957888319 0.00039187404305745068 0 -0.0041854766789181487 0.00039715450015968037 0 -0.0041861412421739224 0.0003868811989627593 0 -0.004147685220333778 0.00043345155420484457 0 -0.0041694990981150622 0.00048526566161122422 0 -0.0041539617088970169 0.0005549029684294842 0 -0.0041115369793552287 0.00047138530472458915 0 -0.004038692449841029 0.00053213799903101776 0 -0.0042969476905211964 0.00032976332863990431 0 -0.0041694990981150622 0.00048526566161122422 0 -0.0041745010721465376 0.00039397331843958253 0 -0.0041750035628768545 0.00038952366932984498 0 -0.0041854766789181487 0.00039715450015968037 0 -0.0041750035628768545 0.00038952366932984498 0 -0.0041854766789181487 0.00039715450015968037 0 -0.0041861412421739224 0.0003868811989627593 0 -0.0041750035628768545 0.00038952366932984498 0 -0.0041808409099410972 0.00037309893329617644 0 -0.0041861412421739224 0.0003868811989627593 0 -0.0043472962662086979 0.00031477686489836859 0 -0.0044249104946596143 0.00027366283237643068 0 -0.0044124338379535168 0.00031248048449494429 0 -0.0044656137523910004 0.00023181100408192529 0 -0.004427408196598732 0.00023907817957286446 0 -0.0041901348695890022 0.00037340923649378994 0 -0.0041935845966348554 0.00038707578027465686 0 -0.0041861412421739224 0.0003868811989627593 0 -0.0041935845966348554 0.00038707578027465686 0 -0.0041925844957888319 0.00039187404305745068 0 -0.0041861412421739224 0.0003868811989627593 0 -0.0044717000606456087 0.00041735540594840771 0 -0.0045737081198681711 0.00039399451549973616 0 -0.0045097663895872983 0.00046423452384920528 0 -0.0044717000606456087 0.00041735540594840771 0 -0.0044472587714428895 0.00034961694759192975 0 -0.0045421631800032199 0.00033868621477328454 0 -0.0044717000606456087 0.00041735540594840771 0 -0.0045737081198681711 0.00039399451549973616 0 -0.0045421631800032199 0.00033868621477328454 0 -0.0045737081198681711 0.00039399451549973616 0 -0.0046632623705388041 0.00038348675718589243 0 -0.0046059950892288022 0.00033533432924601322 0 -0.0045737081198681711 0.00039399451549973616 0 -0.0046632623705388041 0.00038348675718589243 0 -0.0045930957194317192 0.00046408722130588103 0 -0.0046632623705388041 0.00038348675718589243 0 -0.0045930957194317192 0.00046408722130588103 0 -0.0046994173709261561 0.0004591672024483321 0 -0.0045737081198681711 0.00039399451549973616 0 -0.0045930957194317192 0.00046408722130588103 0 -0.0045097663895872983 0.00046423452384920528 0 -0.0044739221125932697 0.00054907543652834374 0 -0.0045930957194317192 0.00046408722130588103 0 -0.0045097663895872983 0.00046423452384920528 0 -0.0046296088935743841 0.00056692054202336646 0 -0.0044739221125932697 0.00054907543652834374 0 -0.0045930957194317192 0.00046408722130588103 0 -0.0046296088935743841 0.00056692054202336646 0 -0.0045930957194317192 0.00046408722130588103 0 -0.0046994173709261561 0.0004591672024483321 0 -0.0043389486562886402 0.00057644450067392621 0 -0.0044739221125932697 0.00054907543652834374 0 -0.0044374652600925454 0.00049684770675998986 0 -0.0044739221125932697 0.00054907543652834374 0 -0.0045097663895872983 0.00046423452384920528 0 -0.0044374652600925454 0.00049684770675998986 0 -0.0044717000606456087 0.00041735540594840771 0 -0.0045097663895872983 0.00046423452384920528 0 -0.0044374652600925454 0.00049684770675998986 0 -0.0043389486562886402 0.00057644450067392621 0 -0.0043793432976629229 0.0004742289102089374 0 -0.0043028546828684251 0.00051919944649692063 0 -0.0043389486562886402 0.00057644450067392621 0 -0.0044374652600925454 0.00049684770675998986 0 -0.0043793432976629229 0.0004742289102089374 0 -0.0043793432976629229 0.0004742289102089374 0 -0.0043028546828684251 0.00051919944649692063 0 -0.0043316692924085043 0.00044637752045391849 0 -0.0044717000606456087 0.00041735540594840771 0 -0.0044374652600925454 0.00049684770675998986 0 -0.0043793432976629229 0.0004742289102089374 0 -0.0042539224773619775 0.00058365085087772549 0 -0.0042402617792583639 0.00051746645105305944 0 -0.0043028546828684251 0.00051919944649692063 0 -0.0043028546828684251 0.00051919944649692063 0 -0.0042734670765990183 0.0004639399930365387 0 -0.0043316692924085043 0.00044637752045391849 0 -0.0042402617792583639 0.00051746645105305944 0 -0.0043028546828684251 0.00051919944649692063 0 -0.0042734670765990183 0.0004639399930365387 0 -0.0042477766782340097 0.00039808917571154651 0 -0.0042734670765990183 0.0004639399930365387 0 -0.0043055153457720484 0.00040161988382664455 0 -0.0042734670765990183 0.0004639399930365387 0 -0.0043316692924085043 0.00044637752045391849 0 -0.0043055153457720484 0.00040161988382664455 0 -0.0043316692924085043 0.00044637752045391849 0 -0.0043055153457720484 0.00040161988382664455 0 -0.0043657211452041008 0.00038705357758870689 0 -0.0043055153457720484 0.00040161988382664455 0 -0.0043657211452041008 0.00038705357758870689 0 -0.0043371869621641745 0.00035540631441210747 0 -0.0042477766782340097 0.00039808917571154651 0 -0.0043055153457720484 0.00040161988382664455 0 -0.0042864690899905656 0.00035118655042237122 0 -0.0044717000606456087 0.00041735540594840771 0 -0.0043793432976629229 0.0004742289102089374 0 -0.0044013247952215838 0.00041630837430688995 0 -0.0043793432976629229 0.0004742289102089374 0 -0.0043316692924085043 0.00044637752045391849 0 -0.0044013247952215838 0.00041630837430688995 0 -0.0043316692924085043 0.00044637752045391849 0 -0.0044013247952215838 0.00041630837430688995 0 -0.0043657211452041008 0.00038705357758870689 0 -0.0044013247952215838 0.00041630837430688995 0 -0.0043657211452041008 0.00038705357758870689 0 -0.0044472587714428895 0.00034961694759192975 0 -0.0044717000606456087 0.00041735540594840771 0 -0.0044013247952215838 0.00041630837430688995 0 -0.0044472587714428895 0.00034961694759192975 0 -0.0044472587714428895 0.00034961694759192975 0 -0.0043705285604897452 0.00030879307228662078 0 -0.0045106594697498373 0.00024145393633597445 0 -0.0043657211452041008 0.00038705357758870689 0 -0.0044472587714428895 0.00034961694759192975 0 -0.0043705285604897452 0.00030879307228662078 0 -0.0042480441983342955 0.00030864665362631918 0 -0.0042864690899905656 0.00035118655042237122 0 -0.0043705285604897452 0.00030879307228662078 0 -0.0043055153457720484 0.00040161988382664455 0 -0.0042864690899905656 0.00035118655042237122 0 -0.0043371869621641745 0.00035540631441210747 0 -0.0045184028447904506 0.00026803213585709052 0 -0.0043614761116333254 0.00025919020913139494 0 -0.0043657211452041008 0.00038705357758870689 0 -0.0043371869621641745 0.00035540631441210747 0 -0.0043705285604897452 0.00030879307228662078 0 -0.0042864690899905656 0.00035118655042237122 0 -0.0043371869621641745 0.00035540631441210747 0 -0.0043705285604897452 0.00030879307228662078 0 -0.004967129717535464 5.836905729211018e-05 0 -0.0049623471353904573 8.0299031014477931e-05 0 -0.0049864839026444851 5.264129594552049e-05 0 -0.0045184028447904506 0.00026803213585709052 0 -0.0047057250164535651 9.9394862580982164e-05 0 -0.0042480441983342955 0.00030864665362631918 0 -0.0043705285604897452 0.00030879307228662078 0 -0.0043896457415781645 0.00017689911939692648 0 -0.0043705285604897452 0.00030879307228662078 0 -0.0043896457415781645 0.00017689911939692648 0 -0.0045106594697498373 0.00024145393633597445 0 -0.0045106594697498373 0.00024145393633597445 0 -0.004608804260554291 0.00026857678090080065 0 -0.0046467386632038903 0.00017677901966250411 0 -0.0045106594697498373 0.00024145393633597445 0 -0.0045421631800032199 0.00033868621477328454 0 -0.004608804260554291 0.00026857678090080065 0 -0.0044472587714428895 0.00034961694759192975 0 -0.0045106594697498373 0.00024145393633597445 0 -0.0045421631800032199 0.00033868621477328454 0 -0.0046632623705388041 0.00038348675718589243 0 -0.0046768032717695541 0.00030859266185498841 0 -0.0046059950892288022 0.00033533432924601322 0 -0.0045421631800032199 0.00033868621477328454 0 -0.0046059950892288022 0.00033533432924601322 0 -0.004608804260554291 0.00026857678090080065 0 -0.0045737081198681711 0.00039399451549973616 0 -0.0045421631800032199 0.00033868621477328454 0 -0.0046059950892288022 0.00033533432924601322 0 -0.0046768032717695541 0.00030859266185498841 0 -0.0046059950892288022 0.00033533432924601322 0 -0.004608804260554291 0.00026857678090080065 0 -0.0046768032717695541 0.00030859266185498841 0 -0.004608804260554291 0.00026857678090080065 0 -0.0046864549241733659 0.00023780383500915354 0 -0.004608804260554291 0.00026857678090080065 0 -0.0046864549241733659 0.00023780383500915354 0 -0.0046467386632038903 0.00017677901966250411 0 -0.0046864549241733659 0.00023780383500915354 0 -0.0046467386632038903 0.00017677901966250411 0 -0.004744565461189466 0.00017428781607489857 0 -0.0046467386632038903 0.00017677901966250411 0 -0.0047432568454920101 8.5100125364247434e-05 0 -0.004744565461189466 0.00017428781607489857 0 -0.0046467386632038903 0.00017677901966250411 0 -0.0045582599640419229 6.4104385710842993e-05 0 -0.0047432568454920101 8.5100125364247434e-05 0 -0.0045106594697498373 0.00024145393633597445 0 -0.0046467386632038903 0.00017677901966250411 0 -0.0045582599640419229 6.4104385710842993e-05 0 -0.0050016447391155209 2.5083929295214389e-05 0 -0.0049980621074601937 9.4257846784092483e-06 0 -0.0050042642935511127 1.9369443522713021e-06 0 -0.0047741629797497277 5.2037762594611587e-05 0 -0.0048758307989165374 1.9798991140245964e-06 0 -0.0045582599640419229 6.4104385710842993e-05 0 -0.0047432568454920101 8.5100125364247434e-05 0 -0.0047488065738366322 -1.2890085814759611e-05 0 -0.0047432568454920101 8.5100125364247434e-05 0 -0.0047488065738366322 -1.2890085814759611e-05 0 -0.0048909939051894006 3.1723313017437112e-05 0 -0.004961172069136848 3.8598730015708852e-05 0 -0.004967129717535464 5.836905729211018e-05 0 -0.004984469286650175 3.0210733259951605e-05 0 -0.004967129717535464 5.836905729211018e-05 0 -0.0049864839026444851 5.264129594552049e-05 0 -0.004984469286650175 3.0210733259951605e-05 0 -0.0047057250164535651 9.9394862580982164e-05 0 -0.0047741629797497277 5.2037762594611587e-05 0 -0.0043896457415781645 0.00017689911939692648 0 -0.0045106594697498373 0.00024145393633597445 0 -0.0045582599640419229 6.4104385710842993e-05 0 -0.0049864839026444851 5.264129594552049e-05 0 -0.0050016447391155209 2.5083929295214389e-05 0 -0.004984469286650175 3.0210733259951605e-05 0 -0.004984469286650175 3.0210733259951605e-05 0 -0.0049875660019413287 1.3579169722645943e-05 0 -0.0049980621074601937 9.4257846784092483e-06 0 -0.0050016447391155209 2.5083929295214389e-05 0 -0.004984469286650175 3.0210733259951605e-05 0 -0.0049980621074601937 9.4257846784092483e-06 0 -0.0049743124209562749 2.1965678236792674e-05 0 -0.004961172069136848 3.8598730015708852e-05 0 -0.004984469286650175 3.0210733259951605e-05 0 -0.0049743124209562749 2.1965678236792674e-05 0 -0.004984469286650175 3.0210733259951605e-05 0 -0.0049875660019413287 1.3579169722645943e-05 0 -0.0049892446055400221 7.091114834408031e-06 0 -0.0049806736900914013 1.1063742220875141e-05 0 -0.0049875660019413287 1.3579169722645943e-05 0 -0.0049743124209562749 2.1965678236792674e-05 0 -0.0049806736900914013 1.1063742220875141e-05 0 -0.0049875660019413287 1.3579169722645943e-05 0 -0.0049892446055400221 7.091114834408031e-06 0 -0.0049875660019413287 1.3579169722645943e-05 0 -0.0049950757836929307 4.2287595311040003e-06 0 -0.0049875660019413287 1.3579169722645943e-05 0 -0.0049980621074601937 9.4257846784092483e-06 0 -0.0049950757836929307 4.2287595311040003e-06 0 -0.0049980621074601937 9.4257846784092483e-06 0 -0.0049950757836929307 4.2287595311040003e-06 0 -0.0050000459883336292 1.2063100833002248e-08 0 -0.0049950757836929307 4.2287595311040003e-06 0 -0.0049999350700731214 -1.8700169335355875e-08 0 -0.0050000459883336292 1.2063100833002248e-08 0 -0.0049892446055400221 7.091114834408031e-06 0 -0.0049806736900914013 1.1063742220875141e-05 0 -0.0049924061945952206 3.8783120273615673e-06 0 -0.0049892446055400221 7.091114834408031e-06 0 -0.0049950757836929307 4.2287595311040003e-06 0 -0.0049924061945952206 3.8783120273615673e-06 0 -0.0049950757836929307 4.2287595311040003e-06 0 -0.0049924061945952206 3.8783120273615673e-06 0 -0.0049999350700731214 -1.8700169335355875e-08 0 -0.0049980621074601937 9.4257846784092483e-06 0 -0.0050042642935511127 1.9369443522713021e-06 0 -0.0050000459883336292 1.2063100833002248e-08 0 -0.0048758307989165374 1.9798991140245964e-06 0 -0.0049565104932634621 -8.4074523226954251e-06 0 -0.0050042642935511127 1.9369443522713021e-06 0 -0.0049764885089786989 -1.011232006075751e-05 0 -0.0049998793485447638 -2.2663814057872061e-08 0 -0.0050042642935511127 1.9369443522713021e-06 0 -0.0050000459883336292 1.2063100833002248e-08 0 -0.0049998793485447638 -2.2663814057872061e-08 0 -0.0049764885089786989 -1.011232006075751e-05 0 -0.0049998793485447638 -2.2663814057872061e-08 0 -0.0049999199944347162 -1.5635671811178069e-08 0 -0.0049764885089786989 -1.011232006075751e-05 0 -0.0049037807700612899 -2.3695853214309451e-06 0 -0.004957193165527487 -2.4638903372293358e-07 0 -0.0047488065738366322 -1.2890085814759611e-05 0 -0.0048909939051894006 3.1723313017437112e-05 0 -0.0049037807700612899 -2.3695853214309451e-06 0 -0.0047488065738366322 -1.2890085814759611e-05 0 -0.0049764885089786989 -1.011232006075751e-05 0 -0.0049037807700612899 -2.3695853214309451e-06 0 -0.0048909939051894006 3.1723313017437112e-05 0 -0.0049037807700612899 -2.3695853214309451e-06 0 -0.004957193165527487 -2.4638903372293358e-07 0 -0.0048909939051894006 3.1723313017437112e-05 0 -0.0049596290262148221 2.0194259978732935e-05 0 -0.0049289080194669646 7.0040306570122275e-05 0 -0.0048909939051894006 3.1723313017437112e-05 0 -0.004957193165527487 -2.4638903372293358e-07 0 -0.0049596290262148221 2.0194259978732935e-05 0 -0.004957193165527487 -2.4638903372293358e-07 0 -0.0049999199944347162 -1.5635671811178069e-08 0 -0.0049596290262148221 2.0194259978732935e-05 0 -0.0049764885089786989 -1.011232006075751e-05 0 -0.004957193165527487 -2.4638903372293358e-07 0 -0.0049999199944347162 -1.5635671811178069e-08 0 -0.0049999199944347162 -1.5635671811178069e-08 0 -0.0049867545481879234 1.9400298059838147e-05 0 -0.0049596290262148221 2.0194259978732935e-05 0 -0.0049999199944347162 -1.5635671811178069e-08 0 -0.0050000082498448074 1.6331130716617975e-08 0 -0.0049867545481879234 1.9400298059838147e-05 0 -0.0050000082498448074 1.6331130716617975e-08 0 -0.0049867545481879234 1.9400298059838147e-05 0 -0.005004672785362237 1.7912971802861673e-05 0 -0.0049867545481879234 1.9400298059838147e-05 0 -0.0049596290262148221 2.0194259978732935e-05 0 -0.0049289080194669646 7.0040306570122275e-05 0 -0.0049867545481879234 1.9400298059838147e-05 0 -0.0049851938587924163 7.9263421848611046e-05 0 -0.0049289080194669646 7.0040306570122275e-05 0 -0.0049867545481879234 1.9400298059838147e-05 0 -0.0049851938587924163 7.9263421848611046e-05 0 -0.0050116867198664134 4.0009158314997216e-05 0 -0.0049851938587924163 7.9263421848611046e-05 0 -0.0049752654459456636 0.00015168603805652231 0 -0.0050252847155086771 0.00013151624460992916 0 -0.0049851938587924163 7.9263421848611046e-05 0 -0.0049752654459456636 0.00015168603805652231 0 -0.0049365943070096173 0.00012575862706065241 0 -0.0049851938587924163 7.9263421848611046e-05 0 -0.0049365943070096173 0.00012575862706065241 0 -0.0049289080194669646 7.0040306570122275e-05 0 -0.0049365943070096173 0.00012575862706065241 0 -0.0048736851791038585 0.00015855513884219889 0 -0.0049289080194669646 7.0040306570122275e-05 0 -0.0049752654459456636 0.00015168603805652231 0 -0.0049365943070096173 0.00012575862706065241 0 -0.0049202640632578544 0.0001931853939056303 0 -0.0049365943070096173 0.00012575862706065241 0 -0.0048736851791038585 0.00015855513884219889 0 -0.0049202640632578544 0.0001931853939056303 0 -0.0048736851791038585 0.00015855513884219889 0 -0.0048361472844056421 0.00011526820316554067 0 -0.0049289080194669646 7.0040306570122275e-05 0 -0.0048736851791038585 0.00015855513884219889 0 -0.0048361472844056421 0.00011526820316554067 0 -0.0048101556863628138 0.00020247301464391116 0 -0.0048361472844056421 0.00011526820316554067 0 -0.004744565461189466 0.00017428781607489857 0 -0.0048101556863628138 0.00020247301464391116 0 -0.0047432568454920101 8.5100125364247434e-05 0 -0.0048361472844056421 0.00011526820316554067 0 -0.004744565461189466 0.00017428781607489857 0 -0.0047432568454920101 8.5100125364247434e-05 0 -0.0048909939051894006 3.1723313017437112e-05 0 -0.0048361472844056421 0.00011526820316554067 0 -0.0048909939051894006 3.1723313017437112e-05 0 -0.0048361472844056421 0.00011526820316554067 0 -0.0049289080194669646 7.0040306570122275e-05 0 -0.0049993079658752276 -2.2070089968937464e-07 0 -0.0050007527786361198 -2.5035187565807709e-07 0 -0.0049984559001843764 -1.9845084325373491e-07 0 -0.0048642170239483699 6.4925653459713294e-05 0 -0.0049113654912403245 2.0831233435279866e-05 0 -0.0049993079658752276 -2.2070089968937464e-07 0 -0.004999181686948637 -2.6860681413743528e-07 0 -0.0049984559001843764 -1.9845084325373491e-07 0 -0.0050140999931611255 1.4343027760870334e-05 0 -0.0049050849628012681 6.3872415545236554e-05 0 -0.0049993079658752276 -2.2070089968937464e-07 0 -0.0050007527786361198 -2.5035187565807709e-07 0 -0.0049991389453608323 -1.8005107624606822e-07 0 -0.0049999975124344186 2.4633911953767549e-09 0 -0.0050007527786361198 -2.5035187565807709e-07 0 -0.0049984559001843764 -1.9845084325373491e-07 0 -0.0049999975124344186 2.4633911953767549e-09 0 -0.0050035171404786945 1.8608637567835767e-06 0 -0.0050007527786361198 -2.5035187565807709e-07 0 -0.0050067521722610593 3.1758148129514836e-06 0 -0.0050140999931611255 1.4343027760870334e-05 0 -0.0049999975124344186 2.4633911953767549e-09 0 -0.0050035171404786945 1.8608637567835767e-06 0 -0.0050000302928162633 1.0055331568122011e-08 0 -0.0050035171404786945 1.8608637567835767e-06 0 -0.0050127834511929899 1.7688868639013634e-05 0 -0.0050000302928162633 1.0055331568122011e-08 0 -0.0050035171404786945 1.8608637567835767e-06 0 -0.0050127834511929899 1.7688868639013634e-05 0 -0.0050305357700813581 2.2564712096674002e-05 0 -0.0050127834511929899 1.7688868639013634e-05 0 -0.0050305357700813581 2.2564712096674002e-05 0 -0.0050283658301147269 3.8060652264027164e-05 0 -0.0050305357700813581 2.2564712096674002e-05 0 -0.0050283658301147269 3.8060652264027164e-05 0 -0.005040983392367005 4.2490547959934068e-05 0 -0.0050127834511929899 1.7688868639013634e-05 0 -0.0050283658301147269 3.8060652264027164e-05 0 -0.0050190893290448894 3.9197193943164436e-05 0 -0.0050190893290448894 3.9197193943164436e-05 0 -0.0050124624645204383 2.8306822406976846e-05 0 -0.0050188823155052518 4.8660626645618905e-05 0 -0.0050127834511929899 1.7688868639013634e-05 0 -0.0050124624645204383 2.8306822406976846e-05 0 -0.0050051596862182787 1.0935148451374004e-05 0 -0.0050127834511929899 1.7688868639013634e-05 0 -0.0050190893290448894 3.9197193943164436e-05 0 -0.0050124624645204383 2.8306822406976846e-05 0 -0.0050127834511929899 1.7688868639013634e-05 0 -0.0050000302928162633 1.0055331568122011e-08 0 -0.0050051596862182787 1.0935148451374004e-05 0 -0.0050000082498448074 1.6331130716617975e-08 0 -0.0050051596862182787 1.0935148451374004e-05 0 -0.005004672785362237 1.7912971802861673e-05 0 -0.0050000082498448074 1.6331130716617975e-08 0 -0.0050000302928162633 1.0055331568122011e-08 0 -0.0050051596862182787 1.0935148451374004e-05 0 -0.0049867545481879234 1.9400298059838147e-05 0 -0.005004672785362237 1.7912971802861673e-05 0 -0.0050116867198664134 4.0009158314997216e-05 0 -0.0050124624645204383 2.8306822406976846e-05 0 -0.0050051596862182787 1.0935148451374004e-05 0 -0.005004672785362237 1.7912971802861673e-05 0 -0.0050124624645204383 2.8306822406976846e-05 0 -0.005004672785362237 1.7912971802861673e-05 0 -0.0050116867198664134 4.0009158314997216e-05 0 -0.0050124624645204383 2.8306822406976846e-05 0 -0.0050116867198664134 4.0009158314997216e-05 0 -0.0050188823155052518 4.8660626645618905e-05 0 -0.0049851938587924163 7.9263421848611046e-05 0 -0.0050116867198664134 4.0009158314997216e-05 0 -0.0050289742369001465 6.949507221038654e-05 0 -0.0050116867198664134 4.0009158314997216e-05 0 -0.0050289742369001465 6.949507221038654e-05 0 -0.0050188823155052518 4.8660626645618905e-05 0 -0.0050289742369001465 6.949507221038654e-05 0 -0.0050202372074626021 5.9713743611337676e-05 0 -0.0050188823155052518 4.8660626645618905e-05 0 -0.0049851938587924163 7.9263421848611046e-05 0 -0.0050289742369001465 6.949507221038654e-05 0 -0.0050252847155086771 0.00013151624460992916 0 -0.0050289742369001465 6.949507221038654e-05 0 -0.0050252847155086771 0.00013151624460992916 0 -0.0050974462213107382 0.00013347874066388133 0 -0.0050252847155086771 0.00013151624460992916 0 -0.0050974462213107382 0.00013347874066388133 0 -0.0050601684685879778 0.0001717082220499625 0 -0.0050400396475311464 7.5988751238671712e-05 0 -0.0050043535221429352 0.00010422322068943601 0 -0.0050289742369001465 6.949507221038654e-05 0 -0.0050194137276691744 5.2056661762063345e-05 0 -0.0050202372074626021 5.9713743611337676e-05 0 -0.0050162165268349901 5.9103120889814306e-05 0 -0.0050194137276691744 5.2056661762063345e-05 0 -0.0050202372074626021 5.9713743611337676e-05 0 -0.0050289742369001465 6.949507221038654e-05 0 -0.0050194137276691744 5.2056661762063345e-05 0 -0.0050207198749938316 4.5434468649059649e-05 0 -0.0050094784367774861 7.2341765671660844e-05 0 -0.0050043535221429352 0.00010422322068943601 0 -0.0050209791838691639 3.5725214968510468e-05 0 -0.0049972318994374555 4.9348823991769642e-05 0 -0.0049840050685140969 2.7996369643132747e-05 0 -0.0050194137276691744 5.2056661762063345e-05 0 -0.0050209791838691639 3.5725214968510468e-05 0 -0.0049972318994374555 4.9348823991769642e-05 0 -0.0050162165268349901 5.9103120889814306e-05 0 -0.0049972318994374555 4.9348823991769642e-05 0 -0.0049643345311768073 9.111218413390805e-05 0 -0.0050162165268349901 5.9103120889814306e-05 0 -0.0050194137276691744 5.2056661762063345e-05 0 -0.0049972318994374555 4.9348823991769642e-05 0 -0.0050105991521568836 6.2426963071992328e-05 0 -0.0050036411658115143 6.5593494204298856e-05 0 -0.0050162165268349901 5.9103120889814306e-05 0 -0.0050193171725849009 5.2189761389841357e-05 0 -0.0050269145956890219 5.1192367877756002e-05 0 -0.0050162165268349901 5.9103120889814306e-05 0 -0.0050193171725849009 5.2189761389841357e-05 0 -0.0050202372074626021 5.9713743611337676e-05 0 -0.0050193171725849009 5.2189761389841357e-05 0 -0.0050202372074626021 5.9713743611337676e-05 0 -0.0050188823155052518 4.8660626645618905e-05 0 -0.0050190893290448894 3.9197193943164436e-05 0 -0.0050193171725849009 5.2189761389841357e-05 0 -0.0050269145956890219 5.1192367877756002e-05 0 -0.0050190893290448894 3.9197193943164436e-05 0 -0.0050193171725849009 5.2189761389841357e-05 0 -0.0050188823155052518 4.8660626645618905e-05 0 -0.0050283658301147269 3.8060652264027164e-05 0 -0.0050190893290448894 3.9197193943164436e-05 0 -0.0050269145956890219 5.1192367877756002e-05 0 -0.0050036411658115143 6.5593494204298856e-05 0 -0.0049050849628012681 6.3872415545236554e-05 0 -0.0050283658301147269 3.8060652264027164e-05 0 -0.0050269145956890219 5.1192367877756002e-05 0 -0.005040983392367005 4.2490547959934068e-05 0 -0.0049643345311768073 9.111218413390805e-05 0 -0.0049304729195727053 8.5182165670096984e-05 0 -0.0049127940246419376 0.00011855842901994888 0 -0.0049643345311768073 9.111218413390805e-05 0 -0.0049499244412477186 5.9804537981448586e-05 0 -0.0049304729195727053 8.5182165670096984e-05 0 -0.0049972318994374555 4.9348823991769642e-05 0 -0.0049643345311768073 9.111218413390805e-05 0 -0.0049731003629424281 4.7975816168369787e-05 0 -0.0049643345311768073 9.111218413390805e-05 0 -0.0049731003629424281 4.7975816168369787e-05 0 -0.0049499244412477186 5.9804537981448586e-05 0 -0.0049972318994374555 4.9348823991769642e-05 0 -0.0049731003629424281 4.7975816168369787e-05 0 -0.0049840050685140969 2.7996369643132747e-05 0 -0.0049840050685140969 2.7996369643132747e-05 0 -0.0049568543497746633 3.8414167264226926e-05 0 -0.0049596517169399569 9.2119924402845147e-06 0 -0.0049731003629424281 4.7975816168369787e-05 0 -0.0049840050685140969 2.7996369643132747e-05 0 -0.0049568543497746633 3.8414167264226926e-05 0 -0.0046913498774078608 0.0001055943653286001 0 -0.0047675592261127763 0.00013904289799528458 0 -0.0049568543497746633 3.8414167264226926e-05 0 -0.0049171306678567478 4.7442000499742775e-05 0 -0.0049596517169399569 9.2119924402845147e-06 0 -0.0049499244412477186 5.9804537981448586e-05 0 -0.0049171306678567478 4.7442000499742775e-05 0 -0.0049304729195727053 8.5182165670096984e-05 0 -0.0049568543497746633 3.8414167264226926e-05 0 -0.0049499244412477186 5.9804537981448586e-05 0 -0.0049171306678567478 4.7442000499742775e-05 0 -0.0049731003629424281 4.7975816168369787e-05 0 -0.0049568543497746633 3.8414167264226926e-05 0 -0.0049499244412477186 5.9804537981448586e-05 0 -0.0046413253755120372 0.00014184865842619695 0 -0.0046330662276813251 0.00013780639612798117 0 -0.0046322485065059555 0.00011960536679704822 0 -0.0046280572111892324 0.00014255768380747828 0 -0.0046330662276813251 0.00013780639612798117 0 -0.0046322485065059555 0.00011960536679704822 0 -0.0046913498774078608 0.0001055943653286001 0 -0.0046562624313926269 0.00013313260280550633 0 -0.0046274876676272031 0.0001430529052163932 0 -0.0046262062817048503 0.00015051572693176608 0 -0.0046413253755120372 0.00014184865842619695 0 -0.0046456652097605702 0.00019870995143686569 0 -0.0046504030098619671 0.00016639794660149073 0 -0.0047197066269405886 0.00013029665799521492 0 -0.0046913498774078608 0.0001055943653286001 0 -0.0045161531647903265 0.00021645063057362668 0 -0.0045161531647903265 0.00021645063057362668 0 -0.0044220502215758205 0.00018644477986485197 0 -0.0042033538363151299 0.00023346420304676084 0 -0.0042190078429527461 0.00022514147636766281 0 -0.004215768869136648 0.0002412778633945995 0 -0.0046274876676272031 0.0001430529052163932 0 -0.0046413253755120372 0.00014184865842619695 0 -0.0046330662276813251 0.00013780639612798117 0 -0.0049171306678567478 4.7442000499742775e-05 0 -0.0049304729195727053 8.5182165670096984e-05 0 -0.0049082311307881406 0.00010912640758777532 0 -0.0046913498774078608 0.0001055943653286001 0 -0.0048179694671684646 8.2469566277607975e-05 0 -0.0044220502215758205 0.00018644477986485197 0 -0.0048179694671684646 8.2469566277607975e-05 0 -0.0046939329889581754 0.00010784790321454371 0 -0.0046822738236900491 7.9282713061564429e-05 0 -0.0046979541862616284 8.2558710442020918e-05 0 -0.0049304729195727053 8.5182165670096984e-05 0 -0.0049082311307881406 0.00010912640758777532 0 -0.0049127940246419376 0.00011855842901994888 0 -0.0048179694671684646 8.2469566277607975e-05 0 -0.0049050849628012681 6.3872415545236554e-05 0 -0.0049993079658752276 -2.2070089968937464e-07 0 -0.0049991389453608323 -1.8005107624606822e-07 0 -0.0049991580826524874 -1.5312328871808269e-07 0 -0.0048179694671684646 8.2469566277607975e-05 0 -0.0048642170239483699 6.4925653459713294e-05 0 -0.0048365274677861451 8.6593152053173982e-05 0 -0.0048202696209975167 5.2665597549121625e-05 0 -0.0048430980722112124 4.0349975646371835e-05 0 -0.0049050849628012681 6.3872415545236554e-05 0 -0.0048642170239483699 6.4925653459713294e-05 0 -0.0048797202812372285 4.0133572936349524e-05 0 -0.0048642170239483699 6.4925653459713294e-05 0 -0.0046822738236900491 7.9282713061564429e-05 0 -0.004683345868409578 7.3167370902859125e-05 0 -0.0046979541862616284 8.2558710442020918e-05 0 -0.004683345868409578 7.3167370902859125e-05 0 -0.0046979541862616284 8.2558710442020918e-05 0 -0.0047089371409805535 5.9398345479791255e-05 0 -0.0042055382711976954 0.00027192114346331724 0 -0.004218591928096262 0.0002664114374677205 0 -0.004215786402975279 0.00028018620219464571 0 -0.0042055382711976954 0.00027192114346331724 0 -0.0042030968614257648 0.00028356407512533497 0 -0.004215786402975279 0.00028018620219464571 0 -0.0042151515654890162 0.00027697076173177333 0 -0.0042235433507254649 0.0002893027596054705 0 -0.0042055382711976954 0.00027192114346331724 0 -0.0041956820148676324 0.00027196645504271933 0 -0.0042049412343194616 0.00028273431459590134 0 -0.0043623917301413521 0.00029046187697144782 0 -0.0042235433507254649 0.0002893027596054705 0 -0.0042055382711976954 0.00027192114346331724 0 -0.004211073623521298 0.00025524020386118689 0 -0.0041956820148676324 0.00027196645504271933 0 -0.0042055382711976954 0.00027192114346331724 0 -0.004211073623521298 0.00025524020386118689 0 -0.004218591928096262 0.0002664114374677205 0 -0.0042033538363151299 0.00023346420304676084 0 -0.004211073623521298 0.00025524020386118689 0 -0.004215768869136648 0.0002412778633945995 0 -0.0042033538363151299 0.00023346420304676084 0 -0.004211073623521298 0.00025524020386118689 0 -0.0041956820148676324 0.00027196645504271933 0 -0.0045161531647903265 0.00021645063057362668 0 -0.0043623917301413521 0.00029046187697144782 0 -0.0045448139752199569 0.00022631067111232372 0 -0.0045416374372075812 0.0002296886609151812 0 -0.0045424598195213427 0.00023451022395573327 0 -0.0045416374372075812 0.0002296886609151812 0 -0.0045405509861162156 0.00023080072083226193 0 -0.0045424598195213427 0.00023451022395573327 0 -0.0045161531647903265 0.00021645063057362668 0 -0.0047675592261127763 0.00013904289799528458 0 -0.0045448139752199569 0.00022631067111232372 0 -0.0045419877459246336 0.0002281157420830231 0 -0.0045416374372075812 0.0002296886609151812 0 -0.0047675592261127763 0.00013904289799528458 0 -0.0048413111990238122 0.00019271281853027616 0 -0.0049840050685140969 2.7996369643132747e-05 0 -0.0049596517169399569 9.2119924402845147e-06 0 -0.0049862999401633409 -4.0122236180199919e-06 0 -0.0047787891361168395 0.0001540483185346141 0 -0.0047461065653182149 0.00017200075211139986 0 -0.0047525445987645094 0.00017941475914449469 0 -0.0045419877459246336 0.0002281157420830231 0 -0.0045412742323614492 0.00022981187432050387 0 -0.0045416374372075812 0.0002296886609151812 0 -0.0047675592261127763 0.00013904289799528458 0 -0.0047344441046364063 0.00023223237867774874 0 -0.0048413111990238122 0.00019271281853027616 0 -0.0047344441046364063 0.00023223237867774874 0 -0.0047344441046364063 0.00023223237867774874 0 -0.0045536763682171976 0.00026893894619340046 0 -0.0045412742323614492 0.00022981187432050387 0 -0.0045416374372075812 0.0002296886609151812 0 -0.004541467094135429 0.00023015547886491252 0 -0.0045564011128431288 0.00025541942164276487 0 -0.0045536763682171976 0.00026893894619340046 0 -0.004420713552732573 0.00033124143424868451 0 -0.004437888909819953 0.00035219526548563654 0 -0.0044178507299063507 0.00036425167530497861 0 -0.0045536763682171976 0.00026893894619340046 0 -0.0043623917301413521 0.00029046187697144782 0 -0.004420713552732573 0.00033124143424868451 0 -0.0043896884554797859 0.00036786400343026126 0 -0.0044178507299063507 0.00036425167530497861 0 -0.0045536763682171976 0.00026893894619340046 0 -0.0046511623548468935 0.00040313806188773586 0 -0.0047187293167581549 0.00029662897811284859 0 -0.0046692080549865051 0.00032791484001128037 0 -0.0046661891498245419 0.00035901888756228355 0 -0.004824195711538689 0.00034615134822985782 0 -0.0046511623548468935 0.00040313806188773586 0 -0.004824195711538689 0.00034615134822985782 0 -0.0049430786379683926 0.00024601156155408332 0 -0.0049127791517051978 0.00036537161271536713 0 -0.0049143964967625926 0.00034829878854442347 0 -0.0049005127692990404 0.00036648468591879386 0 -0.0047344441046364063 0.00023223237867774874 0 -0.004824195711538689 0.00034615134822985782 0 -0.0048413111990238122 0.00019271281853027616 0 -0.0049430786379683926 0.00024601156155408332 0 -0.0049299680533721139 0.00015866175917578719 0 -0.0049522670609398389 0.00018503271836274926 0 -0.0049256902080560792 0.00019957744566741784 0 -0.0048515198879340677 0.00025477482598909796 0 -0.004853879303458845 0.00025754985420935232 0 -0.004832906787227623 0.00026542285710289774 0 -0.0047107094051016141 0.00028725728110438995 0 -0.0047187293167581549 0.00029662897811284859 0 -0.0046692080549865051 0.00032791484001128037 0 -0.0050043535221429352 0.00010422322068943601 0 -0.0049430786379683926 0.00024601156155408332 0 -0.0050974462213107382 0.00013347874066388133 0 -0.0050911870024211723 0.00021494356193210942 0 -0.0050601684685879778 0.0001717082220499625 0 -0.0050043535221429352 0.00010422322068943601 0 -0.0048413111990238122 0.00019271281853027616 0 -0.0050209791838691639 3.5725214968510468e-05 0 -0.0049840050685140969 2.7996369643132747e-05 0 -0.0049862999401633409 -4.0122236180199919e-06 0 -0.004853879303458845 0.00025754985420935232 0 -0.0048315189761926076 0.00028004395135769103 0 -0.004832906787227623 0.00026542285710289774 0 -0.0050911870024211723 0.00021494356193210942 0 -0.0050601684685879778 0.0001717082220499625 0 -0.0050245597606689146 0.00020021648776487021 0 -0.0050252847155086771 0.00013151624460992916 0 -0.0050601684685879778 0.0001717082220499625 0 -0.0050245597606689146 0.00020021648776487021 0 -0.0050911870024211723 0.00021494356193210942 0 -0.0050245597606689146 0.00020021648776487021 0 -0.0050183627668660691 0.00025974843661408562 0 -0.0049430786379683926 0.00024601156155408332 0 -0.0049541659309845767 0.0003144469455991107 0 -0.0049143964967625926 0.00034829878854442347 0 -0.0049005127692990404 0.00036648468591879386 0 -0.0048821732257125338 0.00036758810183635431 0 -0.004824195711538689 0.00034615134822985782 0 -0.0048868798005725573 0.00038457910019925809 0 -0.0049127791517051978 0.00036537161271536713 0 -0.0049005127692990404 0.00036648468591879386 0 -0.0048927905952785809 0.00038398292637218165 0 -0.0048810719466361105 0.00039400228187231619 0 -0.0048797213161147195 0.00039612494218370825 0 -0.0048813638895258936 0.00039622635143920918 0 -0.0049005127692990404 0.00036648468591879386 0 -0.0048821732257125338 0.00036758810183635431 0 -0.0048927905952785809 0.00038398292637218165 0 -0.0048821732257125338 0.00036758810183635431 0 -0.0048927905952785809 0.00038398292637218165 0 -0.0048757709606737348 0.00038417320714827918 0 -0.0046929171336333331 0.00045573688108443289 0 -0.0047072283695901163 0.00047878017477522423 0 -0.0047114533397932742 0.00043326241533223232 0 -0.0048868798005725573 0.00038457910019925809 0 -0.0048746776970055548 0.00039915221273738381 0 -0.0048797213161147195 0.00039612494218370825 0 -0.0048806961586199023 0.0004008693923870522 0 -0.0048813638895258936 0.00039622635143920918 0 -0.0047937623378322561 0.00042270666430299788 0 -0.0046511623548468935 0.00040313806188773586 0 -0.0048797213161147195 0.00039612494218370825 0 -0.0048806961586199023 0.0004008693923870522 0 -0.0048737404088518401 0.00039952367260581251 0 -0.0047937623378322561 0.00042270666430299788 0 -0.0048998109812332796 0.00052641682556708153 0 -0.0046929171336333331 0.00045573688108443289 0 -0.0047072283695901163 0.00047878017477522423 0 -0.0046744642181948534 0.00047817079162256425 0 -0.0048806961586199023 0.0004008693923870522 0 -0.0048737404088518401 0.00039952367260581251 0 -0.0048752906647708165 0.00041445085564882243 0 -0.0043853585829956498 0.00040709983490788839 0 -0.0044085080619351864 0.00040667151900300046 0 -0.0044068225314994863 0.0004246646499370676 0 -0.0043853585829956498 0.00040709983490788839 0 -0.0044085080619351864 0.00040667151900300046 0 -0.0044085009091172668 0.0003875080498234197 0 -0.0044085009091172668 0.0003875080498234197 0 -0.0043896884554797859 0.00036786400343026126 0 -0.0044178507299063507 0.00036425167530497861 0 -0.0045313706695700945 0.00042557932360640463 0 -0.0046511623548468935 0.00040313806188773586 0 -0.0043853585829956498 0.00040709983490788839 0 -0.0044085009091172668 0.0003875080498234197 0 -0.0043896884554797859 0.00036786400343026126 0 -0.004437888909819953 0.00035219526548563654 0 -0.0044178507299063507 0.00036425167530497861 0 -0.0044326439263833329 0.0003823230701337687 0 -0.0043623917301413521 0.00029046187697144782 0 -0.0043453386205066684 0.00036157949661752228 0 -0.0044085009091172668 0.0003875080498234197 0 -0.0044178507299063507 0.00036425167530497861 0 -0.0044326439263833329 0.0003823230701337687 0 -0.0044085009091172668 0.0003875080498234197 0 -0.0044326439263833329 0.0003823230701337687 0 -0.0044206835311649626 0.00039738433761687394 0 -0.0044326439263833329 0.0003823230701337687 0 -0.0044206835311649626 0.00039738433761687394 0 -0.0044265103996592768 0.00041184722725523402 0 -0.0044085080619351864 0.00040667151900300046 0 -0.0044085009091172668 0.0003875080498234197 0 -0.0044206835311649626 0.00039738433761687394 0 -0.0043453386205066684 0.00036157949661752228 0 -0.0042737943469169726 0.00041018831968700617 0 -0.0042575232679545267 0.0003371620555314442 0 -0.0042512431186049054 0.00037691808960782193 0 -0.0042761842416516012 0.0003526203663085358 0 -0.0044085080619351864 0.00040667151900300046 0 -0.0044238534664742188 0.00041029283787547075 0 -0.0044068225314994863 0.0004246646499370676 0 -0.0044085080619351864 0.00040667151900300046 0 -0.0044206835311649626 0.00039738433761687394 0 -0.0044238534664742188 0.00041029283787547075 0 -0.0044206835311649626 0.00039738433761687394 0 -0.0044238534664742188 0.00041029283787547075 0 -0.0044265103996592768 0.00041184722725523402 0 -0.0042905661935980126 0.00041657801516403108 0 -0.0042737943469169726 0.00041018831968700617 0 -0.0042512431186049054 0.00037691808960782193 0 -0.0042761842416516012 0.0003526203663085358 0 -0.0042726777343635725 0.00038919534143119804 0 -0.0042344087548580418 0.00032498428311309493 0 -0.0041498025156515113 0.00039571513165598802 0 -0.0041957579493150741 0.0003080059037259467 0 -0.0042109700655043932 0.00029716669490831705 0 -0.0042148635807496464 0.00032125069005100194 0 -0.0041957579493150741 0.0003080059037259467 0 -0.0041926129806539609 0.00033139043495973916 0 -0.0042148635807496464 0.00032125069005100194 0 -0.0042344087548580418 0.00032498428311309493 0 -0.0042235433507254649 0.0002893027596054705 0 -0.0042638857434177642 0.00029747329164886725 0 -0.0042575232679545267 0.0003371620555314442 0 -0.0042795408393700796 0.00031601900654468597 0 -0.0042575232679545267 0.0003371620555314442 0 -0.0042761842416516012 0.0003526203663085358 0 -0.0042795408393700796 0.00031601900654468597 0 -0.0041957579493150741 0.0003080059037259467 0 -0.0042109700655043932 0.00029716669490831705 0 -0.0041982452125167696 0.00028249286803648039 0 -0.0042092312234530494 0.00028921644954251141 0 -0.0042235433507254649 0.0002893027596054705 0 -0.0042109700655043932 0.00029716669490831705 0 -0.0042030968614257648 0.00028356407512533497 0 -0.004215786402975279 0.00028018620219464571 0 -0.0048430190393525035 0.00025566429385478904 0 -0.0048791000586798751 0.00033490247566532542 0 -0.0048113392887638058 0.00035780385008222495 0 -0.0048430190393525035 0.00025566429385478904 0 -0.0047500608602669319 0.00033012483763435668 0 -0.0048113392887638058 0.00035780385008222495 0 -0.0048430190393525035 0.00025566429385478904 0 -0.0049093892642467548 0.00025805149625828666 0 -0.0048791000586798751 0.00033490247566532542 0 -0.0046632623705388041 0.00038348675718589243 0 -0.0046768032717695541 0.00030859266185498841 0 -0.0047500608602669319 0.00033012483763435668 0 -0.0046768032717695541 0.00030859266185498841 0 -0.0046864549241733659 0.00023780383500915354 0 -0.0047524087334018493 0.00026219209282074015 0 -0.0046768032717695541 0.00030859266185498841 0 -0.0047500608602669319 0.00033012483763435668 0 -0.0047524087334018493 0.00026219209282074015 0 -0.0048430190393525035 0.00025566429385478904 0 -0.0047500608602669319 0.00033012483763435668 0 -0.0047524087334018493 0.00026219209282074015 0 -0.0046864549241733659 0.00023780383500915354 0 -0.0047524087334018493 0.00026219209282074015 0 -0.004744565461189466 0.00017428781607489857 0 -0.0047524087334018493 0.00026219209282074015 0 -0.004744565461189466 0.00017428781607489857 0 -0.0048101556863628138 0.00020247301464391116 0 -0.0048736851791038585 0.00015855513884219889 0 -0.0048430190393525035 0.00025566429385478904 0 -0.0048101556863628138 0.00020247301464391116 0 -0.0048736851791038585 0.00015855513884219889 0 -0.0048430190393525035 0.00025566429385478904 0 -0.0049202640632578544 0.0001931853939056303 0 -0.0048430190393525035 0.00025566429385478904 0 -0.0047524087334018493 0.00026219209282074015 0 -0.0048101556863628138 0.00020247301464391116 0 -0.0049752654459456636 0.00015168603805652231 0 -0.0049202640632578544 0.0001931853939056303 0 -0.0049675291397883172 0.00022894937315878604 0 -0.0049202640632578544 0.0001931853939056303 0 -0.0049675291397883172 0.00022894937315878604 0 -0.0049093892642467548 0.00025805149625828666 0 -0.0048430190393525035 0.00025566429385478904 0 -0.0049202640632578544 0.0001931853939056303 0 -0.0049093892642467548 0.00025805149625828666 0 -0.0049752654459456636 0.00015168603805652231 0 -0.0050252847155086771 0.00013151624460992916 0 -0.0050245597606689146 0.00020021648776487021 0 -0.0049752654459456636 0.00015168603805652231 0 -0.0050245597606689146 0.00020021648776487021 0 -0.0049675291397883172 0.00022894937315878604 0 -0.0050183627668660691 0.00025974843661408562 0 -0.0049675291397883172 0.00022894937315878604 0 -0.0049465995829145373 0.00030668512675674953 0 -0.0049541659309845767 0.0003144469455991107 0 -0.0049273198466620186 0.0003548739182699699 0 -0.0048821732257125338 0.00036758810183635431 0 -0.0048561034957747091 0.00038541598353149633 0 -0.0048757709606737348 0.00038417320714827918 0 -0.0050245597606689146 0.00020021648776487021 0 -0.0050183627668660691 0.00025974843661408562 0 -0.0049675291397883172 0.00022894937315878604 0 -0.0049675291397883172 0.00022894937315878604 0 -0.0049093892642467548 0.00025805149625828666 0 -0.0049465995829145373 0.00030668512675674953 0 -0.0049131248335701361 0.00026553526958641332 0 -0.0049273198466620186 0.0003548739182699699 0 -0.0049093892642467548 0.00025805149625828666 0 -0.0048791000586798751 0.00033490247566532542 0 -0.0049666401508032991 0.00035917202465653061 0 -0.0048791000586798751 0.00033490247566532542 0 -0.0049062517842369952 0.000390475432085118 0 -0.0048513726455359707 0.00039260367075028354 0 -0.0048791000586798751 0.00033490247566532542 0 -0.0049062517842369952 0.000390475432085118 0 -0.0049666401508032991 0.00035917202465653061 0 -0.0049195869859956082 0.0003724375058094091 0 -0.0049273198466620186 0.0003548739182699699 0 -0.0049062517842369952 0.000390475432085118 0 -0.0049549115050311725 0.00036255963004903447 0 -0.0049197882693815765 0.00044174086664829613 0 -0.0049549115050311725 0.00036255963004903447 0 -0.0049197882693815765 0.00044174086664829613 0 -0.0049697192831054471 0.00046152594573598102 0 -0.0049062517842369952 0.000390475432085118 0 -0.0049197882693815765 0.00044174086664829613 0 -0.0048631844006549428 0.00044915632796224165 0 -0.0049062517842369952 0.000390475432085118 0 -0.0048631844006549428 0.00044915632796224165 0 -0.0048513726455359707 0.00039260367075028354 0 -0.0049273198466620186 0.0003548739182699699 0 -0.0048998109812332796 0.00052641682556708153 0 -0.0049549115050311725 0.00036255963004903447 0 -0.0049697192831054471 0.00046152594573598102 0 -0.0050494613687894693 0.00051394793353916031 0 -0.0048561034957747091 0.00038541598353149633 0 -0.0048737404088518401 0.00039952367260581251 0 -0.0048752906647708165 0.00041445085564882243 0 -0.0048927905952785809 0.00038398292637218165 0 -0.0048757709606737348 0.00038417320714827918 0 -0.0048737404088518401 0.00039952367260581251 0 -0.0048561034957747091 0.00038541598353149633 0 -0.0048757709606737348 0.00038417320714827918 0 -0.0048737404088518401 0.00039952367260581251 0 -0.0049697192831054471 0.00046152594573598102 0 -0.0050494613687894693 0.00051394793353916031 0 -0.0049520819015942876 0.00052428462408076056 0 -0.0050494613687894693 0.00051394793353916031 0 -0.0049520819015942876 0.00052428462408076056 0 -0.0049761578073617089 0.00059986260570354759 0 -0.0049197882693815765 0.00044174086664829613 0 -0.0048790323374398349 0.00051984708304915201 0 -0.0048631844006549428 0.00044915632796224165 0 -0.0049197882693815765 0.00044174086664829613 0 -0.0049520819015942876 0.00052428462408076056 0 -0.0048790323374398349 0.00051984708304915201 0 -0.0049197882693815765 0.00044174086664829613 0 -0.0049697192831054471 0.00046152594573598102 0 -0.0049520819015942876 0.00052428462408076056 0 -0.0049520819015942876 0.00052428462408076056 0 -0.0048790323374398349 0.00051984708304915201 0 -0.0049021419418628772 0.00058413871136650606 0 -0.0048790323374398349 0.00051984708304915201 0 -0.0047781238499750691 0.00052130600960549752 0 -0.004834055200854585 0.00061442336814286559 0 -0.0048790323374398349 0.00051984708304915201 0 -0.0047781238499750691 0.00052130600960549752 0 -0.0048631844006549428 0.00044915632796224165 0 -0.0047781238499750691 0.00052130600960549752 0 -0.0048631844006549428 0.00044915632796224165 0 -0.0047982650247541886 0.00043032822919852187 0 -0.0048631844006549428 0.00044915632796224165 0 -0.0047982650247541886 0.00043032822919852187 0 -0.0048513726455359707 0.00039260367075028354 0 -0.0047982650247541886 0.00043032822919852187 0 -0.0048113392887638058 0.00035780385008222495 0 -0.0048513726455359707 0.00039260367075028354 0 -0.0047982650247541886 0.00043032822919852187 0 -0.0048113392887638058 0.00035780385008222495 0 -0.004744178061931047 0.00039501726308731376 0 -0.0048791000586798751 0.00033490247566532542 0 -0.0048113392887638058 0.00035780385008222495 0 -0.0048513726455359707 0.00039260367075028354 0 -0.0046632623705388041 0.00038348675718589243 0 -0.0047500608602669319 0.00033012483763435668 0 -0.004744178061931047 0.00039501726308731376 0 -0.0047500608602669319 0.00033012483763435668 0 -0.0048113392887638058 0.00035780385008222495 0 -0.004744178061931047 0.00039501726308731376 0 -0.0047982650247541886 0.00043032822919852187 0 -0.004744178061931047 0.00039501726308731376 0 -0.0046994173709261561 0.0004591672024483321 0 -0.0046632623705388041 0.00038348675718589243 0 -0.004744178061931047 0.00039501726308731376 0 -0.0046994173709261561 0.0004591672024483321 0 -0.0046296088935743841 0.00056692054202336646 0 -0.0047781238499750691 0.00052130600960549752 0 -0.0046994173709261561 0.0004591672024483321 0 -0.0047781238499750691 0.00052130600960549752 0 -0.0047982650247541886 0.00043032822919852187 0 -0.0046994173709261561 0.0004591672024483321 0 -0.0046296088935743841 0.00056692054202336646 0 -0.0047781238499750691 0.00052130600960549752 0 -0.0047377927477188931 0.00064101604822043611 0 -0.0046296088935743841 0.00056692054202336646 0 -0.0046235374799041993 0.00073704602534694328 0 -0.0047377927477188931 0.00064101604822043611 0 -0.0047781238499750691 0.00052130600960549752 0 -0.0047377927477188931 0.00064101604822043611 0 -0.004834055200854585 0.00061442336814286559 0 -0.004834055200854585 0.00061442336814286559 0 -0.0048138505031741427 0.00073504500294199965 0 -0.004885276866515657 0.0006849877482321741 0 -0.0047377927477188931 0.00064101604822043611 0 -0.004834055200854585 0.00061442336814286559 0 -0.0048138505031741427 0.00073504500294199965 0 -0.0044089177650387728 0.00071528495816049252 0 -0.0044730680947987446 0.00070938404601939725 0 -0.0046235374799041993 0.00073704602534694328 0 -0.0047377927477188931 0.00064101604822043611 0 -0.0048138505031741427 0.00073504500294199965 0 -0.0041939564387092256 0.00070358501423332335 0 -0.0041464834687916256 0.00068799278895313634 0 -0.0041526147757244046 0.00067195596112399193 0 -0.0041939564387092256 0.00070358501423332335 0 -0.0042100874009862316 0.00065959211474045745 0 -0.0041593109869460052 0.00065508010311255836 0 -0.0041939564387092256 0.00070358501423332335 0 -0.0041526147757244046 0.00067195596112399193 0 -0.0041593109869460052 0.00065508010311255836 0 -0.0041526147757244046 0.00067195596112399193 0 -0.0041441681996756408 0.00065891895930796974 0 -0.0041593109869460052 0.00065508010311255836 0 -0.0041464834687916256 0.00068799278895313634 0 -0.0041526147757244046 0.00067195596112399193 0 -0.0041393320740106421 0.00066932150226776748 0 -0.0041526147757244046 0.00067195596112399193 0 -0.0041441681996756408 0.00065891895930796974 0 -0.0041393320740106421 0.00066932150226776748 0 -0.0041441681996756408 0.00065891895930796974 0 -0.0041485066238988576 0.00065019371283251109 0 -0.0041593109869460052 0.00065508010311255836 0 -0.0041441681996756408 0.00065891895930796974 0 -0.0041485066238988576 0.00065019371283251109 0 -0.0041380914619048616 0.00064861475642332127 0 -0.0042100874009862316 0.00065959211474045745 0 -0.0041505420285408235 0.00064379855505980964 0 -0.0041593109869460052 0.00065508010311255836 0 -0.0041505420285408235 0.00064379855505980964 0 -0.0041485066238988576 0.00065019371283251109 0 -0.0041593109869460052 0.00065508010311255836 0 -0.0035307843375143857 0.00088385898653076252 0 -0.0036612760031049089 0.00082712853089261166 0 -0.0035810298496536897 0.00079425238131905452 0 -0.0041198948276071215 0.00065799556129530503 0 -0.004131831974889524 0.00066360210339914754 0 -0.0041380914619048616 0.00064861475642332127 0 -0.0038849364567834057 0.00066687960488354125 0 -0.0038840646841707535 0.00075192166137530469 0 -0.0041441681996756408 0.00065891895930796974 0 -0.004131831974889524 0.00066360210339914754 0 -0.0041380914619048616 0.00064861475642332127 0 -0.0041464834687916256 0.00068799278895313634 0 -0.0041327321153380803 0.00067322337263055134 0 -0.0041268613652753324 0.00067599319243112361 0 -0.004131831974889524 0.00066360210339914754 0 -0.0041327321153380803 0.00067322337263055134 0 -0.0041255398438931196 0.00067413654258872719 0 -0.0041464834687916256 0.00068799278895313634 0 -0.0041393320740106421 0.00066932150226776748 0 -0.0041327321153380803 0.00067322337263055134 0 -0.0041441681996756408 0.00065891895930796974 0 -0.004131831974889524 0.00066360210339914754 0 -0.0041393320740106421 0.00066932150226776748 0 -0.004131831974889524 0.00066360210339914754 0 -0.0041393320740106421 0.00066932150226776748 0 -0.0041327321153380803 0.00067322337263055134 0 -0.0041268613652753324 0.00067599319243112361 0 -0.0041262188193551385 0.00067356792617478229 0 -0.0041276176541766574 0.0006724541621785364 0 -0.0041255398438931196 0.00067413654258872719 0 -0.0041268613652753324 0.00067599319243112361 0 -0.0041262188193551385 0.00067356792617478229 0 -0.0041327321153380803 0.00067322337263055134 0 -0.0041255398438931196 0.00067413654258872719 0 -0.0041268613652753324 0.00067599319243112361 0 -0.0038849364567834057 0.00066687960488354125 0 -0.0041331648891448133 0.0006795274157395543 0 -0.0041237058981094298 0.00067495410131006533 0 -0.0041255398438931196 0.00067413654258872719 0 -0.0041262188193551385 0.00067356792617478229 0 -0.0045403934446001026 0.0007077560089569241 0 -0.0044248685285898943 0.00057683466488998641 0 -0.0041198948276071215 0.00065799556129530503 0 -0.004131831974889524 0.00066360210339914754 0 -0.0041255398438931196 0.00067413654258872719 0 -0.0049200708435106488 0.00069803029430592759 0 -0.0049103651421976095 0.00071029625552126226 0 -0.0049269458619011471 0.00070212140576017957 0 -0.0049200708435106488 0.00069803029430592759 0 -0.0049103651421976095 0.00071029625552126226 0 -0.0049094995831199788 0.00068988511278150495 0 -0.0049103651421976095 0.00071029625552126226 0 -0.0049094995831199788 0.00068988511278150495 0 -0.0048871001724967488 0.00069969015751641798 0 -0.0044730680947987446 0.00070938404601939725 0 -0.0045403934446001026 0.0007077560089569241 0 -0.0048138505031741427 0.00073504500294199965 0 -0.0049103651421976095 0.00071029625552126226 0 -0.0048871001724967488 0.00069969015751641798 0 -0.0048138505031741427 0.00073504500294199965 0 -0.0048871001724967488 0.00069969015751641798 0 -0.004885276866515657 0.0006849877482321741 0 -0.0049094995831199788 0.00068988511278150495 0 -0.0048871001724967488 0.00069969015751641798 0 -0.004885276866515657 0.0006849877482321741 0 -0.004834055200854585 0.00061442336814286559 0 -0.004885276866515657 0.0006849877482321741 0 -0.0049021419418628772 0.00058413871136650606 0 -0.0049094995831199788 0.00068988511278150495 0 -0.004885276866515657 0.0006849877482321741 0 -0.0049047110801688663 0.00067294114179975936 0 -0.004885276866515657 0.0006849877482321741 0 -0.0049021419418628772 0.00058413871136650606 0 -0.0049761578073617089 0.00059986260570354759 0 -0.0048940341236291878 0.00068001551870447115 0 -0.0049376070238824578 0.0006340676579921872 0 -0.0049520819015942876 0.00052428462408076056 0 -0.0049021419418628772 0.00058413871136650606 0 -0.0049761578073617089 0.00059986260570354759 0 -0.0048790323374398349 0.00051984708304915201 0 -0.004834055200854585 0.00061442336814286559 0 -0.0049021419418628772 0.00058413871136650606 0 -0.0049163049562669734 0.00065783155430149066 0 -0.0049047110801688663 0.00067294114179975936 0 -0.0049322651731132311 0.00068886460601881247 0 -0.0049094995831199788 0.00068988511278150495 0 -0.0049047110801688663 0.00067294114179975936 0 -0.0049322651731132311 0.00068886460601881247 0 -0.0048998109812332796 0.00052641682556708153 0 -0.0049376070238824578 0.0006340676579921872 0 -0.0045313706695700945 0.00042557932360640463 0 -0.0046177105587679908 0.00057735088895948829 0 -0.0047072283695901163 0.00047878017477522423 0 -0.0046744642181948534 0.00047817079162256425 0 -0.0047022123520300647 0.00052437417371570261 0 -0.0048998109812332796 0.00052641682556708153 0 -0.0046177105587679908 0.00057735088895948829 0 -0.0043853585829956498 0.00040709983490788839 0 -0.0044068225314994863 0.0004246646499370676 0 -0.0043817398464038662 0.00044374963955447227 0 -0.0046177105587679908 0.00057735088895948829 0 -0.0041982221592289882 0.00047130481612579506 0 -0.0044480348667574887 0.00063183212290451863 0 -0.0044606454327629167 0.00049416946339375558 0 -0.0043482278929062278 0.00047960473194490682 0 -0.0044068225314994863 0.0004246646499370676 0 -0.0044031465468398288 0.00045122629533507892 0 -0.0043817398464038662 0.00044374963955447227 0 -0.0044031465468398288 0.00045122629533507892 0 -0.0043817398464038662 0.00044374963955447227 0 -0.0043960487302689959 0.00046769472895299323 0 -0.0044031465468398288 0.00045122629533507892 0 -0.0044144987921428324 0.00046329986484431679 0 -0.0044035222796810205 0.00046858256669013551 0 -0.0046177105587679908 0.00057735088895948829 0 -0.0044248685285898943 0.00057683466488998641 0 -0.0049200708435106488 0.00069803029430592759 0 -0.0049094995831199788 0.00068988511278150495 0 -0.0049322651731132311 0.00068886460601881247 0 -0.0049200708435106488 0.00069803029430592759 0 -0.0049322651731132311 0.00068886460601881247 0 -0.0049269458619011471 0.00070212140576017957 0 -0.0041498025156515113 0.00039571513165598802 0 -0.0038313277449952936 0.00034447391579456478 0 -0.0041498025156515113 0.00039571513165598802 0 -0.0037673352014118795 0.00036630151301491519 0 -0.0039425644355626172 0.00042596579112021187 0 -0.0039492734776881925 0.0003194079108100563 0 -0.0038427027887916018 0.0003705066413052346 0 -0.0044068225314994863 0.0004246646499370676 0 -0.0044031465468398288 0.00045122629533507892 0 -0.0044203033912895498 0.00043838264603372637 0 -0.0041199890794831598 0.00042633486194986652 0 -0.0041047984020595374 0.00041813351787728771 0 -0.0041224238576914032 0.00040107917723957202 0 -0.0041047984020595374 0.00041813351787728771 0 -0.0041224238576914032 0.00040107917723957202 0 -0.0041057275739239613 0.00038494512739351981 0 -0.0044262540633451253 0.0004117944302947826 0 -0.0044068225314994863 0.0004246646499370676 0 -0.0044203033912895498 0.00043838264603372637 0 -0.0042737943469169726 0.00041018831968700617 0 -0.0042707556778001487 0.00042430518206104515 0 -0.0042737943469169726 0.00041018831968700617 0 -0.0041498025156515113 0.00039571513165598802 0 -0.0044238534664742188 0.00041029283787547075 0 -0.0044262540633451253 0.0004117944302947826 0 -0.0044068225314994863 0.0004246646499370676 0 -0.0044031465468398288 0.00045122629533507892 0 -0.0044203033912895498 0.00043838264603372637 0 -0.0044144987921428324 0.00046329986484431679 0 -0.0042707556778001487 0.00042430518206104515 0 -0.0040949839940783187 0.00037492237360018911 0 -0.0041224238576914032 0.00040107917723957202 0 -0.0041057275739239613 0.00038494512739351981 0 -0.0041250621235736336 0.00037582949762617887 0 -0.0038313277449952936 0.00034447391579456478 0 -0.0040949839940783187 0.00037492237360018911 0 -0.0036340680171926183 0.00028469134964946081 0 -0.0035014731771843559 0.00019068420065352778 0 -0.0034483023380479454 0.00037409715047088878 0 -0.0038313277449952936 0.00034447391579456478 0 -0.0037673352014118795 0.00036630151301491519 0 -0.0038313277449952936 0.00034447391579456478 0 -0.0037112221108027807 0.00017060440905514735 0 -0.0036446611509621716 0.00011800390641112936 0 -0.0035594120220016848 6.4451426133803005e-05 0 -0.0035014731771843559 0.00019068420065352778 0 -0.0036340680171926183 0.00028469134964946081 0 -0.0036446611509621716 0.00011800390641112936 0 -0.0035014731771843559 0.00019068420065352778 0 -0.003767584424364361 0.00034962935346050664 0 -0.0037736626451650877 0.00024330550141371188 0 -0.0038159549235962848 0.00028976148145293192 0 -0.0037736626451650877 0.00024330550141371188 0 -0.0038159549235962848 0.00028976148145293192 0 -0.003848298907338143 0.00021580140046527116 0 -0.003767584424364361 0.00034962935346050664 0 -0.0038159549235962848 0.00028976148145293192 0 -0.0038358505109951143 0.00031700111312689172 0 -0.003898118115265132 0.00032272690284620352 0 -0.0039756992656212534 0.00033725652850151141 0 -0.0038159549235962848 0.00028976148145293192 0 -0.0038393562308667714 0.0002926545071912482 0 -0.0038358505109951143 0.00031700111312689172 0 -0.0039756992656212534 0.00033725652850151141 0 -0.0040949839940783187 0.00037492237360018911 0 -0.0040717331923531561 0.00039206980780998659 0 -0.0040704012951395287 0.00040191191627124916 0 -0.0040870244983481508 0.0003941791056862798 0 -0.0040949839940783187 0.00037492237360018911 0 -0.0041323624391336978 0.00040485421921824171 0 -0.0039756992656212534 0.00033725652850151141 0 -0.0041323624391336978 0.00040485421921824171 0 -0.0039396973513374676 0.00039938858584480407 0 -0.0039480432392154834 0.00033387445901018902 0 -0.0039714036372510532 0.00040360589523540216 0 -0.0038159549235962848 0.00028976148145293192 0 -0.0038386548537745866 0.00029280342552904934 0 -0.003848298907338143 0.00021580140046527116 0 -0.0039756992656212534 0.00033725652850151141 0 -0.0038095472067723236 0.00035769692437843497 0 -0.0038095472067723236 0.00035769692437843497 0 -0.0035017266020095374 0.00037510445856761343 0 -0.0037736626451650877 0.00024330550141371188 0 -0.003848298907338143 0.00021580140046527116 0 -0.0037789548456317983 0.00013600452482868226 0 -0.0038095472067723236 0.00035769692437843497 0 -0.0035274289182646123 0.00016103942299674175 0 -0.003848298907338143 0.00021580140046527116 0 -0.0037934386856303057 0.00013300272750603625 0 -0.0037789548456317983 0.00013600452482868226 0 -0.0037112221108027807 0.00017060440905514735 0 -0.0035562665621569197 6.8951924270005608e-05 0 -0.0036446611509621716 0.00011800390641112936 0 -0.0035594120220016848 6.4451426133803005e-05 0 -0.0036558628438662644 -4.7286013389743708e-05 0 -0.0035594120220016848 6.4451426133803005e-05 0 -0.0036558628438662644 -4.7286013389743708e-05 0 -0.0034352657611980749 -3.0432151947133417e-06 0 -0.0041237058981094298 0.00067495410131006533 0 -0.0041266176948225207 0.00067384510690789102 0 -0.0041262188193551385 0.00067356792617478229 0 -0.0039526024191972537 0.00054969679572976779 0 -0.0044248685285898943 0.00057683466488998641 0 -0.0041266176948225207 0.00067384510690789102 0 -0.0041262188193551385 0.00067356792617478229 0 -0.0041276176541766574 0.0006724541621785364 0 -0.0041419613852605314 0.00051672195645562221 0 -0.0041444497674878273 0.00050147870844357645 0 -0.0041604338672375863 0.00050313230825613014 0 -0.0037546978589762772 0.00048876044619717153 0 -0.0037835814591267343 0.00047474831522067025 0 -0.003774674326668539 0.00050686750324888997 0 -0.0044248685285898943 0.00057683466488998641 0 -0.0041982221592289882 0.00047130481612579506 0 -0.0044031465468398288 0.00045122629533507892 0 -0.0043960487302689959 0.00046769472895299323 0 -0.0044035222796810205 0.00046858256669013551 0 -0.0040951952753457994 0.00040989566665858258 0 -0.0041000139907821651 0.00041742539253959222 0 -0.0041115417442172762 0.00041171195620612165 0 -0.0041982221592289882 0.00047130481612579506 0 -0.0041323624391336978 0.00040485421921824171 0 -0.0041982221592289882 0.00047130481612579506 0 -0.0040370482455924827 0.00043492820176533437 0 -0.0040370482455924827 0.00043492820176533437 0 -0.0041323624391336978 0.00040485421921824171 0 -0.0038095472067723236 0.00035769692437843497 0 -0.0040370482455924827 0.00043492820176533437 0 -0.0039480432392154834 0.00033387445901018902 0 -0.0039886972919373461 0.00039536885590614517 0 -0.0039714036372510532 0.00040360589523540216 0 -0.0039526024191972537 0.00054969679572976779 0 -0.0040370482455924827 0.00043492820176533437 0 -0.0041419613852605314 0.00051672195645562221 0 -0.0041604338672375863 0.00050313230825613014 0 -0.0041624446239883353 0.00050647847738312195 0 -0.0037981362953068386 0.00049980192238445031 0 -0.0037835814591267343 0.00047474831522067025 0 -0.003774674326668539 0.00050686750324888997 0 -0.0037981362953068386 0.00049980192238445031 0 -0.003774674326668539 0.00050686750324888997 0 -0.003791614204257852 0.00053298149531630476 0 -0.003774674326668539 0.00050686750324888997 0 -0.003750601858277346 0.00051922347694289184 0 -0.0037685542870019738 0.0005250754441656492 0 -0.0038849364567834057 0.00066687960488354125 0 -0.0039526024191972537 0.00054969679572976779 0 -0.0039526024191972537 0.00054969679572976779 0 -0.0037635620969515538 0.00050460226163814967 0 -0.0037546978589762772 0.00048876044619717153 0 -0.003774674326668539 0.00050686750324888997 0 -0.003750601858277346 0.00051922347694289184 0 -0.0037211866156667333 0.0005082637276660225 0 -0.0037547514702682156 0.00049255132103278568 0 -0.003750601858277346 0.00051922347694289184 0 -0.0035897032413282409 0.00049218767636671887 0 -0.0034892748838187726 0.00062922285864738673 0 -0.003750601858277346 0.00051922347694289184 0 -0.0037568963995876568 0.00054148579761942631 0 -0.0037222090834830952 0.00054953365670585305 0 -0.003750601858277346 0.00051922347694289184 0 -0.0037568963995876568 0.00054148579761942631 0 -0.0037685542870019738 0.0005250754441656492 0 -0.0035897032413282409 0.00049218767636671887 0 -0.0035017266020095374 0.00037510445856761343 0 -0.0037568963995876568 0.00054148579761942631 0 -0.0037685542870019738 0.0005250754441656492 0 -0.003791614204257852 0.00053298149531630476 0 -0.003774674326668539 0.00050686750324888997 0 -0.0037685542870019738 0.0005250754441656492 0 -0.003791614204257852 0.00053298149531630476 0 -0.0033058980847778816 0.00035948052084389017 0 -0.0035017266020095374 0.00037510445856761343 0 -0.0033537903265909844 0.0004321362658450799 0 -0.0033762942028643154 0.00043773535500561071 0 -0.0033713407726143397 0.00042400620211735984 0 -0.003372561494095623 0.00045194900992039534 0 -0.0033537903265909844 0.0004321362658450799 0 -0.0033529275313929096 0.00045498954965658174 0 -0.003372561494095623 0.00045194900992039534 0 -0.0033537903265909844 0.0004321362658450799 0 -0.0033762942028643154 0.00043773535500561071 0 -0.0033762942028643154 0.00043773535500561071 0 -0.0033713407726143397 0.00042400620211735984 0 -0.0033911020912123471 0.00043151849084761953 0 -0.003372561494095623 0.00045194900992039534 0 -0.0033762942028643154 0.00043773535500561071 0 -0.0033933624284973032 0.00044912522640287944 0 -0.0034001051930722288 -3.6860427914171934e-05 0 -0.0034652360478928672 -2.2137090087708088e-05 0 -0.0033468976862331898 3.3055844269972519e-06 0 -0.0034001051930722288 -3.6860427914171934e-05 0 -0.0034665091298770397 -4.0993929161735452e-05 0 -0.0034058869549081 -0.0001335670888558999 0 -0.0035562665621569197 6.8951924270005608e-05 0 -0.0033917039030795116 -1.2558213685890384e-05 0 -0.0034001051930722288 -3.6860427914171934e-05 0 -0.0034665091298770397 -4.0993929161735452e-05 0 -0.0034652360478928672 -2.2137090087708088e-05 0 -0.0036353141487071067 0.0003453562636311801 0 -0.0035910869547623276 0.00027811710007572189 0 -0.0036449748139687943 0.00026731598049475907 0 -0.003315646590193371 0.00022566197587580377 0 -0.0032928829340688587 0.00024506889095474361 0 -0.0033104390057119063 0.00027281556273325716 0 -0.003315646590193371 0.00022566197587580377 0 -0.003308689328267729 0.00021449011018085566 0 -0.0032928829340688587 0.00024506889095474361 0 -0.0034269816323037367 9.7710588893452135e-05 0 -0.0035562665621569197 6.8951924270005608e-05 0 -0.0034269816323037367 9.7710588893452135e-05 0 -0.0035274289182646123 0.00016103942299674175 0 -0.0034615065228147698 0.0001120228482715292 0 -0.0034813141843163292 0.00014258612564021537 0 -0.0034590805669067969 0.00014717972335992911 0 -0.0035274289182646123 0.00016103942299674175 0 -0.0035562665621569197 6.8951924270005608e-05 0 -0.0035274289182646123 0.00016103942299674175 0 -0.0035017266020095374 0.00037510445856761343 0 -0.003308689328267729 0.00021449011018085566 0 -0.0032708081483175701 0.00022306179301589062 0 -0.0032928829340688587 0.00024506889095474361 0 -0.0032588778684738183 0.00028924367228483973 0 -0.0033104390057119063 0.00027281556273325716 0 -0.0033054337270493369 0.00032012552942315981 0 -0.0032588778684738183 0.00028924367228483973 0 -0.0032708081483175701 0.00022306179301589062 0 -0.0032928829340688587 0.00024506889095474361 0 -0.0032588778684738183 0.00028924367228483973 0 -0.0032928829340688587 0.00024506889095474361 0 -0.0033104390057119063 0.00027281556273325716 0 -0.0034269816323037367 9.7710588893452135e-05 0 -0.0032649069151604415 0.00020509873514310453 0 -0.003227430738607311 9.6455342468757031e-05 0 -0.0032247087309098389 0.00011321019675412564 0 -0.0032398552744547114 0.00011816804893685118 0 -0.0032247087309098389 0.00011321019675412564 0 -0.0032398552744547114 0.00011816804893685118 0 -0.003222029322717554 0.00013068262128806393 0 -0.0034269816323037367 9.7710588893452135e-05 0 -0.00317582747299787 -3.3434289973182332e-05 0 -0.0027970758407736343 0.00011183913464300825 0 -0.0028062542748246641 5.6562771305267226e-05 0 -0.0027581040651772771 5.66120519250661e-05 0 -0.00317582747299787 -3.3434289973182332e-05 0 -0.0030639571405195534 0.00020371101414404846 0 -0.0027970758407736343 0.00011183913464300825 0 -0.0028062542748246641 5.6562771305267226e-05 0 -0.0028497840950686719 7.6310532789803385e-05 0 -0.0028062542748246641 5.6562771305267226e-05 0 -0.0028497840950686719 7.6310532789803385e-05 0 -0.0028521962409230866 2.5614547463404507e-05 0 -0.0032588778684738183 0.00028924367228483973 0 -0.0033054337270493369 0.00032012552942315981 0 -0.0032473257488735627 0.00035601223172341905 0 -0.0030639571405195534 0.00020371101414404846 0 -0.0031185479030929678 0.0003523065526581955 0 -0.0030639571405195534 0.00020371101414404846 0 -0.0026931456515227972 0.00024328793537456016 0 -0.0032649069151604415 0.00020509873514310453 0 -0.0030639571405195534 0.00020371101414404846 0 -0.0026931456515227972 0.00024328793537456016 0 -0.0031185479030929678 0.0003523065526581955 0 -0.0029486107733134983 0.00030305201274401737 0 -0.0029516751816578571 0.00025226421196250601 0 -0.0030139943751035831 0.00026377358434347825 0 -0.0028789986392846714 0.00028516110431441992 0 -0.0027709393254248768 0.00034626177163302261 0 -0.0029408679583513642 0.0003766250645033894 0 -0.0026931456515227972 0.00024328793537456016 0 -0.002366159970998631 0.00010459041620957483 0 -0.0028062542748246641 5.6562771305267226e-05 0 -0.0028521962409230866 2.5614547463404507e-05 0 -0.0027864434204303511 1.1864269708987356e-05 0 -0.0022927188659748153 0.00025162043980667326 0 -0.0020931922433044424 0.00021570398305713239 0 -0.002161173339896163 8.7639929050877238e-05 0 -0.0033713407726143397 0.00042400620211735984 0 -0.0033547398581541738 0.00040735185477435782 0 -0.0033888485385881739 0.00041386140382372648 0 -0.0033713407726143397 0.00042400620211735984 0 -0.0033888485385881739 0.00041386140382372648 0 -0.0033911020912123471 0.00043151849084761953 0 -0.0033058980847778816 0.00035948052084389017 0 -0.0031185479030929678 0.0003523065526581955 0 -0.0033537903265909844 0.0004321362658450799 0 -0.0033713407726143397 0.00042400620211735984 0 -0.0033547398581541738 0.00040735185477435782 0 -0.0028789986392846714 0.00028516110431441992 0 -0.0029408679583513642 0.0003766250645033894 0 -0.0029664262854300341 0.0001979158513101669 0 -0.0029528969918319087 0.00036682127604414818 0 -0.0029994888823865694 0.00028545767823575811 0 -0.0029664262854300341 0.0001979158513101669 0 -0.0029415541441392091 0.00038700671357586952 0 -0.0029528969918319087 0.00036682127604414818 0 -0.0029664262854300341 0.0001979158513101669 0 -0.0031185479030929678 0.0003523065526581955 0 -0.002951857058651787 0.00023296313087770224 0 -0.0031185479030929678 0.0003523065526581955 0 -0.0031028878702829762 0.0003654753190910352 0 -0.0029528969918319087 0.00036682127604414818 0 -0.0029994888823865694 0.00028545767823575811 0 -0.0030860508223887234 0.00027680014386132423 0 -0.0029528969918319087 0.00036682127604414818 0 -0.0030860508223887234 0.00027680014386132423 0 -0.003160595819039718 0.00033038212792158201 0 -0.0031185479030929678 0.0003523065526581955 0 -0.0033074217764847112 0.00043925305318146001 0 -0.0029410839598862188 0.00038753661091232665 0 -0.0029528969918319087 0.00036682127604414818 0 -0.0032463009795747223 0.00044115240615723951 0 -0.0029528969918319087 0.00036682127604414818 0 -0.003160595819039718 0.00033038212792158201 0 -0.0032463009795747223 0.00044115240615723951 0 -0.0030860508223887234 0.00027680014386132423 0 -0.003160595819039718 0.00033038212792158201 0 -0.0032057172990023535 0.00025289847595681399 0 -0.0033071172378535962 0.0002817252140106475 0 -0.0032407837693880395 0.00036400466739349384 0 -0.0032057172990023535 0.00025289847595681399 0 -0.003160595819039718 0.00033038212792158201 0 -0.0032407837693880395 0.00036400466739349384 0 -0.0032057172990023535 0.00025289847595681399 0 -0.0033071172378535962 0.0002817252140106475 0 -0.0032496336519354562 0.00044176221960066025 0 -0.0034064591780235414 0.00028458490196378995 0 -0.0033071172378535962 0.0002817252140106475 0 -0.0032407837693880395 0.00036400466739349384 0 -0.0032496336519354562 0.00044176221960066025 0 -0.003160595819039718 0.00033038212792158201 0 -0.0032407837693880395 0.00036400466739349384 0 -0.0032463009795747223 0.00044115240615723951 0 -0.003279504362101197 0.00039243373996926894 0 -0.0033074217764847112 0.00043925305318146001 0 -0.0032871111397940684 0.00042948099269868816 0 -0.0033005717171991325 0.00058840957477154603 0 -0.00343565642908935 0.00059020104933309083 0 -0.0033074217764847112 0.00043925305318146001 0 -0.0033491218364062152 0.0005015815224475226 0 -0.0032871111397940684 0.00042948099269868816 0 -0.0035344419929565192 0.00047205957874261442 0 -0.00343565642908935 0.00059020104933309083 0 -0.0033074217764847112 0.00043925305318146001 0 -0.00350137156736795 0.000468983069739818 0 -0.0032496336519354562 0.00044176221960066025 0 -0.0035344419929565192 0.00047205957874261442 0 -0.0035304083004049358 0.00034474273145402906 0 -0.0032496336519354562 0.00044176221960066025 0 -0.0035304083004049358 0.00034474273145402906 0 -0.0034064591780235414 0.00028458490196378995 0 -0.0035304083004049358 0.00034474273145402906 0 -0.0034064591780235414 0.00028458490196378995 0 -0.0035306431079439793 0.00020665834341298644 0 -0.0035304083004049358 0.00034474273145402906 0 -0.0036919395936281406 0.00025910449958125502 0 -0.0037417828511123637 0.00045290825403459931 0 -0.0035304083004049358 0.00034474273145402906 0 -0.0036919395936281406 0.00025910449958125502 0 -0.0035306431079439793 0.00020665834341298644 0 -0.0036919395936281406 0.00025910449958125502 0 -0.0038574003076785029 0.0002880267754526823 0 -0.0037417828511123637 0.00045290825403459931 0 -0.0038574003076785029 0.0002880267754526823 0 -0.0039136579182936374 0.00042336401922066772 0 -0.0037417828511123637 0.00045290825403459931 0 -0.003968232936246173 0.00053434130742267502 0 -0.0037417828511123637 0.00045290825403459931 0 -0.0038501223287178681 0.00063270866765779336 0 -0.003968232936246173 0.00053434130742267502 0 -0.0039136579182936374 0.00042336401922066772 0 -0.0037417828511123637 0.00045290825403459931 0 -0.0035344419929565192 0.00047205957874261442 0 -0.0037417828511123637 0.00045290825403459931 0 -0.0035577946085830546 0.00070285807418316341 0 -0.0035344419929565192 0.00047205957874261442 0 -0.0035304083004049358 0.00034474273145402906 0 -0.0037417828511123637 0.00045290825403459931 0 -0.0038417718802491022 0.00063664981821625276 0 -0.0035971325783413031 0.0007075769162613885 0 -0.0037417828511123637 0.00045290825403459931 0 -0.0038501223287178681 0.00063270866765779336 0 -0.0035577946085830546 0.00070285807418316341 0 -0.0038501223287178681 0.00063270866765779336 0 -0.0038123283554752992 0.0007712903329732682 0 -0.0036636553626171824 0.00069352911065507735 0 -0.0040777885137795785 0.00064596133112024463 0 -0.0038501223287178681 0.00063270866765779336 0 -0.0038123283554752992 0.0007712903329732682 0 -0.0040777885137795785 0.00064596133112024463 0 -0.003968232936246173 0.00053434130742267502 0 -0.0038501223287178681 0.00063270866765779336 0 -0.0040713258040778423 0.00065346779187186595 0 -0.003986432725113136 0.00070217926298526121 0 -0.0041505420285408235 0.00064379855505980964 0 -0.0040777885137795785 0.00064596133112024463 0 -0.0041479999541294598 0.00064686801405820814 0 -0.0041505420285408235 0.00064379855505980964 0 -0.0041485066238988576 0.00065019371283251109 0 -0.0041479999541294598 0.00064686801405820814 0 -0.003986432725113136 0.00070217926298526121 0 -0.0038840646841707535 0.00075192166137530469 0 -0.0041485066238988576 0.00065019371283251109 0 -0.0041479999541294598 0.00064686801405820814 0 -0.0041380914619048616 0.00064861475642332127 0 -0.0038123283554752992 0.0007712903329732682 0 -0.0036612760031049089 0.00082712853089261166 0 -0.0036636553626171824 0.00069352911065507735 0 -0.0035810298496536897 0.00079425238131905452 0 -0.0035145215350599443 0.00073011764509519543 0 -0.0036636553626171824 0.00069352911065507735 0 -0.0036612760031049089 0.00082712853089261166 0 -0.0035810298496536897 0.00079425238131905452 0 -0.0036636553626171824 0.00069352911065507735 0 -0.0038849364567834057 0.00066687960488354125 0 -0.0034892748838187726 0.00062922285864738673 0 -0.0037211866156667333 0.0005082637276660225 0 -0.003750601858277346 0.00051922347694289184 0 -0.0037222090834830952 0.00054953365670585305 0 -0.0035307843375143857 0.00088385898653076252 0 -0.0035810298496536897 0.00079425238131905452 0 -0.0035145215350599443 0.00073011764509519543 0 -0.0033762942028643154 0.00043773535500561071 0 -0.0033933624284973032 0.00044912522640287944 0 -0.0033911020912123471 0.00043151849084761953 0 -0.0034892748838187726 0.00062922285864738673 0 -0.0033491218364062152 0.0005015815224475226 0 -0.0033140349016782911 0.00075023101483026762 0 -0.0033005717171991325 0.00058840957477154603 0 -0.00343565642908935 0.00059020104933309083 0 -0.0034892748838187726 0.00062922285864738673 0 -0.0035971325783413031 0.0007075769162613885 0 -0.0035344419929565192 0.00047205957874261442 0 -0.0035577946085830546 0.00070285807418316341 0 -0.00343565642908935 0.00059020104933309083 0 -0.0033140349016782911 0.00075023101483026762 0 -0.0035577946085830546 0.00070285807418316341 0 -0.00343565642908935 0.00059020104933309083 0 -0.0035368654546460371 -5.3823420782839036e-05 0 -0.0034750996300116125 -0.0001220984475931799 0 -0.0029462830078948931 -0.00013037271222642561 0 -0.0028906717740427397 -2.9693888039451391e-05 0 -0.0028122184518940873 -0.00016181460617580856 0 -0.0041794020591587201 -7.762551832151783e-05 0 -0.004185281661344473 -7.7875817976707251e-05 0 -0.0041852487741618188 -7.854517793907595e-05 0 -0.0029462830078948931 -0.00013037271222642561 0 -0.0028906717740427397 -2.9693888039451391e-05 0 -0.0030013691098168148 -4.4582919712783478e-05 0 -0.0028906717740427397 -2.9693888039451391e-05 0 -0.0030013691098168148 -4.4582919712783478e-05 0 -0.0029989309004901281 2.6366842483472259e-05 0 -0.0041794020591587201 -7.762551832151783e-05 0 -0.004185281661344473 -7.7875817976707251e-05 0 -0.0041826334820333948 -7.9766615722591912e-05 0 -0.004185281661344473 -7.7875817976707251e-05 0 -0.0041891958706985963 -7.7512837292100412e-05 0 -0.0041873347544922968 -8.0357071461776197e-05 0 -0.004185281661344473 -7.7875817976707251e-05 0 -0.0041891958706985963 -7.7512837292100412e-05 0 -0.0041885575797201736 -7.6911775274701827e-05 0 -0.004185281661344473 -7.7875817976707251e-05 0 -0.0041885575797201736 -7.6911775274701827e-05 0 -0.0041852487741618188 -7.854517793907595e-05 0 -0.0041885575797201736 -7.6911775274701827e-05 0 -0.0041906554015308682 -7.9054614286290094e-05 0 -0.0041852487741618188 -7.854517793907595e-05 0 -0.0041906554015308682 -7.9054614286290094e-05 0 -0.0041928143133118535 -8.4445989837165177e-05 0 -0.0041852487741618188 -7.854517793907595e-05 0 -0.0041906554015308682 -7.9054614286290094e-05 0 -0.0041951492797228365 -8.4936203215278292e-05 0 -0.0041901812059254098 -7.5924066245406242e-05 0 -0.0041885575797201736 -7.6911775274701827e-05 0 -0.0041906554015308682 -7.9054614286290094e-05 0 -0.0041901812059254098 -7.5924066245406242e-05 0 -0.0041906554015308682 -7.9054614286290094e-05 0 -0.0041951492797228365 -8.4936203215278292e-05 0 -0.0041928143133118535 -8.4445989837165177e-05 0 -0.0036290585994971764 -0.00022411388363098811 0 -0.0034750996300116125 -0.0001220984475931799 0 -0.0027261748735251598 -0.00030868087922489925 0 -0.0027560006705942396 -0.00029198169664965921 0 -0.0028122184518940873 -0.00016181460617580856 0 -0.0036290585994971764 -0.00022411388363098811 0 -0.0031222976701492694 -0.00041836775978066492 0 -0.0027142639267232292 -0.00031381460380711562 0 -0.0027560006705942396 -0.00029198169664965921 0 -0.0027745947991306783 -0.00035792487227406827 0 -0.0028453205271850072 -0.00030873130264369566 0 -0.0028122184518940873 -0.00016181460617580856 0 -0.0029477892696747089 -0.00026886852176076243 0 -0.0027560006705942396 -0.00029198169664965921 0 -0.0028453205271850072 -0.00030873130264369566 0 -0.0028122184518940873 -0.00016181460617580856 0 -0.0027560006705942396 -0.00029198169664965921 0 -0.0028453205271850072 -0.00030873130264369566 0 -0.0027745947991306783 -0.00035792487227406827 0 -0.0029462830078948931 -0.00013037271222642561 0 -0.0028122184518940873 -0.00016181460617580856 0 -0.0029477892696747089 -0.00026886852176076243 0 -0.0029462830078948931 -0.00013037271222642561 0 -0.0029477892696747089 -0.00026886852176076243 0 -0.0030069175825486027 -0.00018109340292574703 0 -0.0029477892696747089 -0.00026886852176076243 0 -0.0030391547690952867 -0.00023819461113359884 0 -0.0030659175605863478 -0.00030691468945205093 0 -0.0030659175605863478 -0.00030691468945205093 0 -0.0031047887676202254 -0.00026532044922246531 0 -0.0031442372346028374 -0.00029673874640422809 0 -0.0031047887676202254 -0.00026532044922246531 0 -0.0031080244097378461 -0.00020640848993515844 0 -0.0031631364278960623 -0.00024643162633471356 0 -0.0031047887676202254 -0.00026532044922246531 0 -0.0031442372346028374 -0.00029673874640422809 0 -0.0031631364278960623 -0.00024643162633471356 0 -0.0030391547690952867 -0.00023819461113359884 0 -0.0031047887676202254 -0.00026532044922246531 0 -0.0031080244097378461 -0.00020640848993515844 0 -0.0030391547690952867 -0.00023819461113359884 0 -0.0030659175605863478 -0.00030691468945205093 0 -0.0031047887676202254 -0.00026532044922246531 0 -0.0030391547690952867 -0.00023819461113359884 0 -0.0031080244097378461 -0.00020640848993515844 0 -0.0030672036382066378 -0.00016273319296503585 0 -0.0031080244097378461 -0.00020640848993515844 0 -0.0031283234075076666 -0.00015223435243043014 0 -0.0031727173495552665 -0.00018456552029960161 0 -0.0031080244097378461 -0.00020640848993515844 0 -0.0031283234075076666 -0.00015223435243043014 0 -0.0030672036382066378 -0.00016273319296503585 0 -0.0029477892696747089 -0.00026886852176076243 0 -0.0030391547690952867 -0.00023819461113359884 0 -0.0030069175825486027 -0.00018109340292574703 0 -0.0030672036382066378 -0.00016273319296503585 0 -0.0030069175825486027 -0.00018109340292574703 0 -0.0030319060624276733 -0.00010752282987972232 0 -0.0030391547690952867 -0.00023819461113359884 0 -0.0030672036382066378 -0.00016273319296503585 0 -0.0030069175825486027 -0.00018109340292574703 0 -0.0027864434204303511 1.1864269708987356e-05 0 -0.0027185886236532003 -1.7669593941455409e-06 0 -0.0027581040651772771 5.66120519250661e-05 0 -0.0020931922433044424 0.00021570398305713239 0 -0.0019005769781730104 0.00017783806118751964 0 -0.0020308786005368766 0.00011334101474199091 0 -0.0032021110429501444 -0.00028497499616965671 0 -0.0032059453530039958 -0.0003088743347421209 0 -0.00326498214082814 -0.00021695628750651111 0 -0.002366159970998631 0.00010459041620957483 0 -0.0026219977000198837 -8.15312706253249e-05 0 -0.0026219977000198837 -8.15312706253249e-05 0 -0.0030239247080884437 -7.2457721433929849e-05 0 -0.0028062542748246641 5.6562771305267226e-05 0 -0.0027864434204303511 1.1864269708987356e-05 0 -0.0027581040651772771 5.66120519250661e-05 0 -0.0032021110429501444 -0.00028497499616965671 0 -0.0032058957085234086 -0.00021770419876945973 0 -0.00326498214082814 -0.00021695628750651111 0 -0.0032021110429501444 -0.00028497499616965671 0 -0.0031631364278960623 -0.00024643162633471356 0 -0.0032058957085234086 -0.00021770419876945973 0 -0.0032021110429501444 -0.00028497499616965671 0 -0.0032059453530039958 -0.0003088743347421209 0 -0.0031883009202531951 -0.00031573531121427173 0 -0.0026219977000198837 -8.15312706253249e-05 0 -0.002698088166914323 -8.1033980935749751e-05 0 -0.0032021110429501444 -0.00028497499616965671 0 -0.0031442372346028374 -0.00029673874640422809 0 -0.0031631364278960623 -0.00024643162633471356 0 -0.0032021110429501444 -0.00028497499616965671 0 -0.0031442372346028374 -0.00029673874640422809 0 -0.0031550474520343811 -0.00035703111158167115 0 -0.0031631364278960623 -0.00024643162633471356 0 -0.0031727173495552665 -0.00018456552029960161 0 -0.0032058957085234086 -0.00021770419876945973 0 -0.0031080244097378461 -0.00020640848993515844 0 -0.0031631364278960623 -0.00024643162633471356 0 -0.0031727173495552665 -0.00018456552029960161 0 -0.0031283234075076666 -0.00015223435243043014 0 -0.0031727173495552665 -0.00018456552029960161 0 -0.0031715099912563737 -0.00013009914489621745 0 -0.0031727173495552665 -0.00018456552029960161 0 -0.0032271660390334202 -0.00015687572566776398 0 -0.0031715099912563737 -0.00013009914489621745 0 -0.0031727173495552665 -0.00018456552029960161 0 -0.0032058957085234086 -0.00021770419876945973 0 -0.0032271660390334202 -0.00015687572566776398 0 -0.00317582747299787 -3.3434289973182332e-05 0 -0.0030239247080884437 -7.2457721433929849e-05 0 -0.0033173152704138171 -0.00013356087314240269 0 -0.0032271660390334202 -0.00015687572566776398 0 -0.00326498214082814 -0.00021695628750651111 0 -0.0032058957085234086 -0.00021770419876945973 0 -0.0032271660390334202 -0.00015687572566776398 0 -0.00326498214082814 -0.00021695628750651111 0 -0.0034001051930722288 -3.6860427914171934e-05 0 -0.0034058869549081 -0.0001335670888558999 0 -0.0033145680972521126 -7.4984454432605138e-05 0 -0.0033173152704138171 -0.00013356087314240269 0 -0.0032271660390334202 -0.00015687572566776398 0 -0.0032134758773056178 -6.2742022840066715e-05 0 -0.00317582747299787 -3.3434289973182332e-05 0 -0.003302833367076236 -9.2877958356311463e-05 0 -0.0032134758773056178 -6.2742022840066715e-05 0 -0.0031154049923646462 -9.556480715360625e-05 0 -0.0031281354054602355 -4.778851807347317e-05 0 -0.0031715099912563737 -0.00013009914489621745 0 -0.0032134758773056178 -6.2742022840066715e-05 0 -0.0031154049923646462 -9.556480715360625e-05 0 -0.0032271660390334202 -0.00015687572566776398 0 -0.0031715099912563737 -0.00013009914489621745 0 -0.0032134758773056178 -6.2742022840066715e-05 0 -0.0033145680972521126 -7.4984454432605138e-05 0 -0.0032753551100032177 -1.4815803135391066e-05 0 -0.0032067996166150734 -1.5580682526583923e-05 0 -0.0032134758773056178 -6.2742022840066715e-05 0 -0.0031281354054602355 -4.778851807347317e-05 0 -0.0031119202984096761 8.7761253767276075e-06 0 -0.003302833367076236 -9.2877958356311463e-05 0 -0.0031475764429454494 5.3105293410290437e-06 0 -0.0033145680972521126 -7.4984454432605138e-05 0 -0.0032753551100032177 -1.4815803135391066e-05 0 -0.0033468976862331898 3.3055844269972519e-06 0 -0.0034001051930722288 -3.6860427914171934e-05 0 -0.0033145680972521126 -7.4984454432605138e-05 0 -0.0033468976862331898 3.3055844269972519e-06 0 -0.0029462830078948931 -0.00013037271222642561 0 -0.0030319060624276733 -0.00010752282987972232 0 -0.0030013691098168148 -4.4582919712783478e-05 0 -0.0030319060624276733 -0.00010752282987972232 0 -0.003072984592710039 -4.172151399562591e-05 0 -0.0030013691098168148 -4.4582919712783478e-05 0 -0.0029462830078948931 -0.00013037271222642561 0 -0.0030069175825486027 -0.00018109340292574703 0 -0.0030319060624276733 -0.00010752282987972232 0 -0.0030319060624276733 -0.00010752282987972232 0 -0.0031154049923646462 -9.556480715360625e-05 0 -0.003072984592710039 -4.172151399562591e-05 0 -0.0030672036382066378 -0.00016273319296503585 0 -0.0030319060624276733 -0.00010752282987972232 0 -0.0031154049923646462 -9.556480715360625e-05 0 -0.0031283234075076666 -0.00015223435243043014 0 -0.0030672036382066378 -0.00016273319296503585 0 -0.0031154049923646462 -9.556480715360625e-05 0 -0.0031283234075076666 -0.00015223435243043014 0 -0.0031715099912563737 -0.00013009914489621745 0 -0.0031154049923646462 -9.556480715360625e-05 0 -0.003072984592710039 -4.172151399562591e-05 0 -0.0031281354054602355 -4.778851807347317e-05 0 -0.0031119202984096761 8.7761253767276075e-06 0 -0.0031154049923646462 -9.556480715360625e-05 0 -0.003072984592710039 -4.172151399562591e-05 0 -0.0031281354054602355 -4.778851807347317e-05 0 -0.003072984592710039 -4.172151399562591e-05 0 -0.0031119202984096761 8.7761253767276075e-06 0 -0.003045112644652279 7.3297953133220258e-06 0 -0.003072984592710039 -4.172151399562591e-05 0 -0.003045112644652279 7.3297953133220258e-06 0 -0.0030013691098168148 -4.4582919712783478e-05 0 -0.003045112644652279 7.3297953133220258e-06 0 -0.0030013691098168148 -4.4582919712783478e-05 0 -0.0029989309004901281 2.6366842483472259e-05 0 -0.0030320888802321936 8.6414566235095083e-05 0 -0.0032095085647445409 4.4223452716397681e-05 0 -0.0031447502252311865 0.00013271130099042056 0 -0.0031119202984096761 8.7761253767276075e-06 0 -0.003045112644652279 7.3297953133220258e-06 0 -0.0030320888802321936 8.6414566235095083e-05 0 -0.003045112644652279 7.3297953133220258e-06 0 -0.0029989309004901281 2.6366842483472259e-05 0 -0.0030320888802321936 8.6414566235095083e-05 0 -0.0031475764429454494 5.3105293410290437e-06 0 -0.0030421930335575438 7.8586859976477829e-05 0 -0.0032067996166150734 -1.5580682526583923e-05 0 -0.0030320888802321936 8.6414566235095083e-05 0 -0.0032095085647445409 4.4223452716397681e-05 0 -0.0032753551100032177 -1.4815803135391066e-05 0 -0.0032067996166150734 -1.5580682526583923e-05 0 -0.0032095085647445409 4.4223452716397681e-05 0 -0.0032095085647445409 4.4223452716397681e-05 0 -0.0032447789445683149 0.00014976714394205755 0 -0.0033124624884639945 8.7128747152441502e-05 0 -0.0032095085647445409 4.4223452716397681e-05 0 -0.0031447502252311865 0.00013271130099042056 0 -0.0032447789445683149 0.00014976714394205755 0 -0.0031447502252311865 0.00013271130099042056 0 -0.0032447789445683149 0.00014976714394205755 0 -0.0031626127406703211 0.00020907359752460797 0 -0.0032447789445683149 0.00014976714394205755 0 -0.0031626127406703211 0.00020907359752460797 0 -0.0033024014161481823 0.000292422207414146 0 -0.0030733946202325295 0.00017066397117085819 0 -0.0030475345660986811 0.00031119119972974663 0 -0.0029582440396133105 0.00010764894222427248 0 -0.0031626127406703211 0.00020907359752460797 0 -0.0030733946202325295 0.00017066397117085819 0 -0.0030475345660986811 0.00031119119972974663 0 -0.0030320888802321936 8.6414566235095083e-05 0 -0.0030733946202325295 0.00017066397117085819 0 -0.0029582440396133105 0.00010764894222427248 0 -0.0030320888802321936 8.6414566235095083e-05 0 -0.0031447502252311865 0.00013271130099042056 0 -0.0030733946202325295 0.00017066397117085819 0 -0.0031447502252311865 0.00013271130099042056 0 -0.0031626127406703211 0.00020907359752460797 0 -0.0030733946202325295 0.00017066397117085819 0 -0.0035594120220016848 6.4451426133803005e-05 0 -0.0034352657611980749 -3.0432151947133417e-06 0 -0.0035014731771843559 0.00019068420065352778 0 -0.0034352657611980749 -3.0432151947133417e-06 0 -0.0033124624884639945 8.7128747152441502e-05 0 -0.0033609643029069128 0.00015669913142615631 0 -0.0032095085647445409 4.4223452716397681e-05 0 -0.0034352657611980749 -3.0432151947133417e-06 0 -0.0033124624884639945 8.7128747152441502e-05 0 -0.0032753551100032177 -1.4815803135391066e-05 0 -0.0032095085647445409 4.4223452716397681e-05 0 -0.0033468976862331898 3.3055844269972519e-06 0 -0.0032165297460550191 4.4883915374731984e-05 0 -0.0033917039030795116 -1.2558213685890384e-05 0 -0.0033609643029069128 0.00015669913142615631 0 -0.0034032416391759565 0.00025333242981573378 0 -0.0033024014161481823 0.000292422207414146 0 -0.0032447789445683149 0.00014976714394205755 0 -0.0033609643029069128 0.00015669913142615631 0 -0.0033024014161481823 0.000292422207414146 0 -0.0032447789445683149 0.00014976714394205755 0 -0.0033124624884639945 8.7128747152441502e-05 0 -0.0033609643029069128 0.00015669913142615631 0 -0.0034352657611980749 -3.0432151947133417e-06 0 -0.0033609643029069128 0.00015669913142615631 0 -0.0035014731771843559 0.00019068420065352778 0 -0.0033609643029069128 0.00015669913142615631 0 -0.0035014731771843559 0.00019068420065352778 0 -0.0034032416391759565 0.00025333242981573378 0 -0.0035014731771843559 0.00019068420065352778 0 -0.0034032416391759565 0.00025333242981573378 0 -0.0034483023380479454 0.00037409715047088878 0 -0.0033224534947190591 0.0002847279165457285 0 -0.0034785393117703956 0.00036909680195060105 0 -0.0032473195446027386 0.00042009833757631509 0 -0.0032617637183339656 0.00026812077930078281 0 -0.0037673352014118795 0.00036630151301491519 0 -0.0034032416391759565 0.00025333242981573378 0 -0.0033024014161481823 0.000292422207414146 0 -0.0034483023380479454 0.00037409715047088878 0 -0.0037673352014118795 0.00036630151301491519 0 -0.0037142681232739424 0.00036508221781207434 0 -0.0034785393117703956 0.00036909680195060105 0 -0.0032473195446027386 0.00042009833757631509 0 -0.0032387792260274773 0.00048177314819900364 0 -0.0042192012164635126 0.00034774741729276006 0 -0.0042580661279478862 0.00032943697825821939 0 -0.0042351606280022804 0.00031900028755147992 0 -0.0041926129806539609 0.00033139043495973916 0 -0.0042192012164635126 0.00034774741729276006 0 -0.0042148635807496464 0.00032125069005100194 0 -0.0042192012164635126 0.00034774741729276006 0 -0.0042148635807496464 0.00032125069005100194 0 -0.0042351606280022804 0.00031900028755147992 0 -0.0031626127406703211 0.00020907359752460797 0 -0.0030475345660986811 0.00031119119972974663 0 -0.0031756693977393825 0.00033783761571391471 0 -0.0031626127406703211 0.00020907359752460797 0 -0.0033224534947190591 0.0002847279165457285 0 -0.0031756693977393825 0.00033783761571391471 0 -0.0031950261449145314 0.00022530127948802527 0 -0.0032617637183339656 0.00026812077930078281 0 -0.0033224534947190591 0.0002847279165457285 0 -0.0031756693977393825 0.00033783761571391471 0 -0.0032473195446027386 0.00042009833757631509 0 -0.0031756693977393825 0.00033783761571391471 0 -0.0032473195446027386 0.00042009833757631509 0 -0.0031474228934424758 0.00052190160475850311 0 -0.003524426802154282 0.0004636067455705733 0 -0.0037142681232739424 0.00036508221781207434 0 -0.0032473195446027386 0.00042009833757631509 0 -0.0032396607374539626 0.0004777532302222708 0 -0.0031474228934424758 0.00052190160475850311 0 -0.0035735914350845097 0.00011653855032911157 0 -0.0039212595630572387 0.00015273806136511991 0 -0.0030475345660986811 0.00031119119972974663 0 -0.0031756693977393825 0.00033783761571391471 0 -0.0031474228934424758 0.00052190160475850311 0 -0.0041702175121938554 -8.4364601761477773e-05 0 -0.0041745967324803854 -9.1473661996866609e-05 0 -0.0041652682847342021 -9.2356836518837809e-05 0 -0.0041702175121938554 -8.4364601761477773e-05 0 -0.0041745967324803854 -9.1473661996866609e-05 0 -0.0041801879433995114 -8.9160110164668912e-05 0 -0.0041745967324803854 -9.1473661996866609e-05 0 -0.0041801879433995114 -8.9160110164668912e-05 0 -0.0041807730723317713 -9.396781860988313e-05 0 -0.0041801879433995114 -8.9160110164668912e-05 0 -0.0041859702603835904 -8.6137627415255647e-05 0 -0.004187312650153938 -9.2810709868038036e-05 0 -0.0041801879433995114 -8.9160110164668912e-05 0 -0.004187312650153938 -9.2810709868038036e-05 0 -0.0041807730723317713 -9.396781860988313e-05 0 -0.0041859702603835904 -8.6137627415255647e-05 0 -0.0041805711139705345 -8.3694828111001852e-05 0 -0.0041873434226771464 -8.2288933789993404e-05 0 -0.0041801879433995114 -8.9160110164668912e-05 0 -0.0041859702603835904 -8.6137627415255647e-05 0 -0.0041805711139705345 -8.3694828111001852e-05 0 -0.0041702175121938554 -8.4364601761477773e-05 0 -0.0041801879433995114 -8.9160110164668912e-05 0 -0.0041805711139705345 -8.3694828111001852e-05 0 -0.0035735914350845097 0.00011653855032911157 0 -0.0035709783550564502 1.4777206019326749e-05 0 -0.0041702175121938554 -8.4364601761477773e-05 0 -0.0041805711139705345 -8.3694828111001852e-05 0 -0.0041747948281063525 -7.9657825290973215e-05 0 -0.0041805711139705345 -8.3694828111001852e-05 0 -0.0041826334820333948 -7.9766615722591912e-05 0 -0.0041873434226771464 -8.2288933789993404e-05 0 -0.0041805711139705345 -8.3694828111001852e-05 0 -0.0041826334820333948 -7.9766615722591912e-05 0 -0.0041747948281063525 -7.9657825290973215e-05 0 -0.0041794020591587201 -7.762551832151783e-05 0 -0.0041826334820333948 -7.9766615722591912e-05 0 -0.0041747948281063525 -7.9657825290973215e-05 0 -0.0028906717740427397 -2.9693888039451391e-05 0 -0.0029989309004901281 2.6366842483472259e-05 0 -0.0029582440396133105 0.00010764894222427248 0 -0.0035368654546460371 -5.3823420782839036e-05 0 -0.0035709783550564502 1.4777206019326749e-05 0 -0.0029989309004901281 2.6366842483472259e-05 0 -0.0030320888802321936 8.6414566235095083e-05 0 -0.0029582440396133105 0.00010764894222427248 0 -0.0041891958706985963 -7.7512837292100412e-05 0 -0.0041901076138868209 -8.2441277935558607e-05 0 -0.0041873347544922968 -8.0357071461776197e-05 0 -0.0041826334820333948 -7.9766615722591912e-05 0 -0.0041873347544922968 -8.0357071461776197e-05 0 -0.0041873434226771464 -8.2288933789993404e-05 0 -0.004185281661344473 -7.7875817976707251e-05 0 -0.0041826334820333948 -7.9766615722591912e-05 0 -0.0041873347544922968 -8.0357071461776197e-05 0 -0.0041873347544922968 -8.0357071461776197e-05 0 -0.0041873434226771464 -8.2288933789993404e-05 0 -0.0041905751069864217 -8.3789572259787565e-05 0 -0.0041873434226771464 -8.2288933789993404e-05 0 -0.0041905751069864217 -8.3789572259787565e-05 0 -0.0041964923683993809 -8.3972522438792641e-05 0 -0.0041901076138868209 -8.2441277935558607e-05 0 -0.0041873347544922968 -8.0357071461776197e-05 0 -0.0041905751069864217 -8.3789572259787565e-05 0 -0.0041905751069864217 -8.3789572259787565e-05 0 -0.0041891432520747953 -8.6562339531843859e-05 0 -0.0041964923683993809 -8.3972522438792641e-05 0 -0.0041901076138868209 -8.2441277935558607e-05 0 -0.0041905751069864217 -8.3789572259787565e-05 0 -0.0041891432520747953 -8.6562339531843859e-05 0 -0.0041891432520747953 -8.6562339531843859e-05 0 -0.0041964923683993809 -8.3972522438792641e-05 0 -0.004182637410497827 -5.7718966376855693e-05 0 -0.0041891432520747953 -8.6562339531843859e-05 0 -0.004193603778217269 -9.2945443468679813e-05 0 -0.0041954578907159659 -9.1130187944413264e-05 0 -0.0041898608109452382 -8.2362115414676712e-05 0 -0.0041779994911843475 -7.9732144401497827e-05 0 -0.0041859702603835904 -8.6137627415255647e-05 0 -0.0041964923683993809 -8.3972522438792641e-05 0 -0.004187312650153938 -9.2810709868038036e-05 0 -0.0041859702603835904 -8.6137627415255647e-05 0 -0.0041873434226771464 -8.2288933789993404e-05 0 -0.0041964923683993809 -8.3972522438792641e-05 0 -0.0041964923683993809 -8.3972522438792641e-05 0 -0.0042083340823408913 -3.5028786584677002e-05 0 -0.0042470300425526807 -3.5793090859988879e-05 0 -0.0042187704104584209 -6.4910248843510576e-05 0 -0.0041587023349542391 -9.7695303004371084e-05 0 -0.0042083340823408913 -3.5028786584677002e-05 0 -0.004182637410497827 -5.7718966376855693e-05 0 -0.0041865197034155113 -4.4473290687460215e-06 0 -0.0041964923683993809 -8.3972522438792641e-05 0 -0.0042083340823408913 -3.5028786584677002e-05 0 -0.004182637410497827 -5.7718966376855693e-05 0 -0.0041779994911843475 -7.9732144401497827e-05 0 -0.004412575649960236 -4.1114799324250858e-05 0 -0.004193603778217269 -9.2945443468679813e-05 0 -0.0041958548177245623 -9.5379238187669549e-05 0 -0.0041968042490718189 -9.3673822083929653e-05 0 -0.0047356594199237517 -6.4823563729753852e-06 0 -0.004741004948477903 3.4761888260932894e-05 0 -0.0048664056823258944 3.820021481250749e-05 0 -0.004592969125972424 0.00015342059817123561 0 -0.0046075074554128761 0.00015630159349367304 0 -0.0046016482020242817 0.00014956545539961493 0 -0.0046694524931730095 9.2507447148985469e-05 0 -0.0045454678684261184 9.1213258292051873e-05 0 -0.0045368180300416052 2.9895000501632831e-05 0 -0.0045402883044728592 5.9076484028953747e-05 0 -0.0044673662567596755 2.0903861298637466e-05 0 -0.004412575649960236 -4.1114799324250858e-05 0 -0.0046694524931730095 9.2507447148985469e-05 0 -0.0049576002848883173 0.00012560823933154366 0 -0.0049536710707155695 0.00011552992596748986 0 -0.0049596810596310749 0.00010645179671935518 0 -0.004592969125972424 0.00015342059817123561 0 -0.004598996539769435 0.00013950659994043402 0 -0.0046016482020242817 0.00014956545539961493 0 -0.0046694524931730095 9.2507447148985469e-05 0 -0.0047836458472484533 0.00012614666944662942 0 -0.004592969125972424 0.00015342059817123561 0 -0.004598996539769435 0.00013950659994043402 0 -0.0045861337630982296 0.00012530431054572996 0 -0.0046694524931730095 9.2507447148985469e-05 0 -0.0049178934790231341 0.00011560239733464536 0 -0.0049576002848883173 0.00012560823933154366 0 -0.0049536710707155695 0.00011552992596748986 0 -0.0049483251988311442 0.0001204381283408824 0 -0.004741004948477903 3.4761888260932894e-05 0 -0.0048465772580269526 8.6619650681709893e-05 0 -0.0048664056823258944 3.820021481250749e-05 0 -0.0048465772580269526 8.6619650681709893e-05 0 -0.0049309865186080611 0.00011214910687593169 0 -0.0049159644877662832 9.8226110144797706e-05 0 -0.0049483251988311442 0.0001204381283408824 0 -0.0049309865186080611 0.00011214910687593169 0 -0.0049480799967984808 0.00010876165180166333 0 -0.0049178934790231341 0.00011560239733464536 0 -0.0049177703433253674 0.00010856508652622328 0 -0.0049536710707155695 0.00011552992596748986 0 -0.0049483251988311442 0.0001204381283408824 0 -0.0049480799967984808 0.00010876165180166333 0 -0.0048465772580269526 8.6619650681709893e-05 0 -0.0048664056823258944 3.820021481250749e-05 0 -0.0048998520377037868 7.3632626298430912e-05 0 -0.0048465772580269526 8.6619650681709893e-05 0 -0.0048998520377037868 7.3632626298430912e-05 0 -0.0049159644877662832 9.8226110144797706e-05 0 -0.0042083340823408913 -3.5028786584677002e-05 0 -0.0041865197034155113 -4.4473290687460215e-06 0 -0.0042380080161554161 1.5909997345020426e-05 0 -0.0042083340823408913 -3.5028786584677002e-05 0 -0.0042470300425526807 -3.5793090859988879e-05 0 -0.0042380080161554161 1.5909997345020426e-05 0 -0.004412575649960236 -4.1114799324250858e-05 0 -0.0045674119326988786 3.2287335673262574e-05 0 -0.004187312650153938 -9.2810709868038036e-05 0 -0.0041807730723317713 -9.396781860988313e-05 0 -0.0041846127903269054 -9.9550014614618876e-05 0 -0.0042470300425526807 -3.5793090859988879e-05 0 -0.0042380080161554161 1.5909997345020426e-05 0 -0.0042991488919425658 3.5613927632960618e-05 0 -0.0041587023349542391 -9.7695303004371084e-05 0 -0.0045959152581095683 5.11813026081446e-05 0 -0.0043413835558585414 1.2712893291299019e-05 0 -0.0045959152581095683 5.11813026081446e-05 0 -0.0041807730723317713 -9.396781860988313e-05 0 -0.0041753908176129393 -9.7185749823506141e-05 0 -0.0041846127903269054 -9.9550014614618876e-05 0 -0.0041745967324803854 -9.1473661996866609e-05 0 -0.0041807730723317713 -9.396781860988313e-05 0 -0.0041753908176129393 -9.7185749823506141e-05 0 -0.0048628684554741491 5.9901538670437304e-05 0 -0.0048811414126737757 7.8653729199298052e-05 0 -0.0048834254045605789 6.6598921830972289e-05 0 -0.0045959152581095683 5.11813026081446e-05 0 -0.0046854471441967046 7.4160627892721725e-05 0 -0.0044560894871701956 0.00015150499781351544 0 -0.0045429460542259076 0.00010959761938140946 0 -0.0044419161712168104 7.7599016926305816e-05 0 -0.0045959152581095683 5.11813026081446e-05 0 -0.0049468698938029982 0.00011223495212735417 0 -0.0045674119326988786 3.2287335673262574e-05 0 -0.0045959152581095683 5.11813026081446e-05 0 -0.0049312481607727528 0.0001095112755705513 0 -0.0049309865186080611 0.00011214910687593169 0 -0.0049310441220114139 0.0001054961969130286 0 -0.0048664056823258944 3.820021481250749e-05 0 -0.0048998520377037868 7.3632626298430912e-05 0 -0.0049664378498916004 7.5151436411463946e-05 0 -0.0048998520377037868 7.3632626298430912e-05 0 -0.0049664378498916004 7.5151436411463946e-05 0 -0.0049159644877662832 9.8226110144797706e-05 0 -0.0045959152581095683 5.11813026081446e-05 0 -0.0049277089043706489 2.2917963507263738e-05 0 -0.0049312481607727528 0.0001095112755705513 0 -0.0049309865186080611 0.00011214910687593169 0 -0.0049159644877662832 9.8226110144797706e-05 0 -0.0049309865186080611 0.00011214910687593169 0 -0.0049310441220114139 0.0001054961969130286 0 -0.0049408292790658883 0.0001034265281038099 0 -0.0049310441220114139 0.0001054961969130286 0 -0.0049408292790658883 0.0001034265281038099 0 -0.0049408419130384761 9.3643359709791031e-05 0 -0.0049312481607727528 0.0001095112755705513 0 -0.0049310441220114139 0.0001054961969130286 0 -0.004920760099564497 0.00010502747519507374 0 -0.004920760099564497 0.00010502747519507374 0 -0.0049267364365916545 8.583853514241744e-05 0 -0.0048988999287004004 8.0783334442614515e-05 0 -0.0049310441220114139 0.0001054961969130286 0 -0.004920760099564497 0.00010502747519507374 0 -0.0049267364365916545 8.583853514241744e-05 0 -0.0049267364365916545 8.583853514241744e-05 0 -0.0049408419130384761 9.3643359709791031e-05 0 -0.0049514950055904909 7.6616159055603188e-05 0 -0.0049310441220114139 0.0001054961969130286 0 -0.0049267364365916545 8.583853514241744e-05 0 -0.0049408419130384761 9.3643359709791031e-05 0 -0.0049408419130384761 9.3643359709791031e-05 0 -0.0049529873284430877 9.59782693809861e-05 0 -0.0049514950055904909 7.6616159055603188e-05 0 -0.0049529873284430877 9.59782693809861e-05 0 -0.0049657903991338218 8.4538811825844704e-05 0 -0.0049514950055904909 7.6616159055603188e-05 0 -0.0049529873284430877 9.59782693809861e-05 0 -0.0049657903991338218 8.4538811825844704e-05 0 -0.0049596810596310749 0.00010645179671935518 0 -0.0047717581009529449 8.4106248614462294e-05 0 -0.0047836458472484533 0.00012614666944662942 0 -0.0045784595396109367 8.783619148741092e-05 0 -0.0045959735143610075 7.3224300284659865e-05 0 -0.0046062112598658092 0.000117081400152466 0 -0.0045784595396109367 8.783619148741092e-05 0 -0.0045861337630982296 0.00012530431054572996 0 -0.0046062112598658092 0.000117081400152466 0 -0.004598996539769435 0.00013950659994043402 0 -0.0045861337630982296 0.00012530431054572996 0 -0.0046062112598658092 0.000117081400152466 0 -0.0049536710707155695 0.00011552992596748986 0 -0.0049596810596310749 0.00010645179671935518 0 -0.0049480799967984808 0.00010876165180166333 0 -0.0049309865186080611 0.00011214910687593169 0 -0.0049408292790658883 0.0001034265281038099 0 -0.0049480799967984808 0.00010876165180166333 0 -0.0049408292790658883 0.0001034265281038099 0 -0.0049529873284430877 9.59782693809861e-05 0 -0.0049480799967984808 0.00010876165180166333 0 -0.0049408292790658883 0.0001034265281038099 0 -0.0049408419130384761 9.3643359709791031e-05 0 -0.0049529873284430877 9.59782693809861e-05 0 -0.0049529873284430877 9.59782693809861e-05 0 -0.0049596810596310749 0.00010645179671935518 0 -0.0049480799967984808 0.00010876165180166333 0 -0.0042109700655043932 0.00029716669490831705 0 -0.0042278334619123403 0.00029003803969197839 0 -0.004215786402975279 0.00028018620219464571 0 -0.0042278334619123403 0.00029003803969197839 0 -0.0042317565860925553 0.0002729457088630006 0 -0.004215786402975279 0.00028018620219464571 0 -0.0042278334619123403 0.00029003803969197839 0 -0.0042430380452449078 0.00028187860847768144 0 -0.0042317565860925553 0.0002729457088630006 0 -0.0042278334619123403 0.00029003803969197839 0 -0.004225788221415192 0.00030552064947206656 0 -0.0042397930910169548 0.00030011717970160551 0 -0.0042109700655043932 0.00029716669490831705 0 -0.0042278334619123403 0.00029003803969197839 0 -0.004225788221415192 0.00030552064947206656 0 -0.0042109700655043932 0.00029716669490831705 0 -0.0042148635807496464 0.00032125069005100194 0 -0.004225788221415192 0.00030552064947206656 0 -0.0042148635807496464 0.00032125069005100194 0 -0.004225788221415192 0.00030552064947206656 0 -0.0042351606280022804 0.00031900028755147992 0 -0.004225788221415192 0.00030552064947206656 0 -0.0042351606280022804 0.00031900028755147992 0 -0.0042397930910169548 0.00030011717970160551 0 -0.0042351606280022804 0.00031900028755147992 0 -0.0042508978908899825 0.00030647803373861298 0 -0.0042397930910169548 0.00030011717970160551 0 -0.0042580661279478862 0.00032943697825821939 0 -0.0042351606280022804 0.00031900028755147992 0 -0.0042508978908899825 0.00030647803373861298 0 -0.0042508978908899825 0.00030647803373861298 0 -0.0042397930910169548 0.00030011717970160551 0 -0.0042538518068101633 0.00028860146618957662 0 -0.0042278334619123403 0.00029003803969197839 0 -0.0042397930910169548 0.00030011717970160551 0 -0.0042430380452449078 0.00028187860847768144 0 -0.0042430380452449078 0.00028187860847768144 0 -0.0042538518068101633 0.00028860146618957662 0 -0.0042563370313331477 0.00027376137477943131 0 -0.0042397930910169548 0.00030011717970160551 0 -0.0042430380452449078 0.00028187860847768144 0 -0.0042538518068101633 0.00028860146618957662 0 -0.0042538518068101633 0.00028860146618957662 0 -0.0042677206738025312 0.00029537037636310381 0 -0.0042620542311799115 0.00027617256721907952 0 -0.0042769948056057046 0.0002074857413558486 0 -0.0044225686330432046 0.00024751841045868029 0 -0.0043340831683675481 0.00010260691558277488 0 -0.0043926910503014321 0.00012119204091638125 0 -0.004344044513412638 4.6741521377474125e-05 0 -0.0043935230183636221 0.00019085681652198315 0 -0.0043885037014445129 0.00022736938958957864 0 -0.0044131704724460832 0.00023565954246398382 0 -0.0042769948056057046 0.0002074857413558486 0 -0.0045827304224176349 0.00015068578713544475 0 -0.0042508978908899825 0.00030647803373861298 0 -0.0042538518068101633 0.00028860146618957662 0 -0.0042677206738025312 0.00029537037636310381 0 -0.0042769948056057046 0.0002074857413558486 0 -0.0039212595630572387 0.00015273806136511991 0 -0.0042580661279478862 0.00032943697825821939 0 -0.0042508978908899825 0.00030647803373861298 0 -0.0042677206738025312 0.00029537037636310381 0 -0.0039654959700417937 0.00028781073007011173 0 -0.0039832197813499757 0.00019592435199840166 0 -0.0040105692647947949 0.00026615535282891822 0 -0.0037142681232739424 0.00036508221781207434 0 -0.0042769948056057046 0.0002074857413558486 0 -0.0037142681232739424 0.00036508221781207434 0 -0.0039212595630572387 0.00015273806136511991 0 -0.0041745967324803854 -9.1473661996866609e-05 0 -0.0041753908176129393 -9.7185749823506141e-05 0 -0.0041652682847342021 -9.2356836518837809e-05 0 -0.0043413835558585414 1.2712893291299019e-05 0 -0.0039212595630572387 0.00015273806136511991 0 -0.0044560894871701956 0.00015150499781351544 0 -0.0043692336776512486 0.00019193366696610656 0 -0.0043926910503014321 0.00012119204091638125 0 -0.0043340831683675481 0.00010260691558277488 0 -0.0043692336776512486 0.00019193366696610656 0 -0.0043926910503014321 0.00012119204091638125 0 -0.0043926910503014321 0.00012119204091638125 0 -0.0044419161712168104 7.7599016926305816e-05 0 -0.004344044513412638 4.6741521377474125e-05 0 -0.0046854471441967046 7.4160627892721725e-05 0 -0.0045827304224176349 0.00015068578713544475 0 -0.0044560894871701956 0.00015150499781351544 0 -0.0043926910503014321 0.00012119204091638125 0 -0.0044419161712168104 7.7599016926305816e-05 0 -0.0048834254045605789 6.6598921830972289e-05 0 -0.0048901302047409424 7.8279232901335303e-05 0 -0.0048940011316284384 7.3435888421332884e-05 0 -0.0048811414126737757 7.8653729199298052e-05 0 -0.0048834254045605789 6.6598921830972289e-05 0 -0.0048901302047409424 7.8279232901335303e-05 0 -0.0048901302047409424 7.8279232901335303e-05 0 -0.0048939871006031237 8.2812251904106548e-05 0 -0.0048940011316284384 7.3435888421332884e-05 0 -0.0049468698938029982 0.00011223495212735417 0 -0.004883283627311147 6.8979518189707105e-05 0 -0.0048901302047409424 7.8279232901335303e-05 0 -0.0048939871006031237 8.2812251904106548e-05 0 -0.0048988999287004004 8.0783334442614515e-05 0 -0.0048811414126737757 7.8653729199298052e-05 0 -0.0048901302047409424 7.8279232901335303e-05 0 -0.0048988999287004004 8.0783334442614515e-05 0 -0.0047347905504622522 0.00012586443468297893 0 -0.0046923666286678867 0.00019753142834136176 0 -0.0046593793530407468 0.00011692534256890785 0 -0.0047347905504622522 0.00012586443468297893 0 -0.0046593793530407468 0.00011692534256890785 0 -0.0046884300694511058 6.0828747012992284e-05 0 -0.0047347905504622522 0.00012586443468297893 0 -0.004719652662962627 0.0002064017965631289 0 -0.0046923666286678867 0.00019753142834136176 0 -0.0048339555010670854 9.7234590589452341e-05 0 -0.0045827304224176349 0.00015068578713544475 0 -0.0045827304224176349 0.00015068578713544475 0 -0.0044225686330432046 0.00024751841045868029 0 -0.0044225686330432046 0.00024751841045868029 0 -0.0043272421857314843 0.00023512512091268699 0 -0.0042635023563219474 0.00027618496088537128 0 -0.0042563370313331477 0.00027376137477943131 0 -0.0042539448097754064 0.00024294660443525124 0 -0.0042563370313331477 0.00027376137477943131 0 -0.0042435694580525707 0.00026175835326367836 0 -0.0042539448097754064 0.00024294660443525124 0 -0.0044225686330432046 0.00024751841045868029 0 -0.0044416254073101694 0.00017901452160219838 0 -0.0042538518068101633 0.00028860146618957662 0 -0.0042620542311799115 0.00027617256721907952 0 -0.0042563370313331477 0.00027376137477943131 0 -0.0042430380452449078 0.00028187860847768144 0 -0.0042563370313331477 0.00027376137477943131 0 -0.0042436457671686592 0.00027259588413069394 0 -0.0042430380452449078 0.00028187860847768144 0 -0.0042436457671686592 0.00027259588413069394 0 -0.0042317565860925553 0.0002729457088630006 0 -0.0042563370313331477 0.00027376137477943131 0 -0.0042436457671686592 0.00027259588413069394 0 -0.0042435694580525707 0.00026175835326367836 0 -0.0042436457671686592 0.00027259588413069394 0 -0.0042435694580525707 0.00026175835326367836 0 -0.0042317565860925553 0.0002729457088630006 0 -0.0042435694580525707 0.00026175835326367836 0 -0.0042539448097754064 0.00024294660443525124 0 -0.0042296538742756986 0.00025143381666153719 0 -0.0042539448097754064 0.00024294660443525124 0 -0.0042296538742756986 0.00025143381666153719 0 -0.0042369496507152554 0.00023129719227305015 0 -0.0042190078429527461 0.00022514147636766281 0 -0.004215768869136648 0.0002412778633945995 0 -0.0042296538742756986 0.00025143381666153719 0 -0.0044220502215758205 0.00018644477986485197 0 -0.0041966163733931127 0.00024164527790295916 0 -0.004211073623521298 0.00025524020386118689 0 -0.0042296538742756986 0.00025143381666153719 0 -0.004218591928096262 0.0002664114374677205 0 -0.004211073623521298 0.00025524020386118689 0 -0.004215768869136648 0.0002412778633945995 0 -0.0042296538742756986 0.00025143381666153719 0 -0.0042296538742756986 0.00025143381666153719 0 -0.004218591928096262 0.0002664114374677205 0 -0.0042317565860925553 0.0002729457088630006 0 -0.0042435694580525707 0.00026175835326367836 0 -0.0042296538742756986 0.00025143381666153719 0 -0.0042317565860925553 0.0002729457088630006 0 -0.004218591928096262 0.0002664114374677205 0 -0.0042317565860925553 0.0002729457088630006 0 -0.004215786402975279 0.00028018620219464571 0 -0.0046939329889581754 0.00010784790321454371 0 -0.0047213770580118147 9.3201835582563066e-05 0 -0.0046979541862616284 8.2558710442020918e-05 0 -0.0046274862842918566 8.7004099435014512e-05 0 -0.0049113654912403245 2.0831233435279866e-05 0 -0.0047213770580118147 9.3201835582563066e-05 0 -0.0046979541862616284 8.2558710442020918e-05 0 -0.0047089371409805535 5.9398345479791255e-05 0 -0.0044220502215758205 0.00018644477986485197 0 -0.0046274862842918566 8.7004099435014512e-05 0 -0.0042197497500974287 0.00022191184433270411 0 -0.0042443676278220615 0.00020892986011079141 0 -0.0042369496507152554 0.00023129719227305015 0 -0.0042197497500974287 0.00022191184433270411 0 -0.0042296538742756986 0.00025143381666153719 0 -0.0042369496507152554 0.00023129719227305015 0 -0.0046593793530407468 0.00011692534256890785 0 -0.0046253045524082582 3.4911107587273114e-05 0 -0.0046884300694511058 6.0828747012992284e-05 0 -0.0042539448097754064 0.00024294660443525124 0 -0.0042443676278220615 0.00020892986011079141 0 -0.0042369496507152554 0.00023129719227305015 0 -0.0044416254073101694 0.00017901452160219838 0 -0.0046274862842918566 8.7004099435014512e-05 0 -0.0046274862842918566 8.7004099435014512e-05 0 -0.0048518181490602658 1.2213281299395303e-05 0 -0.0049246532681389591 6.9247043718411171e-05 0 -0.0049630804057257056 4.8893705890256289e-05 0 -0.0049094535995086773 2.9296900471209528e-05 0 -0.0046253045524082582 3.4911107587273114e-05 0 -0.0046947305457300022 -2.4219335985964977e-06 0 -0.0046884300694511058 6.0828747012992284e-05 0 -0.0046947305457300022 -2.4219335985964977e-06 0 -0.0047502045089516777 4.3973682781963401e-05 0 -0.0047652126975557879 -3.948037239677613e-05 0 -0.0046947305457300022 -2.4219335985964977e-06 0 -0.0046884300694511058 6.0828747012992284e-05 0 -0.0047502045089516777 4.3973682781963401e-05 0 -0.0047347905504622522 0.00012586443468297893 0 -0.0046884300694511058 6.0828747012992284e-05 0 -0.0047502045089516777 4.3973682781963401e-05 0 -0.0048939871006031237 8.2812251904106548e-05 0 -0.0048941364239596446 6.7977911602446934e-05 0 -0.0048988999287004004 8.0783334442614515e-05 0 -0.0048339555010670854 9.7234590589452341e-05 0 -0.0048148428562518435 5.67847663959132e-05 0 -0.0048941364239596446 6.7977911602446934e-05 0 -0.0048988999287004004 8.0783334442614515e-05 0 -0.0049144600709267513 6.8667725363395147e-05 0 -0.0048148428562518435 5.67847663959132e-05 0 -0.004901111785608204 5.3591714756711866e-06 0 -0.0048941364239596446 6.7977911602446934e-05 0 -0.0048983915165383921 3.4434389884599706e-05 0 -0.0049188255144782473 4.8933064829326444e-05 0 -0.0048941364239596446 6.7977911602446934e-05 0 -0.0049144600709267513 6.8667725363395147e-05 0 -0.0049188255144782473 4.8933064829326444e-05 0 -0.0049962120981794323 1.2281835395526133e-05 0 -0.0049969714511489405 9.2480255447014624e-06 0 -0.0050010508539070787 3.0299005064523058e-06 0 -0.004901111785608204 5.3591714756711866e-06 0 -0.0049681042464413388 7.6846202512429493e-06 0 -0.0049959528468489769 2.8855673733870957e-05 0 -0.0049969714511489405 9.2480255447014624e-06 0 -0.0049809672959187992 1.5874871964658841e-05 0 -0.0049999778642630492 -1.5524480518003897e-08 0 -0.0049969714511489405 9.2480255447014624e-06 0 -0.0049809672959187992 1.5874871964658841e-05 0 -0.0049999778642630492 -1.5524480518003897e-08 0 -0.0049969714511489405 9.2480255447014624e-06 0 -0.0049998314997024961 2.7038543665795369e-06 0 -0.0049999808330583786 5.9169522640164396e-09 0 -0.0049866650747088046 1.5462478720026713e-06 0 -0.0049999778642630492 -1.5524480518003897e-08 0 -0.0049809672959187992 1.5874871964658841e-05 0 -0.0049574927767670777 6.3983131518485781e-06 0 -0.0050000001402042173 3.2328082722684841e-11 0 -0.0049998830871172077 1.4913213287515266e-07 0 -0.004999999650252664 3.5341951427913345e-11 0 -0.0048518181490602658 1.2213281299395303e-05 0 -0.004901111785608204 5.3591714756711866e-06 0 -0.0049630804057257056 4.8893705890256289e-05 0 -0.0049809672959187992 1.5874871964658841e-05 0 -0.0049574927767670777 6.3983131518485781e-06 0 -0.0049630804057257056 4.8893705890256289e-05 0 -0.0049959528468489769 2.8855673733870957e-05 0 -0.0049809672959187992 1.5874871964658841e-05 0 -0.0049866650747088046 1.5462478720026713e-06 0 -0.0049113654912403245 2.0831233435279866e-05 0 -0.0049630804057257056 4.8893705890256289e-05 0 -0.0049574927767670777 6.3983131518485781e-06 0 -0.0049094535995086773 2.9296900471209528e-05 0 -0.0049998830871172077 1.4913213287515266e-07 0 -0.004999999650252664 3.5341951427913345e-11 0 -0.0049992327133148726 3.356193621186906e-07 0 -0.0049999988268207701 1.8781918867404958e-10 0 -0.004999999650252664 3.5341951427913345e-11 0 -0.0049992327133148726 3.356193621186906e-07 0 -0.0050000521445141295 4.0031132241452756e-09 0 -0.0049113654912403245 2.0831233435279866e-05 0 -0.0049755430257394399 5.7618019483152318e-05 0 -0.0049514950055904909 7.6616159055603188e-05 0 -0.0049582282423324912 4.8651732917704506e-05 0 -0.0049755430257394399 5.7618019483152318e-05 0 -0.0049582282423324912 4.8651732917704506e-05 0 -0.0049751220222855764 3.466823827353249e-05 0 -0.0045897532187574187 7.7613256666215317e-05 0 -0.0045801913024797712 3.2277639616206729e-05 0 -0.0045694156040563087 4.6945577455219315e-05 0 -0.0045959735143610075 7.3224300284659865e-05 0 -0.0045796546421815994 2.8722807956723614e-05 0 -0.0045828535659560811 8.2901918747627291e-05 0 -0.0045796546421815994 2.8722807956723614e-05 0 -0.0045979596249955904 5.5034272035304963e-05 0 -0.0045784595396109367 8.783619148741092e-05 0 -0.0045694156040563087 4.6945577455219315e-05 0 -0.0045959735143610075 7.3224300284659865e-05 0 -0.0047717581009529449 8.4106248614462294e-05 0 -0.0047654649335578539 4.6083762392490806e-05 0 -0.0049657903991338218 8.4538811825844704e-05 0 -0.0049755430257394399 5.7618019483152318e-05 0 -0.0049514950055904909 7.6616159055603188e-05 0 -0.0049267364365916545 8.583853514241744e-05 0 -0.0049514950055904909 7.6616159055603188e-05 0 -0.0049365490581302646 6.126475084875012e-05 0 -0.0049267364365916545 8.583853514241744e-05 0 -0.0048988999287004004 8.0783334442614515e-05 0 -0.0049144600709267513 6.8667725363395147e-05 0 -0.0049267364365916545 8.583853514241744e-05 0 -0.0049144600709267513 6.8667725363395147e-05 0 -0.0049365490581302646 6.126475084875012e-05 0 -0.0049144600709267513 6.8667725363395147e-05 0 -0.0049188255144782473 4.8933064829326444e-05 0 -0.0049365490581302646 6.126475084875012e-05 0 -0.0049188255144782473 4.8933064829326444e-05 0 -0.0049365490581302646 6.126475084875012e-05 0 -0.0049418601872800831 4.1247261039566075e-05 0 -0.0049514950055904909 7.6616159055603188e-05 0 -0.0049365490581302646 6.126475084875012e-05 0 -0.0049582282423324912 4.8651732917704506e-05 0 -0.0049365490581302646 6.126475084875012e-05 0 -0.0049582282423324912 4.8651732917704506e-05 0 -0.0049418601872800831 4.1247261039566075e-05 0 -0.0049582282423324912 4.8651732917704506e-05 0 -0.004962250099125055 2.7854242758585865e-05 0 -0.0049751220222855764 3.466823827353249e-05 0 -0.0049582282423324912 4.8651732917704506e-05 0 -0.0049418601872800831 4.1247261039566075e-05 0 -0.004962250099125055 2.7854242758585865e-05 0 -0.0049418601872800831 4.1247261039566075e-05 0 -0.004962250099125055 2.7854242758585865e-05 0 -0.0049357318596980797 1.4462523268548584e-05 0 -0.0048983915165383921 3.4434389884599706e-05 0 -0.0049188255144782473 4.8933064829326444e-05 0 -0.0049357318596980797 1.4462523268548584e-05 0 -0.004901111785608204 5.3591714756711866e-06 0 -0.0049763104861402264 1.0591323805128616e-05 0 -0.0049188255144782473 4.8933064829326444e-05 0 -0.0049418601872800831 4.1247261039566075e-05 0 -0.0049357318596980797 1.4462523268548584e-05 0 -0.0049999778642630492 -1.5524480518003897e-08 0 -0.0050000082474986494 1.0270950113908409e-08 0 -0.0049998314997024961 2.7038543665795369e-06 0 -0.0049969714511489405 9.2480255447014624e-06 0 -0.0050010508539070787 3.0299005064523058e-06 0 -0.0049998314997024961 2.7038543665795369e-06 0 -0.0050010508539070787 3.0299005064523058e-06 0 -0.0050000082474986494 1.0270950113908409e-08 0 -0.0049998314997024961 2.7038543665795369e-06 0 -0.0050010508539070787 3.0299005064523058e-06 0 -0.0050000082474986494 1.0270950113908409e-08 0 -0.0049999979807033353 -5.134609513076161e-09 0 -0.0049357318596980797 1.4462523268548584e-05 0 -0.0049999162141191895 -2.9800759181026019e-09 0 -0.0049831067657020323 1.3708593438895565e-05 0 -0.0049763104861402264 1.0591323805128616e-05 0 -0.0049999789366775701 5.0574698967590926e-09 0 -0.004962250099125055 2.7854242758585865e-05 0 -0.0049357318596980797 1.4462523268548584e-05 0 -0.0049831067657020323 1.3708593438895565e-05 0 -0.0050000493168881758 -5.7962251961368418e-10 0 -0.0049831067657020323 1.3708593438895565e-05 0 -0.00498578275378942 2.4551832388912849e-05 0 -0.0049999162141191895 -2.9800759181026019e-09 0 -0.0050000493168881758 -5.7962251961368418e-10 0 -0.0049831067657020323 1.3708593438895565e-05 0 -0.0050000493168881758 -5.7962251961368418e-10 0 -0.00498578275378942 2.4551832388912849e-05 0 -0.0049891773503568937 2.4564452132273573e-05 0 -0.0049999947091385428 -8.8165543792050623e-09 0 -0.0048518081751039435 3.9536678533129805e-05 0 -0.004962250099125055 2.7854242758585865e-05 0 -0.0049831067657020323 1.3708593438895565e-05 0 -0.0049771000143073816 2.4684632910063588e-05 0 -0.0049831067657020323 1.3708593438895565e-05 0 -0.0049771000143073816 2.4684632910063588e-05 0 -0.00498578275378942 2.4551832388912849e-05 0 -0.0049755430257394399 5.7618019483152318e-05 0 -0.0049880985891958551 2.4638285400572621e-05 0 -0.0049751220222855764 3.466823827353249e-05 0 -0.004962250099125055 2.7854242758585865e-05 0 -0.0049771000143073816 2.4684632910063588e-05 0 -0.0049751220222855764 3.466823827353249e-05 0 -0.0047654649335578539 4.6083762392490806e-05 0 -0.0048518081751039435 3.9536678533129805e-05 0 -0.0049771000143073816 2.4684632910063588e-05 0 -0.00498578275378942 2.4551832388912849e-05 0 -0.0049751220222855764 3.466823827353249e-05 0 -0.0048786581712035775 3.872719030103741e-05 0 -0.0048518081751039435 3.9536678533129805e-05 0 -0.00498578275378942 2.4551832388912849e-05 0 -0.0049880985891958551 2.4638285400572621e-05 0 -0.0049751220222855764 3.466823827353249e-05 0 -0.0045652961904755259 1.0553106949347026e-05 0 -0.0045796546421815994 2.8722807956723614e-05 0 -0.0046026334292552035 6.4772937020533928e-06 0 -0.0048518081751039435 3.9536678533129805e-05 0 -0.0047857158908940021 -1.0934665924737342e-06 0 -0.0045694156040563087 4.6945577455219315e-05 0 -0.0045652961904755259 1.0553106949347026e-05 0 -0.0045796546421815994 2.8722807956723614e-05 0 -0.0049999974919757622 -3.7028679462229203e-10 0 -0.0049993549426408527 1.0662709625323099e-07 0 -0.0049999986305524838 1.3736264312692873e-09 0 -0.0049999974919757622 -3.7028679462229203e-10 0 -0.0049986521997687737 3.4606452480461625e-07 0 -0.0049993549426408527 1.0662709625323099e-07 0 -0.0049986521997687737 3.4606452480461625e-07 0 -0.0049993549426408527 1.0662709625323099e-07 0 -0.0049987053671589734 7.8839524059911359e-08 0 -0.0049993549426408527 1.0662709625323099e-07 0 -0.0049999986305524838 1.3736264312692873e-09 0 -0.0049987053671589734 7.8839524059911359e-08 0 -0.0049999986305524838 1.3736264312692873e-09 0 -0.0049995787431799917 -2.2647234181361603e-07 0 -0.0049987053671589734 7.8839524059911359e-08 0 -0.0049995787431799917 -2.2647234181361603e-07 0 -0.0049994752027918967 -7.7250063151882714e-07 0 -0.0049999978310018255 -5.82300561074013e-09 0 -0.0049995787431799917 -2.2647234181361603e-07 0 -0.0049987053671589734 7.8839524059911359e-08 0 -0.0049994752027918967 -7.7250063151882714e-07 0 -0.0049999986305524838 1.3736264312692873e-09 0 -0.0049995787431799917 -2.2647234181361603e-07 0 -0.0049999978310018255 -5.82300561074013e-09 0 -0.0046263279062804348 2.7468168143444658e-05 0 -0.0046026334292552035 6.4772937020533928e-06 0 -0.0046508042625796435 -8.8809846672965705e-06 0 -0.0046263279062804348 2.7468168143444658e-05 0 -0.0046608500781014448 4.3804502445031289e-05 0 -0.0046508042625796435 -8.8809846672965705e-06 0 -0.0047857158908940021 -1.0934665924737342e-06 0 -0.0048298536513307648 -5.5827012403582333e-06 0 -0.0046263279062804348 2.7468168143444658e-05 0 -0.0046026334292552035 6.4772937020533928e-06 0 -0.0046019281808938372 3.3377488406005522e-05 0 -0.0045796546421815994 2.8722807956723614e-05 0 -0.0046026334292552035 6.4772937020533928e-06 0 -0.0046019281808938372 3.3377488406005522e-05 0 -0.0045796546421815994 2.8722807956723614e-05 0 -0.0046019281808938372 3.3377488406005522e-05 0 -0.0045979596249955904 5.5034272035304963e-05 0 -0.0045979596249955904 5.5034272035304963e-05 0 -0.004612857681148809 5.0641766632744332e-05 0 -0.0046159385370462677 8.2344344623882745e-05 0 -0.0046263279062804348 2.7468168143444658e-05 0 -0.0046019281808938372 3.3377488406005522e-05 0 -0.004612857681148809 5.0641766632744332e-05 0 -0.0046019281808938372 3.3377488406005522e-05 0 -0.0045979596249955904 5.5034272035304963e-05 0 -0.004612857681148809 5.0641766632744332e-05 0 -0.0046263279062804348 2.7468168143444658e-05 0 -0.0046307012368194591 5.5343538646001712e-05 0 -0.0046608500781014448 4.3804502445031289e-05 0 -0.0046263279062804348 2.7468168143444658e-05 0 -0.004612857681148809 5.0641766632744332e-05 0 -0.0046307012368194591 5.5343538646001712e-05 0 -0.0046307012368194591 5.5343538646001712e-05 0 -0.0046431999262956034 7.4088823208765206e-05 0 -0.0046608500781014448 4.3804502445031289e-05 0 -0.004612857681148809 5.0641766632744332e-05 0 -0.0046307012368194591 5.5343538646001712e-05 0 -0.0046159385370462677 8.2344344623882745e-05 0 -0.0046307012368194591 5.5343538646001712e-05 0 -0.0046431999262956034 7.4088823208765206e-05 0 -0.0046159385370462677 8.2344344623882745e-05 0 -0.0046431999262956034 7.4088823208765206e-05 0 -0.0046402455487082449 9.9608429359805535e-05 0 -0.0046159385370462677 8.2344344623882745e-05 0 -0.0045828535659560811 8.2901918747627291e-05 0 -0.0046159385370462677 8.2344344623882745e-05 0 -0.0046077342771712482 0.00010854278851426623 0 -0.0045828535659560811 8.2901918747627291e-05 0 -0.0045979596249955904 5.5034272035304963e-05 0 -0.0046159385370462677 8.2344344623882745e-05 0 -0.0046723274639228103 8.4594224453323695e-05 0 -0.0047089962173364301 5.8522195428459554e-05 0 -0.004727455537683176 8.3420852093604291e-05 0 -0.0046723274639228103 8.4594224453323695e-05 0 -0.004727455537683176 8.3420852093604291e-05 0 -0.0046900920043390984 0.00011417893952860385 0 -0.0046431999262956034 7.4088823208765206e-05 0 -0.0046723274639228103 8.4594224453323695e-05 0 -0.0046608500781014448 4.3804502445031289e-05 0 -0.0046402455487082449 9.9608429359805535e-05 0 -0.0046723274639228103 8.4594224453323695e-05 0 -0.004659070152842169 0.00011262473019612141 0 -0.0046431999262956034 7.4088823208765206e-05 0 -0.0046402455487082449 9.9608429359805535e-05 0 -0.0046723274639228103 8.4594224453323695e-05 0 -0.0046723274639228103 8.4594224453323695e-05 0 -0.0046608500781014448 4.3804502445031289e-05 0 -0.0047089962173364301 5.8522195428459554e-05 0 -0.0046608500781014448 4.3804502445031289e-05 0 -0.0047089962173364301 5.8522195428459554e-05 0 -0.0047010086208052939 1.6532129674749034e-05 0 -0.0047089962173364301 5.8522195428459554e-05 0 -0.0047010086208052939 1.6532129674749034e-05 0 -0.004784783484075409 3.1373422536793477e-05 0 -0.0047010086208052939 1.6532129674749034e-05 0 -0.0047335803052949666 -3.5577166778923695e-05 0 -0.004784783484075409 3.1373422536793477e-05 0 -0.0047010086208052939 1.6532129674749034e-05 0 -0.0047335803052949666 -3.5577166778923695e-05 0 -0.0046508042625796435 -8.8809846672965705e-06 0 -0.004869489298959165 -2.0989089427279467e-05 0 -0.0048298536513307648 -5.5827012403582333e-06 0 -0.0046608500781014448 4.3804502445031289e-05 0 -0.0047010086208052939 1.6532129674749034e-05 0 -0.0046508042625796435 -8.8809846672965705e-06 0 -0.0050054378072279257 -1.161116880648896e-05 0 -0.0049994752027918967 -7.7250063151882714e-07 0 -0.0050017882143927649 -3.4150832819287051e-06 0 -0.0049994752027918967 -7.7250063151882714e-07 0 -0.0050017882143927649 -3.4150832819287051e-06 0 -0.0049999978310018255 -5.82300561074013e-09 0 -0.0050017882143927649 -3.4150832819287051e-06 0 -0.0049999978310018255 -5.82300561074013e-09 0 -0.0050000187397574395 4.2020323882113591e-09 0 -0.0050054378072279257 -1.161116880648896e-05 0 -0.0050017882143927649 -3.4150832819287051e-06 0 -0.0050000187397574395 4.2020323882113591e-09 0 -0.0050000187397574395 4.2020323882113591e-09 0 -0.0049852909060133545 -7.3455445867222809e-09 0 -0.0049998817822765789 -7.1628661525391563e-09 0 -0.0050054378072279257 -1.161116880648896e-05 0 -0.0049852909060133545 -7.3455445867222809e-09 0 -0.0049250970520358737 -1.6722287022799906e-05 0 -0.0050054378072279257 -1.161116880648896e-05 0 -0.0050000187397574395 4.2020323882113591e-09 0 -0.0049852909060133545 -7.3455445867222809e-09 0 -0.0049998817822765789 -7.1628661525391563e-09 0 -0.0049250970520358737 -1.6722287022799906e-05 0 -0.0049363912094094586 -5.1695456340735034e-06 0 -0.0049852909060133545 -7.3455445867222809e-09 0 -0.0049998817822765789 -7.1628661525391563e-09 0 -0.0049250970520358737 -1.6722287022799906e-05 0 -0.0049250970520358737 -1.6722287022799906e-05 0 -0.004784783484075409 3.1373422536793477e-05 0 -0.004859197732333482 2.5954522951332123e-05 0 -0.0049250970520358737 -1.6722287022799906e-05 0 -0.0049363912094094586 -5.1695456340735034e-06 0 -0.004859197732333482 2.5954522951332123e-05 0 -0.004869489298959165 -2.0989089427279467e-05 0 -0.0049205992385410744 -1.8553593072308206e-05 0 -0.0047335803052949666 -3.5577166778923695e-05 0 -0.0049250970520358737 -1.6722287022799906e-05 0 -0.004784783484075409 3.1373422536793477e-05 0 -0.0049999268556817737 -7.5019190871721581e-09 0 -0.0049363912094094586 -5.1695456340735034e-06 0 -0.0049505777224187943 2.3350665455223275e-06 0 -0.0049999268556817737 -7.5019190871721581e-09 0 -0.0049505777224187943 2.3350665455223275e-06 0 -0.0049999677694968613 -3.8371101394109767e-09 0 -0.0049998817822765789 -7.1628661525391563e-09 0 -0.0049999268556817737 -7.5019190871721581e-09 0 -0.0049363912094094586 -5.1695456340735034e-06 0 -0.0049363912094094586 -5.1695456340735034e-06 0 -0.0049505777224187943 2.3350665455223275e-06 0 -0.0048890922137792784 2.7492425957739611e-05 0 -0.0049363912094094586 -5.1695456340735034e-06 0 -0.0048890922137792784 2.7492425957739611e-05 0 -0.004859197732333482 2.5954522951332123e-05 0 -0.0049505777224187943 2.3350665455223275e-06 0 -0.0049047214896149292 3.4729369275740986e-05 0 -0.0048890922137792784 2.7492425957739611e-05 0 -0.0049505777224187943 2.3350665455223275e-06 0 -0.0049047214896149292 3.4729369275740986e-05 0 -0.0049443322119854987 2.1338928640145834e-05 0 -0.0048890922137792784 2.7492425957739611e-05 0 -0.0048394894840685298 6.5980019350618088e-05 0 -0.00483279271973282 5.4723296123862327e-05 0 -0.0049047214896149292 3.4729369275740986e-05 0 -0.0048890922137792784 2.7492425957739611e-05 0 -0.0048394894840685298 6.5980019350618088e-05 0 -0.0048890922137792784 2.7492425957739611e-05 0 -0.004859197732333482 2.5954522951332123e-05 0 -0.00483279271973282 5.4723296123862327e-05 0 -0.0048394894840685298 6.5980019350618088e-05 0 -0.00483279271973282 5.4723296123862327e-05 0 -0.0047725435013257047 9.1318539459431819e-05 0 -0.0048394894840685298 6.5980019350618088e-05 0 -0.0048828574574287407 6.4545443466981249e-05 0 -0.0048267804966662638 9.2590123400963133e-05 0 -0.0049047214896149292 3.4729369275740986e-05 0 -0.0048394894840685298 6.5980019350618088e-05 0 -0.0048828574574287407 6.4545443466981249e-05 0 -0.0049047214896149292 3.4729369275740986e-05 0 -0.0048828574574287407 6.4545443466981249e-05 0 -0.0049238497445451201 4.3122146980602194e-05 0 -0.0047089962173364301 5.8522195428459554e-05 0 -0.004784783484075409 3.1373422536793477e-05 0 -0.004727455537683176 8.3420852093604291e-05 0 -0.004784783484075409 3.1373422536793477e-05 0 -0.004791095721961563 6.5235320522962184e-05 0 -0.004727455537683176 8.3420852093604291e-05 0 -0.004784783484075409 3.1373422536793477e-05 0 -0.004859197732333482 2.5954522951332123e-05 0 -0.004791095721961563 6.5235320522962184e-05 0 -0.004859197732333482 2.5954522951332123e-05 0 -0.004791095721961563 6.5235320522962184e-05 0 -0.00483279271973282 5.4723296123862327e-05 0 -0.004791095721961563 6.5235320522962184e-05 0 -0.00483279271973282 5.4723296123862327e-05 0 -0.0047725435013257047 9.1318539459431819e-05 0 -0.004791095721961563 6.5235320522962184e-05 0 -0.0047725435013257047 9.1318539459431819e-05 0 -0.0047370140345190485 9.7290416998736213e-05 0 -0.004791095721961563 6.5235320522962184e-05 0 -0.0047370140345190485 9.7290416998736213e-05 0 -0.004727455537683176 8.3420852093604291e-05 0 -0.0047370140345190485 9.7290416998736213e-05 0 -0.004727455537683176 8.3420852093604291e-05 0 -0.0046900920043390984 0.00011417893952860385 0 -0.0047370140345190485 9.7290416998736213e-05 0 -0.0047086573250372851 0.0001236649441571145 0 -0.0046900920043390984 0.00011417893952860385 0 -0.0047086573250372851 0.0001236649441571145 0 -0.0046900920043390984 0.00011417893952860385 0 -0.0046693307362373716 0.00013849472311265509 0 -0.0047725435013257047 9.1318539459431819e-05 0 -0.0047086573250372851 0.0001236649441571145 0 -0.0047604860229599876 0.00011227894634577454 0 -0.0047725435013257047 9.1318539459431819e-05 0 -0.0047370140345190485 9.7290416998736213e-05 0 -0.0047086573250372851 0.0001236649441571145 0 -0.004686370497464021 0.00014482639632123914 0 -0.0047604860229599876 0.00011227894634577454 0 -0.0046882259238312969 0.00016061891077856686 0 -0.0047086573250372851 0.0001236649441571145 0 -0.004686370497464021 0.00014482639632123914 0 -0.0047604860229599876 0.00011227894634577454 0 -0.004686370497464021 0.00014482639632123914 0 -0.0046526446482733352 0.00015549221060352992 0 -0.0046328908583596591 0.00016881912634886107 0 -0.0047086573250372851 0.0001236649441571145 0 -0.0046526446482733352 0.00015549221060352992 0 -0.0046693307362373716 0.00013849472311265509 0 -0.0047086573250372851 0.0001236649441571145 0 -0.004686370497464021 0.00014482639632123914 0 -0.0046526446482733352 0.00015549221060352992 0 -0.0048267804966662638 9.2590123400963133e-05 0 -0.0047884034803071457 0.00012998470347157045 0 -0.0048714290034610553 9.5989286466132288e-05 0 -0.0048828574574287407 6.4545443466981249e-05 0 -0.0048267804966662638 9.2590123400963133e-05 0 -0.0048714290034610553 9.5989286466132288e-05 0 -0.0048394894840685298 6.5980019350618088e-05 0 -0.0047725435013257047 9.1318539459431819e-05 0 -0.0047604860229599876 0.00011227894634577454 0 -0.0048394894840685298 6.5980019350618088e-05 0 -0.0048267804966662638 9.2590123400963133e-05 0 -0.0047604860229599876 0.00011227894634577454 0 -0.0048267804966662638 9.2590123400963133e-05 0 -0.0047604860229599876 0.00011227894634577454 0 -0.0047884034803071457 0.00012998470347157045 0 -0.0047884034803071457 0.00012998470347157045 0 -0.0047358089775211146 0.00016816121804077118 0 -0.0046882259238312969 0.00016061891077856686 0 -0.0047604860229599876 0.00011227894634577454 0 -0.0047884034803071457 0.00012998470347157045 0 -0.0046882259238312969 0.00016061891077856686 0 -0.0047884034803071457 0.00012998470347157045 0 -0.0048714290034610553 9.5989286466132288e-05 0 -0.0048842248946451916 0.00013338795084284771 0 -0.0046503684663472163 0.00019526408169153616 0 -0.0046241188179478865 0.00025842811684937257 0 -0.0047884034803071457 0.00012998470347157045 0 -0.0047358089775211146 0.00016816121804077118 0 -0.0048500055079782247 0.00019303650113900678 0 -0.0047358089775211146 0.00016816121804077118 0 -0.0046407711370162873 0.00019245019129875173 0 -0.0048500055079782247 0.00019303650113900678 0 -0.0047358089775211146 0.00016816121804077118 0 -0.0046882259238312969 0.00016061891077856686 0 -0.0046407711370162873 0.00019245019129875173 0 -0.0046882259238312969 0.00016061891077856686 0 -0.0046407711370162873 0.00019245019129875173 0 -0.0046016181556535907 0.00019183362120268278 0 -0.0046407711370162873 0.00019245019129875173 0 -0.0046016181556535907 0.00019183362120268278 0 -0.0046144952857692552 5.8289460191551658e-05 0 -0.0045830890303299454 0.00017830788285665101 0 -0.0044708765302337175 8.172530976850316e-05 0 -0.0046407711370162873 0.00019245019129875173 0 -0.0044642491985625258 0.00014710033853591796 0 -0.0046144952857692552 5.8289460191551658e-05 0 -0.0046407711370162873 0.00019245019129875173 0 -0.0044642491985625258 0.00014710033853591796 0 -0.0044069055538828051 0.00031259146266901652 0 -0.0046526446482733352 0.00015549221060352992 0 -0.0046171004116127533 0.00016699214257869478 0 -0.0046465581748344649 0.00015282390731993192 0 -0.0046171004116127533 0.00016699214257869478 0 -0.0046328908583596591 0.00016881912634886107 0 -0.0045914408117876566 0.00017228201511744042 0 -0.0046526446482733352 0.00015549221060352992 0 -0.0046171004116127533 0.00016699214257869478 0 -0.0046328908583596591 0.00016881912634886107 0 -0.004686370497464021 0.00014482639632123914 0 -0.0046882259238312969 0.00016061891077856686 0 -0.0046328908583596591 0.00016881912634886107 0 -0.0046882259238312969 0.00016061891077856686 0 -0.0046328908583596591 0.00016881912634886107 0 -0.0046016181556535907 0.00019183362120268278 0 -0.0046328908583596591 0.00016881912634886107 0 -0.0046016181556535907 0.00019183362120268278 0 -0.0045914408117876566 0.00017228201511744042 0 -0.0046016181556535907 0.00019183362120268278 0 -0.0044865423300538745 0.00013022968689747021 0 -0.0043337811929969267 0.00011585224131244801 0 -0.0046016181556535907 0.00019183362120268278 0 -0.0045523325329158417 0.00015786893103002779 0 -0.0044865423300538745 0.00013022968689747021 0 -0.0046016181556535907 0.00019183362120268278 0 -0.0045523325329158417 0.00015786893103002779 0 -0.0045914408117876566 0.00017228201511744042 0 -0.0045523325329158417 0.00015786893103002779 0 -0.0045765454922049049 0.00015621099817023434 0 -0.0045914408117876566 0.00017228201511744042 0 -0.0045523325329158417 0.00015786893103002779 0 -0.0045765454922049049 0.00015621099817023434 0 -0.004517220552692716 0.00011584474057264738 0 -0.0046171004116127533 0.00016699214257869478 0 -0.0045765454922049049 0.00015621099817023434 0 -0.0045914408117876566 0.00017228201511744042 0 -0.0046171004116127533 0.00016699214257869478 0 -0.0045765454922049049 0.00015621099817023434 0 -0.0046077453663141525 0.00015598059968837796 0 -0.0045765454922049049 0.00015621099817023434 0 -0.0046077453663141525 0.00015598059968837796 0 -0.0045770573505370029 0.00013562171658013474 0 -0.0046077453663141525 0.00015598059968837796 0 -0.0046051865185355876 0.00013685099559814184 0 -0.0045770573505370029 0.00013562171658013474 0 -0.0046217776518827081 0.00014786487905290191 0 -0.0046077453663141525 0.00015598059968837796 0 -0.0046051865185355876 0.00013685099559814184 0 -0.0046217776518827081 0.00014786487905290191 0 -0.0046321159774205707 0.00013884258660237182 0 -0.0046223962860090671 0.00012770837275485737 0 -0.0046217776518827081 0.00014786487905290191 0 -0.0046351079809223176 0.00015156201939273665 0 -0.0046321159774205707 0.00013884258660237182 0 -0.0046217776518827081 0.00014786487905290191 0 -0.0046223962860090671 0.00012770837275485737 0 -0.0046051865185355876 0.00013685099559814184 0 -0.0046217776518827081 0.00014786487905290191 0 -0.0046281436781878049 0.00015876380199306283 0 -0.0046351079809223176 0.00015156201939273665 0 -0.0046217776518827081 0.00014786487905290191 0 -0.0046077453663141525 0.00015598059968837796 0 -0.0046281436781878049 0.00015876380199306283 0 -0.0046171004116127533 0.00016699214257869478 0 -0.0046077453663141525 0.00015598059968837796 0 -0.0046281436781878049 0.00015876380199306283 0 -0.0046171004116127533 0.00016699214257869478 0 -0.0046281436781878049 0.00015876380199306283 0 -0.0046465581748344649 0.00015282390731993192 0 -0.0046281436781878049 0.00015876380199306283 0 -0.0046384668969159026 0.00015478993603274032 0 -0.0046465581748344649 0.00015282390731993192 0 -0.0046281436781878049 0.00015876380199306283 0 -0.0046384668969159026 0.00015478993603274032 0 -0.0046351079809223176 0.00015156201939273665 0 -0.0046374171931105341 0.00015272174062314826 0 -0.0046344734550401081 0.00014475940896410412 0 -0.004641954277469577 0.00014314262367634342 0 -0.0046384668969159026 0.00015478993603274032 0 -0.0046374171931105341 0.00015272174062314826 0 -0.004641954277469577 0.00014314262367634342 0 -0.0046384668969159026 0.00015478993603274032 0 -0.0046374171931105341 0.00015272174062314826 0 -0.0046351079809223176 0.00015156201939273665 0 -0.0046374171931105341 0.00015272174062314826 0 -0.0046351079809223176 0.00015156201939273665 0 -0.0046397640473598428 0.00014783037242192346 0 -0.0046351079809223176 0.00015156201939273665 0 -0.0046386075276001366 0.00014066366201557706 0 -0.0046397640473598428 0.00014783037242192346 0 -0.0046351079809223176 0.00015156201939273665 0 -0.0046386075276001366 0.00014066366201557706 0 -0.0046321159774205707 0.00013884258660237182 0 -0.0046386075276001366 0.00014066366201557706 0 -0.0046397640473598428 0.00014783037242192346 0 -0.0046475115252458104 0.00013483944133640808 0 -0.0046373254966469166 0.00016715225630426864 0 -0.0045066301116647514 9.396887738304128e-05 0 -0.0046116839509170067 0.00015358573949361673 0 -0.0046097581486410563 0.0001528192630106537 0 -0.0046073566378710502 0.0001517397321046506 0 -0.0046397640473598428 0.00014783037242192346 0 -0.0046369741027536921 0.00015400771087823822 0 -0.0046475115252458104 0.00013483944133640808 0 -0.0046116839509170067 0.00015358573949361673 0 -0.0046100787067841244 0.00015395593467949293 0 -0.0046097581486410563 0.0001528192630106537 0 -0.0046374171931105341 0.00015272174062314826 0 -0.0046397640473598428 0.00014783037242192346 0 -0.0046369741027536921 0.00015400771087823822 0 -0.0045368180300416052 2.9895000501632831e-05 0 -0.0044673662567596755 2.0903861298637466e-05 0 -0.0043945219683302686 -1.7192012108712999e-05 0 -0.004412575649960236 -4.1114799324250858e-05 0 -0.0043724641297180674 4.9496177707275309e-06 0 -0.0045454678684261184 9.1213258292051873e-05 0 -0.0043724641297180674 4.9496177707275309e-06 0 -0.0046075074554128761 0.00015630159349367304 0 -0.0046100787067841244 0.00015395593467949293 0 -0.0046097581486410563 0.0001528192630106537 0 -0.0046116839509170067 0.00015358573949361673 0 -0.0046100787067841244 0.00015395593467949293 0 -0.0046095872620701911 0.00015182841885814309 0 -0.0046075074554128761 0.00015630159349367304 0 -0.0046100787067841244 0.00015395593467949293 0 -0.0046095872620701911 0.00015182841885814309 0 -0.0046075074554128761 0.00015630159349367304 0 -0.0046016482020242817 0.00014956545539961493 0 -0.0046095872620701911 0.00015182841885814309 0 -0.004598996539769435 0.00013950659994043402 0 -0.0046095872620701911 0.00015182841885814309 0 -0.0046062112598658092 0.000117081400152466 0 -0.0046091542847853245 0.00015015760949457123 0 -0.0046026808604045285 0.00012459976109068354 0 -0.0046095872620701911 0.00015182841885814309 0 -0.0046129530290045457 0.00014319837247955044 0 -0.0045999335011543017 0.00013310243862495622 0 -0.0046116839509170067 0.00015358573949361673 0 -0.0046095872620701911 0.00015182841885814309 0 -0.0046129530290045457 0.00014319837247955044 0 -0.004598996539769435 0.00013950659994043402 0 -0.0046016482020242817 0.00014956545539961493 0 -0.0046095872620701911 0.00015182841885814309 0 -0.0046369741027536921 0.00015400771087823822 0 -0.0046301770000887182 0.00014791601197636041 0 -0.0046129530290045457 0.00014319837247955044 0 -0.0046373254966469166 0.00016715225630426864 0 -0.0046100435717363209 0.00013624671436327223 0 -0.0046374171931105341 0.00015272174062314826 0 -0.0046369741027536921 0.00015400771087823822 0 -0.0046301770000887182 0.00014791601197636041 0 -0.0046374171931105341 0.00015272174062314826 0 -0.0046301770000887182 0.00014791601197636041 0 -0.0046344734550401081 0.00014475940896410412 0 -0.0046344734550401081 0.00014475940896410412 0 -0.0046280554332363971 0.00013535808530179113 0 -0.004641954277469577 0.00014314262367634342 0 -0.0046301770000887182 0.00014791601197636041 0 -0.0046344734550401081 0.00014475940896410412 0 -0.0046280554332363971 0.00013535808530179113 0 -0.0046301770000887182 0.00014791601197636041 0 -0.0046280554332363971 0.00013535808530179113 0 -0.0046129530290045457 0.00014319837247955044 0 -0.0046280554332363971 0.00013535808530179113 0 -0.0046129530290045457 0.00014319837247955044 0 -0.0046145686309902595 0.00012708307293629413 0 -0.0046280554332363971 0.00013535808530179113 0 -0.0046145686309902595 0.00012708307293629413 0 -0.0046246560078555994 0.00011420394712648469 0 -0.0046129530290045457 0.00014319837247955044 0 -0.0046145686309902595 0.00012708307293629413 0 -0.0045999335011543017 0.00013310243862495622 0 -0.0045828535659560811 8.2901918747627291e-05 0 -0.0045999335011543017 0.00013310243862495622 0 -0.0046077342771712482 0.00010854278851426623 0 -0.0045897532187574187 7.7613256666215317e-05 0 -0.0046026808604045285 0.00012459976109068354 0 -0.0046145686309902595 0.00012708307293629413 0 -0.0045999335011543017 0.00013310243862495622 0 -0.0046077342771712482 0.00010854278851426623 0 -0.0046145686309902595 0.00012708307293629413 0 -0.0046077342771712482 0.00010854278851426623 0 -0.0046246560078555994 0.00011420394712648469 0 -0.0046159385370462677 8.2344344623882745e-05 0 -0.0046077342771712482 0.00010854278851426623 0 -0.0046246560078555994 0.00011420394712648469 0 -0.0046402455487082449 9.9608429359805535e-05 0 -0.0046159385370462677 8.2344344623882745e-05 0 -0.0046246560078555994 0.00011420394712648469 0 -0.0046280554332363971 0.00013535808530179113 0 -0.0046246560078555994 0.00011420394712648469 0 -0.0046408376722933374 0.00012471813303054571 0 -0.0046402455487082449 9.9608429359805535e-05 0 -0.0046246560078555994 0.00011420394712648469 0 -0.0046408376722933374 0.00012471813303054571 0 -0.0046402455487082449 9.9608429359805535e-05 0 -0.0046408376722933374 0.00012471813303054571 0 -0.004659070152842169 0.00011262473019612141 0 -0.0046408376722933374 0.00012471813303054571 0 -0.004659070152842169 0.00011262473019612141 0 -0.0046580027159631929 0.00013443349138814479 0 -0.004659070152842169 0.00011262473019612141 0 -0.0046900920043390984 0.00011417893952860385 0 -0.0046580027159631929 0.00013443349138814479 0 -0.0046723274639228103 8.4594224453323695e-05 0 -0.004659070152842169 0.00011262473019612141 0 -0.0046900920043390984 0.00011417893952860385 0 -0.0046900920043390984 0.00011417893952860385 0 -0.0046580027159631929 0.00013443349138814479 0 -0.0046693307362373716 0.00013849472311265509 0 -0.0046526446482733352 0.00015549221060352992 0 -0.0046693307362373716 0.00013849472311265509 0 -0.0046465581748344649 0.00015282390731993192 0 -0.0046580027159631929 0.00013443349138814479 0 -0.0046693307362373716 0.00013849472311265509 0 -0.0046465581748344649 0.00015282390731993192 0 -0.0046580027159631929 0.00013443349138814479 0 -0.0046465581748344649 0.00015282390731993192 0 -0.004641954277469577 0.00014314262367634342 0 -0.0046384668969159026 0.00015478993603274032 0 -0.0046465581748344649 0.00015282390731993192 0 -0.004641954277469577 0.00014314262367634342 0 -0.0046408376722933374 0.00012471813303054571 0 -0.0046580027159631929 0.00013443349138814479 0 -0.004641954277469577 0.00014314262367634342 0 -0.0046280554332363971 0.00013535808530179113 0 -0.0046408376722933374 0.00012471813303054571 0 -0.004641954277469577 0.00014314262367634342 0 -0.0044852917372171005 -2.1947421994001432e-07 0 -0.0048448879198991638 -4.4856945361764984e-05 0 -0.0049255066483856001 1.2543249723352193e-05 0 -0.0043983590397018843 -2.3389253315021807e-05 0 -0.0044215458554980836 -3.0688328226734751e-06 0 -0.0043785819374321444 -7.1487635017582178e-06 0 -0.0044215458554980836 -3.0688328226734751e-06 0 -0.0043785819374321444 -7.1487635017582178e-06 0 -0.0043474213603629267 -7.7981901835504662e-06 0 -0.0042876273628254333 -9.9466288124987251e-06 0 -0.0043106879082439736 -3.2795273488590451e-05 0 -0.0040695936883329339 -0.00014738808480119399 0 -0.0041489364531410427 -2.1718365096385796e-05 0 -0.0043474213603629267 -7.7981901835504662e-06 0 -0.0044378953818287941 -3.4340573646140348e-05 0 -0.0044365862300461871 -3.3642123306360057e-06 0 -0.0044881215110681247 -5.9972266733723633e-07 0 -0.004484235333710924 -1.7349752473750407e-07 0 -0.0044215458554980836 -3.0688328226734751e-06 0 -0.0044874052163182496 -8.9981660384436891e-05 0 -0.0045024795809911963 3.7634587630074326e-05 0 -0.0045990406219597506 -3.977349935430356e-05 0 -0.0042876273628254333 -9.9466288124987251e-06 0 -0.0043814675458973915 7.1331080186964741e-06 0 -0.0044378953818287941 -3.4340573646140348e-05 0 -0.0042876273628254333 -9.9466288124987251e-06 0 -0.0044197836825864692 -3.2560128368945925e-05 0 -0.0044874052163182496 -8.9981660384436891e-05 0 -0.0045024795809911963 3.7634587630074326e-05 0 -0.0044378953818287941 -3.4340573646140348e-05 0 -0.0046387160692431088 -4.8142022705147999e-06 0 -0.0044846991429481438 5.4517708715124683e-09 0 -0.0046387160692431088 -4.8142022705147999e-06 0 -0.0044881215110681247 -5.9972266733723633e-07 0 -0.004484235333710924 -1.7349752473750407e-07 0 -0.0044923347022874389 4.498510021815243e-07 0 -0.004999684913909533 1.0483004927751024e-07 0 -0.0049255066483856001 1.2543249723352193e-05 0 -0.0049999098679973375 1.0194800923349356e-08 0 -0.0044852917372171005 -2.1947421994001432e-07 0 -0.004999684913909533 1.0483004927751024e-07 0 -0.0049255066483856001 1.2543249723352193e-05 0 -0.0048448879198991638 -4.4856945361764984e-05 0 -0.0049255066483856001 1.2543249723352193e-05 0 -0.004973302111927095 -1.7516175652565495e-06 0 -0.0046387160692431088 -4.8142022705147999e-06 0 -0.0049492050289405495 1.3443239434812626e-05 0 -0.0046387160692431088 -4.8142022705147999e-06 0 -0.0048663387591346453 4.1528590145593505e-05 0 -0.0046903150448047628 -6.2372992341135308e-05 0 -0.0048840445350990507 4.9434315213782777e-05 0 -0.0048682418652762583 8.7415657203657776e-05 0 -0.0048663387591346453 4.1528590145593505e-05 0 -0.0049492050289405495 1.3443239434812626e-05 0 -0.0049255066483856001 1.2543249723352193e-05 0 -0.004973302111927095 -1.7516175652565495e-06 0 -0.0049999098679973375 1.0194800923349356e-08 0 -0.0049492050289405495 1.3443239434812626e-05 0 -0.0050000122982305399 -2.3744956992448319e-08 0 -0.0049996777704507944 1.5803925104598297e-07 0 -0.0049999998842905815 8.2973180531172517e-11 0 -0.004999999742347631 7.2263032240885577e-11 0 -0.004999999742347631 7.2263032240885577e-11 0 -0.0049999061556618239 5.2716124004788046e-08 0 -0.0050000000324061412 -1.5130055791237689e-11 0 -0.0049996777704507944 1.5803925104598297e-07 0 -0.004999999742347631 7.2263032240885577e-11 0 -0.0049999061556618239 5.2716124004788046e-08 0 -0.0049992802983631207 2.9301396755397948e-06 0 -0.0049999965370168611 -1.6195067111071444e-09 0 -0.0049492050289405495 1.3443239434812626e-05 0 -0.0049992802983631207 2.9301396755397948e-06 0 -0.00499019733744583 -6.2534814696732022e-06 0 -0.0049952948845884909 -6.3826467870337995e-07 0 -0.0049995104323290194 -1.4003293399953175e-06 0 -0.0048663387591346453 4.1528590145593505e-05 0 -0.0050154954471078612 3.6196092870708759e-06 0 -0.0049878588202898833 1.006001884870658e-05 0 -0.0049900533123462812 9.231445053258346e-06 0 -0.0049925126547626679 8.3063799494248122e-06 0 -0.00499019733744583 -6.2534814696732022e-06 0 -0.0049894516270164906 -4.4430499084669386e-06 0 -0.0049952948845884909 -6.3826467870337995e-07 0 -0.0049900533123462812 9.231445053258346e-06 0 -0.0049880070548437797 7.5306610476885518e-06 0 -0.004992342188766468 9.604846413846665e-06 0 -0.0050248237300992496 3.6288122406890981e-05 0 -0.0049939023075849789 2.2139034514050766e-05 0 -0.0050055075144980728 4.2271160518140123e-05 0 -0.0047200991805286469 6.0527106632453821e-05 0 -0.0050396672576037832 2.9769213677793242e-05 0 -0.0049878588202898833 1.006001884870658e-05 0 -0.0049900533123462812 9.231445053258346e-06 0 -0.0049880070548437797 7.5306610476885518e-06 0 -0.0048663387591346453 4.1528590145593505e-05 0 -0.0047200991805286469 6.0527106632453821e-05 0 -0.0045024795809911963 3.7634587630074326e-05 0 -0.0046185426590193614 3.4673796165942193e-05 0 -0.0045990406219597506 -3.977349935430356e-05 0 -0.0046617763038983174 0.00013009237184701672 0 -0.0047108626640170849 1.0680081428839824e-05 0 -0.0046185426590193614 3.4673796165942193e-05 0 -0.0045024795809911963 3.7634587630074326e-05 0 -0.0046617763038983174 0.00013009237184701672 0 -0.0046185426590193614 3.4673796165942193e-05 0 -0.0047108626640170849 1.0680081428839824e-05 0 -0.0046185426590193614 3.4673796165942193e-05 0 -0.0045990406219597506 -3.977349935430356e-05 0 -0.0047200991805286469 6.0527106632453821e-05 0 -0.0043814675458973915 7.1331080186964741e-06 0 -0.0042316966765325896 7.0213332299317186e-05 0 -0.0042020554463887685 7.217068482501791e-05 0 -0.0041880168372945099 0.00011741672011636137 0 -0.0042278428931244484 7.0092574207693294e-05 0 -0.0042033727301374205 7.4911408491934426e-05 0 -0.0042020554463887685 7.217068482501791e-05 0 -0.0042464170850885566 0.00010091738142545206 0 -0.0042278428931244484 7.0092574207693294e-05 0 -0.0042033727301374205 7.4911408491934426e-05 0 -0.0042316966765325896 7.0213332299317186e-05 0 -0.0042033727301374205 7.4911408491934426e-05 0 -0.0042020554463887685 7.217068482501791e-05 0 -0.0042278428931244484 7.0092574207693294e-05 0 -0.0042020554463887685 7.217068482501791e-05 0 -0.0042385562090954069 4.2993063251688372e-05 0 -0.0042068523316615061 6.6760374233465835e-05 0 -0.0041759885063046955 8.1989369530930192e-05 0 -0.0042278428931244484 7.0092574207693294e-05 0 -0.0042385562090954069 4.2993063251688372e-05 0 -0.0042634117744905498 6.2675511330267101e-05 0 -0.0050248237300992496 3.6288122406890981e-05 0 -0.005016168334900109 6.5134078108778062e-05 0 -0.0050055075144980728 4.2271160518140123e-05 0 -0.0047200991805286469 6.0527106632453821e-05 0 -0.0046380436108980948 5.0013818377908128e-05 0 -0.0042464170850885566 0.00010091738142545206 0 -0.0042278428931244484 7.0092574207693294e-05 0 -0.0042634117744905498 6.2675511330267101e-05 0 -0.0049800081924569316 5.7680461245447926e-05 0 -0.0049952283833376862 5.3206620432587418e-05 0 -0.0049926581482633049 7.5287756773010725e-05 0 -0.0049800081924569316 5.7680461245447926e-05 0 -0.0049952283833376862 5.3206620432587418e-05 0 -0.0049919277638604508 3.8723491677765554e-05 0 -0.005016168334900109 6.5134078108778062e-05 0 -0.0049952283833376862 5.3206620432587418e-05 0 -0.0050055075144980728 4.2271160518140123e-05 0 -0.005016168334900109 6.5134078108778062e-05 0 -0.0049952283833376862 5.3206620432587418e-05 0 -0.0049926581482633049 7.5287756773010725e-05 0 -0.005016168334900109 6.5134078108778062e-05 0 -0.0049926581482633049 7.5287756773010725e-05 0 -0.0050036302532109082 0.0001020237196232497 0 -0.0049800081924569316 5.7680461245447926e-05 0 -0.0049926581482633049 7.5287756773010725e-05 0 -0.0049751321727714735 9.2146472194706277e-05 0 -0.0049800081924569316 5.7680461245447926e-05 0 -0.0049421382679948663 7.9326524450162706e-05 0 -0.0049853207419451109 2.4325691420968553e-05 0 -0.0049814922320192273 6.7145873219538326e-05 0 -0.0049853207419451109 2.4325691420968553e-05 0 -0.0049699961063234708 4.074557455378634e-05 0 -0.0049800081924569316 5.7680461245447926e-05 0 -0.0049421382679948663 7.9326524450162706e-05 0 -0.0049751321727714735 9.2146472194706277e-05 0 -0.0050096430331611633 4.8507927646008174e-05 0 -0.0049692896007170334 4.1466107396001813e-05 0 -0.0049853207419451109 2.4325691420968553e-05 0 -0.0049939023075849789 2.2139034514050766e-05 0 -0.0049855674606811128 1.094571417861679e-05 0 -0.0049761111304232634 2.4075715689820076e-05 0 -0.0049853207419451109 2.4325691420968553e-05 0 -0.0049699961063234708 4.074557455378634e-05 0 -0.0049761111304232634 2.4075715689820076e-05 0 -0.0049853207419451109 2.4325691420968553e-05 0 -0.0049855674606811128 1.094571417861679e-05 0 -0.0049853207419451109 2.4325691420968553e-05 0 -0.0049939023075849789 2.2139034514050766e-05 0 -0.0049919277638604508 3.8723491677765554e-05 0 -0.0049800081924569316 5.7680461245447926e-05 0 -0.0049853207419451109 2.4325691420968553e-05 0 -0.0049919277638604508 3.8723491677765554e-05 0 -0.0049939023075849789 2.2139034514050766e-05 0 -0.0049919277638604508 3.8723491677765554e-05 0 -0.0050055075144980728 4.2271160518140123e-05 0 -0.0049952283833376862 5.3206620432587418e-05 0 -0.0049919277638604508 3.8723491677765554e-05 0 -0.0050055075144980728 4.2271160518140123e-05 0 -0.0049900533123462812 9.231445053258346e-06 0 -0.004992342188766468 9.604846413846665e-06 0 -0.0049918512700749566 8.9160646368728438e-06 0 -0.0049900533123462812 9.231445053258346e-06 0 -0.0049918512700749566 8.9160646368728438e-06 0 -0.0049925126547626679 8.3063799494248122e-06 0 -0.004992342188766468 9.604846413846665e-06 0 -0.0049918512700749566 8.9160646368728438e-06 0 -0.0049918571681821702 8.3614622413711716e-06 0 -0.0049918512700749566 8.9160646368728438e-06 0 -0.0049918571681821702 8.3614622413711716e-06 0 -0.0049925126547626679 8.3063799494248122e-06 0 -0.0049918571681821702 8.3614622413711716e-06 0 -0.0049925126547626679 8.3063799494248122e-06 0 -0.0049999710612094045 7.6401368609019004e-09 0 -0.0050154954471078612 3.6196092870708759e-06 0 -0.0049999735931782578 -8.639756322901837e-09 0 -0.0049995104323290194 -1.4003293399953175e-06 0 -0.0049999953522061784 7.4272438476338549e-10 0 -0.0050000035084748849 -2.8132272200009799e-10 0 -0.0049952948845884909 -6.3826467870337995e-07 0 -0.0049995104323290194 -1.4003293399953175e-06 0 -0.0049999953522061784 7.4272438476338549e-10 0 -0.0049918571681821702 8.3614622413711716e-06 0 -0.0049999710612094045 7.6401368609019004e-09 0 -0.0049855674606811128 1.094571417861679e-05 0 -0.0049999710612094045 7.6401368609019004e-09 0 -0.0049855674606811128 1.094571417861679e-05 0 -0.0049878353698620641 3.1723925445959224e-06 0 -0.004992342188766468 9.604846413846665e-06 0 -0.0049918571681821702 8.3614622413711716e-06 0 -0.0049855674606811128 1.094571417861679e-05 0 -0.0050396672576037832 2.9769213677793242e-05 0 -0.0049689118116737216 4.3962783518885559e-06 0 -0.0049761111304232634 2.4075715689820076e-05 0 -0.0049855674606811128 1.094571417861679e-05 0 -0.004971199277850346 1.4318611710526216e-05 0 -0.004971199277850346 1.4318611710526216e-05 0 -0.0049878353698620641 3.1723925445959224e-06 0 -0.0049710504575172215 6.0789359962264543e-06 0 -0.0049855674606811128 1.094571417861679e-05 0 -0.004971199277850346 1.4318611710526216e-05 0 -0.0049878353698620641 3.1723925445959224e-06 0 -0.0049999710612094045 7.6401368609019004e-09 0 -0.0049878353698620641 3.1723925445959224e-06 0 -0.0049999677694968613 -3.8371101394109767e-09 0 -0.0049878353698620641 3.1723925445959224e-06 0 -0.0049999677694968613 -3.8371101394109767e-09 0 -0.0049710504575172215 6.0789359962264543e-06 0 -0.0049505777224187943 2.3350665455223275e-06 0 -0.0049999677694968613 -3.8371101394109767e-09 0 -0.0049710504575172215 6.0789359962264543e-06 0 -0.0049505777224187943 2.3350665455223275e-06 0 -0.0049710504575172215 6.0789359962264543e-06 0 -0.0049443322119854987 2.1338928640145834e-05 0 -0.004971199277850346 1.4318611710526216e-05 0 -0.0049710504575172215 6.0789359962264543e-06 0 -0.0049443322119854987 2.1338928640145834e-05 0 -0.0049047214896149292 3.4729369275740986e-05 0 -0.0049443322119854987 2.1338928640145834e-05 0 -0.0049238497445451201 4.3122146980602194e-05 0 -0.0049443322119854987 2.1338928640145834e-05 0 -0.0049557927464164084 3.3170927136250743e-05 0 -0.0049238497445451201 4.3122146980602194e-05 0 -0.004971199277850346 1.4318611710526216e-05 0 -0.0049443322119854987 2.1338928640145834e-05 0 -0.0049557927464164084 3.3170927136250743e-05 0 -0.0049761111304232634 2.4075715689820076e-05 0 -0.004971199277850346 1.4318611710526216e-05 0 -0.0049557927464164084 3.3170927136250743e-05 0 -0.0049761111304232634 2.4075715689820076e-05 0 -0.0049557927464164084 3.3170927136250743e-05 0 -0.0049699961063234708 4.074557455378634e-05 0 -0.0049557927464164084 3.3170927136250743e-05 0 -0.0049329103580725477 6.7144512412548366e-05 0 -0.0049699961063234708 4.074557455378634e-05 0 -0.0049814922320192273 6.7145873219538326e-05 0 -0.0049329103580725477 6.7144512412548366e-05 0 -0.0049699961063234708 4.074557455378634e-05 0 -0.0049557927464164084 3.3170927136250743e-05 0 -0.0049329103580725477 6.7144512412548366e-05 0 -0.0049238497445451201 4.3122146980602194e-05 0 -0.0048828574574287407 6.4545443466981249e-05 0 -0.0049329103580725477 6.7144512412548366e-05 0 -0.0049238497445451201 4.3122146980602194e-05 0 -0.0048714290034610553 9.5989286466132288e-05 0 -0.0049300300178674724 0.00010200153333129342 0 -0.0048842248946451916 0.00013338795084284771 0 -0.0049329103580725477 6.7144512412548366e-05 0 -0.0048714290034610553 9.5989286466132288e-05 0 -0.0049300300178674724 0.00010200153333129342 0 -0.0048828574574287407 6.4545443466981249e-05 0 -0.0049329103580725477 6.7144512412548366e-05 0 -0.0048714290034610553 9.5989286466132288e-05 0 -0.0049814922320192273 6.7145873219538326e-05 0 -0.0049300300178674724 0.00010200153333129342 0 -0.0049585410886671972 0.00014586564702122058 0 -0.0049814922320192273 6.7145873219538326e-05 0 -0.0049329103580725477 6.7144512412548366e-05 0 -0.0049300300178674724 0.00010200153333129342 0 -0.0049300300178674724 0.00010200153333129342 0 -0.0049585410886671972 0.00014586564702122058 0 -0.0048842248946451916 0.00013338795084284771 0 -0.004578060965329968 0.00021521385130976328 0 -0.0046241188179478865 0.00025842811684937257 0 -0.0049585410886671972 0.00014586564702122058 0 -0.0048842248946451916 0.00013338795084284771 0 -0.0048500055079782247 0.00019303650113900678 0 -0.0047884034803071457 0.00012998470347157045 0 -0.0048842248946451916 0.00013338795084284771 0 -0.0048500055079782247 0.00019303650113900678 0 -0.0044069055538828051 0.00031259146266901652 0 -0.004348332925602898 0.00019846124091075332 0 -0.0042367970275301635 0.00025697006031148684 0 -0.0044642491985625258 0.00014710033853591796 0 -0.0044069055538828051 0.00031259146266901652 0 -0.004348332925602898 0.00019846124091075332 0 -0.0044642491985625258 0.00014710033853591796 0 -0.004348332925602898 0.00019846124091075332 0 -0.0042825614560221565 6.9994305794148556e-05 0 -0.0042825614560221565 6.9994305794148556e-05 0 -0.0042176898352402755 0.0001229830153441753 0 -0.0041488088804285802 7.5434724549864601e-05 0 -0.004348332925602898 0.00019846124091075332 0 -0.0042825614560221565 6.9994305794148556e-05 0 -0.0042367970275301635 0.00025697006031148684 0 -0.0042818134119318139 6.2851797069191613e-05 0 -0.0042026027082174055 0.00021807580200951775 0 -0.0042825614560221565 6.9994305794148556e-05 0 -0.0041488088804285802 7.5434724549864601e-05 0 -0.0041818431568551879 -7.0231333079618046e-06 0 -0.0041870754557492874 0.00042155141334011636 0 -0.0044069055538828051 0.00031259146266901652 0 -0.0042367970275301635 0.00025697006031148684 0 -0.004578060965329968 0.00021521385130976328 0 -0.0042026027082174055 0.00021807580200951775 0 -0.0041769143467079613 0.00017552507539408748 0 -0.0042176898352402755 0.0001229830153441753 0 -0.0041540296269426341 0.00012897597662002002 0 -0.0041540296269426341 0.00012897597662002002 0 -0.004088069055021527 0.00012616017340842119 0 -0.0041278125898061716 0.0001566483882789962 0 -0.0041540296269426341 0.00012897597662002002 0 -0.0041488088804285802 7.5434724549864601e-05 0 -0.004088069055021527 0.00012616017340842119 0 -0.0042176898352402755 0.0001229830153441753 0 -0.0041540296269426341 0.00012897597662002002 0 -0.0041488088804285802 7.5434724549864601e-05 0 -0.0041488088804285802 7.5434724549864601e-05 0 -0.0040409574387981553 6.9548781605213445e-05 0 -0.004088069055021527 0.00012616017340842119 0 -0.0041488088804285802 7.5434724549864601e-05 0 -0.0040409574387981553 6.9548781605213445e-05 0 -0.0040852064962300042 2.5985622495464768e-05 0 -0.0040409574387981553 6.9548781605213445e-05 0 -0.0040852064962300042 2.5985622495464768e-05 0 -0.0040222515509676727 1.7128390458069359e-05 0 -0.0040409574387981553 6.9548781605213445e-05 0 -0.004088069055021527 0.00012616017340842119 0 -0.0040075099700572041 9.6877761856735672e-05 0 -0.004088069055021527 0.00012616017340842119 0 -0.0039753267880965563 9.8324086400848636e-05 0 -0.0040075099700572041 9.6877761856735672e-05 0 -0.004100693722415851 0.00015837431636848485 0 -0.0041065951332584592 0.00012032354226338801 0 -0.0041168309880155922 0.00016176567769714048 0 -0.004088069055021527 0.00012616017340842119 0 -0.004100693722415851 0.00015837431636848485 0 -0.0041168309880155922 0.00016176567769714048 0 -0.0040867340721427265 0.00012032179283729725 0 -0.0040570599908067309 0.00012194498143598104 0 -0.004088069055021527 0.00012616017340842119 0 -0.004100693722415851 0.00015837431636848485 0 -0.0041278125898061716 0.0001566483882789962 0 -0.004578060965329968 0.00021521385130976328 0 -0.0045629182294180792 0.00014834410742672142 0 -0.0041769143467079613 0.00017552507539408748 0 -0.0041278125898061716 0.0001566483882789962 0 -0.0041256181779815871 0.00018409825322257884 0 -0.0041769143467079613 0.00017552507539408748 0 -0.0041540296269426341 0.00012897597662002002 0 -0.0041278125898061716 0.0001566483882789962 0 -0.004100693722415851 0.00015837431636848485 0 -0.0041278125898061716 0.0001566483882789962 0 -0.0041256181779815871 0.00018409825322257884 0 -0.0049421382679948663 7.9326524450162706e-05 0 -0.0049612388220161112 0.00012873629368891293 0 -0.0049751321727714735 9.2146472194706277e-05 0 -0.0049421382679948663 7.9326524450162706e-05 0 -0.0049086699780118434 0.0001555281347090004 0 -0.0049612388220161112 0.00012873629368891293 0 -0.0050096430331611633 4.8507927646008174e-05 0 -0.004578060965329968 0.00021521385130976328 0 -0.004100693722415851 0.00015837431636848485 0 -0.0041256181779815871 0.00018409825322257884 0 -0.0040865160735075222 0.00020147237770975002 0 -0.0045629182294180792 0.00014834410742672142 0 -0.0043652599686778175 8.0433231142832163e-05 0 -0.004074251813065307 0.0002118553798564744 0 -0.0043652599686778175 8.0433231142832163e-05 0 -0.0049612388220161112 0.00012873629368891293 0 -0.0049751321727714735 9.2146472194706277e-05 0 -0.0050036302532109082 0.0001020237196232497 0 -0.0049926581482633049 7.5287756773010725e-05 0 -0.0049751321727714735 9.2146472194706277e-05 0 -0.0050036302532109082 0.0001020237196232497 0 -0.0041392492310798439 0.00012296852652039536 0 -0.0041880168372945099 0.00011741672011636137 0 -0.0041168309880155922 0.00016176567769714048 0 -0.004060205464894568 6.686312318865566e-05 0 -0.0040570599908067309 0.00012194498143598104 0 -0.0041065951332584592 0.00012032354226338801 0 -0.0041392492310798439 0.00012296852652039536 0 -0.0041168309880155922 0.00016176567769714048 0 -0.0041502132212404008 9.1982068092959996e-05 0 -0.0041065951332584592 0.00012032354226338801 0 -0.0041392492310798439 0.00012296852652039536 0 -0.0042385562090954069 4.2993063251688372e-05 0 -0.0042634117744905498 6.2675511330267101e-05 0 -0.004282290013644381 2.1088054517243728e-05 0 -0.0041759885063046955 8.1989369530930192e-05 0 -0.0043652599686778175 8.0433231142832163e-05 0 -0.0046380436108980948 5.0013818377908128e-05 0 -0.0043652599686778175 8.0433231142832163e-05 0 -0.0041502132212404008 9.1982068092959996e-05 0 -0.0041392492310798439 0.00012296852652039536 0 -0.0041880168372945099 0.00011741672011636137 0 -0.0042020554463887685 7.217068482501791e-05 0 -0.0041502132212404008 9.1982068092959996e-05 0 -0.0041880168372945099 0.00011741672011636137 0 -0.00396620277658418 1.4813635673898658e-05 0 -0.0040080724987013403 4.2916457230320256e-05 0 -0.0040506817025089412 -1.1504947672513531e-05 0 -0.0039725991227986899 7.584403797478418e-05 0 -0.0039539124924035133 7.2505178249945767e-05 0 -0.0040080724987013403 4.2916457230320256e-05 0 -0.00396620277658418 1.4813635673898658e-05 0 -0.0039725991227986899 7.584403797478418e-05 0 -0.0040080724987013403 4.2916457230320256e-05 0 -0.00396620277658418 1.4813635673898658e-05 0 -0.0039725991227986899 7.584403797478418e-05 0 -0.0039753267880965563 9.8324086400848636e-05 0 -0.0039725991227986899 7.584403797478418e-05 0 -0.0039753267880965563 9.8324086400848636e-05 0 -0.0039750334399558671 8.8675048218595621e-05 0 -0.0039753267880965563 9.8324086400848636e-05 0 -0.0040075099700572041 9.6877761856735672e-05 0 -0.0039750334399558671 8.8675048218595621e-05 0 -0.0039750334399558671 8.8675048218595621e-05 0 -0.0039812049535488852 7.7587360871106246e-05 0 -0.0039611244127319457 7.8215302421076336e-05 0 -0.0040075099700572041 9.6877761856735672e-05 0 -0.0039750334399558671 8.8675048218595621e-05 0 -0.0039812049535488852 7.7587360871106246e-05 0 -0.0040409574387981553 6.9548781605213445e-05 0 -0.0040075099700572041 9.6877761856735672e-05 0 -0.0039812049535488852 7.7587360871106246e-05 0 -0.0040409574387981553 6.9548781605213445e-05 0 -0.0039812049535488852 7.7587360871106246e-05 0 -0.0039721121338002008 4.15385330279513e-05 0 -0.0039812049535488852 7.7587360871106246e-05 0 -0.0039721121338002008 4.15385330279513e-05 0 -0.003940785456166526 5.9671987454222643e-05 0 -0.0040409574387981553 6.9548781605213445e-05 0 -0.0039721121338002008 4.15385330279513e-05 0 -0.0040222515509676727 1.7128390458069359e-05 0 -0.003940785456166526 5.9671987454222643e-05 0 -0.0039539124924035133 7.2505178249945767e-05 0 -0.0038779066163065457 4.5185955252220249e-05 0 -0.003940785456166526 5.9671987454222643e-05 0 -0.0038779066163065457 4.5185955252220249e-05 0 -0.0039257080445440325 2.0515895158706999e-05 0 -0.0039721121338002008 4.15385330279513e-05 0 -0.003940785456166526 5.9671987454222643e-05 0 -0.0039257080445440325 2.0515895158706999e-05 0 -0.003940785456166526 5.9671987454222643e-05 0 -0.0039611244127319457 7.8215302421076336e-05 0 -0.0039539124924035133 7.2505178249945767e-05 0 -0.0039812049535488852 7.7587360871106246e-05 0 -0.003940785456166526 5.9671987454222643e-05 0 -0.0039611244127319457 7.8215302421076336e-05 0 -0.0039725991227986899 7.584403797478418e-05 0 -0.0039750334399558671 8.8675048218595621e-05 0 -0.0039611244127319457 7.8215302421076336e-05 0 -0.0039725991227986899 7.584403797478418e-05 0 -0.0039611244127319457 7.8215302421076336e-05 0 -0.0039539124924035133 7.2505178249945767e-05 0 -0.0039539124924035133 7.2505178249945767e-05 0 -0.0039108543523382151 4.3339987395124749e-05 0 -0.004041674848318611 4.5573223640910687e-05 0 -0.0039108543523382151 4.3339987395124749e-05 0 -0.0038779066163065457 4.5185955252220249e-05 0 -0.0037913468766564364 2.6152883975215011e-05 0 -0.0039539124924035133 7.2505178249945767e-05 0 -0.0039108543523382151 4.3339987395124749e-05 0 -0.0038779066163065457 4.5185955252220249e-05 0 -0.0039108543523382151 4.3339987395124749e-05 0 -0.0039004288608548089 1.2157768242959411e-07 0 -0.0037913468766564364 2.6152883975215011e-05 0 -0.0039004288608548089 1.2157768242959411e-07 0 -0.0037913468766564364 2.6152883975215011e-05 0 -0.00360823789851212 2.7063290215447266e-08 0 -0.0039108543523382151 4.3339987395124749e-05 0 -0.0039004288608548089 1.2157768242959411e-07 0 -0.004041674848318611 4.5573223640910687e-05 0 -0.0039004288608548089 1.2157768242959411e-07 0 -0.004041674848318611 4.5573223640910687e-05 0 -0.0041924400564237671 7.8174888254103162e-08 0 -0.004041674848318611 4.5573223640910687e-05 0 -0.0041924400564237671 7.8174888254103162e-08 0 -0.0041888028307161375 9.772138460218555e-06 0 -0.004041674848318611 4.5573223640910687e-05 0 -0.0040877611785654208 1.7197030182250431e-05 0 -0.0041888028307161375 9.772138460218555e-06 0 -0.0039539124924035133 7.2505178249945767e-05 0 -0.004041674848318611 4.5573223640910687e-05 0 -0.0040080724987013403 4.2916457230320256e-05 0 -0.004041674848318611 4.5573223640910687e-05 0 -0.0040080724987013403 4.2916457230320256e-05 0 -0.0040877611785654208 1.7197030182250431e-05 0 -0.0042876273628254333 -9.9466288124987251e-06 0 -0.004060205464894568 6.686312318865566e-05 0 -0.0040877611785654208 1.7197030182250431e-05 0 -0.0040506817025089412 -1.1504947672513531e-05 0 -0.0041489364531410427 -2.1718365096385796e-05 0 -0.0040695936883329339 -0.00014738808480119399 0 -0.00396620277658418 1.4813635673898658e-05 0 -0.0040506817025089412 -1.1504947672513531e-05 0 -0.0040080724987013403 4.2916457230320256e-05 0 -0.0040877611785654208 1.7197030182250431e-05 0 -0.0040506817025089412 -1.1504947672513531e-05 0 -0.0040695936883329339 -0.00014738808480119399 0 -0.0040506817025089412 -1.1504947672513531e-05 0 -0.0041489364531410427 -2.1718365096385796e-05 0 -0.0044215458554980836 -3.0688328226734751e-06 0 -0.0041924400564237671 7.8174888254103162e-08 0 -0.0043474213603629267 -7.7981901835504662e-06 0 -0.0041924400564237671 7.8174888254103162e-08 0 -0.0043474213603629267 -7.7981901835504662e-06 0 -0.0041888028307161375 9.772138460218555e-06 0 -0.0041489364531410427 -2.1718365096385796e-05 0 -0.0043474213603629267 -7.7981901835504662e-06 0 -0.0041888028307161375 9.772138460218555e-06 0 -0.004484235333710924 -1.7349752473750407e-07 0 -0.0044215458554980836 -3.0688328226734751e-06 0 -0.0041924400564237671 7.8174888254103162e-08 0 -0.0040877611785654208 1.7197030182250431e-05 0 -0.0041489364531410427 -2.1718365096385796e-05 0 -0.0041888028307161375 9.772138460218555e-06 0 -0.0033155071076902778 1.1629788830550509e-08 0 -0.0031800559127492111 2.541689251993406e-05 0 -0.0030760526057906708 -1.5452881733037448e-08 0 -0.0031667099037503855 -3.2007256582162405e-05 0 -0.0031217484562143976 8.7491494896242218e-06 0 -0.0031800559127492111 2.541689251993406e-05 0 -0.0031667099037503855 -3.2007256582162405e-05 0 -0.0033155071076902778 1.1629788830550509e-08 0 -0.0031800559127492111 2.541689251993406e-05 0 -0.0034745163755310819 -0.00011951947481078011 0 -0.0035800938055060537 -4.3026160668036761e-05 0 -0.0037990447832003888 -0.0002577810799217533 0 -0.0035199442143119116 -1.6795603365327489e-05 0 -0.0037482748049212367 -4.7840248539896498e-05 0 -0.0037990447832003888 -0.0002577810799217533 0 -0.0037482748049212367 -4.7840248539896498e-05 0 -0.0038518333597246913 -0.00015305577539539861 0 -0.0034674643745774883 -3.2221661883023611e-05 0 -0.0033167595654544023 -2.1603832798908115e-07 0 -0.0035199442143119116 -1.6795603365327489e-05 0 -0.0034745163755310819 -0.00011951947481078011 0 -0.0033159403473304334 4.7976690593487942e-08 0 -0.0033167595654544023 -2.1603832798908115e-07 0 -0.0035199442143119116 -1.6795603365327489e-05 0 -0.00360823789851212 2.7063290215447266e-08 0 -0.0035199442143119116 -1.6795603365327489e-05 0 -0.0036780058659584827 7.0870789184821738e-06 0 -0.0037482748049212367 -4.7840248539896498e-05 0 -0.0035199442143119116 -1.6795603365327489e-05 0 -0.00360823789851212 2.7063290215447266e-08 0 -0.0036780058659584827 7.0870789184821738e-06 0 -0.0037913468766564364 2.6152883975215011e-05 0 -0.00360823789851212 2.7063290215447266e-08 0 -0.0036780058659584827 7.0870789184821738e-06 0 -0.0037913468766564364 2.6152883975215011e-05 0 -0.0036780058659584827 7.0870789184821738e-06 0 -0.0037877781358795592 1.6916933083689414e-05 0 -0.0036780058659584827 7.0870789184821738e-06 0 -0.0037877781358795592 1.6916933083689414e-05 0 -0.0037482748049212367 -4.7840248539896498e-05 0 -0.0037877781358795592 1.6916933083689414e-05 0 -0.0037482748049212367 -4.7840248539896498e-05 0 -0.0038603115770256906 -4.6862643869291067e-06 0 -0.0038779066163065457 4.5185955252220249e-05 0 -0.0037877781358795592 1.6916933083689414e-05 0 -0.0038603115770256906 -4.6862643869291067e-06 0 -0.0038779066163065457 4.5185955252220249e-05 0 -0.0037913468766564364 2.6152883975215011e-05 0 -0.0037877781358795592 1.6916933083689414e-05 0 -0.0037482748049212367 -4.7840248539896498e-05 0 -0.0038692981699173087 -7.1852907870675341e-05 0 -0.0038603115770256906 -4.6862643869291067e-06 0 -0.0037482748049212367 -4.7840248539896498e-05 0 -0.0038692981699173087 -7.1852907870675341e-05 0 -0.0038518333597246913 -0.00015305577539539861 0 -0.0038692981699173087 -7.1852907870675341e-05 0 -0.0039270996912364846 -0.0001425064008773209 0 -0.0038518333597246913 -0.00015305577539539861 0 -0.0038692981699173087 -7.1852907870675341e-05 0 -0.0039309196184729783 -5.0156431212472006e-05 0 -0.0039270996912364846 -0.0001425064008773209 0 -0.0038692981699173087 -7.1852907870675341e-05 0 -0.0039309196184729783 -5.0156431212472006e-05 0 -0.0038603115770256906 -4.6862643869291067e-06 0 -0.0038779066163065457 4.5185955252220249e-05 0 -0.0038603115770256906 -4.6862643869291067e-06 0 -0.0039257080445440325 2.0515895158706999e-05 0 -0.0039309196184729783 -5.0156431212472006e-05 0 -0.0038603115770256906 -4.6862643869291067e-06 0 -0.0039257080445440325 2.0515895158706999e-05 0 -0.0039721121338002008 4.15385330279513e-05 0 -0.0039793774410369015 -1.687333812407728e-05 0 -0.0040222515509676727 1.7128390458069359e-05 0 -0.0039721121338002008 4.15385330279513e-05 0 -0.0039257080445440325 2.0515895158706999e-05 0 -0.0039793774410369015 -1.687333812407728e-05 0 -0.0039309196184729783 -5.0156431212472006e-05 0 -0.0039257080445440325 2.0515895158706999e-05 0 -0.0039793774410369015 -1.687333812407728e-05 0 -0.0039793774410369015 -1.687333812407728e-05 0 -0.0040367088497572064 -4.7402652001741549e-05 0 -0.0040222515509676727 1.7128390458069359e-05 0 -0.0039309196184729783 -5.0156431212472006e-05 0 -0.0039793774410369015 -1.687333812407728e-05 0 -0.0039907771358434502 -0.00010446833349421861 0 -0.0039793774410369015 -1.687333812407728e-05 0 -0.0039907771358434502 -0.00010446833349421861 0 -0.0040367088497572064 -4.7402652001741549e-05 0 -0.0039309196184729783 -5.0156431212472006e-05 0 -0.0039907771358434502 -0.00010446833349421861 0 -0.0039270996912364846 -0.0001425064008773209 0 -0.004009274299723007 -0.00017324301614306934 0 -0.0039512393462409279 -0.00023006761204882347 0 -0.0040618765014866489 -0.00022523125754281558 0 -0.0039907771358434502 -0.00010446833349421861 0 -0.004009274299723007 -0.00017324301614306934 0 -0.0039646815298344821 -0.00017828385120518034 0 -0.004009274299723007 -0.00017324301614306934 0 -0.0039512393462409279 -0.00023006761204882347 0 -0.0039646815298344821 -0.00017828385120518034 0 -0.0039512393462409279 -0.00023006761204882347 0 -0.0039646815298344821 -0.00017828385120518034 0 -0.0039270996912364846 -0.0001425064008773209 0 -0.0039907771358434502 -0.00010446833349421861 0 -0.0039646815298344821 -0.00017828385120518034 0 -0.0039270996912364846 -0.0001425064008773209 0 -0.0034745163755310819 -0.00011951947481078011 0 -0.0038521736092960107 -0.00020971471702685161 0 -0.0039512393462409279 -0.00023006761204882347 0 -0.0039270996912364846 -0.0001425064008773209 0 -0.0038518333597246913 -0.00015305577539539861 0 -0.0037990447832003888 -0.0002577810799217533 0 -0.0039512393462409279 -0.00023006761204882347 0 -0.0038518333597246913 -0.00015305577539539861 0 -0.0037004147340727175 -0.00017227154240719158 0 -0.0036192475510992326 -0.00031639455857503785 0 -0.0036767763264056075 -0.0003039007633633194 0 -0.0034444782582517151 -0.00015524747889746136 0 -0.0037004147340727175 -0.00017227154240719158 0 -0.0036192475510992326 -0.00031639455857503785 0 -0.0032217835431621179 -0.00012930345415884851 0 -0.0029708774772290386 -1.6422409510187475e-05 0 -0.0034745163755310819 -0.00011951947481078011 0 -0.0032217835431621179 -0.00012930345415884851 0 -0.0032217835431621179 -0.00012930345415884851 0 -0.0034604653920627879 -0.00013643653824105823 0 -0.0036177858118248115 -0.00031547570471409856 0 -0.0036767763264056075 -0.0003039007633633194 0 -0.0036893390405156163 -0.0003805913324602651 0 -0.0032217835431621179 -0.00012930345415884851 0 -0.0032098570525134003 -0.00012129735524882878 0 -0.003770347037190883 -0.00021376816871729838 0 -0.0032098570525134003 -0.00012129735524882878 0 -0.0036767763264056075 -0.0003039007633633194 0 -0.0037177481847742574 -0.00026287975684522114 0 -0.0036893390405156163 -0.0003805913324602651 0 -0.0037004147340727175 -0.00017227154240719158 0 -0.00379574932913819 -0.00022386746302480883 0 -0.00394243383385268 -0.0001975081251494595 0 -0.00379574932913819 -0.00022386746302480883 0 -0.003818432145901913 -0.00035719919378545756 0 -0.003706884448286661 -0.00036528479594009878 0 -0.0038521736092960107 -0.00020971471702685161 0 -0.0039969453383202286 -0.00021319250602786473 0 -0.00379574932913819 -0.00022386746302480883 0 -0.0037177481847742574 -0.00026287975684522114 0 -0.0036893390405156163 -0.0003805913324602651 0 -0.00379574932913819 -0.00022386746302480883 0 -0.0039119062695450605 -0.00033766300378562631 0 -0.003818432145901913 -0.00035719919378545756 0 -0.0037004147340727175 -0.00017227154240719158 0 -0.00379574932913819 -0.00022386746302480883 0 -0.0037177481847742574 -0.00026287975684522114 0 -0.0037004147340727175 -0.00017227154240719158 0 -0.0036767763264056075 -0.0003039007633633194 0 -0.0037177481847742574 -0.00026287975684522114 0 -0.00379574932913819 -0.00022386746302480883 0 -0.00394243383385268 -0.0001975081251494595 0 -0.0039119062695450605 -0.00033766300378562631 0 -0.00394243383385268 -0.0001975081251494595 0 -0.0039119062695450605 -0.00033766300378562631 0 -0.0040462130191982297 -0.00033176063811816406 0 -0.0039969453383202286 -0.00021319250602786473 0 -0.0041514943493413418 -0.00023354720267749522 0 -0.0040462130191982297 -0.00033176063811816406 0 -0.0041633397456645972 -0.00023896629811753173 0 -0.0041762649806593539 -0.00041547526743520072 0 -0.00394243383385268 -0.0001975081251494595 0 -0.0040462130191982297 -0.00033176063811816406 0 -0.0041633397456645972 -0.00023896629811753173 0 -0.0040618765014866489 -0.00022523125754281558 0 -0.0041633397456645972 -0.00023896629811753173 0 -0.0041134654126656579 -0.00018733445736122443 0 -0.0041134654126656579 -0.00018733445736122443 0 -0.0041568247536225098 -0.0001518329507147568 0 -0.0040717647176242893 -0.00013055415383959729 0 -0.0041633397456645972 -0.00023896629811753173 0 -0.0041134654126656579 -0.00018733445736122443 0 -0.0041568247536225098 -0.0001518329507147568 0 -0.0041633397456645972 -0.00023896629811753173 0 -0.0041568247536225098 -0.0001518329507147568 0 -0.004236547586009675 -0.00018270154888326269 0 -0.004009274299723007 -0.00017324301614306934 0 -0.0040618765014866489 -0.00022523125754281558 0 -0.0040717647176242893 -0.00013055415383959729 0 -0.0039907771358434502 -0.00010446833349421861 0 -0.004009274299723007 -0.00017324301614306934 0 -0.0040717647176242893 -0.00013055415383959729 0 -0.0040618765014866489 -0.00022523125754281558 0 -0.0041134654126656579 -0.00018733445736122443 0 -0.0040717647176242893 -0.00013055415383959729 0 -0.0040717647176242893 -0.00013055415383959729 0 -0.0040367088497572064 -4.7402652001741549e-05 0 -0.0040981484503361176 -3.8985128910500425e-05 0 -0.0039907771358434502 -0.00010446833349421861 0 -0.0040717647176242893 -0.00013055415383959729 0 -0.0040367088497572064 -4.7402652001741549e-05 0 -0.0040367088497572064 -4.7402652001741549e-05 0 -0.0040981484503361176 -3.8985128910500425e-05 0 -0.0040852064962300042 2.5985622495464768e-05 0 -0.0040367088497572064 -4.7402652001741549e-05 0 -0.0040852064962300042 2.5985622495464768e-05 0 -0.0040222515509676727 1.7128390458069359e-05 0 -0.0040981484503361176 -3.8985128910500425e-05 0 -0.0040852064962300042 2.5985622495464768e-05 0 -0.0041818431568551879 -7.0231333079618046e-06 0 -0.0041488088804285802 7.5434724549864601e-05 0 -0.0040852064962300042 2.5985622495464768e-05 0 -0.0041818431568551879 -7.0231333079618046e-06 0 -0.0040981484503361176 -3.8985128910500425e-05 0 -0.0041818431568551879 -7.0231333079618046e-06 0 -0.0041485451123269177 -8.277531469278353e-05 0 -0.0041818431568551879 -7.0231333079618046e-06 0 -0.0041485451123269177 -8.277531469278353e-05 0 -0.0042361390349471544 -9.7050515942284461e-05 0 -0.0040717647176242893 -0.00013055415383959729 0 -0.0040981484503361176 -3.8985128910500425e-05 0 -0.0041485451123269177 -8.277531469278353e-05 0 -0.0041568247536225098 -0.0001518329507147568 0 -0.0040717647176242893 -0.00013055415383959729 0 -0.0041485451123269177 -8.277531469278353e-05 0 -0.0041568247536225098 -0.0001518329507147568 0 -0.0041485451123269177 -8.277531469278353e-05 0 -0.0042361390349471544 -9.7050515942284461e-05 0 -0.0041818431568551879 -7.0231333079618046e-06 0 -0.0042361390349471544 -9.7050515942284461e-05 0 -0.0043046495614070352 -2.6592723691490241e-05 0 -0.0042825614560221565 6.9994305794148556e-05 0 -0.0041818431568551879 -7.0231333079618046e-06 0 -0.0043046495614070352 -2.6592723691490241e-05 0 -0.0044642491985625258 0.00014710033853591796 0 -0.0042825614560221565 6.9994305794148556e-05 0 -0.0044111512105116978 2.4777832059659024e-05 0 -0.0042825614560221565 6.9994305794148556e-05 0 -0.0043046495614070352 -2.6592723691490241e-05 0 -0.0044111512105116978 2.4777832059659024e-05 0 -0.0042361390349471544 -9.7050515942284461e-05 0 -0.0043046495614070352 -2.6592723691490241e-05 0 -0.0044364984879838318 -0.00013061979126869892 0 -0.0043046495614070352 -2.6592723691490241e-05 0 -0.0044111512105116978 2.4777832059659024e-05 0 -0.0044364984879838318 -0.00013061979126869892 0 -0.0042361390349471544 -9.7050515942284461e-05 0 -0.004236547586009675 -0.00018270154888326269 0 -0.0044364984879838318 -0.00013061979126869892 0 -0.0041587166111340286 -2.3428321471295578e-05 0 -0.0042165198189304436 3.2110313951632509e-05 0 -0.0042191333950518011 -3.5669673103910635e-05 0 -0.004236547586009675 -0.00018270154888326269 0 -0.004308128050702186 -0.00024938170020669239 0 -0.0044364984879838318 -0.00013061979126869892 0 -0.0042229944553715502 -0.00013676851685121683 0 -0.0043306979604668221 -4.6974642674444411e-05 0 -0.0041633397456645972 -0.00023896629811753173 0 -0.004236547586009675 -0.00018270154888326269 0 -0.004308128050702186 -0.00024938170020669239 0 -0.0041568247536225098 -0.0001518329507147568 0 -0.0042361390349471544 -9.7050515942284461e-05 0 -0.004236547586009675 -0.00018270154888326269 0 -0.0041633397456645972 -0.00023896629811753173 0 -0.004308128050702186 -0.00024938170020669239 0 -0.0041762649806593539 -0.00041547526743520072 0 -0.0042229944553715502 -0.00013676851685121683 0 -0.0042299316848814278 -0.00026212285924535742 0 -0.0041587166111340286 -2.3428321471295578e-05 0 -0.0041658400538050894 -6.0019044668990623e-05 0 -0.0042191333950518011 -3.5669673103910635e-05 0 -0.0041587166111340286 -2.3428321471295578e-05 0 -0.0041658400538050894 -6.0019044668990623e-05 0 -0.0041290870684894572 -5.804809808094534e-05 0 -0.0041658400538050894 -6.0019044668990623e-05 0 -0.004145713789998267 -7.8902969412768169e-05 0 -0.0041290870684894572 -5.804809808094534e-05 0 -0.004145713789998267 -7.8902969412768169e-05 0 -0.0041273360350173776 -7.6939846986742979e-05 0 -0.0041290870684894572 -5.804809808094534e-05 0 -0.004145713789998267 -7.8902969412768169e-05 0 -0.0041270776362565872 -8.9529314866904932e-05 0 -0.0041273360350173776 -7.6939846986742979e-05 0 -0.004145713789998267 -7.8902969412768169e-05 0 -0.0041526981955419947 -8.621057840584197e-05 0 -0.0041692388820653761 -7.5808416617333951e-05 0 -0.0041658400538050894 -6.0019044668990623e-05 0 -0.004145713789998267 -7.8902969412768169e-05 0 -0.0041692388820653761 -7.5808416617333951e-05 0 -0.004145713789998267 -7.8902969412768169e-05 0 -0.0041526981955419947 -8.621057840584197e-05 0 -0.004143191058391186 -8.7535019073652903e-05 0 -0.0041526981955419947 -8.621057840584197e-05 0 -0.004143191058391186 -8.7535019073652903e-05 0 -0.004141634637592346 -8.8425739924024931e-05 0 -0.004141634637592346 -8.8425739924024931e-05 0 -0.0041404367000636736 -8.9383908960861827e-05 0 -0.0041357901261804848 -7.8824123276741357e-05 0 -0.004143191058391186 -8.7535019073652903e-05 0 -0.004141634637592346 -8.8425739924024931e-05 0 -0.0041404367000636736 -8.9383908960861827e-05 0 -0.0031148253593893272 3.937974939817053e-05 0 -0.0030206308715892299 0.00012233784965323712 0 -0.003025132894260324 1.3880089221836019e-06 0 -0.003625575493922231 -3.095769311949843e-05 0 -0.0035693387309892631 3.0600171053017133e-05 0 -0.004143191058391186 -8.7535019073652903e-05 0 -0.0041404367000636736 -8.9383908960861827e-05 0 -0.0041270776362565872 -8.9529314866904932e-05 0 -0.004145713789998267 -7.8902969412768169e-05 0 -0.004143191058391186 -8.7535019073652903e-05 0 -0.0041270776362565872 -8.9529314866904932e-05 0 -0.0030206308715892299 0.00012233784965323712 0 -0.0029331694296268803 5.6671709047801098e-05 0 -0.0029287754110834375 0.00020655562216289637 0 -0.0041270776362565872 -8.9529314866904932e-05 0 -0.0041068708224005351 -7.8758675946798555e-05 0 -0.0041273360350173776 -7.6939846986742979e-05 0 -0.0035693387309892631 3.0600171053017133e-05 0 -0.0034872561946926064 -5.9909078616162556e-05 0 -0.0029331694296268803 5.6671709047801098e-05 0 -0.003025132894260324 1.3880089221836019e-06 0 -0.0029307925107762531 -4.8249285094643631e-05 0 -0.0030206308715892299 0.00012233784965323712 0 -0.0029331694296268803 5.6671709047801098e-05 0 -0.003025132894260324 1.3880089221836019e-06 0 -0.0029331694296268803 5.6671709047801098e-05 0 -0.0028358904186964579 0.00010100207684327325 0 -0.0028317377847394418 -5.9694563561226414e-05 0 -0.0034872561946926064 -5.9909078616162556e-05 0 -0.0027654187574584267 8.6491879612990514e-05 0 -0.0029331694296268803 5.6671709047801098e-05 0 -0.0029287754110834375 0.00020655562216289637 0 -0.0028358904186964579 0.00010100207684327325 0 -0.0028973197362672453 0.00015440285042819883 0 -0.0027796207690813251 0.00014629548243713007 0 -0.0028214400852304353 7.1972710918484219e-05 0 -0.0040021604447284956 -0.00062295448679371048 0 -0.0040004090108032245 -0.00044095647224720884 0 -0.0038583094261563518 -0.00049664025707040491 0 -0.0028973197362672453 0.00015440285042819883 0 -0.0028269854747502527 0.00021698542120334257 0 -0.0027796207690813251 0.00014629548243713007 0 -0.0034872561946926064 -5.9909078616162556e-05 0 -0.0033477084608339552 -0.000148345836566596 0 -0.0041068708224005351 -7.8758675946798555e-05 0 -0.0041273360350173776 -7.6939846986742979e-05 0 -0.0041290870684894572 -5.804809808094534e-05 0 -0.0034872561946926064 -5.9909078616162556e-05 0 -0.0042299316848814278 -0.00026212285924535742 0 -0.0040021604447284956 -0.00062295448679371048 0 -0.0041762649806593539 -0.00041547526743520072 0 -0.0040004090108032245 -0.00044095647224720884 0 -0.0040462130191982297 -0.00033176063811816406 0 -0.0041762649806593539 -0.00041547526743520072 0 -0.0040004090108032245 -0.00044095647224720884 0 -0.0039119062695450605 -0.00033766300378562631 0 -0.0040004090108032245 -0.00044095647224720884 0 -0.0038583094261563518 -0.00049664025707040491 0 -0.0039119062695450605 -0.00033766300378562631 0 -0.0038583094261563518 -0.00049664025707040491 0 -0.003818432145901913 -0.00035719919378545756 0 -0.0039119062695450605 -0.00033766300378562631 0 -0.0040462130191982297 -0.00033176063811816406 0 -0.0040004090108032245 -0.00044095647224720884 0 -0.0028269854747502527 0.00021698542120334257 0 -0.0027597472423301545 0.00027828635254273723 0 -0.0027796207690813251 0.00014629548243713007 0 -0.0033477084608339552 -0.000148345836566596 0 -0.0032098570525134003 -0.00012129735524882878 0 -0.0038583094261563518 -0.00049664025707040491 0 -0.003818432145901913 -0.00035719919378545756 0 -0.003706884448286661 -0.00036528479594009878 0 -0.0032098570525134003 -0.00012129735524882878 0 -0.0026835822495110137 0.00012629572821086662 0 -0.0027924795439046184 -7.2466012335617439e-05 0 -0.0028204058805683008 3.03226569618347e-05 0 -0.0028579089228789353 -5.9216002720398746e-05 0 -0.0027924795439046184 -7.2466012335617439e-05 0 -0.0027725200397039204 -5.3321260035452989e-05 0 -0.0028204058805683008 3.03226569618347e-05 0 -0.0027597472423301545 0.00027828635254273723 0 -0.0026773293873496281 0.00016949063197481821 0 -0.0027796207690813251 0.00014629548243713007 0 -0.0027796207690813251 0.00014629548243713007 0 -0.0028214400852304353 7.1972710918484219e-05 0 -0.0027171412141334971 7.8758895497627149e-05 0 -0.0028214400852304353 7.1972710918484219e-05 0 -0.0027171412141334971 7.8758895497627149e-05 0 -0.0027460831360736127 -9.6461090772869185e-06 0 -0.0027654187574584267 8.6491879612990514e-05 0 -0.0027686615930741093 4.2803379256048033e-06 0 -0.0028358904186964579 0.00010100207684327325 0 -0.0028317377847394418 -5.9694563561226414e-05 0 -0.0027460831360736127 -9.6461090772869185e-06 0 -0.0027171412141334971 7.8758895497627149e-05 0 -0.0026371312139956454 -4.1303569830913806e-05 0 -0.0027460831360736127 -9.6461090772869185e-06 0 -0.0026773293873496281 0.00016949063197481821 0 -0.0027796207690813251 0.00014629548243713007 0 -0.0027171412141334971 7.8758895497627149e-05 0 -0.0026773293873496281 0.00016949063197481821 0 -0.0027171412141334971 7.8758895497627149e-05 0 -0.0025880148200776863 5.5464275808311258e-05 0 -0.0026835822495110137 0.00012629572821086662 0 -0.0026813218601224381 3.3576205956298733e-05 0 -0.0028204058805683008 3.03226569618347e-05 0 -0.0027470802684580716 4.1876128907300565e-07 0 -0.0027978489735649313 2.1968653935965725e-05 0 -0.0027171412141334971 7.8758895497627149e-05 0 -0.0025880148200776863 5.5464275808311258e-05 0 -0.0026371312139956454 -4.1303569830913806e-05 0 -0.0027470802684580716 4.1876128907300565e-07 0 -0.002635023839037316 4.6115794269374035e-08 0 -0.0024152165499594256 -1.3710999257294281e-07 0 -0.0026813218601224381 3.3576205956298733e-05 0 -0.0024094969226090605 -1.6820317103872493e-05 0 -0.002635023839037316 4.6115794269374035e-08 0 -0.0027978489735649313 2.1968653935965725e-05 0 -0.0028552870566449467 1.1491871807126538e-07 0 -0.0027470802684580716 4.1876128907300565e-07 0 -0.002635023839037316 4.6115794269374035e-08 0 -0.0027978489735649313 2.1968653935965725e-05 0 -0.002874847278795611 1.9431978102403389e-05 0 -0.0028552870566449467 1.1491871807126538e-07 0 -0.0030749254366824563 -1.8321805317781188e-07 0 -0.0027978489735649313 2.1968653935965725e-05 0 -0.002874847278795611 1.9431978102403389e-05 0 -0.0028552870566449467 1.1491871807126538e-07 0 -0.0028204058805683008 3.03226569618347e-05 0 -0.0027978489735649313 2.1968653935965725e-05 0 -0.002874847278795611 1.9431978102403389e-05 0 -0.0028204058805683008 3.03226569618347e-05 0 -0.002874847278795611 1.9431978102403389e-05 0 -0.0028579089228789353 -5.9216002720398746e-05 0 -0.002874847278795611 1.9431978102403389e-05 0 -0.0028579089228789353 -5.9216002720398746e-05 0 -0.0030749254366824563 -1.8321805317781188e-07 0 -0.0029708774772290386 -1.6422409510187475e-05 0 -0.0030753848656359054 3.1032829023862471e-09 0 -0.0042069076602625861 -9.0117356427729539e-05 0 -0.0042020810530036404 -8.9956426161818471e-05 0 -0.0041995793841198958 -8.4327601169651543e-05 0 -0.0042069076602625861 -9.0117356427729539e-05 0 -0.0042020810530036404 -8.9956426161818471e-05 0 -0.0042068706942115048 -9.2291476020215691e-05 0 -0.0042990645313665532 -4.7412639956869953e-05 0 -0.0043085024193061459 -3.5034755800767996e-05 0 -0.0042069076602625861 -9.0117356427729539e-05 0 -0.0042199475734729487 -9.1318529066832224e-05 0 -0.0042068706942115048 -9.2291476020215691e-05 0 -0.0043949434349378124 1.4757224460000099e-05 0 -0.0043810980890091455 -1.4876472971035592e-05 0 -0.0044232917047038007 3.02379457758494e-05 0 -0.0042990645313665532 -4.7412639956869953e-05 0 -0.0042641631165896343 -6.4764018082482186e-05 0 -0.0042199475734729487 -9.1318529066832224e-05 0 -0.0041995793841198958 -8.4327601169651543e-05 0 -0.0041993722766485719 -7.0996362901412489e-05 0 -0.0041995793841198958 -8.4327601169651543e-05 0 -0.0041993722766485719 -7.0996362901412489e-05 0 -0.0041947073387983468 -7.6925828069402977e-05 0 -0.0042069076602625861 -9.0117356427729539e-05 0 -0.0042199475734729487 -9.1318529066832224e-05 0 -0.0041995793841198958 -8.4327601169651543e-05 0 -0.0041995793841198958 -8.4327601169651543e-05 0 -0.0041925636974516319 -8.076478499551953e-05 0 -0.0041947073387983468 -7.6925828069402977e-05 0 -0.0041995793841198958 -8.4327601169651543e-05 0 -0.0041925636974516319 -8.076478499551953e-05 0 -0.0041971929949057964 -8.6193328704829909e-05 0 -0.0041891958706985963 -7.7512837292100412e-05 0 -0.0041901076138868209 -8.2441277935558607e-05 0 -0.0041925636974516319 -8.076478499551953e-05 0 -0.0041925636974516319 -8.076478499551953e-05 0 -0.0041936686823147492 -8.5981183290060324e-05 0 -0.0041971929949057964 -8.6193328704829909e-05 0 -0.0041901076138868209 -8.2441277935558607e-05 0 -0.0041925636974516319 -8.076478499551953e-05 0 -0.0041936686823147492 -8.5981183290060324e-05 0 -0.0041901076138868209 -8.2441277935558607e-05 0 -0.0041891432520747953 -8.6562339531843859e-05 0 -0.0041936686823147492 -8.5981183290060324e-05 0 -0.0042020810530036404 -8.9956426161818471e-05 0 -0.0041995793841198958 -8.4327601169651543e-05 0 -0.0041971929949057964 -8.6193328704829909e-05 0 -0.0041936686823147492 -8.5981183290060324e-05 0 -0.0041971929949057964 -8.6193328704829909e-05 0 -0.0041985233629979034 -8.9951911261154568e-05 0 -0.0042020810530036404 -8.9956426161818471e-05 0 -0.0041971929949057964 -8.6193328704829909e-05 0 -0.0041985233629979034 -8.9951911261154568e-05 0 -0.0042020810530036404 -8.9956426161818471e-05 0 -0.0041985233629979034 -8.9951911261154568e-05 0 -0.0042021879203023591 -9.20024031181329e-05 0 -0.0041985233629979034 -8.9951911261154568e-05 0 -0.0041954578907159659 -9.1130187944413264e-05 0 -0.0041998549108317957 -9.2964469224583043e-05 0 -0.0041985233629979034 -8.9951911261154568e-05 0 -0.0042021879203023591 -9.20024031181329e-05 0 -0.0041998549108317957 -9.2964469224583043e-05 0 -0.0042021879203023591 -9.20024031181329e-05 0 -0.0041998549108317957 -9.2964469224583043e-05 0 -0.004203228857827499 -9.4022069144016266e-05 0 -0.0041936686823147492 -8.5981183290060324e-05 0 -0.0041985233629979034 -8.9951911261154568e-05 0 -0.0041954578907159659 -9.1130187944413264e-05 0 -0.0041891432520747953 -8.6562339531843859e-05 0 -0.0041936686823147492 -8.5981183290060324e-05 0 -0.0041954578907159659 -9.1130187944413264e-05 0 -0.0041958548177245623 -9.5379238187669549e-05 0 -0.0041968042490718189 -9.3673822083929653e-05 0 -0.0042000598163943765 -9.4838288311142703e-05 0 -0.004193603778217269 -9.2945443468679813e-05 0 -0.0041954578907159659 -9.1130187944413264e-05 0 -0.0041968042490718189 -9.3673822083929653e-05 0 -0.0041954578907159659 -9.1130187944413264e-05 0 -0.0041968042490718189 -9.3673822083929653e-05 0 -0.0041998549108317957 -9.2964469224583043e-05 0 -0.0041998549108317957 -9.2964469224583043e-05 0 -0.0042000598163943765 -9.4838288311142703e-05 0 -0.004203228857827499 -9.4022069144016266e-05 0 -0.0041968042490718189 -9.3673822083929653e-05 0 -0.0041998549108317957 -9.2964469224583043e-05 0 -0.0042000598163943765 -9.4838288311142703e-05 0 -0.0043724641297180674 4.9496177707275309e-06 0 -0.0045066301116647514 9.396887738304128e-05 0 -0.0043798418829237313 1.3657891190333355e-05 0 -0.0044323326101739675 3.0106444369385865e-05 0 -0.0044396952286522191 4.3705315954840432e-05 0 -0.0043724641297180674 4.9496177707275309e-06 0 -0.004365085242701329 -1.9848623032217811e-05 0 -0.0046475115252458104 0.00013483944133640808 0 -0.0046356375067076912 0.00012756100137621598 0 -0.0046275101536131643 9.3877829781360521e-05 0 -0.0046386075276001366 0.00014066366201557706 0 -0.0046475115252458104 0.00013483944133640808 0 -0.0046356375067076912 0.00012756100137621598 0 -0.0043460705666436995 -1.3976955055306012e-06 0 -0.0043729983831290618 1.2406326626891179e-05 0 -0.0043819346822388449 2.1227565571068766e-06 0 -0.0045066301116647514 9.396887738304128e-05 0 -0.0044961278572515639 4.705569698728036e-05 0 -0.0043430028665832603 -6.8414414180756006e-06 0 -0.0043460705666436995 -1.3976955055306012e-06 0 -0.0043819346822388449 2.1227565571068766e-06 0 -0.0045066301116647514 9.396887738304128e-05 0 -0.004365085242701329 -1.9848623032217811e-05 0 -0.0046386075276001366 0.00014066366201557706 0 -0.0046321159774205707 0.00013884258660237182 0 -0.0046356375067076912 0.00012756100137621598 0 -0.004365085242701329 -1.9848623032217811e-05 0 -0.0044016090903624388 2.89726949478256e-05 0 -0.004365085242701329 -1.9848623032217811e-05 0 -0.0043085024193061459 -3.5034755800767996e-05 0 -0.0042021879203023591 -9.20024031181329e-05 0 -0.004203228857827499 -9.4022069144016266e-05 0 -0.0042068706942115048 -9.2291476020215691e-05 0 -0.0044241890562727549 4.1496894522939232e-05 0 -0.0044232917047038007 3.02379457758494e-05 0 -0.0044173478327522797 3.7898615328412439e-05 0 -0.0042020810530036404 -8.9956426161818471e-05 0 -0.0042021879203023591 -9.20024031181329e-05 0 -0.0042068706942115048 -9.2291476020215691e-05 0 -0.0043949434349378124 1.4757224460000099e-05 0 -0.0044128451844433463 3.3937049952757795e-05 0 -0.0044143430266409328 3.9947980373765732e-05 0 -0.0043949434349378124 1.4757224460000099e-05 0 -0.0044232917047038007 3.02379457758494e-05 0 -0.0044128451844433463 3.3937049952757795e-05 0 -0.0044232917047038007 3.02379457758494e-05 0 -0.0044128451844433463 3.3937049952757795e-05 0 -0.0044173478327522797 3.7898615328412439e-05 0 -0.0044128451844433463 3.3937049952757795e-05 0 -0.0044173478327522797 3.7898615328412439e-05 0 -0.0044143430266409328 3.9947980373765732e-05 0 -0.0043729983831290618 1.2406326626891179e-05 0 -0.0043819346822388449 2.1227565571068766e-06 0 -0.0044143430266409328 3.9947980373765732e-05 0 -0.0044016090903624388 2.89726949478256e-05 0 -0.0044105581692566696 3.6307677014621783e-05 0 -0.0046275101536131643 9.3877829781360521e-05 0 -0.0045972766728484896 0.00012174023797964448 0 -0.0045477571591720179 0.00010016154900121518 0 -0.0046275101536131643 9.3877829781360521e-05 0 -0.0046223962860090671 0.00012770837275485737 0 -0.0045972766728484896 0.00012174023797964448 0 -0.0046356375067076912 0.00012756100137621598 0 -0.0046275101536131643 9.3877829781360521e-05 0 -0.0046223962860090671 0.00012770837275485737 0 -0.0046321159774205707 0.00013884258660237182 0 -0.0046356375067076912 0.00012756100137621598 0 -0.0046223962860090671 0.00012770837275485737 0 -0.0045972766728484896 0.00012174023797964448 0 -0.0045770573505370029 0.00013562171658013474 0 -0.0045477571591720179 0.00010016154900121518 0 -0.0046223962860090671 0.00012770837275485737 0 -0.0045972766728484896 0.00012174023797964448 0 -0.0046051865185355876 0.00013685099559814184 0 -0.0045972766728484896 0.00012174023797964448 0 -0.0046051865185355876 0.00013685099559814184 0 -0.0045770573505370029 0.00013562171658013474 0 -0.0045770573505370029 0.00013562171658013474 0 -0.0045477571591720179 0.00010016154900121518 0 -0.004517220552692716 0.00011584474057264738 0 -0.0046275101536131643 9.3877829781360521e-05 0 -0.0045477571591720179 0.00010016154900121518 0 -0.0044592446397846508 4.206800229252994e-05 0 -0.0045765454922049049 0.00015621099817023434 0 -0.0045770573505370029 0.00013562171658013474 0 -0.004517220552692716 0.00011584474057264738 0 -0.0045477571591720179 0.00010016154900121518 0 -0.004517220552692716 0.00011584474057264738 0 -0.0044592446397846508 4.206800229252994e-05 0 -0.004517220552692716 0.00011584474057264738 0 -0.0044346780399310603 6.509235859814069e-05 0 -0.0044592446397846508 4.206800229252994e-05 0 -0.0044865423300538745 0.00013022968689747021 0 -0.0044346780399310603 6.509235859814069e-05 0 -0.0043337811929969267 0.00011585224131244801 0 -0.0045523325329158417 0.00015786893103002779 0 -0.004517220552692716 0.00011584474057264738 0 -0.0044865423300538745 0.00013022968689747021 0 -0.004517220552692716 0.00011584474057264738 0 -0.0044865423300538745 0.00013022968689747021 0 -0.0044346780399310603 6.509235859814069e-05 0 -0.0044032862752548911 3.4357291262184161e-05 0 -0.004341226573494535 2.6633467478512312e-05 0 -0.0043589265724512183 4.9376349336801416e-06 0 -0.0044346780399310603 6.509235859814069e-05 0 -0.0044032862752548911 3.4357291262184161e-05 0 -0.0044592446397846508 4.206800229252994e-05 0 -0.0044346780399310603 6.509235859814069e-05 0 -0.0044032862752548911 3.4357291262184161e-05 0 -0.004341226573494535 2.6633467478512312e-05 0 -0.0043819346822388449 2.1227565571068766e-06 0 -0.0044143430266409328 3.9947980373765732e-05 0 -0.0044592446397846508 4.206800229252994e-05 0 -0.0044961278572515639 4.705569698728036e-05 0 -0.0044655498449297799 4.1665962276840962e-05 0 -0.0044032862752548911 3.4357291262184161e-05 0 -0.0044082688691081786 3.3050674171235185e-05 0 -0.0043589265724512183 4.9376349336801416e-06 0 -0.0044032862752548911 3.4357291262184161e-05 0 -0.0044082688691081786 3.3050674171235185e-05 0 -0.0044592446397846508 4.206800229252994e-05 0 -0.0044082688691081786 3.3050674171235185e-05 0 -0.0044143430266409328 3.9947980373765732e-05 0 -0.0044592446397846508 4.206800229252994e-05 0 -0.0043949434349378124 1.4757224460000099e-05 0 -0.0044082688691081786 3.3050674171235185e-05 0 -0.0044143430266409328 3.9947980373765732e-05 0 -0.0044642491985625258 0.00014710033853591796 0 -0.0044111512105116978 2.4777832059659024e-05 0 -0.0046144952857692552 5.8289460191551658e-05 0 -0.0044111512105116978 2.4777832059659024e-05 0 -0.0046144952857692552 5.8289460191551658e-05 0 -0.0044364984879838318 -0.00013061979126869892 0 -0.0044346780399310603 6.509235859814069e-05 0 -0.0043337811929969267 0.00011585224131244801 0 -0.004341226573494535 2.6633467478512312e-05 0 -0.0043337811929969267 0.00011585224131244801 0 -0.004341226573494535 2.6633467478512312e-05 0 -0.0042165198189304436 3.2110313951632509e-05 0 -0.0044708765302337175 8.172530976850316e-05 0 -0.0043306979604668221 -4.6974642674444411e-05 0 -0.0042165198189304436 3.2110313951632509e-05 0 -0.004268156960378508 -3.8646035711620888e-06 0 -0.0042191333950518011 -3.5669673103910635e-05 0 -0.004341226573494535 2.6633467478512312e-05 0 -0.004268156960378508 -3.8646035711620888e-06 0 -0.0042870114870661117 -2.2990214487142597e-05 0 -0.004268156960378508 -3.8646035711620888e-06 0 -0.0042191333950518011 -3.5669673103910635e-05 0 -0.0042870114870661117 -2.2990214487142597e-05 0 -0.004341226573494535 2.6633467478512312e-05 0 -0.0042165198189304436 3.2110313951632509e-05 0 -0.004268156960378508 -3.8646035711620888e-06 0 -0.0042191333950518011 -3.5669673103910635e-05 0 -0.0042870114870661117 -2.2990214487142597e-05 0 -0.0042370446390098413 -6.0336171864557497e-05 0 -0.0043949434349378124 1.4757224460000099e-05 0 -0.0043810980890091455 -1.4876472971035592e-05 0 -0.0043589265724512183 4.9376349336801416e-06 0 -0.0043949434349378124 1.4757224460000099e-05 0 -0.0044082688691081786 3.3050674171235185e-05 0 -0.0043589265724512183 4.9376349336801416e-06 0 -0.004341226573494535 2.6633467478512312e-05 0 -0.0043589265724512183 4.9376349336801416e-06 0 -0.0042870114870661117 -2.2990214487142597e-05 0 -0.0042870114870661117 -2.2990214487142597e-05 0 -0.0042974184055240205 -3.7759192513799914e-05 0 -0.0042370446390098413 -6.0336171864557497e-05 0 -0.0043589265724512183 4.9376349336801416e-06 0 -0.0042870114870661117 -2.2990214487142597e-05 0 -0.0042974184055240205 -3.7759192513799914e-05 0 -0.0043810980890091455 -1.4876472971035592e-05 0 -0.0042974184055240205 -3.7759192513799914e-05 0 -0.0042526880663322905 -6.8562755685752037e-05 0 -0.0043810980890091455 -1.4876472971035592e-05 0 -0.0043589265724512183 4.9376349336801416e-06 0 -0.0042974184055240205 -3.7759192513799914e-05 0 -0.0042526880663322905 -6.8562755685752037e-05 0 -0.0042023707408186256 -7.1822302020977608e-05 0 -0.0042370446390098413 -6.0336171864557497e-05 0 -0.0042974184055240205 -3.7759192513799914e-05 0 -0.0042526880663322905 -6.8562755685752037e-05 0 -0.0042370446390098413 -6.0336171864557497e-05 0 -0.0042023707408186256 -7.1822302020977608e-05 0 -0.0042370446390098413 -6.0336171864557497e-05 0 -0.0041825488094729734 -7.8001801710366768e-05 0 -0.0042526880663322905 -6.8562755685752037e-05 0 -0.0042023707408186256 -7.1822302020977608e-05 0 -0.0041858817148967154 -6.4658745420144681e-05 0 -0.0041658400538050894 -6.0019044668990623e-05 0 -0.0041947202198800637 -6.0008289241278354e-05 0 -0.0041692388820653761 -7.5808416617333951e-05 0 -0.0041658400538050894 -6.0019044668990623e-05 0 -0.0042191333950518011 -3.5669673103910635e-05 0 -0.0041947202198800637 -6.0008289241278354e-05 0 -0.0041947202198800637 -6.0008289241278354e-05 0 -0.0042370446390098413 -6.0336171864557497e-05 0 -0.0041900649615011099 -7.2952230819297055e-05 0 -0.0042191333950518011 -3.5669673103910635e-05 0 -0.0041947202198800637 -6.0008289241278354e-05 0 -0.0042370446390098413 -6.0336171864557497e-05 0 -0.0042370446390098413 -6.0336171864557497e-05 0 -0.0041825488094729734 -7.8001801710366768e-05 0 -0.0041900649615011099 -7.2952230819297055e-05 0 -0.0041825488094729734 -7.8001801710366768e-05 0 -0.0041900649615011099 -7.2952230819297055e-05 0 -0.0041658666417129552 -8.2508860514961618e-05 0 -0.0041526981955419947 -8.621057840584197e-05 0 -0.0041692388820653761 -7.5808416617333951e-05 0 -0.0041658666417129552 -8.2508860514961618e-05 0 -0.0041947202198800637 -6.0008289241278354e-05 0 -0.0041900649615011099 -7.2952230819297055e-05 0 -0.0041692388820653761 -7.5808416617333951e-05 0 -0.0041900649615011099 -7.2952230819297055e-05 0 -0.0041692388820653761 -7.5808416617333951e-05 0 -0.0041658666417129552 -8.2508860514961618e-05 0 -0.0041526981955419947 -8.621057840584197e-05 0 -0.0041658666417129552 -8.2508860514961618e-05 0 -0.0041432859393274015 -8.7098596550032868e-05 0 -0.0041658666417129552 -8.2508860514961618e-05 0 -0.0041496965176117152 -8.3352090562109851e-05 0 -0.0041432859393274015 -8.7098596550032868e-05 0 -0.0041526981955419947 -8.621057840584197e-05 0 -0.004141634637592346 -8.8425739924024931e-05 0 -0.0041432859393274015 -8.7098596550032868e-05 0 -0.0041825488094729734 -7.8001801710366768e-05 0 -0.0041496965176117152 -8.3352090562109851e-05 0 -0.0041434332915433201 -7.8080075806103214e-05 0 -0.0041825488094729734 -7.8001801710366768e-05 0 -0.0041658666417129552 -8.2508860514961618e-05 0 -0.0041496965176117152 -8.3352090562109851e-05 0 -0.0041496965176117152 -8.3352090562109851e-05 0 -0.0041218418827633167 -8.2853727977396017e-05 0 -0.0041434332915433201 -7.8080075806103214e-05 0 -0.0041496965176117152 -8.3352090562109851e-05 0 -0.0041218418827633167 -8.2853727977396017e-05 0 -0.0041432859393274015 -8.7098596550032868e-05 0 -0.004141634637592346 -8.8425739924024931e-05 0 -0.0041269595210278896 -8.3691953021737246e-05 0 -0.0041357901261804848 -7.8824123276741357e-05 0 -0.0041218418827633167 -8.2853727977396017e-05 0 -0.0041432859393274015 -8.7098596550032868e-05 0 -0.0041269595210278896 -8.3691953021737246e-05 0 -0.004141634637592346 -8.8425739924024931e-05 0 -0.0041432859393274015 -8.7098596550032868e-05 0 -0.0041269595210278896 -8.3691953021737246e-05 0 -0.0042023707408186256 -7.1822302020977608e-05 0 -0.0041434332915433201 -7.8080075806103214e-05 0 -0.0041858817148967154 -6.4658745420144681e-05 0 -0.0041434332915433201 -7.8080075806103214e-05 0 -0.0041229849208290759 -7.6881994239292456e-05 0 -0.0041858817148967154 -6.4658745420144681e-05 0 -0.0042023707408186256 -7.1822302020977608e-05 0 -0.0041825488094729734 -7.8001801710366768e-05 0 -0.0041434332915433201 -7.8080075806103214e-05 0 -0.0041434332915433201 -7.8080075806103214e-05 0 -0.0040901541712651153 -8.1751725920868159e-05 0 -0.0040901087373567836 -7.6040000693563002e-05 0 -0.0041218418827633167 -8.2853727977396017e-05 0 -0.0041434332915433201 -7.8080075806103214e-05 0 -0.0040901087373567836 -7.6040000693563002e-05 0 -0.0041434332915433201 -7.8080075806103214e-05 0 -0.0041229849208290759 -7.6881994239292456e-05 0 -0.0040901541712651153 -8.1751725920868159e-05 0 -0.0041229849208290759 -7.6881994239292456e-05 0 -0.0041656216000533373 -7.0890861676672283e-05 0 -0.0041858817148967154 -6.4658745420144681e-05 0 -0.0041229849208290759 -7.6881994239292456e-05 0 -0.0041656216000533373 -7.0890861676672283e-05 0 -0.0041367148123643239 -0.00010017839201029623 0 -0.0041656216000533373 -7.0890861676672283e-05 0 -0.0041865706542655902 -8.4955764271823199e-05 0 -0.0041367148123643239 -0.00010017839201029623 0 -0.0041656216000533373 -7.0890861676672283e-05 0 -0.0041851455866821373 -6.8135032752886297e-05 0 -0.0041844827365076429 -7.1421758187979447e-05 0 -0.0041656216000533373 -7.0890861676672283e-05 0 -0.0041858817148967154 -6.4658745420144681e-05 0 -0.0041851455866821373 -6.8135032752886297e-05 0 -0.0042526880663322905 -6.8562755685752037e-05 0 -0.0041858817148967154 -6.4658745420144681e-05 0 -0.0041993722766485719 -7.0996362901412489e-05 0 -0.0041858817148967154 -6.4658745420144681e-05 0 -0.0041851455866821373 -6.8135032752886297e-05 0 -0.0041993722766485719 -7.0996362901412489e-05 0 -0.0041851455866821373 -6.8135032752886297e-05 0 -0.0041993722766485719 -7.0996362901412489e-05 0 -0.0041892933801625223 -7.2646923715715851e-05 0 -0.0042199475734729487 -9.1318529066832224e-05 0 -0.0042526880663322905 -6.8562755685752037e-05 0 -0.0041993722766485719 -7.0996362901412489e-05 0 -0.0041891958706985963 -7.7512837292100412e-05 0 -0.0041925636974516319 -8.076478499551953e-05 0 -0.0041892933801625223 -7.2646923715715851e-05 0 -0.0041891958706985963 -7.7512837292100412e-05 0 -0.0041885575797201736 -7.6911775274701827e-05 0 -0.0041892933801625223 -7.2646923715715851e-05 0 -0.0041925636974516319 -8.076478499551953e-05 0 -0.0041947073387983468 -7.6925828069402977e-05 0 -0.0041892933801625223 -7.2646923715715851e-05 0 -0.0041993722766485719 -7.0996362901412489e-05 0 -0.0041947073387983468 -7.6925828069402977e-05 0 -0.0041892933801625223 -7.2646923715715851e-05 0 -0.0041851455866821373 -6.8135032752886297e-05 0 -0.0041892933801625223 -7.2646923715715851e-05 0 -0.0041844827365076429 -7.1421758187979447e-05 0 -0.0041885575797201736 -7.6911775274701827e-05 0 -0.0041892933801625223 -7.2646923715715851e-05 0 -0.0041901812059254098 -7.5924066245406242e-05 0 -0.0041901812059254098 -7.5924066245406242e-05 0 -0.0041844827365076429 -7.1421758187979447e-05 0 -0.0041865706542655902 -8.4955764271823199e-05 0 -0.0041892933801625223 -7.2646923715715851e-05 0 -0.0041901812059254098 -7.5924066245406242e-05 0 -0.0041844827365076429 -7.1421758187979447e-05 0 -0.0041656216000533373 -7.0890861676672283e-05 0 -0.0041844827365076429 -7.1421758187979447e-05 0 -0.0041865706542655902 -8.4955764271823199e-05 0 -0.0041951492797228365 -8.4936203215278292e-05 0 -0.0041901812059254098 -7.5924066245406242e-05 0 -0.0041865706542655902 -8.4955764271823199e-05 0 -0.0041865706542655902 -8.4955764271823199e-05 0 -0.0042023481872755942 -0.00010203515097329743 0 -0.0041885023042106144 -0.00015057187170617115 0 -0.0041951492797228365 -8.4936203215278292e-05 0 -0.0041865706542655902 -8.4955764271823199e-05 0 -0.0042023481872755942 -0.00010203515097329743 0 -0.0041865706542655902 -8.4955764271823199e-05 0 -0.0041885023042106144 -0.00015057187170617115 0 -0.0041367148123643239 -0.00010017839201029623 0 -0.0043363104419645105 -0.00013743858142651604 0 -0.0041481269293497467 -0.00021409919411401339 0 -0.0042313971329974477 -0.00023962089951637012 0 -0.0041725948833570992 -0.00025036068940152592 0 -0.0042303633759116291 -0.0002614437196471756 0 -0.0041725948833570992 -0.00025036068940152592 0 -0.0042303633759116291 -0.0002614437196471756 0 -0.0042517588069451526 -0.00030343472250591062 0 -0.0041725948833570992 -0.00025036068940152592 0 -0.0041700093639141277 -0.00032843697407966945 0 -0.0042517588069451526 -0.00030343472250591062 0 -0.0041700093639141277 -0.00032843697407966945 0 -0.0042427378328734125 -0.00040140428820273116 0 -0.0042517588069451526 -0.00030343472250591062 0 -0.0034498454353043845 -0.00041083719176709255 0 -0.0034591577561924355 -0.00038294796703146057 0 -0.0040842874278413646 -0.00025762529430870039 0 -0.0039690684178682193 -0.00029708462568714888 0 -0.0040741342802908531 -0.00040901896958370383 0 -0.0039690684178682193 -0.00029708462568714888 0 -0.0039381875550154486 -0.00043691760147299212 0 -0.0040741342802908531 -0.00040901896958370383 0 -0.0041700093639141277 -0.00032843697407966945 0 -0.0040842874278413646 -0.00025762529430870039 0 -0.0040741342802908531 -0.00040901896958370383 0 -0.0041725948833570992 -0.00025036068940152592 0 -0.0041700093639141277 -0.00032843697407966945 0 -0.0040842874278413646 -0.00025762529430870039 0 -0.0041481269293497467 -0.00021409919411401339 0 -0.0040981692032974566 -0.00025116127002540646 0 -0.0040842874278413646 -0.00025762529430870039 0 -0.0039955826602135714 -0.00021605768226087225 0 -0.0039690684178682193 -0.00029708462568714888 0 -0.0040842874278413646 -0.00025762529430870039 0 -0.0040501088154593929 -9.988384066568029e-05 0 -0.0039955826602135714 -0.00021605768226087225 0 -0.0040842874278413646 -0.00025762529430870039 0 -0.0041367148123643239 -0.00010017839201029623 0 -0.0040501088154593929 -9.988384066568029e-05 0 -0.0041885023042106144 -0.00015057187170617115 0 -0.0040842874278413646 -0.00025762529430870039 0 -0.0041367148123643239 -0.00010017839201029623 0 -0.0041229849208290759 -7.6881994239292456e-05 0 -0.0041367148123643239 -0.00010017839201029623 0 -0.0040501088154593929 -9.988384066568029e-05 0 -0.0041229849208290759 -7.6881994239292456e-05 0 -0.0040901541712651153 -8.1751725920868159e-05 0 -0.0040501088154593929 -9.988384066568029e-05 0 -0.0040901087373567836 -7.6040000693563002e-05 0 -0.0040632543483939869 -6.5123592098665541e-05 0 -0.0040576357393079252 -6.290774153029054e-05 0 -0.0040901541712651153 -8.1751725920868159e-05 0 -0.0040901087373567836 -7.6040000693563002e-05 0 -0.0040632543483939869 -6.5123592098665541e-05 0 -0.0040632543483939869 -6.5123592098665541e-05 0 -0.0040501088154593929 -9.988384066568029e-05 0 -0.004077081315586875 -8.3658625568152622e-05 0 -0.0040632543483939869 -6.5123592098665541e-05 0 -0.0039759614186653681 -3.597905611200161e-05 0 -0.004077081315586875 -8.3658625568152622e-05 0 -0.0040901541712651153 -8.1751725920868159e-05 0 -0.0040632543483939869 -6.5123592098665541e-05 0 -0.0040501088154593929 -9.988384066568029e-05 0 -0.0040368991677386824 -0.00010112838176219472 0 -0.00395409636302008 -0.00015519060944657267 0 -0.0041027790587192864 -7.5982050538133254e-05 0 -0.0041007844753163285 -5.311828897660211e-05 0 -0.0041346714483146505 -7.3347499478752305e-05 0 -0.0041269595210278896 -8.3691953021737246e-05 0 -0.0041027790587192864 -7.5982050538133254e-05 0 -0.0041346714483146505 -7.3347499478752305e-05 0 -0.0039153819580196392 5.9079525145132676e-05 0 -0.0037299344998557799 2.2746361295404717e-06 0 -0.0041305309073913611 5.0381163877247802e-06 0 -0.0037299344998557799 2.2746361295404717e-06 0 -0.0041218418827633167 -8.2853727977396017e-05 0 -0.0041269595210278896 -8.3691953021737246e-05 0 -0.0041027790587192864 -7.5982050538133254e-05 0 -0.0040901087373567836 -7.6040000693563002e-05 0 -0.0041027790587192864 -7.5982050538133254e-05 0 -0.0040576357393079252 -6.290774153029054e-05 0 -0.0041218418827633167 -8.2853727977396017e-05 0 -0.0040901087373567836 -7.6040000693563002e-05 0 -0.0041027790587192864 -7.5982050538133254e-05 0 -0.0040632543483939869 -6.5123592098665541e-05 0 -0.0040576357393079252 -6.290774153029054e-05 0 -0.0039759614186653681 -3.597905611200161e-05 0 -0.0040576357393079252 -6.290774153029054e-05 0 -0.0041007844753163285 -5.311828897660211e-05 0 -0.0039759614186653681 -3.597905611200161e-05 0 -0.0039153819580196392 5.9079525145132676e-05 0 -0.0039793644192767392 -2.7206998749418224e-05 0 -0.0041027790587192864 -7.5982050538133254e-05 0 -0.0040576357393079252 -6.290774153029054e-05 0 -0.0041007844753163285 -5.311828897660211e-05 0 -0.0037282569004582554 0.00017376549196347014 0 -0.0035728633491213025 -0.0001235944647254703 0 -0.0034859163160747028 0.00011615202002074748 0 -0.0037282569004582554 0.00017376549196347014 0 -0.0035244752799266366 0.00035152160737419584 0 -0.0034859163160747028 0.00011615202002074748 0 -0.0037282569004582554 0.00017376549196347014 0 -0.0035728633491213025 -0.0001235944647254703 0 -0.0037974040012165133 -0.00016647410157010615 0 -0.0037974040012165133 -0.00016647410157010615 0 -0.0039759614186653681 -3.597905611200161e-05 0 -0.0039197855159398406 -0.00028643715498893755 0 -0.0037282569004582554 0.00017376549196347014 0 -0.0037974040012165133 -0.00016647410157010615 0 -0.0039759614186653681 -3.597905611200161e-05 0 -0.0039759614186653681 -3.597905611200161e-05 0 -0.0039197855159398406 -0.00028643715498893755 0 -0.004077081315586875 -8.3658625568152622e-05 0 -0.0037974040012165133 -0.00016647410157010615 0 -0.0039197855159398406 -0.00028643715498893755 0 -0.0036772209834495077 -0.00028551511878392049 0 -0.0035728633491213025 -0.0001235944647254703 0 -0.0036772209834495077 -0.00028551511878392049 0 -0.0034519659629184784 -0.00034823467460441709 0 -0.0039197855159398406 -0.00028643715498893755 0 -0.0036772209834495077 -0.00028551511878392049 0 -0.0036416551416603269 -0.00049263234179704261 0 -0.0035728633491213025 -0.0001235944647254703 0 -0.0037974040012165133 -0.00016647410157010615 0 -0.0036772209834495077 -0.00028551511878392049 0 -0.0039955826602135714 -0.00021605768226087225 0 -0.0038361865466838866 -0.00020836671511459623 0 -0.0039690684178682193 -0.00029708462568714888 0 -0.0040501088154593929 -9.988384066568029e-05 0 -0.0039955826602135714 -0.00021605768226087225 0 -0.0038361865466838866 -0.00020836671511459623 0 -0.003782842142544561 -0.00031891097620403102 0 -0.00395409636302008 -0.00015519060944657267 0 -0.0038361865466838866 -0.00020836671511459623 0 -0.0037862932606118962 -0.00030878212734625958 0 -0.0039690684178682193 -0.00029708462568714888 0 -0.0037862932606118962 -0.00030878212734625958 0 -0.0038561030418173469 -0.00048231476072747615 0 -0.0037461560390001755 -0.00042978329287794232 0 -0.0037891551927794129 -0.00031438287581731221 0 -0.0038924528354900147 -0.00045483714053230962 0 -0.0036508358637148981 -0.00035682710997953269 0 -0.0038361865466838866 -0.00020836671511459623 0 -0.0037862932606118962 -0.00030878212734625958 0 -0.0036508358637148981 -0.00035682710997953269 0 -0.0037862932606118962 -0.00030878212734625958 0 -0.0037461560390001755 -0.00042978329287794232 0 -0.0037862932606118962 -0.00030878212734625958 0 -0.0039690684178682193 -0.00029708462568714888 0 -0.0039381875550154486 -0.00043691760147299212 0 -0.0036508358637148981 -0.00035682710997953269 0 -0.0036930035299676959 -0.00053468260101028817 0 -0.0037461560390001755 -0.00042978329287794232 0 -0.0038561030418173469 -0.00048231476072747615 0 -0.0036930035299676959 -0.00053468260101028817 0 -0.0037461560390001755 -0.00042978329287794232 0 -0.0036930035299676959 -0.00053468260101028817 0 -0.0038103235765171444 -0.00061053354480482074 0 -0.0037003309813193504 -0.0007102717125746441 0 -0.0038561030418173469 -0.00048231476072747615 0 -0.0036930035299676959 -0.00053468260101028817 0 -0.0038103235765171444 -0.00061053354480482074 0 -0.0038561030418173469 -0.00048231476072747615 0 -0.0038103235765171444 -0.00061053354480482074 0 -0.00395203337064367 -0.0006287183412830177 0 -0.0038103235765171444 -0.00061053354480482074 0 -0.0038380857563996016 -0.00069850793261612345 0 -0.00395203337064367 -0.0006287183412830177 0 -0.0036772209834495077 -0.00028551511878392049 0 -0.0036416551416603269 -0.00049263234179704261 0 -0.0034519659629184784 -0.00034823467460441709 0 -0.0036416551416603269 -0.00049263234179704261 0 -0.0034519659629184784 -0.00034823467460441709 0 -0.0033722028097663459 -0.00064228062852064326 0 -0.0036508358637148981 -0.00035682710997953269 0 -0.0036930035299676959 -0.00053468260101028817 0 -0.0035049812876877637 -0.00049657391801861646 0 -0.003782842142544561 -0.00031891097620403102 0 -0.0035734388582214201 -0.00049208863219856217 0 -0.0036930035299676959 -0.00053468260101028817 0 -0.0035404489889973006 -0.00066619356167670345 0 -0.0037003309813193504 -0.0007102717125746441 0 -0.0036930035299676959 -0.00053468260101028817 0 -0.0035049812876877637 -0.00049657391801861646 0 -0.0035404489889973006 -0.00066619356167670345 0 -0.0035734388582214201 -0.00049208863219856217 0 -0.0033951834011885255 -0.00063315151719267257 0 -0.0035049812876877637 -0.00049657391801861646 0 -0.0035404489889973006 -0.00066619356167670345 0 -0.0033722028097663459 -0.00064228062852064326 0 -0.003415285633382521 -0.00076388853402264609 0 -0.0035404489889973006 -0.00066619356167670345 0 -0.0033722028097663459 -0.00064228062852064326 0 -0.003415285633382521 -0.00076388853402264609 0 -0.0035404489889973006 -0.00066619356167670345 0 -0.0035405239096667446 -0.00082103724040908884 0 -0.0035404489889973006 -0.00066619356167670345 0 -0.0035405239096667446 -0.00082103724040908884 0 -0.0037003309813193504 -0.0007102717125746441 0 -0.0035405239096667446 -0.00082103724040908884 0 -0.0036692481887711558 -0.00085398818373238496 0 -0.0035263939028798152 -0.00095082595116910038 0 -0.0035405239096667446 -0.00082103724040908884 0 -0.0037003309813193504 -0.0007102717125746441 0 -0.0036692481887711558 -0.00085398818373238496 0 -0.0035405239096667446 -0.00082103724040908884 0 -0.0033192712241783074 -0.00093836734563207207 0 -0.0035263939028798152 -0.00095082595116910038 0 -0.003415285633382521 -0.00076388853402264609 0 -0.0035405239096667446 -0.00082103724040908884 0 -0.0033192712241783074 -0.00093836734563207207 0 -0.0038103235765171444 -0.00061053354480482074 0 -0.0038380857563996016 -0.00069850793261612345 0 -0.0037003309813193504 -0.0007102717125746441 0 -0.0038380857563996016 -0.00069850793261612345 0 -0.0037003309813193504 -0.0007102717125746441 0 -0.0037774056916142222 -0.00078908253779812068 0 -0.0037003309813193504 -0.0007102717125746441 0 -0.0036692481887711558 -0.00085398818373238496 0 -0.0037774056916142222 -0.00078908253779812068 0 -0.0036692481887711558 -0.00085398818373238496 0 -0.0037610591138274563 -0.00086819394837653525 0 -0.0037774056916142222 -0.00078908253779812068 0 -0.0038380857563996016 -0.00069850793261612345 0 -0.0037774056916142222 -0.00078908253779812068 0 -0.0038687719298293893 -0.00082584295461672955 0 -0.0037610591138274563 -0.00086819394837653525 0 -0.0038687719298293893 -0.00082584295461672955 0 -0.0038329089419003714 -0.00091806450404340902 0 -0.0037610591138274563 -0.00086819394837653525 0 -0.0037774056916142222 -0.00078908253779812068 0 -0.0038687719298293893 -0.00082584295461672955 0 -0.0038687719298293893 -0.00082584295461672955 0 -0.0039584805013462843 -0.00086978089339850905 0 -0.0039563918960336475 -0.0007682926968573913 0 -0.0038380857563996016 -0.00069850793261612345 0 -0.0038687719298293893 -0.00082584295461672955 0 -0.0039563918960336475 -0.0007682926968573913 0 -0.0038687719298293893 -0.00082584295461672955 0 -0.0039584805013462843 -0.00086978089339850905 0 -0.0038329089419003714 -0.00091806450404340902 0 -0.0039584805013462843 -0.00086978089339850905 0 -0.0039563918960336475 -0.0007682926968573913 0 -0.0040433771972792068 -0.00083664031173382553 0 -0.0038380857563996016 -0.00069850793261612345 0 -0.0039563918960336475 -0.0007682926968573913 0 -0.00395203337064367 -0.0006287183412830177 0 -0.0039563918960336475 -0.0007682926968573913 0 -0.0040739142095737313 -0.00075113708213074483 0 -0.00395203337064367 -0.0006287183412830177 0 -0.0041178238957897597 -0.0006248369308996006 0 -0.0040739142095737313 -0.00075113708213074483 0 -0.0040021812011746104 -0.00054937484495675586 0 -0.0040736789859164178 -0.00074302875498476802 0 -0.0039804863945804222 -0.00059507942302527311 0 -0.0040739142095737313 -0.00075113708213074483 0 -0.0040433771972792068 -0.00083664031173382553 0 -0.004230315388325293 -0.00066557013554150541 0 -0.0039563918960336475 -0.0007682926968573913 0 -0.0040739142095737313 -0.00075113708213074483 0 -0.0040433771972792068 -0.00083664031173382553 0 -0.0040433771972792068 -0.00083664031173382553 0 -0.0040844688736632051 -0.00082437175084441275 0 -0.0040701331172580844 -0.00090156718278476772 0 -0.0042750247535300505 -0.00076774809304140743 0 -0.0034598892008955778 -0.0006928799970586535 0 -0.003161920090636967 -0.00056063880743228284 0 -0.0023488987154341129 -0.00017975033725422163 0 -0.0022799806556498357 -0.00029998086593489035 0 -0.0018894725925105015 -0.00010460417502350138 0 -0.0024519418070995062 0.00010674582778453918 0 -0.0040433771972792068 -0.00083664031173382553 0 -0.0040844688736632051 -0.00082437175084441275 0 -0.0040994663552312884 -0.00077296966909810058 0 -0.0019932378315675246 -0.00041921867480581513 0 -0.0022799806556498357 -0.00029998086593489035 0 -0.0018894725925105015 -0.00010460417502350138 0 -0.0019932378315675246 -0.00041921867480581513 0 -0.0022799806556498357 -0.00029998086593489035 0 -0.0021100615546622852 -0.00071081872817941921 0 -0.003161920090636967 -0.00056063880743228284 0 -0.0034598892008955778 -0.0006928799970586535 0 -0.00037073020489909974 -0.00025005747516292066 0 0.00013574777924053996 3.2073979621925275e-05 0 0.00040374705257601145 -0.00052933349410840967 0 -0.0019932378315675246 -0.00041921867480581513 0 -0.0018894725925105015 -0.00010460417502350138 0 -0.0016919538061643791 -0.00056226600675805154 0 -0.0010669429535842244 -0.00017150828742776454 0 -0.0003406199557539222 -0.0004707943103441786 0 -0.0018894725925105015 -0.00010460417502350138 0 -0.0016919538061643791 -0.00056226600675805154 0 -0.0013170767568527226 -0.00031831570021064809 0 -0.0025507328150425751 -0.00052019611780719619 0 -0.0019088443206823499 -0.00043536238035337825 0 -0.0016919538061643791 -0.00056226600675805154 0 -0.0018337054100151817 -0.00098025842885058018 0 -0.0012887725481714994 -0.00076180215109943029 0 -0.0019932378315675246 -0.00041921867480581513 0 -0.0016919538061643791 -0.00056226600675805154 0 -0.0021100615546622852 -0.00071081872817941921 0 -0.0016919538061643791 -0.00056226600675805154 0 -0.0021100615546622852 -0.00071081872817941921 0 -0.0018337054100151817 -0.00098025842885058018 0 -0.0041178238957897597 -0.0006248369308996006 0 -0.0040739142095737313 -0.00075113708213074483 0 -0.004230315388325293 -0.00066557013554150541 0 -0.0034598892008955778 -0.0006928799970586535 0 -0.0035915916144876065 -0.00051761826869933065 0 -0.004230315388325293 -0.00066557013554150541 0 -0.0041914700478803786 -0.00058939799655050192 0 -0.0042706296086194428 -0.00056082447103534985 0 -0.0032696958938120452 -0.00057360118311679362 0 -0.003279525930732097 -0.00054479054982354864 0 -0.0032900177195374072 -0.00054940212229710695 0 -0.0034598892008955778 -0.0006928799970586535 0 -0.0025507328150425751 -0.00052019611780719619 0 -0.0041178238957897597 -0.0006248369308996006 0 -0.004230315388325293 -0.00066557013554150541 0 -0.0041914700478803786 -0.00058939799655050192 0 -0.0041914700478803786 -0.00058939799655050192 0 -0.0042706296086194428 -0.00056082447103534985 0 -0.0041516411833909528 -0.00051165060661098529 0 -0.0041178238957897597 -0.0006248369308996006 0 -0.0041914700478803786 -0.00058939799655050192 0 -0.0041516411833909528 -0.00051165060661098529 0 -0.0042095216906077792 -0.00053007435962829043 0 -0.0041516411833909528 -0.00051165060661098529 0 -0.0041571313636179922 -0.00044038716267967175 0 -0.0035915916144876065 -0.00051761826869933065 0 -0.0043033877729013337 -0.00060606924582726478 0 -0.0027211306954962947 -0.00037464249865038103 0 -0.0027065800931332686 -0.00036916395659757133 0 -0.0026868719524388005 -0.00043402302674919304 0 -0.0026332641320098672 -0.00040155113571383941 0 -0.0027344127423066678 -0.00032747555523054961 0 -0.0023865020775896127 -6.3423345594188974e-05 0 -0.0027065800931332686 -0.00036916395659757133 0 -0.0026868719524388005 -0.00043402302674919304 0 -0.0026612439286041261 -0.00040692839622390333 0 -0.0035915916144876065 -0.00051761826869933065 0 -0.0034498454353043845 -0.00041083719176709255 0 -0.0026332641320098672 -0.00040155113571383941 0 -0.0027344127423066678 -0.00032747555523054961 0 -0.0025969496091953477 -0.00047001952142019642 0 -0.0035915916144876065 -0.00051761826869933065 0 -0.0025507328150425751 -0.00052019611780719619 0 -0.0025507328150425751 -0.00052019611780719619 0 -0.002668325098764651 -0.00040060533703263721 0 -0.0042095216906077792 -0.00053007435962829043 0 -0.0042427378328734125 -0.00040140428820273116 0 -0.0041571313636179922 -0.00044038716267967175 0 -0.0041700093639141277 -0.00032843697407966945 0 -0.0042427378328734125 -0.00040140428820273116 0 -0.0041571313636179922 -0.00044038716267967175 0 -0.0041700093639141277 -0.00032843697407966945 0 -0.0041571313636179922 -0.00044038716267967175 0 -0.0040741342802908531 -0.00040901896958370383 0 -0.0041571313636179922 -0.00044038716267967175 0 -0.0040741342802908531 -0.00040901896958370383 0 -0.0040936094718555544 -0.00051049040494922991 0 -0.0039381875550154486 -0.00043691760147299212 0 -0.0040741342802908531 -0.00040901896958370383 0 -0.0040021812011746104 -0.00054937484495675586 0 -0.0038924528354900147 -0.00045483714053230962 0 -0.0039804863945804222 -0.00059507942302527311 0 -0.0041178238957897597 -0.0006248369308996006 0 -0.0040021812011746104 -0.00054937484495675586 0 -0.0040936094718555544 -0.00051049040494922991 0 -0.0040741342802908531 -0.00040901896958370383 0 -0.0040021812011746104 -0.00054937484495675586 0 -0.0040936094718555544 -0.00051049040494922991 0 -0.0041178238957897597 -0.0006248369308996006 0 -0.0041516411833909528 -0.00051165060661098529 0 -0.0040936094718555544 -0.00051049040494922991 0 -0.0041516411833909528 -0.00051165060661098529 0 -0.0041571313636179922 -0.00044038716267967175 0 -0.0040936094718555544 -0.00051049040494922991 0 -0.0018381603882011406 -5.5719527716555765e-06 0 -0.00208598095497652 9.7538072269847432e-09 0 -0.0018117857968697828 4.5479049320351651e-08 0 -0.0018381603882011406 -5.5719527716555765e-06 0 -0.0016499211990952812 -3.6674764560420937e-05 0 -0.0015999056986554479 3.9058844384117447e-05 0 -0.0018381603882011406 -5.5719527716555765e-06 0 -0.0019510035132602659 -5.9665432152353255e-05 0 -0.0016499211990952812 -3.6674764560420937e-05 0 -0.0022639114810851764 -0.00011154494457071765 0 -0.002155593817029493 -0.00016229457698383793 0 -0.0018381603882011406 -5.5719527716555765e-06 0 -0.0019510035132602659 -5.9665432152353255e-05 0 -0.00208598095497652 9.7538072269847432e-09 0 -0.0019510035132602659 -5.9665432152353255e-05 0 -0.00208598095497652 9.7538072269847432e-09 0 -0.0023598456577876049 -2.7078651204326602e-07 0 -0.0022639114810851764 -0.00011154494457071765 0 -0.0024094969226090605 -1.6820317103872493e-05 0 -0.0019510035132602659 -5.9665432152353255e-05 0 -0.0023598456577876049 -2.7078651204326602e-07 0 -0.002345663146338905 -2.5051081771552062e-05 0 -0.0027470802684580716 4.1876128907300565e-07 0 -0.0024256867499125854 -1.4567093268641811e-05 0 -0.0024152165499594256 -1.3710999257294281e-07 0 -0.0023603518457454408 -5.6437356681661549e-08 0 -0.0024094969226090605 -1.6820317103872493e-05 0 -0.0023602892436388567 4.9161226764206336e-12 0 -0.0023909961926309804 -8.7405129074106736e-09 0 -0.002414847101673159 -4.0652162893837163e-11 0 -0.0024094969226090605 -1.6820317103872493e-05 0 -0.0024148759888414652 -3.7293496519321519e-08 0 -0.0025880148200776863 5.5464275808311258e-05 0 -0.0024986106619422467 -6.7432431838530268e-05 0 -0.0026371312139956454 -4.1303569830913806e-05 0 -0.0025840711471395239 -0.00018063297746125727 0 -0.0026371312139956454 -4.1303569830913806e-05 0 -0.0027069905775639418 -0.00014514390965417602 0 -0.0025840711471395239 -0.00018063297746125727 0 -0.0024986106619422467 -6.7432431838530268e-05 0 -0.0026371312139956454 -4.1303569830913806e-05 0 -0.0026371312139956454 -4.1303569830913806e-05 0 -0.0027069905775639418 -0.00014514390965417602 0 -0.0027460831360736127 -9.6461090772869185e-06 0 -0.0027069905775639418 -0.00014514390965417602 0 -0.0028317377847394418 -5.9694563561226414e-05 0 -0.0027460831360736127 -9.6461090772869185e-06 0 -0.0027069905775639418 -0.00014514390965417602 0 -0.0028317377847394418 -5.9694563561226414e-05 0 -0.0027975973378618429 -0.00016909895273335232 0 -0.0027069905775639418 -0.00014514390965417602 0 -0.0027975973378618429 -0.00016909895273335232 0 -0.0027646218301754831 -0.00026189225114113724 0 -0.0027975973378618429 -0.00016909895273335232 0 -0.0027646218301754831 -0.00026189225114113724 0 -0.002853436505749863 -0.00023123170204042119 0 -0.0027069905775639418 -0.00014514390965417602 0 -0.0027646218301754831 -0.00026189225114113724 0 -0.0026645776487027751 -0.00030172619788833353 0 -0.0025840711471395239 -0.00018063297746125727 0 -0.0027069905775639418 -0.00014514390965417602 0 -0.0026645776487027751 -0.00030172619788833353 0 -0.0027646218301754831 -0.00026189225114113724 0 -0.0026645776487027751 -0.00030172619788833353 0 -0.00274798751016057 -0.00045467703962466543 0 -0.0027646218301754831 -0.00026189225114113724 0 -0.0028359139238425665 -0.00033198640771010021 0 -0.00274798751016057 -0.00045467703962466543 0 -0.0027646218301754831 -0.00026189225114113724 0 -0.0028359139238425665 -0.00033198640771010021 0 -0.002853436505749863 -0.00023123170204042119 0 -0.0028422390717741911 -0.00032163396627687041 0 -0.0029991723221587338 -0.00018048545127684974 0 -0.0028359139238425665 -0.00033198640771010021 0 -0.0030551324360824517 -0.00030960632864171565 0 -0.0030174198230599721 -0.00012267643171977129 0 -0.0030551324360824517 -0.00030960632864171565 0 -0.0030174198230599721 -0.00012267643171977129 0 -0.0032724370880880143 -0.00016833747531457281 0 -0.0028359139238425665 -0.00033198640771010021 0 -0.0029603531942743286 -0.00024205789852355014 0 -0.002853436505749863 -0.00023123170204042119 0 -0.0027975973378618429 -0.00016909895273335232 0 -0.002853436505749863 -0.00023123170204042119 0 -0.0029100341185619334 -0.00015148402943949559 0 -0.0029603531942743286 -0.00024205789852355014 0 -0.002853436505749863 -0.00023123170204042119 0 -0.0029100341185619334 -0.00015148402943949559 0 -0.0028317377847394418 -5.9694563561226414e-05 0 -0.0027975973378618429 -0.00016909895273335232 0 -0.0029100341185619334 -0.00015148402943949559 0 -0.0028317377847394418 -5.9694563561226414e-05 0 -0.0029100341185619334 -0.00015148402943949559 0 -0.0029307925107762531 -4.8249285094643631e-05 0 -0.0029331694296268803 5.6671709047801098e-05 0 -0.0028317377847394418 -5.9694563561226414e-05 0 -0.0029307925107762531 -4.8249285094643631e-05 0 -0.003025132894260324 1.3880089221836019e-06 0 -0.0029307925107762531 -4.8249285094643631e-05 0 -0.0030859233701377876 -0.00014692469320265209 0 -0.0029603531942743286 -0.00024205789852355014 0 -0.0029100341185619334 -0.00015148402943949559 0 -0.0030859233701377876 -0.00014692469320265209 0 -0.0029100341185619334 -0.00015148402943949559 0 -0.0029307925107762531 -4.8249285094643631e-05 0 -0.0030859233701377876 -0.00014692469320265209 0 -0.003025132894260324 1.3880089221836019e-06 0 -0.0030859233701377876 -0.00014692469320265209 0 -0.0031099386656018848 -4.5929643482614131e-05 0 -0.0031148253593893272 3.937974939817053e-05 0 -0.003025132894260324 1.3880089221836019e-06 0 -0.0031099386656018848 -4.5929643482614131e-05 0 -0.0031148253593893272 3.937974939817053e-05 0 -0.0031099386656018848 -4.5929643482614131e-05 0 -0.0032133524433903236 -4.6703256300422105e-05 0 -0.0030859233701377876 -0.00014692469320265209 0 -0.0031099386656018848 -4.5929643482614131e-05 0 -0.0032133524433903236 -4.6703256300422105e-05 0 -0.003625575493922231 -3.095769311949843e-05 0 -0.0037299344998557799 2.2746361295404717e-06 0 -0.003116635398646823 -1.3548050254058052e-05 0 -0.0037299344998557799 2.2746361295404717e-06 0 -0.0032526473754173929 0.0001095140279487518 0 -0.0035244752799266366 0.00035152160737419584 0 -0.0034859163160747028 0.00011615202002074748 0 -0.0035728633491213025 -0.0001235944647254703 0 -0.0034859163160747028 0.00011615202002074748 0 -0.0032724370880880143 -0.00016833747531457281 0 -0.0032526473754173929 0.0001095140279487518 0 -0.0034859163160747028 0.00011615202002074748 0 -0.0032724370880880143 -0.00016833747531457281 0 -0.0030174198230599721 -0.00012267643171977129 0 -0.0032526473754173929 0.0001095140279487518 0 -0.0032724370880880143 -0.00016833747531457281 0 -0.0029991723221587338 -0.00018048545127684974 0 -0.003116635398646823 -1.3548050254058052e-05 0 -0.0032724370880880143 -0.00016833747531457281 0 -0.0034519659629184784 -0.00034823467460441709 0 -0.0032025736659570822 -0.00043473656630399758 0 -0.0030551324360824517 -0.00030960632864171565 0 -0.0032724370880880143 -0.00016833747531457281 0 -0.0032025736659570822 -0.00043473656630399758 0 -0.0035728633491213025 -0.0001235944647254703 0 -0.0032724370880880143 -0.00016833747531457281 0 -0.0034519659629184784 -0.00034823467460441709 0 -0.0034519659629184784 -0.00034823467460441709 0 -0.0032025736659570822 -0.00043473656630399758 0 -0.0033722028097663459 -0.00064228062852064326 0 -0.0032025736659570822 -0.00043473656630399758 0 -0.0031293948946439533 -0.0006284136462981093 0 -0.0033722028097663459 -0.00064228062852064326 0 -0.003415285633382521 -0.00076388853402264609 0 -0.0033722028097663459 -0.00064228062852064326 0 -0.0032232084881670233 -0.00077557632772098537 0 -0.003415285633382521 -0.00076388853402264609 0 -0.0033192712241783074 -0.00093836734563207207 0 -0.0032232084881670233 -0.00077557632772098537 0 -0.0033192712241783074 -0.00093836734563207207 0 -0.0029628135691863191 -0.00084191486310485964 0 -0.0032232084881670233 -0.00077557632772098537 0 -0.0029628135691863191 -0.00084191486310485964 0 -0.0030744417619568173 -0.00086685522326007149 0 -0.0024939309554987336 -0.00033753431710404475 0 -0.0027617621472005834 -0.00080154485927937916 0 -0.0029409379888852153 -0.00084343016789537278 0 -0.0029628135691863191 -0.00084191486310485964 0 -0.0030774762722407065 -0.00077905368079833766 0 -0.0032232084881670233 -0.00077557632772098537 0 -0.0031293948946439533 -0.0006284136462981093 0 -0.0033722028097663459 -0.00064228062852064326 0 -0.0032232084881670233 -0.00077557632772098537 0 -0.0031293948946439533 -0.0006284136462981093 0 -0.0030774762722407065 -0.00077905368079833766 0 -0.0032232084881670233 -0.00077557632772098537 0 -0.0031293948946439533 -0.0006284136462981093 0 -0.0030774762722407065 -0.00077905368079833766 0 -0.0028917454332376478 -0.00066960621480663504 0 -0.0022510904329819431 -0.00034778012715783142 0 -0.0021464081448345444 -0.00027979365046919329 0 -0.0030774762722407065 -0.00077905368079833766 0 -0.0030744417619568173 -0.00086685522326007149 0 -0.0028917454332376478 -0.00066960621480663504 0 -0.0029628135691863191 -0.00084191486310485964 0 -0.0030774762722407065 -0.00077905368079833766 0 -0.0030744417619568173 -0.00086685522326007149 0 -0.0014401949921787919 0.00016345053255683399 0 -0.0014041361523079541 0.00013514657900408109 0 -0.0013906758840743934 0.00013565356073143758 0 -0.0014401949921787919 0.00016345053255683399 0 -0.0014041361523079541 0.00013514657900408109 0 -0.0014490423784451331 0.00013567462218476336 0 -0.0014041361523079541 0.00013514657900408109 0 -0.0013906758840743934 0.00013565356073143758 0 -0.0013591931775761548 0.0001219099108905463 0 -0.0014401949921787919 0.00016345053255683399 0 -0.0013906758840743934 0.00013565356073143758 0 -0.0013866402026178762 0.00011257714832224192 0 -0.0013906758840743934 0.00013565356073143758 0 -0.0013866402026178762 0.00011257714832224192 0 -0.0013933127076213038 0.00011676989516427163 0 -0.0021464081448345444 -0.00027979365046919329 0 -0.0021066340797313821 -0.00021138296381878786 0 -0.0028917454332376478 -0.00066960621480663504 0 -0.0029873608353015212 -0.000473553321449638 0 -0.00274798751016057 -0.00045467703962466543 0 -0.0031293948946439533 -0.0006284136462981093 0 -0.0028917454332376478 -0.00066960621480663504 0 -0.0029873608353015212 -0.000473553321449638 0 -0.0030551324360824517 -0.00030960632864171565 0 -0.0032025736659570822 -0.00043473656630399758 0 -0.0029873608353015212 -0.000473553321449638 0 -0.0032025736659570822 -0.00043473656630399758 0 -0.0031293948946439533 -0.0006284136462981093 0 -0.0029873608353015212 -0.000473553321449638 0 -0.0028359139238425665 -0.00033198640771010021 0 -0.0030551324360824517 -0.00030960632864171565 0 -0.0029873608353015212 -0.000473553321449638 0 -0.0028359139238425665 -0.00033198640771010021 0 -0.0029873608353015212 -0.000473553321449638 0 -0.00274798751016057 -0.00045467703962466543 0 -0.0016499211990952812 -3.6674764560420937e-05 0 -0.0014590985539812893 2.7766363320741593e-05 0 -0.0015999056986554479 3.9058844384117447e-05 0 -0.002155593817029493 -0.00016229457698383793 0 -0.0021066340797313821 -0.00021138296381878786 0 -0.0014469955004908553 8.4430751260742637e-05 0 -0.0014355031538455334 8.4208706936113548e-05 0 -0.0015999056986554479 3.9058844384117447e-05 0 -0.0014590985539812893 2.7766363320741593e-05 0 -0.0014469955004908553 8.4430751260742637e-05 0 -0.0015999056986554479 3.9058844384117447e-05 0 -0.0013866402026178762 0.00011257714832224192 0 -0.0014590985539812893 2.7766363320741593e-05 0 -0.0014469955004908553 8.4430751260742637e-05 0 -0.0013866402026178762 0.00011257714832224192 0 -0.0014469955004908553 8.4430751260742637e-05 0 -0.0013933127076213038 0.00011676989516427163 0 -0.0013933127076213038 0.00011676989516427163 0 -0.0013591931775761548 0.0001219099108905463 0 -0.0013341648125423391 0.00010054094429625212 0 -0.0013906758840743934 0.00013565356073143758 0 -0.0013933127076213038 0.00011676989516427163 0 -0.0013591931775761548 0.0001219099108905463 0 -0.0013341648125423391 0.00010054094429625212 0 -0.0013458705785151341 6.018787694751396e-05 0 -0.0012137346621688098 7.023772913877041e-05 0 -0.0013341648125423391 0.00010054094429625212 0 -0.0014355031538455334 8.4208706936113548e-05 0 -0.0013458705785151341 6.018787694751396e-05 0 -0.0014469955004908553 8.4430751260742637e-05 0 -0.0013933127076213038 0.00011676989516427163 0 -0.0014355031538455334 8.4208706936113548e-05 0 -0.0013933127076213038 0.00011676989516427163 0 -0.0013341648125423391 0.00010054094429625212 0 -0.0014355031538455334 8.4208706936113548e-05 0 -0.0014355031538455334 8.4208706936113548e-05 0 -0.0013458705785151341 6.018787694751396e-05 0 -0.0015401260700092488 4.5098411405605351e-05 0 -0.0013458705785151341 6.018787694751396e-05 0 -0.0012635221531554191 9.1709860058359578e-08 0 -0.0015376603754214317 9.3155037249043268e-08 0 -0.0013458705785151341 6.018787694751396e-05 0 -0.0015376603754214317 9.3155037249043268e-08 0 -0.0015401260700092488 4.5098411405605351e-05 0 -0.0015376603754214317 9.3155037249043268e-08 0 -0.0015401260700092488 4.5098411405605351e-05 0 -0.0018117857968697828 4.5479049320351651e-08 0 -0.0015401260700092488 4.5098411405605351e-05 0 -0.0015999056986554479 3.9058844384117447e-05 0 -0.0018117857968697828 4.5479049320351651e-08 0 -0.0014355031538455334 8.4208706936113548e-05 0 -0.0015401260700092488 4.5098411405605351e-05 0 -0.0015999056986554479 3.9058844384117447e-05 0 -0.0018381603882011406 -5.5719527716555765e-06 0 -0.0015999056986554479 3.9058844384117447e-05 0 -0.0018117857968697828 4.5479049320351651e-08 0 -0.00071521053053913734 7.4693573790628729e-09 0 -0.001006636068031208 2.4040858783928411e-05 0 -0.00076441021399313352 -3.6677747830502711e-05 0 -0.001006636068031208 2.4040858783928411e-05 0 -0.0010678272614937411 -2.2199938307415749e-05 0 -0.00076441021399313352 -3.6677747830502711e-05 0 -0.00071521053053913734 7.4693573790628729e-09 0 -0.001006636068031208 2.4040858783928411e-05 0 -0.00098936162115689872 6.0117965075081862e-08 0 -0.001006636068031208 2.4040858783928411e-05 0 -0.00098936162115689872 6.0117965075081862e-08 0 -0.0011577880821845102 3.5449191065784165e-05 0 -0.0013458705785151341 6.018787694751396e-05 0 -0.0012635221531554191 9.1709860058359578e-08 0 -0.0011577880821845102 3.5449191065784165e-05 0 -0.0012635221531554191 9.1709860058359578e-08 0 -0.00098936162115689872 6.0117965075081862e-08 0 -0.0011577880821845102 3.5449191065784165e-05 0 -0.0013458705785151341 6.018787694751396e-05 0 -0.0011577880821845102 3.5449191065784165e-05 0 -0.0012137346621688098 7.023772913877041e-05 0 -0.001006636068031208 2.4040858783928411e-05 0 -0.0011577880821845102 3.5449191065784165e-05 0 -0.0012137346621688098 7.023772913877041e-05 0 -0.001199334455858885 4.407925234684801e-05 0 -0.0012137346621688098 7.023772913877041e-05 0 -0.001291898166996036 9.0736288926246514e-05 0 -0.001006636068031208 2.4040858783928411e-05 0 -0.001199334455858885 4.407925234684801e-05 0 -0.0012137346621688098 7.023772913877041e-05 0 -0.0013341648125423391 0.00010054094429625212 0 -0.0012137346621688098 7.023772913877041e-05 0 -0.001291898166996036 9.0736288926246514e-05 0 -0.0013591931775761548 0.0001219099108905463 0 -0.0013341648125423391 0.00010054094429625212 0 -0.001291898166996036 9.0736288926246514e-05 0 -0.0013591931775761548 0.0001219099108905463 0 -0.001291898166996036 9.0736288926246514e-05 0 -0.0013621918135427484 0.00010114245494021851 0 -0.001291898166996036 9.0736288926246514e-05 0 -0.00130966858798092 5.5372483548361018e-05 0 -0.0013621918135427484 0.00010114245494021851 0 -0.001199334455858885 4.407925234684801e-05 0 -0.001291898166996036 9.0736288926246514e-05 0 -0.00130966858798092 5.5372483548361018e-05 0 -0.001199334455858885 4.407925234684801e-05 0 -0.0012358099321720731 -7.9611094249730098e-06 0 -0.00130966858798092 5.5372483548361018e-05 0 -0.001199334455858885 4.407925234684801e-05 0 -0.0012358099321720731 -7.9611094249730098e-06 0 -0.0010678272614937411 -2.2199938307415749e-05 0 -0.0012358099321720731 -7.9611094249730098e-06 0 -0.0011793978232056009 -9.3524098714600345e-05 0 -0.0013023670243403076 -6.0279241535656252e-05 0 -0.001006636068031208 2.4040858783928411e-05 0 -0.001199334455858885 4.407925234684801e-05 0 -0.0010678272614937411 -2.2199938307415749e-05 0 -0.0010678272614937411 -2.2199938307415749e-05 0 -0.0009846438957405155 -0.00019367094506287898 0 -0.00076441021399313352 -3.6677747830502711e-05 0 -0.0010678272614937411 -2.2199938307415749e-05 0 -0.0011793978232056009 -9.3524098714600345e-05 0 -0.0009846438957405155 -0.00019367094506287898 0 -0.0012358099321720731 -7.9611094249730098e-06 0 -0.0010678272614937411 -2.2199938307415749e-05 0 -0.0011793978232056009 -9.3524098714600345e-05 0 -0.0013330856897199664 -0.0001220243373508166 0 -0.0014999975408854407 -0.00018574464146092951 0 -0.0012732895992351597 -0.00019542052219016933 0 -0.0011793978232056009 -9.3524098714600345e-05 0 -0.0013330856897199664 -0.0001220243373508166 0 -0.0012732895992351597 -0.00019542052219016933 0 -0.0011793978232056009 -9.3524098714600345e-05 0 -0.0013330856897199664 -0.0001220243373508166 0 -0.0013023670243403076 -6.0279241535656252e-05 0 -0.0013330856897199664 -0.0001220243373508166 0 -0.001405377103584007 -7.5888453971448692e-05 0 -0.0013023670243403076 -6.0279241535656252e-05 0 -0.00073739311418098783 -0.00017537553476652519 0 -0.00068026081830340434 -0.0001709710707821215 0 -0.0013330856897199664 -0.0001220243373508166 0 -0.0014999975408854407 -0.00018574464146092951 0 -0.001405377103584007 -7.5888453971448692e-05 0 3.3430587476059455e-05 -0.00017022675611007301 0 -4.6973633225992316e-06 -0.00014082317338646685 0 -8.0569345140804141e-05 -0.0001483254490617499 0 3.3430587476059455e-05 -0.00017022675611007301 0 5.5079552059975973e-05 -0.00013514280845251163 0 -4.6973633225992316e-06 -0.00014082317338646685 0 -0.0015306493409091794 -5.3051443906333679e-05 0 -0.0014434227779888576 -1.1966192249460028e-05 0 -0.0015073535136719638 5.333731986336766e-05 0 -0.0014999975408854407 -0.00018574464146092951 0 -0.001405377103584007 -7.5888453971448692e-05 0 -0.0015306493409091794 -5.3051443906333679e-05 0 -0.001405377103584007 -7.5888453971448692e-05 0 -0.0015306493409091794 -5.3051443906333679e-05 0 -0.0014434227779888576 -1.1966192249460028e-05 0 -0.001405377103584007 -7.5888453971448692e-05 0 -0.0014434227779888576 -1.1966192249460028e-05 0 -0.0013507810349882819 -1.1502999108052001e-07 0 -0.001405377103584007 -7.5888453971448692e-05 0 -0.0013507810349882819 -1.1502999108052001e-07 0 -0.0013023670243403076 -6.0279241535656252e-05 0 -0.0012358099321720731 -7.9611094249730098e-06 0 -0.0013507810349882819 -1.1502999108052001e-07 0 -0.0013023670243403076 -6.0279241535656252e-05 0 -0.0012358099321720731 -7.9611094249730098e-06 0 -0.0013507810349882819 -1.1502999108052001e-07 0 -0.00130966858798092 5.5372483548361018e-05 0 -0.0014434227779888576 -1.1966192249460028e-05 0 -0.0013507810349882819 -1.1502999108052001e-07 0 -0.0013973500081594834 5.4784061287117385e-05 0 -0.0013507810349882819 -1.1502999108052001e-07 0 -0.00130966858798092 5.5372483548361018e-05 0 -0.0013973500081594834 5.4784061287117385e-05 0 -0.00130966858798092 5.5372483548361018e-05 0 -0.0013973500081594834 5.4784061287117385e-05 0 -0.0013621918135427484 0.00010114245494021851 0 -0.0013973500081594834 5.4784061287117385e-05 0 -0.0013621918135427484 0.00010114245494021851 0 -0.0014370382346458039 0.00010752728558799455 0 -0.0014041361523079541 0.00013514657900408109 0 -0.0013621918135427484 0.00010114245494021851 0 -0.0014370382346458039 0.00010752728558799455 0 -0.0014041361523079541 0.00013514657900408109 0 -0.0013591931775761548 0.0001219099108905463 0 -0.0013621918135427484 0.00010114245494021851 0 -0.0014401949921787919 0.00016345053255683399 0 -0.0014490423784451331 0.00013567462218476336 0 -0.0015063098921661259 0.0001271654771672566 0 -0.0014490423784451331 0.00013567462218476336 0 -0.0014370382346458039 0.00010752728558799455 0 -0.0015063098921661259 0.0001271654771672566 0 -0.0014041361523079541 0.00013514657900408109 0 -0.0014490423784451331 0.00013567462218476336 0 -0.0014370382346458039 0.00010752728558799455 0 -0.0014370382346458039 0.00010752728558799455 0 -0.0015063098921661259 0.0001271654771672566 0 -0.0015073535136719638 5.333731986336766e-05 0 -0.0013973500081594834 5.4784061287117385e-05 0 -0.0014370382346458039 0.00010752728558799455 0 -0.0015073535136719638 5.333731986336766e-05 0 -0.0014434227779888576 -1.1966192249460028e-05 0 -0.0013973500081594834 5.4784061287117385e-05 0 -0.0015073535136719638 5.333731986336766e-05 0 -0.0015306493409091794 -5.3051443906333679e-05 0 -0.0015073535136719638 5.333731986336766e-05 0 -0.0016199630057315512 -4.6060682266832721e-07 0 -0.0016199630057315512 -4.6060682266832721e-07 0 -0.0016165473554317872 0.00014114828643244432 0 -0.0017315068710033912 -2.8708056849719987e-05 0 -0.0015073535136719638 5.333731986336766e-05 0 -0.0016199630057315512 -4.6060682266832721e-07 0 -0.0016165473554317872 0.00014114828643244432 0 -0.0021818912393450005 -0.00068053961429007223 0 -0.0029628135691863191 -0.00084191486310485964 0 -0.0024939309554987336 -0.00033753431710404475 0 -0.0014401949921787919 0.00016345053255683399 0 -0.0015063098921661259 0.0001271654771672566 0 -0.0016165473554317872 0.00014114828643244432 0 -0.0015063098921661259 0.0001271654771672566 0 -0.0015073535136719638 5.333731986336766e-05 0 -0.0016165473554317872 0.00014114828643244432 0 -0.0022510904329819431 -0.00034778012715783142 0 -0.002058826027448603 -0.00012132258932520929 0 -0.0021818912393450005 -0.00068053961429007223 0 -0.0024939309554987336 -0.00033753431710404475 0 -0.0020231342501079259 -0.00027219423752188656 0 -0.0021818912393450005 -0.00068053961429007223 0 -0.0020231342501079259 -0.00027219423752188656 0 -0.0019285996909543192 -0.00040685088519988637 0 -0.002058826027448603 -0.00012132258932520929 0 -0.001900219402248333 -4.782472355733704e-05 0 -0.0024939309554987336 -0.00033753431710404475 0 -0.0020231342501079259 -0.00027219423752188656 0 -0.0018689220046376911 -4.3353806837414239e-05 0 -0.0016165473554317872 0.00014114828643244432 0 -0.0018689220046376911 -4.3353806837414239e-05 0 -0.0017315068710033912 -2.8708056849719987e-05 0 -0.0018689220046376911 -4.3353806837414239e-05 0 -0.0018140584953464582 -0.00010486727353732827 0 -0.0017315068710033912 -2.8708056849719987e-05 0 -0.0018140584953464582 -0.00010486727353732827 0 -0.0017315068710033912 -2.8708056849719987e-05 0 -0.0016445944369133242 -7.0820700730813289e-05 0 -0.0014999975408854407 -0.00018574464146092951 0 -0.0015306493409091794 -5.3051443906333679e-05 0 -0.0016445944369133242 -7.0820700730813289e-05 0 -0.0016199630057315512 -4.6060682266832721e-07 0 -0.0017315068710033912 -2.8708056849719987e-05 0 -0.0016445944369133242 -7.0820700730813289e-05 0 -0.0015306493409091794 -5.3051443906333679e-05 0 -0.0016199630057315512 -4.6060682266832721e-07 0 -0.0016445944369133242 -7.0820700730813289e-05 0 -0.0014999975408854407 -0.00018574464146092951 0 -0.0018140584953464582 -0.00010486727353732827 0 -0.0016445944369133242 -7.0820700730813289e-05 0 -0.00073739311418098783 -0.00017537553476652519 0 -0.00085594152439228473 -0.00013789038429590041 0 3.3430587476059455e-05 -0.00017022675611007301 0 0.00010900354828015785 -0.00018047119349210602 0 8.4716447883673623e-05 -0.00014730100212099513 0 3.3430587476059455e-05 -0.00017022675611007301 0 8.4716447883673623e-05 -0.00014730100212099513 0 5.5079552059975973e-05 -0.00013514280845251163 0 0.00010900354828015785 -0.00018047119349210602 0 0.00012017765773183961 -0.00013437397829512085 0 0.00013923028392242347 -0.00014977406893645022 0 0.00010900354828015785 -0.00018047119349210602 0 8.4716447883673623e-05 -0.00014730100212099513 0 0.00012017765773183961 -0.00013437397829512085 0 0.00011828763386698109 -0.00010877180048127048 0 0.00010364250571369922 -8.7961430403635658e-05 0 0.00013073394825568264 -8.7258241580185757e-05 0 0.00011828763386698109 -0.00010877180048127048 0 9.2696850072159387e-05 -0.00011900065199086335 0 0.00010364250571369922 -8.7961430403635658e-05 0 0.00011828763386698109 -0.00010877180048127048 0 0.00013073394825568264 -8.7258241580185757e-05 0 0.00014038512217755193 -0.00010836119825369084 0 0.00011828763386698109 -0.00010877180048127048 0 0.00012017765773183961 -0.00013437397829512085 0 0.00014038512217755193 -0.00010836119825369084 0 0.00011828763386698109 -0.00010877180048127048 0 0.00012017765773183961 -0.00013437397829512085 0 9.2696850072159387e-05 -0.00011900065199086335 0 8.4716447883673623e-05 -0.00014730100212099513 0 0.00012017765773183961 -0.00013437397829512085 0 9.2696850072159387e-05 -0.00011900065199086335 0 8.4716447883673623e-05 -0.00014730100212099513 0 9.2696850072159387e-05 -0.00011900065199086335 0 5.5079552059975973e-05 -0.00013514280845251163 0 9.2696850072159387e-05 -0.00011900065199086335 0 5.5079552059975973e-05 -0.00013514280845251163 0 6.5296828589340674e-05 -0.00010725641909438392 0 5.5079552059975973e-05 -0.00013514280845251163 0 6.5296828589340674e-05 -0.00010725641909438392 0 3.6479022055176913e-05 -9.8654225903723768e-05 0 9.2696850072159387e-05 -0.00011900065199086335 0 6.5296828589340674e-05 -0.00010725641909438392 0 0.00010364250571369922 -8.7961430403635658e-05 0 6.5296828589340674e-05 -0.00010725641909438392 0 7.1881582670951295e-05 -7.5712133165432155e-05 0 0.00010364250571369922 -8.7961430403635658e-05 0 6.5296828589340674e-05 -0.00010725641909438392 0 7.1881582670951295e-05 -7.5712133165432155e-05 0 3.6479022055176913e-05 -9.8654225903723768e-05 0 7.1881582670951295e-05 -7.5712133165432155e-05 0 7.1073985182316805e-05 -3.9354193429953847e-05 0 3.8180130114059633e-05 -6.3383492063189009e-05 0 7.1881582670951295e-05 -7.5712133165432155e-05 0 0.00010631195913205583 -5.1153290448682069e-05 0 0.00010364250571369922 -8.7961430403635658e-05 0 7.1881582670951295e-05 -7.5712133165432155e-05 0 0.00010631195913205583 -5.1153290448682069e-05 0 7.1073985182316805e-05 -3.9354193429953847e-05 0 0.00010631195913205583 -5.1153290448682069e-05 0 0.00012479209346680318 -6.7016403769372778e-05 0 0.00013302962110893721 -4.9140979723699216e-05 0 0.00010631195913205583 -5.1153290448682069e-05 0 0.00010364250571369922 -8.7961430403635658e-05 0 0.00012479209346680318 -6.7016403769372778e-05 0 0.00010364250571369922 -8.7961430403635658e-05 0 0.00013073394825568264 -8.7258241580185757e-05 0 0.00012479209346680318 -6.7016403769372778e-05 0 0.00013073394825568264 -8.7258241580185757e-05 0 0.00014030245206252061 -6.598372079031362e-05 0 0.00012479209346680318 -6.7016403769372778e-05 0 0.00014030245206252061 -6.598372079031362e-05 0 0.00013302962110893721 -4.9140979723699216e-05 0 0.00015333985034157816 -4.3296587320141875e-05 0 0.00014030245206252061 -6.598372079031362e-05 0 0.00012479209346680318 -6.7016403769372778e-05 0 0.00013302962110893721 -4.9140979723699216e-05 0 0.00013302962110893721 -4.9140979723699216e-05 0 0.00013158292864868038 -2.0096695383711017e-05 0 0.00015333985034157816 -4.3296587320141875e-05 0 0.00013158292864868038 -2.0096695383711017e-05 0 0.00013621483490774259 1.4057028492235793e-05 0 0.00015333985034157816 -4.3296587320141875e-05 0 0.00013775280912290715 9.6450259502569698e-06 0 0.00015954829853150106 -4.2015652590007922e-05 0 0.00010631195913205583 -5.1153290448682069e-05 0 0.00013158292864868038 -2.0096695383711017e-05 0 0.00010509404400020171 -1.6292469743348771e-05 0 0.00010631195913205583 -5.1153290448682069e-05 0 0.00013302962110893721 -4.9140979723699216e-05 0 0.00013158292864868038 -2.0096695383711017e-05 0 0.00013158292864868038 -2.0096695383711017e-05 0 0.00012445381363468806 1.7452296211187888e-06 0 0.00010509404400020171 -1.6292469743348771e-05 0 0.00012934073638687883 1.0891020054344368e-05 0 0.00013621483490774259 1.4057028492235793e-05 0 0.00017250869344526059 1.5445394750206903e-05 0 0.00013158292864868038 -2.0096695383711017e-05 0 0.00012445381363468806 1.7452296211187888e-06 0 0.00013621483490774259 1.4057028492235793e-05 0 0.00012934073638687883 1.0891020054344368e-05 0 0.00013621483490774259 1.4057028492235793e-05 0 0.00011915944627159198 2.4128310986202058e-05 0 0.00012445381363468806 1.7452296211187888e-06 0 0.00013621483490774259 1.4057028492235793e-05 0 0.00011915944627159198 2.4128310986202058e-05 0 0.00012445381363468806 1.7452296211187888e-06 0 0.00011915944627159198 2.4128310986202058e-05 0 0.00010509404400020171 -1.6292469743348771e-05 0 0.00011915944627159198 2.4128310986202058e-05 0 0.00010509404400020171 -1.6292469743348771e-05 0 6.9558847770027126e-05 -2.2416895388648922e-06 0 0.00010509404400020171 -1.6292469743348771e-05 0 7.1073985182316805e-05 -3.9354193429953847e-05 0 6.9558847770027126e-05 -2.2416895388648922e-06 0 0.00010631195913205583 -5.1153290448682069e-05 0 0.00010509404400020171 -1.6292469743348771e-05 0 7.1073985182316805e-05 -3.9354193429953847e-05 0 7.1073985182316805e-05 -3.9354193429953847e-05 0 2.8443183360611029e-05 -2.2256863954915701e-05 0 3.8180130114059633e-05 -6.3383492063189009e-05 0 7.1073985182316805e-05 -3.9354193429953847e-05 0 2.8443183360611029e-05 -2.2256863954915701e-05 0 6.9558847770027126e-05 -2.2416895388648922e-06 0 0.0001645202939847103 1.4808008270100128e-05 0 0.00021694493338747192 3.2363546632655124e-05 0 0.00011915944627159198 2.4128310986202058e-05 0 1.884891217740783e-05 5.522394925332528e-05 0 2.8443183360611029e-05 -2.2256863954915701e-05 0 6.9558847770027126e-05 -2.2416895388648922e-06 0 0.00012423078808164104 4.1955134918295422e-05 0 0.00012025406039184878 2.7529185048814166e-05 0 1.884891217740783e-05 5.522394925332528e-05 0 0.00011915944627159198 2.4128310986202058e-05 0 6.9558847770027126e-05 -2.2416895388648922e-06 0 1.884891217740783e-05 5.522394925332528e-05 0 2.8443183360611029e-05 -2.2256863954915701e-05 0 -3.1394333864439334e-05 3.4307371068061218e-06 0 1.884891217740783e-05 5.522394925332528e-05 0 -5.7186535458494938e-05 7.9971387812418352e-05 0 -3.1394333864439334e-05 3.4307371068061218e-06 0 -0.00011007348095173134 1.3054960747050095e-05 0 -5.5245799133357751e-05 -6.1890898016938242e-05 0 -0.00014427910385675792 -2.5997511982419861e-05 0 -9.3133978877676254e-05 1.6761139264965033e-05 0 -2.8411200625515841e-05 -7.1730557097775049e-05 0 2.8443183360611029e-05 -2.2256863954915701e-05 0 -3.1394333864439334e-05 3.4307371068061218e-06 0 -6.9398699563794802e-06 -6.9544900543567841e-05 0 -6.9398699563794802e-06 -6.9544900543567841e-05 0 3.8180130114059633e-05 -6.3383492063189009e-05 0 3.6479022055176913e-05 -9.8654225903723768e-05 0 2.8443183360611029e-05 -2.2256863954915701e-05 0 -6.9398699563794802e-06 -6.9544900543567841e-05 0 3.8180130114059633e-05 -6.3383492063189009e-05 0 7.1881582670951295e-05 -7.5712133165432155e-05 0 3.8180130114059633e-05 -6.3383492063189009e-05 0 3.6479022055176913e-05 -9.8654225903723768e-05 0 -6.9398699563794802e-06 -6.9544900543567841e-05 0 3.6479022055176913e-05 -9.8654225903723768e-05 0 -4.6973633225992316e-06 -0.00014082317338646685 0 5.5079552059975973e-05 -0.00013514280845251163 0 3.6479022055176913e-05 -9.8654225903723768e-05 0 -4.6973633225992316e-06 -0.00014082317338646685 0 -2.8411200625515841e-05 -7.1730557097775049e-05 0 -6.1029449679643578e-06 -0.00013670573549273457 0 -5.5245799133357751e-05 -6.1890898016938242e-05 0 -4.6973633225992316e-06 -0.00014082317338646685 0 -8.0569345140804141e-05 -0.0001483254490617499 0 -5.5245799133357751e-05 -6.1890898016938242e-05 0 -8.0569345140804141e-05 -0.0001483254490617499 0 -0.00011382132125564483 -9.4507669975630619e-05 0 -0.0011793978232056009 -9.3524098714600345e-05 0 -0.0012732895992351597 -0.00019542052219016933 0 -0.0009846438957405155 -0.00019367094506287898 0 -8.0569345140804141e-05 -0.0001483254490617499 0 -0.00018407953023458348 -0.00013764386331142694 0 -0.00011382132125564483 -9.4507669975630619e-05 0 -0.00068026081830340434 -0.0001709710707821215 0 -0.00058968742109713208 -0.00015234292935538169 0 -0.00018407953023458348 -0.00013764386331142694 0 -0.00014427910385675792 -2.5997511982419861e-05 0 -0.00023585285524776065 -2.2950577649788824e-05 0 -0.00018407953023458348 -0.00013764386331142694 0 -0.00011382132125564483 -9.4507669975630619e-05 0 -0.00014427910385675792 -2.5997511982419861e-05 0 -5.5245799133357751e-05 -6.1890898016938242e-05 0 -0.00011382132125564483 -9.4507669975630619e-05 0 -0.00014427910385675792 -2.5997511982419861e-05 0 -0.00011007348095173134 1.3054960747050095e-05 0 -0.00014427910385675792 -2.5997511982419861e-05 0 -0.0001486029079290704 1.8781435766549285e-05 0 -0.0001557395261349141 1.9338975380607455e-05 0 -0.00011007348095173134 1.3054960747050095e-05 0 -0.0001486029079290704 1.8781435766549285e-05 0 -0.0001557395261349141 1.9338975380607455e-05 0 -0.0001486029079290704 1.8781435766549285e-05 0 -0.00015023102296855121 1.7510614550438848e-05 0 8.9744446253095105e-05 2.853677980476001e-05 0 -9.3133978877676254e-05 1.6761139264965033e-05 0 -0.0001486029079290704 1.8781435766549285e-05 0 -0.00015023102296855121 1.7510614550438848e-05 0 -0.00018161246301471329 2.1784938209340492e-05 0 -0.00014427910385675792 -2.5997511982419861e-05 0 -0.0001486029079290704 1.8781435766549285e-05 0 -0.00018161246301471329 2.1784938209340492e-05 0 -0.00014427910385675792 -2.5997511982419861e-05 0 -0.00018161246301471329 2.1784938209340492e-05 0 -0.00023585285524776065 -2.2950577649788824e-05 0 -0.00018161246301471329 2.1784938209340492e-05 0 -0.00023863078836699469 6.7770311030033843e-06 0 -0.00023585285524776065 -2.2950577649788824e-05 0 -0.00023863078836699469 6.7770311030033843e-06 0 -0.00045460444852083359 -7.7265685572382284e-05 0 -0.00023585285524776065 -2.2950577649788824e-05 0 -0.00015023102296855121 1.7510614550438848e-05 0 -0.00018161246301471329 2.1784938209340492e-05 0 -9.3706438502222977e-05 3.0242132145419125e-05 0 -0.00018161246301471329 2.1784938209340492e-05 0 -0.00023863078836699469 6.7770311030033843e-06 0 -9.3706438502222977e-05 3.0242132145419125e-05 0 -0.00023863078836699469 6.7770311030033843e-06 0 -9.3706438502222977e-05 3.0242132145419125e-05 0 -0.00016685445836916768 7.9122454833855316e-08 0 0.00010737964859795019 2.3895344997624669e-08 0 -9.3706438502222977e-05 3.0242132145419125e-05 0 -0.00016685445836916768 7.9122454833855316e-08 0 -0.00023863078836699469 6.7770311030033843e-06 0 -0.00016685445836916768 7.9122454833855316e-08 0 -0.00045460444852083359 -7.7265685572382284e-05 0 -0.00016685445836916768 7.9122454833855316e-08 0 -0.000441009627371168 -2.1253998627666491e-07 0 -0.00045460444852083359 -7.7265685572382284e-05 0 -0.000441009627371168 -2.1253998627666491e-07 0 -0.00045460444852083359 -7.7265685572382284e-05 0 -0.00058459811588100431 -3.2735144840842063e-05 0 -0.00058968742109713208 -0.00015234292935538169 0 -0.00048386724196098377 -9.162205159976462e-05 0 -0.00018407953023458348 -0.00013764386331142694 0 -0.00045460444852083359 -7.7265685572382284e-05 0 -0.00023585285524776065 -2.2950577649788824e-05 0 -0.0009846438957405155 -0.00019367094506287898 0 -0.00045460444852083359 -7.7265685572382284e-05 0 -0.00076441021399313352 -3.6677747830502711e-05 0 -0.00045460444852083359 -7.7265685572382284e-05 0 -0.00076441021399313352 -3.6677747830502711e-05 0 -0.00058459811588100431 -3.2735144840842063e-05 0 -0.00071521053053913734 7.4693573790628729e-09 0 -0.000441009627371168 -2.1253998627666491e-07 0 -0.00058459811588100431 -3.2735144840842063e-05 0 -0.00071521053053913734 7.4693573790628729e-09 0 -0.00076441021399313352 -3.6677747830502711e-05 0 -0.00058459811588100431 -3.2735144840842063e-05 0 0.00049936616006308562 8.466955299044529e-05 0 0.00053131810835681107 1.7383052001000466e-05 0 0.0004490754375409946 7.9986318910490683e-06 0 0.00045309642837216782 8.7036453610563131e-05 0 0.00049936616006308562 8.466955299044529e-05 0 0.0004490754375409946 7.9986318910490683e-06 0 -0.00014940312508440818 0.00039018007982815592 0 -2.4384445183854549e-05 2.92144653152341e-05 0 -0.00014940312508440818 0.00039018007982815592 0 -0.00037382646665538546 0.0002143498950487731 0 -0.00013098897746196479 0.000281119310054778 0 -0.00027714332217397748 0.00028737500265998652 0 -0.00026224349457332175 0.00025221327807748963 0 -2.4384445183854549e-05 2.92144653152341e-05 0 -0.00037382646665538546 0.0002143498950487731 0 -2.4384445183854549e-05 2.92144653152341e-05 0 3.5025509933939453e-05 -0.00015714819209351131 0 -0.00031628637728880598 -3.2166102385235235e-05 0 -0.00032534254764653609 -1.0969516460411194e-05 0 -0.00022897144036621763 7.3670113991974988e-06 0 -0.00031628637728880598 -3.2166102385235235e-05 0 -0.00022897144036621763 7.3670113991974988e-06 0 -0.00010954038129224105 -4.8100389390592284e-05 0 -0.00037382646665538546 0.0002143498950487731 0 -0.00071647547583722905 2.4023691399075738e-05 0 0.00024599443181806105 -0.00017217620910535856 0 0.00025304415564348596 -0.00016833464434680805 0 0.00025240890836037593 -0.00017320588126790816 0 0.00024075728315880898 -0.00016423425630174431 0 0.00024599443181806105 -0.00017217620910535856 0 0.00025304415564348596 -0.00016833464434680805 0 -0.00071647547583722905 2.4023691399075738e-05 0 3.5025509933939453e-05 -0.00015714819209351131 0 -2.4384445183854549e-05 2.92144653152341e-05 0 0.00039540595111944854 -9.3117855824800726e-05 0 0.00053131810835681107 1.7383052001000466e-05 0 0.0004490754375409946 7.9986318910490683e-06 0 0.0005622892186635211 -5.2443191415475503e-05 0 0.00024599443181806105 -0.00017217620910535856 0 0.00025240890836037593 -0.00017320588126790816 0 0.00025096760518021762 -0.00017793201768417086 0 0.00039540595111944854 -9.3117855824800726e-05 0 0.00076022977611830587 -7.5810524533839182e-05 0 0.0010398195332686575 -4.4553072848273067e-05 0 0.0010307770040153365 -0.00011982701717187227 0 0.0011320251800229005 -9.2182747338691358e-05 0 0.00077877727279715479 -4.10790307437386e-05 0 0.00076022977611830587 -7.5810524533839182e-05 0 0.0010398195332686575 -4.4553072848273067e-05 0 0.00097649549612513356 -5.444763774669656e-05 0 0.0010307770040153365 -0.00011982701717187227 0 0.0010398195332686575 -4.4553072848273067e-05 0 0.00097649549612513356 -5.444763774669656e-05 0 0.00094709812719686193 1.9720579815450916e-06 0 0.0015340422351661303 -0.0001923073753083677 0 0.0015025954208177912 -0.00019295517650516178 0 0.001481243383871373 -0.00018125991482927372 0 0.00097649549612513356 -5.444763774669656e-05 0 0.00095217011766753361 -0.00010828797338879889 0 0.00089577294097983482 -2.2020678592416829e-05 0 0.0012407390393403234 -0.00014757582925985837 0 0.0012022812669080405 -0.00012431696689824159 0 0.00097649549612513356 -5.444763774669656e-05 0 0.00094709812719686193 1.9720579815450916e-06 0 0.00089577294097983482 -2.2020678592416829e-05 0 0.00058056220839797733 0.0001607777907480003 0 0.00096213154841334107 5.9211807636456864e-05 0 0.00094709812719686193 1.9720579815450916e-06 0 0.00090152086839307094 -9.1209267967715509e-06 0 0.00089577294097983482 -2.2020678592416829e-05 0 0.00058056220839797733 0.0001607777907480003 0 0.00063143885778321046 0.00031768960036432879 0 0.00092539417567070331 -2.0022360825426041e-06 0 0.00090152086839307094 -9.1209267967715509e-06 0 0.00089706477583346999 1.5734480044450709e-05 0 0.00017213002921184984 0.00071753919070537792 0 0.0002558543979603536 0.0005802969760291361 0 0.00048871666601940417 0.00057194629252414839 0 0.00077877727279715479 -4.10790307437386e-05 0 0.00058056220839797733 0.0001607777907480003 0 0.00045309642837216782 8.7036453610563131e-05 0 0.0004490754375409946 7.9986318910490683e-06 0 0.00034555213480533535 6.5092301056329341e-05 0 -0.00014940312508440818 0.00039018007982815592 0 0.00058056220839797733 0.0001607777907480003 0 -0.00014940312508440818 0.00039018007982815592 0 0.00011841198235439945 0.00064563101499815314 0 -0.00046861558053978798 0.00062764533305090123 0 0.0002558543979603536 0.0005802969760291361 0 -0.00025692335731848713 0.00046012249038287567 0 -0.00031994035988030259 0.00060668601571581347 0 0.00017213002921184984 0.00071753919070537792 0 0.0002558543979603536 0.0005802969760291361 0 -0.00025692335731848713 0.00046012249038287567 0 -9.4621387100928502e-05 0.00013834118156183896 0 -0.00060507079014039862 0.00036333067200149593 0 -0.00036569555479525897 0.00027517644041111407 0 -0.0011265504477666868 0.00030047908744610204 0 0.0002558543979603536 0.0005802969760291361 0 -0.00025692335731848713 0.00046012249038287567 0 4.9135478044112938e-05 0.00035443606676843965 0 -0.00025692335731848713 0.00046012249038287567 0 4.9135478044112938e-05 0.00035443606676843965 0 -9.4621387100928502e-05 0.00013834118156183896 0 0.0002558543979603536 0.0005802969760291361 0 0.00038048226706672422 0.00042365615593777838 0 0.00048871666601940417 0.00057194629252414839 0 0.0002558543979603536 0.0005802969760291361 0 0.00038048226706672422 0.00042365615593777838 0 0.00023009677363367234 0.00037295112407810597 0 0.00038048226706672422 0.00042365615593777838 0 0.00023009677363367234 0.00037295112407810597 0 0.0003594907386027707 0.00025627679977236189 0 0.0002558543979603536 0.0005802969760291361 0 0.00023009677363367234 0.00037295112407810597 0 4.9135478044112938e-05 0.00035443606676843965 0 4.9135478044112938e-05 0.00035443606676843965 0 0.00018739836524406006 0.00020941349716534639 0 -9.4621387100928502e-05 0.00013834118156183896 0 0.00023009677363367234 0.00037295112407810597 0 4.9135478044112938e-05 0.00035443606676843965 0 0.00018739836524406006 0.00020941349716534639 0 0.00023009677363367234 0.00037295112407810597 0 0.00018739836524406006 0.00020941349716534639 0 0.0003594907386027707 0.00025627679977236189 0 -0.00037073020489909974 -0.00025005747516292066 0 0.00013574777924053996 3.2073979621925275e-05 0 -0.00065032889587501841 0.0003740112791457465 0 0.00018739836524406006 0.00020941349716534639 0 0.00039276162139743702 -7.5675170278206624e-05 0 -9.4621387100928502e-05 0.00013834118156183896 0 0.00027242593060103435 -3.0045763006641668e-05 0 -0.00036569555479525897 0.00027517644041111407 0 0.00018739836524406006 0.00020941349716534639 0 0.0003594907386027707 0.00025627679977236189 0 0.00039276162139743702 -7.5675170278206624e-05 0 -0.00037073020489909974 -0.00025005747516292066 0 -0.00065032889587501841 0.0003740112791457465 0 -0.0011426740407796993 4.3970204120792901e-05 0 -0.0010669429535842244 -0.00017150828742776454 0 -0.0023488987154341129 -0.00017975033725422163 0 -0.0039584805013462843 -0.00086978089339850905 0 -0.0040433771972792068 -0.00083664031173382553 0 -0.0040701331172580844 -0.00090156718278476772 0 -0.00065032889587501841 0.0003740112791457465 0 -0.0011426740407796993 4.3970204120792901e-05 0 -0.0014287691010264904 0.000721236251746851 0 -0.0020796246503958843 -0.00021756615342634854 0 -0.0021516590604764223 -3.6338432901735289e-05 0 -0.0022309760987854468 -0.00016046408978949111 0 -0.0023488987154341129 -0.00017975033725422163 0 -0.0011265504477666868 0.00030047908744610204 0 -0.0039584805013462843 -0.00086978089339850905 0 -0.0040701331172580844 -0.00090156718278476772 0 -0.0039724745897774996 -0.00095212046356822643 0 -0.0023488987154341129 -0.00017975033725422163 0 -0.0032570878642693168 -0.00046257354828878507 0 -0.00037382646665538546 0.0002143498950487731 0 -0.0011265504477666868 0.00030047908744610204 0 -0.00046861558053978798 0.00062764533305090123 0 -0.00069369318701561914 0.00057940753735704904 0 -0.00060302939846242174 0.00036282373404882543 0 -0.00046861558053978798 0.00062764533305090123 0 -0.00025692335731848713 0.00046012249038287567 0 -0.00060302939846242174 0.00036282373404882543 0 -0.00018164378696804829 0.00049279205650884495 0 -0.0011265504477666868 0.00030047908744610204 0 -0.0021516590604764223 -3.6338432901735289e-05 0 -0.0022309760987854468 -0.00016046408978949111 0 -0.0023834505639975904 -0.00010416308874538838 0 -0.0011265504477666868 0.00030047908744610204 0 -0.0023745804270427781 -0.00036644202264377967 0 -0.0012978963070033349 -3.5896177093250488e-05 0 -0.0013153656231888399 -3.1275885902445337e-05 0 -0.0013264564840128148 -4.7092010308059103e-05 0 -0.0011265504477666868 0.00030047908744610204 0 -0.00071647547583722905 2.4023691399075738e-05 0 -0.00079688536453822794 8.0407600155644871e-05 0 -0.0008536601942921747 0.0002123400822507538 0 -0.00062817088702617901 0.00011450396835015775 0 -0.0032570878642693168 -0.00046257354828878507 0 -0.0023745804270427781 -0.00036644202264377967 0 -0.0039584805013462843 -0.00086978089339850905 0 -0.0039724745897774996 -0.00095212046356822643 0 -0.0038329089419003714 -0.00091806450404340902 0 -0.0039724745897774996 -0.00095212046356822643 0 -0.0038329089419003714 -0.00091806450404340902 0 -0.0038639186800807678 -0.00099850655639821106 0 -0.0038329089419003714 -0.00091806450404340902 0 -0.0037023882330283978 -0.00096864306222738041 0 -0.0038639186800807678 -0.00099850655639821106 0 -0.0027299830019270805 -0.00069950530106342018 0 -0.0023745804270427781 -0.00036644202264377967 0 -0.0037610591138274563 -0.00086819394837653525 0 -0.0038329089419003714 -0.00091806450404340902 0 -0.0037023882330283978 -0.00096864306222738041 0 -0.0036692481887711558 -0.00085398818373238496 0 -0.0037610591138274563 -0.00086819394837653525 0 -0.0037023882330283978 -0.00096864306222738041 0 -0.0015992058418011449 -0.00034068957042375226 0 -0.001589393441070764 -0.00029734843047354311 0 -0.0016527867332746086 -0.00029153729805690259 0 -0.001017004710088607 -0.00015236540685917399 0 -0.0017250943960659452 -0.00026492632764139401 0 -0.0015992058418011449 -0.00034068957042375226 0 -0.001589393441070764 -0.00029734843047354311 0 -0.0015614058220348843 -0.00031442313851982336 0 -0.00071647547583722905 2.4023691399075738e-05 0 -0.001017004710088607 -0.00015236540685917399 0 -0.001017004710088607 -0.00015236540685917399 0 -0.0023745804270427781 -0.00036644202264377967 0 -0.0013153656231888399 -3.1275885902445337e-05 0 -0.0013427076526568696 -4.2552252629133211e-05 0 -0.0013264564840128148 -4.7092010308059103e-05 0 -0.00057246258108048303 -8.1336638094168251e-05 0 -0.00018263074850344377 -5.7073994064189056e-06 0 -0.00036552698004298055 -0.00017414822747366493 0 -0.0027617621472005834 -0.00080154485927937916 0 -0.0026212104869673229 -0.00070118911563521089 0 -0.0021818912393450005 -0.00068053961429007223 0 -0.0019285996909543192 -0.00040685088519988637 0 -0.0017393866057260649 -0.00045645221900125456 0 -0.0020231342501079259 -0.00027219423752188656 0 -0.0019285996909543192 -0.00040685088519988637 0 -0.0018035004060345608 -0.00025986395991839021 0 -0.0019285996909543192 -0.00040685088519988637 0 -0.0017393866057260649 -0.00045645221900125456 0 -0.0018035004060345608 -0.00025986395991839021 0 -0.0027299830019270805 -0.00069950530106342018 0 -0.0026212104869673229 -0.00070118911563521089 0 -0.0015992058418011449 -0.00034068957042375226 0 -0.0017393866057260649 -0.00045645221900125456 0 -0.0016860702040675914 -0.00034395589732893317 0 -0.0036692481887711558 -0.00085398818373238496 0 -0.0037023882330283978 -0.00096864306222738041 0 -0.0035263939028798152 -0.00095082595116910038 0 -0.0017393866057260649 -0.00045645221900125456 0 -0.0016860702040675914 -0.00034395589732893317 0 -0.0018035004060345608 -0.00025986395991839021 0 -0.0013926682442952246 -0.00015429302343839978 0 -0.0016246897842617269 -0.00020708067254992521 0 -0.001772785863223321 -4.3513055331738819e-05 0 -0.001017004710088607 -0.00015236540685917399 0 -0.00075181937905270744 -0.00010490719397073707 0 -0.0016246897842617269 -0.00020708067254992521 0 -0.0017447266563677707 -0.00015348304735696454 0 -0.0018035004060345608 -0.00025986395991839021 0 -0.0017250943960659452 -0.00026492632764139401 0 -0.0017626184462767069 -0.00025979173734024598 0 -0.0016860702040675914 -0.00034395589732893317 0 -0.0016527867332746086 -0.00029153729805690259 0 -0.0018035004060345608 -0.00025986395991839021 0 -0.0015992058418011449 -0.00034068957042375226 0 -0.0016860702040675914 -0.00034395589732893317 0 -0.0016527867332746086 -0.00029153729805690259 0 -0.0016246897842617269 -0.00020708067254992521 0 -0.0017447266563677707 -0.00015348304735696454 0 -0.001772785863223321 -4.3513055331738819e-05 0 -0.0020231342501079259 -0.00027219423752188656 0 -0.0018689220046376911 -4.3353806837414239e-05 0 -0.0018263354123811643 -0.00012371137893323143 0 -0.0017447266563677707 -0.00015348304735696454 0 -0.0018035004060345608 -0.00025986395991839021 0 -0.0018263354123811643 -0.00012371137893323143 0 -0.0017447266563677707 -0.00015348304735696454 0 -0.0018263354123811643 -0.00012371137893323143 0 -0.001772785863223321 -4.3513055331738819e-05 0 -0.0020231342501079259 -0.00027219423752188656 0 -0.0018035004060345608 -0.00025986395991839021 0 -0.0018263354123811643 -0.00012371137893323143 0 -0.0018689220046376911 -4.3353806837414239e-05 0 -0.0018140584953464582 -0.00010486727353732827 0 -0.001772785863223321 -4.3513055331738819e-05 0 -0.0018689220046376911 -4.3353806837414239e-05 0 -0.0018263354123811643 -0.00012371137893323143 0 -0.001772785863223321 -4.3513055331738819e-05 0 0.00010900354828015785 -0.00018047119349210602 0 0.00015998732219843761 -0.00017197559332245366 0 0.00017903749088930073 -0.00016619330894640521 0 -0.00085594152439228473 -0.00013789038429590041 0 -0.00075181937905270744 -0.00010490719397073707 0 0.00010900354828015785 -0.00018047119349210602 0 0.00015998732219843761 -0.00017197559332245366 0 0.00014516562834919556 -0.00016441379783962889 0 0.00015998732219843761 -0.00017197559332245366 0 0.00016208438293850914 -0.00017693885490866615 0 0.00016193738092100545 -0.00015634719520238286 0 0.00017903749088930073 -0.00016619330894640521 0 0.00014519861824078509 -0.00019928957126211176 0 -0.00010442059632224388 -0.00018598161287759445 0 0.0001408850408216837 -0.00019956301141545128 0 6.2980670978768786e-05 -0.0001960833475236636 0 0.00014519861824078509 -0.00019928957126211176 0 0.00020296976017015875 -0.00018899948152503864 0 0.00025100218225707326 -0.00020763842382195369 0 0.00016208438293850914 -0.00017693885490866615 0 0.0001750345014101961 -0.00017907724482833166 0 0.00017550713975345131 -0.00016568030419203362 0 0.00016208438293850914 -0.00017693885490866615 0 0.00014519861824078509 -0.00019928957126211176 0 0.0001750345014101961 -0.00017907724482833166 0 0.00015998732219843761 -0.00017197559332245366 0 0.00016280753166024513 -0.0001815248094602164 0 0.00017903749088930073 -0.00016619330894640521 0 0.00015998732219843761 -0.00017197559332245366 0 0.00016208438293850914 -0.00017693885490866615 0 0.00016280753166024513 -0.0001815248094602164 0 0.00016208438293850914 -0.00017693885490866615 0 0.00016280753166024513 -0.0001815248094602164 0 0.00014519861824078509 -0.00019928957126211176 0 0.00016280753166024513 -0.0001815248094602164 0 0.00017903749088930073 -0.00016619330894640521 0 0.00014519861824078509 -0.00019928957126211176 0 0.00014519861824078509 -0.00019928957126211176 0 0.00020296976017015875 -0.00018899948152503864 0 0.0001750345014101961 -0.00017907724482833166 0 0.0001750345014101961 -0.00017907724482833166 0 0.00020194406615181196 -0.0001714648278292339 0 0.00017550713975345131 -0.00016568030419203362 0 0.00020296976017015875 -0.00018899948152503864 0 0.00020194406615181196 -0.0001714648278292339 0 0.00023124421979554193 -0.00018050579606348471 0 0.00020296976017015875 -0.00018899948152503864 0 0.0001750345014101961 -0.00017907724482833166 0 0.00020194406615181196 -0.0001714648278292339 0 0.00024516244198893411 -0.00016399396801243022 0 0.00031471576285963015 -0.00019335433075509935 0 0.00028750636172184636 -0.00018748011549464836 0 0.00018500167955295944 -0.00014313103159822939 0 0.00024516244198893411 -0.00016399396801243022 0 0.00015915715046272252 -5.8567993308528885e-05 0 0.0002527430322489568 -0.00016519291335437256 0 0.00022168113795373269 -0.00012721333209493905 0 0.00020194406615181196 -0.0001714648278292339 0 0.00018500167955295944 -0.00014313103159822939 0 0.00024516244198893411 -0.00016399396801243022 0 0.00020194406615181196 -0.0001714648278292339 0 0.00018500167955295944 -0.00014313103159822939 0 0.00017550713975345131 -0.00016568030419203362 0 0.00018500167955295944 -0.00014313103159822939 0 0.00016882799568923332 -0.00012956375482533342 0 0.00016193738092100545 -0.00015634719520238286 0 0.00016208438293850914 -0.00017693885490866615 0 0.00017550713975345131 -0.00016568030419203362 0 0.00016193738092100545 -0.00015634719520238286 0 0.00018500167955295944 -0.00014313103159822939 0 0.00017550713975345131 -0.00016568030419203362 0 0.00016193738092100545 -0.00015634719520238286 0 0.00015998732219843761 -0.00017197559332245366 0 0.00016193738092100545 -0.00015634719520238286 0 0.00014516562834919556 -0.00016441379783962889 0 0.00016193738092100545 -0.00015634719520238286 0 0.00013923028392242347 -0.00014977406893645022 0 0.00014516562834919556 -0.00016441379783962889 0 0.00016882799568923332 -0.00012956375482533342 0 0.00016193738092100545 -0.00015634719520238286 0 0.00014980785756577359 -0.00012940676294214863 0 0.00016193738092100545 -0.00015634719520238286 0 0.00013923028392242347 -0.00014977406893645022 0 0.00014980785756577359 -0.00012940676294214863 0 0.00012017765773183961 -0.00013437397829512085 0 0.00013923028392242347 -0.00014977406893645022 0 0.00014980785756577359 -0.00012940676294214863 0 0.00010900354828015785 -0.00018047119349210602 0 0.00013923028392242347 -0.00014977406893645022 0 0.00014516562834919556 -0.00016441379783962889 0 0.00025304415564348596 -0.00016833464434680805 0 0.00025358731217955174 -0.00017729696508446546 0 0.00025470085016247531 -0.00017246045055787658 0 3.5025509933939453e-05 -0.00015714819209351131 0 0.00033306953881513028 -0.00020969917694884974 0 3.5025509933939453e-05 -0.00015714819209351131 0 6.2980670978768786e-05 -0.0001960833475236636 0 0.00025304415564348596 -0.00016833464434680805 0 0.00025470085016247531 -0.00017246045055787658 0 0.00025240890836037593 -0.00017320588126790816 0 0.0003180542073865126 -0.0002090957848116022 0 0.00025100218225707326 -0.00020763842382195369 0 0.00025358731217955174 -0.00017729696508446546 0 -0.00018263074850344377 -5.7073994064189056e-06 0 -0.00036552698004298055 -0.00017414822747366493 0 -0.00010442059632224388 -0.00018598161287759445 0 -0.00018263074850344377 -5.7073994064189056e-06 0 0.00017903749088930073 -0.00016619330894640521 0 -0.00010442059632224388 -0.00018598161287759445 0 0.00020296976017015875 -0.00018899948152503864 0 0.00025100218225707326 -0.00020763842382195369 0 0.00023124421979554193 -0.00018050579606348471 0 0.00025100218225707326 -0.00020763842382195369 0 0.00023124421979554193 -0.00018050579606348471 0 0.00025358731217955174 -0.00017729696508446546 0 0.00023124421979554193 -0.00018050579606348471 0 0.00025358731217955174 -0.00017729696508446546 0 0.00024516244198893411 -0.00016399396801243022 0 0.00020194406615181196 -0.0001714648278292339 0 0.00023124421979554193 -0.00018050579606348471 0 0.00024516244198893411 -0.00016399396801243022 0 0.00025358731217955174 -0.00017729696508446546 0 0.00025392326120536189 -0.00017027063060664756 0 0.00025470085016247531 -0.00017246045055787658 0 0.00025392326120536189 -0.00017027063060664756 0 0.00025561380395887264 -0.00017241536812177184 0 0.00025492717323971945 -0.00017321377715832743 0 0.00024516244198893411 -0.00016399396801243022 0 0.00025561380395887264 -0.00017241536812177184 0 0.00028750636172184636 -0.00018748011549464836 0 0.00025392326120536189 -0.00017027063060664756 0 0.00025492717323971945 -0.00017321377715832743 0 0.00025470085016247531 -0.00017246045055787658 0 0.00025392326120536189 -0.00017027063060664756 0 0.00024516244198893411 -0.00016399396801243022 0 0.00025561380395887264 -0.00017241536812177184 0 0.00025358731217955174 -0.00017729696508446546 0 0.00025392326120536189 -0.00017027063060664756 0 0.00024516244198893411 -0.00016399396801243022 0 0.00025561380395887264 -0.00017241536812177184 0 0.00026044826725495128 -0.00018020173631597345 0 0.00028750636172184636 -0.00018748011549464836 0 0.00025561380395887264 -0.00017241536812177184 0 0.00025708036557524464 -0.00017780535169393017 0 0.00025492717323971945 -0.00017321377715832743 0 0.00025561380395887264 -0.00017241536812177184 0 0.00025708036557524464 -0.00017780535169393017 0 0.00026044826725495128 -0.00018020173631597345 0 0.00025708036557524464 -0.00017780535169393017 0 0.00025492717323971945 -0.00017321377715832743 0 0.00025396414479214108 -0.00017656937416135471 0 0.00025492717323971945 -0.00017321377715832743 0 0.00025240890836037593 -0.00017320588126790816 0 0.00025396414479214108 -0.00017656937416135471 0 0.00025492717323971945 -0.00017321377715832743 0 0.00025470085016247531 -0.00017246045055787658 0 0.00025240890836037593 -0.00017320588126790816 0 0.00025240890836037593 -0.00017320588126790816 0 0.00025396414479214108 -0.00017656937416135471 0 0.00025096760518021762 -0.00017793201768417086 0 0.00025708036557524464 -0.00017780535169393017 0 0.00025396414479214108 -0.00017656937416135471 0 0.00026164608781744297 -0.00018371545981002834 0 0.00025396414479214108 -0.00017656937416135471 0 0.00026164608781744297 -0.00018371545981002834 0 0.00025096760518021762 -0.00017793201768417086 0 0.00077935122666536612 -0.00017176488809145709 0 0.00076022977611830587 -7.5810524533839182e-05 0 0.0012260777573085435 -0.00010863802482176818 0 0.0011367704115547836 -0.00014381262326460564 0 0.0010874500278140115 -3.8441841247156632e-05 0 0.00026044826725495128 -0.00018020173631597345 0 0.00026970672684337648 -0.00019903271860249484 0 0.00025476271180836118 -0.00021214646310563972 0 0.00025708036557524464 -0.00017780535169393017 0 0.00026044826725495128 -0.00018020173631597345 0 0.00026164608781744297 -0.00018371545981002834 0 0.00034049581073060099 -0.00024508670757445952 0 0.00077935122666536612 -0.00017176488809145709 0 0.00026044826725495128 -0.00018020173631597345 0 0.00026970672684337648 -0.00019903271860249484 0 0.00028750636172184636 -0.00018748011549464836 0 0.00026970672684337648 -0.00019903271860249484 0 0.00025476271180836118 -0.00021214646310563972 0 0.00029179006524763786 -0.00023184774735034711 0 0.00077935122666536612 -0.00017176488809145709 0 0.0013074311098277547 -0.00020503758022366657 0 0.0013057252658296185 -0.00024047633637780782 0 0.0013046548762017701 -0.00022446321179731552 0 0.0013112043236123017 -0.00021372310790710765 0 0.00077935122666536612 -0.00017176488809145709 0 0.00054225738019401037 -0.00027850686326710768 0 0.0013057252658296185 -0.00024047633637780782 0 0.0013046548762017701 -0.00022446321179731552 0 0.0012867938038592988 -0.00023403614667330587 0 0.0011788297493296241 -0.00017330399906421759 0 0.0011822324007148589 -0.00022449530668321995 0 0.0012260777573085435 -0.00010863802482176818 0 0.0011367704115547836 -0.00014381262326460564 0 0.0012012910012936279 -0.00022762162285721655 0 0.00014038512217755193 -0.00010836119825369084 0 0.0001594707742848878 -0.00011266454917722564 0 0.00015421328316912324 -8.5857645359711663e-05 0 0.00013073394825568264 -8.7258241580185757e-05 0 0.00014038512217755193 -0.00010836119825369084 0 0.00015421328316912324 -8.5857645359711663e-05 0 0.00012017765773183961 -0.00013437397829512085 0 0.00014038512217755193 -0.00010836119825369084 0 0.00014980785756577359 -0.00012940676294214863 0 0.00014038512217755193 -0.00010836119825369084 0 0.00014980785756577359 -0.00012940676294214863 0 0.0001594707742848878 -0.00011266454917722564 0 0.00016882799568923332 -0.00012956375482533342 0 0.00014980785756577359 -0.00012940676294214863 0 0.0001594707742848878 -0.00011266454917722564 0 0.0001594707742848878 -0.00011266454917722564 0 0.0001811049881438024 -0.0001100032263860309 0 0.00015421328316912324 -8.5857645359711663e-05 0 0.00029948516291115987 -0.00016961550145017963 0 0.00054225738019401037 -0.00027850686326710768 0 0.00017695125547893188 -0.00011854133057086409 0 0.00022168113795373269 -0.00012721333209493905 0 0.00031471576285963015 -0.00019335433075509935 0 0.00028750636172184636 -0.00018748011549464836 0 0.00030742225928743154 -0.00021191795071661508 0 0.00018500167955295944 -0.00014313103159822939 0 0.00016882799568923332 -0.00012956375482533342 0 0.0001811049881438024 -0.0001100032263860309 0 0.00026970672684337648 -0.00019903271860249484 0 0.00028750636172184636 -0.00018748011549464836 0 0.00029179006524763786 -0.00023184774735034711 0 0.00016882799568923332 -0.00012956375482533342 0 0.0001594707742848878 -0.00011266454917722564 0 0.0001811049881438024 -0.0001100032263860309 0 0.00031471576285963015 -0.00019335433075509935 0 0.00032665827612324738 -0.00021530835924990686 0 0.00034029990233985108 -0.00022380045275838755 0 0.00022168113795373269 -0.00012721333209493905 0 0.00023470364563422727 -0.00015547844663989929 0 0.00054225738019401037 -0.00027850686326710768 0 0.00033645539491048776 -0.00019632864663857489 0 0.00032514298239134812 -0.00021291908705919744 0 0.00032665827612324738 -0.00021530835924990686 0 0.00033272138203231503 -0.00022151259408405982 0 0.00032665827612324738 -0.00021530835924990686 0 0.00034029990233985108 -0.00022380045275838755 0 0.00033272138203231503 -0.00022151259408405982 0 0.00031471576285963015 -0.00019335433075509935 0 0.00030742225928743154 -0.00021191795071661508 0 0.00032665827612324738 -0.00021530835924990686 0 0.0001811049881438024 -0.0001100032263860309 0 0.00015421328316912324 -8.5857645359711663e-05 0 0.00015333985034157816 -4.3296587320141875e-05 0 0.00014030245206252061 -6.598372079031362e-05 0 0.00015421328316912324 -8.5857645359711663e-05 0 0.00015333985034157816 -4.3296587320141875e-05 0 0.00022168113795373269 -0.00012721333209493905 0 0.00015954829853150106 -4.2015652590007922e-05 0 0.00022036904959660039 -0.00012223786089260045 0 0.00017440785441996844 -4.955089363363556e-05 0 0.00020409509445412749 -5.4198387645925808e-05 0 0.00013073394825568264 -8.7258241580185757e-05 0 0.00014030245206252061 -6.598372079031362e-05 0 0.00015421328316912324 -8.5857645359711663e-05 0 0.00034029990233985108 -0.00022380045275838755 0 0.00034055295811931749 -0.00022611692058996502 0 0.0003503335828050356 -0.0002305873814670721 0 0.00023470364563422727 -0.00015547844663989929 0 0.00072628016793606712 -9.4918628687874968e-06 0 0.00017440785441996844 -4.955089363363556e-05 0 0.00020409509445412749 -5.4198387645925808e-05 0 0.00017968153946041902 4.2804810188546134e-06 0 0.00032514298239134812 -0.00021291908705919744 0 0.00033272138203231503 -0.00022151259408405982 0 0.00033391738034151309 -0.0002318770742997166 0 0.00054225738019401037 -0.00027850686326710768 0 0.0011198564174258029 -0.00015262008466003372 0 0.00041982753888572256 -0.0002260657366172624 0 0.00081019247449080488 -0.00011543963800043923 0 0.00034055295811931749 -0.00022611692058996502 0 0.00033391738034151309 -0.0002318770742997166 0 0.00034727047964452229 -0.00023839260689105583 0 0.00034055295811931749 -0.00022611692058996502 0 0.00033272138203231503 -0.00022151259408405982 0 0.00033391738034151309 -0.0002318770742997166 0 0.00034029990233985108 -0.00022380045275838755 0 0.00034055295811931749 -0.00022611692058996502 0 0.00033272138203231503 -0.00022151259408405982 0 0.0012860315047700428 -0.00023697190324352299 0 0.001277455142255537 -5.7563606947632809e-05 0 0.001381610309689952 -0.00011453795355157352 0 0.0013196748486878661 -0.00025576813318991051 0 0.0011198564174258029 -0.00015262008466003372 0 0.0011198564174258029 -0.00015262008466003372 0 0.00081019247449080488 -0.00011543963800043923 0 0.00020409509445412749 -5.4198387645925808e-05 0 0.00018680298705810468 8.1613962758857767e-06 0 0.00017968153946041902 4.2804810188546134e-06 0 0.00034055295811931749 -0.00022611692058996502 0 0.00034650709197091024 -0.00022982073083072275 0 0.0003503335828050356 -0.0002305873814670721 0 0.0012926500354373501 -0.00021039073414531189 0 0.00081019247449080488 -0.00011543963800043923 0 0.00013621483490774259 1.4057028492235793e-05 0 0.00017440785441996844 -4.955089363363556e-05 0 0.00017968153946041902 4.2804810188546134e-06 0 0.00013621483490774259 1.4057028492235793e-05 0 0.00017250869344526059 1.5445394750206903e-05 0 0.00017968153946041902 4.2804810188546134e-06 0 0.0011646985541758706 -0.00017113209968382223 0 0.0011124558669231336 0.00012649028059741191 0 0.0012059825196577497 7.5742142366748484e-05 0 0.00081019247449080488 -0.00011543963800043923 0 0.00072628016793606712 -9.4918628687874968e-06 0 0.0011461467667567323 -0.00010752930414288005 0 0.00072628016793606712 -9.4918628687874968e-06 0 0.0008880650442366089 5.046011657092254e-05 0 0.00071464539553718707 0.00013139493135327056 0 0.00018680298705810468 8.1613962758857767e-06 0 0.00017771449342665667 1.3205348954511787e-05 0 0.00017968153946041902 4.2804810188546134e-06 0 0.0012554250301109681 -0.00011354307159421383 0 0.0012031093747108263 8.4759358065555917e-05 0 0.0012775010062217619 4.4508886852482186e-05 0 0.00072628016793606712 -9.4918628687874968e-06 0 0.0008880650442366089 5.046011657092254e-05 0 0.0011929083809740558 -0.00024069085240524388 0 0.0012012910012936279 -0.00022762162285721655 0 0.0011859793797823553 -0.00031467041723621673 0 0.0011654815572827697 -0.0001683948124002393 0 0.0011929083809740558 -0.00024069085240524388 0 0.0011589372330804003 -0.00022512510371890327 0 0.0011367704115547836 -0.00014381262326460564 0 0.0011929083809740558 -0.00024069085240524388 0 0.0012012910012936279 -0.00022762162285721655 0 0.0011929083809740558 -0.00024069085240524388 0 0.0011718725670892122 -0.00024774275544999457 0 0.0011728828384135613 -0.00027336518434810684 0 0.0011559891745336706 -0.0002625246209690927 0 0.0011718725670892122 -0.00024774275544999457 0 0.0011589372330804003 -0.00022512510371890327 0 0.0011559891745336706 -0.0002625246209690927 0 0.0011718725670892122 -0.00024774275544999457 0 0.0011728828384135613 -0.00027336518434810684 0 0.0011929083809740558 -0.00024069085240524388 0 0.0011718725670892122 -0.00024774275544999457 0 0.0011589372330804003 -0.00022512510371890327 0 0.0013046548762017701 -0.00022446321179731552 0 0.0012867938038592988 -0.00023403614667330587 0 0.0012868995485151456 -0.00019909300715068468 0 0.0013046548762017701 -0.00022446321179731552 0 0.0012868995485151456 -0.00019909300715068468 0 0.0013158582221088067 -0.00021499658507928519 0 0.0013046548762017701 -0.00022446321179731552 0 0.0013112043236123017 -0.00021372310790710765 0 0.0013158582221088067 -0.00021499658507928519 0 0.0013725546785233391 -0.00023771534499017965 0 0.0013158582221088067 -0.00021499658507928519 0 0.0013313680419838102 -0.00025730678815506596 0 0.0011198564174258029 -0.00015262008466003372 0 0.0013832757988365837 -0.00024993682397766071 0 0.0013112043236123017 -0.00021372310790710765 0 0.0013158582221088067 -0.00021499658507928519 0 0.0013313680419838102 -0.00025730678815506596 0 0.001380685129557728 -0.00030370965086696513 0 0.0013725546785233391 -0.00023771534499017965 0 0.0013313680419838102 -0.00025730678815506596 0 0.0013312471815300321 -0.00030982276404105754 0 0.001380685129557728 -0.00030370965086696513 0 0.0013313680419838102 -0.00025730678815506596 0 0.0013312471815300321 -0.00030982276404105754 0 0.0013313680419838102 -0.00025730678815506596 0 0.0012959107183067866 -0.00027867756637401519 0 0.0013112043236123017 -0.00021372310790710765 0 0.0013313680419838102 -0.00025730678815506596 0 0.0012959107183067866 -0.00027867756637401519 0 0.0011929083809740558 -0.00024069085240524388 0 0.0011728828384135613 -0.00027336518434810684 0 0.0011859793797823553 -0.00031467041723621673 0 0.0013074311098277547 -0.00020503758022366657 0 0.0011866679041821842 -0.00030718372418020901 0 0.0011559891745336706 -0.0002625246209690927 0 0.0011728828384135613 -0.00027336518434810684 0 0.0011555196219884076 -0.00030416471239970352 0 0.0011728828384135613 -0.00027336518434810684 0 0.0011859793797823553 -0.00031467041723621673 0 0.0011555196219884076 -0.00030416471239970352 0 0.0011637941233412742 -0.0003501773779727756 0 0.0011859793797823553 -0.00031467041723621673 0 0.0011555196219884076 -0.00030416471239970352 0 0.0014259715331308804 -0.00034516934301696497 0 0.0011544578817880224 -0.00035975950160960891 0 0.0011287834443381101 -0.0003564313939478201 0 0.0011270534191457106 -0.00028609205257801762 0 0.0010700742321149458 -0.00027415369632121208 0 0.0014259715331308804 -0.00034516934301696497 0 0.0013487691750636492 -0.00028046244291532273 0 0.0011287834443381101 -0.0003564313939478201 0 0.0011555196219884076 -0.00030416471239970352 0 0.0011270534191457106 -0.00028609205257801762 0 0.0011559891745336706 -0.0002625246209690927 0 0.0011555196219884076 -0.00030416471239970352 0 0.0011270534191457106 -0.00028609205257801762 0 0.0016712423089249727 -0.00033867673400666474 0 0.0016358369060226205 -0.00032870164822570947 0 0.0016356009222821843 -0.00028851343699443159 0 0.0016358369060226205 -0.00032870164822570947 0 0.0016356009222821843 -0.00028851343699443159 0 0.0015783242618716328 -0.0002943405591539055 0 0.0010700742321149458 -0.00027415369632121208 0 0.0010910622840705441 -0.00017731634910149658 0 0.0010113441957277237 -0.00019242499099662481 0 0.0013487691750636492 -0.00028046244291532273 0 0.0013019581231571581 -0.00021692392547855325 0 0.0010700742321149458 -0.00027415369632121208 0 0.0011241712279001959 -0.00023460784038262665 0 0.0010910622840705441 -0.00017731634910149658 0 0.0011559891745336706 -0.0002625246209690927 0 0.0011270534191457106 -0.00028609205257801762 0 0.0011241712279001959 -0.00023460784038262665 0 0.0011559891745336706 -0.0002625246209690927 0 0.0011589372330804003 -0.00022512510371890327 0 0.0011241712279001959 -0.00023460784038262665 0 0.0011270534191457106 -0.00028609205257801762 0 0.0010700742321149458 -0.00027415369632121208 0 0.0011241712279001959 -0.00023460784038262665 0 0.0011589372330804003 -0.00022512510371890327 0 0.0011241712279001959 -0.00023460784038262665 0 0.0011335523124088463 -0.00019870642237054803 0 0.0011654815572827697 -0.0001683948124002393 0 0.0011335523124088463 -0.00019870642237054803 0 0.0010910622840705441 -0.00017731634910149658 0 0.0011654815572827697 -0.0001683948124002393 0 0.0011589372330804003 -0.00022512510371890327 0 0.0011335523124088463 -0.00019870642237054803 0 0.0011241712279001959 -0.00023460784038262665 0 0.0011335523124088463 -0.00019870642237054803 0 0.0010910622840705441 -0.00017731634910149658 0 0.0010910622840705441 -0.00017731634910149658 0 0.0010307770040153365 -0.00011982701717187227 0 0.0010113441957277237 -0.00019242499099662481 0 0.0010910622840705441 -0.00017731634910149658 0 0.0010307770040153365 -0.00011982701717187227 0 0.0011320251800229005 -9.2182747338691358e-05 0 0.0011654815572827697 -0.0001683948124002393 0 0.0010910622840705441 -0.00017731634910149658 0 0.0011320251800229005 -9.2182747338691358e-05 0 0.0011788297493296241 -0.00017330399906421759 0 0.00076022977611830587 -7.5810524533839182e-05 0 0.0015562551411615003 -0.00020405042546903747 0 0.0014628386316092611 -0.00022207887797277536 0 0.0015422417549389961 -0.0002080120382661349 0 0.0014956746064408446 -0.00020826149363153864 0 0.0015025954208177912 -0.00019295517650516178 0 0.0015422417549389961 -0.0002080120382661349 0 0.0015340422351661303 -0.0001923073753083677 0 0.0015025954208177912 -0.00019295517650516178 0 0.0010307770040153365 -0.00011982701717187227 0 0.00095217011766753361 -0.00010828797338879889 0 0.0010113441957277237 -0.00019242499099662481 0 0.00097649549612513356 -5.444763774669656e-05 0 0.0010307770040153365 -0.00011982701717187227 0 0.00095217011766753361 -0.00010828797338879889 0 0.0015422417549389961 -0.0002080120382661349 0 0.0015340422351661303 -0.0001923073753083677 0 0.0015903437390248566 -0.00023757733101612824 0 0.0012407390393403234 -0.00014757582925985837 0 0.0013019581231571581 -0.00021692392547855325 0 0.0015422417549389961 -0.0002080120382661349 0 0.0015903437390248566 -0.00023757733101612824 0 0.0015459107280325957 -0.00024821449213543681 0 0.0015422417549389961 -0.0002080120382661349 0 0.0015459107280325957 -0.00024821449213543681 0 0.0015176300210572094 -0.00022070353846795676 0 0.0015459107280325957 -0.00024821449213543681 0 0.0015783242618716328 -0.0002943405591539055 0 0.0015029471190888826 -0.00027789537424844491 0 0.0015903437390248566 -0.00023757733101612824 0 0.0015459107280325957 -0.00024821449213543681 0 0.0015783242618716328 -0.0002943405591539055 0 0.0016356009222821843 -0.00028851343699443159 0 0.0015903437390248566 -0.00023757733101612824 0 0.0015783242618716328 -0.0002943405591539055 0 0.0016358369060226205 -0.00032870164822570947 0 0.0016084874274377567 -0.00034917609303148798 0 0.0015783242618716328 -0.0002943405591539055 0 0.0015316560854803261 -0.00033414783328564553 0 0.0015783242618716328 -0.0002943405591539055 0 0.0015029471190888826 -0.00027789537424844491 0 0.001947247735037241 -0.00036634807136888249 0 0.0019162878192451667 -0.00027224953946774219 0 0.0023672680209587877 -0.000399586915559841 0 0.0022372439888838193 -0.00033151994386186221 0 0.0023010046198960817 -0.00027345453129552219 0 0.0023010046198960817 -0.00027345453129552219 0 0.0022017587940705032 -0.00024613323908249495 0 0.0022331211597280279 -0.00014856699323444921 0 0.0019162878192451667 -0.00027224953946774219 0 0.00173135687454701 -0.000239729952675479 0 0.0022372439888838193 -0.00033151994386186221 0 0.0023010046198960817 -0.00027345453129552219 0 0.0022017587940705032 -0.00024613323908249495 0 0.0021515438143739326 -0.00035325742002447483 0 0.002225834337416042 -0.00036076337674423287 0 0.002147159742206417 -0.00044323108539950793 0 0.0022731984519952782 -0.00042057429140921073 0 0.002225834337416042 -0.00036076337674423287 0 0.0022697476335680486 -0.0003641641129198126 0 0.0022755811629377267 -0.0004343940568261176 0 0.0022187341329725475 -0.00033628989200989686 0 0.0023227977286245059 -0.00045463298537233565 0 0.0022731984519952782 -0.00042057429140921073 0 0.0022697476335680486 -0.0003641641129198126 0 0.0022367535981296658 -0.00041901146439590249 0 0.0022372439888838193 -0.00033151994386186221 0 0.0021236929767470699 -0.00031298506029399397 0 0.0022372439888838193 -0.00033151994386186221 0 0.0021236929767470699 -0.00031298506029399397 0 0.0022017587940705032 -0.00024613323908249495 0 0.0022017587940705032 -0.00024613323908249495 0 0.0021165921837846854 -0.00023455981186478784 0 0.0021256180838426066 -0.0001756452401595303 0 0.0021236929767470699 -0.00031298506029399397 0 0.0022017587940705032 -0.00024613323908249495 0 0.0021165921837846854 -0.00023455981186478784 0 0.0021165921837846854 -0.00023455981186478784 0 0.0021256180838426066 -0.0001756452401595303 0 0.0020146464663029205 -0.00020342130825848882 0 0.0021515438143739326 -0.00035325742002447483 0 0.002225834337416042 -0.00036076337674423287 0 0.0021251992743215996 -0.00018760510459368967 0 0.0021236929767470699 -0.00031298506029399397 0 0.0021165921837846854 -0.00023455981186478784 0 0.0020146464663029205 -0.00020342130825848882 0 0.0022187341329725475 -0.00033628989200989686 0 0.0019148569288308919 -0.00024090421201315018 0 0.002225834337416042 -0.00036076337674423287 0 0.0022697476335680486 -0.0003641641129198126 0 0.0021251992743215996 -0.00018760510459368967 0 0.0017083258848942053 -0.00026970490386783085 0 0.0017243827915067128 -0.00028743769409133213 0 0.0017334627677477292 -0.00026137517561959867 0 0.0019518644422559599 -0.00021420053401002601 0 0.0019148569288308919 -0.00024090421201315018 0 0.0022017587940705032 -0.00024613323908249495 0 0.0021256180838426066 -0.0001756452401595303 0 0.0022331211597280279 -0.00014856699323444921 0 0.0019518644422559599 -0.00021420053401002601 0 0.00173135687454701 -0.000239729952675479 0 0.00173135687454701 -0.000239729952675479 0 0.001571604995032692 -0.00023513981025901753 0 0.0017083258848942053 -0.00026970490386783085 0 0.001689916090089392 -0.00027401547603930066 0 0.0017004272166942485 -0.00029894655562750935 0 0.0017083258848942053 -0.00026970490386783085 0 0.0017243827915067128 -0.00028743769409133213 0 0.0017004272166942485 -0.00029894655562750935 0 0.0015459107280325957 -0.00024821449213543681 0 0.0015029471190888826 -0.00027789537424844491 0 0.0015176300210572094 -0.00022070353846795676 0 0.0014628386316092611 -0.00022207887797277536 0 0.00173135687454701 -0.000239729952675479 0 0.0015029471190888826 -0.00027789537424844491 0 0.0015176300210572094 -0.00022070353846795676 0 0.001481742274140038 -0.00023151891874873397 0 0.0014816463361452821 -0.00020336622887149645 0 0.001483556095555804 -0.00018950482744709642 0 0.0014871902556018982 -0.00018088634585687886 0 0.0014956746064408446 -0.00020826149363153864 0 0.0014816463361452821 -0.00020336622887149645 0 0.001483556095555804 -0.00018950482744709642 0 0.0014956746064408446 -0.00020826149363153864 0 0.001483556095555804 -0.00018950482744709642 0 0.0015025954208177912 -0.00019295517650516178 0 0.001483556095555804 -0.00018950482744709642 0 0.0015025954208177912 -0.00019295517650516178 0 0.001481243383871373 -0.00018125991482927372 0 0.00089577294097983482 -2.2020678592416829e-05 0 0.00089706477583346999 1.5734480044450709e-05 0 0.00086504705229873975 3.5063591972855236e-05 0 0.0012022812669080405 -0.00012431696689824159 0 0.0011129903510488416 3.4508647341740784e-06 0 0.00090152086839307094 -9.1209267967715509e-06 0 0.00089577294097983482 -2.2020678592416829e-05 0 0.00089706477583346999 1.5734480044450709e-05 0 0.001475162700383216 -0.00018986504080009995 0 0.0014543367376358256 -0.00021347906366167463 0 0.0014734092195032135 -0.00021018379795351562 0 0.001481243383871373 -0.00018125991482927372 0 0.001475162700383216 -0.00018986504080009995 0 0.0014543367376358256 -0.00021347906366167463 0 0.001483556095555804 -0.00018950482744709642 0 0.001475162700383216 -0.00018986504080009995 0 0.0014871902556018982 -0.00018088634585687886 0 0.001483556095555804 -0.00018950482744709642 0 0.001481243383871373 -0.00018125991482927372 0 0.001475162700383216 -0.00018986504080009995 0 0.0017243827915067128 -0.00028743769409133213 0 0.0017004272166942485 -0.00029894655562750935 0 0.0017157416799721203 -0.00030133592631189889 0 0.0017004272166942485 -0.00029894655562750935 0 0.0016957798959476998 -0.00030816836275107185 0 0.0017157416799721203 -0.00030133592631189889 0 0.001475162700383216 -0.00018986504080009995 0 0.001535950377230307 -0.00019719679665350712 0 0.0014734092195032135 -0.00021018379795351562 0 0.001571604995032692 -0.00023513981025901753 0 0.0016212691423103602 -0.00025972430928254664 0 0.001475162700383216 -0.00018986504080009995 0 0.0014871902556018982 -0.00018088634585687886 0 0.001535950377230307 -0.00019719679665350712 0 0.001535950377230307 -0.00019719679665350712 0 0.0014881844171342 -0.00023900744690028681 0 0.0015224858895469841 -0.00027390605343486735 0 0.001535950377230307 -0.00019719679665350712 0 0.0014881844171342 -0.00023900744690028681 0 0.0014734092195032135 -0.00021018379795351562 0 0.0014881844171342 -0.00023900744690028681 0 0.0014734092195032135 -0.00021018379795351562 0 0.0014604301916669614 -0.00024554147100556853 0 0.001535950377230307 -0.00019719679665350712 0 0.0015754888353715702 -0.0002996308899312268 0 0.0015224858895469841 -0.00027390605343486735 0 0.0016212691423103602 -0.00025972430928254664 0 0.0016501948800886784 -0.00031827531442304508 0 0.001535950377230307 -0.00019719679665350712 0 0.0015754888353715702 -0.0002996308899312268 0 0.0016513924014894626 -0.00031915548599483661 0 0.0015754888353715702 -0.0002996308899312268 0 0.0015224858895469841 -0.00027390605343486735 0 0.0015245165001193273 -0.00032674491069538636 0 0.0015754888353715702 -0.0002996308899312268 0 0.0015245165001193273 -0.00032674491069538636 0 0.0016100901632627763 -0.00038132558406456533 0 0.0015754888353715702 -0.0002996308899312268 0 0.0016513924014894626 -0.00031915548599483661 0 0.0016100901632627763 -0.00038132558406456533 0 0.0014704835097597224 -0.00030263291020615605 0 0.0014422794370124255 -0.00027770808626272449 0 0.0014604301916669614 -0.00024554147100556853 0 0.0014881844171342 -0.00023900744690028681 0 0.0014704835097597224 -0.00030263291020615605 0 0.0014604301916669614 -0.00024554147100556853 0 0.0015224858895469841 -0.00027390605343486735 0 0.0015245165001193273 -0.00032674491069538636 0 0.0014704835097597224 -0.00030263291020615605 0 0.0014881844171342 -0.00023900744690028681 0 0.0015224858895469841 -0.00027390605343486735 0 0.0014704835097597224 -0.00030263291020615605 0 0.0015245165001193273 -0.00032674491069538636 0 0.0014704835097597224 -0.00030263291020615605 0 0.0014309065584084202 -0.00039037887209707103 0 0.0011216223862779977 4.2964212706467529e-05 0 0.0011677889499064978 -0.00028406123985319661 0 0.0014309065584084202 -0.00039037887209707103 0 0.0014704835097597224 -0.00030263291020615605 0 0.0014422794370124255 -0.00027770808626272449 0 0.0014309065584084202 -0.00039037887209707103 0 0.0012822914853260951 -0.00012279690626817744 0 0.0014242602043167988 -0.00036329623681211759 0 0.0011216223862779977 4.2964212706467529e-05 0 0.0011677889499064978 -0.00028406123985319661 0 0.00088370122252335193 -0.00031474605682608054 0 0.0011216223862779977 4.2964212706467529e-05 0 0.00073226771539128027 5.497155022533706e-05 0 0.00088370122252335193 -0.00031474605682608054 0 0.00039276162139743702 -7.5675170278206624e-05 0 0.00073226771539128027 5.497155022533706e-05 0 0.00088370122252335193 -0.00031474605682608054 0 0.00027242593060103435 -3.0045763006641668e-05 0 0.00083663800526139517 -0.00028898024845142159 0 0.00039276162139743702 -7.5675170278206624e-05 0 0.00052252387459259431 0.00013685762983760237 0 0.00073226771539128027 5.497155022533706e-05 0 0.0003594907386027707 0.00025627679977236189 0 0.00039276162139743702 -7.5675170278206624e-05 0 0.00052252387459259431 0.00013685762983760237 0 0.00073226771539128027 5.497155022533706e-05 0 0.00057297932074843621 0.00032931408460260979 0 0.00084966119786576905 0.00040336227212150598 0 0.00052252387459259431 0.00013685762983760237 0 0.00073226771539128027 5.497155022533706e-05 0 0.00057297932074843621 0.00032931408460260979 0 0.0003594907386027707 0.00025627679977236189 0 0.00052252387459259431 0.00013685762983760237 0 0.00057297932074843621 0.00032931408460260979 0 0.00038048226706672422 0.00042365615593777838 0 0.0003594907386027707 0.00025627679977236189 0 0.00057297932074843621 0.00032931408460260979 0 0.00038048226706672422 0.00042365615593777838 0 0.00048871666601940417 0.00057194629252414839 0 0.00057297932074843621 0.00032931408460260979 0 0.00048871666601940417 0.00057194629252414839 0 0.00057297932074843621 0.00032931408460260979 0 0.00084966119786576905 0.00040336227212150598 0 0.00063143885778321046 0.00031768960036432879 0 0.0011129903510488416 3.4508647341740784e-06 0 0.0014543367376358256 -0.00021347906366167463 0 0.0014734092195032135 -0.00021018379795351562 0 0.0014528111356857838 -0.00022434974901863413 0 0.0011129903510488416 3.4508647341740784e-06 0 0.0013341373505386333 -0.00012107574597383421 0 0.0014734092195032135 -0.00021018379795351562 0 0.0014604301916669614 -0.00024554147100556853 0 0.0014528111356857838 -0.00022434974901863413 0 0.0014422794370124255 -0.00027770808626272449 0 0.0014604301916669614 -0.00024554147100556853 0 0.0014528111356857838 -0.00022434974901863413 0 0.0014422794370124255 -0.00027770808626272449 0 0.001445196969759231 -0.00021257147933928199 0 0.0014528111356857838 -0.00022434974901863413 0 0.0012822914853260951 -0.00012279690626817744 0 0.0011129903510488416 3.4508647341740784e-06 0 0.0011216223862779977 4.2964212706467529e-05 0 0.00073226771539128027 5.497155022533706e-05 0 0.00084966119786576905 0.00040336227212150598 0 0.0017102221384933162 -0.00030818180728726122 0 0.0016939628151945575 -0.00031385377130124505 0 0.0016931266084735115 -0.00031126502241941877 0 0.0017102221384933162 -0.00030818180728726122 0 0.0016931266084735115 -0.00031126502241941877 0 0.0017194308979820102 -0.00030496378750682906 0 0.0017102221384933162 -0.00030818180728726122 0 0.0017048579582269465 -0.00031186634594969624 0 0.0016939628151945575 -0.00031385377130124505 0 0.0017200003443017672 -0.00030536396348641029 0 0.0017048579582269465 -0.00031186634594969624 0 0.0017143534178437024 -0.0003086165657647256 0 0.0017102221384933162 -0.00030818180728726122 0 0.0017200003443017672 -0.00030536396348641029 0 0.0017048579582269465 -0.00031186634594969624 0 0.0017048579582269465 -0.00031186634594969624 0 0.0016978817020162173 -0.00031898744389339184 0 0.0017143534178437024 -0.0003086165657647256 0 0.0017048579582269465 -0.00031186634594969624 0 0.0016978817020162173 -0.00031898744389339184 0 0.0016834781138391093 -0.00032096345382082164 0 0.0017048579582269465 -0.00031186634594969624 0 0.0016834781138391093 -0.00032096345382082164 0 0.0016939628151945575 -0.00031385377130124505 0 0.0016834781138391093 -0.00032096345382082164 0 0.0016939628151945575 -0.00031385377130124505 0 0.0016789838292469018 -0.00031795452378842887 0 0.0016834781138391093 -0.00032096345382082164 0 0.0016789838292469018 -0.00031795452378842887 0 0.0016674341511343272 -0.0003264788535186099 0 0.0016789838292469018 -0.00031795452378842887 0 0.0016779672978837921 -0.00031585836542679687 0 0.001668903075396142 -0.00031863398207953095 0 0.0016789838292469018 -0.00031795452378842887 0 0.001668903075396142 -0.00031863398207953095 0 0.0016591053387375919 -0.0003277058236405649 0 0.0016779672978837921 -0.00031585836542679687 0 0.0016768424300183825 -0.00031208404809451856 0 0.0016931266084735115 -0.00031126502241941877 0 0.0016789838292469018 -0.00031795452378842887 0 0.0016779672978837921 -0.00031585836542679687 0 0.0016931266084735115 -0.00031126502241941877 0 0.0016939628151945575 -0.00031385377130124505 0 0.0016789838292469018 -0.00031795452378842887 0 0.0016931266084735115 -0.00031126502241941877 0 0.0016513924014894626 -0.00031915548599483661 0 0.001668903075396142 -0.00031863398207953095 0 0.0016100901632627763 -0.00038132558406456533 0 0.0016513924014894626 -0.00031915548599483661 0 0.001668903075396142 -0.00031863398207953095 0 0.0016768424300183825 -0.00031208404809451856 0 0.0016779672978837921 -0.00031585836542679687 0 0.001668903075396142 -0.00031863398207953095 0 0.0016768424300183825 -0.00031208404809451856 0 0.0016957798959476998 -0.00030816836275107185 0 0.0016513924014894626 -0.00031915548599483661 0 0.0016768424300183825 -0.00031208404809451856 0 0.0016957798959476998 -0.00030816836275107185 0 0.0016768424300183825 -0.00031208404809451856 0 0.0016920977494038535 -0.0003088515542477045 0 0.0016768424300183825 -0.00031208404809451856 0 0.0016920977494038535 -0.0003088515542477045 0 0.0016931266084735115 -0.00031126502241941877 0 0.0016920977494038535 -0.0003088515542477045 0 0.0016931266084735115 -0.00031126502241941877 0 0.0017103453842585909 -0.00030555121120511388 0 0.0016931266084735115 -0.00031126502241941877 0 0.0017103453842585909 -0.00030555121120511388 0 0.0017194308979820102 -0.00030496378750682906 0 0.0017103453842585909 -0.00030555121120511388 0 0.0017316814413448811 -0.00029996671011613287 0 0.0017194308979820102 -0.00030496378750682906 0 0.0016957798959476998 -0.00030816836275107185 0 0.0017103453842585909 -0.00030555121120511388 0 0.0017157416799721203 -0.00030133592631189889 0 0.0016957798959476998 -0.00030816836275107185 0 0.0016920977494038535 -0.0003088515542477045 0 0.0017103453842585909 -0.00030555121120511388 0 0.0017103453842585909 -0.00030555121120511388 0 0.0017157416799721203 -0.00030133592631189889 0 0.0017316814413448811 -0.00029996671011613287 0 0.0017157416799721203 -0.00030133592631189889 0 0.0017316814413448811 -0.00029996671011613287 0 0.0017436859315904663 -0.00029222834089746689 0 0.0017316814413448811 -0.00029996671011613287 0 0.0017447778149033502 -0.00030110895412833674 0 0.0017546714342167766 -0.00029244663972933838 0 0.0017316814413448811 -0.00029996671011613287 0 0.0017194308979820102 -0.00030496378750682906 0 0.0017447778149033502 -0.00030110895412833674 0 0.0017447778149033502 -0.00030110895412833674 0 0.001757793532592078 -0.00029737325578960892 0 0.0017546714342167766 -0.00029244663972933838 0 0.0017194308979820102 -0.00030496378750682906 0 0.0017259273710127318 -0.00030399609155345227 0 0.0017447778149033502 -0.00030110895412833674 0 0.0017102221384933162 -0.00030818180728726122 0 0.0017194308979820102 -0.00030496378750682906 0 0.0017259273710127318 -0.00030399609155345227 0 0.0017102221384933162 -0.00030818180728726122 0 0.0017200003443017672 -0.00030536396348641029 0 0.0017259273710127318 -0.00030399609155345227 0 0.0017200003443017672 -0.00030536396348641029 0 0.0017317891735377333 -0.00030164719628585074 0 0.0017260710739008794 -0.00030276177838107869 0 0.0017200003443017672 -0.00030536396348641029 0 0.0017259273710127318 -0.00030399609155345227 0 0.0017317891735377333 -0.00030164719628585074 0 0.0017259273710127318 -0.00030399609155345227 0 0.0017317891735377333 -0.00030164719628585074 0 0.0017447778149033502 -0.00030110895412833674 0 0.0017447778149033502 -0.00030110895412833674 0 0.0017742719748506154 -0.00030570916750130193 0 0.0017401097279298185 -0.00029894326789364984 0 0.0017317891735377333 -0.00030164719628585074 0 0.0017447778149033502 -0.00030110895412833674 0 0.0017401097279298185 -0.00029894326789364984 0 0.0017447778149033502 -0.00030110895412833674 0 0.0017742719748506154 -0.00030570916750130193 0 0.001757793532592078 -0.00029737325578960892 0 0.0017742719748506154 -0.00030570916750130193 0 0.001757793532592078 -0.00029737325578960892 0 0.0017649051694981776 -0.00028582644724208048 0 0.001757793532592078 -0.00029737325578960892 0 0.0017546714342167766 -0.00029244663972933838 0 0.0017649051694981776 -0.00028582644724208048 0 0.0017546714342167766 -0.00029244663972933838 0 0.0017649051694981776 -0.00028582644724208048 0 0.0017824771442211528 -0.00027695373255552479 0 0.0017649051694981776 -0.00028582644724208048 0 0.0017692353710237778 -0.00026769395911385339 0 0.0017824771442211528 -0.00027695373255552479 0 0.0017692353710237778 -0.00026769395911385339 0 0.0017824771442211528 -0.00027695373255552479 0 0.001834840978010688 -0.00026694474380481155 0 0.0017814273773662103 -0.00030641410783338905 0 0.0018206653880391379 -0.00034008082392639183 0 0.0017742719748506154 -0.00030570916750130193 0 0.0018741978294559332 -0.00040245411707681136 0 0.0017550986036956374 -0.00038853344117756577 0 0.0017742719748506154 -0.00030570916750130193 0 0.0017649051694981776 -0.00028582644724208048 0 0.0017692353710237778 -0.00026769395911385339 0 0.0017243827915067128 -0.00028743769409133213 0 0.0017436859315904663 -0.00029222834089746689 0 0.0017540487898787063 -0.00027990492840295449 0 0.0017243827915067128 -0.00028743769409133213 0 0.0017157416799721203 -0.00030133592631189889 0 0.0017436859315904663 -0.00029222834089746689 0 0.0017546714342167766 -0.00029244663972933838 0 0.0017436859315904663 -0.00029222834089746689 0 0.0017824771442211528 -0.00027695373255552479 0 0.0017316814413448811 -0.00029996671011613287 0 0.0017546714342167766 -0.00029244663972933838 0 0.0017436859315904663 -0.00029222834089746689 0 0.0017824771442211528 -0.00027695373255552479 0 0.0017540487898787063 -0.00027990492840295449 0 0.001834840978010688 -0.00026694474380481155 0 0.0017436859315904663 -0.00029222834089746689 0 0.0017824771442211528 -0.00027695373255552479 0 0.0017540487898787063 -0.00027990492840295449 0 0.0017243827915067128 -0.00028743769409133213 0 0.0017540487898787063 -0.00027990492840295449 0 0.0017334627677477292 -0.00026137517561959867 0 0.0017540487898787063 -0.00027990492840295449 0 0.0017289109216226833 -0.00025240311057958114 0 0.001834840978010688 -0.00026694474380481155 0 0.0017394732332876412 -0.00024254982618043981 0 0.0019148569288308919 -0.00024090421201315018 0 0.0021515438143739326 -0.00035325742002447483 0 0.0021251992743215996 -0.00018760510459368967 0 0.0020833183481952502 -0.00035330574672754378 0 0.0021251992743215996 -0.00018760510459368967 0 0.0019494009006764477 -0.0003528184500912076 0 0.0020833183481952502 -0.00035330574672754378 0 0.0019148569288308919 -0.00024090421201315018 0 0.0018424568067159253 -0.0002566279521106993 0 0.0021251992743215996 -0.00018760510459368967 0 0.001834840978010688 -0.00026694474380481155 0 0.0019494009006764477 -0.0003528184500912076 0 0.001834840978010688 -0.00026694474380481155 0 0.0019494009006764477 -0.0003528184500912076 0 0.001798680994042703 -0.00038151894597945071 0 0.0019329890801466148 -0.00044874526369873289 0 0.0019494009006764477 -0.0003528184500912076 0 0.001798680994042703 -0.00038151894597945071 0 0.0019329890801466148 -0.00044874526369873289 0 0.0019494009006764477 -0.0003528184500912076 0 0.0020240147159858754 -0.00042966677832583118 0 0.0019494009006764477 -0.0003528184500912076 0 0.0020240147159858754 -0.00042966677832583118 0 0.0020833183481952502 -0.00035330574672754378 0 0.0020240147159858754 -0.00042966677832583118 0 0.002147159742206417 -0.00044323108539950793 0 0.0020833183481952502 -0.00035330574672754378 0 0.0021515438143739326 -0.00035325742002447483 0 0.002147159742206417 -0.00044323108539950793 0 0.0020833183481952502 -0.00035330574672754378 0 0.0018741978294559332 -0.00040245411707681136 0 0.0019659855710442817 -0.00052518165496913296 0 0.0018522673359990141 -0.00051574985579398486 0 0.0018741978294559332 -0.00040245411707681136 0 0.0018522673359990141 -0.00051574985579398486 0 0.0018044179485898883 -0.00045206281988371418 0 0.0017692353710237778 -0.00026769395911385339 0 0.001834840978010688 -0.00026694474380481155 0 0.001798680994042703 -0.00038151894597945071 0 0.0018206653880391379 -0.00034008082392639183 0 0.0018848503873241389 -0.0004549547964004595 0 0.0019291919585043048 -0.0006218331353408476 0 0.0019659855710442817 -0.00052518165496913296 0 0.0018522673359990141 -0.00051574985579398486 0 0.0018379116922745886 -0.00059097411681949101 0 0.0018522673359990141 -0.00051574985579398486 0 0.0017380024496881233 -0.00050200725279227903 0 0.0018522673359990141 -0.00051574985579398486 0 0.0018044179485898883 -0.00045206281988371418 0 0.0017380024496881233 -0.00050200725279227903 0 0.0018741978294559332 -0.00040245411707681136 0 0.0018044179485898883 -0.00045206281988371418 0 0.0017550986036956374 -0.00038853344117756577 0 0.0018044179485898883 -0.00045206281988371418 0 0.0017380024496881233 -0.00050200725279227903 0 0.0017550986036956374 -0.00038853344117756577 0 0.0017380024496881233 -0.00050200725279227903 0 0.0016620413984226436 -0.00039620076301750111 0 0.0017550986036956374 -0.00038853344117756577 0 0.0017652699998306869 -0.00058774361065976782 0 0.0017380024496881233 -0.00050200725279227903 0 0.001655051606487376 -0.00052108366717777807 0 0.0017487698886278487 -0.00059439364723181244 0 0.0018808485007162218 -0.00062259846153882499 0 0.0022252392311641082 -0.00057493854614656416 0 0.0022022272893230501 -0.00058428804786422981 0 0.002219291630358256 -0.00059633233569133821 0 0.0022252392311641082 -0.00057493854614656416 0 0.002219291630358256 -0.00059633233569133821 0 0.0022482822942411188 -0.00058530602319341969 0 0.0014851372765992473 -0.00060605009222227616 0 0.0014980129524537244 -0.00058886743762788486 0 0.0014815233532754189 -0.00058586148310349538 0 0.0014851372765992473 -0.00060605009222227616 0 0.0014815233532754189 -0.00058586148310349538 0 0.0014709809158649089 -0.00059537579810180164 0 0.0018808485007162218 -0.00062259846153882499 0 0.0017370969268256291 -0.00054420408863873357 0 0.0017487698886278487 -0.00059439364723181244 0 0.0015864116704699363 -0.00047810284928242515 0 0.0017380024496881233 -0.00050200725279227903 0 0.001655051606487376 -0.00052108366717777807 0 0.0016620413984226436 -0.00039620076301750111 0 0.0015006812921996428 -0.00061655602396161252 0 0.0014851372765992473 -0.00060605009222227616 0 0.0014980129524537244 -0.00058886743762788486 0 0.0008299469231591197 -0.00058234300212078405 0 0.0017370969268256291 -0.00054420408863873357 0 0.0014815233532754189 -0.00058586148310349538 0 0.001476247261393676 -0.00057053667081644185 0 0.0014709809158649089 -0.00059537579810180164 0 0.0014980129524537244 -0.00058886743762788486 0 0.0014815233532754189 -0.00058586148310349538 0 0.001476247261393676 -0.00057053667081644185 0 0.0008299469231591197 -0.00058234300212078405 0 0.00051321414929919465 -0.00063044252964174479 0 0.00044673603122307289 -0.00058212552979439646 0 0.00043162342117216367 -0.00057259345320848434 0 0.00045322798429330913 -0.0005676749145127818 0 0.0014980129524537244 -0.00058886743762788486 0 0.001476247261393676 -0.00057053667081644185 0 0.0014956616022118519 -0.00056278349587435912 0 0.0008299469231591197 -0.00058234300212078405 0 0.0013742959573379012 -0.00047962646138037009 0 0.00044852041941049521 -0.00058614423834948471 0 0.00048292795393272976 -0.00057933418528173899 0 0.00045322798429330913 -0.0005676749145127818 0 0.0015864116704699363 -0.00047810284928242515 0 0.0013742959573379012 -0.00047962646138037009 0 0.0016790528608224969 -0.00030683390866895866 0 0.0017271389684081534 -0.00032776362344045124 0 0.0017401097279298185 -0.00029894326789364984 0 0.0016620413984226436 -0.00039620076301750111 0 0.0016790528608224969 -0.00030683390866895866 0 0.0017271389684081534 -0.00032776362344045124 0 0.0017742719748506154 -0.00030570916750130193 0 0.0017271389684081534 -0.00032776362344045124 0 0.0017401097279298185 -0.00029894326789364984 0 0.0017742719748506154 -0.00030570916750130193 0 0.0017271389684081534 -0.00032776362344045124 0 0.0017550986036956374 -0.00038853344117756577 0 0.0016620413984226436 -0.00039620076301750111 0 0.0017271389684081534 -0.00032776362344045124 0 0.0017550986036956374 -0.00038853344117756577 0 0.002271178893115277 -0.00016344175443016651 0 0.0020398282318397718 -0.00016740525234550574 0 0.0021721272814102903 -0.00036828702988944559 0 0.0021279282413314191 -0.0003683386191889428 0 0.0021501610493231391 -0.00043270577379428307 0 0.0022111697430958819 -0.00041042142501449192 0 0.0021721272814102903 -0.00036828702988944559 0 0.0021501610493231391 -0.00043270577379428307 0 0.0027388273526362337 -0.00017398023669517649 0 0.0028106290689951241 -0.00025597397037224566 0 0.0027735855685178641 -0.00026905146736848866 0 0.002271178893115277 -0.00016344175443016651 0 0.0024948732805382011 -0.00030939987612181764 0 0.0028106290689951241 -0.00025597397037224566 0 0.0027735855685178641 -0.00026905146736848866 0 0.002880972415269916 -0.00033860540054634762 0 0.0032291149262589068 -0.00038293007325215133 0 0.0028219166240429153 -0.00035984100961416663 0 0.0035006955221487113 -0.00038381812307424325 0 0.0034968148378355739 -0.00038596835527055011 0 0.0034909074748370478 -0.00038686889265095035 0 0.0024948732805382011 -0.00030939987612181764 0 0.0028219166240429153 -0.00035984100961416663 0 0.0021721272814102903 -0.00036828702988944559 0 0.0021335580722993634 -0.00032675714354218189 0 0.0021279282413314191 -0.0003683386191889428 0 0.0021335580722993634 -0.00032675714354218189 0 0.0020910481256411922 -0.00033956062939380968 0 0.0021279282413314191 -0.0003683386191889428 0 0.0020910481256411922 -0.00033956062939380968 0 0.0021279282413314191 -0.0003683386191889428 0 0.0020618823579588836 -0.00037785469277234557 0 0.0023824504357808814 -0.0003245739763516396 0 0.0028219166240429153 -0.00035984100961416663 0 0.0020847033771727017 -0.00029971501227018198 0 0.0021335580722993634 -0.00032675714354218189 0 0.0020910481256411922 -0.00033956062939380968 0 0.0021100837923698846 -0.00046813897182995087 0 0.0018892225715146694 -0.00025605974639695081 0 0.0021060938722685849 -0.00040622569354737119 0 0.0021279282413314191 -0.0003683386191889428 0 0.0021501610493231391 -0.00043270577379428307 0 0.0021060938722685849 -0.00040622569354737119 0 0.0021279282413314191 -0.0003683386191889428 0 0.0020618823579588836 -0.00037785469277234557 0 0.0021060938722685849 -0.00040622569354737119 0 0.0020618823579588836 -0.00037785469277234557 0 0.0020889279491639254 -0.0004541746709646796 0 0.002031202597582992 -0.00040958419792581701 0 0.0020618823579588836 -0.00037785469277234557 0 0.0020766137604937359 -0.0004457081442868861 0 0.002031202597582992 -0.00040958419792581701 0 0.0020618823579588836 -0.00037785469277234557 0 0.0020070846639138199 -0.00034150481647747917 0 0.0020392121013414837 -0.00027317501232497254 0 0.0020543277342678517 -0.00032619206211357757 0 0.0020070846639138199 -0.00034150481647747917 0 0.0020618823579588836 -0.00037785469277234557 0 0.0020543277342678517 -0.00032619206211357757 0 0.0020070846639138199 -0.00034150481647747917 0 0.0020910481256411922 -0.00033956062939380968 0 0.0020618823579588836 -0.00037785469277234557 0 0.0020543277342678517 -0.00032619206211357757 0 0.0020847033771727017 -0.00029971501227018198 0 0.0020910481256411922 -0.00033956062939380968 0 0.0020543277342678517 -0.00032619206211357757 0 0.002219291630358256 -0.00059633233569133821 0 0.0022482822942411188 -0.00058530602319341969 0 0.0022340571810716583 -0.00060823576483026004 0 0.002031202597582992 -0.00040958419792581701 0 0.0020070846639138199 -0.00034150481647747917 0 0.001976274827218003 -0.00040863286450323031 0 0.0021485828797812171 -0.00043220198327581294 0 0.0017370969268256291 -0.00054420408863873357 0 0.0011118918178146099 -0.00060082262858931871 0 0.0011349303423817412 -0.00055752691067780143 0 0.0011541824942709581 -0.00058580878937868714 0 0.0011349303423817412 -0.00055752691067780143 0 0.0011541824942709581 -0.00058580878937868714 0 0.0011562428072690028 -0.00057800285568767598 0 0.0017370969268256291 -0.00054420408863873357 0 0.0012671626312682918 -0.0004824739392171971 0 0.00043162342117216367 -0.00057259345320848434 0 0.00041653082220136745 -0.00057187758655504102 0 0.00041597339339715961 -0.00059211979273870292 0 0.00044673603122307289 -0.00058212552979439646 0 0.00043162342117216367 -0.00057259345320848434 0 0.00041597339339715961 -0.00059211979273870292 0 0.0008299469231591197 -0.00058234300212078405 0 0.00077469542153760034 -0.00059299168552847607 0 0.00047939249673799886 -0.00057037777786891788 0 0.00048672422560699539 -0.00062502654954501614 0 0.00041085318979820648 -0.00056938665525531102 0 0.00047939249673799886 -0.00057037777786891788 0 0.00048672422560699539 -0.00062502654954501614 0 0.00051293165015771662 -0.00061527344696157707 0 0.00052262324634372336 -0.00054002622434907728 0 0.00047939249673799886 -0.00057037777786891788 0 0.00051293165015771662 -0.00061527344696157707 0 0.00047097092062781961 -0.00054659198606672244 0 0.00077469542153760034 -0.00059299168552847607 0 0.00052262324634372336 -0.00054002622434907728 0 0.00047939249673799886 -0.00057037777786891788 0 0.00046038854108874992 -0.00050901045159119853 0 0.002031202597582992 -0.00040958419792581701 0 0.001976274827218003 -0.00040863286450323031 0 0.0020416626271271003 -0.00045826797233429624 0 0.0012671626312682918 -0.0004824739392171971 0 0.0018892225715146694 -0.00025605974639695081 0 0.0011349303423817412 -0.00055752691067780143 0 0.001163656023253292 -0.0005821863486701154 0 0.0011562428072690028 -0.00057800285568767598 0 0.001163656023253292 -0.0005821863486701154 0 0.00115400138704809 -0.00058498473492040186 0 0.0011562428072690028 -0.00057800285568767598 0 0.0012671626312682918 -0.0004824739392171971 0 0.00077469542153760034 -0.00059299168552847607 0 0.00077469542153760034 -0.00059299168552847607 0 0.0008598670700490764 -0.00055937203653150171 0 0.002031202597582992 -0.00040958419792581701 0 0.0020416626271271003 -0.00045826797233429624 0 0.0020766137604937359 -0.0004457081442868861 0 0.0018507819674389075 7.0868907900169094e-05 0 0.0019379887824754042 3.1042643795170981e-05 0 0.0019404835322352908 0.00010312285859287104 0 0.0014595253034564153 -0.00040884105637446869 0 0.0013798951830380165 -0.00043689971962096582 0 0.0013369097995219888 -0.00031480428248582311 0 0.0021060938722685849 -0.00040622569354737119 0 0.0020889279491639254 -0.0004541746709646796 0 0.0021501610493231391 -0.00043270577379428307 0 0.0018892225715146694 -0.00025605974639695081 0 0.0020398282318397718 -0.00016740525234550574 0 0.0012671626312682918 -0.0004824739392171971 0 0.0010850524975773712 -0.00034480649313153899 0 0.0018892225715146694 -0.00025605974639695081 0 0.0010850524975773712 -0.00034480649313153899 0 0.0018507819674389075 7.0868907900169094e-05 0 0.0018789580249709188 -1.5661636808929446e-05 0 0.0019379887824754042 3.1042643795170981e-05 0 0.00047939249673799886 -0.00057037777786891788 0 0.00041085318979820648 -0.00056938665525531102 0 0.00046038854108874992 -0.00050901045159119853 0 0.0020139032455362138 3.0617983013803788e-05 0 0.0019379887824754042 3.1042643795170981e-05 0 0.0019943900981408929 -9.7070343932600286e-05 0 0.0018789580249709188 -1.5661636808929446e-05 0 0.0019379887824754042 3.1042643795170981e-05 0 0.0019943900981408929 -9.7070343932600286e-05 0 0.0020294237526760519 0.0001335575692929231 0 0.0020139032455362138 3.0617983013803788e-05 0 0.0019404835322352908 0.00010312285859287104 0 0.0020139032455362138 3.0617983013803788e-05 0 0.0019379887824754042 3.1042643795170981e-05 0 0.0019404835322352908 0.00010312285859287104 0 0.00072073902232347052 -0.00042480587806222302 0 0.00080883699306792971 -0.00047243681268101972 0 0.00077615131508597759 -0.00038602104823814 0 0.00060556997117648865 -0.0005089135685682791 0 -8.1486084495799879e-06 -0.00044388938001792863 0 0.00072073902232347052 -0.00042480587806222302 0 0.0007481266002277592 -0.00048838081826375207 0 0.00080883699306792971 -0.00047243681268101972 0 0.0010850524975773712 -0.00034480649313153899 0 0.0014228492599959216 -0.00030004183628829179 0 0.00084081382962053648 -0.0005538502080890018 0 0.0007481266002277592 -0.00048838081826375207 0 0.00080883699306792971 -0.00047243681268101972 0 0.00037487008420634786 -0.00048109215600301408 0 0.0004386638309201717 -0.00042710930863838818 0 0.00046038854108874992 -0.00050901045159119853 0 0.00041085318979820648 -0.00056938665525531102 0 0.00037487008420634786 -0.00048109215600301408 0 0.00046038854108874992 -0.00050901045159119853 0 0.0010850524975773712 -0.00034480649313153899 0 0.00060556997117648865 -0.0005089135685682791 0 -0.00010754792664601616 -0.00044132399528505384 0 -8.1486084495799879e-06 -0.00044388938001792863 0 -0.00056620682385098513 -0.00048994658492904802 0 -0.00060941060904940044 -0.0004632530290935706 0 -0.0006239699965909011 -0.00045975295297297745 0 -0.00056620682385098513 -0.00048994658492904802 0 -0.00054849325926003656 -0.00044569379752875299 0 -0.00060941060904940044 -0.0004632530290935706 0 0.00037487008420634786 -0.00048109215600301408 0 0.0004386638309201717 -0.00042710930863838818 0 0.00033912570299999645 -0.00038952357022146387 0 -0.00010754792664601616 -0.00044132399528505384 0 0.000123079384159443 -0.00056741427726739646 0 0.0004386638309201717 -0.00042710930863838818 0 0.00046038854108874992 -0.00050901045159119853 0 0.00053350275762184584 -0.00046450335055378767 0 -0.00056620682385098513 -0.00048994658492904802 0 -0.00050930568627204434 -0.00046619643603717164 0 -0.00047107197136213069 -0.00052785113183006864 0 -0.00056620682385098513 -0.00048994658492904802 0 -0.00050930568627204434 -0.00046619643603717164 0 -0.00054849325926003656 -0.00044569379752875299 0 0.00052262324634372336 -0.00054002622434907728 0 0.00046038854108874992 -0.00050901045159119853 0 0.00053350275762184584 -0.00046450335055378767 0 0.00047097092062781961 -0.00054659198606672244 0 0.000123079384159443 -0.00056741427726739646 0 0.00041653082220136745 -0.00057187758655504102 0 0.00042401588691156505 -0.0005613079227499081 0 0.00041421696834594701 -0.00054894806517228223 0 0.00042401588691156505 -0.0005613079227499081 0 0.00041725099441310495 -0.00055003401180504156 0 0.00041421696834594701 -0.00054894806517228223 0 0.00043162342117216367 -0.00057259345320848434 0 0.00041653082220136745 -0.00057187758655504102 0 0.00042401588691156505 -0.0005613079227499081 0 0.00043162342117216367 -0.00057259345320848434 0 0.00042401588691156505 -0.0005613079227499081 0 0.00043692252054693467 -0.00055762234801880358 0 0.00042401588691156505 -0.0005613079227499081 0 0.00042684419925584962 -0.00055419650184828652 0 0.00043692252054693467 -0.00055762234801880358 0 0.00042401588691156505 -0.0005613079227499081 0 0.00042684419925584962 -0.00055419650184828652 0 0.00041725099441310495 -0.00055003401180504156 0 0.00042684419925584962 -0.00055419650184828652 0 0.00042748263452832211 -0.0005460199084754803 0 0.00041725099441310495 -0.00055003401180504156 0 0.00042684419925584962 -0.00055419650184828652 0 0.00042748263452832211 -0.0005460199084754803 0 0.00043692252054693467 -0.00055762234801880358 0 0.00042748263452832211 -0.0005460199084754803 0 0.00041305105039189053 -0.00054874285203987047 0 0.00042898952668140818 -0.00052820503114666762 0 0.00041305105039189053 -0.00054874285203987047 0 0.00042898952668140818 -0.00052820503114666762 0 0.00041339267408216894 -0.000507387347203974 0 0.000123079384159443 -0.00056741427726739646 0 -5.1630173417665426e-05 -0.00046475774340283771 0 -0.00050930568627204434 -0.00046619643603717164 0 -0.00047107197136213069 -0.00052785113183006864 0 -0.00045922641524229966 -0.00043050770818040598 0 0.00042748263452832211 -0.0005460199084754803 0 0.00041725099441310495 -0.00055003401180504156 0 0.00041305105039189053 -0.00054874285203987047 0 0.00017301458411772823 -0.00057952379225938817 0 0.000123079384159443 -0.00056741427726739646 0 -0.00045922641524229966 -0.00043050770818040598 0 -0.00048428806338297181 -0.0003814302736024753 0 -0.00050798533360662743 -0.00042228776300518879 0 -5.1630173417665426e-05 -0.00046475774340283771 0 0.00014423691770664278 -0.00042518120007532106 0 -0.00045922641524229966 -0.00043050770818040598 0 -0.00048428806338297181 -0.0003814302736024753 0 -0.00044487380860583808 -0.0003440154919082899 0 -0.00074719524357655181 -0.00053415852926952574 0 -0.00074443066808001343 -0.00059233919288984483 0 -0.00078948111049747713 -0.00061867419509300224 0 -0.00048428806338297181 -0.0003814302736024753 0 -0.00054134647400561542 -0.00038097111224955202 0 -0.00050798533360662743 -0.00042228776300518879 0 -0.00048428806338297181 -0.0003814302736024753 0 -0.00054134647400561542 -0.00038097111224955202 0 -0.00047166517379730035 -0.00030010211278682318 0 -0.00054134647400561542 -0.00038097111224955202 0 -0.00050798533360662743 -0.00042228776300518879 0 -0.00054849325926003656 -0.00044569379752875299 0 -0.00050930568627204434 -0.00046619643603717164 0 -0.00050798533360662743 -0.00042228776300518879 0 -0.00054849325926003656 -0.00044569379752875299 0 -0.00050930568627204434 -0.00046619643603717164 0 -0.00045922641524229966 -0.00043050770818040598 0 -0.00050798533360662743 -0.00042228776300518879 0 -0.00054134647400561542 -0.00038097111224955202 0 -0.00054849325926003656 -0.00044569379752875299 0 -0.00060941060904940044 -0.0004632530290935706 0 -0.00062284243313775101 -0.00046139779241099831 0 -0.00062287165133771986 -0.00046415181976408782 0 -0.00074719524357655181 -0.00053415852926952574 0 -0.00060941060904940044 -0.0004632530290935706 0 -0.00066892169507505475 -0.00051808767508874953 0 -0.00060941060904940044 -0.0004632530290935706 0 -0.00066892169507505475 -0.00051808767508874953 0 -0.0006280377754417744 -0.0004981192668760589 0 -0.00074719524357655181 -0.00053415852926952574 0 -0.00069733937914598289 -0.00055807619377066728 0 -0.00066892169507505475 -0.00051808767508874953 0 -0.00074719524357655181 -0.00053415852926952574 0 -0.00069733937914598289 -0.00055807619377066728 0 -0.00074443066808001343 -0.00059233919288984483 0 -0.00069733937914598289 -0.00055807619377066728 0 -0.00065508883232864054 -0.00059409759062685572 0 -0.00074443066808001343 -0.00059233919288984483 0 -0.00069733937914598289 -0.00055807619377066728 0 -0.00065260083792100714 -0.00055033537256646899 0 -0.00065508883232864054 -0.00059409759062685572 0 -0.00065260083792100714 -0.00055033537256646899 0 -0.00066892169507505475 -0.00051808767508874953 0 -0.0006280377754417744 -0.0004981192668760589 0 -0.00069733937914598289 -0.00055807619377066728 0 -0.00065260083792100714 -0.00055033537256646899 0 -0.00066892169507505475 -0.00051808767508874953 0 -0.00065260083792100714 -0.00055033537256646899 0 -0.00061604679445532128 -0.00052874197678086376 0 -0.00059662894430304123 -0.00056656522745624188 0 -0.00065260083792100714 -0.00055033537256646899 0 -0.00061604679445532128 -0.00052874197678086376 0 -0.0006280377754417744 -0.0004981192668760589 0 -0.00065260083792100714 -0.00055033537256646899 0 -0.00059662894430304123 -0.00056656522745624188 0 -0.00065508883232864054 -0.00059409759062685572 0 -0.00061604679445532128 -0.00052874197678086376 0 -0.00059662894430304123 -0.00056656522745624188 0 -0.00058665366537244152 -0.00050241622177343999 0 -0.00051662045799934621 -0.00056030885220460552 0 -0.00059662894430304123 -0.00056656522745624188 0 -0.00058665366537244152 -0.00050241622177343999 0 -0.00058665366537244152 -0.00050241622177343999 0 -0.0006280377754417744 -0.0004981192668760589 0 -0.0006239699965909011 -0.00045975295297297745 0 -0.00061604679445532128 -0.00052874197678086376 0 -0.00058665366537244152 -0.00050241622177343999 0 -0.0006280377754417744 -0.0004981192668760589 0 -0.00060941060904940044 -0.0004632530290935706 0 -0.0006280377754417744 -0.0004981192668760589 0 -0.0006239699965909011 -0.00045975295297297745 0 -0.0005234164050432759 -0.00042179001643263245 0 -8.1486084495799879e-06 -0.00044388938001792863 0 0.0017260710739008794 -0.00030276177838107869 0 0.0017401097279298185 -0.00029894326789364984 0 0.0017186477929807466 -0.00030207361658297378 0 0.0017317891735377333 -0.00030164719628585074 0 0.0017260710739008794 -0.00030276177838107869 0 0.0017401097279298185 -0.00029894326789364984 0 0.0017168603973109974 -0.00031370127878421739 0 0.0017401097279298185 -0.00029894326789364984 0 0.0017186477929807466 -0.00030207361658297378 0 0.0013742959573379012 -0.00047962646138037009 0 0.0018804219473987365 -0.00023401631785048869 0 0.00048292795393272976 -0.00057933418528173899 0 0.00047212564500601057 -0.00055519476688533069 0 0.00045322798429330913 -0.0005676749145127818 0 0.00048292795393272976 -0.00057933418528173899 0 0.00047212564500601057 -0.00055519476688533069 0 0.00046969002299753176 -0.00051483093173498905 0 0.0013742959573379012 -0.00047962646138037009 0 0.0010448656892820794 -0.00040988780872337755 0 0.00047212564500601057 -0.00055519476688533069 0 0.00045322798429330913 -0.0005676749145127818 0 0.00045250681024406399 -0.00054810971416420387 0 0.00043162342117216367 -0.00057259345320848434 0 0.00045322798429330913 -0.0005676749145127818 0 0.00043692252054693467 -0.00055762234801880358 0 0.00045322798429330913 -0.0005676749145127818 0 0.00043692252054693467 -0.00055762234801880358 0 0.00045250681024406399 -0.00054810971416420387 0 0.00044055167606493718 -0.00053914459241117282 0 0.00045250681024406399 -0.00054810971416420387 0 0.00045111592440167416 -0.00051265666305772256 0 0.00042748263452832211 -0.0005460199084754803 0 0.00042898952668140818 -0.00052820503114666762 0 0.00044055167606493718 -0.00053914459241117282 0 0.00042748263452832211 -0.0005460199084754803 0 0.00043692252054693467 -0.00055762234801880358 0 0.00044055167606493718 -0.00053914459241117282 0 0.00043692252054693467 -0.00055762234801880358 0 0.00044055167606493718 -0.00053914459241117282 0 0.00045250681024406399 -0.00054810971416420387 0 0.00042898952668140818 -0.00052820503114666762 0 0.00044055167606493718 -0.00053914459241117282 0 0.00045111592440167416 -0.00051265666305772256 0 0.00047212564500601057 -0.00055519476688533069 0 0.00046969002299753176 -0.00051483093173498905 0 0.000392727420326471 -0.00049260003444058465 0 0.00045504434930017401 -0.00054659563642274435 0 0.0004585448079913332 -0.00050954490084332703 0 0.00047212564500601057 -0.00055519476688533069 0 0.00045250681024406399 -0.00054810971416420387 0 0.00045111592440167416 -0.00051265666305772256 0 0.00046969002299753176 -0.00051483093173498905 0 0.000392727420326471 -0.00049260003444058465 0 0.00047393586725552318 -0.00040217230193036353 0 0.00042898952668140818 -0.00052820503114666762 0 0.00041339267408216894 -0.000507387347203974 0 0.00045111592440167416 -0.00051265666305772256 0 0.0004585448079913332 -0.00050954490084332703 0 0.00014423691770664278 -0.00042518120007532106 0 0.000392727420326471 -0.00049260003444058465 0 0.00037790305501006992 -0.00039068281530738893 0 0.00030258511572358037 -0.00038735814592832924 0 0.00041339267408216894 -0.000507387347203974 0 0.00045111592440167416 -0.00051265666305772256 0 0.00041830735569845933 -0.00046001961966069134 0 0.000392727420326471 -0.00049260003444058465 0 0.00037790305501006992 -0.00039068281530738893 0 0.00047393586725552318 -0.00040217230193036353 0 0.0017105577172588963 -0.00031982627854286602 0 0.001704336374417053 -0.00031908349223272253 0 0.0017003288134903836 -0.00032687267493769219 0 0.0017105577172588963 -0.00031982627854286602 0 0.0017143534178437024 -0.0003086165657647256 0 0.001704336374417053 -0.00031908349223272253 0 0.0017186477929807466 -0.00030207361658297378 0 0.0017105577172588963 -0.00031982627854286602 0 0.0017143534178437024 -0.0003086165657647256 0 0.0010448656892820794 -0.00040988780872337755 0 0.0011621700030610366 -0.00033172513612393943 0 0.0017260710739008794 -0.00030276177838107869 0 0.0017186477929807466 -0.00030207361658297378 0 0.0017143534178437024 -0.0003086165657647256 0 0.0017200003443017672 -0.00030536396348641029 0 0.0017260710739008794 -0.00030276177838107869 0 0.0017143534178437024 -0.0003086165657647256 0 0.0016978817020162173 -0.00031898744389339184 0 0.0017143534178437024 -0.0003086165657647256 0 0.001704336374417053 -0.00031908349223272253 0 0.0016978817020162173 -0.00031898744389339184 0 0.001704336374417053 -0.00031908349223272253 0 0.0016942900059535642 -0.00032776995521957027 0 0.001704336374417053 -0.00031908349223272253 0 0.0016942900059535642 -0.00032776995521957027 0 0.0017003288134903836 -0.00032687267493769219 0 0.0016942900059535642 -0.00032776995521957027 0 0.0016919895124024435 -0.00033688704932466129 0 0.0017003288134903836 -0.00032687267493769219 0 0.0016942900059535642 -0.00032776995521957027 0 0.0016855879929608172 -0.00033794943839195852 0 0.0016919895124024435 -0.00033688704932466129 0 0.0016919895124024435 -0.00033688704932466129 0 0.0016868480610490553 -0.00034215797067798157 0 0.0016875751515689783 -0.00034377738732035154 0 0.0016855879929608172 -0.00033794943839195852 0 0.0016919895124024435 -0.00033688704932466129 0 0.0016868480610490553 -0.00034215797067798157 0 0.0016875751515689783 -0.00034377738732035154 0 0.0016855585171311532 -0.00034642713174150264 0 0.0016850817429092551 -0.00034695669878455647 0 0.0016868480610490553 -0.00034215797067798157 0 0.0016875751515689783 -0.00034377738732035154 0 0.0016850817429092551 -0.00034695669878455647 0 0.0016868480610490553 -0.00034215797067798157 0 0.0016817646112782152 -0.00034725960148358439 0 0.0016850817429092551 -0.00034695669878455647 0 0.0016855879929608172 -0.00033794943839195852 0 0.0016868480610490553 -0.00034215797067798157 0 0.0016817646112782152 -0.00034725960148358439 0 0.0016919895124024435 -0.00033688704932466129 0 0.0016900118467111369 -0.00034547843394991032 0 0.0017003288134903836 -0.00032687267493769219 0 0.0016850989715611498 -0.00034651775110580013 0 0.0016870084743659617 -0.00034642666616413253 0 0.0016829225172413822 -0.00034799871970058333 0 0.00065271479443869689 -0.00042093896946901715 0 0.0010537173570623287 -0.00036231478829347843 0 0.0016919895124024435 -0.00033688704932466129 0 0.0016875751515689783 -0.00034377738732035154 0 0.0016870084743659617 -0.00034642666616413253 0 0.0016870084743659617 -0.00034642666616413253 0 0.0016855585171311532 -0.00034642713174150264 0 0.0016829225172413822 -0.00034799871970058333 0 0.0016875751515689783 -0.00034377738732035154 0 0.0016870084743659617 -0.00034642666616413253 0 0.0016855585171311532 -0.00034642713174150264 0 0.0016919895124024435 -0.00033688704932466129 0 0.0016900118467111369 -0.00034547843394991032 0 0.0016870084743659617 -0.00034642666616413253 0 0.0017105577172588963 -0.00031982627854286602 0 0.0016900118467111369 -0.00034547843394991032 0 0.0017003288134903836 -0.00032687267493769219 0 0.0011621700030610366 -0.00033172513612393943 0 0.00065271479443869689 -0.00042093896946901715 0 0.00047393586725552318 -0.00040217230193036353 0 0.00048328862574973145 -0.00026508095233064154 0 0.00041561314460429984 -0.00033560717146096996 0 0.00037790305501006992 -0.00039068281530738893 0 0.00047393586725552318 -0.00040217230193036353 0 0.00041561314460429984 -0.00033560717146096996 0 0.00037790305501006992 -0.00039068281530738893 0 0.00032665125098945856 -0.00036678883751719947 0 0.00035359128893550117 -0.00033723415862822661 0 0.00037790305501006992 -0.00039068281530738893 0 0.00032665125098945856 -0.00036678883751719947 0 0.00030258511572358037 -0.00038735814592832924 0 0.00037790305501006992 -0.00039068281530738893 0 0.00041561314460429984 -0.00033560717146096996 0 0.00035359128893550117 -0.00033723415862822661 0 0.00032665125098945856 -0.00036678883751719947 0 0.00035359128893550117 -0.00033723415862822661 0 0.00031023294813207228 -0.0003386973343198981 0 0.00035359128893550117 -0.00033723415862822661 0 0.00031023294813207228 -0.0003386973343198981 0 0.00028871500536934965 -0.00029424041897849082 0 -0.0010035688935276692 -0.00069818619881687263 0 -0.00080727390991296502 -0.00044399672147238406 0 -0.0012176689956295522 -0.00047104127741789628 0 -0.0010035688935276692 -0.00069818619881687263 0 -0.0012176689956295522 -0.00047104127741789628 0 -0.0014720680054179213 -0.00077811585433095192 0 -0.0003054327287911539 -0.00048982893584867252 0 -0.0012820470430240198 -0.00051886987819861727 0 0.00035359128893550117 -0.00033723415862822661 0 0.00038861656966821846 -0.00027933299383888996 0 0.00028871500536934965 -0.00029424041897849082 0 0.00041561314460429984 -0.00033560717146096996 0 0.00035359128893550117 -0.00033723415862822661 0 0.00038861656966821846 -0.00027933299383888996 0 -0.0021955086501881205 -0.00052425807270897794 0 -0.0012820470430240198 -0.00051886987819861727 0 -0.00052684335779194715 -0.00061525464146971705 0 -0.0010035688935276692 -0.00069818619881687263 0 -0.00080727390991296502 -0.00044399672147238406 0 0.00065271479443869689 -0.00042093896946901715 0 -0.0003054327287911539 -0.00048982893584867252 0 0.00048328862574973145 -0.00026508095233064154 0 0.00041561314460429984 -0.00033560717146096996 0 0.00038861656966821846 -0.00027933299383888996 0 -0.00080727390991296502 -0.00044399672147238406 0 -0.00096213922647393356 -0.00015839003423083264 0 -0.00049887818147026949 -0.00017736772644835985 0 -0.0024521881467998849 -0.0002713234687168865 0 -0.00034119008267634391 -0.00036982909528467518 0 -0.00080727390991296502 -0.00044399672147238406 0 -0.00096213922647393356 -0.00015839003423083264 0 -0.0012176689956295522 -0.00047104127741789628 0 -0.0031099637104880433 -0.00048253323467505131 0 -0.0031000492427024763 -0.00049913286780019282 0 -0.003088216568492523 -0.00048814194523819646 0 -0.0031099637104880433 -0.00048253323467505131 0 -0.0030458497643019748 -0.00043873941112900096 0 -0.003088216568492523 -0.00048814194523819646 0 -0.0024521881467998849 -0.0002713234687168865 0 -0.0021955086501881205 -0.00052425807270897794 0 -0.0030410982818908565 -0.00049329110474610435 0 -0.0031099637104880433 -0.00048253323467505131 0 -0.0030544086912917467 -0.00049044463640980044 0 -0.0031099637104880433 -0.00048253323467505131 0 -0.0030544086912917467 -0.00049044463640980044 0 -0.0031000492427024763 -0.00049913286780019282 0 -0.0024521881467998849 -0.0002713234687168865 0 -0.0027714958674030146 -0.00030403412312533356 0 -0.0031000492427024763 -0.00049913286780019282 0 -0.0030967951830040939 -0.00045596416899855972 0 -0.0031236155627567732 -0.00051244507279232755 0 -0.0030544086912917467 -0.00049044463640980044 0 -0.0031000492427024763 -0.00049913286780019282 0 -0.0030967951830040939 -0.00045596416899855972 0 -0.0031000492427024763 -0.00049913286780019282 0 -0.003088216568492523 -0.00048814194523819646 0 -0.0031236155627567732 -0.00051244507279232755 0 -0.0029997091944618773 -0.00050055457471158383 0 -0.0030544086912917467 -0.00049044463640980044 0 -0.0030344700559268426 -0.00041761557448527774 0 -0.0030544086912917467 -0.00049044463640980044 0 -0.0030967951830040939 -0.00045596416899855972 0 -0.0030344700559268426 -0.00041761557448527774 0 -0.0030344700559268426 -0.00041761557448527774 0 -0.0029807882100485426 -0.00038023489830838961 0 -0.0030250543075080326 -0.00032288246681148137 0 -0.0030344700559268426 -0.00041761557448527774 0 -0.0031024189134077297 -0.00036319531584668764 0 -0.0030250543075080326 -0.00032288246681148137 0 -0.0030967951830040939 -0.00045596416899855972 0 -0.0030344700559268426 -0.00041761557448527774 0 -0.0031024189134077297 -0.00036319531584668764 0 -0.0030967951830040939 -0.00045596416899855972 0 -0.0031024189134077297 -0.00036319531584668764 0 -0.0031894145495163792 -0.00040445834623072867 0 -0.0029997091944618773 -0.00050055457471158383 0 -0.0029142123091740932 -0.00034966012896207773 0 -0.0028134054515986922 -0.00032302935268985428 0 -0.0024521881467998849 -0.0002713234687168865 0 -0.0029489601214192336 -0.00041908278884765374 0 -0.0027884364274672591 -0.00032397711578330388 0 -0.0027907042974883002 -0.00032768501792970165 0 -0.0028134054515986922 -0.00032302935268985428 0 -0.0029997091944618773 -0.00050055457471158383 0 -0.0030344700559268426 -0.00041761557448527774 0 -0.0029807882100485426 -0.00038023489830838961 0 -0.0029997091944618773 -0.00050055457471158383 0 -0.0029807882100485426 -0.00038023489830838961 0 -0.0029142123091740932 -0.00034966012896207773 0 -0.0029807882100485426 -0.00038023489830838961 0 -0.0029543709582210442 -0.00031552258834165745 0 -0.0030250543075080326 -0.00032288246681148137 0 -0.0029807882100485426 -0.00038023489830838961 0 -0.0029142123091740932 -0.00034966012896207773 0 -0.0029543709582210442 -0.00031552258834165745 0 -0.00034119008267634391 -0.00036982909528467518 0 -0.0014937413059081608 -6.7573934506927867e-05 0 0.00042096825825667416 -0.00017057228122677081 0 9.0617457491230734e-05 -0.00043033085990470992 0 0.00012741402517327057 0.00016321129715460625 0 -0.0027907042974883002 -0.00032768501792970165 0 -0.0028001338007677019 -0.00031591661891099495 0 -0.0028134054515986922 -0.00032302935268985428 0 0.00042096825825667416 -0.00017057228122677081 0 0.00079681733368569064 2.8276488884903363e-05 0 0.0006605616002943374 -0.00044173367588405725 0 0.00042096825825667416 -0.00017057228122677081 0 0.00079681733368569064 2.8276488884903363e-05 0 0.00012741402517327057 0.00016321129715460625 0 0.00042096825825667416 -0.00017057228122677081 0 0.0006605616002943374 -0.00044173367588405725 0 9.0617457491230734e-05 -0.00043033085990470992 0 0.0016820102068928727 -0.00035347123747679913 0 0.0016817646112782152 -0.00034725960148358439 0 0.0016850817429092551 -0.00034695669878455647 0 0.0016820102068928727 -0.00035347123747679913 0 0.0016850817429092551 -0.00034695669878455647 0 0.0016829225172413822 -0.00034799871970058333 0 0.0016850989715611498 -0.00034651775110580013 0 0.0016741928099729833 -0.00034811284928089206 0 0.0016829225172413822 -0.00034799871970058333 0 0.0016855585171311532 -0.00034642713174150264 0 0.0016850817429092551 -0.00034695669878455647 0 0.0016829225172413822 -0.00034799871970058333 0 0.0016820102068928727 -0.00035347123747679913 0 0.0016741928099729833 -0.00034811284928089206 0 0.0016829225172413822 -0.00034799871970058333 0 0.0014070529374315998 -0.00040604887121565897 0 -0.00034119008267634391 -0.00036982909528467518 0 0.00065271479443869689 -0.00042093896946901715 0 -0.00034119008267634391 -0.00036982909528467518 0 -0.00052684335779194715 -0.00061525464146971705 0 -0.00080727390991296502 -0.00044399672147238406 0 -0.00049887818147026949 -0.00017736772644835985 0 -0.0026744453977791778 -0.00028585030657618695 0 -0.0028492090037061236 -0.00035814889085976744 0 -0.0027480275857362938 -0.0004830005128107165 0 -0.0030084808564395968 -0.00040353369295004476 0 -0.0030721546519261764 -0.00043016999875618897 0 -0.0029703921655465397 -0.00045087553406374694 0 -0.0012996702879778063 -0.00049170012960597057 0 -0.0021566364747260995 -0.00043264643339909907 0 -0.002003714701287288 -0.00039361600958054697 0 -0.0019969831821692453 -0.00031345475821066934 0 -0.0022193534095947534 -0.00042072682502320704 0 -0.002003714701287288 -0.00039361600958054697 0 -0.0021813048040763071 -0.00046723557302035798 0 -0.0022193534095947534 -0.00042072682502320704 0 -0.0025809581099778141 -0.00038835887010739146 0 -0.0032065016251738589 -0.00037763846491142925 0 -0.0025809581099778141 -0.00038835887010739146 0 -0.0021566364747260995 -0.00043264643339909907 0 -0.0023457874652932803 -0.00034277627966409715 0 -0.0025809581099778141 -0.00038835887010739146 0 -0.0012996702879778063 -0.00049170012960597057 0 -0.00098147055871629298 -0.00065574107374783775 0 -0.00055106764724325435 -0.00065186662413688678 0 -0.00065508883232864054 -0.00059409759062685572 0 -0.00070092652073740496 -0.00064392956892568847 0 -0.0014491334604771874 -0.00046561310638478491 0 -0.0015098949039140024 -0.00046940835787521871 0 -0.0015264585763191325 -0.00050527778211411267 0 -0.00055106764724325435 -0.00065186662413688678 0 -0.00059662894430304123 -0.00056656522745624188 0 -0.00065508883232864054 -0.00059409759062685572 0 -0.0014491334604771874 -0.00046561310638478491 0 -0.0015098949039140024 -0.00046940835787521871 0 -0.0015580196269497769 -0.00046399435199498645 0 -0.0015098949039140024 -0.00046940835787521871 0 -0.0015467983477669572 -0.00047733719798492933 0 -0.0015580196269497769 -0.00046399435199498645 0 -0.001519871802227636 -0.00042667737993545688 0 -0.0016872823987102129 -0.00039412589678734517 0 -0.0015098949039140024 -0.00046940835787521871 0 -0.0015524255893103851 -0.00047544030755519181 0 -0.0015264585763191325 -0.00050527778211411267 0 -0.00098147055871629298 -0.00065574107374783775 0 -0.0007717517841920675 -0.00066500355836336103 0 -0.00065508883232864054 -0.00059409759062685572 0 -0.00070092652073740496 -0.00064392956892568847 0 -0.00074443066808001343 -0.00059233919288984483 0 -0.00072108252267970112 -0.00063530656933783629 0 -0.00074918921271948258 -0.00063361717290653691 0 -0.00074443066808001343 -0.00059233919288984483 0 -0.00098147055871629298 -0.00065574107374783775 0 -0.00079078025089194301 -0.00065406063721143871 0 -0.00070308576733807112 -0.00065200418239383102 0 -0.0007178222892917028 -0.00063443555291879325 0 -0.00074918921271948258 -0.00063361717290653691 0 -0.0016872823987102129 -0.00039412589678734517 0 -0.00098147055871629298 -0.00065574107374783775 0 -0.0026160619446341971 -0.00022092476879269723 0 -0.0027034000301012478 -0.00035483418165068234 0 -0.0028205458052401582 -0.0003476004384643153 0 -0.0026160619446341971 -0.00022092476879269723 0 -0.0025822104219231264 -0.00034238667498234012 0 -0.0027034000301012478 -0.00035483418165068234 0 -0.0016872823987102129 -0.00039412589678734517 0 -0.0021566364747260995 -0.00043264643339909907 0 -0.0026160619446341971 -0.00022092476879269723 0 -0.0025334092606436732 -0.00031946302461093935 0 -0.0025822104219231264 -0.00034238667498234012 0 -0.0024864500174018992 -0.00037633053175745927 0 -0.0025334655435291795 -0.00031892528948473736 0 -0.0025822104219231264 -0.00034238667498234012 0 -0.0021566364747260995 -0.00043264643339909907 0 -0.0022961992831446207 -0.00046064743576729666 0 -0.0024864500174018992 -0.00037633053175745927 0 -0.0025822104219231264 -0.00034238667498234012 0 -0.0026936694784041163 -0.00045705240299454751 0 -0.0025809581099778141 -0.00038835887010739146 0 -0.0028896143610982793 -0.00044638512975718806 0 -0.0025822104219231264 -0.00034238667498234012 0 -0.0027034000301012478 -0.00035483418165068234 0 -0.0026936694784041163 -0.00045705240299454751 0 -0.0027034000301012478 -0.00035483418165068234 0 -0.0026936694784041163 -0.00045705240299454751 0 -0.0028030308535702581 -0.0004231953350061975 0 -0.0016872823987102129 -0.00039412589678734517 0 -0.0018378695095232355 -0.00043490095795141492 0 -0.0026160619446341971 -0.00022092476879269723 0 -0.0028205458052401582 -0.0003476004384643153 0 -0.0029775451391835135 -0.00029483757205805354 0 -0.0027034000301012478 -0.00035483418165068234 0 -0.0028030308535702581 -0.0004231953350061975 0 -0.0028205458052401582 -0.0003476004384643153 0 -0.0028030308535702581 -0.0004231953350061975 0 -0.0028959075733154356 -0.00043085150411019532 0 -0.0028205458052401582 -0.0003476004384643153 0 -0.0028959075733154356 -0.00043085150411019532 0 -0.0029427973992017286 -0.00036174719915628802 0 -0.0028205458052401582 -0.0003476004384643153 0 -0.0028959075733154356 -0.00043085150411019532 0 -0.0029427973992017286 -0.00036174719915628802 0 -0.0029770124148193761 -0.00043378586418573134 0 -0.0029427973992017286 -0.00036174719915628802 0 -0.0028205458052401582 -0.0003476004384643153 0 -0.0029775451391835135 -0.00029483757205805354 0 -0.00074719524357655181 -0.00053415852926952574 0 -0.00078948111049747713 -0.00061867419509300224 0 -0.00086256545084054202 -0.00064983737295434721 0 -0.00074918921271948258 -0.00063361717290653691 0 -0.00078948111049747713 -0.00061867419509300224 0 -0.00084429118966853375 -0.00068105657600349781 0 -0.00070308576733807112 -0.00065200418239383102 0 -0.00074918921271948258 -0.00063361717290653691 0 -0.00084429118966853375 -0.00068105657600349781 0 -0.00062284243313775101 -0.00046139779241099831 0 -0.00079227969903261143 -0.000439595591679734 0 -0.00074918921271948258 -0.00063361717290653691 0 -0.00074443066808001343 -0.00059233919288984483 0 -0.00078948111049747713 -0.00061867419509300224 0 -0.00078948111049747713 -0.00061867419509300224 0 -0.00086256545084054202 -0.00064983737295434721 0 -0.00084429118966853375 -0.00068105657600349781 0 -0.00048428806338297181 -0.0003814302736024753 0 -0.00047166517379730035 -0.00030010211278682318 0 -0.00044487380860583808 -0.0003440154919082899 0 0.00025855004977522384 -0.00033083566706957208 0 0.00030258511572358037 -0.00038735814592832924 0 0.00029978817949618934 -0.00035487554737362716 0 -0.00079227969903261143 -0.000439595591679734 0 0.00014423691770664278 -0.00042518120007532106 0 0.00032665125098945856 -0.00036678883751719947 0 0.00030258511572358037 -0.00038735814592832924 0 0.00029978817949618934 -0.00035487554737362716 0 0.00025855004977522384 -0.00033083566706957208 0 0.00031023294813207228 -0.0003386973343198981 0 0.00028871500536934965 -0.00029424041897849082 0 0.00032665125098945856 -0.00036678883751719947 0 0.00029978817949618934 -0.00035487554737362716 0 0.00031023294813207228 -0.0003386973343198981 0 0.00025855004977522384 -0.00033083566706957208 0 0.00029978817949618934 -0.00035487554737362716 0 0.00031023294813207228 -0.0003386973343198981 0 -0.00079227969903261143 -0.000439595591679734 0 -0.0012820470430240198 -0.00051886987819861727 0 -0.0012820470430240198 -0.00051886987819861727 0 -0.0018378695095232355 -0.00043490095795141492 0 -0.00079227969903261143 -0.000439595591679734 0 -0.0018378695095232355 -0.00043490095795141492 0 -0.0012273935364482055 -0.00050616952018886366 0 -0.0012431480416325192 -0.00052517381368414478 0 -0.0012206186835256128 -0.00052034227159518018 0 -0.0030544686389877762 -0.00035316089794702125 0 -0.0029690157770032224 -0.00032418748634874289 0 -0.0030022441154317759 -0.00038165304569081802 0 -0.0029427973992017286 -0.00036174719915628802 0 -0.0029690157770032224 -0.00032418748634874289 0 -0.0030022441154317759 -0.00038165304569081802 0 -0.0022555850095468529 -0.00018146323894984291 0 -0.0018378695095232355 -0.00043490095795141492 0 -0.0029427973992017286 -0.00036174719915628802 0 -0.0030022441154317759 -0.00038165304569081802 0 -0.0029770124148193761 -0.00043378586418573134 0 -0.0030022441154317759 -0.00038165304569081802 0 -0.0029770124148193761 -0.00043378586418573134 0 -0.0030458497643019748 -0.00043873941112900096 0 -0.0031099637104880433 -0.00048253323467505131 0 -0.0030544686389877762 -0.00035316089794702125 0 -0.0030458497643019748 -0.00043873941112900096 0 -0.0030544686389877762 -0.00035316089794702125 0 -0.0030022441154317759 -0.00038165304569081802 0 -0.0030458497643019748 -0.00043873941112900096 0 -0.003266349030223352 -0.00051321788816663491 0 -0.0031236155627567732 -0.00051244507279232755 0 -0.0033798038341411483 -0.00061726727275398282 0 -0.0031236155627567732 -0.00051244507279232755 0 -0.0029059975408149271 -0.00052048365318467255 0 -0.0029358855654940232 -0.00050525749963558893 0 -0.0031304918189329323 -0.00053250858778218849 0 -0.0031124273704418613 -0.00051137278989215782 0 -0.0030458497643019748 -0.00043873941112900096 0 -0.003088216568492523 -0.00048814194523819646 0 -0.0030331510775982824 -0.00047958047654891975 0 -0.0030331510775982824 -0.00047958047654891975 0 -0.0031236155627567732 -0.00051244507279232755 0 -0.0029358855654940232 -0.00050525749963558893 0 -0.0029770124148193761 -0.00043378586418573134 0 -0.0030458497643019748 -0.00043873941112900096 0 -0.0030331510775982824 -0.00047958047654891975 0 -0.0029770124148193761 -0.00043378586418573134 0 -0.0030331510775982824 -0.00047958047654891975 0 -0.0029358855654940232 -0.00050525749963558893 0 -0.003088216568492523 -0.00048814194523819646 0 -0.0030331510775982824 -0.00047958047654891975 0 -0.0031236155627567732 -0.00051244507279232755 0 -0.003266349030223352 -0.00051321788816663491 0 -0.0031236155627567732 -0.00051244507279232755 0 -0.0031894145495163792 -0.00040445834623072867 0 -0.0030967951830040939 -0.00045596416899855972 0 -0.0031236155627567732 -0.00051244507279232755 0 -0.0031894145495163792 -0.00040445834623072867 0 -0.0031894145495163792 -0.00040445834623072867 0 -0.0032873617785775535 -0.00029253903435232787 0 -0.0031814645321638084 -0.00030341908004399392 0 -0.0031024189134077297 -0.00036319531584668764 0 -0.0031894145495163792 -0.00040445834623072867 0 -0.0031814645321638084 -0.00030341908004399392 0 -0.0031894145495163792 -0.00040445834623072867 0 -0.0033130624138216365 -0.0003860669447205022 0 -0.0032873617785775535 -0.00029253903435232787 0 -0.003266349030223352 -0.00051321788816663491 0 -0.0031894145495163792 -0.00040445834623072867 0 -0.0033130624138216365 -0.0003860669447205022 0 -0.003266349030223352 -0.00051321788816663491 0 -0.0033130624138216365 -0.0003860669447205022 0 -0.003408740209386953 -0.00042708762812832598 0 -0.0033130624138216365 -0.0003860669447205022 0 -0.0034345507225464855 -0.00031575163379567558 0 -0.0032873617785775535 -0.00029253903435232787 0 -0.0033130624138216365 -0.0003860669447205022 0 -0.003408740209386953 -0.00042708762812832598 0 -0.0034345507225464855 -0.00031575163379567558 0 -0.003408740209386953 -0.00042708762812832598 0 -0.0035315254506485374 -0.00041259921323830552 0 -0.0034345507225464855 -0.00031575163379567558 0 -0.003408740209386953 -0.00042708762812832598 0 -0.003508598634073714 -0.00053589623167532574 0 -0.0035315254506485374 -0.00041259921323830552 0 -0.0033601078859310076 -0.00053235769303572745 0 -0.0033432096511711237 -0.0004864646483476935 0 -0.003266349030223352 -0.00051321788816663491 0 -0.003408740209386953 -0.00042708762812832598 0 -0.003508598634073714 -0.00053589623167532574 0 -0.003266349030223352 -0.00051321788816663491 0 -0.0033798038341411483 -0.00061726727275398282 0 -0.0035586462903692342 -0.00056797950031238097 0 -0.0028030308535702581 -0.0004231953350061975 0 -0.0028959075733154356 -0.00043085150411019532 0 -0.0028983876364744483 -0.00052026054321620491 0 -0.0031124273704418613 -0.00051137278989215782 0 -0.0030669990111698684 -0.0005199205026415782 0 -0.0028959075733154356 -0.00043085150411019532 0 -0.0029770124148193761 -0.00043378586418573134 0 -0.0029358855654940232 -0.00050525749963558893 0 -0.0028959075733154356 -0.00043085150411019532 0 -0.0028983876364744483 -0.00052026054321620491 0 -0.0029358855654940232 -0.00050525749963558893 0 -0.0028896143610982793 -0.00044638512975718806 0 -0.0031124273704418613 -0.00051137278989215782 0 -0.0026936694784041163 -0.00045705240299454751 0 -0.0028030308535702581 -0.0004231953350061975 0 -0.0028983876364744483 -0.00052026054321620491 0 -0.0031124273704418613 -0.00051137278989215782 0 -0.0033432096511711237 -0.0004864646483476935 0 -0.0030721546519261764 -0.00043016999875618897 0 -0.0031360080347187353 -0.0004571332061566018 0 -0.003078980841643751 -0.00047196401589313019 0 -0.0033432096511711237 -0.0004864646483476935 0 -0.00356058084097394 -0.00041242762140843831 0 -0.0033432096511711237 -0.0004864646483476935 0 -0.0032065016251738589 -0.00037763846491142925 0 -0.0030721546519261764 -0.00043016999875618897 0 -0.003078980841643751 -0.00047196401589313019 0 -0.0029703921655465397 -0.00045087553406374694 0 -0.003508598634073714 -0.00053589623167532574 0 -0.0035315254506485374 -0.00041259921323830552 0 -0.0036880328063060765 -0.00045873323484190429 0 -0.0035315254506485374 -0.00041259921323830552 0 -0.0036880328063060765 -0.00045873323484190429 0 -0.0036017198483322731 -0.0003094879152196524 0 -0.0035315254506485374 -0.00041259921323830552 0 -0.0036017198483322731 -0.0003094879152196524 0 -0.0034345507225464855 -0.00031575163379567558 0 -0.0037877958017904253 -0.00023814263694423227 0 -0.00356058084097394 -0.00041242762140843831 0 -0.0038444081325997117 -0.00038599113166585928 0 -0.0037326322454467068 -0.00032076042558106845 0 -0.0036880328063060765 -0.00045873323484190429 0 -0.0037326322454467068 -0.00032076042558106845 0 -0.0036880328063060765 -0.00045873323484190429 0 -0.0036017198483322731 -0.0003094879152196524 0 -0.0032710506267617755 -0.00040502571453996197 0 -0.0034473241213903777 -0.00035570073093651436 0 -0.0035075710662351156 -0.00044718330839776173 0 -0.0036265539626025743 -0.00030552599751146244 0 -0.0034473241213903777 -0.00035570073093651436 0 -0.0035075710662351156 -0.00044718330839776173 0 -0.0037213037488666887 -9.764871286190553e-05 0 -0.0036113022810899641 -4.868044768986819e-05 0 -0.0037893238992109807 -3.4565233388960063e-06 0 -0.0037213037488666887 -9.764871286190553e-05 0 -0.0037613269329005135 -0.00019180008125540269 0 -0.0036194381766227793 -0.00017120283246868436 0 -0.0038118117138313972 -7.4307928969100543e-05 0 -0.0037213037488666887 -9.764871286190553e-05 0 -0.0037893238992109807 -3.4565233388960063e-06 0 -0.0038118117138313972 -7.4307928969100543e-05 0 -0.0037213037488666887 -9.764871286190553e-05 0 -0.0037613269329005135 -0.00019180008125540269 0 -0.0037613269329005135 -0.00019180008125540269 0 -0.0036017198483322731 -0.0003094879152196524 0 -0.0036194381766227793 -0.00017120283246868436 0 -0.0037326322454467068 -0.00032076042558106845 0 -0.0037613269329005135 -0.00019180008125540269 0 -0.0036017198483322731 -0.0003094879152196524 0 -0.0038232948995043539 -0.00026307559607302193 0 -0.0037326322454467068 -0.00032076042558106845 0 -0.0037613269329005135 -0.00019180008125540269 0 -0.0036017198483322731 -0.0003094879152196524 0 -0.0035025372387685778 -0.00021519864238492018 0 -0.0036194381766227793 -0.00017120283246868436 0 -0.0036017198483322731 -0.0003094879152196524 0 -0.0035025372387685778 -0.00021519864238492018 0 -0.0034345507225464855 -0.00031575163379567558 0 -0.0035128207668509502 -0.00012320345764575599 0 -0.0036194381766227793 -0.00017120283246868436 0 -0.0036113022810899641 -4.868044768986819e-05 0 -0.0035025372387685778 -0.00021519864238492018 0 -0.0035128207668509502 -0.00012320345764575599 0 -0.0036194381766227793 -0.00017120283246868436 0 -0.0037213037488666887 -9.764871286190553e-05 0 -0.0036194381766227793 -0.00017120283246868436 0 -0.0036113022810899641 -4.868044768986819e-05 0 -0.0035128207668509502 -0.00012320345764575599 0 -0.0036113022810899641 -4.868044768986819e-05 0 -0.0034529694870820866 -3.6858949856313448e-05 0 -0.0035128207668509502 -0.00012320345764575599 0 -0.0033825841800935791 -0.00016761185249217816 0 -0.0034529694870820866 -3.6858949856313448e-05 0 -0.0033825841800935791 -0.00016761185249217816 0 -0.0033007663979278453 -6.6276735109945369e-05 0 -0.0034529694870820866 -3.6858949856313448e-05 0 -0.0035025372387685778 -0.00021519864238492018 0 -0.0035128207668509502 -0.00012320345764575599 0 -0.0033825841800935791 -0.00016761185249217816 0 -0.0033825841800935791 -0.00016761185249217816 0 -0.0034345507225464855 -0.00031575163379567558 0 -0.0032873617785775535 -0.00029253903435232787 0 -0.0035025372387685778 -0.00021519864238492018 0 -0.0033825841800935791 -0.00016761185249217816 0 -0.0034345507225464855 -0.00031575163379567558 0 -0.0033825841800935791 -0.00016761185249217816 0 -0.0032873617785775535 -0.00029253903435232787 0 -0.0032344621386731893 -0.00019236600900472003 0 -0.0032873617785775535 -0.00029253903435232787 0 -0.0031814645321638084 -0.00030341908004399392 0 -0.0032344621386731893 -0.00019236600900472003 0 -0.0031814645321638084 -0.00030341908004399392 0 -0.0032344621386731893 -0.00019236600900472003 0 -0.0031003989664182057 -0.00023894032638480727 0 -0.0032344621386731893 -0.00019236600900472003 0 -0.0033007663979278453 -6.6276735109945369e-05 0 -0.003144883186127078 -9.5603838544884204e-05 0 -0.0033825841800935791 -0.00016761185249217816 0 -0.0032344621386731893 -0.00019236600900472003 0 -0.0033007663979278453 -6.6276735109945369e-05 0 -0.0033007663979278453 -6.6276735109945369e-05 0 -0.0032025071922661043 2.7141346897007528e-05 0 -0.003144883186127078 -9.5603838544884204e-05 0 -0.0033007663979278453 -6.6276735109945369e-05 0 -0.0032025071922661043 2.7141346897007528e-05 0 -0.0033434334603749806 5.3282669993305548e-05 0 -0.0032025071922661043 2.7141346897007528e-05 0 -0.0033434334603749806 5.3282669993305548e-05 0 -0.0032580222585330059 0.00015273831872346632 0 -0.0033071172378535962 0.0002817252140106475 0 -0.0032580222585330059 0.00015273831872346632 0 -0.0032057172990023535 0.00025289847595681399 0 -0.0033071172378535962 0.0002817252140106475 0 -0.0032580222585330059 0.00015273831872346632 0 -0.0033868193420119068 0.00017832897469014736 0 -0.0033071172378535962 0.0002817252140106475 0 -0.0034064591780235414 0.00028458490196378995 0 -0.0033868193420119068 0.00017832897469014736 0 -0.0033434334603749806 5.3282669993305548e-05 0 -0.0032580222585330059 0.00015273831872346632 0 -0.0033868193420119068 0.00017832897469014736 0 -0.0033434334603749806 5.3282669993305548e-05 0 -0.0033868193420119068 0.00017832897469014736 0 -0.0034742228159304962 9.7163080424381216e-05 0 -0.0034064591780235414 0.00028458490196378995 0 -0.0033868193420119068 0.00017832897469014736 0 -0.0035306431079439793 0.00020665834341298644 0 -0.0033868193420119068 0.00017832897469014736 0 -0.0035306431079439793 0.00020665834341298644 0 -0.0034742228159304962 9.7163080424381216e-05 0 -0.0033434334603749806 5.3282669993305548e-05 0 -0.0034742228159304962 9.7163080424381216e-05 0 -0.0034529694870820866 -3.6858949856313448e-05 0 -0.0033007663979278453 -6.6276735109945369e-05 0 -0.0033434334603749806 5.3282669993305548e-05 0 -0.0034529694870820866 -3.6858949856313448e-05 0 -0.0034742228159304962 9.7163080424381216e-05 0 -0.0034529694870820866 -3.6858949856313448e-05 0 -0.0035438284512684867 2.3584148072922487e-05 0 -0.0036113022810899641 -4.868044768986819e-05 0 -0.0035438284512684867 2.3584148072922487e-05 0 -0.0036410002383923368 9.4559168949105723e-05 0 -0.0034742228159304962 9.7163080424381216e-05 0 -0.0035438284512684867 2.3584148072922487e-05 0 -0.0036410002383923368 9.4559168949105723e-05 0 -0.0036113022810899641 -4.868044768986819e-05 0 -0.0034529694870820866 -3.6858949856313448e-05 0 -0.0035438284512684867 2.3584148072922487e-05 0 -0.0035306431079439793 0.00020665834341298644 0 -0.0034742228159304962 9.7163080424381216e-05 0 -0.0036410002383923368 9.4559168949105723e-05 0 -0.0036919395936281406 0.00025910449958125502 0 -0.0035306431079439793 0.00020665834341298644 0 -0.0036410002383923368 9.4559168949105723e-05 0 -0.0039923626665961066 0.00022045166061364951 0 -0.003791428762094551 0.00016981622423159088 0 -0.0037893238992109807 -3.4565233388960063e-06 0 -0.0036919395936281406 0.00025910449958125502 0 -0.0036410002383923368 9.4559168949105723e-05 0 -0.003791428762094551 0.00016981622423159088 0 -0.0039923626665961066 0.00022045166061364951 0 -0.0038574003076785029 0.0002880267754526823 0 -0.003791428762094551 0.00016981622423159088 0 -0.0036919395936281406 0.00025910449958125502 0 -0.0038574003076785029 0.0002880267754526823 0 -0.003791428762094551 0.00016981622423159088 0 -0.0036113022810899641 -4.868044768986819e-05 0 -0.0036410002383923368 9.4559168949105723e-05 0 -0.0037893238992109807 -3.4565233388960063e-06 0 -0.0036410002383923368 9.4559168949105723e-05 0 -0.003791428762094551 0.00016981622423159088 0 -0.0037893238992109807 -3.4565233388960063e-06 0 -0.0015619299906648784 0.0004782700200657649 0 -0.00091757872195724437 0.00023241694184969846 0 -0.0016114066553013886 -0.00025943800172634505 0 -0.0023519847150454977 2.0899373442942339e-05 0 -0.0014937413059081608 -6.7573934506927867e-05 0 -0.0027535381570614258 -5.7674525170321656e-05 0 -0.0028388858552155409 -0.00016485492959500002 0 -0.0027645901976165728 -0.00030668607231671227 0 -0.0023519847150454977 2.0899373442942339e-05 0 -0.0014099512185834389 -4.2815146616121366e-05 0 -0.0023223078350317191 -0.00020750006721905826 0 -0.0021039948298531637 -0.00029597379470445436 0 -0.0021943100244909758 -0.00016272836845007972 0 -0.0020770972279949788 -0.00020480156862427942 0 -0.0021039948298531637 -0.00029597379470445436 0 -0.0021943100244909758 -0.00016272836845007972 0 -0.00085929609305968274 -0.00039697332505956478 0 -0.00091757872195724437 0.00023241694184969846 0 -0.0016114066553013886 -0.00025943800172634505 0 0.00011502767306448954 -0.00019733205943221424 0 -0.0014937413059081608 -6.7573934506927867e-05 0 -0.0028388858552155409 -0.00016485492959500002 0 -0.0027645901976165728 -0.00030668607231671227 0 -0.0028440892424408375 -0.00023389598871093598 0 -0.0028105186582143621 -0.00029937596989991662 0 -0.0028533669730057072 -0.0002981007664929998 0 -0.0028440892424408375 -0.00023389598871093598 0 -0.0028105186582143621 -0.00029937596989991662 0 -0.0027645901976165728 -0.00030668607231671227 0 -0.0028440892424408375 -0.00023389598871093598 0 -0.0020992530343312611 -3.1741217764533619e-05 0 -0.0014937413059081608 -6.7573934506927867e-05 0 -0.0028105186582143621 -0.00029937596989991662 0 -0.0028001338007677019 -0.00031591661891099495 0 -0.0028134054515986922 -0.00032302935268985428 0 -0.0028105186582143621 -0.00029937596989991662 0 -0.0028134054515986922 -0.00032302935268985428 0 -0.0028533669730057072 -0.0002981007664929998 0 -0.0029142123091740932 -0.00034966012896207773 0 -0.0028134054515986922 -0.00032302935268985428 0 -0.0028533669730057072 -0.0002981007664929998 0 -0.0028533669730057072 -0.0002981007664929998 0 -0.0028972485523616888 -0.00028619301379635866 0 -0.0028440892424408375 -0.00023389598871093598 0 -0.0029142123091740932 -0.00034966012896207773 0 -0.0028533669730057072 -0.0002981007664929998 0 -0.0028972485523616888 -0.00028619301379635866 0 -0.0029543709582210442 -0.00031552258834165745 0 -0.0029541784789598306 -0.00023945043208107653 0 -0.0030250543075080326 -0.00032288246681148137 0 -0.0029142123091740932 -0.00034966012896207773 0 -0.0028972485523616888 -0.00028619301379635866 0 -0.0029543709582210442 -0.00031552258834165745 0 -0.0028972485523616888 -0.00028619301379635866 0 -0.0029543709582210442 -0.00031552258834165745 0 -0.0029541784789598306 -0.00023945043208107653 0 -0.0028388858552155409 -0.00016485492959500002 0 -0.0029541784789598306 -0.00023945043208107653 0 -0.0028440892424408375 -0.00023389598871093598 0 -0.0028972485523616888 -0.00028619301379635866 0 -0.0029541784789598306 -0.00023945043208107653 0 -0.0028440892424408375 -0.00023389598871093598 0 -0.0031024189134077297 -0.00036319531584668764 0 -0.0031814645321638084 -0.00030341908004399392 0 -0.0031003989664182057 -0.00023894032638480727 0 -0.0029541784789598306 -0.00023945043208107653 0 -0.0030250543075080326 -0.00032288246681148137 0 -0.0031003989664182057 -0.00023894032638480727 0 -0.0031024189134077297 -0.00036319531584668764 0 -0.0030250543075080326 -0.00032288246681148137 0 -0.0031003989664182057 -0.00023894032638480727 0 -0.0029541784789598306 -0.00023945043208107653 0 -0.0031003989664182057 -0.00023894032638480727 0 -0.0029787155014512801 -0.00012962509920635366 0 -0.003144883186127078 -9.5603838544884204e-05 0 -0.0029787155014512801 -0.00012962509920635366 0 -0.0030482966014520334 3.1343980111097433e-05 0 -0.0032344621386731893 -0.00019236600900472003 0 -0.0031003989664182057 -0.00023894032638480727 0 -0.003144883186127078 -9.5603838544884204e-05 0 -0.0031003989664182057 -0.00023894032638480727 0 -0.003144883186127078 -9.5603838544884204e-05 0 -0.0029787155014512801 -0.00012962509920635366 0 -0.0027535381570614258 -5.7674525170321656e-05 0 -0.0028388858552155409 -0.00016485492959500002 0 -0.0029787155014512801 -0.00012962509920635366 0 -0.0027535381570614258 -5.7674525170321656e-05 0 -0.0029787155014512801 -0.00012962509920635366 0 -0.0030482966014520334 3.1343980111097433e-05 0 -0.0028388858552155409 -0.00016485492959500002 0 -0.0029541784789598306 -0.00023945043208107653 0 -0.0029787155014512801 -0.00012962509920635366 0 -0.0027982747124477509 -6.5718157266132974e-05 0 -0.0028996043192090022 7.5710171270699356e-05 0 -0.0030482966014520334 3.1343980111097433e-05 0 -0.0028996043192090022 7.5710171270699356e-05 0 -0.0030482966014520334 3.1343980111097433e-05 0 -0.0029664262854300341 0.0001979158513101669 0 -0.0023519847150454977 2.0899373442942339e-05 0 -0.0032022581361204477 2.937985747184742e-05 0 -0.0032025071922661043 2.7141346897007528e-05 0 -0.003144883186127078 -9.5603838544884204e-05 0 -0.0030482966014520334 3.1343980111097433e-05 0 -0.0032025071922661043 2.7141346897007528e-05 0 -0.0030482966014520334 3.1343980111097433e-05 0 -0.0031086541134913658 0.00017330828398646664 0 -0.0030482966014520334 3.1343980111097433e-05 0 -0.0031086541134913658 0.00017330828398646664 0 -0.0029664262854300341 0.0001979158513101669 0 -0.0032025071922661043 2.7141346897007528e-05 0 -0.0032580222585330059 0.00015273831872346632 0 -0.0031086541134913658 0.00017330828398646664 0 -0.0029994888823865694 0.00028545767823575811 0 -0.0030860508223887234 0.00027680014386132423 0 -0.0031086541134913658 0.00017330828398646664 0 -0.0030860508223887234 0.00027680014386132423 0 -0.0032057172990023535 0.00025289847595681399 0 -0.0031086541134913658 0.00017330828398646664 0 -0.0032580222585330059 0.00015273831872346632 0 -0.0032057172990023535 0.00025289847595681399 0 -0.0031086541134913658 0.00017330828398646664 0 -0.0028996043192090022 7.5710171270699356e-05 0 -0.0029664262854300341 0.0001979158513101669 0 -0.0027850268685522812 0.00013980977053422585 0 -0.0029994888823865694 0.00028545767823575811 0 -0.0031086541134913658 0.00017330828398646664 0 -0.0029664262854300341 0.0001979158513101669 0 -0.0026931456515227972 0.00024328793537456016 0 -0.0025502737102455807 6.0880516620270767e-05 0 -0.0028789986392846714 0.00028516110431441992 0 -0.0027709393254248768 0.00034626177163302261 0 -0.0027850268685522812 0.00013980977053422585 0 -0.0028789986392846714 0.00028516110431441992 0 -0.0029664262854300341 0.0001979158513101669 0 -0.0027850268685522812 0.00013980977053422585 0 -0.0022927188659748153 0.00025162043980667326 0 -0.002307017356163833 2.226896602464397e-05 0 -0.002161173339896163 8.7639929050877238e-05 0 -0.0027982747124477509 -6.5718157266132974e-05 0 -0.0028996043192090022 7.5710171270699356e-05 0 -0.0027850268685522812 0.00013980977053422585 0 -0.0023519847150454977 2.0899373442942339e-05 0 -0.0025502737102455807 6.0880516620270767e-05 0 -0.0023223078350317191 -0.00020750006721905826 0 -0.002307017356163833 2.226896602464397e-05 0 -0.0021943100244909758 -0.00016272836845007972 0 -0.002307017356163833 2.226896602464397e-05 0 -0.0021943100244909758 -0.00016272836845007972 0 -0.0021145784212026125 -7.0324693932993031e-05 0 -0.0020770972279949788 -0.00020480156862427942 0 -0.0021943100244909758 -0.00016272836845007972 0 -0.0021145784212026125 -7.0324693932993031e-05 0 -0.0021145784212026125 -7.0324693932993031e-05 0 -0.002161173339896163 8.7639929050877238e-05 0 -0.0020420598186885125 1.5205703816285225e-05 0 -0.002307017356163833 2.226896602464397e-05 0 -0.0021145784212026125 -7.0324693932993031e-05 0 -0.002161173339896163 8.7639929050877238e-05 0 -0.0020931922433044424 0.00021570398305713239 0 -0.002161173339896163 8.7639929050877238e-05 0 -0.0020308786005368766 0.00011334101474199091 0 -0.0019005769781730104 0.00017783806118751964 0 -0.0020308786005368766 0.00011334101474199091 0 -0.0019407701815696847 0.00010575918145002436 0 -0.0020308786005368766 0.00011334101474199091 0 -0.0019407701815696847 0.00010575918145002436 0 -0.0019748028501942135 3.6566404529934827e-05 0 -0.0019407701815696847 0.00010575918145002436 0 -0.0019748028501942135 3.6566404529934827e-05 0 -0.0019094021060513905 -5.0829090770474142e-06 0 -0.0020308786005368766 0.00011334101474199091 0 -0.0019748028501942135 3.6566404529934827e-05 0 -0.0020420598186885125 1.5205703816285225e-05 0 -0.0019748028501942135 3.6566404529934827e-05 0 -0.0020420598186885125 1.5205703816285225e-05 0 -0.0019935775264214523 -5.689842218651691e-05 0 -0.002161173339896163 8.7639929050877238e-05 0 -0.0020308786005368766 0.00011334101474199091 0 -0.0020420598186885125 1.5205703816285225e-05 0 -0.0017911360681773494 8.6815744916815597e-05 0 -0.001847463866774626 9.4723969212954774e-05 0 -0.0017095734163502651 -9.9530087355038341e-05 0 -0.0031883009202531951 -0.00031573531121427173 0 -0.0031081170732342091 -0.00038512721059361977 0 -0.0031512686956922009 -0.00038096289916047214 0 -0.0026455032161508624 -0.00028654819575313161 0 -0.0021852367562771625 -2.6605904835837933e-05 0 -0.001896190496137298 2.9645709519901706e-05 0 -0.0021852367562771625 -2.6605904835837933e-05 0 -0.0019005769781730104 0.00017783806118751964 0 -0.0019407701815696847 0.00010575918145002436 0 -0.001848005419032692 9.1209420921162644e-05 0 -0.0032045066894553298 -0.00031300735708467603 0 -0.0031883009202531951 -0.00031573531121427173 0 -0.0031512686956922009 -0.00038096289916047214 0 -0.0032183632166748887 -0.00023116137633365265 0 -0.0026455032161508624 -0.00028654819575313161 0 -0.0032021110429501444 -0.00028497499616965671 0 -0.0031883009202531951 -0.00031573531121427173 0 -0.0031081170732342091 -0.00038512721059361977 0 -0.0026219977000198837 -8.15312706253249e-05 0 -0.0021852367562771625 -2.6605904835837933e-05 0 -0.0018325130034053242 8.9406259449625837e-05 0 -0.0019094021060513905 -5.0829090770474142e-06 0 -0.0018308613952942386 -6.436992957482855e-05 0 -0.0019407701815696847 0.00010575918145002436 0 -0.0018325130034053242 8.9406259449625837e-05 0 -0.0019094021060513905 -5.0829090770474142e-06 0 -0.0021852367562771625 -2.6605904835837933e-05 0 -0.0016668414978887537 -8.9296809236603163e-05 0 -0.0018325130034053242 8.9406259449625837e-05 0 -0.0018308613952942386 -6.436992957482855e-05 0 -0.0017095734163502651 -9.9530087355038341e-05 0 -0.0019094021060513905 -5.0829090770474142e-06 0 -0.0018308613952942386 -6.436992957482855e-05 0 -0.0019088658592540623 -0.00013188246789455488 0 -0.0018308613952942386 -6.436992957482855e-05 0 -0.0019088658592540623 -0.00013188246789455488 0 -0.0017943221673165969 -0.00017443215825672887 0 -0.0018308613952942386 -6.436992957482855e-05 0 -0.0017943221673165969 -0.00017443215825672887 0 -0.0017095734163502651 -9.9530087355038341e-05 0 -0.0021145784212026125 -7.0324693932993031e-05 0 -0.0020420598186885125 1.5205703816285225e-05 0 -0.0019935775264214523 -5.689842218651691e-05 0 -0.0019094021060513905 -5.0829090770474142e-06 0 -0.0019088658592540623 -0.00013188246789455488 0 -0.0019935775264214523 -5.689842218651691e-05 0 -0.0019748028501942135 3.6566404529934827e-05 0 -0.0019094021060513905 -5.0829090770474142e-06 0 -0.0019935775264214523 -5.689842218651691e-05 0 -0.0019088658592540623 -0.00013188246789455488 0 -0.0019935775264214523 -5.689842218651691e-05 0 -0.0020105736880544362 -0.00015317089123572874 0 -0.0020770972279949788 -0.00020480156862427942 0 -0.0021145784212026125 -7.0324693932993031e-05 0 -0.0020105736880544362 -0.00015317089123572874 0 -0.0021145784212026125 -7.0324693932993031e-05 0 -0.0019935775264214523 -5.689842218651691e-05 0 -0.0020105736880544362 -0.00015317089123572874 0 -0.0020770972279949788 -0.00020480156862427942 0 -0.0020105736880544362 -0.00015317089123572874 0 -0.0019587669637177135 -0.00023152390869385161 0 -0.0020770972279949788 -0.00020480156862427942 0 -0.0020190256988656765 -0.00027729302947444189 0 -0.0019587669637177135 -0.00023152390869385161 0 -0.0014099512185834389 -4.2815146616121366e-05 0 -0.0012498276785711318 -0.00025861512717254432 0 -0.0021039948298531637 -0.00029597379470445436 0 -0.0020190256988656765 -0.00027729302947444189 0 -0.0018511833110407647 -0.00039544510122127216 0 -0.0020770972279949788 -0.00020480156862427942 0 -0.0021039948298531637 -0.00029597379470445436 0 -0.0020190256988656765 -0.00027729302947444189 0 -0.0020190256988656765 -0.00027729302947444189 0 -0.0019587669637177135 -0.00023152390869385161 0 -0.0018816464669762104 -0.00037911545935383255 0 -0.0020955221117201846 -0.00019690813955839629 0 -0.0012498276785711318 -0.00025861512717254432 0 -0.0019088658592540623 -0.00013188246789455488 0 -0.0019587669637177135 -0.00023152390869385161 0 -0.0018630730507529167 -0.00023864144058984929 0 -0.0019088658592540623 -0.00013188246789455488 0 -0.0020105736880544362 -0.00015317089123572874 0 -0.0019587669637177135 -0.00023152390869385161 0 -0.0018630730507529167 -0.00023864144058984929 0 -0.0018816464669762104 -0.00037911545935383255 0 -0.00171304632099154 -0.00028254357781737132 0 -0.0019088658592540623 -0.00013188246789455488 0 -0.0018630730507529167 -0.00023864144058984929 0 -0.0017943221673165969 -0.00017443215825672887 0 -0.0018630730507529167 -0.00023864144058984929 0 -0.0017943221673165969 -0.00017443215825672887 0 -0.00171304632099154 -0.00028254357781737132 0 -0.0019587669637177135 -0.00023152390869385161 0 -0.0018630730507529167 -0.00023864144058984929 0 -0.0018816464669762104 -0.00037911545935383255 0 -0.0018816464669762104 -0.00037911545935383255 0 -0.0016800916606194275 -0.00046031630493522551 0 -0.00171304632099154 -0.00028254357781737132 0 -0.00027276131317801867 -1.4146940305256271e-05 0 0.00019044319967102794 -0.00034272104172758779 0 -0.00010621546965496803 -0.00053559851447441856 0 -0.0010381635401000453 -0.00016629150507431779 0 -0.00060927486227287683 -0.00033426473033277909 0 -0.0007060288499327786 -0.00040547905753596773 0 -0.0012498276785711318 -0.00025861512717254432 0 -0.0011335593870735415 -0.00040019957907173447 0 -0.0012498276785711318 -0.00025861512717254432 0 -0.0002780042072097623 -0.00036101740820656522 0 -0.00085929609305968274 -0.00039697332505956478 0 -0.00027276131317801867 -1.4146940305256271e-05 0 -0.00010621546965496803 -0.00053559851447441856 0 -0.00085929609305968274 -0.00039697332505956478 0 -0.00091757872195724437 0.00023241694184969846 0 -0.00027276131317801867 -1.4146940305256271e-05 0 -0.0014081916578848679 -0.00041887675068488816 0 -0.0015747968429419843 -0.00039992189248398864 0 -0.0014769919908827602 -0.00052976019154312934 0 -0.0014081916578848679 -0.00041887675068488816 0 -0.0015747968429419843 -0.00039992189248398864 0 -0.0015709489052961488 -0.00031761922743742268 0 -0.001580968531247443 -0.00035348329227274944 0 -0.0011106017618955025 -0.00054044836800765518 0 -0.0011335593870735415 -0.00040019957907173447 0 -0.0011106017618955025 -0.00054044836800765518 0 -0.0016800916606194275 -0.00046031630493522551 0 -0.0015747968429419843 -0.00039992189248398864 0 -0.0014683535580980941 -0.00054412848497820035 0 -0.0016800916606194275 -0.00046031630493522551 0 -0.0015747968429419843 -0.00039992189248398864 0 -0.00171304632099154 -0.00028254357781737132 0 -0.00171304632099154 -0.00028254357781737132 0 -0.0017095734163502651 -9.9530087355038341e-05 0 -0.0015916895447115906 -0.00016879266430717868 0 -0.0015747968429419843 -0.00039992189248398864 0 -0.0015709489052961488 -0.00031761922743742268 0 -0.00171304632099154 -0.00028254357781737132 0 -0.0015709489052961488 -0.00031761922743742268 0 -0.00171304632099154 -0.00028254357781737132 0 -0.0015916895447115906 -0.00016879266430717868 0 -0.0017943221673165969 -0.00017443215825672887 0 -0.00171304632099154 -0.00028254357781737132 0 -0.0017095734163502651 -9.9530087355038341e-05 0 -0.0026200336655028814 -0.00045208488317557667 0 -0.002607927374398379 -0.0004625116901381249 0 -0.0026261130274858389 -0.00046261901739122512 0 -0.0020638244269876849 -0.00042110187830476887 0 -0.0020210941330907257 -0.00032111638686141376 0 -0.0014081916578848679 -0.00041887675068488816 0 -0.0015709489052961488 -0.00031761922743742268 0 -0.0015916895447115906 -0.00016879266430717868 0 -0.002607927374398379 -0.0004625116901381249 0 -0.0026149970834449619 -0.0004757704532164233 0 -0.0026261130274858389 -0.00046261901739122512 0 -0.0026455032161508624 -0.00028654819575313161 0 -0.0020210941330907257 -0.00032111638686141376 0 -0.0025981071609058972 -0.00047538207138871324 0 -0.002607927374398379 -0.0004625116901381249 0 -0.0026149970834449619 -0.0004757704532164233 0 -0.0017911360681773494 8.6815744916815597e-05 0 -0.0017095734163502651 -9.9530087355038341e-05 0 -0.0015916895447115906 -0.00016879266430717868 0 -0.0030659175605863478 -0.00030691468945205093 0 -0.0031442372346028374 -0.00029673874640422809 0 -0.0031550474520343811 -0.00035703111158167115 0 -0.0030659175605863478 -0.00030691468945205093 0 -0.0031550474520343811 -0.00035703111158167115 0 -0.0030234953553676565 -0.00038827978174853201 0 -0.0026455032161508624 -0.00028654819575313161 0 -0.0028667254157830634 -0.00044296905915092123 0 -0.0029477892696747089 -0.00026886852176076243 0 -0.0030659175605863478 -0.00030691468945205093 0 -0.0030234953553676565 -0.00038827978174853201 0 -0.0029477892696747089 -0.00026886852176076243 0 -0.0030234953553676565 -0.00038827978174853201 0 -0.0028761018548346929 -0.00042402769469843685 0 -0.0028453205271850072 -0.00030873130264369566 0 -0.0029477892696747089 -0.00026886852176076243 0 -0.0028761018548346929 -0.00042402769469843685 0 -0.0028667254157830634 -0.00044296905915092123 0 -0.0027429653140734539 -0.00044868761898161826 0 -0.0028761018548346929 -0.00042402769469843685 0 -0.0027745947991306783 -0.00035792487227406827 0 -0.0026808198549524514 -0.00045666859121684309 0 -0.0028453205271850072 -0.00030873130264369566 0 -0.0028761018548346929 -0.00042402769469843685 0 -0.0027745947991306783 -0.00035792487227406827 0 -0.0026350677609621302 -0.00047627713523922075 0 -0.0026485906754149758 -0.00046028284914776074 0 -0.0026261130274858389 -0.00046261901739122512 0 -0.0027429653140734539 -0.00044868761898161826 0 -0.0026891879131266676 -0.00045706375623242457 0 -0.0026350677609621302 -0.00047627713523922075 0 -0.0026485906754149758 -0.00046028284914776074 0 -0.0026808198549524514 -0.00045666859121684309 0 -0.0026149970834449619 -0.0004757704532164233 0 -0.0026350677609621302 -0.00047627713523922075 0 -0.0026261130274858389 -0.00046261901739122512 0 -0.0036290585994971764 -0.00022411388363098811 0 -0.0043363104419645105 -0.00013743858142651604 0 -0.0042332263994723325 -0.00023906664837705061 0 -0.0042313971329974477 -0.00023962089951637012 0 -0.0042413387181803172 -0.0002486937341253217 0 -0.0041951492797228365 -8.4936203215278292e-05 0 -0.0041928143133118535 -8.4445989837165177e-05 0 -0.0042023481872755942 -0.00010203515097329743 0 -0.0027142639267232292 -0.00031381460380711562 0 -0.0027745947991306783 -0.00035792487227406827 0 -0.0026808198549524514 -0.00045666859121684309 0 -0.0027142639267232292 -0.00031381460380711562 0 -0.0026808198549524514 -0.00045666859121684309 0 -0.0026496107297690236 -0.00046464065830923985 0 -0.0036290585994971764 -0.00022411388363098811 0 -0.003425242901185537 -0.00037291900861516407 0 -0.0026485906754149758 -0.00046028284914776074 0 -0.0026808198549524514 -0.00045666859121684309 0 -0.0026514505858845684 -0.00046393078737121812 0 -0.0026808198549524514 -0.00045666859121684309 0 -0.0026496107297690236 -0.00046464065830923985 0 -0.0026514505858845684 -0.00046393078737121812 0 -0.0042303633759116291 -0.0002614437196471756 0 -0.0042413387181803172 -0.0002486937341253217 0 -0.0042517588069451526 -0.00030343472250591062 0 -0.0042313971329974477 -0.00023962089951637012 0 -0.0042303633759116291 -0.0002614437196471756 0 -0.0042413387181803172 -0.0002486937341253217 0 -0.0026496107297690236 -0.00046464065830923985 0 -0.0026578820992292675 -0.00046572034335992337 0 -0.0026514505858845684 -0.00046393078737121812 0 -0.003425242901185537 -0.00037291900861516407 0 -0.0034591577561924355 -0.00038294796703146057 0 -0.0026578820992292675 -0.00046572034335992337 0 -0.0026514505858845684 -0.00046393078737121812 0 -0.0026366746374448997 -0.00045629504650574121 0 -0.0026514505858845684 -0.00046393078737121812 0 -0.0026366746374448997 -0.00045629504650574121 0 -0.0026357877096166845 -0.00045627623452821454 0 -0.0026578820992292675 -0.00046572034335992337 0 -0.0026366746374448997 -0.00045629504650574121 0 -0.0026240415218481924 -0.00044912159594635555 0 -0.0026366746374448997 -0.00045629504650574121 0 -0.0026261529736094345 -0.00045287643510188665 0 -0.0026240415218481924 -0.00044912159594635555 0 -0.0026868719524388005 -0.00043402302674919304 0 -0.0026578820992292675 -0.00046572034335992337 0 -0.0026548278665883933 -0.00043884912641549287 0 -0.0026578820992292675 -0.00046572034335992337 0 -0.0026548278665883933 -0.00043884912641549287 0 -0.0026240415218481924 -0.00044912159594635555 0 -0.0026200336655028814 -0.00045208488317557667 0 -0.0026261130274858389 -0.00046261901739122512 0 -0.0026357877096166845 -0.00045627623452821454 0 -0.0026485906754149758 -0.00046028284914776074 0 -0.0026261130274858389 -0.00046261901739122512 0 -0.0026357877096166845 -0.00045627623452821454 0 -0.0026485906754149758 -0.00046028284914776074 0 -0.0026514505858845684 -0.00046393078737121812 0 -0.0026357877096166845 -0.00045627623452821454 0 -0.0026200336655028814 -0.00045208488317557667 0 -0.0026357877096166845 -0.00045627623452821454 0 -0.0026261529736094345 -0.00045287643510188665 0 -0.0026366746374448997 -0.00045629504650574121 0 -0.0026357877096166845 -0.00045627623452821454 0 -0.0026261529736094345 -0.00045287643510188665 0 -0.0020638244269876849 -0.00042110187830476887 0 -0.0017156628852774143 -0.00056314676289172336 0 -0.0017156628852774143 -0.00056314676289172336 0 -0.00015488633769467793 -0.00068807366088989878 0 -0.0013209732677900508 -0.00058704938670395919 0 -0.0014381647182779673 -0.00054225179974821546 0 -0.0013925726866195168 -0.00061090880887005347 0 -0.0013209732677900508 -0.00058704938670395919 0 -0.0012471842042952248 -0.00064718531931989593 0 -0.0013925726866195168 -0.00061090880887005347 0 -0.0014081916578848679 -0.00041887675068488816 0 -0.0013209732677900508 -0.00058704938670395919 0 -0.0012471842042952248 -0.00064718531931989593 0 -0.0014081916578848679 -0.00041887675068488816 0 -0.0013209732677900508 -0.00058704938670395919 0 -0.0014769919908827602 -0.00052976019154312934 0 -0.0014349849393723178 -0.00054107850621473166 0 -0.0011106017618955025 -0.00054044836800765518 0 -0.0026200336655028814 -0.00045208488317557667 0 -0.0026261529736094345 -0.00045287643510188665 0 -0.0026241057140493147 -0.00045851778639098236 0 -0.0026261529736094345 -0.00045287643510188665 0 -0.0026177779744150165 -0.00045600393880114703 0 -0.0026241057140493147 -0.00045851778639098236 0 -0.0026177779744150165 -0.00045600393880114703 0 -0.0026241057140493147 -0.00045851778639098236 0 -0.0025983599748648509 -0.00046941649249099748 0 -0.0013387055552614468 -0.00052996225403868476 0 -0.00090328066651211483 -0.00043611788179967166 0 -0.0012186758789822733 -7.6623211819846055e-06 0 -0.0017156628852774143 -0.00056314676289172336 0 -0.0013971303229805864 -0.00070691860277701587 0 -0.0017156628852774143 -0.00056314676289172336 0 -0.0023115383684488176 -0.0005314508208865336 0 -0.0011688050403236216 -0.00076766261604875076 0 -0.0013387055552614468 -0.00052996225403868476 0 -0.0019424943316142973 -0.00060767813348181203 0 -0.0011606846272255405 -0.00077573349049052127 0 -0.00090328066651211483 -0.00043611788179967166 0 -0.00058025426788208554 -0.00088115862841493548 0 0.0015528423635280534 -0.0003222835726781063 0 0.0015641584493930796 -0.00032126291529858015 0 0.0016067171762242549 -0.00029728191005518181 0 0.0015528423635280534 -0.0003222835726781063 0 0.0015641584493930796 -0.00032126291529858015 0 0.0015456918329573831 -0.00030281798417746076 0 0.00032038726116402708 -0.00038054574124883302 0 -0.00015488633769467793 -0.00068807366088989878 0 -0.0011606846272255405 -0.00077573349049052127 0 -0.0013387055552614468 -0.00052996225403868476 0 -0.00090328066651211483 -0.00043611788179967166 0 -0.0026240415218481924 -0.00044912159594635555 0 -0.0025983599748648509 -0.00046941649249099748 0 -0.0025969496091953477 -0.00047001952142019642 0 -0.0026868719524388005 -0.00043402302674919304 0 -0.0026548278665883933 -0.00043884912641549287 0 -0.0026612439286041261 -0.00040692839622390333 0 -0.0026548278665883933 -0.00043884912641549287 0 -0.0026240415218481924 -0.00044912159594635555 0 -0.0026612439286041261 -0.00040692839622390333 0 -0.002608844357848862 -0.00046239901714892481 0 -0.002668325098764651 -0.00040060533703263721 0 -0.0026261529736094345 -0.00045287643510188665 0 -0.0026177779744150165 -0.00045600393880114703 0 -0.0026240415218481924 -0.00044912159594635555 0 -0.0026177779744150165 -0.00045600393880114703 0 -0.0026240415218481924 -0.00044912159594635555 0 -0.0025983599748648509 -0.00046941649249099748 0 -0.0013387055552614468 -0.00052996225403868476 0 -0.0019424943316142973 -0.00060767813348181203 0 -0.0016549769476679303 -0.00021647982157055451 0 -0.0019424943316142973 -0.00060767813348181203 0 -0.0021012197320871098 -0.00023077513180093308 0 -0.0016549769476679303 -0.00021647982157055451 0 -0.0026332641320098672 -0.00040155113571383941 0 -0.0019424943316142973 -0.00060767813348181203 0 -0.0021012197320871098 -0.00023077513180093308 0 -0.0025955660780332167 -0.00042242573838990449 0 -0.0023115383684488176 -0.0005314508208865336 0 -0.0026332641320098672 -0.00040155113571383941 0 -0.0025983599748648509 -0.00046941649249099748 0 -0.0025969496091953477 -0.00047001952142019642 0 -0.0026332641320098672 -0.00040155113571383941 0 -0.0023865020775896127 -6.3423345594188974e-05 0 -0.0021012197320871098 -0.00023077513180093308 0 -0.0012887725481714994 -0.00076180215109943029 0 -0.00073917172637450921 -0.00053677408538843467 0 -0.0013170767568527226 -0.00031831570021064809 0 -0.0016919538061643791 -0.00056226600675805154 0 -0.0012887725481714994 -0.00076180215109943029 0 -0.0013170767568527226 -0.00031831570021064809 0 -0.0023865020775896127 -6.3423345594188974e-05 0 -0.0021012197320871098 -0.00023077513180093308 0 -0.0018078774101718219 0.00020437384127794872 0 -0.0019088443206823499 -0.00043536238035337825 0 -0.00049309277037004899 -0.00034659560897968796 0 -0.0021012197320871098 -0.00023077513180093308 0 -0.0016549769476679303 -0.00021647982157055451 0 -0.0018078774101718219 0.00020437384127794872 0 0.0010923140912874527 -0.00074209057430696802 0 0.00088370122252335193 -0.00031474605682608054 0 0.00040374705257601145 -0.00052933349410840967 0 -0.00049309277037004899 -0.00034659560897968796 0 -0.0003406199557539222 -0.0004707943103441786 0 -0.00049309277037004899 -0.00034659560897968796 0 0.0011423771163611228 -0.00032765449384428022 0 0.0010923140912874527 -0.00074209057430696802 0 0.0013401378483899784 -0.00049874354418494955 0 0.001291635667254828 -0.00037193083186232341 0 0.0010923140912874527 -0.00074209057430696802 0 0.0011677889499064978 -0.00028406123985319661 0 0.00088370122252335193 -0.00031474605682608054 0 0.0010923140912874527 -0.00074209057430696802 0 0.0011677889499064978 -0.00028406123985319661 0 0.001291635667254828 -0.00037193083186232341 0 0.00013574777924053996 3.2073979621925275e-05 0 0.00088370122252335193 -0.00031474605682608054 0 0.00040374705257601145 -0.00052933349410840967 0 0.0015528423635280534 -0.0003222835726781063 0 0.0014971859584262325 -0.00025654810764173721 0 0.0016067171762242549 -0.00029728191005518181 0 0.0016230626263508401 -0.00034075281717761019 0 0.0015927641814186475 -0.00034955031461050194 0 0.0016360528611137162 -0.00035164608858914649 0 0.00056620314466958137 -0.00017715968948939445 0 0.0018220465312272659 -0.00038331308037653928 0 0.0016230626263508401 -0.00034075281717761019 0 0.0015927641814186475 -0.00034955031461050194 0 0.0016025155637631394 -0.00033409234908817587 0 0.00032038726116402708 -0.00038054574124883302 0 0.00056620314466958137 -0.00017715968948939445 0 -0.0013387055552614468 -0.00052996225403868476 0 -0.0016549769476679303 -0.00021647982157055451 0 -0.0012186758789822733 -7.6623211819846055e-06 0 0.00012216657217510734 -0.0002549777531845278 0 0.00062993679005274262 -0.00044681373099334334 0 0.00040808296299585817 -0.00013755138290551754 0 -0.00049309277037004899 -0.00034659560897968796 0 0.00056620314466958137 -0.00017715968948939445 0 -0.0016549769476679303 -0.00021647982157055451 0 -0.0018078774101718219 0.00020437384127794872 0 -0.0012186758789822733 -7.6623211819846055e-06 0 0.0015927641814186475 -0.00034955031461050194 0 0.0015744083110577828 -0.00032794558394527896 0 0.0016025155637631394 -0.00033409234908817587 0 0.00056620314466958137 -0.00017715968948939445 0 0.0011423771163611228 -0.00032765449384428022 0 0.0011423771163611228 -0.00032765449384428022 0 0.0016672161713963886 -0.00034409993143954263 0 0.0015245165001193273 -0.00032674491069538636 0 0.0014309065584084202 -0.00039037887209707103 0 0.0016100901632627763 -0.00038132558406456533 0 0.0015744083110577828 -0.00032794558394527896 0 0.0016025155637631394 -0.00033409234908817587 0 0.0016179925551770085 -0.00031773255591912523 0 0.0014024357775789976 -0.00052651617744122489 0 0.0014309065584084202 -0.00039037887209707103 0 0.0016100901632627763 -0.00038132558406456533 0 0.0010923140912874527 -0.00074209057430696802 0 0.0014089444815983555 -0.00059668429211335162 0 0.0013401378483899784 -0.00049874354418494955 0 0.0014024357775789976 -0.00052651617744122489 0 0.0013401378483899784 -0.00049874354418494955 0 0.0014309065584084202 -0.00039037887209707103 0 0.0011423771163611228 -0.00032765449384428022 0 0.0012161121731426364 -0.00041580711281141193 0 0.0011677889499064978 -0.00028406123985319661 0 0.001291635667254828 -0.00037193083186232341 0 0.0014309065584084202 -0.00039037887209707103 0 0.0013401378483899784 -0.00049874354418494955 0 0.001291635667254828 -0.00037193083186232341 0 0.0014309065584084202 -0.00039037887209707103 0 0.0016230626263508401 -0.00034075281717761019 0 0.0016025155637631394 -0.00033409234908817587 0 0.0016179925551770085 -0.00031773255591912523 0 0.0016230626263508401 -0.00034075281717761019 0 0.0016179925551770085 -0.00031773255591912523 0 0.0016436828345486778 -0.00033398128676076613 0 0.001668903075396142 -0.00031863398207953095 0 0.0016436828345486778 -0.00033398128676076613 0 0.0016591053387375919 -0.0003277058236405649 0 0.0016420657949935452 -0.00032986756445336688 0 0.0016672161713963886 -0.00034409993143954263 0 0.001668903075396142 -0.00031863398207953095 0 0.0016179925551770085 -0.00031773255591912523 0 0.0016436828345486778 -0.00033398128676076613 0 0.0016436828345486778 -0.00033398128676076613 0 0.0016420126810530375 -0.0003425518643360202 0 0.0016591053387375919 -0.0003277058236405649 0 0.0016230626263508401 -0.00034075281717761019 0 0.0016436828345486778 -0.00033398128676076613 0 0.0016368405383735468 -0.00034630010739161623 0 0.0016436828345486778 -0.00033398128676076613 0 0.0016368405383735468 -0.00034630010739161623 0 0.0016420126810530375 -0.0003425518643360202 0 0.0016368405383735468 -0.00034630010739161623 0 0.0016360528611137162 -0.00035164608858914649 0 0.001625733436256789 -0.00035193317798630914 0 0.0016368405383735468 -0.00034630010739161623 0 0.0016420126810530375 -0.0003425518643360202 0 0.001625733436256789 -0.00035193317798630914 0 0.0016230626263508401 -0.00034075281717761019 0 0.0016368405383735468 -0.00034630010739161623 0 0.0016360528611137162 -0.00035164608858914649 0 0.0016448558488414407 -0.00034113895598259013 0 0.0016271700411110467 -0.00034959041653751422 0 0.0016260115724829594 -0.00034966467602486154 0 0.0016448558488414407 -0.00034113895598259013 0 0.0016420126810530375 -0.0003425518643360202 0 0.0016260115724829594 -0.00034966467602486154 0 0.0016420126810530375 -0.0003425518643360202 0 0.001625733436256789 -0.00035193317798630914 0 0.0016260115724829594 -0.00034966467602486154 0 0.0016448558488414407 -0.00034113895598259013 0 0.0016420126810530375 -0.0003425518643360202 0 0.0016558769733681518 -0.00033406807513241746 0 0.0016448558488414407 -0.00034113895598259013 0 0.0016558769733681518 -0.00033406807513241746 0 0.0016660771216317918 -0.00033110645502291655 0 0.0016558769733681518 -0.00033406807513241746 0 0.0016591053387375919 -0.0003277058236405649 0 0.0016674341511343272 -0.0003264788535186099 0 0.0016558769733681518 -0.00033406807513241746 0 0.0016674341511343272 -0.0003264788535186099 0 0.0016660771216317918 -0.00033110645502291655 0 0.0016420126810530375 -0.0003425518643360202 0 0.0016558769733681518 -0.00033406807513241746 0 0.0016591053387375919 -0.0003277058236405649 0 0.0016789838292469018 -0.00031795452378842887 0 0.0016591053387375919 -0.0003277058236405649 0 0.0016674341511343272 -0.0003264788535186099 0 0.0016834781138391093 -0.00032096345382082164 0 0.0016674341511343272 -0.0003264788535186099 0 0.0016660771216317918 -0.00033110645502291655 0 0.0016834781138391093 -0.00032096345382082164 0 0.0016660771216317918 -0.00033110645502291655 0 0.0016822506295563631 -0.00032832302355492428 0 0.0016660771216317918 -0.00033110645502291655 0 0.0016822506295563631 -0.00032832302355492428 0 0.0016678605632447711 -0.00033675292648901989 0 0.0016942900059535642 -0.00032776995521957027 0 0.0016855879929608172 -0.00033794943839195852 0 0.0016822506295563631 -0.00032832302355492428 0 0.0016978817020162173 -0.00031898744389339184 0 0.0016834781138391093 -0.00032096345382082164 0 0.0016822506295563631 -0.00032832302355492428 0 0.0016978817020162173 -0.00031898744389339184 0 0.0016942900059535642 -0.00032776995521957027 0 0.0016822506295563631 -0.00032832302355492428 0 0.0016855879929608172 -0.00033794943839195852 0 0.0016707145251250921 -0.0003456971400226995 0 0.0016678605632447711 -0.00033675292648901989 0 0.0016855879929608172 -0.00033794943839195852 0 0.0016822506295563631 -0.00032832302355492428 0 0.0016678605632447711 -0.00033675292648901989 0 0.0016855879929608172 -0.00033794943839195852 0 0.0016817646112782152 -0.00034725960148358439 0 0.0016707145251250921 -0.0003456971400226995 0 0.0016448558488414407 -0.00034113895598259013 0 0.0016660771216317918 -0.00033110645502291655 0 0.0016678605632447711 -0.00033675292648901989 0 0.0016707145251250921 -0.0003456971400226995 0 0.0016678605632447711 -0.00033675292648901989 0 0.0016491394414822154 -0.00034382878646463481 0 0.0016448558488414407 -0.00034113895598259013 0 0.0016678605632447711 -0.00033675292648901989 0 0.0016491394414822154 -0.00034382878646463481 0 0.0016448558488414407 -0.00034113895598259013 0 0.0016491394414822154 -0.00034382878646463481 0 0.0016271700411110467 -0.00034959041653751422 0 0.0013808283462769515 -0.00039364798422467947 0 0.001591733001604363 -0.00037567977123848678 0 0.0012011027515617658 -0.0004371345972607472 0 0.0014096402569989854 -0.00032609680569835022 0 0.0015926910524503826 -0.00036302970178727452 0 0.0016271700411110467 -0.00034959041653751422 0 0.0016451126390071209 -0.00035079525469960585 0 0.0015926910524503826 -0.00036302970178727452 0 0.0016451126390071209 -0.00035079525469960585 0 0.0016684526094905958 -0.00036608907682512964 0 0.0015926910524503826 -0.00036302970178727452 0 0.0016491394414822154 -0.00034382878646463481 0 0.0016271700411110467 -0.00034959041653751422 0 0.0016451126390071209 -0.00035079525469960585 0 0.0016707145251250921 -0.0003456971400226995 0 0.0016451126390071209 -0.00035079525469960585 0 0.0016684526094905958 -0.00036608907682512964 0 0.0016707145251250921 -0.0003456971400226995 0 0.0016491394414822154 -0.00034382878646463481 0 0.0016451126390071209 -0.00035079525469960585 0 0.0014070529374315998 -0.00040604887121565897 0 0.0013808283462769515 -0.00039364798422467947 0 0.0016820102068928727 -0.00035347123747679913 0 0.0016817646112782152 -0.00034725960148358439 0 0.0016684526094905958 -0.00036608907682512964 0 0.0016817646112782152 -0.00034725960148358439 0 0.0016707145251250921 -0.0003456971400226995 0 0.0016684526094905958 -0.00036608907682512964 0 0.00079681733368569064 2.8276488884903363e-05 0 0.0012011027515617658 -0.0004371345972607472 0 0.0013924516548219374 -0.0001236093153837627 0 0.00011502767306448954 -0.00019733205943221424 0 0.00064885018867765995 -0.0003345143979641336 0 0.00079681733368569064 2.8276488884903363e-05 0 0.0006605616002943374 -0.00044173367588405725 0 0.0012011027515617658 -0.0004371345972607472 0 0.0014096402569989854 -0.00032609680569835022 0 0.0013924516548219374 -0.0001236093153837627 0 0.001605642051221532 -0.00032511720388401464 0 0.0012011027515617658 -0.0004371345972607472 0 0.0014096402569989854 -0.00032609680569835022 0 0.0013924516548219374 -0.0001236093153837627 0 -0.00060927486227287683 -0.00033426473033277909 0 -0.0007060288499327786 -0.00040547905753596773 0 -0.00038169407219494736 -0.00063725141276952768 0 -0.00060927486227287683 -0.00033426473033277909 0 -0.00038169407219494736 -0.00063725141276952768 0 -0.00019562366529644312 -0.00049844676832588029 0 0.0013924516548219374 -0.0001236093153837627 0 0.0016579910013828857 -0.00029354602306952724 0 0.001605642051221532 -0.00032511720388401464 0 0.00064885018867765995 -0.0003345143979641336 0 0.00092699122408407351 -0.00045716157790987537 0 0.00019044319967102794 -0.00034272104172758779 0 -0.00010621546965496803 -0.00053559851447441856 0 0.00065424463063522731 -0.0006745160620908224 0 0.0016579910013828857 -0.00029354602306952724 0 0.001623921760093649 -0.00031452167905389819 0 0.001605642051221532 -0.00032511720388401464 0 -0.0002780042072097623 -0.00036101740820656522 0 0.00092699122408407351 -0.00045716157790987537 0 0.0015641584493930796 -0.00032126291529858015 0 0.0014976210079256922 -0.00030119475528509989 0 0.0015456918329573831 -0.00030281798417746076 0 -0.0011106017618955025 -0.00054044836800765518 0 -0.00015488633769467793 -0.00068807366088989878 0 0.00092699122408407351 -0.00045716157790987537 0 -0.00015488633769467793 -0.00068807366088989878 0 -0.00038169407219494736 -0.00063725141276952768 0 -0.00019562366529644312 -0.00049844676832588029 0 -5.4000070009506714e-05 -0.00069821253825749384 0 0.0016360528611137162 -0.00035164608858914649 0 0.001625733436256789 -0.00035193317798630914 0 0.0016096727355955625 -0.00035340165991354372 0 0.0018220465312272659 -0.00038331308037653928 0 0.0015290569918837487 -0.00031868435368479804 0 0.0015641584493930796 -0.00032126291529858015 0 0.0016579910013828857 -0.00029354602306952724 0 0.001623921760093649 -0.00031452167905389819 0 0.0017669994658273439 -0.00033355977171502563 0 0.00092699122408407351 -0.00045716157790987537 0 0.0016067171762242549 -0.00029728191005518181 0 0.0016096727355955625 -0.00035340165991354372 0 0.0016143235519987887 -0.00032754293438424538 0 0.0015641584493930796 -0.00032126291529858015 0 0.001623921760093649 -0.00031452167905389819 0 0.0016067171762242549 -0.00029728191005518181 0 0.001623921760093649 -0.00031452167905389819 0 0.0016067171762242549 -0.00029728191005518181 0 0.0016143235519987887 -0.00032754293438424538 0 0.001625733436256789 -0.00035193317798630914 0 0.0016190174041003163 -0.00035239152976862981 0 0.0016096727355955625 -0.00035340165991354372 0 0.001625733436256789 -0.00035193317798630914 0 0.0016260115724829594 -0.00034966467602486154 0 0.0016190174041003163 -0.00035239152976862981 0 0.0016271700411110467 -0.00034959041653751422 0 0.0016260115724829594 -0.00034966467602486154 0 0.0016141930349589798 -0.00035385026917362123 0 0.0016271700411110467 -0.00034959041653751422 0 0.0016141930349589798 -0.00035385026917362123 0 0.0015926910524503826 -0.00036302970178727452 0 0.0016141930349589798 -0.00035385026917362123 0 0.0016190174041003163 -0.00035239152976862981 0 0.0016096727355955625 -0.00035340165991354372 0 0.0016260115724829594 -0.00034966467602486154 0 0.0016141930349589798 -0.00035385026917362123 0 0.0016190174041003163 -0.00035239152976862981 0 0.0016141930349589798 -0.00035385026917362123 0 0.0016096727355955625 -0.00035340165991354372 0 0.0015926910524503826 -0.00036302970178727452 0 0.0014096402569989854 -0.00032609680569835022 0 0.0015926910524503826 -0.00036302970178727452 0 0.001605642051221532 -0.00032511720388401464 0 0.0016096727355955625 -0.00035340165991354372 0 0.0015926910524503826 -0.00036302970178727452 0 0.001605642051221532 -0.00032511720388401464 0 0.001623921760093649 -0.00031452167905389819 0 0.001605642051221532 -0.00032511720388401464 0 0.0016143235519987887 -0.00032754293438424538 0 0.0016096727355955625 -0.00035340165991354372 0 0.001605642051221532 -0.00032511720388401464 0 0.0016143235519987887 -0.00032754293438424538 0 
</DataArray>
</PointData>
<CellData Scalars="region_id,cross_section_updated," Vectors="" Tensors="stress,">
<DataArray type="Float64" Name="region_id" format="ascii">
5 5 5 5 5 5 5 5 5 5 5 5 5 5 5 6 5 5 5 5 5 5 5 5 6 5 5 5 5 6 5 5 5 5 5 6 5 5 5 5 5 5 6 5 5 5 5 5 6 5 5 5 5 5 5 5 5 6 5 5 6 5 5 5 5 5 6 5 5 6 6 5 5 6 5 6 5 5 5 5 5 5 6 5 5 5 5 5 5 5 5 5 6 5 5 5 5 5 5 5 5 5 5 6 5 5 6 5 5 5 6 5 5 5 5 5 5 5 5 5 5 5 6 5 5 6 5 6 5 5 5 6 5 5 6 5 6 5 5 5 6 5 5 5 6 5 5 5 6 5 6 6 5 5 5 6 6 5 5 5 5 5 5 5 5 5 5 5 5 5 5 5 5 5 5 5 5 5 5 5 5 5 5 5 5 5 5 5 5 5 5 5 5 5 6 5 5 5 5 5 5 5 5 5 5 5 5 5 5 5 5 5 5 5 5 5 5 5 5 5 5 5 5 5 5 6 5 5 5 5 5 5 5 5 6 6 5 5 5 5 5 6 5 5 5 5 5 5 5 5 5 5 5 5 6 5 5 5 5 6 5 5 6 6 5 6 5 5 5 6 5 6 5 5 5 5 6 5 5 5 5 6 5 5 5 5 5 5 5 5 5 5 5 5 5 5 5 5 5 5 5 5 5 5 5 5 5 5 5 5 5 5 5 6 5 5 5 5 5 5 5 5 5 5 5 5 5 5 5 5 5 5 5 5 6 5 5 5 5 5 5 5 6 5 5 6 5 5 5 5 5 5 6 5 5 5 5 5 5 5 5 5 5 5 5 5 5 5 6 5 5 5 5 6 5 5 6 5 6 5 5 5 5 5 5 5 6 5 5 5 5 6 5 5 5 5 5 5 5 5 5 5 5 5 6 5 5 5 5 5 5 5 5 5 5 5 5 5 5 5 5 5 5 5 5 5 5 5 5 5 5 5 5 5 5 5 5 6 5 5 6 5 5 5 5 5 5 5 5 6 5 5 5 5 5 5 5 5 5 5 6 5 5 5 6 6 5 5 5 6 5 5 5 5 5 5 5 5 5 5 6 5 5 6 5 5 6 5 5 5 5 5 5 5 5 5 5 5 5 6 5 5 5 5 5 5 6 5 5 6 5 5 5 5 5 5 6 5 5 5 5 6 6 5 5 5 6 5 6 5 5 5 5 5 5 5 6 5 5 5 5 5 5 5 5 5 5 5 5 5 5 5 6 6 5 5 5 5 5 5 5 5 5 5 5 6 5 5 5 5 5 5 5 5 5 5 5 5 5 5 5 5 5 5 5 5 5 5 6 5 6 5 5 5 6 5 5 5 5 5 5 6 5 5 5 5 5 5 5 5 5 5 5 5 5 5 5 5 5 5 5 5 5 5 5 5 5 5 5 5 5 5 5 5 5 5 5 5 6 5 5 6 5 5 5 5 5 5 5 5 6 5 5 5 5 5 5 5 5 5 5 5 5 5 5 5 5 5 5 5 5 5 6 5 5 6 5 5 5 6 5 5 6 5 5 5 5 6 5 6 5 5 5 5 6 5 5 5 5 6 6 5 5 5 6 5 6 5 5 5 5 5 5 5 5 5 6 6 5 6 5 5 5 5 5 5 5 5 5 5 5 5 5 5 5 5 5 5 5 5 5 5 5 6 5 5 6 5 5 5 5 5 5 5 5 5 5 6 5 5 5 5 5 5 6 5 5 5 6 5 5 5 5 5 5 5 5 5 5 5 5 5 5 5 5 6 5 5 6 5 5 5 6 5 5 6 6 5 5 5 5 5 6 5 5 5 5 5 5 5 5 6 5 5 5 5 5 5 5 5 6 5 6 5 5 5 6 5 6 5 5 5 5 5 6 5 6 5 5 5 5 5 6 5 5 6 5 5 5 5 6 6 5 5 5 6 5 5 5 5 6 5 5 6 5 5 5 5 5 5 5 5 5 5 5 5 5 5 6 5 5 5 5 6 5 5 5 6 5 6 6 5 5 5 5 5 5 5 6 6 5 5 5 5 6 5 6 5 5 6 5 5 6 5 5 5 5 5 5 5 5 5 6 6 5 5 5 6 6 5 5 5 5 6 5 6 5 5 6 5 5 5 5 6 5 5 5 5 6 6 5 5 5 5 5 5 5 6 6 5 5 6 5 5 5 5 5 5 5 6 5 5 6 5 5 6 6 5 5 5 5 6 5 5 5 5 5 6 5 5 5 5 5 5 5 5 5 5 5 5 5 5 5 5 6 5 5 5 5 6 5 6 5 6 5 5 5 5 5 6 5 5 5 5 5 5 5 6 5 5 5 5 5 5 5 5 5 5 5 5 6 5 6 5 5 6 5 5 5 5 5 5 6 5 6 5 5 5 5 5 5 6 5 5 5 6 5 5 5 5 5 6 5 5 5 6 5 6 6 5 5 6 5 5 5 5 5 5 5 6 5 6 5 5 5 5 5 5 5 5 5 6 5 5 6 6 5 5 5 5 5 6 5 6 5 5 5 5 6 5 6 5 6 5 5 5 5 5 5 5 5 5 5 5 6 5 5 5 5 5 5 6 5 5 5 5 5 5 5 5 6 5 5 6 5 6 5 5 5 5 6 5 5 5 5 5 5 5 5 5 5 5 5 6 6 5 5 5 6 6 5 6 6 6 6 5 5 5 5 5 5 6 5 5 5 5 5 5 5 5 5 5 6 6 5 5 5 5 5 5 5 5 5 5 5 5 5 5 5 5 6 5 6 5 5 5 5 5 6 5 6 5 5 5 5 5 5 6 5 5 5 5 5 5 5 5 5 5 5 5 5 5 5 5 5 5 5 5 5 6 5 5 5 5 5 5 5 5 5 5 6 5 5 6 5 5 5 5 5 5 5 6 6 6 5 5 6 5 5 5 5 5 5 5 5 5 5 5 5 5 5 5 5 5 6 5 5 6 5 5 5 5 6 6 6 6 5 6 5 6 5 5 5 5 5 5 5 5 6 5 5 6 5 5 5 5 5 5 5 6 5 5 5 6 5 6 5 5 5 5 6 5 5 6 5 5 5 5 5 5 5 5 5 5 5 5 5 5 5 5 5 5 5 5 5 5 6 5 5 5 6 5 5 5 5 5 5 5 6 5 5 5 6 5 5 5 5 5 5 5 5 5 6 5 5 5 5 5 6 5 5 5 6 6 5 5 5 5 5 5 5 6 5 5 5 5 6 5 5 6 5 5 5 5 5 5 6 5 5 5 5 5 5 5 5 5 5 5 5 5 5 5 5 5 5 5 5 5 5 5 5 5 5 5 5 5 5 5 6 5 5 5 5 5 5 5 6 5 6 5 5 5 6 5 5 5 5 5 6 5 5 5 5 5 5 5 5 5 5 5 5 5 5 5 5 5 5 5 5 5 5 6 5 5 5 6 5 5 5 6 5 5 5 5 5 5 5 5 5 6 5 5 5 5 5 5 6 5 5 6 5 5 5 5 5 5 5 5 5 6 5 5 5 5 5 5 5 5 5 5 6 5 5 5 5 5 5 5 5 5 5 5 5 5 5 6 5 5 6 5 5 5 5 5 6 5 5 5 5 5 5 5 5 5 6 5 5 5 5 5 5 5 6 5 5 5 6 5 5 5 5 5 5 5 5 5 5 5 5 5 5 5 5 5 5 5 5 5 5 5 5 5 5 5 6 5 5 5 5 5 5 5 5 5 5 5 5 5 5 5 5 5 5 5 6 5 5 5 5 5 5 5 5 5 5 5 5 5 5 5 5 5 5 5 5 6 5 5 5 5 5 5 5 5 6 5 5 5 5 5 5 5 5 5 5 6 5 6 5 5 5 5 6 5 5 5 5 5 5 5 5 5 5 5 5 5 5 5 5 5 5 5 5 5 5 5 5 5 5 5 6 5 5 6 5 5 5 5 5 5 6 5 5 5 6 5 5 5 5 5 6 5 5 5 6 5 5 5 5 6 5 5 5 5 5 6 5 5 5 5 5 5 5 5 5 5 6 5 6 5 5 6 5 6 5 5 5 5 5 5 6 5 5 5 5 5 5 5 5 6 5 5 5 6 5 6 5 5 5 5 5 5 5 5 5 5 6 5 5 5 5 5 5 5 5 5 5 5 5 5 5 5 5 5 5 5 5 5 5 5 5 5 5 5 5 5 5 5 5 5 5 5 5 5 5 5 5 5 5 5 5 5 5 5 5 5 5 5 5 5 5 5 5 5 5 5 5 6 5 5 5 5 5 5 5 6 5 5 5 6 5 6 5 5 5 5 5 5 5 5 5 6 5 5 5 5 5 5 5 5 5 5 5 5 5 5 5 5 5 5 5 5 5 5 5 5 5 5 5 5 5 5 5 5 5 5 5 5 5 5 5 5 5 5 5 5 5 5 5 5 5 5 5 5 5 5 5 5 6 5 5 5 5 5 5 5 5 5 5 5 5 5 6 5 5 5 5 5 5 5 5 5 5 5 5 5 5 6 5 5 5 5 5 6 5 5 5 5 5 5 5 5 5 5 5 5 5 5 5 5 5 5 5 5 5 5 5 5 5 5 5 5 6 5 6 5 5 5 5 5 6 5 5 6 5 5 5 5 5 5 5 5 5 5 5 5 5 6 5 5 5 5 5 6 5 5 5 5 5 5 5 5 5 5 5 5 5 5 5 5 5 5 5 5 6 5 5 5 5 5 6 5 5 5 5 5 5 6 5 5 5 5 5 5 5 5 5 5 5 5 5 5 5 6 5 5 6 5 5 5 5 5 5 5 5 5 5 5 5 5 5 5 5 5 5 5 5 5 6 5 5 5 6 5 5 5 5 5 5 5 5 5 5 5 5 5 5 5 5 5 5 5 5 5 5 5 5 5 5 5 5 5 5 5 5 5 5 5 5 6 5 5 5 6 6 5 6 5 5 5 5 5 5 5 5 5 5 5 5 5 5 6 5 5 5 5 5 5 5 5 5 5 5 5 5 5 5 5 5 5 5 5 5 5 5 5 5 5 6 5 5 5 5 5 5 5 5 5 5 5 6 5 5 5 6 5 5 5 5 5 6 5 5 5 5 5 5 5 6 5 5 5 5 5 5 5 5 5 5 6 5 5 5 5 5 5 5 5 5 6 5 5 5 5 5 5 5 5 5 5 5 5 5 5 5 6 5 5 5 6 5 6 5 5 6 6 5 5 5 5 5 6 5 5 5 5 5 5 5 5 6 6 6 5 5 5 6 5 5 6 6 5 5 5 5 5 5 5 5 5 5 5 5 5 5 5 5 5 5 5 5 5 5 5 5 5 5 5 5 5 5 5 5 5 5 5 5 5 5 5 5 5 5 5 5 5 5 5 5 5 5 5 5 5 5 6 5 5 5 5 6 5 5 5 5 5 6 5 5 5 5 5 5 5 5 5 5 5 5 6 5 5 5 5 6 5 5 5 5 5 5 5 5 5 5 5 5 5 5 5 5 5 5 5 5 5 5 5 5 5 5 6 5 6 5 5 5 5 5 5 5 5 5 5 6 5 5 5 6 5 5 5 5 5 5 6 5 5 5 5 5 5 6 5 5 5 5 5 6 6 6 6 5 5 5 5 5 5 5 5 5 5 5 5 5 5 5 5 5 5 5 6 5 6 5 5 5 5 5 5 5 6 5 5 5 5 5 6 5 5 5 6 5 5 6 6 5 6 6 6 5 5 5 5 5 5 5 5 6 5 5 6 6 6 5 5 5 6 6 5 5 6 5 5 5 6 5 5 5 6 5 5 5 5 5 5 5 5 5 5 5 5 6 5 5 5 5 5 5 5 5 5 5 6 5 5 5 5 5 5 5 6 5 5 5 6 5 5 5 5 5 5 5 6 5 5 5 5 5 5 5 5 5 5 5 5 5 5 5 5 5 5 5 5 5 5 6 5 5 5 5 5 5 5 5 5 5 5 5 5 5 5 5 5 5 5 5 5 5 5 6 5 5 6 5 5 5 5 5 5 5 5 5 5 5 5 5 5 5 5 5 5 5 5 5 5 5 5 5 6 5 5 5 5 5 5 5 5 5 5 5 5 5 6 5 5 5 5 5 5 5 5 5 5 5 5 5 6 5 5 6 5 5 5 5 5 5 5 5 6 5 5 5 6 5 5 5 5 5 5 5 6 5 6 5 6 5 5 6 5 6 5 5 5 5 5 6 5 6 5 5 5 6 5 5 5 5 5 5 5 5 5 5 5 5 6 5 5 5 5 6 5 5 6 5 5 5 5 5 5 5 6 5 5 5 6 5 5 5 5 6 5 5 6 5 5 6 5 6 5 5 5 5 5 5 5 5 5 6 5 5 5 5 6 6 5 5 5 5 5 5 5 5 6 5 6 5 5 5 6 6 5 5 5 5 5 5 5 6 5 5 5 5 5 6 5 5 5 6 5 5 5 5 5 5 5 6 5 5 5 5 5 5 5 5 5 5 5 5 6 5 5 6 5 5 5 5 5 5 5 5 5 5 6 5 5 5 5 5 5 5 5 5 5 5 5 6 5 5 5 5 5 5 5 5 5 5 5 5 5 5 5 6 5 5 5 6 5 5 5 5 5 5 5 5 5 5 5 5 5 5 5 6 5 6 5 5 5 5 5 5 5 5 5 5 5 5 5 6 5 5 5 5 5 5 5 5 5 5 5 5 5 5 5 5 5 5 5 5 5 5 5 5 5 5 5 5 5 5 5 5 5 5 5 5 5 5 5 5 5 5 5 5 5 5 6 5 5 5 5 5 6 5 5 5 5 5 5 5 5 5 5 5 5 5 5 5 5 5 6 5 5 5 5 5 5 5 5 5 5 5 5 5 5 5 5 5 5 5 5 5 5 5 5 5 5 5 5 5 5 5 5 5 6 5 5 5 6 5 5 5 5 5 5 5 5 5 5 5 6 5 5 5 5 5 5 6 5 5 5 5 5 6 5 5 5 5 5 5 5 5 5 5 5 6 5 5 5 5 6 5 5 6 5 5 5 5 6 6 6 6 5 5 6 6 5 6 6 5 5 5 5 5 5 5 5 5 5 6 5 5 5 5 5 5 5 5 5 5 5 5 5 5 5 5 6 5 6 5 5 6 5 5 5 6 5 5 5 6 5 5 5 5 5 5 5 5 5 5 6 5 5 5 5 5 5 5 5 5 5 6 5 5 5 5 5 5 6 5 5 5 5 5 5 5 5 5 5 5 5 5 5 6 5 5 5 5 6 5 5 5 5 5 6 5 5 5 5 5 5 5 5 5 5 5 5 5 5 5 5 5 5 5 5 5 5 5 5 5 5 5 5 5 5 5 5 5 5 5 5 5 5 5 5 5 5 5 5 5 5 5 5 5 5 5 5 5 5 5 5 5 5 5 5 5 5 5 5 5 5 5 5 5 5 5 5 5 5 5 5 5 5 6 5 5 5 5 5 5 5 5 5 5 5 5 5 5 5 5 5 6 5 5 5 5 5 5 5 6 5 5 5 5 6 5 5 5 5 5 5 5 5 5 5 6 5 5 5 6 5 6 5 5 5 5 5 6 5 5 6 6 5 5 5 5 5 5 5 6 5 5 5 5 5 5 5 5 5 5 5 5 6 5 5 5 5 6 5 5 5 5 5 5 5 5 6 6 5 5 5 5 5 5 5 5 5 5 5 5 5 6 5 6 5 5 6 5 5 6 5 5 5 5 5 5 5 6 5 5 5 6 5 5 5 5 5 6 5 5 5 5 5 5 6 5 5 5 5 5 5 5 5 5 5 6 5 5 5 5 5 5 5 5 5 5 5 5 5 6 5 5 5 5 5 5 5 5 5 5 5 5 6 5 5 5 5 6 5 5 5 6 6 5 5 5 5 5 5 5 6 6 5 5 5 5 5 6 5 5 5 5 5 5 5 6 5 5 6 5 5 5 5 5 6 5 5 5 5 5 5 5 6 5 5 5 5 6 5 5 5 5 5 5 5 5 5 5 5 5 5 5 5 5 5 6 5 5 5 5 5 5 5 6 5 5 5 5 5 5 5 5 5 5 5 5 5 5 5 5 5 5 6 5 5 5 5 5 5 5 5 5 5 6 5 5 5 5 5 5 5 5 5 5 5 5 5 5 5 5 5 5 5 5 5 5 5 5 5 6 5 5 5 5 5 5 5 6 5 5 5 5 5 6 5 6 6 5 5 5 5 5 5 5 5 5 5 5 5 5 5 5 5 6 5 5 5 6 5 5 5 5 5 6 5 5 5 5 5 5 5 5 5 5 5 6 5 5 6 5 5 5 5 5 5 5 5 5 5 5 5 5 5 5 5 5 5 5 5 5 5 5 5 5 5 5 5 5 5 5 5 5 5 5 5 6 5 6 5 5 5 6 5 5 5 5 5 5 5 5 5 5 5 5 5 6 5 5 5 6 5 5 5 5 5 5 5 5 5 5 5 5 5 5 5 5 5 5 5 5 5 5 5 5 5 5 6 5 5 5 6 5 5 5 5 5 5 5 5 5 5 5 5 6 5 5 5 6 5 5 5 5 5 6 5 5 5 5 5 5 5 5 5 5 5 5 5 5 5 5 5 5 5 5 5 6 5 5 5 5 5 5 5 5 5 5 5 5 5 5 5 5 6 5 6 5 5 5 5 5 5 5 5 5 5 5 5 5 5 5 5 5 5 5 6 5 5 6 5 5 5 5 5 5 6 5 5 5 5 5 5 5 5 5 5 5 5 5 6 5 6 6 5 5 5 5 6 5 5 5 5 5 5 5 5 5 5 5 5 5 5 5 5 5 5 5 5 5 5 5 5 6 5 5 5 5 5 5 5 5 5 5 5 5 6 5 5 5 5 6 5 6 5 5 5 5 5 6 5 5 5 5 5 5 5 5 5 5 5 6 6 6 5 5 6 6 5 5 5 5 5 6 5 5 6 5 5 5 5 5 5 5 6 5 5 5 5 5 5 5 5 5 5 5 5 5 5 6 5 5 5 5 5 5 5 5 5 6 5 5 6 5 5 6 5 6 5 5 6 5 6 5 6 5 5 5 6 5 6 5 6 6 6 5 5 5 6 5 5 6 6 6 5 5 5 6 5 5 5 6 6 5 5 5 6 6 6 5 5 5 5 5 5 5 5 5 5 5 6 5 5 5 5 5 5 6 5 5 6 5 5 5 5 5 5 5 5 5 5 5 5 5 5 6 5 5 6 6 5 6 5 6 5 5 5 5 5 5 5 5 5 6 5 5 5 5 5 6 5 5 5 5 5 5 5 5 5 5 5 5 6 5 5 5 5 6 6 5 5 5 5 6 6 5 6 6 5 5 5 5 5 5 5 5 5 5 5 6 6 5 5 5 5 5 5 5 5 5 5 5 5 5 5 5 5 5 5 5 5 5 5 5 5 6 5 5 5 5 5 6 5 6 5 5 5 5 5 5 5 5 5 5 5 6 5 5 5 6 5 5 5 5 5 5 5 5 5 5 5 5 5 5 5 5 5 5 5 5 5 5 6 5 5 5 6 5 5 5 5 5 5 5 5 5 5 5 5 5 5 5 5 5 5 5 5 5 5 5 5 5 5 5 5 5 5 5 5 5 5 5 5 5 5 5 5 5 5 5 5 5 5 6 5 5 6 5 5 5 6 5 5 5 5 5 5 5 5 5 5 5 5 5 5 5 5 5 5 5 5 5 5 5 5 5 5 6 6 5 6 5 5 6 6 5 5 6 6 5 5 5 5 5 5 6 5 5 5 5 5 5 5 6 5 6 5 6 5 5 5 5 6 5 5 5 5 5 6 5 5 5 5 5 5 5 5 5 5 5 5 6 6 6 5 5 5 6 5 5 5 5 5 5 5 6 5 6 5 6 5 6 5 5 5 6 6 5 5 5 5 5 5 5 5 5 5 6 5 6 5 5 5 5 5 6 5 6 5 5 5 5 5 5 5 5 5 6 6 5 5 6 5 6 6 5 5 5 5 6 6 5 5 5 6 5 5 6 5 5 5 5 6 5 5 5 5 6 5 6 5 5 5 5 5 5 5 5 6 5 5 6 5 5 6 5 5 5 5 6 5 6 5 6 6 5 6 5 6 6 5 5 6 6 6 6 6 5 5 5 5 5 5 5 5 5 5 5 5 5 5 5 5 5 5 6 5 5 5 6 6 5 5 5 5 5 5 6 5 5 5 6 6 5 5 5 5 5 6 5 6 5 6 6 5 5 5 5 5 6 5 6 5 6 5 5 6 5 5 5 6 5 5 6 6 5 6 5 6 5 5 5 6 6 5 6 6 5 5 5 5 5 5 5 5 5 6 5 6 5 5 5 6 5 5 6 6 5 6 5 5 5 5 5 6 6 5 5 6 5 5 5 5 5 5 5 5 6 5 5 5 5 5 6 5 6 6 5 5 5 5 6 5 6 5 6 5 6 5 5 5 5 5 5 6 5 5 5 5 5 5 5 5 5 5 5 5 5 5 6 5 6 5 5 6 5 5 5 5 5 5 5 5 6 5 6 5 5 5 6 5 5 5 5 5 6 5 5 5 5 6 5 6 5 6 5 5 5 6 5 5 5 6 5 6 5 6 5 6 5 6 5 5 5 5 5 5 5 5 5 5 5 5 5 5 5 5 5 5 5 5 5 5 5 6 5 5 5 5 5 5 5 5 5 5 5 5 5 5 5 5 5 5 5 5 5 5 5 5 5 5 5 5 5 5 5 5 5 5 5 5 6 6 5 5 5 5 5 5 6 5 5 6 5 6 5 6 5 5 5 6 5 5 6 5 5 6 5 5 6 5 5 5 5 5 5 5 5 5 5 5 5 5 5 5 5 5 5 5 5 5 6 5 5 5 5 5 5 5 6 5 6 5 5 5 5 5 5 5 5 5 5 5 5 5 5 6 5 5 5 5 5 5 5 5 5 5 5 5 6 5 5 5 5 5 5 6 5 6 6 5 5 5 5 5 5 5 5 6 5 5 5 5 5 5 5 5 5 6 5 5 5 5 5 5 5 5 5 5 5 5 5 5 5 6 5 5 5 6 5 5 5 5 5 5 5 5 5 5 5 5 5 5 5 5 6 5 6 5 5 5 6 5 5 6 5 5 5 5 5 5 5 5 5 5 5 5 5 5 5 5 5 5 5 6 5 5 6 5 5 5 5 5 5 5 5 5 5 5 5 5 5 5 5 5 5 5 5 5 5 5 5 5 5 5 5 5 5 5 5 5 5 5 5 5 5 5 5 5 5 5 5 5 5 5 6 5 5 5 5 5 5 5 5 5 5 5 5 6 5 5 5 5 5 5 6 5 5 6 6 5 6 6 6 5 5 5 5 5 6 5 5 6 6 5 5 6 5 6 6 6 5 5 6 5 5 5 5 6 5 5 5 5 5 6 5 5 5 5 5 5 6 5 6 5 6 5 5 5 5 5 5 5 5 6 5 5 5 5 5 5 5 5 5 5 6 5 5 6 5 5 5 5 5 5 5 5 5 5 5 6 5 5 5 5 5 5 5 5 6 6 5 5 6 5 5 5 5 6 5 5 6 5 5 5 6 5 6 6 5 5 5 6 5 6 6 5 6 5 5 6 6 5 5 6 5 5 5 6 6 5 5 5 5 6 5 5 5 5 6 5 6 6 5 6 6 5 5 5 5 5 5 5 5 6 5 5 5 5 5 5 5 6 6 5 5 6 5 5 5 6 5 6 5 6 6 5 6 5 5 6 5 6 5 5 6 6 5 5 5 5 5 6 5 5 5 5 6 6 5 5 5 5 5 6 5 5 6 5 5 5 5 5 5 5 6 5 5 5 6 5 5 5 5 5 6 5 5 5 6 5 6 5 5 5 5 5 6 5 5 5 5 5 5 5 5 6 5 5 5 5 5 5 5 5 5 6 5 5 5 5 5 5 5 5 5 6 6 5 5 5 5 5 5 6 5 6 5 5 5 6 6 5 5 6 5 5 5 5 5 5 5 5 5 5 5 5 5 5 5 5 5 5 5 5 5 5 5 5 5 5 5 5 5 5 5 5 5 5 6 5 5 6 5 5 5 6 5 5 5 6 5 5 5 5 5 5 6 6 5 5 5 5 5 5 6 5 5 5 5 5 5 5 5 5 5 5 6 5 5 5 6 5 5 5 5 5 5 5 5 5 5 5 6 5 5 5 5 5 6 5 6 5 5 5 6 5 5 6 6 5 6 5 5 5 5 5 6 5 5 5 5 5 5 5 5 5 6 5 5 5 6 5 5 5 5 5 5 6 5 5 5 6 5 5 5 5 5 5 5 5 5 5 6 5 5 6 5 6 6 5 5 6 5 6 6 6 5 5 5 5 5 5 5 6 6 5 5 5 6 5 5 6 5 5 5 5 5 5 5 5 5 6 5 6 5 6 5 5 5 5 5 5 5 5 5 6 5 5 5 5 6 5 5 5 5 5 5 5 5 5 5 6 5 5 5 5 6 5 5 5 5 5 5 5 5 5 5 5 5 6 6 6 5 5 5 5 5 5 5 6 5 5 6 5 6 5 5 5 5 5 6 6 5 5 5 5 5 5 5 5 5 6 5 5 6 6 5 5 5 5 6 5 6 5 5 5 5 6 5 5 5 6 5 5 5 5 5 5 5 5 5 5 5 5 5 5 5 5 5 5 5 5 5 5 5 5 5 5 6 6 5 5 5 5 6 5 6 6 5 6 5 5 5 5 5 5 5 5 5 5 6 5 5 5 5 5 5 5 6 5 5 5 6 5 5 5 5 6 5 5 5 5 5 5 6 5 5 5 5 5 5 6 6 5 6 5 6 5 5 5 5 5 5 6 5 5 5 5 5 6 5 5 5 5 5 5 6 5 5 5 5 5 5 5 6 5 5 5 6 5 5 5 6 5 5 5 6 6 5 6 5 5 5 5 5 5 5 5 5 5 5 5 5 5 5 5 5 5 5 5 5 5 6 6 5 6 5 5 5 5 6 5 5 6 5 5 6 5 5 5 5 6 5 5 6 6 5 5 5 5 6 5 5 5 5 5 5 5 5 5 5 5 5 5 5 6 5 5 5 5 6 5 5 5 6 5 5 5 5 6 5 6 5 6 5 6 5 5 6 5 5 5 5 5 5 6 6 5 5 6 5 5 5 5 6 5 5 5 5 5 5 5 5 5 5 5 6 5 5 5 5 6 6 6 5 5 6 6 5 5 6 6 5 5 5 5 5 6 5 5 5 5 5 6 6 5 6 5 5 5 5 5 5 5 5 5 5 6 5 5 5 5 5 5 5 5 5 5 5 5 5 5 5 5 5 5 5 5 5 5 5 5 5 5 6 5 5 5 6 5 5 6 5 5 5 5 5 5 5 5 5 5 5 6 5 5 5 5 5 5 5 5 5 5 5 5 5 5 5 5 5 5 5 5 6 6 5 5 5 5 6 5 5 6 5 6 5 5 5 5 5 6 5 6 5 5 5 6 6 5 5 5 5 6 6 5 5 5 5 5 5 5 5 5 5 5 6 6 6 5 5 5 6 5 6 5 5 6 5 5 5 5 6 5 5 5 6 5 6 5 6 5 5 5 6 6 6 6 5 5 6 5 5 6 5 5 6 6 5 5 6 5 5 6 5 5 5 6 5 5 5 5 5 5 5 5 5 5 5 5 5 5 5 5 5 5 5 5 5 5 5 5 5 5 5 6 5 5 5 5 5 6 5 5 6 5 5 5 5 5 5 5 5 6 5 5 5 5 5 5 5 5 5 5 5 5 6 5 5 5 5 5 5 6 5 6 5 5 5 5 5 6 5 5 5 5 5 6 5 5 6 5 5 5 6 5 5 5 6 5 5 5 5 5 5 5 5 6 5 5 5 5 5 5 5 5 5 6 5 5 5 5 5 5 5 5 6 5 5 6 5 5 5 5 5 5 5 5 5 5 5 5 5 5 5 6 5 5 6 5 5 6 5 5 6 5 6 5 5 5 5 5 5 5 5 5 5 5 6 5 5 6 5 5 5 5 6 5 5 6 5 5 5 6 5 5 5 6 5 6 6 5 5 5 6 5 5 5 5 6 5 5 5 5 5 6 5 5 6 6 6 5 5 5 5 5 5 5 6 5 6 5 5 6 5 5 5 5 5 6 5 5 6 5 6 6 5 5 5 5 5 6 5 5 5 5 5 5 5 6 5 5 6 5 5 6 5 6 5 5 5 5 5 5 6 5 6 5 5 5 5 5 5 5 5 5 5 5 5 5 5 6 6 5 5 6 5 5 5 6 5 5 5 5 5 5 5 5 5 5 6 5 5 6 5 5 5 5 5 5 5 5 6 5 5 5 5 5 5 5 5 5 5 5 5 5 5 5 5 5 5 5 5 5 5 5 5 6 5 6 5 5 5 5 5 5 6 5 5 6 5 5 5 5 5 6 5 5 5 5 6 6 5 6 5 5 5 5 5 5 6 6 5 5 5 5 5 5 6 5 5 5 6 5 5 5 5 5 5 5 6 5 5 5 5 5 6 5 5 5 5 5 5 6 5 5 5 5 6 6 5 5 5 5 5 5 5 5 6 5 6 5 5 6 5 6 5 6 5 6 5 5 5 6 5 5 5 5 5 5 6 5 5 5 5 6 5 6 5 5 6 5 5 5 5 5 5 5 5 5 5 6 5 5 5 5 5 6 5 5 6 5 5 5 5 5 5 6 5 5 5 5 5 5 5 5 5 5 5 5 5 5 6 5 5 5 5 5 5 6 5 5 5 5 6 5 5 5 5 5 5 5 6 5 5 5 5 6 5 5 5 5 5 5 5 5 5 5 5 5 5 5 5 5 5 5 5 5 5 6 5 5 5 5 5 6 5 5 5 5 5 5 5 5 5 5 5 5 5 5 5 5 5 5 5 5 5 5 5 5 5 5 5 5 6 6 5 5 5 5 6 5 6 5 5 5 5 5 5 5 5 5 5 5 5 5 5 5 5 5 5 5 5 5 5 5 5 5 5 5 5 5 6 5 5 5 6 5 5 5 5 5 5 5 5 5 5 5 5 5 5 5 5 5 5 5 6 5 5 5 5 5 5 5 5 5 5 5 5 5 5 5 5 5 5 5 5 5 5 5 5 5 5 5 5 5 5 5 5 5 5 5 5 5 6 5 5 5 5 5 5 5 5 6 5 5 5 5 5 5 5 5 5 6 6 5 5 5 5 5 5 5 5 5 5 5 6 5 5 5 5 5 5 6 5 5 5 5 5 5 5 5 5 5 5 5 5 5 5 6 5 6 5 6 6 5 6 5 5 5 5 6 5 5 5 5 5 5 5 5 5 5 5 5 5 6 5 5 5 5 6 5 5 5 5 5 5 5 5 5 5 5 5 5 5 5 5 5 5 5 5 5 5 5 6 5 5 6 5 5 5 5 5 5 5 5 5 5 5 5 5 5 5 5 5 5 5 5 5 5 6 5 6 6 5 5 5 5 5 5 5 5 6 5 6 5 5 5 5 5 5 6 5 5 5 6 5 5 5 5 6 6 5 5 5 5 5 5 5 5 5 5 5 5 5 6 5 5 5 5 5 6 5 5 6 5 5 5 5 5 5 6 5 5 5 5 5 5 5 5 5 5 5 5 6 5 5 5 5 5 5 5 6 5 5 5 5 5 5 5 5 5 5 6 5 6 5 5 5 6 6 5 5 6 5 6 6 5 5 5 5 5 6 5 6 5 5 5 5 5 5 5 5 5 5 5 5 5 5 5 6 5 5 5 6 5 5 6 5 6 5 6 5 5 6 6 5 5 5 5 5 5 6 5 5 6 5 5 5 5 5 6 5 5 6 5 6 5 6 5 5 5 6 5 6 6 5 5 6 5 5 6 5 5 5 6 5 5 5 5 5 5 6 5 5 6 6 5 6 5 5 6 5 5 5 5 5 6 5 5 5 5 5 5 6 5 5 6 5 6 6 5 5 5 5 5 6 5 5 5 5 5 5 5 5 6 5 6 5 5 5 6 5 5 6 5 5 5 5 6 5 5 5 5 5 5 5 5 5 6 5 5 5 5 5 6 5 5 5 5 6 5 5 5 5 5 6 5 5 5 5 6 5 5 5 5 5 5 5 5 5 5 5 5 5 6 5 5 5 6 5 6 5 5 6 5 5 5 6 5 5 5 5 5 6 5 5 5 5 5 5 5 5 5 5 5 5 5 6 6 5 5 5 5 5 6 5 6 5 5 6 5 6 5 5 6 5 5 5 5 6 6 6 5 5 5 6 5 6 5 5 5 5 6 6 5 5 5 6 5 5 5 5 5 5 5 5 5 5 6 5 6 5 5 5 5 5 5 5 5 5 5 5 5 5 5 5 5 6 5 5 5 5 5 5 6 6 5 5 6 5 5 5 5 5 5 6 5 5 5 5 5 5 5 5 5 5 5 5 6 5 5 5 5 5 5 5 5 5 5 5 6 5 5 5 5 5 5 5 5 5 5 6 5 5 5 6 5 5 5 5 5 5 5 5 6 5 5 6 5 5 5 5 5 6 5 5 5 5 5 6 5 6 5 5 5 5 5 5 5 5 5 5 5 5 5 5 5 5 5 5 5 5 5 5 5 5 5 5 5 5 5 5 5 5 5 5 5 5 5 5 5 5 5 5 5 5 5 5 5 6 5 5 5 5 5 5 6 5 5 5 5 5 5 5 5 5 5 5 5 5 5 5 6 5 6 5 5 5 5 5 5 5 5 5 5 5 5 5 6 5 5 5 5 6 5 5 5 5 5 5 5 5 5 5 5 5 6 6 5 5 5 5 5 5 5 5 5 5 5 5 5 5 5 5 5 5 5 5 5 5 5 5 5 5 5 5 5 5 5 5 5 5 5 5 5 6 5 5 5 5 5 5 5 5 5 5 5 5 5 5 5 5 5 5 6 5 6 6 6 5 5 5 6 5 5 6 6 5 5 5 6 5 5 5 5 5 5 6 5 5 5 5 5 5 5 5 5 6 6 5 5 5 6 5 5 6 5 5 6 5 5 6 5 5 5 6 5 6 5 6 5 5 6 5 5 5 6 5 5 5 6 6 5 5 5 5 5 5 5 5 5 6 5 6 5 5 5 6 5 6 5 5 5 6 5 6 6 5 5 5 5 5 5 6 6 5 5 6 6 5 5 5 6 5 5 6 5 5 6 5 5 5 5 6 5 6 5 6 5 5 5 6 5 6 5 5 5 5 6 6 5 6 5 5 5 5 6 5 5 5 6 6 6 6 6 5 5 6 5 5 6 6 6 5 5 6 6 6 5 5 6 5 5 6 6 5 6 5 6 6 5 5 5 5 6 6 5 5 5 6 5 6 5 5 5 5 5 5 6 5 5 5 5 6 5 5 6 5 6 5 6 5 6 5 5 6 5 5 5 5 5 5 5 5 5 5 5 6 5 5 5 6 6 5 6 5 5 5 5 6 5 5 5 6 5 6 5 5 5 5 6 6 5 5 5 5 6 5 5 6 6 5 5 6 6 5 5 6 5 5 5 6 6 5 5 5 5 6 5 6 5 6 5 6 5 6 5 5 6 6 5 5 6 5 5 6 5 6 6 5 5 6 5 5 6 5 6 5 6 5 6 5 5 6 5 5 5 5 5 6 6 5 5 5 5 5 5 5 5 5 5 5 5 5 5 6 5 6 5 5 6 5 5 5 5 6 5 5 6 5 6 5 5 5 5 5 5 5 5 5 5 6 5 5 5 5 5 5 5 5 5 5 5 5 5 5 5 6 6 5 5 5 6 6 5 5 5 5 6 5 5 5 5 5 6 5 5 5 5 5 6 5 5 5 5 5 5 5 5 5 5 5 5 5 5 6 5 5 6 6 5 6 5 5 6 5 5 6 5 5 5 5 5 5 6 5 5 6 5 6 5 5 5 5 5 5 5 5 5 5 5 5 5 6 5 5 5 6 5 5 6 5 5 6 5 5 5 6 5 6 5 5 6 5 5 6 5 6 5 5 6 5 5 5 5 6 5 5 5 5 6 5 5 5 6 5 5 5 5 5 6 5 5 5 5 5 5 5 5 6 5 5 5 5 5 5 5 5 5 5 6 5 6 5 5 5 6 5 5 5 5 5 5 5 5 5 5 5 5 5 5 5 5 5 5 5 5 5 5 5 5 5 5 5 5 5 5 5 5 5 5 5 5 5 6 5 5 5 6 5 5 5 5 5 5 5 5 5 5 5 5 5 5 5 5 6 5 5 5 5 6 5 5 5 5 5 5 5 5 5 5 5 5 5 5 5 5 6 5 5 5 5 5 5 5 5 5 5 5 5 5 5 5 5 5 5 5 5 5 5 5 5 5 5 5 5 5 5 6 5 6 5 5 5 6 5 5 5 5 5 5 5 5 5 5 5 5 5 5 5 5 5 5 5 5 5 5 6 5 5 5 6 5 5 5 5 6 5 5 5 5 5 5 6 5 5 5 5 5 5 5 5 6 5 5 5 5 5 5 6 5 5 6 6 5 5 5 6 6 5 5 6 5 6 5 6 6 5 5 5 5 6 5 6 5 5 5 5 6 5 5 6 5 6 5 5 5 6 6 6 5 6 5 6 5 6 5 6 6 5 6 6 5 5 5 6 5 6 5 5 5 5 5 6 5 6 5 5 5 5 5 6 5 6 5 6 5 5 5 5 5 6 5 5 6 5 5 5 5 6 5 5 5 5 6 5 6 5 5 6 5 5 5 6 5 5 5 5 5 5 5 5 5 5 5 5 5 5 5 5 5 5 5 6 5 5 5 6 5 5 5 6 5 5 5 5 6 5 5 5 5 5 5 5 5 5 5 5 5 5 5 5 5 5 5 5 5 5 5 5 5 5 5 5 5 6 5 5 5 5 5 5 5 5 5 5 5 5 5 6 5 5 5 5 5 5 5 5 5 6 5 6 5 5 5 5 6 5 5 5 5 5 5 6 5 5 5 5 6 6 5 6 5 6 5 5 5 5 6 5 5 6 6 5 5 5 5 5 6 6 5 5 6 5 6 5 6 6 5 5 5 5 5 6 5 6 5 6 6 5 5 6 6 5 6 5 6 5 5 5 6 5 5 5 6 5 5 6 6 6 6 5 6 5 5 5 5 6 6 5 5 6 5 5 6 5 5 6 5 5 5 5 5 5 5 6 5 5 5 5 6 6 5 6 6 5 5 5 5 6 5 5 6 5 6 5 5 5 6 6 6 6 5 5 6 5 5 5 5 6 5 5 5 5 6 6 5 5 6 5 5 5 5 5 5 5 5 6 5 6 5 6 5 5 5 5 5 5 5 5 5 5 5 6 5 5 5 5 6 5 5 6 5 5 5 5 6 5 5 5 6 5 6 5 5 6 5 5 5 5 5 5 5 5 5 5 5 5 5 6 5 6 5 5 5 5 5 5 5 5 5 5 5 5 5 5 5 5 5 5 5 5 5 6 6 5 5 5 5 6 5 5 5 5 5 5 5 6 5 5 5 5 6 5 5 5 5 5 6 5 5 5 5 5 5 5 5 5 5 5 5 5 5 5 5 5 6 5 5 5 5 5 5 5 5 5 5 5 5 5 5 5 6 5 5 5 5 5 5 5 6 5 6 5 5 5 5 5 5 6 5 5 6 5 6 5 5 5 5 5 5 5 5 5 6 5 5 5 5 5 6 5 5 5 5 5 5 5 5 5 5 5 6 5 5 5 6 5 5 6 5 5 5 6 5 6 5 5 6 5 6 5 5 5 5 6 5 5 5 5 5 6 5 5 6 6 5 5 5 6 5 6 6 5 5 5 6 5 5 5 5 5 5 5 5 5 5 5 6 5 5 5 5 5 5 5 5 5 5 5 5 5 5 5 5 5 5 5 5 5 5 5 6 5 5 6 5 6 5 5 6 6 5 6 5 5 5 6 5 5 5 5 6 5 5 5 5 5 6 6 6 5 5 6 5 5 5 5 5 5 5 5 6 5 5 5 5 5 5 6 5 6 5 5 5 5 6 6 5 5 5 5 5 5 6 5 6 5 5 5 6 5 5 5 6 5 5 6 5 5 6 5 5 5 6 5 5 6 5 5 5 6 5 5 5 5 5 5 5 5 5 5 5 5 6 5 5 5 5 5 5 6 5 5 5 5 6 5 5 5 5 6 5 6 5 5 6 5 5 5 5 5 5 5 5 5 5 5 6 5 5 5 5 5 5 5 5 5 5 5 5 5 5 5 5 5 5 5 5 5 5 5 5 6 5 5 5 5 5 5 5 5 5 5 5 5 6 5 5 5 5 5 5 5 5 5 5 5 5 5 5 5 5 5 5 5 5 5 5 5 5 5 5 5 5 5 5 5 5 5 5 5 5 5 5 5 5 6 5 5 5 5 5 6 5 5 5 5 5 5 5 5 5 5 5 5 5 5 5 5 5 5 5 5 5 5 5 5 5 5 5 5 5 5 5 5 5 5 6 5 5 5 5 5 6 6 5 5 5 5 5 6 5 5 5 5 6 5 5 5 5 5 5 5 5 5 6 5 5 5 5 5 5 5 5 5 5 5 5 5 5 5 5 5 5 5 5 6 5 6 5 5 6 6 5 6 6 5 5 5 5 6 6 5 6 5 6 5 5 5 6 6 5 6 5 5 5 5 6 5 6 5 5 5 5 6 5 5 5 5 5 6 5 5 6 5 5 5 5 5 5 5 5 5 5 6 5 5 5 5 5 5 5 5 5 5 5 5 6 5 5 5 5 5 6 5 5 5 5 5 5 5 5 5 5 5 5 5 5 5 5 5 5 5 5 5 5 5 6 5 5 5 5 5 5 5 6 5 5 6 5 5 5 5 5 5 5 5 5 5 5 6 5 6 5 5 5 5 5 6 5 6 6 5 5 5 6 5 5 5 6 6 5 5 5 5 5 5 5 5 5 5 5 5 5 5 5 5 5 5 5 5 5 5 5 5 5 5 5 5 5 5 5 5 6 5 5 5 5 5 5 5 5 5 5 5 5 6 5 5 5 6 5 5 5 5 5 5 5 5 5 5 5 5 5 5 5 5 5 5 5 5 5 5 5 5 5 5 5 5 6 5 5 5 5 6 6 6 5 6 6 5 5 5 6 5 5 5 5 5 5 6 5 5 5 5 5 5 5 5 5 5 5 5 5 5 5 5 5 5 5 5 5 5 5 5 5 5 5 5 5 6 5 5 5 6 5 5 5 5 5 5 5 5 5 5 5 5 6 5 5 5 5 6 5 5 5 6 5 5 5 5 6 5 6 5 5 5 5 5 5 6 5 6 5 5 5 5 5 6 5 5 5 5 6 5 5 5 6 5 5 5 5 5 5 5 6 5 5 6 5 5 6 5 5 5 5 5 5 5 5 5 5 5 5 5 5 5 5 5 5 5 5 5 5 5 6 5 6 5 5 5 6 5 6 5 6 6 5 5 5 5 5 5 5 5 6 5 5 5 5 5 5 5 5 5 5 5 5 5 5 5 5 5 5 5 6 5 5 5 5 5 5 5 5 6 5 5 5 5 5 5 5 5 5 5 5 5 5 5 5 5 5 5 5 5 5 5 5 5 5 5 5 5 5 5 5 5 5 5 5 5 5 5 5 5 5 5 5 5 5 5 5 5 5 5 5 5 5 5 5 5 5 5 5 5 5 5 5 6 5 5 5 5 6 5 5 5 5 6 5 5 5 5 5 5 5 5 5 5 5 6 5 5 6 6 5 5 5 5 5 6 5 5 5 5 5 5 5 5 5 5 5 5 5 6 5 5 6 5 5 5 5 5 5 5 5 5 5 5 5 6 5 5 6 5 5 5 5 5 5 5 5 5 5 5 5 5 5 5 5 5 5 5 5 5 5 6 5 5 5 6 6 5 5 5 5 6 5 5 6 5 6 5 5 5 5 6 5 5 6 5 5 5 5 6 5 5 5 6 5 6 6 5 5 5 5 5 6 5 5 5 5 5 5 5 6 5 5 6 5 5 6 5 6 5 5 5 5 5 5 5 5 5 5 5 5 5 6 5 5 5 5 5 5 5 5 5 5 5 5 5 5 5 6 6 5 5 5 5 6 5 5 5 5 5 5 5 5 5 6 5 5 5 5 6 5 5 5 5 5 5 5 6 5 5 5 5 5 5 5 6 5 5 5 5 5 5 5 5 5 5 5 5 5 5 5 5 5 5 5 5 5 5 5 5 5 5 5 5 5 5 5 5 5 5 5 5 5 5 5 5 5 5 5 6 5 5 5 5 5 5 5 5 5 5 5 5 5 5 5 5 5 5 5 5 5 5 5 5 5 5 5 5 6 5 5 6 5 5 5 5 5 5 5 5 6 5 5 5 5 5 5 5 5 5 5 5 5 5 5 5 5 5 5 5 5 5 5 5 5 5 5 5 6 5 5 5 5 5 5 5 5 5 5 5 5 5 5 5 6 5 5 5 5 6 5 5 5 5 5 5 6 5 5 5 5 6 5 5 5 5 5 5 6 5 5 5 5 5 5 5 5 5 5 5 5 6 5 5 5 5 5 5 5 6 6 5 6 6 5 5 6 5 5 6 6 5 5 6 5 6 5 5 5 5 6 5 6 5 6 5 5 6 5 6 6 5 5 5 6 5 5 5 5 5 5 5 5 5 5 5 6 5 5 6 5 5 5 6 5 6 6 5 5 6 5 6 5 6 5 6 5 5 5 6 5 5 5 6 5 6 6 5 5 6 5 5 5 6 5 5 5 5 6 5 6 5 5 5 5 5 5 5 5 5 5 6 5 5 5 6 5 5 5 5 5 5 5 5 5 5 5 5 5 6 5 5 5 5 5 5 5 5 5 5 5 5 6 6 5 5 5 5 5 5 5 5 5 5 5 5 5 5 5 5 5 5 5 5 5 5 5 6 5 5 5 6 5 5 6 5 6 5 6 5 5 5 5 5 5 5 6 6 5 5 5 5 5 6 6 5 5 5 5 5 6 5 5 5 6 5 5 6 6 5 5 5 5 6 6 5 5 6 5 5 5 6 6 6 5 5 6 5 5 5 5 5 5 5 5 5 5 5 6 5 5 5 5 5 5 6 5 5 5 6 5 6 5 5 5 5 5 6 5 5 5 5 5 5 5 5 5 5 5 6 6 5 5 5 5 5 6 5 5 5 5 5 5 5 6 5 5 6 5 5 5 6 5 5 5 5 5 5 5 5 6 5 5 6 5 6 6 5 5 5 6 5 5 5 5 5 5 6 5 5 5 5 5 5 5 5 6 5 5 5 5 5 6 5 5 5 5 5 5 5 5 5 5 5 6 5 5 5 6 5 5 5 5 5 5 5 5 6 5 6 5 5 5 6 5 5 5 5 5 5 5 5 5 5 5 5 5 5 5 5 5 5 5 5 5 5 5 5 5 5 5 5 5 5 5 5 5 5 5 5 5 5 5 5 5 5 5 5 5 5 6 5 5 5 5 5 5 5 5 5 5 6 5 5 6 5 5 5 5 5 5 5 5 5 5 6 5 5 5 5 5 5 5 6 5 5 5 5 6 6 5 5 6 5 5 6 5 5 6 5 6 5 5 5 5 5 6 5 5 5 6 5 6 5 6 5 5 5 6 5 6 5 5 5 5 5 5 5 5 5 5 5 6 5 5 6 5 5 6 5 5 5 6 5 5 6 5 5 6 6 5 5 5 5 6 6 6 5 5 5 5 5 5 5 6 5 6 5 5 5 6 6 5 5 5 6 5 5 5 5 6 5 5 5 5 5 5 5 5 5 5 6 5 5 6 5 6 5 5 5 5 5 5 5 5 6 5 5 5 5 5 5 5 5 5 5 5 5 5 5 5 5 6 5 5 5 6 5 5 6 5 5 5 5 5 5 5 5 5 6 5 5 5 6 5 5 5 5 5 5 6 5 5 5 5 5 5 5 5 5 5 5 5 5 5 5 6 5 5 5 5 5 6 5 5 5 5 5 5 5 5 5 6 5 5 6 5 6 5 5 6 5 5 5 6 5 5 6 5 5 5 5 5 5 5 5 5 5 6 5 5 5 5 5 6 5 5 5 5 5 5 5 5 5 5 6 6 5 5 5 6 5 5 6 6 6 6 5 5 5 5 5 6 5 6 5 5 6 5 6 5 5 6 5 5 6 5 6 5 5 6 5 5 5 5 5 5 5 5 5 6 5 5 5 5 6 5 5 5 5 6 6 6 5 5 5 6 5 5 5 5 5 5 6 5 5 5 5 5 5 5 5 5 5 5 5 5 5 5 5 6 5 5 5 6 5 5 6 5 6 5 6 6 5 5 5 5 6 5 5 5 5 5 5 5 5 5 5 5 5 5 5 5 5 5 5 5 5 5 5 5 5 5 5 5 5 5 5 5 5 5 5 5 5 5 5 5 5 5 5 5 5 5 5 5 5 5 5 5 5 6 5 6 5 5 5 6 5 5 5 6 5 5 5 5 5 5 5 5 5 5 5 5 5 5 5 5 5 5 5 5 5 5 6 5 5 5 5 5 5 5 5 5 6 5 5 5 5 6 5 5 5 5 5 5 5 5 5 5 5 5 5 5 6 6 5 5 6 5 6 5 5 6 5 5 5 5 5 5 5 5 5 5 5 5 6 5 5 5 6 5 5 5 5 5 5 5 5 5 6 6 5 5 5 5 6 6 5 5 5 5 5 5 5 6 5 5 6 5 5 5 5 6 5 5 5 6 5 5 5 6 5 5 6 5 5 5 5 6 5 5 5 5 5 6 5 5 5 5 5 5 5 5 5 5 5 6 6 5 5 5 5 6 5 5 5 5 6 6 5 5 5 5 6 5 5 5 5 6 5 5 5 5 5 6 5 5 5 5 5 6 5 5 6 6 5 5 5 5 5 5 6 5 6 5 5 6 5 5 6 6 5 5 5 5 5 6 5 5 5 5 5 6 5 5 5 5 5 5 5 5 5 5 5 5 5 5 5 5 5 5 5 5 5 5 5 5 5 5 5 5 5 6 5 5 5 5 5 5 6 5 5 5 6 5 5 5 5 5 5 6 5 5 6 5 6 6 5 5 6 5 6 5 5 5 5 5 5 5 5 5 5 5 5 5 5 
</DataArray>
<DataArray type="Float64" Name="stress" NumberOfComponents="9" format="ascii">
-289.00140304672959 28.171962132600349 0 28.171962132600349 0.036899775939963742 0 0 0 0 -499.41850709176157 115.41536450480874 0 115.41536450480874 61.655729411840419 0 0 0 0 -285.55414989707606 128.61289374020078 0 128.61289374020078 12.471287295672248 0 0 0 0 -121.05722347023038 45.924262251967349 0 45.924262251967349 -31.171431682827357 0 0 0 0 -272.68123574180117 143.26856629755761 0 143.26856629755761 -23.588238667669618 0 0 0 0 -163.76813866763314 111.73153529788122 0 111.73153529788122 -29.969307659343514 0 0 0 0 -73.983978776114782 22.35675264888927 0 22.35675264888927 -0.070117260435826792 0 0 0 0 -141.63586956829386 40.158721050798761 0 40.158721050798761 11.349148473476259 0 0 0 0 -52.847194308167673 24.888690077258921 0 24.888690077258921 -2.5047382178281623 0 0 0 0 3.1962325000276905 15.922202426385597 0 15.922202426385597 9.8837445198082889 0 0 0 0 -32.7980478124191 -2.4719390893839837 0 -2.4719390893839837 5.9888518926874781 0 0 0 0 -66.943378117807697 28.377399713536438 0 28.377399713536438 15.361486707728535 0 0 0 0 -47.044782535406739 5.9832243753322345 0 5.9832243753322345 2.6489365863304712 0 0 0 0 -31.109393606882804 25.454484510808133 0 25.454484510808133 3.9731220059676469 0 0 0 0 -108.73191488285192 28.5253091282094 0 28.5253091282094 -47.316915442155086 0 0 0 0 -1.4705436878062201 -0.7997568644506039 0 -0.7997568644506039 0.56236597530981558 0 0 0 0 -5.1537006181179095 -15.970198496186907 0 -15.970198496186907 25.189292960125755 0 0 0 0 39.301700228861819 -32.047616296902895 0 -32.047616296902895 -2.9169092853043423 0 0 0 0 -58.225300333999257 40.126912082321176 0 40.126912082321176 -27.511625304728735 0 0 0 0 -57.897519392445247 13.686447739667067 0 13.686447739667067 11.781472157922675 0 0 0 0 -52.422648071476033 10.045375043332184 0 10.045375043332184 -5.8786894043808857 0 0 0 0 -104.57756792437885 67.370915540672428 0 67.370915540672428 -8.9589308606513427 0 0 0 0 -38.184123939941855 -4.8795690953645874 0 -4.8795690953645874 7.8395428190211192 0 0 0 0 -8.107751150742331 37.360458937961297 0 37.360458937961297 -37.379390713337372 0 0 0 0 -0.76045475775261906 -0.090052879170292144 0 -0.090052879170292144 0.21911931358339334 0 0 0 0 -14.691550882709635 -40.018704306615689 0 -40.018704306615689 28.228191087175546 0 0 0 0 -56.277311893525621 69.487996863006884 0 69.487996863006884 -37.084369189736407 0 0 0 0 -27.749282652579609 6.9384905772885368 0 6.9384905772885368 -29.218825968071542 0 0 0 0 -12.469899673349573 32.538027443228202 0 32.538027443228202 6.9474087299615803 0 0 0 0 -1.4106742751733137 -0.49007290838145501 0 -0.49007290838145501 0.2023251193719886 0 0 0 0 -29.873397928322902 34.733702052580824 0 34.733702052580824 -17.074209873568577 0 0 0 0 -224.42319152269192 93.10070279833954 0 93.10070279833954 16.998332657713398 0 0 0 0 -88.433700002435216 -5.4768584153291471 0 -5.4768584153291471 40.146478409429179 0 0 0 0 33.749316322260711 11.851611448314536 0 11.851611448314536 -27.271172592970558 0 0 0 0 0.053690863633164554 -36.912879107876392 0 -36.912879107876392 -4.3031856915375215 0 0 0 0 -0.77765255122614008 -0.4188485164189899 0 -0.4188485164189899 1.8930005774189151 0 0 0 0 -34.850354074900679 -15.683235031556407 0 -15.683235031556407 -34.499533460451147 0 0 0 0 -43.876145468366303 29.374770626940347 0 29.374770626940347 -11.928768814372631 0 0 0 0 -87.466159513264756 3.7620749438810606 0 3.7620749438810606 15.442002323609358 0 0 0 0 -11.649088969148579 15.448581609675216 0 15.448581609675216 -6.334048701437041 0 0 0 0 -22.610087985998689 24.743099691497491 0 24.743099691497491 5.0771200898808502 0 0 0 0 -19.356065970118834 19.131041153310179 0 19.131041153310179 14.693790386210367 0 0 0 0 -19.262185765939591 2.1345888726856987 0 2.1345888726856987 0.51833994021709395 0 0 0 0 -33.776033599157472 -7.8188218377315053 0 -7.8188218377315053 16.205314615992393 0 0 0 0 -24.175251349266546 12.006367136210258 0 12.006367136210258 11.757278590631358 0 0 0 0 -19.160801574882498 14.773077327743749 0 14.773077327743749 2.2129365689855831 0 0 0 0 -18.890109534791918 5.5198286412196467 0 5.5198286412196467 -11.647758727205598 0 0 0 0 -16.711245099373627 -5.054309661291029 0 -5.054309661291029 8.7921307120832743 0 0 0 0 -3.0840846846394996 2.4681578589552124 0 2.4681578589552124 3.770061963674249 0 0 0 0 -9.9250383523663004 10.426562672052469 0 10.426562672052469 6.5435227213602047 0 0 0 0 -21.94955273249434 6.6323426684498372 0 6.6323426684498372 18.58673275522716 0 0 0 0 -20.377293003428719 6.5813609272181361 0 6.5813609272181361 10.950896379694768 0 0 0 0 -20.377396150956798 6.5960161681983589 0 6.5960161681983589 9.1692905595446064 0 0 0 0 -21.934522883395402 4.6199256153602164 0 4.6199256153602164 11.424379194514813 0 0 0 0 -21.451211856276132 4.9172719344792313 0 4.9172719344792313 7.1220717034085794 0 0 0 0 -21.930278746305703 4.4063350447493121 0 4.4063350447493121 9.2421878956813543 0 0 0 0 -20.498872332516839 5.5482939002661169 0 5.5482939002661169 7.2876408808606357 0 0 0 0 -17.943857237901014 6.500174672334575 0 6.500174672334575 -0.66739752264090835 0 0 0 0 -21.821945875384699 4.5109625170701406 0 4.5109625170701406 8.1653715309114432 0 0 0 0 -21.985591724256665 4.1601247052819872 0 4.1601247052819872 7.5613844717479068 0 0 0 0 -4.7384191144616103 -1.4934224876354794 0 -1.4934224876354794 3.0720512046417854 0 0 0 0 -22.060754599024222 4.6673267247564354 0 4.6673267247564354 5.7590088424885835 0 0 0 0 -10.703167802573262 2.6708473556954928 0 2.6708473556954928 1.75469296836377 0 0 0 0 -22.392718265726671 5.011712441824443 0 5.011712441824443 6.7132074306432514 0 0 0 0 -22.497374761056562 4.8184678398457663 0 4.8184678398457663 7.5526891997962498 0 0 0 0 -15.385016867257946 18.069769893975092 0 18.069769893975092 -4.7937190963095979 0 0 0 0 -3.169464185550261 0.36749894699322816 0 0.36749894699322816 -0.00083208058127359763 0 0 0 0 -3.5651490137097426 12.776883969700975 0 12.776883969700975 6.9783087914497628 0 0 0 0 -16.558560424099596 2.0546865015948867 0 2.0546865015948867 -4.9525193156459864 0 0 0 0 -11.303178810649012 0.5434179000999908 0 0.5434179000999908 -0.0077366509488286939 0 0 0 0 -3.3617277348676247 0.43153805074716445 0 0.43153805074716445 0.17572105868138355 0 0 0 0 -24.205392619714985 5.954506873322714 0 5.954506873322714 4.8202115830845003 0 0 0 0 -62.641251997267318 90.686864601493795 0 90.686864601493795 -72.80234444233156 0 0 0 0 -5.2247630738060451 1.3023372146225309 0 1.3023372146225309 -0.96922030951539728 0 0 0 0 -11.831494530983946 4.2958968594595817 0 4.2958968594595817 22.491362488606988 0 0 0 0 -5.2552857004321325 -1.0990521097463013 0 -1.0990521097463013 -0.91735073212526697 0 0 0 0 -499.5352705398127 181.73951967359105 0 181.73951967359105 5.0175849867396796 0 0 0 0 -18.458788922923304 19.894211153089081 0 19.894211153089081 -95.824889953722973 0 0 0 0 -439.68083245586877 223.72627768865925 0 223.72627768865925 -84.59403202762401 0 0 0 0 -511.68200872037778 282.35562549260828 0 282.35562549260828 -118.37152322609951 0 0 0 0 -31.741467678464687 10.153825426144291 0 10.153825426144291 -5.9060816099381697 0 0 0 0 -505.67988058759414 -52.16487055274829 0 -52.16487055274829 72.099360851439485 0 0 0 0 -1.904718452336752 1.0419063861606368 0 1.0419063861606368 -0.56473299873296978 0 0 0 0 -500.30811129252362 189.11887268142621 0 189.11887268142621 -245.34773693825673 0 0 0 0 -206.42009504950875 358.38743430877139 0 358.38743430877139 -437.77945019376057 0 0 0 0 -79.248373433794768 74.612420055440978 0 74.612420055440978 -87.101135432371677 0 0 0 0 -549.02445138114308 226.51379276864608 0 226.51379276864608 2.700565127724758 0 0 0 0 -379.54366352382385 136.97518316593292 0 136.97518316593292 12.200233926459966 0 0 0 0 -253.77058951859726 236.70647900231739 0 236.70647900231739 -141.22109297181316 0 0 0 0 -124.29117095933907 79.232076494198367 0 79.232076494198367 -18.190602345227756 0 0 0 0 -64.001797907522587 92.25711259984412 0 92.25711259984412 -61.912871100056321 0 0 0 0 -44.536114162865488 -2.0450832627422955 0 -2.0450832627422955 -11.582739134915499 0 0 0 0 -5.9644951259155583 3.0525478437180968 0 3.0525478437180968 -0.59312271362841706 0 0 0 0 -6.1280801476577835 65.779974234862763 0 65.779974234862763 106.88593913152567 0 0 0 0 -30.629044880610309 6.9215919648226496 0 6.9215919648226496 0.48090690424564864 0 0 0 0 -17.49996794832623 -15.015296219736523 0 -15.015296219736523 -16.004805329969159 0 0 0 0 -53.848362041353539 -4.5809031097447166 0 -4.5809031097447166 -7.6669943957754292 0 0 0 0 -58.36426940740057 -25.07843076347611 0 -25.07843076347611 -11.100205300337855 0 0 0 0 -27.926840506155713 -3.5992109930805776 0 -3.5992109930805776 -0.027037993395488326 0 0 0 0 -21.735929494589982 -8.1588661299253253 0 -8.1588661299253253 -3.7002755476375424 0 0 0 0 -9.4309598075706162 8.6138265166894517 0 8.6138265166894517 -2.0262909001127696 0 0 0 0 -4.8241776287613902 -3.678580750789568 0 -3.678580750789568 -8.8434948505606865 0 0 0 0 -6.4097738598666183 -0.024179441113897953 0 -0.024179441113897953 0.0011621097162173404 0 0 0 0 -6.0541635549531918 2.3470594353125414 0 2.3470594353125414 -0.044897891949297053 0 0 0 0 -6.7216997232644644 0.27308035070762993 0 0.27308035070762993 -0.26816253186131989 0 0 0 0 -3.0761725993277196 5.0836982551156096 0 5.0836982551156096 -1.7224522780608189 0 0 0 0 -1.4718346423207436 0.98329496425806262 0 0.98329496425806262 -0.03674476168684853 0 0 0 0 -8.4811038294574246 -4.034890764705648 0 -4.034890764705648 17.320884143466422 0 0 0 0 -17.428317392289046 -0.77177691176208008 0 -0.77177691176208008 21.096861003776283 0 0 0 0 -14.872426216188614 -12.390388313164316 0 -12.390388313164316 45.823626374609837 0 0 0 0 -5.9775405766728156 2.8711041787576086 0 2.8711041787576086 -0.32060532353850502 0 0 0 0 -14.074487750352091 14.673578742221508 0 14.673578742221508 56.504685216868836 0 0 0 0 -14.723963158479819 7.121038338321739 0 7.121038338321739 49.26620421495393 0 0 0 0 -32.169439180281188 -22.395089376609008 0 -22.395089376609008 47.72000046367765 0 0 0 0 -22.521791210696392 -40.829152864090133 0 -40.829152864090133 45.070372328726052 0 0 0 0 9.7548829334136826 -31.981742289622119 0 -31.981742289622119 28.001577921527726 0 0 0 0 3.8955302517042583 -17.222213931981088 0 -17.222213931981088 5.5954314673706165 0 0 0 0 -2.6773345068309027 -3.8126222098951352 0 -3.8126222098951352 3.0413398646344945 0 0 0 0 -13.908490637699288 -11.747275231560565 0 -11.747275231560565 16.973035447227652 0 0 0 0 -4.5698440995438432 -11.131992805647283 0 -11.131992805647283 14.166736240531456 0 0 0 0 -8.243662213710536 -0.60472808409099121 0 -0.60472808409099121 3.1433063280191078 0 0 0 0 -4.3664512000250397 0.06909381011624155 0 0.06909381011624155 0.0013073535347458208 0 0 0 0 -5.9705457892678382 -1.8783181575035623 0 -1.8783181575035623 0.13500919996244473 0 0 0 0 -9.4765198153436359 -11.836002177449771 0 -11.836002177449771 0.8656378521822834 0 0 0 0 6.1092820264948386 -1.4987740097582867 0 -1.4987740097582867 3.7939626957667993 0 0 0 0 -1.7199646154847699 -0.99198457227870307 0 -0.99198457227870307 0.047750019193186173 0 0 0 0 -34.238344601231802 3.0246539748337717 0 3.0246539748337717 3.8528284910603574 0 0 0 0 0.013609005878659985 -0.045704495542164381 0 -0.045704495542164381 -0.059255532058717905 0 0 0 0 0.085594249421774293 -1.0502639372966489 0 -1.0502639372966489 -1.2336978522237798 0 0 0 0 -12.07457284929842 -13.305200900018104 0 -13.305200900018104 -0.010478378623863069 0 0 0 0 -13.564503420351684 -2.7700575738163806 0 -2.7700575738163806 4.0526194560701754 0 0 0 0 -4.9145802095711701 -1.96448531544379 0 -1.96448531544379 0.47651737216095275 0 0 0 0 2.3465202439365385 6.8720141622959687 0 6.8720141622959687 -4.3201451704648406 0 0 0 0 -7.3736094444575428 -1.4201637531854061 0 -1.4201637531854061 0.1189907999146818 0 0 0 0 -1.29539843179111 0.2262476395066777 0 0.2262476395066777 -0.40580070850785921 0 0 0 0 -151.04629952174764 -23.629563273646639 0 -23.629563273646639 -19.551162221852564 0 0 0 0 -1.2530279065907486 0.0530474514999284 0 0.0530474514999284 -0.096384737933924089 0 0 0 0 -4.1137910700417706 2.7742336294523762 0 2.7742336294523762 0.11899079991662821 0 0 0 0 -8.4123565400350344 0.14159686029559049 0 0.14159686029559049 1.6041872589095267 0 0 0 0 -3.8342234405645286 -1.2998658061263062 0 -1.2998658061263062 -0.00063674690490965642 0 0 0 0 -0.17366011116916269 0.19511703575466299 0 0.19511703575466299 -0.11270073924332169 0 0 0 0 -147.21465576720766 -12.683108586032475 0 -12.683108586032475 3.1869950705508927 0 0 0 0 -149.52752944608073 -18.331396624188216 0 -18.331396624188216 44.322111440669531 0 0 0 0 -260.94765439252296 93.543479779773463 0 93.543479779773463 1.1404487594797672 0 0 0 0 -0.69310317527830279 -0.33751247506550186 0 -0.33751247506550186 0.12410246721363405 0 0 0 0 25.119077989476864 -48.728762437818347 0 -48.728762437818347 30.93301240441734 0 0 0 0 -214.10786024317349 11.361383059976305 0 11.361383059976305 22.439695186858501 0 0 0 0 5.5146300468040863 -13.664949386386809 0 -13.664949386386809 10.936237719826025 0 0 0 0 -1.6828297296332035 -0.63602772308199462 0 -0.63602772308199462 2.2461095318329938 0 0 0 0 -193.47603087692187 76.1197131379609 0 76.1197131379609 -33.459241932069204 0 0 0 0 0.88543489732681024 -0.2520329382056854 0 -0.2520329382056854 -0.76453534731395656 0 0 0 0 -1.9420839705323232 -1.8747588196494291 0 -1.8747588196494291 -1.700556329151836 0 0 0 0 -6.7515206511443466 -9.6610068437273249 0 -9.6610068437273249 -3.5340761679952379 0 0 0 0 -190.80452167423846 80.332830116695078 0 80.332830116695078 -28.82301124510488 0 0 0 0 19.4026203250869 -29.163046784249346 0 -29.163046784249346 40.043609847345664 0 0 0 0 -0.44645382632636199 -0.43250063451602472 0 -0.43250063451602472 -0.64306422743843417 0 0 0 0 0.14250329310055587 0.021282479217845207 0 0.021282479217845207 0.87535425670314582 0 0 0 0 0.10621897243436251 2.5317817590540557 0 2.5317817590540557 1.6438546043178945 0 0 0 0 -24.360525097286882 -3.4127829992962546 0 -3.4127829992962546 58.052909464349682 0 0 0 0 61.461027434104835 -46.361383085894659 0 -46.361383085894659 1.307928283581191 0 0 0 0 -6.0345614193138317 -49.75112085439477 0 -49.75112085439477 84.888747075439682 0 0 0 0 -5.2935966664172156 -54.459400012568665 0 -54.459400012568665 18.917353222806781 0 0 0 0 -52.528768773952834 -55.498345386581036 0 -55.498345386581036 26.273138229667353 0 0 0 0 -9.9916140252607875 -7.7248549483469446 0 -7.7248549483469446 -28.13600592651369 0 0 0 0 -21.945657357159689 0.074754166017157786 0 0.074754166017157786 21.450350515916568 0 0 0 0 -11.04900052004723 -30.309037310674682 0 -30.309037310674682 -2.1793234744842493 0 0 0 0 2.4955429810597707 -39.633142196632775 0 -39.633142196632775 -15.802241764530493 0 0 0 0 21.009312146735283 -0.23090460138573121 0 -0.23090460138573121 -42.915852532941358 0 0 0 0 12.144972644219706 -9.6991093973767022 0 -9.6991093973767022 -1.5325446078706477 0 0 0 0 18.862489951603493 7.0308971249137358 0 7.0308971249137358 -42.278399520258183 0 0 0 0 21.944476144504733 19.18596697408725 0 19.18596697408725 -52.029694638158773 0 0 0 0 6.8411116128972935 1.7329112302141425 0 1.7329112302141425 -36.886723167673608 0 0 0 0 -3.0644010262694792 -17.77214464462152 0 -17.77214464462152 -22.427317818838446 0 0 0 0 7.9494230346390395 -26.056791919223201 0 -26.056791919223201 -62.860646618675133 0 0 0 0 30.15808115872187 10.071898755844565 0 10.071898755844565 13.678345300922786 0 0 0 0 78.420553922172076 -44.249559860456259 0 -44.249559860456259 15.375316647833813 0 0 0 0 -6.3635484878959687 -57.833471955183356 0 -57.833471955183356 69.866361874402088 0 0 0 0 -24.312859239023965 -26.223976875142263 0 -26.223976875142263 40.827118076752583 0 0 0 0 -55.838824529948397 -32.925506896143304 0 -32.925506896143304 48.311388304426259 0 0 0 0 -52.969917842171753 5.1777618795562654 0 5.1777618795562654 69.578049081508141 0 0 0 0 -51.968140818375105 -17.187301361515352 0 -17.187301361515352 45.687595582038014 0 0 0 0 -133.74699804591273 1.1213357896830871 0 1.1213357896830871 42.166382876569003 0 0 0 0 -71.371632893617061 -47.830634913291703 0 -47.830634913291703 23.752872140634565 0 0 0 0 -27.404204352524175 -32.336867577844188 0 -32.336867577844188 29.120346438190666 0 0 0 0 -64.86271490371746 -47.69960175099348 0 -47.69960175099348 -10.468945320850423 0 0 0 0 -101.68751743249868 -30.840710355706179 0 -30.840710355706179 -15.665786125317425 0 0 0 0 -47.70030915195548 -78.001149551472963 0 -78.001149551472963 -99.761556350643332 0 0 0 0 11.908042115368517 19.87048369703848 0 19.87048369703848 -117.8588429923756 0 0 0 0 -227.50383601737667 -133.98199123511694 0 -133.98199123511694 -99.421087886660445 0 0 0 0 -19.532810253207572 -51.184020746959732 0 -51.184020746959732 -259.06625462376888 0 0 0 0 -96.052518206837703 24.79394698343026 0 24.79394698343026 -19.847748170075135 0 0 0 0 -59.585635229712352 37.344961568025383 0 37.344961568025383 -17.564411747565742 0 0 0 0 -257.48738751066151 91.322142319053057 0 91.322142319053057 -32.919848000566162 0 0 0 0 -47.094209999575469 81.208536966586053 0 81.208536966586053 -123.61186250390102 0 0 0 0 -3.918691670600424 0.60560921166976911 0 0.60560921166976911 -0.12956306475603391 0 0 0 0 -27.599263742826224 5.0629802785176707 0 5.0629802785176707 37.319671186860148 0 0 0 0 8.8559849630382814 -4.4980242734035585 0 -4.4980242734035585 -6.1674717968004131 0 0 0 0 18.070075376283057 23.203199890182859 0 23.203199890182859 -83.968708890142793 0 0 0 0 2.3097379832142906 18.42464834171065 0 18.42464834171065 -46.029084723435915 0 0 0 0 -12.359190092404788 53.140304909048112 0 53.140304909048112 -51.51243451530155 0 0 0 0 16.612655023105617 39.804052327170041 0 39.804052327170041 -52.134870699585562 0 0 0 0 -8.0865076460868295 57.205507914042755 0 57.205507914042755 -55.87780780868286 0 0 0 0 -41.696655319735328 92.451646434289387 0 92.451646434289387 -86.718132522183453 0 0 0 0 -55.313138575517769 14.616208876586626 0 14.616208876586626 32.546518759349283 0 0 0 0 -45.362702556427394 49.201183876667415 0 49.201183876667415 40.632053756645718 0 0 0 0 5.2641642327223508 14.469907915876711 0 14.469907915876711 63.414132387555014 0 0 0 0 -74.93169249141647 -21.178697156980775 0 -21.178697156980775 -21.49218270090563 0 0 0 0 -52.385125739686828 -6.1549920077809475 0 -6.1549920077809475 -15.189993913054877 0 0 0 0 -98.373980095184379 11.72280555454708 0 11.72280555454708 0.27146162721226119 0 0 0 0 -101.41252060445458 46.614813996460271 0 46.614813996460271 6.7118705545976809 0 0 0 0 -116.42228213954422 53.676421371544819 0 53.676421371544819 4.3961717577816444 0 0 0 0 -95.201610185231402 12.582449046823001 0 12.582449046823001 -6.8445729026240087 0 0 0 0 -139.01923553882079 21.236739773964928 0 21.236739773964928 -8.353259748581138 0 0 0 0 -165.42214787287116 87.015402846008385 0 87.015402846008385 -33.580806681125068 0 0 0 0 -187.65591190930718 -10.590078770037962 0 -10.590078770037962 -28.689269483270664 0 0 0 0 -165.16375615300603 -21.204188051576239 0 -21.204188051576239 -38.045348612413719 0 0 0 0 -111.28025160177685 -41.139908300915408 0 -41.139908300915408 -37.323198482229373 0 0 0 0 -70.139505982774381 -42.910201359101976 0 -42.910201359101976 -39.544580978920067 0 0 0 0 -74.543046212555055 -15.183490596370575 0 -15.183490596370575 -24.874221834369848 0 0 0 0 -62.871899276593467 -80.272815068653529 0 -80.272815068653529 -104.82180596263765 0 0 0 0 -205.44307086367189 -188.4889485185613 0 -188.4889485185613 -149.75451343190934 0 0 0 0 9.1709852603962645 -24.517503104627963 0 -24.517503104627963 -135.80238800211896 0 0 0 0 -71.936457461490136 -23.348397627024553 0 -23.348397627024553 -85.047967684511832 0 0 0 0 61.727480725314308 160.14894495455181 0 160.14894495455181 -29.755265279069135 0 0 0 0 132.733472636653 5.46017858311032 0 5.46017858311032 -317.59648855801038 0 0 0 0 -2.4127108816496232 -1.0366307247505633 0 -1.0366307247505633 -0.37716158923037435 0 0 0 0 -325.60058778291022 -196.69012296199492 0 -196.69012296199492 52.139044445160607 0 0 0 0 -136.44385329604665 -248.21098835196278 0 -248.21098835196278 -10.046385904764747 0 0 0 0 -392.97638957855452 -0.91945151326564201 0 -0.91945151326564201 -39.157194305244957 0 0 0 0 -283.86783687836214 136.22652284292508 0 136.22652284292508 -21.989413202717742 0 0 0 0 -144.35910512949522 0.92485447721122682 0 0.92485447721122682 -76.127429631680343 0 0 0 0 -105.57706277697616 -57.06091000071217 0 -57.06091000071217 214.72263637262949 0 0 0 0 -28.144724902625967 -30.53781957027968 0 -30.53781957027968 -23.356030920374451 0 0 0 0 -49.97041502349748 59.681483521213408 0 59.681483521213408 -83.742894503385457 0 0 0 0 -6.701067223645417 -1.056681647109893 0 -1.056681647109893 -0.15386970767357244 0 0 0 0 -1.4093369267426041 -0.22118122639579707 0 -0.22118122639579707 -0.20573211920033607 0 0 0 0 -190.85668909992046 72.772041799691948 0 72.772041799691948 99.097392215205218 0 0 0 0 -63.566227186212018 124.10551895975965 0 124.10551895975965 -107.75892370723818 0 0 0 0 -26.473025498504285 58.505539709118324 0 58.505539709118324 93.393028087669791 0 0 0 0 0.70039354567052214 7.5684677821352579 0 7.5684677821352579 37.591438077021394 0 0 0 0 -8.309719622044895 -13.942925208834808 0 -13.942925208834808 6.0377334616870257 0 0 0 0 -6.9549747573378013 -0.74009399555725741 0 -0.74009399555725741 0.56091467597735156 0 0 0 0 5.1841104584345885 11.733110883416401 0 11.733110883416401 -48.802370298627011 0 0 0 0 -35.21695202345245 10.600431063536121 0 10.600431063536121 7.1655694550563567 0 0 0 0 -43.421401897059695 42.095988411266831 0 42.095988411266831 -19.982015273336856 0 0 0 0 -78.56756119378224 49.381029466919131 0 49.381029466919131 -19.540283908956553 0 0 0 0 -74.728078583719252 61.355460314790662 0 61.355460314790662 -31.818278646736957 0 0 0 0 -80.094730435612291 57.923064495536039 0 57.923064495536039 -0.77173885696464595 0 0 0 0 -79.804552071542275 52.96379766461348 0 52.96379766461348 -8.6611683843763103 0 0 0 0 -98.183538388129818 63.412792094847077 0 63.412792094847077 -13.243706123716947 0 0 0 0 -65.037766809073219 40.810693811652214 0 40.810693811652214 18.453680113714654 0 0 0 0 -74.273980738949831 27.602907164735598 0 27.602907164735598 0.080067211260086424 0 0 0 0 31.318758583029194 56.752851027136813 0 56.752851027136813 21.890017628454302 0 0 0 0 -3.6564629936947313 16.856575697844676 0 16.856575697844676 28.678515165338958 0 0 0 0 0.19363000410188214 -0.13059106105761487 0 -0.13059106105761487 -0.028084691479768331 0 0 0 0 -3.2464459015936882 19.056092367295776 0 19.056092367295776 16.283388736376651 0 0 0 0 -12.976151658141134 19.432153166014018 0 19.432153166014018 37.925421571217612 0 0 0 0 -2.1328536348382841 9.7209386719210329 0 9.7209386719210329 30.102675720923116 0 0 0 0 -2.3103988580851365 7.1597355578809925 0 7.1597355578809925 38.280904694679748 0 0 0 0 -0.25091546207565685 0.90155344688527705 0 0.90155344688527705 0.56640869763009549 0 0 0 0 3.9499656556345144 6.9493280240136528 0 6.9493280240136528 -11.431403763094636 0 0 0 0 4.0791973840077844 17.584860306904318 0 17.584860306904318 28.74707923958573 0 0 0 0 -0.62727309245061846 -0.33731966363005661 0 -0.33731966363005661 0.57257150672835921 0 0 0 0 -6.6235685151541901 1.3676949324317622 0 1.3676949324317622 0.019215100044320588 0 0 0 0 -7.6846763793073478 -0.22469123798202872 0 -0.22469123798202872 1.9610109642388807 0 0 0 0 -5.5161259071476465 0.20881882875713398 0 0.20881882875713398 0.57934994754561209 0 0 0 0 -6.2690727758999856 1.0223306669936392 0 1.0223306669936392 2.383054579053919 0 0 0 0 22.159200613532448 30.913107838999508 0 30.913107838999508 -41.628099035794889 0 0 0 0 14.033269300760821 43.501249463396178 0 43.501249463396178 36.374905260284777 0 0 0 0 -2.5418837129106073 -0.20571007242094197 0 -0.20571007242094197 -0.025699745600256119 0 0 0 0 19.551582483163656 10.801457993635154 0 10.801457993635154 -21.807016718560817 0 0 0 0 -6.2721158550593366 1.8685476408466624 0 1.8685476408466624 0.78583202843429856 0 0 0 0 -9.3934236330414933 7.4268761764973306 0 7.4268761764973306 5.3440607523100425 0 0 0 0 -8.2908815129740105 8.5571752018558982 0 8.5571752018558982 -1.125069876004801 0 0 0 0 -25.421027568604586 -2.1706439782548443 0 -2.1706439782548443 5.3807204922248957 0 0 0 0 -15.304801022381071 10.964107540487817 0 10.964107540487817 11.152032245914995 0 0 0 0 -14.576801561417625 1.6855099198908832 0 1.6855099198908832 0.4679326186941315 0 0 0 0 -13.267378610927608 9.5984447984754411 0 9.5984447984754411 9.3368820376955455 0 0 0 0 -24.293211457965299 12.721744990685295 0 12.721744990685295 32.596600499717852 0 0 0 0 -13.669547920362675 19.964191708854742 0 19.964191708854742 15.915855567905396 0 0 0 0 -12.056802736296049 21.848777968363777 0 21.848777968363777 -19.766787945224678 0 0 0 0 0.060976510929101835 0.088482038114663375 0 0.088482038114663375 0.073567545430276771 0 0 0 0 -13.65192504332299 -1.993161310405867 0 -1.993161310405867 82.733423120025748 0 0 0 0 -13.496409570909236 22.558335994444406 0 22.558335994444406 47.661011260595387 0 0 0 0 -4.4572696378299952 8.3667041452211208 0 8.3667041452211208 22.187010585833718 0 0 0 0 -26.626208354590744 1.479547376053219 0 1.479547376053219 15.806810939043658 0 0 0 0 -29.137192910438898 8.0061830854489813 0 8.0061830854489813 26.957263442377666 0 0 0 0 -11.882259907609068 7.2398808068919394 0 7.2398808068919394 23.350481075727771 0 0 0 0 -33.297107964070165 10.294981719458804 0 10.294981719458804 8.8968589705956447 0 0 0 0 -29.528504286328371 1.1479416955537403 0 1.1479416955537403 6.0917946284235995 0 0 0 0 -16.423675382327929 2.5898578782697541 0 2.5898578782697541 12.407770834406165 0 0 0 0 -20.960719894468639 15.451353765956696 0 15.451353765956696 19.180299390473294 0 0 0 0 -12.432711797011507 9.9155596910184727 0 9.9155596910184727 3.2668385548386709 0 0 0 0 -24.983667763855237 19.017154724220248 0 19.017154724220248 -1.7044905203465532 0 0 0 0 -22.064056077606665 8.6487618266920094 0 8.6487618266920094 -3.8401954042822126 0 0 0 0 -36.472348738318033 16.752776869255626 0 16.752776869255626 -7.7681715613864526 0 0 0 0 -47.686581355243106 9.2186335705841884 0 9.2186335705841884 2.52788489833938 0 0 0 0 -35.032287456450717 9.2910249158206426 0 9.2910249158206426 -8.6161125660224798 0 0 0 0 -51.12221258482441 12.8651913083621 0 12.8651913083621 -9.3181660001000637 0 0 0 0 -38.754679531788497 22.407412985933931 0 22.407412985933931 -20.630507305090305 0 0 0 0 -53.435621438069575 23.106174207681505 0 23.106174207681505 -22.105913306803373 0 0 0 0 -33.989246415554589 25.905307179560587 0 25.905307179560587 -23.70496038619774 0 0 0 0 -33.787677788357541 25.834448877988109 0 25.834448877988109 -23.994180972765434 0 0 0 0 -36.192963008585139 18.912673397304644 0 18.912673397304644 -23.510520675696114 0 0 0 0 -28.618724022764582 14.866439940212132 0 14.866439940212132 -15.225848556214487 0 0 0 0 -29.061236711597161 24.146671163882914 0 24.146671163882914 -17.781339719192204 0 0 0 0 -33.949046611331141 25.798769910496787 0 25.798769910496787 -23.496795027367483 0 0 0 0 -27.369240498590443 22.011658352625886 0 22.011658352625886 -22.407275047025507 0 0 0 0 -30.800027395676807 30.982681357827261 0 30.982681357827261 -24.811559783461576 0 0 0 0 -33.707203893054611 25.671296025637432 0 25.671296025637432 -23.723783029187899 0 0 0 0 -33.353194053720017 26.583428201185797 0 26.583428201185797 -22.069481497249114 0 0 0 0 -36.709034863144552 25.88647111927628 0 25.88647111927628 -22.135151001718299 0 0 0 0 -44.791363484771864 28.666830917567523 0 28.666830917567523 -19.490402162933563 0 0 0 0 -0.36659801910688472 -0.49279285927908312 0 -0.49279285927908312 -1.0693399732741171 0 0 0 0 -40.689026946271042 29.609183568321555 0 29.609183568321555 -22.35008551685786 0 0 0 0 -64.691777415798242 27.222232648200603 0 27.222232648200603 -16.546756621638281 0 0 0 0 -41.025072059168906 26.504273893346181 0 26.504273893346181 -24.325221148666344 0 0 0 0 -43.123603990096136 25.014959681125017 0 25.014959681125017 -24.340487527422113 0 0 0 0 -43.098929248495551 28.072454447298696 0 28.072454447298696 -22.356262508164839 0 0 0 0 -38.407696359547117 39.441836846184486 0 39.441836846184486 -23.720963580387604 0 0 0 0 -41.262498891801442 29.168429677654728 0 29.168429677654728 -11.728664060679478 0 0 0 0 -31.302526028177454 23.590096873859665 0 23.590096873859665 -18.62731323644141 0 0 0 0 -18.670022023276033 14.851850826749683 0 14.851850826749683 -12.875730538221944 0 0 0 0 -23.951855850262291 28.981147437343793 0 28.981147437343793 -14.675495387739772 0 0 0 0 -18.52859866094991 24.769805355304342 0 24.769805355304342 14.280154247971495 0 0 0 0 -15.789595711079528 14.885456535534729 0 14.885456535534729 -3.6977918673842964 0 0 0 0 -18.892298386856396 37.191439555589724 0 37.191439555589724 -10.413569681263652 0 0 0 0 -42.093534567149618 34.108056945637486 0 34.108056945637486 16.850567888219757 0 0 0 0 -40.856751288654777 29.994438018099714 0 29.994438018099714 -13.324053458297783 0 0 0 0 -87.051310917297087 63.36747146234336 0 63.36747146234336 15.626917008826933 0 0 0 0 -79.301367784909417 66.903320482084297 0 66.903320482084297 -5.3367072845687744 0 0 0 0 -59.854545856311233 22.464418229332821 0 22.464418229332821 -8.1881629688275552 0 0 0 0 -80.011139250167616 55.109849145835327 0 55.109849145835327 -14.846402144996404 0 0 0 0 -44.251050917431257 50.062517592745039 0 50.062517592745039 -27.194007130077694 0 0 0 0 -0.36784060336019841 -0.31152612797187373 0 -0.31152612797187373 -0.34389245044418015 0 0 0 0 -82.842900020285015 40.17636777756897 0 40.17636777756897 38.8381655880995 0 0 0 0 -82.147894384841493 36.327929850220954 0 36.327929850220954 35.718429991426149 0 0 0 0 -51.01614614618893 -14.510921655549744 0 -14.510921655549744 -120.42687647395087 0 0 0 0 -107.20028576609775 73.343870342213577 0 73.343870342213577 24.352694420766241 0 0 0 0 -98.727920466297292 -36.267018669082375 0 -36.267018669082375 -8.2394843533321023 0 0 0 0 -59.613931201842206 68.198595068666805 0 68.198595068666805 -26.354637284644554 0 0 0 0 -36.644569468100599 -38.858140460409459 0 -38.858140460409459 -42.462121141051369 0 0 0 0 -1.1961924553992063 0.1473889180579131 0 0.1473889180579131 -0.029076884165097322 0 0 0 0 -51.748471387779318 47.413062119283587 0 47.413062119283587 -9.0287811497075552 0 0 0 0 -9.2190269452967186 -2.3288554255598086 0 -2.3288554255598086 30.010027251483493 0 0 0 0 -3.1822053229268974 0.047227315541151782 0 0.047227315541151782 0.0082068488505367063 0 0 0 0 -6.0674284335727862 -3.5744690958718763 0 -3.5744690958718763 2.4267109297989009 0 0 0 0 -18.131145624413875 -9.0729662884597673 0 -9.0729662884597673 27.064329509032376 0 0 0 0 -5.284845923040848 -3.6359728197497532 0 -3.6359728197497532 2.3163428006719755 0 0 0 0 -3.4956614661180367 0.67408483138179109 0 0.67408483138179109 5.1919948522687491 0 0 0 0 -3.3528069982403395 -2.9665185062489172 0 -2.9665185062489172 1.7716030498528426 0 0 0 0 13.19626880206124 -11.525299045367319 0 -11.525299045367319 -25.594004317591455 0 0 0 0 0.39331090866120633 0.1139306250590888 0 0.1139306250590888 -0.072430433892748197 0 0 0 0 -11.73553553952479 32.180949973459235 0 32.180949973459235 103.2676770351823 0 0 0 0 9.0562303578954015 4.6723031267348887 0 4.6723031267348887 46.072158511731004 0 0 0 0 -12.608615159020701 -17.325469839385896 0 -17.325469839385896 31.959447938066091 0 0 0 0 -20.286540847429933 -7.8089961885274022 0 -7.8089961885274022 63.105398164081862 0 0 0 0 -6.3335505029103842 3.6098730538966208 0 3.6098730538966208 14.727321295204092 0 0 0 0 -6.8794191468764438 13.801926685199611 0 13.801926685199611 10.620486742420496 0 0 0 0 -50.537332420048187 40.780049102347874 0 40.780049102347874 27.673937103454946 0 0 0 0 -65.415738953272012 41.175596845166979 0 41.175596845166979 9.6240373996226261 0 0 0 0 -59.650319975216917 46.387739000719449 0 46.387739000719449 6.2287302413308225 0 0 0 0 -36.013149454919585 6.072358612557224 0 6.072358612557224 2.7482878057365951 0 0 0 0 -61.616812367992679 15.871151564128411 0 15.871151564128411 -0.71871829692224765 0 0 0 0 -37.693227848885726 -14.137514115019712 0 -14.137514115019712 -11.894282884149106 0 0 0 0 -35.992057807901801 10.196159208390668 0 10.196159208390668 14.344442203150543 0 0 0 0 -25.114993157895242 -14.780466691950565 0 -14.780466691950565 7.5212200763480723 0 0 0 0 -2.8983928988391199 -10.384319532490792 0 -10.384319532490792 -5.5368065218625162 0 0 0 0 -3.1267583727400083 -3.0851638313526006 0 -3.0851638313526006 2.3015822295018213 0 0 0 0 -22.723915210340238 -3.9751738705445234 0 -3.9751738705445234 7.1974001819946238 0 0 0 0 -22.130179243854855 -2.8318540762948174 0 -2.8318540762948174 5.7151092052199601 0 0 0 0 -19.4630174422864 -11.449252897584216 0 -11.449252897584216 2.4865955806464797 0 0 0 0 -1.4541914053443179 -4.283426400431722 0 -4.283426400431722 0.94766202869561766 0 0 0 0 0.067458144823632438 -0.83881284283350777 0 -0.83881284283350777 0.55069974806839506 0 0 0 0 -13.524361422307265 -0.74628258231135192 0 -0.74628258231135192 6.0049292854170631 0 0 0 0 6.5766145745474205 0.96164339308258917 0 0.96164339308258917 -8.4570452494703616 0 0 0 0 -1.965027230658734 -0.84045149083918602 0 -0.84045149083918602 2.2996815797232428 0 0 0 0 -276.94450902685639 -179.31256976781543 0 -179.31256976781543 -113.43986843812968 0 0 0 0 -2.446310207190507 -0.70888161648689629 0 -0.70888161648689629 0.34997246030286844 0 0 0 0 -499.10506817373869 44.877789267477567 0 44.877789267477567 66.594561742255067 0 0 0 0 -203.29161831384772 123.69505031043668 0 123.69505031043668 -63.398433713653489 0 0 0 0 64.635280710603183 -28.081268611698434 0 -28.081268611698434 -47.326411053623822 0 0 0 0 -177.83087307278896 -5.1444406921271808 0 -5.1444406921271808 18.233247398608597 0 0 0 0 21.245802453384385 30.943942277933903 0 30.943942277933903 -38.774355880506917 0 0 0 0 -176.76210662890298 8.7181910674990561 0 8.7181910674990561 65.243456616678344 0 0 0 0 -499.03966860804758 -109.17783911783677 0 -109.17783911783677 62.315660739785649 0 0 0 0 -2.02998786451559 -0.76998880703764705 0 -0.76998880703764705 -0.2981853873149235 0 0 0 0 -69.984986828221281 -104.18852788935544 0 -104.18852788935544 -31.194142543524521 0 0 0 0 -29.222357246403817 45.358895210727113 0 45.358895210727113 -4.6955051167852915 0 0 0 0 -6.4259781060854948 22.507324339946059 0 22.507324339946059 7.8780670722211283 0 0 0 0 41.98880807029127 3.4170545262145922 0 3.4170545262145922 -18.824067934188022 0 0 0 0 -2.2547255916157543 -2.9409792654072699 0 -2.9409792654072699 2.561755653405215 0 0 0 0 -16.79801474873193 -4.3036131525002759 0 -4.3036131525002759 6.5841665899665713 0 0 0 0 -21.438567604816853 2.6329705314633429 0 2.6329705314633429 4.4161273075401368 0 0 0 0 -21.628314445935757 -1.2453533415384754 0 -1.2453533415384754 6.1455261020588523 0 0 0 0 -21.352281450473129 1.6756417504761316 0 1.6756417504761316 9.2634752924650456 0 0 0 0 -22.525135642224086 1.0751431387675439 0 1.0751431387675439 9.4365829331558189 0 0 0 0 -21.590118619573332 3.0668255936051878 0 3.0668255936051878 13.882555854727116 0 0 0 0 -22.895171557433059 1.6721209552144387 0 1.6721209552144387 12.770195535417372 0 0 0 0 -21.622228524014645 5.8638719023881549 0 5.8638719023881549 12.770086946686661 0 0 0 0 -23.772016950061698 -1.4199765055566331 0 -1.4199765055566331 12.751329830351096 0 0 0 0 -25.074285878613864 -1.009830124243166 0 -1.009830124243166 13.405035480174433 0 0 0 0 -24.40380929177627 -3.1609604776456308 0 -3.1609604776456308 9.5865682745626657 0 0 0 0 -22.682507343831276 -0.31381777624108054 0 -0.31381777624108054 11.164520394940723 0 0 0 0 -17.080005842702683 1.9491065036611959 0 1.9491065036611959 0.16019193044959312 0 0 0 0 -17.876968499771465 8.651814320854271 0 8.651814320854271 19.411976667552096 0 0 0 0 -17.929812506226881 3.5213424811741447 0 3.5213424811741447 15.071675195639159 0 0 0 0 -21.868711934152998 2.3509372751508408 0 2.3509372751508408 17.19718366623465 0 0 0 0 -22.954321286668801 2.6805185420379019 0 2.6805185420379019 16.054845625556368 0 0 0 0 -23.132190599094429 0.34659761643416687 0 0.34659761643416687 13.933316530323395 0 0 0 0 -24.265859629168517 6.9278699716008418 0 6.9278699716008418 18.949286115607777 0 0 0 0 -15.944687842622216 6.8993522607587607 0 6.8993522607587607 17.203947510456487 0 0 0 0 -23.909614560130791 7.0507310740965501 0 7.0507310740965501 18.981183872828069 0 0 0 0 -28.346966774018256 -1.0634580557273239 0 -1.0634580557273239 16.356530123678851 0 0 0 0 -40.51135606940079 -6.38932717210173 0 -6.38932717210173 14.907264009320642 0 0 0 0 -28.388208780163268 -3.0431046579617771 0 -3.0431046579617771 13.38632943153118 0 0 0 0 -34.562509661689546 2.8583689739734268 0 2.8583689739734268 24.981749179552025 0 0 0 0 -22.945004498753406 -8.3718334613121783 0 -8.3718334613121783 7.2439200152984995e-05 0 0 0 0 -27.554434083611341 -6.805593868929634 0 -6.805593868929634 8.6272064459510034 0 0 0 0 -24.475869289120055 -11.166055410509273 0 -11.166055410509273 5.8197569604099968 0 0 0 0 -23.002850103389392 -7.7192847649152441 0 -7.7192847649152441 6.2024764401781454 0 0 0 0 -22.866909249137734 -12.477798291488313 0 -12.477798291488313 2.5158135581231136 0 0 0 0 -30.842549367567699 -16.268358205413449 0 -16.268358205413449 2.2310062180185355 0 0 0 0 -25.03436388343107 -12.275815238078735 0 -12.275815238078735 0.10491287847868591 0 0 0 0 -31.675898342225082 -20.577965782454257 0 -20.577965782454257 -9.7712321256172459 0 0 0 0 -7.4442390940484984 -9.1170065997915231 0 -9.1170065997915231 -9.2026612030075512 0 0 0 0 -23.080248764979387 -14.788918779354205 0 -14.788918779354205 -3.4007595781767463 0 0 0 0 -38.053573904106088 2.3867925585810212 0 2.3867925585810212 16.730245383364604 0 0 0 0 -33.980072239461379 -6.6314693912522671 0 -6.6314693912522671 8.9286433496312156 0 0 0 0 -30.890325488032708 -9.288614935327697 0 -9.288614935327697 8.2519588398972701 0 0 0 0 -49.253637389425421 -17.337274548773195 0 -17.337274548773195 5.0117223922851224 0 0 0 0 -44.447594061720338 -5.9849071571799186 0 -5.9849071571799186 3.8533092693107847 0 0 0 0 -46.761790794873377 -3.8845830065105815 0 -3.8845830065105815 8.3735255924090808 0 0 0 0 -48.975986907273182 10.711141417909232 0 10.711141417909232 -12.215974282115909 0 0 0 0 -80.867120753659947 2.0586750770874147 0 2.0586750770874147 2.0872977888317337 0 0 0 0 -44.586820912606527 -31.507745452230715 0 -31.507745452230715 -25.028556518381038 0 0 0 0 -104.78354333901527 -56.035189737504695 0 -56.035189737504695 -34.284528179370398 0 0 0 0 -0.49054564989526384 0.055597278921969639 0 0.055597278921969639 0.074092443393529939 0 0 0 0 -100.29564682432192 14.67447697314897 0 14.67447697314897 -11.378746205790044 0 0 0 0 -53.308993119178922 24.001424914709162 0 24.001424914709162 -20.282491573836509 0 0 0 0 -1.1146949442238139 -0.082039219355330317 0 -0.082039219355330317 0.3562447404161605 0 0 0 0 -24.232184393160423 -19.414011398027256 0 -19.414011398027256 -15.447231652199349 0 0 0 0 -28.055514540663353 -13.843666391196166 0 -13.843666391196166 -8.8260717510757267 0 0 0 0 7.2842541192112549 13.734765216240916 0 13.734765216240916 63.645663440165563 0 0 0 0 0.27667269918492821 -17.12302697098508 0 -17.12302697098508 4.2371019349961898 0 0 0 0 -135.43522967151603 -6.8298505534664926 0 -6.8298505534664926 18.912153499798933 0 0 0 0 -32.613383481640994 -37.107264316645228 0 -37.107264316645228 -17.172490547559494 0 0 0 0 11.178358007737529 -49.626959730810803 0 -49.626959730810803 -21.649582258840269 0 0 0 0 -8.7095468804473057 37.61132713966478 0 37.61132713966478 58.193028926655302 0 0 0 0 -0.96989595624989278 -0.34617085060601749 0 -0.34617085060601749 0.63983256541462841 0 0 0 0 -9.7572277507088074 -5.5405675880291199 0 -5.5405675880291199 -1.0147907970506367 0 0 0 0 -8.4710084997914237 -8.2103017818201351 0 -8.2103017818201351 -3.5646623736688525 0 0 0 0 -4.0803647265693144 -0.060176542567660363 0 -0.060176542567660363 1.638305604386062 0 0 0 0 -1.2671478257898343 -0.56267861316780454 0 -0.56267861316780454 0.10065204256642346 0 0 0 0 -11.709632377928756 -7.6171762464927895 0 -7.6171762464927895 0.89223301208767225 0 0 0 0 -498.96207543840154 -91.270726211936235 0 -91.270726211936235 111.40368878011097 0 0 0 0 -415.2747451195155 -60.073689156090502 0 -60.073689156090502 62.289091674069986 0 0 0 0 -343.13301774018692 -153.65470877960516 0 -153.65470877960516 -23.139321643323921 0 0 0 0 -69.717004114045267 44.48434246161559 0 44.48434246161559 -29.481208753989819 0 0 0 0 1.8562480256669005 -2.7983834280987594 0 -2.7983834280987594 0.71767549434207467 0 0 0 0 -1.3187059498263451 -1.1727541631336269 0 -1.1727541631336269 1.7165593913979589 0 0 0 0 49.83061598587301 -83.040800921348108 0 -83.040800921348108 -80.711410151809531 0 0 0 0 -2.1882472430352209 -1.7598223644192785 0 -1.7598223644192785 1.56803563923404 0 0 0 0 -96.205619458216461 10.392193544172315 0 10.392193544172315 59.975050570098396 0 0 0 0 -0.3154046060014295 -1.249201047562452 0 -1.249201047562452 0.97977555204563505 0 0 0 0 -0.25871127424266405 -0.88244814798857618 0 -0.88244814798857618 -0.26046385341386136 0 0 0 0 -500.16430950937593 -99.26709129868118 0 -99.26709129868118 -35.717366419736706 0 0 0 0 -637.18307918263417 -66.855664984282612 0 -66.855664984282612 72.203098246284213 0 0 0 0 -630.10179220454484 22.625159838396918 0 22.625159838396918 0.15243933966570467 0 0 0 0 -0.81377793646401386 -0.62783432882108769 0 -0.62783432882108769 0.66385731878880916 0 0 0 0 -370.84045891620917 -0.89837478141853921 0 -0.89837478141853921 38.810981957121321 0 0 0 0 -133.79371309274291 -15.857622724706189 0 -15.857622724706189 7.34113982374069 0 0 0 0 -356.25148997827819 -113.65566767157263 0 -113.65566767157263 44.145780680394466 0 0 0 0 -266.36633919625638 -19.8708329114232 0 -19.8708329114232 40.464295321349162 0 0 0 0 -500.07296769410823 -5.5997462324852805 0 -5.5997462324852805 114.83316670045278 0 0 0 0 -296.83000893249391 87.43372953142844 0 87.43372953142844 104.21794089280895 0 0 0 0 -498.89257398606424 135.22237578886083 0 135.22237578886083 100.04882810614644 0 0 0 0 -32.561938805310774 -23.616139428483024 0 -23.616139428483024 9.515752195180383 0 0 0 0 -127.03557743136207 50.898357853644036 0 50.898357853644036 -4.5377730512397534 0 0 0 0 -163.41538687008369 222.48198445336413 0 222.48198445336413 -56.380337313846468 0 0 0 0 -2.3265813833032212 0.40124240531752919 0 0.40124240531752919 -0.022495918409168002 0 0 0 0 -3.176733655282078 -27.949147838894966 0 -27.949147838894966 12.089774636214647 0 0 0 0 -21.282045428179117 -11.746383167516424 0 -11.746383167516424 16.869743678351831 0 0 0 0 -4.6906087185129159 0.82495759421798964 0 0.82495759421798964 0.074363249090795863 0 0 0 0 -46.985987034693153 7.5895727247230873 0 7.5895727247230873 112.44116468336334 0 0 0 0 -6.5379689835704085 -19.574338638941757 0 -19.574338638941757 48.475104451259895 0 0 0 0 -3.7971494895356557 0.88633047984619973 0 0.88633047984619973 -0.044226692401070439 0 0 0 0 -48.561473860587284 74.653974440186929 0 74.653974440186929 80.471139108838713 0 0 0 0 -140.22505817054662 24.594013066465795 0 24.594013066465795 135.90067120223853 0 0 0 0 10.847539526411538 45.988380088146727 0 45.988380088146727 -39.047486218667856 0 0 0 0 -129.13328813936823 35.676434414154571 0 35.676434414154571 -39.56856981222532 0 0 0 0 20.356913201226689 94.937226486766335 0 94.937226486766335 -142.68704084840692 0 0 0 0 -498.69689319790359 -198.86559032431995 0 -198.86559032431995 80.204338938980612 0 0 0 0 -112.2067818711871 -51.321507092276548 0 -51.321507092276548 43.883545957916205 0 0 0 0 -500.385209384061 12.135363650104994 0 12.135363650104994 34.786290277982587 0 0 0 0 -498.51387759353173 200.51229192259677 0 200.51229192259677 -58.953447074604171 0 0 0 0 -114.55449140120618 161.39258235995212 0 161.39258235995212 -200.13405696441231 0 0 0 0 -158.12506018299894 99.019871954513079 0 99.019871954513079 -119.84047452328333 0 0 0 0 -168.58317287993395 75.209149084631292 0 75.209149084631292 -17.219505677084776 0 0 0 0 -0.0073312035702000067 -0.068521296580188462 0 -0.068521296580188462 -1.1001505814253119 0 0 0 0 31.198283117519168 23.092322732507824 0 23.092322732507824 -146.69748003021272 0 0 0 0 -15.891266808608634 -3.920408441075665 0 -3.920408441075665 8.4106766318793689 0 0 0 0 29.903353814031107 -20.337708109884318 0 -20.337708109884318 -62.377469867948207 0 0 0 0 -91.675074968199624 123.78472301054029 0 123.78472301054029 -120.99220808352587 0 0 0 0 -25.877015306989961 -7.3406499033697798 0 -7.3406499033697798 -18.299514039322048 0 0 0 0 3.2545911890359775 -2.5653715932269385 0 -2.5653715932269385 -32.374866313907773 0 0 0 0 0.01033453936151596 0.045696322934926314 0 0.045696322934926314 -2.2590724291066504 0 0 0 0 20.917348050066494 6.8222631485715084 0 6.8222631485715084 -8.5703813275542871 0 0 0 0 -15.76041542713574 11.935746055755317 0 11.935746055755317 11.037486628911608 0 0 0 0 0.085469360611190481 0.50718926485061999 0 0.50718926485061999 1.5823986704955129 0 0 0 0 -13.841927407434923 12.800386693902169 0 12.800386693902169 5.9607680618858012 0 0 0 0 -38.237595385949135 -14.69052555441084 0 -14.69052555441084 5.700678623119245 0 0 0 0 -13.158167844218042 -4.6061661144453865 0 -4.6061661144453865 8.484825345534091 0 0 0 0 13.40281014294851 36.71229655256127 0 36.71229655256127 6.9501880792716406 0 0 0 0 -56.874222202497549 38.260294531157456 0 38.260294531157456 10.837191861817672 0 0 0 0 -499.79260326821122 -203.46963881319508 0 -203.46963881319508 -40.272385387149669 0 0 0 0 -1.4823720128028981 1.0688826350794942 0 1.0688826350794942 -1.3675358055561873 0 0 0 0 -499.91068659415674 -203.51155279859199 0 -203.51155279859199 -40.275676635697707 0 0 0 0 37.625369626722659 -13.211033992502053 0 -13.211033992502053 -82.532083885053112 0 0 0 0 -45.333106545605915 -17.422839393249831 0 -17.422839393249831 -1.351259609835779 0 0 0 0 3.017907969038788 -13.271101283682583 0 -13.271101283682583 -1.6571276169306088 0 0 0 0 -0.9884002035365107 -0.20846761940151293 0 -0.20846761940151293 -0.055953305622620464 0 0 0 0 -5.5046637367289293 0.58076572811692628 0 0.58076572811692628 0.74791062053755875 0 0 0 0 -2.6180284662068516 4.7828766096188247 0 4.7828766096188247 2.8807343520170434 0 0 0 0 1.909648063719942 6.6124603193446774 0 6.6124603193446774 2.6305255201405657 0 0 0 0 -17.163300277601593 12.352750090964037 0 12.352750090964037 -5.6620528772232319 0 0 0 0 -0.22901916619024831 -0.2686421003076056 0 -0.2686421003076056 0.19043231186738785 0 0 0 0 -4.4999296603609764 -2.8375312342717081 0 -2.8375312342717081 3.1691389463701398 0 0 0 0 -1.9733564798727397 -1.5055512288827853 0 -1.5055512288827853 -0.10199408297692303 0 0 0 0 -5.0125590704353726 -0.947840134600753 0 -0.947840134600753 0.55780059110861657 0 0 0 0 -28.048939478065222 -10.163445089828031 0 -10.163445089828031 -6.7027695259884581 0 0 0 0 -31.430998842513873 5.0354340600709406 0 5.0354340600709406 2.567423518961732 0 0 0 0 -85.539395772825628 22.00187903805346 0 22.00187903805346 12.660123967291256 0 0 0 0 -79.693198808925445 -9.3212873238744578 0 -9.3212873238744578 6.0740052622271605 0 0 0 0 2.2418341102652448 8.0795730069865499 0 8.0795730069865499 -7.7482504037211584 0 0 0 0 -37.230661183067241 47.343553180245806 0 47.343553180245806 -9.977436853062045 0 0 0 0 -0.070544274410380581 0.023946276199241723 0 0.023946276199241723 0.61390350573392327 0 0 0 0 27.443121297621474 -7.3249495051712188 0 -7.3249495051712188 -50.642369055680376 0 0 0 0 -31.519532071783033 -13.876911983847663 0 -13.876911983847663 9.4588473461972455 0 0 0 0 -123.31260919378042 12.247153728780006 0 12.247153728780006 27.406755063076844 0 0 0 0 5.0922936839788235 23.64660192340898 0 23.64660192340898 -37.516833562710872 0 0 0 0 -45.451587667030253 64.521784723060335 0 64.521784723060335 -74.219190881197193 0 0 0 0 3.1041405543855944 22.287444671167492 0 22.287444671167492 -38.077209436002761 0 0 0 0 -81.629933241803883 20.964116098852628 0 20.964116098852628 -14.626147747561049 0 0 0 0 -53.397528597261953 24.698936785540141 0 24.698936785540141 -14.537141777622033 0 0 0 0 -78.45792237425303 28.734818883008529 0 28.734818883008529 -4.6553307131497235 0 0 0 0 -50.82614973147065 17.458522903649339 0 17.458522903649339 -2.1414708887647294 0 0 0 0 -75.05173763120365 35.723092707369261 0 35.723092707369261 -1.134602916990616 0 0 0 0 -23.14285835175815 19.284352666453117 0 19.284352666453117 -15.545720271687173 0 0 0 0 -40.224923697714985 34.445501805621973 0 34.445501805621973 -10.570580816464144 0 0 0 0 -90.327669335596283 67.518899022083019 0 67.518899022083019 -30.404000225395521 0 0 0 0 -11.020695193879874 2.6230711518966814 0 2.6230711518966814 9.3877858665592839 0 0 0 0 -2.6999779607573409 -0.61604795810548207 0 -0.61604795810548207 0.20878391470211599 0 0 0 0 0.10500988834146519 1.6337756045430911 0 1.6337756045430911 1.6320267385373746 0 0 0 0 -31.060237066081982 -1.3015144245456014 0 -1.3015144245456014 13.227069052782213 0 0 0 0 -16.52879447641044 16.205103071224812 0 16.205103071224812 -11.447932126965952 0 0 0 0 -43.07932225408149 30.493647215226702 0 30.493647215226702 -33.712758906289054 0 0 0 0 -23.993482658156609 7.6535500242377239 0 7.6535500242377239 -39.524333521536988 0 0 0 0 -45.575140341078622 -3.0868789724167556 0 -3.0868789724167556 -17.838611164599399 0 0 0 0 -52.947320474466324 60.525656689501297 0 60.525656689501297 -101.72342623082557 0 0 0 0 -69.36114985240647 -2.5165583740411499 0 -2.5165583740411499 -75.018812865992558 0 0 0 0 6.4792310381985772 82.252551150201285 0 82.252551150201285 -76.859952792080406 0 0 0 0 -64.012610231114195 35.789517782150959 0 35.789517782150959 -26.107278965632318 0 0 0 0 -162.23722934792022 48.735874872319194 0 48.735874872319194 -27.532891560761954 0 0 0 0 -40.466218189189021 118.64554363360983 0 118.64554363360983 -121.0860301123455 0 0 0 0 -1.4113048893392772 0.52206350416321756 0 0.52206350416321756 -0.15140750100387501 0 0 0 0 16.807237516415626 55.626785136939787 0 55.626785136939787 -68.678259975251919 0 0 0 0 -10.69268173420528 -6.901134834189806 0 -6.901134834189806 11.126201883940126 0 0 0 0 -92.906207853650812 -41.897791865179045 0 -41.897791865179045 20.607631247161159 0 0 0 0 -18.726378113498868 -25.802312203161414 0 -25.802312203161414 23.340910955466221 0 0 0 0 -45.603153873799783 36.681675975049984 0 36.681675975049984 -34.621658706098607 0 0 0 0 -44.64903886201796 35.658867321471845 0 35.658867321471845 -34.06612992013735 0 0 0 0 -124.96055539869758 91.475223469977337 0 91.475223469977337 -11.427368935365408 0 0 0 0 -86.257087665572726 29.227499561239053 0 29.227499561239053 26.67441537134814 0 0 0 0 -22.113641304731573 78.522103859391251 0 78.522103859391251 63.710659941251706 0 0 0 0 -85.937898084347466 32.217379867280719 0 32.217379867280719 -20.573753343900364 0 0 0 0 -37.364734705599403 21.492717590338493 0 21.492717590338493 -30.152810543405337 0 0 0 0 -44.575284645346699 20.473046994720875 0 20.473046994720875 -26.617036550760886 0 0 0 0 -30.566337506254058 17.238028582173236 0 17.238028582173236 -37.428514630474858 0 0 0 0 -30.095912869814128 7.0702301937009153 0 7.0702301937009153 -20.005315700755183 0 0 0 0 -35.557721725696865 13.221820484528315 0 13.221820484528315 -26.252562697358044 0 0 0 0 -37.739075020749624 20.677567779997467 0 20.677567779997467 -20.391561891678478 0 0 0 0 -34.768765128083032 20.650427541071103 0 20.650427541071103 -24.40715102477418 0 0 0 0 -35.239852366518335 21.259182327021819 0 21.259182327021819 -12.249570377474868 0 0 0 0 -28.193566859506063 10.143543406980974 0 10.143543406980974 -10.461090443658806 0 0 0 0 -42.860598542864864 23.076282823724572 0 23.076282823724572 -11.472585421347588 0 0 0 0 -52.786343210825635 38.521791693258741 0 38.521791693258741 9.0019865198010507 0 0 0 0 -102.59811880954658 19.04595391842372 0 19.04595391842372 8.9299040630777426 0 0 0 0 -0.30722741879184667 -0.45190671012354322 0 -0.45190671012354322 -1.0518175396603378 0 0 0 0 -47.161036890604919 25.858242624800738 0 25.858242624800738 -17.753689026242341 0 0 0 0 -0.053939703605156986 0.12333825612121707 0 0.12333825612121707 -0.12994061808461321 0 0 0 0 -34.081915587588355 18.078386931108376 0 18.078386931108376 -10.31115108742744 0 0 0 0 -28.962000169949533 17.175193974759956 0 17.175193974759956 -19.026559019708753 0 0 0 0 -53.277250826312638 9.1956342787855903 0 9.1956342787855903 -16.849370827380255 0 0 0 0 -0.20988455759170144 -0.21642064370576719 0 -0.21642064370576719 -0.3857913868792836 0 0 0 0 -65.951718520822396 -5.4925225248101412 0 -5.4925225248101412 -8.229728891067623 0 0 0 0 -43.140703291874161 4.8799369551427816 0 4.8799369551427816 -3.7203023635865691 0 0 0 0 -54.391683520969764 11.214881466398523 0 11.214881466398523 -0.58037768344871665 0 0 0 0 -40.467831191441292 11.837990234548727 0 11.837990234548727 -5.0973910901102499 0 0 0 0 -44.965939390616768 2.7738205852118369 0 2.7738205852118369 -17.076585031251 0 0 0 0 -52.949356064734275 8.2956798452527778 0 8.2956798452527778 -16.5968936786021 0 0 0 0 -0.11731611736794179 -0.32766900091299034 0 -0.32766900091299034 -0.35016806683106394 0 0 0 0 -111.01049246600996 -14.946784764784411 0 -14.946784764784411 -1.9392825142467132 0 0 0 0 -60.436047365692502 -7.5702340583950161 0 -7.5702340583950161 -30.610551280802156 0 0 0 0 -48.241014714935773 -29.16337988925919 0 -29.16337988925919 -28.274062539543252 0 0 0 0 8.6695631795009831 -27.323838677406314 0 -27.323838677406314 -39.787310524787529 0 0 0 0 -9.3490541182973175 -13.099799459756412 0 -13.099799459756412 -8.4747842765470409 0 0 0 0 21.566499659962574 -2.7089425698946741 0 -2.7089425698946741 -37.928477918488312 0 0 0 0 -7.224543054247988 30.302226189663671 0 30.302226189663671 -9.0801209865011216 0 0 0 0 -14.963607146707545 10.187441094192316 0 10.187441094192316 -34.382688345551074 0 0 0 0 -24.138840597207491 35.300773637504378 0 35.300773637504378 -52.01047142340451 0 0 0 0 -40.738337235993868 -2.8461625391261327 0 -2.8461625391261327 -28.568776101351617 0 0 0 0 -11.617357397489286 -10.087535364018706 0 -10.087535364018706 -27.18818458608223 0 0 0 0 -17.586492586353415 6.0944080889335694 0 6.0944080889335694 -39.776266505584182 0 0 0 0 -7.1535782347009444 -9.54422337147723 0 -9.54422337147723 -0.70381131575459221 0 0 0 0 -6.2078389564303507 -9.9711792063697544 0 -9.9711792063697544 -2.7255595684996763 0 0 0 0 -3.4905501267294312 -4.5109594504793904 0 -4.5109594504793904 -3.4985794409379309 0 0 0 0 -5.8400253102627175 -2.2757632781258792 0 -2.2757632781258792 1.6574785802016834 0 0 0 0 -2.3786537084388328 -2.0092883773482129 0 -2.0092883773482129 -7.5344318963468595 0 0 0 0 -10.083941863419113 -15.603056252850685 0 -15.603056252850685 -8.9059423184604043 0 0 0 0 -17.467397625972808 -12.115200936378642 0 -12.115200936378642 0.32953593679852133 0 0 0 0 -6.6062475314656695 -9.7767656507868708 0 -9.7767656507868708 -2.6195135670390073 0 0 0 0 -17.068311297212858 -11.706903585306861 0 -11.706903585306861 0.12906741466727567 0 0 0 0 -15.763169602751077 -2.9838697438158874 0 -2.9838697438158874 7.01831317043181 0 0 0 0 -32.881941186446966 -9.1194202438734919 0 -9.1194202438734919 5.4004993517515345 0 0 0 0 -18.982205118782076 -14.862645663629152 0 -14.862645663629152 -3.1838723703648384 0 0 0 0 -4.4463644107369191 -18.671999153054117 0 -18.671999153054117 -31.66252707866181 0 0 0 0 -41.216808576825088 -13.2092395844784 0 -13.2092395844784 0.98240669454389717 0 0 0 0 -42.42776976604182 -18.226846113904713 0 -18.226846113904713 -3.2985354074397151 0 0 0 0 -73.433933815373166 2.287849704828318 0 2.287849704828318 4.3399444736755868 0 0 0 0 -116.8682729949287 16.119290260330672 0 16.119290260330672 24.303491154326537 0 0 0 0 -61.466638154935936 32.137688151738814 0 32.137688151738814 24.959336434883259 0 0 0 0 -40.609403405675039 27.868035027202893 0 27.868035027202893 -1.556014433838584 0 0 0 0 16.000361027291547 15.750373551382495 0 15.750373551382495 -2.1979742117521255 0 0 0 0 -20.062417744937193 3.999325347796912 0 3.999325347796912 3.7053183606849842 0 0 0 0 -13.776834035614343 2.7541990101012761 0 2.7541990101012761 7.1599885582464822 0 0 0 0 -9.2158619961128352 -0.57931852684393803 0 -0.57931852684393803 4.9496325420789162 0 0 0 0 -8.0379986907373677 5.7429195538430804 0 5.7429195538430804 8.004512544014176 0 0 0 0 -0.61190214095529782 0.10413209341083274 0 0.10413209341083274 -0.37981819588934007 0 0 0 0 -5.1083131884297472 -0.38286988233630836 0 -0.38286988233630836 2.6673788541484882 0 0 0 0 1.6869537167181079 4.7929469852059867 0 4.7929469852059867 2.4232981966808893 0 0 0 0 -3.551060372518414 -0.44192550468156 0 -0.44192550468156 0.034917291706970999 0 0 0 0 -4.3404681550637179 0.62666320519349483 0 0.62666320519349483 2.6673416615345786 0 0 0 0 -3.5062770703334536 0.63195863009451614 0 0.63195863009451614 2.4467848932428637 0 0 0 0 -5.8895595335452526 1.0630853915229181 0 1.0630853915229181 2.9461672833048169 0 0 0 0 -3.8652792829725513 1.4381446689304767 0 1.4381446689304767 2.8736029510305343 0 0 0 0 -10.169539897027789 -1.2250455256341866 0 -1.2250455256341866 3.3990924799169306 0 0 0 0 -5.4902037596184528 1.2172736544324607 0 1.2172736544324607 4.4159250558832355 0 0 0 0 -3.2603272213091259 1.9337310195503505 0 1.9337310195503505 3.2852443963845417 0 0 0 0 -5.2849879339414656 -0.41294473584882496 0 -0.41294473584882496 2.0595768659404712 0 0 0 0 -0.91516192376506211 -0.16756668226016203 0 -0.16756668226016203 0.092760916332538912 0 0 0 0 -12.07624412459927 -4.5946214144334618 0 -4.5946214144334618 2.8876332532037168 0 0 0 0 -7.9069246839462721 -2.4856818914626899 0 -2.4856818914626899 1.4479530961958744 0 0 0 0 -10.390039412231999 -1.0535413362236454 0 -1.0535413362236454 4.8695946310427871 0 0 0 0 -14.295740580949087 -2.8310404273396426 0 -2.8310404273396426 5.2386643358343008 0 0 0 0 -8.6640132788652409 -5.673299770601318 0 -5.673299770601318 -1.0733362978783703 0 0 0 0 -12.068529002256582 -9.3092949198359349 0 -9.3092949198359349 0.95538825045198905 0 0 0 0 -8.9769161838321452 -11.945816813727077 0 -11.945816813727077 -3.2359518824270594 0 0 0 0 -6.6943268268651082 -4.2906747779670695 0 -4.2906747779670695 -0.10867816120634188 0 0 0 0 -8.1484304898704067 -3.3210100756739109 0 -3.3210100756739109 0.61331487137445606 0 0 0 0 -6.5301501303929399 -7.7394394387110879 0 -7.7394394387110879 -4.5036152008829617 0 0 0 0 -7.0946624846346822 -6.1808126477560847 0 -6.1808126477560847 -7.9047217020933545 0 0 0 0 -7.117895894605681 -10.530726365867196 0 -10.530726365867196 -3.2579998938136328 0 0 0 0 -7.9199475332575275 -9.9282423277231757 0 -9.9282423277231757 -2.1330692836073695 0 0 0 0 -3.1929345786411432 -0.0071891354327249246 0 -0.0071891354327249246 7.0640363332522895 0 0 0 0 -6.1042534959415207 -9.6867404331418356 0 -9.6867404331418356 0.37389589802364753 0 0 0 0 -8.3702385985225192 -2.8219304701239167 0 -2.8219304701239167 3.2685236422880735 0 0 0 0 -3.0144738412818697 -8.8502936375109584 0 -8.8502936375109584 -3.9353850889413593 0 0 0 0 -3.401764394266138 -5.7538455893660512 0 -5.7538455893660512 0.95299881317600921 0 0 0 0 -2.1630198368720812 -6.4791026246508352 0 -6.4791026246508352 0.41423376689976976 0 0 0 0 -4.9297141448223556 -8.2643927403767066 0 -8.2643927403767066 1.9731444357521468 0 0 0 0 -5.8737212160176568 -6.7977863938650671 0 -6.7977863938650671 -8.8756020687370096 0 0 0 0 -4.2665742111310472 0.16281391287646896 0 0.16281391287646896 0.1139952477802515 0 0 0 0 -8.8072041678415189 -2.520043506517311 0 -2.520043506517311 17.052616619667788 0 0 0 0 -8.3082927723435205 -2.9378950899004508 0 -2.9378950899004508 3.6146083375115836 0 0 0 0 -4.4024177500767081 0.17850094356011725 0 0.17850094356011725 0.2202006890449747 0 0 0 0 -3.8963725437788526 -8.4838238477809682 0 -8.4838238477809682 -1.9912497063415486 0 0 0 0 -2.149840602162385 -1.4595358738189361 0 -1.4595358738189361 -2.5990225996999925 0 0 0 0 -4.5261553526352145 -2.9358111298161589 0 -2.9358111298161589 -0.858720907040599 0 0 0 0 -0.072080733620468962 -0.88188022334246341 0 -0.88188022334246341 0.18453117244046346 0 0 0 0 -7.0304503919796844 -2.269939345059754 0 -2.269939345059754 -1.1804047078785516 0 0 0 0 -3.6862979201109738 -1.2161722558572023 0 -1.2161722558572023 -1.0921872494408262 0 0 0 0 0.019042488526051393 -1.3950430199894335 0 -1.3950430199894335 -1.4161578047720229 0 0 0 0 -40.663962370582794 -16.074483373131962 0 -16.074483373131962 -11.32070885531175 0 0 0 0 -4.9833814586445442 -2.0617022597138543 0 -2.0617022597138543 -0.55636617925227938 0 0 0 0 -60.286527223178382 -11.227951406303646 0 -11.227951406303646 5.9663023533018986 0 0 0 0 -2.6960216518864399 -2.5007311724569377 0 -2.5007311724569377 -1.9230147439333223 0 0 0 0 0.38449964187021068 -1.2498564698149242 0 -1.2498564698149242 -1.4017568075567413 0 0 0 0 -60.453306766037258 -4.4700415707680179 0 -4.4700415707680179 7.5095945997334184 0 0 0 0 0.3127764033460112 -1.1436327838441276 0 -1.1436327838441276 -1.4380177569073078 0 0 0 0 -44.309268501499901 5.0366153630543238 0 5.0366153630543238 -7.0671555864003039 0 0 0 0 -2.858389136428741 -2.6565714500881654 0 -2.6565714500881654 -1.6686955483015709 0 0 0 0 -2.7499353858904669 -2.7205922724916434 0 -2.7205922724916434 -1.2331890494849631 0 0 0 0 -12.716585039923302 -8.1826301129260628 0 -8.1826301129260628 6.1629355610173207 0 0 0 0 0.79385439888019604 -0.60633410906584828 0 -0.60633410906584828 0.29141934057890939 0 0 0 0 -0.72292022095552966 -0.12435210018895759 0 -0.12435210018895759 -8.9066331770318357 0 0 0 0 -2.8016320813230777 -3.323256731439983 0 -3.323256731439983 -2.07533203166264 0 0 0 0 13.541044396635698 -11.705948957409959 0 -11.705948957409959 -7.5183859642861535 0 0 0 0 -2.8123221835257937 -4.3319448790328465 0 -4.3319448790328465 -4.7295080400008374 0 0 0 0 -0.69752140016102615 -2.3080215400878004 0 -2.3080215400878004 -1.9972994704754834 0 0 0 0 -0.23069117395074734 -1.1789052555103545 0 -1.1789052555103545 -0.10935856007836753 0 0 0 0 -2.2935282577591352 -5.6892786342573345 0 -5.6892786342573345 -6.5628348101182041 0 0 0 0 -2.8027845722790516 -1.610416489521981 0 -1.610416489521981 1.3265825844043775 0 0 0 0 -3.116929081195849 -3.7754031047194303 0 -3.7754031047194303 4.2320129295951574 0 0 0 0 0.068486290992467502 -0.56361637667152431 0 -0.56361637667152431 -0.44048477276069908 0 0 0 0 2.272740387765225 -2.8579829984407752 0 -2.8579829984407752 -2.888031892166623 0 0 0 0 -0.75045920410901923 -0.48015854809927738 0 -0.48015854809927738 0.14438159248311866 0 0 0 0 2.1721682868155767 1.9616594536775551 0 1.9616594536775551 -12.271147275624372 0 0 0 0 -7.5506888209274621 9.012630166520978 0 9.012630166520978 -6.0229212957447089 0 0 0 0 -4.9587066472231527 2.9840736013885589 0 2.9840736013885589 -2.0484593890586211 0 0 0 0 -17.573287393044666 3.3980246518199806 0 3.3980246518199806 -1.9701017838503958 0 0 0 0 -0.76221384372911416 5.9104479469890521 0 5.9104479469890521 -4.6130032987686036 0 0 0 0 -0.84484931733641133 2.1028931991491788 0 2.1028931991491788 -2.6192681400054596 0 0 0 0 -2.1420084582514392 3.6637691101931864 0 3.6637691101931864 -3.5947698546678737 0 0 0 0 3.9026028417001726 9.8167001217400269 0 9.8167001217400269 14.545035486493475 0 0 0 0 1.3903413663201718 -16.297793646215666 0 -16.297793646215666 0.97081277535570365 0 0 0 0 -0.83250748723899193 0.067786287376920384 0 0.067786287376920384 0.30616462479257095 0 0 0 0 -0.4819099231000763 0.093277548932569232 0 0.093277548932569232 0.47740067543754594 0 0 0 0 2.3715019409173692 19.044284160031452 0 19.044284160031452 0.48563094005349683 0 0 0 0 -0.35231019241975048 -0.02662481530622518 0 -0.02662481530622518 0.033298645883745981 0 0 0 0 -58.546682165337188 22.964089232000731 0 22.964089232000731 -13.733006274421541 0 0 0 0 -9.8345766875991103 12.708985900786956 0 12.708985900786956 -11.792743349702846 0 0 0 0 -19.37857145639282 -33.643082779680185 0 -33.643082779680185 0.013760395515348023 0 0 0 0 -54.352725818353065 -22.986674262813892 0 -22.986674262813892 -7.002111785997954 0 0 0 0 -55.311010939070911 -28.769188436788369 0 -28.769188436788369 -33.853030513757503 0 0 0 0 -90.369070750154606 -12.682568488663165 0 -12.682568488663165 0.69323936710213729 0 0 0 0 -51.836792333975609 -6.9803762321938621 0 -6.9803762321938621 1.5293940990929116 0 0 0 0 -57.59405342763057 -9.5546795165366802 0 -9.5546795165366802 5.5237324512768282 0 0 0 0 -56.334002008152311 -17.181626341458582 0 -17.181626341458582 -2.0619902463463404 0 0 0 0 -52.560947623042011 -11.900077724514006 0 -11.900077724514006 5.021324276584096 0 0 0 0 -50.642486166634626 10.657780657956152 0 10.657780657956152 -1.3452153652478387 0 0 0 0 -45.811068058173987 -9.3415231719186522 0 -9.3415231719186522 1.2933393637621293 0 0 0 0 -15.751126969233155 -0.16604198372158407 0 -0.16604198372158407 -2.8706697787816893 0 0 0 0 -14.638302934601597 2.5088542498374409 0 2.5088542498374409 -2.109566016000997 0 0 0 0 -13.545398604290313 -7.5032202161829105 0 -7.5032202161829105 0.55933193941268655 0 0 0 0 -42.277045923678997 -9.0036534432598785 0 -9.0036534432598785 6.9988037087826456 0 0 0 0 -45.542409998994117 -5.0483047133837431 0 -5.0483047133837431 4.5920802387698991 0 0 0 0 -52.007417205009915 -15.258681056499597 0 -15.258681056499597 5.9045697032979092 0 0 0 0 -63.746696494201387 -28.604851250987679 0 -28.604851250987679 -2.5869508904204963 0 0 0 0 -52.593501584538899 -6.2506882272398343 0 -6.2506882272398343 4.9464307942469077 0 0 0 0 -41.127048156468845 -28.507495113560395 0 -28.507495113560395 -4.3098946049874485 0 0 0 0 -94.125315399345709 -4.8450547381606839 0 -4.8450547381606839 5.0546592266985044 0 0 0 0 -5.2375494783136674 3.6473380033106082 0 3.6473380033106082 5.7977812372389224 0 0 0 0 -0.80758949788773648 0.81856494478511621 0 0.81856494478511621 -0.032605660371869849 0 0 0 0 -10.382686338452913 5.8419562612221512 0 5.8419562612221512 10.865107683180895 0 0 0 0 -5.2466941147035584 -0.10236568653598255 0 -0.10236568653598255 11.760995475354889 0 0 0 0 -1.0264021246221517 -0.11226018406530613 0 -0.11226018406530613 0.047323033313511953 0 0 0 0 10.485402684917062 11.511920573889711 0 11.511920573889711 12.249527495441384 0 0 0 0 -15.503268635137147 4.3225426854785596 0 4.3225426854785596 18.774588182939965 0 0 0 0 1.572157851751399 0.83720763085079852 0 0.83720763085079852 1.9374519604610896 0 0 0 0 3.883241058303156 10.060298304745146 0 10.060298304745146 1.2713248842374014 0 0 0 0 -4.8784294952917264 7.4999740377146473 0 7.4999740377146473 1.6398763394165599 0 0 0 0 -14.420724505914677 0.84446694688310231 0 0.84446694688310231 2.0537526703144522 0 0 0 0 -3.8343866848226753 5.7742604016783048 0 5.7742604016783048 4.1947912780026968 0 0 0 0 -3.193597958385908 9.4514505932056636 0 9.4514505932056636 13.359640247667357 0 0 0 0 -0.52040929591566965 7.7159124820111629 0 7.7159124820111629 2.4909333951643475 0 0 0 0 -3.7311875739414972 5.5820643214063921 0 5.5820643214063921 3.3027862676154882 0 0 0 0 -5.3500207329771072 0.91934252269330052 0 0.91934252269330052 0.75368551554029817 0 0 0 0 -6.6772731771634426 1.0346385362001911 0 1.0346385362001911 1.5795482817477478 0 0 0 0 -6.4701122590413433 -0.045701454236677819 0 -0.045701454236677819 3.1111815226515773 0 0 0 0 -7.509378717513755 1.9638691358977667 0 1.9638691358977667 2.0558094512205685 0 0 0 0 -7.4523179688094388 0.97978861542515006 0 0.97978861542515006 3.3765384672463767 0 0 0 0 -8.7893756273909389 3.5004867106263902 0 3.5004867106263902 9.759909168956483 0 0 0 0 -8.8082227356881617 3.0996792368834249 0 3.0996792368834249 1.5441465170345055 0 0 0 0 -0.88236095199023623 2.1112938684349754 0 2.1112938684349754 1.6281337336353685 0 0 0 0 -8.881938053596059 2.0169094694706473 0 2.0169094694706473 3.5432659501897206 0 0 0 0 1.8803254555523381 -0.10973061107836202 0 -0.10973061107836202 2.4882438349962968 0 0 0 0 -1.7039001690136502 -3.7389888616212943 0 -3.7389888616212943 -1.0168874982731495 0 0 0 0 -0.44101504761057697 0.15433731815798968 0 0.15433731815798968 -0.083276156185409178 0 0 0 0 -39.132078781358359 27.600283502668162 0 27.600283502668162 -3.1047353762363628 0 0 0 0 -6.7667931875785143 13.4637038423798 0 13.4637038423798 -12.840180122002721 0 0 0 0 -96.507106161179763 -3.4940450880309299 0 -3.4940450880309299 7.9357475821761909 0 0 0 0 -51.911522979576148 6.1245596027264355 0 6.1245596027264355 3.2697240236918788 0 0 0 0 -29.375995293597953 8.4772280012950887 0 8.4772280012950887 1.29745623695527 0 0 0 0 -45.685961568424318 0.98860825914653105 0 0.98860825914653105 3.5375478645489693 0 0 0 0 -48.997278060055578 -5.0176904424619693 0 -5.0176904424619693 3.9116208460445705 0 0 0 0 -11.549125387251479 11.520666711759191 0 11.520666711759191 -0.67278055032372563 0 0 0 0 -22.030614854796113 1.0662093737427085 0 1.0662093737427085 1.605809056237149 0 0 0 0 -12.586102687372659 -0.33523687189168072 0 -0.33523687189168072 4.7230651913134807 0 0 0 0 -18.080042293098813 7.6844532648755148 0 7.6844532648755148 1.2522953452303156 0 0 0 0 -29.57832485849849 -0.67861708832555223 0 -0.67861708832555223 3.3384388583298232 0 0 0 0 -24.714971805218738 3.9935369168040324 0 3.9935369168040324 3.7483665724980284 0 0 0 0 -30.11172253792472 -0.52552650660583566 0 -0.52552650660583566 0.25235349800186668 0 0 0 0 -13.185438880912443 7.127449549110338 0 7.127449549110338 4.2769307391561426 0 0 0 0 -16.573284080143821 -1.3651176942029508 0 -1.3651176942029508 0.10427260017104345 0 0 0 0 -0.43989181633864805 -0.052741217641870008 0 -0.052741217641870008 0.016283264676037135 0 0 0 0 2.4124990520449501 1.0363927720338779 0 1.0363927720338779 -1.6475032749954863 0 0 0 0 -6.0159485152980778 9.8877519758704011 0 9.8877519758704011 -2.9748668567717687 0 0 0 0 0.026646626990384448 2.260551659040539 0 2.260551659040539 1.1485887069478489 0 0 0 0 -3.4861718328497773 5.8319696650054311 0 5.8319696650054311 2.9462753789998146 0 0 0 0 5.3399564545879912 4.8099817988108384 0 4.8099817988108384 -4.9662662604564503 0 0 0 0 36.754030543685076 26.56377609466108 0 26.56377609466108 10.379259596957127 0 0 0 0 -0.90622939937873692 -2.5068730920149207 0 -2.5068730920149207 -3.1396679398313241 0 0 0 0 -0.010961541118035711 -0.27487506776117243 0 -0.27487506776117243 -9.2081582816285845 0 0 0 0 -6.198509712250825 -7.2416659375800521 0 -7.2416659375800521 -3.9640042313608319 0 0 0 0 -0.48423927777089482 -0.76316754786730279 0 -0.76316754786730279 -0.2461049690436603 0 0 0 0 -0.44716372189477394 -2.6717692053879816 0 -2.6717692053879816 -2.8728439195126771 0 0 0 0 -2.3948697293287751 -2.9645701115473884 0 -2.9645701115473884 -2.2301688133061361 0 0 0 0 -1.9162841274073799 -3.0468760549831586 0 -3.0468760549831586 -2.4278990490394676 0 0 0 0 -1.4414554324239361 -2.4102529187517803 0 -2.4102529187517803 -2.9984726079193251 0 0 0 0 -2.5791622676906627 -1.9494522144901794 0 -1.9494522144901794 -1.9837070118962856 0 0 0 0 -1.518865238820581 -2.2750668187255627 0 -2.2750668187255627 -1.6119144950887403 0 0 0 0 0.588178585595172 -1.0323566830252577 0 -1.0323566830252577 -1.3939034981982514 0 0 0 0 -0.52338299570328672 -2.1528040785673284 0 -2.1528040785673284 -2.2246878584130627 0 0 0 0 -2.3180118706991379 -2.4099948435439842 0 -2.4099948435439842 -1.6612509505296202 0 0 0 0 -2.5064720395162112 -3.1343601557306329 0 -3.1343601557306329 -3.4734551748761078 0 0 0 0 -55.547445097257878 3.4768178642573275 0 3.4768178642573275 4.2732598172367489 0 0 0 0 -63.643629186905855 21.481734102800658 0 21.481734102800658 -31.671937244552282 0 0 0 0 -65.616126009852451 -29.609452118925105 0 -29.609452118925105 -19.551376622636042 0 0 0 0 -57.005087343826744 -16.504777215420575 0 -16.504777215420575 -1.9783663393682218 0 0 0 0 -39.416922779235392 -9.5924804689466328 0 -9.5924804689466328 -3.3834469633493995 0 0 0 0 -0.21746044349968763 -0.21973774643918453 0 -0.21973774643918453 -0.091979540440810137 0 0 0 0 -61.670577240218336 -16.068116908650495 0 -16.068116908650495 0.50560041889019658 0 0 0 0 -34.418463918802445 1.1531458455552865 0 1.1531458455552865 4.5620539340681887 0 0 0 0 -45.135479408347237 -8.0651433154671395 0 -8.0651433154671395 0.53333503270425808 0 0 0 0 -37.706351870562457 -9.2270235566887067 0 -9.2270235566887067 0.66839415445156192 0 0 0 0 -26.748270192416385 -5.0086619835376496 0 -5.0086619835376496 0.96172600809612163 0 0 0 0 -30.341719157321336 -3.4059808368182374 0 -3.4059808368182374 -7.6001569067632317 0 0 0 0 -34.63291772892444 -5.1969615404149181 0 -5.1969615404149181 1.0821714305650687 0 0 0 0 -32.666920756696527 3.086231311026296 0 3.086231311026296 0.34541440804900958 0 0 0 0 0.40157282782578818 -0.33728210917261414 0 -0.33728210917261414 -0.3985475076121765 0 0 0 0 1.0642442837015551 -4.9038279856558802 0 -4.9038279856558802 -9.4088531369328621 0 0 0 0 0.64100530738981476 -0.96168728020784044 0 -0.96168728020784044 -1.0456792950823912 0 0 0 0 -0.22555210146947502 -1.1489543328527816 0 -1.1489543328527816 -2.1080427972491691 0 0 0 0 -7.1344102436778485 -7.1343684997075343 0 -7.1343684997075343 -6.1556323475724639 0 0 0 0 -25.321812881338701 2.860184894091276 0 2.860184894091276 0.080030784944142397 0 0 0 0 0.25229269535967269 0.0019029911746919481 0 0.0019029911746919481 -0.0028731697400785627 0 0 0 0 -0.8442793996518958 -2.3499641590404394 0 -2.3499641590404394 -2.4356506490405536 0 0 0 0 -1.5203015231442905 -1.3740292670533156 0 -1.3740292670533156 -0.80433596039110089 0 0 0 0 -2.1928100232507859 -0.057577078089138922 0 -0.057577078089138922 -1.3297786326105552 0 0 0 0 -3.6187532016865589 -1.0165379082581012 0 -1.0165379082581012 -0.87436039774581786 0 0 0 0 -6.1835691468186269 -1.5344428309356317 0 -1.5344428309356317 -0.52461991631253113 0 0 0 0 -5.0891717969498131 -1.9653039897370945 0 -1.9653039897370945 -1.5958785277525749 0 0 0 0 6.086859365561395 3.2830121762307272 0 3.2830121762307272 -2.7912403365430691 0 0 0 0 -0.86545117735338195 -2.4492085038285207 0 -2.4492085038285207 -0.66715307675371838 0 0 0 0 -5.5059578859309113 0.4437734641633142 0 0.4437734641633142 -0.43829630067193648 0 0 0 0 0.318575943630234 0.56767531053504072 0 0.56767531053504072 -1.1020023482729009 0 0 0 0 4.1877888706544582 0.5526419707681498 0 0.5526419707681498 -3.8065638618400044 0 0 0 0 4.1965085805677518 1.1252475563971984 0 1.1252475563971984 -0.50990527599299185 0 0 0 0 6.5828588501681224 -0.66092209777013977 0 -0.66092209777013977 -2.4403406678214878 0 0 0 0 4.3813513160876028 -2.0237995668811664 0 -2.0237995668811664 2.7982919104624671 0 0 0 0 11.448443800105451 -7.9654963202860927 0 -7.9654963202860927 1.5829729027624921 0 0 0 0 1.8787077275793038 1.0332235957711262 0 1.0332235957711262 0.13041213297186971 0 0 0 0 14.70772711029349 -2.7884026711048193 0 -2.7884026711048193 -9.4166351277149261 0 0 0 0 17.88711978784977 9.4049929177060676 0 9.4049929177060676 -5.0505783686381847 0 0 0 0 -4.018786077379092 3.9333882042873753 0 3.9333882042873753 -0.75099343779013594 0 0 0 0 4.6219956138140788 0.92813938130470319 0 0.92813938130470319 -2.4123478818473814 0 0 0 0 6.7307152689027134 0.55418727147491609 0 0.55418727147491609 -2.6380921637376105 0 0 0 0 -4.3017177070632897 2.688575125758689 0 2.688575125758689 -0.93417218546608183 0 0 0 0 3.9563931642164789 2.7186313210784476 0 2.7186313210784476 1.5975138913504452 0 0 0 0 -1.5471420263681228 0.76364293462439647 0 0.76364293462439647 -1.0980387503857987 0 0 0 0 -3.9827194346901234 2.743471368657346 0 2.743471368657346 0.14499899431053009 0 0 0 0 -7.1242701194487381 -0.62521908879620014 0 -0.62521908879620014 -1.1381468310923992 0 0 0 0 -12.387182381344246 -2.7306782939382117 0 -2.7306782939382117 -0.079613070822347254 0 0 0 0 -7.5029065261478536 -0.1858980179054015 0 -0.1858980179054015 -0.73073969504730485 0 0 0 0 -0.39901051852520908 0.012625444575730782 0 0.012625444575730782 0.10230604861526693 0 0 0 0 -15.831803979845745 5.9999010900386907 0 5.9999010900386907 5.2184475099031715 0 0 0 0 -16.936301528747549 -1.664416738126576 0 -1.664416738126576 2.6943737440560653 0 0 0 0 -18.397412811254071 1.1863458073308948 0 1.1863458073308948 4.8453839113493018 0 0 0 0 -8.757442321480994 2.8964163173207425 0 2.8964163173207425 -1.0833233643654694 0 0 0 0 -1.7828883026211129 0.028195030780425512 0 0.028195030780425512 0.026653979042608356 0 0 0 0 -2.7708254323788424 -14.03521162224115 0 -14.03521162224115 -3.510512691214899 0 0 0 0 -4.9499580517921231 -2.0229018531727974 0 -2.0229018531727974 -2.0919618464120049 0 0 0 0 -5.0430965908228913 -4.9987635000671018 0 -4.9987635000671018 -0.1360709778413618 0 0 0 0 -4.6258450488330709 -5.4687919534617322 0 -5.4687919534617322 3.2239206911971223 0 0 0 0 -35.168499114162842 -4.9379856031475811 0 -4.9379856031475811 0.35822314310394177 0 0 0 0 -11.900550737547746 -16.195163126479201 0 -16.195163126479201 -8.1401742406406754 0 0 0 0 -29.205663279394685 6.861933798494988 0 6.861933798494988 -0.21657757966227109 0 0 0 0 -25.663605218320299 6.2796782860607436 0 6.2796782860607436 -7.4581783536984645 0 0 0 0 -10.183049875291545 -8.6136572263014841 0 -8.6136572263014841 1.3034663507546753 0 0 0 0 -18.533087892379626 5.5730752526433207 0 5.5730752526433207 -0.97875379004085516 0 0 0 0 -21.116243101065265 3.2604497603435902 0 3.2604497603435902 1.9825202333825018 0 0 0 0 -12.743893107681288 -2.5137315478427809 0 -2.5137315478427809 -3.9366405761766146 0 0 0 0 -9.2151886054598435 -2.9126226988532835 0 -2.9126226988532835 -12.066342815629923 0 0 0 0 -10.653224738674908 -6.2813536714537577 0 -6.2813536714537577 4.3001721812854612 0 0 0 0 -12.952850573674368 -9.5796130856010677 0 -9.5796130856010677 6.4112793316471652 0 0 0 0 -4.9171702507798045 -12.469147078372188 0 -12.469147078372188 3.1899489732445545 0 0 0 0 -12.729539340613883 -6.1075005555748021 0 -6.1075005555748021 16.850858074592452 0 0 0 0 -9.2483273939737742 2.3932308119390187 0 2.3932308119390187 0.034389049028748397 0 0 0 0 -13.150911387303495 -2.5659749021401694 0 -2.5659749021401694 12.402193120178254 0 0 0 0 -33.149001079786103 17.71648553371142 0 17.71648553371142 53.728901083898563 0 0 0 0 -6.582286591288721 -24.662523895594632 0 -24.662523895594632 36.802868699200189 0 0 0 0 -4.9447293562320738 0.95399218789782481 0 0.95399218789782481 1.0889646363259544 0 0 0 0 -5.5446616062137482 1.7831816515632841 0 1.7831816515632841 0.18698080985423715 0 0 0 0 -2.1329358443717865 -2.1190299540031106 0 -2.1190299540031106 0.64383122725678277 0 0 0 0 -14.77147983424311 3.2528090908824652 0 3.2528090908824652 -0.17700499173815842 0 0 0 0 -20.655253060822361 4.6203498687738147 0 4.6203498687738147 -0.18279054145107043 0 0 0 0 -4.8023943868846626 1.1323478164426266 0 1.1323478164426266 0.16877097952212816 0 0 0 0 -9.2160963023075055 4.6921773067571735 0 4.6921773067571735 -5.3689537314271547 0 0 0 0 -0.63060264393560317 -0.83892039458448364 0 -0.83892039458448364 0.031291477330938178 0 0 0 0 -5.8660563737401841 -3.7697152136535577 0 -3.7697152136535577 0.83506335342963212 0 0 0 0 -5.6291974982332249 -10.886847390848231 0 -10.886847390848231 -6.3691657456399753 0 0 0 0 -15.1963904371014 -14.200339855446202 0 -14.200339855446202 -7.3640396032466242 0 0 0 0 -11.193754812752331 -0.55524996627337941 0 -0.55524996627337941 3.4384660406315106 0 0 0 0 -29.130790907515802 -8.1977331770762589 0 -8.1977331770762589 0.38542013794426566 0 0 0 0 -29.385984474424852 4.8107657301591544 0 4.8107657301591544 5.69644744860625 0 0 0 0 -3.0825890905412052 9.3978397683978301 0 9.3978397683978301 -10.349400707933682 0 0 0 0 -22.56510400091247 -5.9816256130478109 0 -5.9816256130478109 -1.8953171969522771 0 0 0 0 -3.9455829736056742 4.0591682918944301 0 4.0591682918944301 -0.58287357005815998 0 0 0 0 -2.3236077697059887 2.5912553209703635 0 2.5912553209703635 0.21422215169569103 0 0 0 0 -4.8220391177242163 1.0605541136264947 0 1.0605541136264947 -0.17252766352817162 0 0 0 0 -5.0035018375765503 1.0074525996702732 0 1.0074525996702732 -0.027074392543227077 0 0 0 0 -0.5739249643193034 7.8421850997434603 0 7.8421850997434603 -3.9582990662414659 0 0 0 0 -8.5701875816841948 -0.21768010198763932 0 -0.21768010198763932 2.303063580018943 0 0 0 0 -1.8530642272887872 -0.23522013624860705 0 -0.23522013624860705 -0.070012889360572039 0 0 0 0 -5.1673286029972587 1.086157599673129 0 1.086157599673129 -0.046394420516435275 0 0 0 0 -0.043585382160326702 -0.172542832276255 0 -0.172542832276255 -0.25983516349606539 0 0 0 0 -3.1192976762595208 0.89099755034732198 0 0.89099755034732198 -0.083466346149180026 0 0 0 0 -8.7954568333470888 -2.527706188514486 0 -2.527706188514486 1.0417765271538428 0 0 0 0 -0.75741902778344539 0.99757478588759696 0 0.99757478588759696 -0.038921736852496558 0 0 0 0 -2.0771882103829853 2.9481578829596096 0 2.9481578829596096 -2.4509096445326577 0 0 0 0 2.2688948097129469 2.3451232770100887 0 2.3451232770100887 0.20222853316113287 0 0 0 0 -0.5154964867246572 2.3488766704598039 0 2.3488766704598039 0.85620057560943952 0 0 0 0 -12.072702770829892 3.4537790674540929 0 3.4537790674540929 3.5593780874202139 0 0 0 0 -12.531560116411129 -0.96735913758118386 0 -0.96735913758118386 0.026075664138261345 0 0 0 0 -26.92491339537537 1.6836872638162959 0 1.6836872638162959 3.3679286510871975 0 0 0 0 -29.337821518613055 7.2903364374896 0 7.2903364374896 1.579674082251131 0 0 0 0 -53.417732024639918 -5.9005044064971344 0 -5.9005044064971344 4.0443391235878607 0 0 0 0 -37.678179430201453 26.941022860507871 0 26.941022860507871 -11.669099859178004 0 0 0 0 -32.472618116826197 18.906337956755578 0 18.906337956755578 -13.354062466317828 0 0 0 0 -13.579904026219538 10.875902393078945 0 10.875902393078945 -66.665001901311371 0 0 0 0 -17.711807202296768 1.0480538735221216 0 1.0480538735221216 -5.3541962135782342 0 0 0 0 0.14118776568511393 1.5897182383818267 0 1.5897182383818267 -0.49538593540529341 0 0 0 0 -0.27736569210271966 0.28429814986956004 0 0.28429814986956004 -0.21732242703595483 0 0 0 0 10.745058022311696 8.4654975082145256 0 8.4654975082145256 -40.609628079109825 0 0 0 0 -13.912952754059006 1.6907104861588209 0 1.6907104861588209 2.1966539656117448 0 0 0 0 3.4478912383553961 15.615738155527396 0 15.615738155527396 8.4527675545364218 0 0 0 0 -10.849753802563894 2.7671504042763306 0 2.7671504042763306 -0.4482796463147487 0 0 0 0 -13.119647068184918 1.6888526353934639 0 1.6888526353934639 -0.12013060453919233 0 0 0 0 -47.426605562443001 19.906125805451438 0 19.906125805451438 62.82453180444918 0 0 0 0 -6.3694671345948564 2.3912481518872113 0 2.3912481518872113 -9.4117949438700634 0 0 0 0 12.943250215801527 -15.730747335544038 0 -15.730747335544038 -5.2645820072260676 0 0 0 0 -96.128054201566556 -6.1316954541116502 0 -6.1316954541116502 51.552014567542301 0 0 0 0 -14.065825455362138 4.1676644097764406 0 4.1676644097764406 0.83788086295251829 0 0 0 0 -17.200534877498285 12.424799453394371 0 12.424799453394371 2.0245644414571871 0 0 0 0 -1.7701952159901158 0.12397081992919468 0 0.12397081992919468 0.10099698666775581 0 0 0 0 10.96443503149203 -37.587292195006739 0 -37.587292195006739 56.95017628678761 0 0 0 0 -12.774772401728114 4.9145129035466084 0 4.9145129035466084 1.0924723948876078 0 0 0 0 -2.686486889170145 -0.026273334814535865 0 -0.026273334814535865 -0.5094573874533106 0 0 0 0 -12.272324802345793 4.3525353788119219 0 4.3525353788119219 0.044997101172725706 0 0 0 0 -15.23108093331723 0.88586123791618832 0 0.88586123791618832 -0.82589695545129871 0 0 0 0 -14.812670465538758 -0.88184626797419696 0 -0.88184626797419696 -0.73343252155723349 0 0 0 0 -12.871095444096788 1.4581402178362639 0 1.4581402178362639 0.49315019251866943 0 0 0 0 -2.0857784190592445 0.926368430154346 0 0.926368430154346 -0.072416707030601657 0 0 0 0 -9.4306803136008455 1.3212566212315409 0 1.3212566212315409 -0.72396532561663207 0 0 0 0 -10.349936246356265 0.8258869029591267 0 0.8258869029591267 -0.26767437380972581 0 0 0 0 -4.9392609334463486 1.1357024705081358 0 1.1357024705081358 -0.18235515193919127 0 0 0 0 -8.8204312318043776 1.6985628947771829 0 1.6985628947771829 -0.65074239171383397 0 0 0 0 -5.2081869240462595 1.0250410246238268 0 1.0250410246238268 -0.14570096528402854 0 0 0 0 -2.0391633570267933 1.6455938951438096 0 1.6455938951438096 -0.19447482726165743 0 0 0 0 -9.1783765238958495 1.2963992863951432 0 1.2963992863951432 0.22104902643900459 0 0 0 0 -11.930090185840072 -2.8180680454529181 0 -2.8180680454529181 0.51241488467098861 0 0 0 0 -14.187802257532894 -1.8823934525624821 0 -1.8823934525624821 -7.6640003714077238 0 0 0 0 -20.789302425902861 2.6434678653546939 0 2.6434678653546939 4.6095379598662021 0 0 0 0 -17.570781737957532 -5.5233481708904435 0 -5.5233481708904435 0.32635262045528179 0 0 0 0 -12.231589176561101 -5.457634730032936 0 -5.457634730032936 -8.8802246127097533 0 0 0 0 -29.720973302988568 -1.0468764692404875 0 -1.0468764692404875 10.895101572349063 0 0 0 0 -1.8426461082697916 -0.87997859004024992 0 -0.87997859004024992 -0.96034709878424795 0 0 0 0 -13.233621379087607 3.2204898667732844 0 3.2204898667732844 0.47703828174902441 0 0 0 0 -9.2868368476820251 -17.497686652874222 0 -17.497686652874222 -9.9653350309442601 0 0 0 0 -47.63826534340501 -12.153947130611257 0 -12.153947130611257 32.468114464505348 0 0 0 0 -15.452451434750179 4.2207190110382804 0 4.2207190110382804 0.12063820572510481 0 0 0 0 -64.433631747494019 -59.59733611226941 0 -59.59733611226941 -0.12558386137750333 0 0 0 0 -38.180051762901712 3.9092965957226795 0 3.9092965957226795 22.418592065943358 0 0 0 0 -22.75066563383109 26.891572876546338 0 26.891572876546338 23.486226906315153 0 0 0 0 -33.290303391537691 -11.086820902661145 0 -11.086820902661145 -13.496930032059254 0 0 0 0 -53.385093217658323 16.680454856820091 0 16.680454856820091 12.265693766385084 0 0 0 0 -7.7911783656018088 -1.8137299495349453 0 -1.8137299495349453 -1.6233750591596845 0 0 0 0 -43.396314607817658 -20.28178964748929 0 -20.28178964748929 -0.42677341247429013 0 0 0 0 0.016784885337382427 0.041182402152917241 0 0.041182402152917241 -1.6860767652853974 0 0 0 0 -8.7700814322743099 -1.8465523488001736 0 -1.8465523488001736 0.57473169804302415 0 0 0 0 -2.4247574477863054 7.3619047504725472 0 7.3619047504725472 6.1322729449777853 0 0 0 0 -5.7780103458276102 -0.0071568994377222417 0 -0.0071568994377222417 -0.024365725619191592 0 0 0 0 -84.23639188369998 -17.064795953093608 0 -17.064795953093608 -6.6273259649251486 0 0 0 0 -100.28117411862331 -45.25800344123445 0 -45.25800344123445 -30.751901154374764 0 0 0 0 -0.10321047105686532 -0.14647609505306569 0 -0.14647609505306569 -0.65160118508592835 0 0 0 0 -1.5679672960728031 0.90867420748438832 0 0.90867420748438832 -1.2784501660659462 0 0 0 0 -43.115620532254979 -5.2260864742822832 0 -5.2260864742822832 0.18310013468715169 0 0 0 0 -43.41857237162003 5.2624653798344525 0 5.2624653798344525 -24.587355139449983 0 0 0 0 -78.34196973381404 -30.509272373872818 0 -30.509272373872818 -9.0343617296584284 0 0 0 0 -62.656636357689422 -5.0793014861013717 0 -5.0793014861013717 1.6183209950149831 0 0 0 0 -0.44546595955485913 0.42348649151656126 0 0.42348649151656126 -0.2865921955553139 0 0 0 0 12.477238969001974 11.323266346296691 0 11.323266346296691 -7.4042426402114643 0 0 0 0 -134.86729186134198 -55.822527967451492 0 -55.822527967451492 -3.2605386290726415 0 0 0 0 -47.467404736511526 -13.133582107788698 0 -13.133582107788698 -19.819430599331042 0 0 0 0 -10.201922359929085 -6.0579913283904716 0 -6.0579913283904716 -4.4021535447523661 0 0 0 0 -19.012647650228246 -0.021547604800389308 0 -0.021547604800389308 5.906666820915234 0 0 0 0 -0.30665755780258408 -0.44910097087218759 0 -0.44910097087218759 -0.6469656948548459 0 0 0 0 88.220014211291527 -39.583162314056153 0 -39.583162314056153 -22.366304504361665 0 0 0 0 -90.777273272402454 49.864300369826822 0 49.864300369826822 -18.392244398851972 0 0 0 0 89.22607138362946 18.945795952765934 0 18.945795952765934 -48.010041571286592 0 0 0 0 -105.53750684333681 20.302302165255696 0 20.302302165255696 19.017599165674937 0 0 0 0 12.060680678633616 13.35129288232406 0 13.35129288232406 -23.931715576824445 0 0 0 0 13.6045038653956 -10.177641490052338 0 -10.177641490052338 -0.23604724962297041 0 0 0 0 -16.593203764003192 10.312004344944057 0 10.312004344944057 1.1263045881125038 0 0 0 0 -49.585465267322434 -7.2618937388874656 0 -7.2618937388874656 6.5146100439515067 0 0 0 0 -34.036573633936769 11.27182493978421 0 11.27182493978421 6.1708645696996882 0 0 0 0 -40.594886163646152 -14.753591977604458 0 -14.753591977604458 -4.4123983309148116 0 0 0 0 -4.3736178021054002 -6.9259929922216088 0 -6.9259929922216088 21.887732773182961 0 0 0 0 35.665765642957012 -8.1932020981003575 0 -8.1932020981003575 -12.661655139749655 0 0 0 0 31.972280447710204 -28.897474173379372 0 -28.897474173379372 16.331322492801974 0 0 0 0 -14.219693327489949 -60.569883780947976 0 -60.569883780947976 38.916215488853595 0 0 0 0 -23.737905011502676 -33.967466838799709 0 -33.967466838799709 -27.091240088969531 0 0 0 0 -1.65642035858491 11.9010906996279 0 11.9010906996279 65.067138857064265 0 0 0 0 -16.476037983107677 5.0402413662099477 0 5.0402413662099477 -0.53678442853333741 0 0 0 0 -7.2826621223848633 0.75385730097119108 0 0.75385730097119108 4.3969098463973069 0 0 0 0 4.2389711999230713 24.027377887319687 0 24.027377887319687 13.754670476082303 0 0 0 0 -21.947667006322774 -18.045253641720752 0 -18.045253641720752 -23.85581565074331 0 0 0 0 -22.710840236947433 -6.6124970190434578 0 -6.6124970190434578 0.98974896269668378 0 0 0 0 -2.5560002768574552 0.74651452342579516 0 0.74651452342579516 -0.10190434099978926 0 0 0 0 -16.986913374949609 -2.8891955475059561 0 -2.8891955475059561 -20.394638007732251 0 0 0 0 -1.2919329817456207 -0.011280695840562238 0 -0.011280695840562238 0.23022320988643399 0 0 0 0 -59.580635742877234 42.206764425559051 0 42.206764425559051 59.047965807290311 0 0 0 0 -4.2193878888162368 0.79624212117667625 0 0.79624212117667625 0.1446116374853654 0 0 0 0 -2.9467995468116897 -12.561763460055332 0 -12.561763460055332 5.8629124904665915 0 0 0 0 15.094677661087871 -14.180032894873683 0 -14.180032894873683 -14.492604932064069 0 0 0 0 -5.9684429623662538 -0.85864397800583703 0 -0.85864397800583703 11.604589050328627 0 0 0 0 -5.3885425443538679 3.6113434589207429 0 3.6113434589207429 -8.3065327010220358 0 0 0 0 14.839684204651462 -0.51834511500145197 0 -0.51834511500145197 -53.724270524301502 0 0 0 0 -0.020745288969669318 -0.01869058922651079 0 -0.01869058922651079 -0.058588211765509046 0 0 0 0 -46.14133383410126 -12.774384886149463 0 -12.774384886149463 7.3287131919444874 0 0 0 0 6.9539881463498432 7.6898527109593715 0 7.6898527109593715 -5.8314076948339846 0 0 0 0 -338.10418982934914 -114.78465804761703 0 -114.78465804761703 18.959715647046643 0 0 0 0 -251.49225864328034 -199.88060672763089 0 -199.88060672763089 -72.249590964963843 0 0 0 0 -11.285515483369778 8.5084234655872546 0 8.5084234655872546 -30.515193255483055 0 0 0 0 22.787916670457321 -2.1653707185844269 0 -2.1653707185844269 -50.322699425204092 0 0 0 0 21.940474451403134 3.2796463631915458 0 3.2796463631915458 -70.074995001237099 0 0 0 0 -2.2311772871621738 0.10976220280481852 0 0.10976220280481852 -0.017070475285932807 0 0 0 0 -503.19295369332406 -166.56867310487331 0 -166.56867310487331 4.0489559747608181 0 0 0 0 -499.38709693057103 -171.62048529250328 0 -171.62048529250328 -213.36499174675254 0 0 0 0 -155.54713866595716 45.664968280227185 0 45.664968280227185 -0.21840260584599003 0 0 0 0 -353.30834886716946 -230.85328191378585 0 -230.85328191378585 -81.054441047071251 0 0 0 0 -22.016319871517112 60.184604303977054 0 60.184604303977054 -43.959229284964564 0 0 0 0 -77.197534026830226 -104.73770996389158 0 -104.73770996389158 -26.05490802780804 0 0 0 0 -534.85266751951781 -120.08014366082313 0 -120.08014366082313 27.936873752786429 0 0 0 0 -14.489391870563622 39.765040384805786 0 39.765040384805786 4.798094537564296 0 0 0 0 15.687780213565702 29.406245929442228 0 29.406245929442228 -64.825803866303801 0 0 0 0 -4.5404801820250213 4.2010674259877874 0 4.2010674259877874 -2.2013302862812907 0 0 0 0 -13.782574141614305 26.121042108218575 0 26.121042108218575 37.927403216754939 0 0 0 0 -5.4698538425782317 6.1612872323090642 0 6.1612872323090642 -3.0712163449776426 0 0 0 0 -6.6501320002378392 4.5389992395772403 0 4.5389992395772403 -2.1120381006872533 0 0 0 0 -498.47815751422809 0.95594379673418306 0 0.95594379673418306 -1.3732283447234306 0 0 0 0 -1.7338887641557914 -0.15530051790620036 0 -0.15530051790620036 -0.46455686583180555 0 0 0 0 -40.301157688274543 44.211090551159032 0 44.211090551159032 25.898387372506249 0 0 0 0 2.1992257472343226 -10.936088103658179 0 -10.936088103658179 -47.565655608388901 0 0 0 0 -16.888904188364638 5.7984564290343332 0 5.7984564290343332 -1.1146844023847904 0 0 0 0 13.170309836701108 57.19722633952091 0 57.19722633952091 -105.61213912662356 0 0 0 0 8.7296016400682674 4.0115446289313752 0 4.0115446289313752 -41.993254934837864 0 0 0 0 4.6445064647288063 23.900180381527427 0 23.900180381527427 -24.400581449567071 0 0 0 0 -11.917467149142794 -4.6975194593982792 0 -4.6975194593982792 -45.184635439421704 0 0 0 0 10.499360045991125 5.540071426108284 0 5.540071426108284 -13.260909994458189 0 0 0 0 -3.5023625515464119 -5.477548201853466 0 -5.477548201853466 16.599590310285066 0 0 0 0 -0.044324143534717919 4.7253757972102433 0 4.7253757972102433 -0.63970455677738336 0 0 0 0 17.907548425835557 24.135008849570681 0 24.135008849570681 4.5979013180256061 0 0 0 0 -16.610708019640171 6.548661180394884 0 6.548661180394884 -0.9200592185839922 0 0 0 0 8.3208407884687858 42.360745829908339 0 42.360745829908339 -16.795475153327345 0 0 0 0 -69.019579755038649 -2.1406728797604728 0 -2.1406728797604728 19.954010939876753 0 0 0 0 -92.958726329996352 32.523778440327646 0 32.523778440327646 -4.1104261991210933 0 0 0 0 -54.562580541463831 31.935451176999663 0 31.935451176999663 -4.0349424550392996 0 0 0 0 -61.509018992777783 16.467594607317096 0 16.467594607317096 -7.9281225302318035 0 0 0 0 5.6411119309941569 -0.53118939022664335 0 -0.53118939022664335 -2.9088010200193821 0 0 0 0 -0.081133138937225846 0.094313763390498906 0 0.094313763390498906 -0.13141785238199466 0 0 0 0 -59.530494738397465 16.624521092724365 0 16.624521092724365 -18.746867469498284 0 0 0 0 5.3646925275184003 -0.28014293160515535 0 -0.28014293160515535 0.60790417950283882 0 0 0 0 8.740660885363468 3.3434242484386232 0 3.3434242484386232 -25.410156851160252 0 0 0 0 2.3909901914422624 3.5671109608470521 0 3.5671109608470521 -2.1862176311983177 0 0 0 0 6.0439560102549876 5.9796826224252868 0 5.9796826224252868 1.2009447480379549 0 0 0 0 -3.8414115947978189 6.5860570144677837 0 6.5860570144677837 -5.4298086025601719 0 0 0 0 11.759004832827486 -1.1826294171978589 0 -1.1826294171978589 -0.9012399186121911 0 0 0 0 7.6542991453279683 -4.8970024271584407 0 -4.8970024271584407 -4.5911122243866203 0 0 0 0 10.619221887358435 -2.8895866273564934 0 -2.8895866273564934 -3.3150759400273273 0 0 0 0 0.10356086530792563 2.3160978502277718 0 2.3160978502277718 -0.84245703607075217 0 0 0 0 -2.7982181254969873 3.7127287906693596 0 3.7127287906693596 -1.8828737093105019 0 0 0 0 -7.2446986393204043 7.5437407261936897 0 7.5437407261936897 -3.4107299562914477 0 0 0 0 5.4392687150402708 1.712830815215284 0 1.712830815215284 -0.61133202625552485 0 0 0 0 0.050875343993195266 1.8525034519088308 0 1.8525034519088308 -0.72678169813458915 0 0 0 0 5.6489638380935503 -0.63715879821359067 0 -0.63715879821359067 -2.53189109130426 0 0 0 0 1.3692314168754063 -0.34241804759041727 0 -0.34241804759041727 -0.83724303072835182 0 0 0 0 0.53700552180653371 3.7923848080357461 0 3.7923848080357461 -2.6521710288129725 0 0 0 0 5.3769606203222793 1.5070564307034147 0 1.5070564307034147 -0.35350956763124941 0 0 0 0 -12.117914887116967 5.3548834320862397 0 5.3548834320862397 -8.5618481198814607 0 0 0 0 0.44755322247093376 0.26383345749597709 0 0.26383345749597709 -0.26454142801949798 0 0 0 0 -29.243106035360597 -8.066392679421881 0 -8.066392679421881 -0.30465128094556349 0 0 0 0 -41.886803736177626 15.474049079846907 0 15.474049079846907 -4.818595091886209 0 0 0 0 -52.406163277459882 17.785969910930532 0 17.785969910930532 -13.936474412652842 0 0 0 0 -55.154419746058011 3.7459422839134504 0 3.7459422839134504 11.13527631969464 0 0 0 0 6.4903953175762581 0.62580164769934754 0 0.62580164769934754 1.2471732253170558 0 0 0 0 5.2820941542559012 0.72271280255199599 0 0.72271280255199599 1.2550947321988701 0 0 0 0 -145.51781668514195 225.38388810723805 0 225.38388810723805 -222.05692101502376 0 0 0 0 -1.2127528931654785 0.44542486273186643 0 0.44542486273186643 -0.79772084094302098 0 0 0 0 -65.747304499931033 3.1985494502273433 0 3.1985494502273433 -0.43269990181040185 0 0 0 0 -0.075188530001813803 1.4048698898077818 0 1.4048698898077818 -0.96339043563238791 0 0 0 0 -8.0519855365364492 7.3437554432816796 0 7.3437554432816796 -1.9637708487787506 0 0 0 0 -7.983165285612813 5.0914709454897036 0 5.0914709454897036 -0.53983124527107407 0 0 0 0 -172.34958703581742 138.65846729065007 0 138.65846729065007 -53.956767045349117 0 0 0 0 -46.731145085850585 -16.670542496587885 0 -16.670542496587885 -12.215315872939527 0 0 0 0 -286.75130020626807 72.5437971635926 0 72.5437971635926 79.342020873411826 0 0 0 0 -499.16132349434429 185.68896749376293 0 185.68896749376293 71.732740548989113 0 0 0 0 -231.80497384464422 -50.49791002193637 0 -50.49791002193637 19.104194825830362 0 0 0 0 -499.98940086537027 60.365601845842853 0 60.365601845842853 80.629447995063444 0 0 0 0 -159.54329910139086 60.379248466027285 0 60.379248466027285 -22.322883453795342 0 0 0 0 -3.3558409441792918 3.4413120579938967 0 3.4413120579938967 -3.276627909897567 0 0 0 0 -368.04967458218721 -66.84925280952659 0 -66.84925280952659 17.97713161550563 0 0 0 0 -1.729361003664053 1.5981455903814208 0 1.5981455903814208 0.015687701226852369 0 0 0 0 0.46387348516670635 1.2434169059436861 0 1.2434169059436861 0.40140088757537207 0 0 0 0 1.2283015975759959 2.4326888654089363 0 2.4326888654089363 -0.76313831633575058 0 0 0 0 -32.972566250211457 7.01303105301713 0 7.01303105301713 5.394446019537213 0 0 0 0 -9.1760705542319556 4.1917534337046618 0 4.1917534337046618 -0.5913759809864132 0 0 0 0 -28.410957325633717 11.152320408005153 0 11.152320408005153 3.0010454057378411 0 0 0 0 -29.556557353480002 7.5376071224441148 0 7.5376071224441148 -6.204375558584843 0 0 0 0 -4.6942911650307906 11.381422667286984 0 11.381422667286984 1.6430529838623897 0 0 0 0 -2.2828387722608561 1.8012533517262286 0 1.8012533517262286 0.83138006892449123 0 0 0 0 -4.0973044559723348 3.5294044220693195 0 3.5294044220693195 -0.98692867289219066 0 0 0 0 -3.7888381675010372 5.3502300658193684 0 5.3502300658193684 -4.6128203594277482 0 0 0 0 -10.352870469831032 -2.4493912749667572 0 -2.4493912749667572 6.9969810808352122 0 0 0 0 -17.933694042472325 -1.3473390331672022 0 -1.3473390331672022 9.3661417905680082 0 0 0 0 -13.412245164661726 -1.1769891066311402 0 -1.1769891066311402 8.7056195643160663 0 0 0 0 8.2952869791229205 2.4721439517476824 0 2.4721439517476824 -3.9528289355603192 0 0 0 0 0.05310468926593459 0.3549933689332132 0 0.3549933689332132 -2.1865141452413908 0 0 0 0 5.4440479234194754 8.286962845979474 0 8.286962845979474 -7.1484215868176761 0 0 0 0 -0.81695764325338516 0.99425009818804 0 0.99425009818804 1.6552114344575766 0 0 0 0 -14.690578901019762 2.9428415301362634 0 2.9428415301362634 0.4024056750163254 0 0 0 0 -0.086050807868089052 1.0689045837683047 0 1.0689045837683047 2.3318540478020013 0 0 0 0 -32.160951413716703 12.086752787524915 0 12.086752787524915 -0.65750579656673835 0 0 0 0 -29.271188566932324 16.645438945643036 0 16.645438945643036 3.6939644248909076 0 0 0 0 -43.848513770882391 20.129490685870707 0 20.129490685870707 4.0495322374169973 0 0 0 0 -34.54496746347013 4.4251439477502572 0 4.4251439477502572 1.1391304900414525 0 0 0 0 -48.920217543090075 11.070409662104908 0 11.070409662104908 -11.941848978247322 0 0 0 0 -61.617652277836896 21.150951500793951 0 21.150951500793951 5.7581695953118697 0 0 0 0 -50.350955516326394 24.812393615939754 0 24.812393615939754 12.884542633778509 0 0 0 0 -57.447328096213823 14.774592336674857 0 14.774592336674857 1.4766592305621771 0 0 0 0 -8.7575389214593997 0.7382342650822693 0 0.7382342650822693 4.2323024400214422 0 0 0 0 -9.3902213784149353 -2.0028372083921795 0 -2.0028372083921795 5.6768540803357155 0 0 0 0 4.2995873237218802 -15.290968002937973 0 -15.290968002937973 16.512794363697481 0 0 0 0 -1.5022637370205043 -1.6000981469535889 0 -1.6000981469535889 -0.49836561327021611 0 0 0 0 -6.1057521286547853 17.661437803659112 0 17.661437803659112 -23.291803685970365 0 0 0 0 -31.48650917500936 -0.07330244373270034 0 -0.07330244373270034 29.818030994596029 0 0 0 0 -16.214996671112658 21.410881883128127 0 21.410881883128127 -8.7756926767742698 0 0 0 0 -7.9299528202516285 8.7251253298969971 0 8.7251253298969971 6.4734360083507454 0 0 0 0 -19.402904248686355 -11.486097670433423 0 -11.486097670433423 -5.0253410987411087 0 0 0 0 -2.354152957105498 3.4614494332871715 0 3.4614494332871715 -15.695256647186625 0 0 0 0 -0.39752284681397043 0.084107688329124741 0 0.084107688329124741 -0.14718741822274506 0 0 0 0 -32.955739632536961 22.557573640769277 0 22.557573640769277 -9.9522484365195396 0 0 0 0 24.517825579828241 -80.883813523163269 0 -80.883813523163269 -2.0523394082040447 0 0 0 0 -1.6162432178334711 56.354261066411027 0 56.354261066411027 5.6514220721539914 0 0 0 0 -60.40423724280754 26.883135242309208 0 26.883135242309208 -28.521240731676301 0 0 0 0 -64.429123909871123 20.348642460923941 0 20.348642460923941 -6.8639351744063788 0 0 0 0 -79.214460364409661 31.729770963645734 0 31.729770963645734 -5.4624252840071676 0 0 0 0 -53.059509267391604 33.247702618489463 0 33.247702618489463 -13.912273105594636 0 0 0 0 -59.001754973232892 10.624637526650417 0 10.624637526650417 4.7137708337311324 0 0 0 0 -1.1537764817577703 -1.3234055497360764 0 -1.3234055497360764 -0.87038447573114297 0 0 0 0 -23.74550887062469 6.4623401152886117 0 6.4623401152886117 12.303212737335343 0 0 0 0 -28.863075585287334 16.851750924934208 0 16.851750924934208 12.579072740374613 0 0 0 0 -1.7026146415081769 0.003917849187150324 0 0.003917849187150324 4.6350754740645614 0 0 0 0 -14.34534921463819 4.7108065868551421 0 4.7108065868551421 -5.7118551697080875 0 0 0 0 -3.1981109080367744 1.4000880877284132 0 1.4000880877284132 0.42631531140930079 0 0 0 0 -12.482728115083773 18.999111127852075 0 18.999111127852075 1.4366218408713394 0 0 0 0 -6.7522982424579823 8.3598697391862515 0 8.3598697391862515 13.334886610964986 0 0 0 0 -19.383853600116709 -4.8057228471476492 0 -4.8057228471476492 7.7247146729837368 0 0 0 0 -3.1001599206410901 2.2300617374642542 0 2.2300617374642542 -0.34844204904629805 0 0 0 0 -1.6867694456700733 0.37930248340226491 0 0.37930248340226491 1.1076102984962759 0 0 0 0 -3.1242547033856454 2.5425288981125149 0 2.5425288981125149 0.5548539840669946 0 0 0 0 -4.3337040402875573 0.97495080961380154 0 0.97495080961380154 1.8685355083191553 0 0 0 0 -4.5678070437716087 3.7708033890565957 0 3.7708033890565957 -0.50774839880750733 0 0 0 0 -12.255294134378346 1.5299282989603853 0 1.5299282989603853 0.16523785749632225 0 0 0 0 -3.208828780530439 3.8866373541458472 0 3.8866373541458472 2.7195432089192764 0 0 0 0 -3.3335171388789604 3.1450879955475557 0 3.1450879955475557 1.2450464282901521 0 0 0 0 -4.7596611396784283 2.8262413054811759 0 2.8262413054811759 1.6675878064775134 0 0 0 0 -3.7019385610001336 3.7605854794962852 0 3.7605854794962852 0.21949650134763488 0 0 0 0 -1.6212669449523673 2.8203069560493077 0 2.8203069560493077 0.12323812525823996 0 0 0 0 -1.8598296783347905 4.8673788476780828 0 4.8673788476780828 1.5364200849948304 0 0 0 0 -2.3995472725800937 5.2238204904538179 0 5.2238204904538179 2.3584675168728495 0 0 0 0 -0.40042296910723962 4.7618111488845898 0 4.7618111488845898 3.1516962724367659 0 0 0 0 -2.863108082627484 2.165264595435378 0 2.165264595435378 0.30876400132680004 0 0 0 0 -6.5758523281670236 2.4488703227286379 0 2.4488703227286379 1.4280521890853528 0 0 0 0 -15.053055239810419 3.8711271524412041 0 3.8711271524412041 0.081483233385370113 0 0 0 0 -14.124949260663016 3.5074608379242136 0 3.5074608379242136 -0.47510932278828477 0 0 0 0 -7.82519885658985 2.8411946989799617 0 2.8411946989799617 2.2648018038016744 0 0 0 0 -8.8408509409479166 2.7365704922573659 0 2.7365704922573659 1.6292170334223579 0 0 0 0 -7.2733275175575116 4.568818732231759 0 4.568818732231759 0.88176859096860349 0 0 0 0 1.6726161740625685 5.4087612933813034 0 5.4087612933813034 3.1812788935585559 0 0 0 0 -3.9833848411356954 4.3344125762267645 0 4.3344125762267645 4.373997647515619 0 0 0 0 -5.4483720511931999 4.0228994779483376 0 4.0228994779483376 0.10281095732054446 0 0 0 0 -3.1266253688166934 4.5599710401822335 0 4.5599710401822335 -1.725796483035321 0 0 0 0 -5.6011049942474216 -0.99116513278761342 0 -0.99116513278761342 0.47983995899832443 0 0 0 0 -2.8467122189967995 -2.2114866177128079 0 -2.2114866177128079 -4.5559562762399253 0 0 0 0 -14.304742853676174 1.6318852148511525 0 1.6318852148511525 1.1284693203147071 0 0 0 0 -3.6750244067835638 7.7132194731840329 0 7.7132194731840329 -11.73720735013103 0 0 0 0 -8.6211834332352737 1.690866179391719 0 1.690866179391719 -3.4951588518147219 0 0 0 0 -27.899447501680697 7.2099414826044494 0 7.2099414826044494 -2.7474064181565154 0 0 0 0 -5.2507423435445162 5.6380607551257071 0 5.6380607551257071 -3.100408753897085 0 0 0 0 -4.939180491077785 3.0398910878666019 0 3.0398910878666019 -2.7555253462369356 0 0 0 0 -6.5498049957732292 17.195649804978302 0 17.195649804978302 25.758946256937179 0 0 0 0 24.113653251006326 35.915223198928913 0 35.915223198928913 16.008299490694753 0 0 0 0 -5.0758359073915926 -0.99948440014804873 0 -0.99948440014804873 25.270116510967 0 0 0 0 19.260921032373062 15.28986980053304 0 15.28986980053304 25.025497302581243 0 0 0 0 -21.547459491412155 18.73998241262052 0 18.73998241262052 26.20751795031947 0 0 0 0 -16.916384329832908 10.889546077719501 0 10.889546077719501 35.705998719717627 0 0 0 0 -13.643153194004299 1.5414096969475395 0 1.5414096969475395 -1.9749253126608437 0 0 0 0 23.523903550922114 -18.640503230405557 0 -18.640503230405557 19.390119150722967 0 0 0 0 11.030833414113658 52.360010238236782 0 52.360010238236782 31.083366722034498 0 0 0 0 -30.78604846228518 0.77357889181791961 0 0.77357889181791961 -0.94856176320922714 0 0 0 0 -2.5021766837450201 2.7529319998593191 0 2.7529319998593191 -2.6385091280763957 0 0 0 0 -0.036379810124746115 -0.13369478482122155 0 -0.13369478482122155 -0.21060000323211892 0 0 0 0 24.0852629860874 22.633403749596482 0 22.633403749596482 8.0388255106984161 0 0 0 0 -3.7882138059467252 38.087067964196649 0 38.087067964196649 31.766639047160808 0 0 0 0 -60.563055623286346 66.528278501733553 0 66.528278501733553 -6.560920001517843 0 0 0 0 -72.261660018606563 28.258412811900371 0 28.258412811900371 30.529917398446287 0 0 0 0 2.1546734436269617 42.939343210591005 0 42.939343210591005 21.087541645249075 0 0 0 0 -14.510501500273676 26.462226612363565 0 26.462226612363565 22.799330984321244 0 0 0 0 -11.954539107737219 29.506959084985738 0 29.506959084985738 7.5332633348612035 0 0 0 0 -17.51042026099276 -29.695651858662188 0 -29.695651858662188 45.757627503133563 0 0 0 0 -147.02321907362239 8.1826962839977568 0 8.1826962839977568 75.171266327380948 0 0 0 0 -52.324797831931392 -27.903699926650631 0 -27.903699926650631 69.802267663826115 0 0 0 0 -7.9955249703853042 -23.919154018349502 0 -23.919154018349502 23.389092772700224 0 0 0 0 -26.986616876372864 -12.111991328978775 0 -12.111991328978775 17.786948094151739 0 0 0 0 -23.049854613640491 9.830138156910607 0 9.830138156910607 36.34210255284097 0 0 0 0 -12.833907835693708 -1.4671134692824239 0 -1.4671134692824239 -19.482720958703794 0 0 0 0 -12.954051477003304 -1.2688510084260827 0 -1.2688510084260827 25.617322359977152 0 0 0 0 6.0007545119988208 2.1400495059359059 0 2.1400495059359059 -2.1896880466215407 0 0 0 0 0.01785173193865619 -0.69688400275347462 0 -0.69688400275347462 2.4088470535053927 0 0 0 0 7.2678830583363379 0.02560748871371743 0 0.02560748871371743 -7.9526986976040348 0 0 0 0 0.116760860337358 -0.010541451777799082 0 -0.010541451777799082 0.3529464903685815 0 0 0 0 -22.462025473563699 -7.9606786980874062 0 -7.9606786980874062 20.436943105059754 0 0 0 0 10.451655261662381 -9.3411261389315996 0 -9.3411261389315996 -1.8541086448153692 0 0 0 0 7.5383024053753616 10.416805457848568 0 10.416805457848568 -8.7589513647129706 0 0 0 0 -8.5706308420121786 12.543696714911903 0 12.543696714911903 7.7020104099880768 0 0 0 0 -7.306316515778235 -15.584419723335373 0 -15.584419723335373 11.972418726914157 0 0 0 0 -0.30259017225977658 0.030532656292701077 0 0.030532656292701077 0.32336952174751765 0 0 0 0 -17.77829732466671 3.1935439434948876 0 3.1935439434948876 2.4058796115473342 0 0 0 0 0.29708299231936763 0.35303077257718485 0 0.35303077257718485 0.41355594755706648 0 0 0 0 1.5839663613933226 -1.3308239887501259 0 -1.3308239887501259 1.6467890036564086 0 0 0 0 1.7903518143793917 0.51353234983105267 0 0.51353234983105267 0.90982241921852847 0 0 0 0 2.3251457868900616 0.33934000516654805 0 0.33934000516654805 -0.11032829373129971 0 0 0 0 1.4656198338452668 0.022359265234740633 0 0.022359265234740633 0.2525153180840789 0 0 0 0 2.2091784635013028 0.068459806628311526 0 0.068459806628311526 -0.5797601382424773 0 0 0 0 -16.876606942340004 -1.2871155093608877 0 -1.2871155093608877 1.021447039687132 0 0 0 0 0.13549452840176102 0.42535647364085349 0 0.42535647364085349 0.92712365825679743 0 0 0 0 -18.442019400958088 5.1597989061633029 0 5.1597989061633029 8.0110805560907465 0 0 0 0 -10.785144880352163 1.5023450746584786 0 1.5023450746584786 1.2678134544530621 0 0 0 0 1.660768785934124 9.6243683737305332 0 9.6243683737305332 2.045800070713085 0 0 0 0 -1.3637162346367404 -1.1931668712243209 0 -1.1931668712243209 0.84357372963125954 0 0 0 0 0.095061360719228105 0.064006989775862166 0 0.064006989775862166 -1.2386698446555329 0 0 0 0 0.92313785843361984 -0.0224450562839138 0 -0.0224450562839138 0.35305357731249387 0 0 0 0 1.752514010953746 -0.40074500135199287 0 -0.40074500135199287 0.038952833811833898 0 0 0 0 1.7958812265369488 0.80772471699856396 0 0.80772471699856396 -2.1440541129245503 0 0 0 0 0.67726695187593577 -1.2575675466008533 0 -1.2575675466008533 -3.0696329464765313 0 0 0 0 1.523110675179737 0.65023755758487312 0 0.65023755758487312 -2.2346108549995733 0 0 0 0 1.5428932311315293 0.9515274454485052 0 0.9515274454485052 -1.9029176992810335 0 0 0 0 1.1447280074889932 -0.80365394039745297 0 -0.80365394039745297 -7.6213220956211671 0 0 0 0 -1.4142292499254836 -1.5307230601882793 0 -1.5307230601882793 -2.1946794126430405 0 0 0 0 2.8013229397747637 5.0908021848008502 0 5.0908021848008502 -9.9000118659097325 0 0 0 0 4.759929354110227 2.0781475623682013 0 2.0781475623682013 -6.4066117861489147 0 0 0 0 2.8232942201601077 4.580273810468185 0 4.580273810468185 -3.0089121515602528 0 0 0 0 1.0487175503167236 3.3520380348946901 0 3.3520380348946901 -3.7968255844393184 0 0 0 0 0.21453169516098569 7.8455633455198495 0 7.8455633455198495 -2.4628463687354838 0 0 0 0 -0.59437340365184355 6.1557491432663483 0 6.1557491432663483 -3.7086371741914945 0 0 0 0 0.562921378662395 8.9641285855465753 0 8.9641285855465753 -0.97666972712556799 0 0 0 0 3.7819381008230266 10.243076434335876 0 10.243076434335876 -6.0530754858469322 0 0 0 0 0.14094195135650178 0.47223170267406189 0 0.47223170267406189 1.1400514338520189 0 0 0 0 -10.977561329564196 4.371756712190745 0 4.371756712190745 1.3413002026906042 0 0 0 0 -7.5055400727997039 0.81998200918098973 0 0.81998200918098973 0.84065674181920258 0 0 0 0 -4.8538855387087096 3.8312986933699449 0 3.8312986933699449 -2.5154719325676069 0 0 0 0 1.1650960353545088 1.9224020564565762 0 1.9224020564565762 0.10861178274049621 0 0 0 0 -0.69105001435218583 3.1720830226244061 0 3.1720830226244061 -0.71231756464004548 0 0 0 0 -3.5732710473457701 5.4526234762662398 0 5.4526234762662398 -0.37677643810897621 0 0 0 0 0.048179099926755953 3.8804374707137015 0 3.8804374707137015 -0.13414005335425827 0 0 0 0 -4.1263916522038926 1.8994108389613302 0 1.8994108389613302 -0.93328323098671717 0 0 0 0 -6.5138740484412665 2.6162837133023089 0 2.6162837133023089 1.8584105876725516 0 0 0 0 -5.0422300740765422 2.0699771213458007 0 2.0699771213458007 2.3066314971947577 0 0 0 0 -0.60662704667968281 0.6283105380760361 0 0.6283105380760361 1.2902354731012542 0 0 0 0 -5.7931200479397376 3.2186754955782817 0 3.2186754955782817 1.7645389235403854 0 0 0 0 -0.86772710246214046 3.5064114421791999 0 3.5064114421791999 2.2542989642242901 0 0 0 0 -2.8881840980586446 2.262812747040341 0 2.262812747040341 0.33485600012542704 0 0 0 0 -18.847771981665574 -1.1759472767928401 0 -1.1759472767928401 0.79030246055231146 0 0 0 0 -9.9057406964038819 6.8348202531705056 0 6.8348202531705056 1.3379383433202747 0 0 0 0 0.10269638810314063 9.4251349474617996 0 9.4251349474617996 -0.19722638553855631 0 0 0 0 -17.673823109672412 6.5235337222390513 0 6.5235337222390513 7.4496966987950373 0 0 0 0 -10.032452978566653 -2.0088488173006454 0 -2.0088488173006454 4.4056436571645037 0 0 0 0 -12.964190589528243 13.362043672894558 0 13.362043672894558 2.0324948517557004 0 0 0 0 -1.9704969775111749 11.451168573043105 0 11.451168573043105 10.825850259346225 0 0 0 0 -7.8088009825736506 4.056687545043312 0 4.056687545043312 1.2121628963573103 0 0 0 0 -4.355119727843376 2.983108356972286 0 2.983108356972286 1.4525867789297235 0 0 0 0 -2.4199084415637735 2.9230540028002387 0 2.9230540028002387 0.022423455836584338 0 0 0 0 7.1886486144903756 15.320414921008819 0 15.320414921008819 -3.7586413389765312 0 0 0 0 4.6597162127022784 2.2303976538992458 0 2.2303976538992458 -3.3044758487403669 0 0 0 0 0.97824135971371007 0.59657706555761258 0 0.59657706555761258 -0.069083983401254212 0 0 0 0 -4.601593299779779 6.6776553877243714 0 6.6776553877243714 4.9480935550897129 0 0 0 0 -5.97953155400279 15.42554184364111 0 15.42554184364111 15.093568701659024 0 0 0 0 -5.8234398261532476 10.321574084876257 0 10.321574084876257 2.0752348806427108 0 0 0 0 -0.83964398493117187 7.9630206253885945 0 7.9630206253885945 -1.0197404256937261 0 0 0 0 2.3933728354149935 5.8763491105671619 0 5.8763491105671619 -0.62016751579892571 0 0 0 0 -2.6804372435617552 3.6960820796581402 0 3.6960820796581402 6.0703286211287377 0 0 0 0 -0.67716665045372793 9.5071545718360539 0 9.5071545718360539 4.9707857385901093 0 0 0 0 -6.0431395235132186 8.326298116477119 0 8.326298116477119 0.84191193677452247 0 0 0 0 -9.1341400844003147 2.848904941875162 0 2.848904941875162 2.7284083107230117 0 0 0 0 -11.737365216076796 7.7995770073194421 0 7.7995770073194421 3.2905350921826084 0 0 0 0 3.8698255378785689 5.5764374950186948 0 5.5764374950186948 0.328369802010684 0 0 0 0 -0.71038367994378859 5.5104322822996323 0 5.5104322822996323 0.58958524364061304 0 0 0 0 -4.0936718393240881 8.1374750123011381 0 8.1374750123011381 1.9245611464387924 0 0 0 0 -4.5451732368746889 5.5514274561438128 0 5.5514274561438128 1.9537237760591779 0 0 0 0 -3.7684983958497469 8.5533554860902541 0 8.5533554860902541 3.3951453348282712 0 0 0 0 -0.73810360525203578 5.5896442202678998 0 5.5896442202678998 1.6129837120640786 0 0 0 0 -1.0390374605472061 7.1749645464509513 0 7.1749645464509513 4.5759741304834733 0 0 0 0 -6.2785212388510701 2.1323253322156202 0 2.1323253322156202 0.40481176131304908 0 0 0 0 -3.8589203636220191 7.9071922728849131 0 7.9071922728849131 0.26567347555103993 0 0 0 0 -6.7192843473085304 4.6516856025284881 0 4.6516856025284881 1.2426530371058107 0 0 0 0 0.12556650963645311 0.32965585377303164 0 0.32965585377303164 0.14461478713264464 0 0 0 0 -0.065028694226839434 16.169898164550887 0 16.169898164550887 -3.1558383470544413 0 0 0 0 -19.061421964104738 9.2654571743612735 0 9.2654571743612735 -4.188250224800413 0 0 0 0 -17.445913374579504 0.024532541510950523 0 0.024532541510950523 7.1953244605588225 0 0 0 0 1.2796165340696461 2.0614994429531635 0 2.0614994429531635 -1.5604609602419828 0 0 0 0 -7.1389630304029073 4.3097889512958929 0 4.3097889512958929 1.274017522265992 0 0 0 0 -2.267625387060443 0.34982642335801373 0 0.34982642335801373 0.2386183585038486 0 0 0 0 -4.7889595379692622 3.349656662232471 0 3.349656662232471 1.929353877186144 0 0 0 0 -1.6886239446596099 -0.21085564918938715 0 -0.21085564918938715 2.3179240905998446 0 0 0 0 -5.2371318569967116 3.6310642027656286 0 3.6310642027656286 2.6428497475417316 0 0 0 0 -4.2197006469444673 2.8088899910266427 0 2.8088899910266427 0.057162874489453674 0 0 0 0 -8.3715397366777324 3.2964776188049427 0 3.2964776188049427 4.1697230120336144 0 0 0 0 -5.812825956790352 2.7956229946790376 0 2.7956229946790376 0.44839110378809366 0 0 0 0 -3.3183334972350167 3.9744970817603757 0 3.9744970817603757 2.3822407798638778 0 0 0 0 -7.7991354784080613 -1.8903417825582665 0 -1.8903417825582665 0.56365728844360774 0 0 0 0 -15.252347822739466 -2.322967532404391 0 -2.322967532404391 0.69949661171267508 0 0 0 0 -12.177930024535272 3.6351416785125821 0 3.6351416785125821 1.8478043422911696 0 0 0 0 -8.9675810905428079 2.6541214903263608 0 2.6541214903263608 0.034422622465172026 0 0 0 0 -9.0720233374404415 6.0686808778282284 0 6.0686808778282284 0.20247493714805387 0 0 0 0 1.4848698875402988 0.98353280774631457 0 0.98353280774631457 -15.091829283801758 0 0 0 0 -4.7108003676466979 4.0077186575608721 0 4.0077186575608721 -0.006753045426648896 0 0 0 0 -0.85040562562079058 2.1463959186056805 0 2.1463959186056805 0.29049039605090243 0 0 0 0 -3.9986346548057554 -0.30787662033969809 0 -0.30787662033969809 -2.3969228457908685 0 0 0 0 -15.38811869899655 5.4208447647290541 0 5.4208447647290541 17.413040033677021 0 0 0 0 0.39266892722642055 2.0880612423491485 0 2.0880612423491485 0.5218368588267861 0 0 0 0 -4.5478982502845611 14.518473381251397 0 14.518473381251397 -3.7198413683815943 0 0 0 0 -6.6834637652887068 0.42240331019721111 0 0.42240331019721111 1.721195828861255 0 0 0 0 -7.0579947743917728 -1.8132788662386474 0 -1.8132788662386474 -10.033683734397471 0 0 0 0 -6.2823382159676839 1.2890146577005908 0 1.2890146577005908 1.1232406590579558 0 0 0 0 -5.6705859980429523 8.2106251171949225 0 8.2106251171949225 7.9881101089683852 0 0 0 0 -16.732069332330411 13.336948005652857 0 13.336948005652857 3.9729729843920722 0 0 0 0 -7.3139989796472946 3.7905383328597964 0 3.7905383328597964 -7.8017906534541908 0 0 0 0 0.073689114157357238 0.082467698449627314 0 0.082467698449627314 0.11434900314178442 0 0 0 0 -20.909223639889206 1.4947910601067633 0 1.4947910601067633 4.3052852365851777 0 0 0 0 -17.137048557351591 8.0534654767434404 0 8.0534654767434404 -3.8406972728106439 0 0 0 0 -18.62648033219466 1.0276340539866169 0 1.0276340539866169 -2.6603919040085202 0 0 0 0 0.12504627108884225 2.21617975894004 0 2.21617975894004 0.68757043289484443 0 0 0 0 -22.113901251620973 4.5631442147790153 0 4.5631442147790153 1.6105347772877394 0 0 0 0 -1.286998011267479 0.21475497240659713 0 0.21475497240659713 0.49717440794499534 0 0 0 0 -17.577141235583213 5.3420521318424505 0 5.3420521318424505 -0.28155472477965304 0 0 0 0 -5.3198347449890662 4.4083949762643684 0 4.4083949762643684 0.79577018962368129 0 0 0 0 -0.5255188816372538 4.5342303296276896 0 4.5342303296276896 3.4622798435864297 0 0 0 0 -8.2569639306851741 2.583596349962626 0 2.583596349962626 4.13945952437507 0 0 0 0 -4.1012151718683612 2.4813964872365162 0 2.4813964872365162 0.37873862261072411 0 0 0 0 -0.77544926969130756 5.494869105141106 0 5.494869105141106 1.5983315472999493 0 0 0 0 -6.7128214855993065 -1.6787173611560888 0 -1.6787173611560888 3.6735052417302541 0 0 0 0 -3.1718896219341755 -0.70810462553916409 0 -0.70810462553916409 1.9919231598875324 0 0 0 0 -8.9949969264598622 -3.9099171389576668 0 -3.9099171389576668 2.5181596614138471 0 0 0 0 -9.4263471759368258 3.514090476743263 0 3.514090476743263 -0.65039186017111206 0 0 0 0 -14.21785320118579 3.7451712178281014 0 3.7451712178281014 1.5010396488941637 0 0 0 0 -16.553060533890402 1.5685688144080245 0 1.5685688144080245 0.48048688663402572 0 0 0 0 -16.553848969495448 4.3018993025455075 0 4.3018993025455075 0.8365787465497192 0 0 0 0 -13.527399347280152 0.55563967887951549 0 0.55563967887951549 1.8508866228871739 0 0 0 0 -23.784794740275174 9.2072311394049393 0 9.2072311394049393 6.8306439299012709 0 0 0 0 -17.729326700237834 7.3965687638402642 0 7.3965687638402642 7.3368113913556954 0 0 0 0 -7.1248733316811013 -2.3860252620967799 0 -2.3860252620967799 3.3515995364150513 0 0 0 0 -5.599189854391625 -1.6978336233805749 0 -1.6978336233805749 2.7203498426132455 0 0 0 0 -5.8547012115853931 -0.82900001781942478 0 -0.82900001781942478 3.7845744918718083 0 0 0 0 9.9661362787004464 -3.8956383501611072 0 -3.8956383501611072 0.27174192965071597 0 0 0 0 -30.166875104901919 -4.8429098731089653 0 -4.8429098731089653 15.408732206426066 0 0 0 0 -21.977015784887953 -3.7109531734840857 0 -3.7109531734840857 12.78604873101267 0 0 0 0 -1.8338163791468105 -36.003045107599746 0 -36.003045107599746 11.431661116464056 0 0 0 0 -19.522303573985482 15.844582065852592 0 15.844582065852592 14.706041537925557 0 0 0 0 -21.433899078027025 4.5083773509031744 0 4.5083773509031744 15.685138828963318 0 0 0 0 -40.862739790180058 5.817736458730451 0 5.817736458730451 16.633540634151927 0 0 0 0 -31.589730321434217 -3.4335056338539971 0 -3.4335056338539971 25.005913250613048 0 0 0 0 -89.910327259585756 9.345732869294352 0 9.345732869294352 26.145109577590318 0 0 0 0 -32.65736372192805 18.602150192329418 0 18.602150192329418 16.943698810782735 0 0 0 0 -7.6660303443932207 4.9973783743316744 0 4.9973783743316744 4.826531324214784 0 0 0 0 -0.47793470902475121 0.32742922746458181 0 0.32742922746458181 -0.30767387314889483 0 0 0 0 -2.1092501333805558 7.068752816826418 0 7.068752816826418 -24.311768869139115 0 0 0 0 -36.888489609962562 31.291343169352331 0 31.291343169352331 -18.811673530432245 0 0 0 0 -45.346468918973187 27.370706045789234 0 27.370706045789234 -27.020173859845499 0 0 0 0 -0.070865056504566759 0.05846676747463242 0 0.05846676747463242 0.35080417863234459 0 0 0 0 9.0904052012060674 7.8505322175641368 0 7.8505322175641368 -1.2593418128370786 0 0 0 0 -59.151443874717643 -36.327548529581236 0 -36.327548529581236 28.331359449107367 0 0 0 0 -36.336395352861473 -13.366410911801495 0 -13.366410911801495 13.871745794350886 0 0 0 0 -28.989335623223269 -5.908475982570053 0 -5.908475982570053 8.0407179935353952 0 0 0 0 -23.15792773753401 -12.988034672328354 0 -12.988034672328354 12.087358009439413 0 0 0 0 -5.8420397979016343 4.3518835560505522 0 4.3518835560505522 -2.9235659463297452 0 0 0 0 -55.260126994176971 -23.909838189168113 0 -23.909838189168113 7.2234994555306002 0 0 0 0 -0.47385553908497435 -0.37979552998782573 0 -0.37979552998782573 1.3563346113066617 0 0 0 0 -7.153581656993083 -18.926676291995705 0 -18.926676291995705 -16.742121854049174 0 0 0 0 -75.135391492078497 9.1881811112648393 0 9.1881811112648393 14.079552433366416 0 0 0 0 4.0260277262932505 -7.9025469485993654 0 -7.9025469485993654 -51.258925551851689 0 0 0 0 -0.9059312621570097 1.087954139941953 0 1.087954139941953 -0.76418342626749247 0 0 0 0 -38.448041849905167 2.5803792612739471 0 2.5803792612739471 13.500402273698683 0 0 0 0 -82.461100848887327 -13.398745310020217 0 -13.398745310020217 -2.2648624085697975 0 0 0 0 -89.012010472976499 -3.8857116181782771 0 -3.8857116181782771 28.791827847845298 0 0 0 0 -91.339970142248603 -11.425154628564883 0 -11.425154628564883 8.4909107285072878 0 0 0 0 -89.906624854334041 -20.49050725225834 0 -20.49050725225834 31.266266718774659 0 0 0 0 -79.002013835955495 -28.010493816830376 0 -28.010493816830376 1.8028758146731434 0 0 0 0 -85.012659077554417 -19.57205945395458 0 -19.57205945395458 7.3796177676116486 0 0 0 0 -92.584963464697012 7.0047441992624613 0 7.0047441992624613 -9.1541847525950288 0 0 0 0 -132.63882384492854 -40.448717679459264 0 -40.448717679459264 -5.3063290921445656 0 0 0 0 -0.52065649562146099 0.49352772532126998 0 0.49352772532126998 -0.17203957887582266 0 0 0 0 4.6826671562821502 -4.1746555298401518 0 -4.1746555298401518 -30.962923299251997 0 0 0 0 -25.764440161645325 -29.645624701366842 0 -29.645624701366842 -7.3395988124650557 0 0 0 0 -60.520898387777379 -24.762806706849688 0 -24.762806706849688 -37.673443080635252 0 0 0 0 -73.29082973473669 -33.020707543978688 0 -33.020707543978688 15.925212872029988 0 0 0 0 14.959073981407528 18.858887927067599 0 18.858887927067599 13.70210293976811 0 0 0 0 0.62477733608302088 -0.553053126513392 0 -0.553053126513392 0.79382409052657366 0 0 0 0 -116.26461702598772 -8.4621367813809911 0 -8.4621367813809911 32.445838686204524 0 0 0 0 -141.2118360282102 -46.902156165791666 0 -46.902156165791666 75.801601552343072 0 0 0 0 -3.5214927956535576 13.635228741470485 0 13.635228741470485 -14.410172836696802 0 0 0 0 -0.72414698966978897 0.60387730027692399 0 0.60387730027692399 -0.77503086592244141 0 0 0 0 -0.41277714991377579 -0.16441430401484602 0 -0.16441430401484602 -0.21996504113084647 0 0 0 0 1.2593315100630207 23.700835656749632 0 23.700835656749632 -31.31913126372865 0 0 0 0 -111.1032966104558 31.221716462136214 0 31.221716462136214 -24.940615132128642 0 0 0 0 -8.6559913679811871 -14.413541196238157 0 -14.413541196238157 -9.7761288770706756 0 0 0 0 -7.1637585977114213 32.979408703102763 0 32.979408703102763 -4.1162624190512673 0 0 0 0 -31.908009502524465 -18.917665382081381 0 -18.917665382081381 -1.6048448936544446 0 0 0 0 -15.057303802327624 1.5396060274149477 0 1.5396060274149477 4.5999824522957624 0 0 0 0 14.121613955567227 25.701853794359579 0 25.701853794359579 0.15200481326996851 0 0 0 0 -0.49272968473126966 0.21924317734292309 0 0.21924317734292309 0.057146157727945734 0 0 0 0 9.6805122758603375 -4.6357901088062405 0 -4.6357901088062405 -6.5696860547598135 0 0 0 0 -14.925072039383849 0.69292776089082508 0 0.69292776089082508 -1.4270179800922733 0 0 0 0 0.43089324168340681 26.322833637108602 0 26.322833637108602 17.774918153987528 0 0 0 0 -37.979067240024506 -7.2987639343868267 0 -7.2987639343868267 -6.6462990757011084 0 0 0 0 -0.11716217918740268 0.34207383573729722 0 0.34207383573729722 -0.4380510396895545 0 0 0 0 -54.804047532807999 1.5303337897881875 0 1.5303337897881875 -0.52780030738269801 0 0 0 0 -27.15763789027551 -3.8380905552806439 0 -3.8380905552806439 29.304592091398263 0 0 0 0 -0.14294761587848459 0.46716471735986786 0 0.46716471735986786 -1.5000296667862196 0 0 0 0 -73.83902865168784 -19.821614770594692 0 -19.821614770594692 -0.99067461794879819 0 0 0 0 -47.337080408955444 -5.0730109769701812 0 -5.0730109769701812 -13.432304240593567 0 0 0 0 -82.75159837640058 -17.015299119226711 0 -17.015299119226711 9.1347374487909292 0 0 0 0 -128.25127216028341 -39.036304025989693 0 -39.036304025989693 15.43225211564797 0 0 0 0 -45.127706468971155 1.0007386378455294 0 1.0007386378455294 -4.7473563276664663 0 0 0 0 -21.545098113818312 1.7590590011345739 0 1.7590590011345739 -2.4412265638522967 0 0 0 0 -0.16458569872878526 0.60153345589498741 0 0.60153345589498741 -2.5091011498182327 0 0 0 0 -24.503826123926956 3.5532895959466941 0 3.5532895959466941 -1.3802719335883467 0 0 0 0 -6.1867571166612834 1.9674482978535934 0 1.9674482978535934 -4.1921465908097844 0 0 0 0 -8.849221648778439 12.741984131558354 0 12.741984131558354 -1.5915703238888455 0 0 0 0 -19.468863920657896 16.906727023360077 0 16.906727023360077 -1.97724815232948 0 0 0 0 -15.261892709667336 8.8127262346894213 0 8.8127262346894213 -1.0838660528071387 0 0 0 0 -15.889272037242336 3.1058544673245478 0 3.1058544673245478 -4.6247529541506083 0 0 0 0 -12.169583907224478 10.151702336412995 0 10.151702336412995 -3.5882342327695369 0 0 0 0 -12.546379118196455 5.6398739508447306 0 5.6398739508447306 1.4469507663011427 0 0 0 0 -3.9123537849736749 5.5192113421662725 0 5.5192113421662725 -3.0145582974307672 0 0 0 0 -10.233768113657788 -2.1915892655329117 0 -2.1915892655329117 -0.59549937852739276 0 0 0 0 -10.609262335232415 4.4817963453012908 0 4.4817963453012908 2.1331647417775912 0 0 0 0 -30.107165855773019 3.9598997403330713 0 3.9598997403330713 4.869685558371657 0 0 0 0 19.577109023197409 -0.71945504169980268 0 -0.71945504169980268 -4.3573506692036972 0 0 0 0 8.8891349278092093 -3.3234659713477868 0 -3.3234659713477868 -2.2448497014388522 0 0 0 0 6.9603219193968471 7.7784943968877371 0 7.7784943968877371 -4.3469573421334644 0 0 0 0 11.677423476892727 2.0468290896451435 0 2.0468290896451435 -5.5503653389025658 0 0 0 0 -1.1405336169700604 3.0760459831433309 0 3.0760459831433309 -2.9434546060022058 0 0 0 0 7.634104482622206 1.8119377225518747 0 1.8119377225518747 -6.0859578498857445 0 0 0 0 2.6933530656478979 0.83058844606307503 0 0.83058844606307503 -3.6387068021797404 0 0 0 0 -1.0351844798142338 5.8389242545385969 0 5.8389242545385969 -5.2394094968435638 0 0 0 0 -7.0669089004713896 4.3687807735998376 0 4.3687807735998376 -1.89199255037488 0 0 0 0 -1.6951119890914015 9.6092694643248251 0 9.6092694643248251 -9.5777547513180252 0 0 0 0 -8.4129479372404603 5.3460668048919615 0 5.3460668048919615 -6.3755093920403851 0 0 0 0 -8.5692163095063734 10.096260905556704 0 10.096260905556704 -5.847597934197438 0 0 0 0 -20.497997495085201 13.122214349758224 0 13.122214349758224 -9.1446009558958394 0 0 0 0 -18.950079464722876 7.5968612522813146 0 7.5968612522813146 -2.5823762755535427 0 0 0 0 -10.685288856591797 1.9472155248799936 0 1.9472155248799936 0.23052560258861376 0 0 0 0 -4.3427670957416922 12.517646929140994 0 12.517646929140994 -13.130159863335848 0 0 0 0 -12.940410819130193 11.716799251572183 0 11.716799251572183 -26.998645517152909 0 0 0 0 -31.330892258731183 7.3631948398399345 0 7.3631948398399345 -5.6721840978578939 0 0 0 0 -56.501532445141493 9.4305013070617179 0 9.4305013070617179 1.7905927277422506 0 0 0 0 -0.18155734707915583 0.4661715913243345 0 0.4661715913243345 -2.6287722277929957 0 0 0 0 -48.742131861872622 -25.585684701400055 0 -25.585684701400055 -51.265309531590447 0 0 0 0 -38.423891801805439 23.25604287875808 0 23.25604287875808 -14.766694427149559 0 0 0 0 -34.703258174940402 -2.0834369173545042 0 -2.0834369173545042 -5.245727516341276 0 0 0 0 -20.302366805597558 6.0025656363142161 0 6.0025656363142161 -4.3852729097820884 0 0 0 0 -159.30793572030598 -92.92286410961492 0 -92.92286410961492 -8.5199815882860008 0 0 0 0 -114.74013568293503 44.688106033036092 0 44.688106033036092 -2.7632226594814711 0 0 0 0 -139.12406590491446 22.739356877435853 0 22.739356877435853 -6.9702266183539905 0 0 0 0 -0.43332019178858872 -0.76509718101914004 0 -0.76509718101914004 -0.60962455227154599 0 0 0 0 -257.41250031958816 9.4626462596003194 0 9.4626462596003194 21.809605829210795 0 0 0 0 -1.6669430648794581 0.73202447318039354 0 0.73202447318039354 -0.82367988049230956 0 0 0 0 -242.42485731448141 -93.569161599787378 0 -93.569161599787378 66.344814433555939 0 0 0 0 -23.242145327980325 39.345571318115162 0 39.345571318115162 -55.345510881877999 0 0 0 0 -143.34225174524545 79.72520765043987 0 79.72520765043987 -11.184744377998868 0 0 0 0 -0.11106416151548171 -0.046824029700195169 0 -0.046824029700195169 -1.1881853242745866 0 0 0 0 -48.898158783578765 -4.620970274263243 0 -4.620970274263243 -189.7687599522967 0 0 0 0 -121.5727989261286 14.735963358129538 0 14.735963358129538 72.120646590160732 0 0 0 0 -164.25977075560331 -8.1383163357631929 0 -8.1383163357631929 -16.539335163852684 0 0 0 0 -11.443053518102715 -11.518297183255982 0 -11.518297183255982 -49.059586177797996 0 0 0 0 -12.73011516391216 -21.718743808618683 0 -21.718743808618683 7.2880874093197008 0 0 0 0 0.46497828032827471 0.40589931961352388 0 0.40589931961352388 0.39500176332133785 0 0 0 0 -10.329659353375064 -21.50475335700537 0 -21.50475335700537 -6.4723055823258164 0 0 0 0 -11.435749832833608 -17.278419274250382 0 -17.278419274250382 15.872571776626501 0 0 0 0 -3.3319601313633029 -1.1315934180515796 0 -1.1315934180515796 -8.4737667675385637 0 0 0 0 3.0546226719457081 46.968460589323627 0 46.968460589323627 -140.14615707304301 0 0 0 0 10.162994452030944 10.912348129052361 0 10.912348129052361 -10.482249113188686 0 0 0 0 6.4941723380434269 15.161328768908561 0 15.161328768908561 -11.708519912237648 0 0 0 0 24.529389559196716 11.915930481953751 0 11.915930481953751 -10.226486813280758 0 0 0 0 -10.053990490194337 -54.811538158145368 0 -54.811538158145368 -35.584322231654369 0 0 0 0 2.3753639778224169 7.8578307571251571 0 7.8578307571251571 17.797134608320562 0 0 0 0 18.272958995610452 9.8138720148440939 0 9.8138720148440939 3.522781519518503 0 0 0 0 -3.053614704962456 2.015037400006122 0 2.015037400006122 11.961215151145552 0 0 0 0 -31.461540934825734 -4.5570972843540858 0 -4.5570972843540858 12.608791651238334 0 0 0 0 -48.028343439285891 -12.770760495529657 0 -12.770760495529657 19.340465692714616 0 0 0 0 -57.421630010155241 9.5104676979353826 0 9.5104676979353826 7.0152551849638485 0 0 0 0 -27.639834641114248 9.3818268227082626 0 9.3818268227082626 2.8353084495124676 0 0 0 0 -71.915320669543689 34.381707012175639 0 34.381707012175639 -5.8040902406651185 0 0 0 0 -90.460498027192443 -7.5293773736766525 0 -7.5293773736766525 18.707425918415765 0 0 0 0 -42.402605871166543 -40.305807125810134 0 -40.305807125810134 -0.35275840017334303 0 0 0 0 -29.931329538001592 57.74597696686493 0 57.74597696686493 -46.43203366697503 0 0 0 0 -91.916564533055862 -53.729370284019183 0 -53.729370284019183 -0.92781586603314281 0 0 0 0 -1.1035379171717068 -5.7897275461327808 0 -5.7897275461327808 -2.9090393860564063 0 0 0 0 10.183453365298647 2.8569809232665193 0 2.8569809232665193 5.2848388397894723 0 0 0 0 0.62494474891678209 -2.451276157672158 0 -2.451276157672158 3.0164218914829446 0 0 0 0 6.5518381214606052 -21.72193422153282 0 -21.72193422153282 -7.4091264965170467 0 0 0 0 -10.903926893823154 8.8998957751481385 0 8.8998957751481385 4.4949739636742834 0 0 0 0 -11.032197279237153 -6.1535223984396907 0 -6.1535223984396907 1.5511579833387259 0 0 0 0 -3.7845146916467023 -3.8377485567477088 0 -3.8377485567477088 4.8883078370417197 0 0 0 0 15.987117778222455 -11.791112929416272 0 -11.791112929416272 -1.864191232532562 0 0 0 0 -44.902989603289825 49.25243265457857 0 49.25243265457857 -41.457291452268464 0 0 0 0 20.17474813320041 -15.915524230215226 0 -15.915524230215226 -3.3020650140186518 0 0 0 0 -4.2212742746505239 -4.3741416220517637 0 -4.3741416220517637 3.7361723000305966 0 0 0 0 -51.294283430304858 -9.9496977524881913 0 -9.9496977524881913 11.569979541816224 0 0 0 0 -41.667847595624153 -4.5530777901319084 0 -4.5530777901319084 4.7480930676265416 0 0 0 0 -37.173782089639644 -11.118927147667023 0 -11.118927147667023 12.892938870853868 0 0 0 0 -44.194073283646503 -6.5901819551771723 0 -6.5901819551771723 7.5281326471450143 0 0 0 0 -30.794191219018103 0.083300242931272805 0 0.083300242931272805 9.7007912371909697 0 0 0 0 -39.020190808167172 -6.4243206374294459 0 -6.4243206374294459 3.336666416236767 0 0 0 0 -32.741734296877439 -15.62724796410555 0 -15.62724796410555 -12.820404132730346 0 0 0 0 -14.238507553363434 62.754915578469337 0 62.754915578469337 11.462286385325797 0 0 0 0 -46.285599729371825 -26.971886795186151 0 -26.971886795186151 -10.479063229688649 0 0 0 0 -1.7329883629737708 1.6483271490947224 0 1.6483271490947224 -1.5954752336187452 0 0 0 0 -53.708070186288751 -19.599315192773588 0 -19.599315192773588 -1.7640729064922311 0 0 0 0 22.477958265699272 36.154868462927766 0 36.154868462927766 30.729029007397571 0 0 0 0 24.671925152732683 14.94567671031929 0 14.94567671031929 19.865226427643847 0 0 0 0 -5.9074074864593058 3.6323935208596083 0 3.6323935208596083 0.27929470257322464 0 0 0 0 -66.935102916974756 57.661231020062438 0 57.661231020062438 60.404393108317755 0 0 0 0 -9.4734481630493974 8.7989748185822236 0 8.7989748185822236 4.5919398342780937 0 0 0 0 -8.636557752965043 2.9282828438366968 0 2.9282828438366968 -0.52248561721405462 0 0 0 0 27.204561387635067 27.067492288218226 0 27.067492288218226 23.169464924686054 0 0 0 0 -91.32193194231786 -59.923474188993339 0 -59.923474188993339 -26.187384077003514 0 0 0 0 -0.21983261013912525 0.56572822004567769 0 0.56572822004567769 -0.92990688930727217 0 0 0 0 -74.271212663037659 36.659708435452679 0 36.659708435452679 35.884905864547704 0 0 0 0 -31.754057470372572 11.595728624693038 0 11.595728624693038 4.1134181978050037 0 0 0 0 -76.563254477503961 29.216883140135337 0 29.216883140135337 19.0628656347792 0 0 0 0 -69.592823265342304 34.644422572774261 0 34.644422572774261 12.556711426459088 0 0 0 0 -72.89067685214377 47.196274787153129 0 47.196274787153129 14.442900861530234 0 0 0 0 -95.001186014539599 55.164076690632328 0 55.164076690632328 12.117611593419952 0 0 0 0 -123.35968957544901 48.374283606446355 0 48.374283606446355 44.735554366016459 0 0 0 0 -115.48339291765569 13.631652410048744 0 13.631652410048744 12.983183458495887 0 0 0 0 -141.80107568987296 55.657832012957215 0 55.657832012957215 -15.134634046453186 0 0 0 0 -5.0263412286717593 -4.3286245120171341 0 -4.3286245120171341 3.2859392006282868 0 0 0 0 -26.726847904904844 -41.361484894937973 0 -41.361484894937973 10.200694528866507 0 0 0 0 50.709644959815705 -67.648549876841841 0 -67.648549876841841 -58.911944466620923 0 0 0 0 -126.02231336194563 -21.872561831364067 0 -21.872561831364067 51.721543297903281 0 0 0 0 -126.36219337626062 -34.609775826226041 0 -34.609775826226041 5.63829084474105 0 0 0 0 -6.4575392365077278 70.468285376901974 0 70.468285376901974 -111.512778854212 0 0 0 0 -47.958331736081163 60.967591370163973 0 60.967591370163973 28.254708619149881 0 0 0 0 -77.318277128228146 -9.8830232844717329 0 -9.8830232844717329 -128.20994616585449 0 0 0 0 -139.85273672877338 118.90642018799849 0 118.90642018799849 -113.75386479593057 0 0 0 0 -60.527961702802713 27.707725359272615 0 27.707725359272615 -32.485749153988309 0 0 0 0 -169.70044375945417 85.653109078928537 0 85.653109078928537 38.640005884908931 0 0 0 0 -1.4218221436742482 0.34467916471699089 0 0.34467916471699089 -0.10049984927550198 0 0 0 0 -88.39565306330951 -65.189791507468641 0 -65.189791507468641 -71.432305718318844 0 0 0 0 -205.04915445755796 -9.5832119428820306 0 -9.5832119428820306 -12.497118440090617 0 0 0 0 -83.915244673342386 -18.535946257854647 0 -18.535946257854647 -8.7765472687124202 0 0 0 0 -73.366589764553282 -8.8294595070316291 0 -8.8294595070316291 -15.83088918787314 0 0 0 0 -60.654715487773501 53.477783399624855 0 53.477783399624855 -47.599704403315911 0 0 0 0 -54.359628601306667 34.572044944007558 0 34.572044944007558 1.9750148414362911 0 0 0 0 -118.33302587963408 22.043834613439884 0 22.043834613439884 2.0739236118110966 0 0 0 0 -48.768265534275997 23.789849010159571 0 23.789849010159571 0.5733849634226118 0 0 0 0 -39.52086714300458 51.901681079037473 0 51.901681079037473 -7.9020783074969358 0 0 0 0 -50.17118245569327 22.504288882058347 0 22.504288882058347 -5.9294651435137098 0 0 0 0 -36.937183557182379 -6.5998217962927157 0 -6.5998217962927157 -2.0205316765113821 0 0 0 0 -29.316477896333708 3.850800511239072 0 3.850800511239072 3.2851399959305354 0 0 0 0 -9.0113068963928527 12.954865111013817 0 12.954865111013817 -3.9060723065858838 0 0 0 0 2.0377253002482121 18.009485758694325 0 18.009485758694325 -61.976218462401903 0 0 0 0 -1.8390518825089863 0.42967758839820114 0 0.42967758839820114 0.28292246068202109 0 0 0 0 -0.46218993600814429 3.9499431419741597 0 3.9499431419741597 -1.8826366847594045 0 0 0 0 2.4738962660212565 -6.2710035613710033 0 -6.2710035613710033 -13.197126847947096 0 0 0 0 -3.3149541235554629 -0.72646057894292371 0 -0.72646057894292371 -0.052291233867604495 0 0 0 0 9.2059347876111133 -21.900876892987299 0 -21.900876892987299 27.35497144452745 0 0 0 0 15.582206911171397 4.7198215442396929 0 4.7198215442396929 -32.957034103609203 0 0 0 0 17.511839162584693 -4.6902068913764197 0 -4.6902068913764197 0.80435417225265837 0 0 0 0 17.008076079890998 -31.959506504117712 0 -31.959506504117712 -17.385427879536167 0 0 0 0 7.7557759838557558 -7.9544391739608216 0 -7.9544391739608216 22.772274386428307 0 0 0 0 -2.3547631387837278 -0.20277131128424397 0 -0.20277131128424397 0.060488156902754928 0 0 0 0 -55.117217743791116 -41.482456754456507 0 -41.482456754456507 111.95566590583033 0 0 0 0 23.331387225371145 -18.808187267952803 0 -18.808187267952803 20.750412430338883 0 0 0 0 -38.095604732032371 -84.018049993964723 0 -84.018049993964723 -62.280541548515203 0 0 0 0 -73.944857778428741 20.681514567595286 0 20.681514567595286 -21.717184380207527 0 0 0 0 -115.62264964547285 11.507382128132235 0 11.507382128132235 14.223983884312929 0 0 0 0 -85.344314229827432 56.692081284512597 0 56.692081284512597 23.279548251668189 0 0 0 0 -111.80912195301244 65.097946468793737 0 65.097946468793737 20.611115916729432 0 0 0 0 -75.990498027340436 58.89848733650615 0 58.89848733650615 -15.528266982255218 0 0 0 0 -93.967185824079934 67.080792047017894 0 67.080792047017894 38.606449505216233 0 0 0 0 -0.91391767201955432 0.30510691734967721 0 0.30510691734967721 0.018539729382851339 0 0 0 0 -91.996331579483012 72.445841218554278 0 72.445841218554278 61.913918067580596 0 0 0 0 -40.455320384067363 79.590351383465418 0 79.590351383465418 34.064388068697554 0 0 0 0 69.707333547863527 4.6232191620829326 0 4.6232191620829326 -73.83938528567154 0 0 0 0 -14.831334627764591 -31.573404081741842 0 -31.573404081741842 -56.713830992347312 0 0 0 0 -8.1025095228380906 -7.4726182946654447 0 -7.4726182946654447 -24.997155674736177 0 0 0 0 -6.3668481435179274 -7.733595561388654 0 -7.733595561388654 -26.537621960232343 0 0 0 0 -36.605914314337042 -3.2656997526493683 0 -3.2656997526493683 71.12585604166236 0 0 0 0 -3.3985843028352818 0.34665394576815878 0 0.34665394576815878 0.030789598870080703 0 0 0 0 12.746559438491204 -5.9909519834013736 0 -5.9909519834013736 -27.215963841941225 0 0 0 0 -9.7995475660027296 -16.388032531986852 0 -16.388032531986852 14.960071404711243 0 0 0 0 -5.6250331884075422 -4.7520169700322299 0 -4.7520169700322299 -21.236167846572414 0 0 0 0 -3.9999799050330935 0.22764200472072105 0 0.22764200472072105 0.097390503149690777 0 0 0 0 -4.3200893088178418 -6.8432631808802711 0 -6.8432631808802711 -18.320656498137737 0 0 0 0 -4.6144014636047359 -6.7490645011976937 0 -6.7490645011976937 -18.174762697673231 0 0 0 0 -3.5934956193068501 -7.0676700454038155 0 -7.0676700454038155 6.1623183892874067 0 0 0 0 -6.9190800316519017 5.2726287913260421 0 5.2726287913260421 31.214411864913359 0 0 0 0 -12.171350111270158 -8.3128425053549364 0 -8.3128425053549364 -1.4344966743381065 0 0 0 0 -7.869477051092872 -11.163337243342525 0 -11.163337243342525 -4.1359391091024236 0 0 0 0 -8.0831022553429648 -9.7305656750916114 0 -9.7305656750916114 -2.105513725069784 0 0 0 0 -6.4867377149644199 -9.558125734025964 0 -9.558125734025964 -5.2453268287137007 0 0 0 0 -5.9889148004479011 -7.2602045391056862 0 -7.2602045391056862 -10.016725745205463 0 0 0 0 -6.6690260322829999 -11.529878597996571 0 -11.529878597996571 -7.1635046486221654 0 0 0 0 -6.3601886483529597 -6.3440879031836488 0 -6.3440879031836488 -9.2243225743579274 0 0 0 0 -7.9921625077640783 -13.536124835779077 0 -13.536124835779077 -11.421803115778516 0 0 0 0 -6.7748497111533652 -7.1398859092784619 0 -7.1398859092784619 -11.893739587362631 0 0 0 0 -6.4249697029881645 -8.5450863902512566 0 -8.5450863902512566 -4.8306666333575095 0 0 0 0 -6.7575724859616457 -11.595835283454051 0 -11.595835283454051 -2.9321982602797902 0 0 0 0 -8.8815139572980115 -10.217371046238952 0 -10.217371046238952 -1.5806558837950591 0 0 0 0 -12.597225496403553 -8.1837288487513433 0 -8.1837288487513433 -1.6111784051087259 0 0 0 0 -6.9098744394850655 -11.632937364418694 0 -11.632937364418694 -18.720565032366281 0 0 0 0 -7.0210471653226705 -10.664160727289868 0 -10.664160727289868 -26.670600331132505 0 0 0 0 -25.65683013636189 -2.9498096163764891 0 -2.9498096163764891 -1.1133995884227943 0 0 0 0 -25.963027505307764 -19.123046523417571 0 -19.123046523417571 -11.634047168215744 0 0 0 0 -26.775290342904555 -8.8097136167077679 0 -8.8097136167077679 4.4363082035827119 0 0 0 0 -10.519530080716322 -7.0004484087018568 0 -7.0004484087018568 -4.3115717552517481 0 0 0 0 -14.087682863853843 -0.37382970415254135 0 -0.37382970415254135 10.043308577596406 0 0 0 0 -1.0864865600951816 0.060825955233084983 0 0.060825955233084983 9.7933156062362059 0 0 0 0 -0.249135610432063 -1.5505551960814774 0 -1.5505551960814774 17.669969547283017 0 0 0 0 1.2727687932853087 19.153742888627015 0 19.153742888627015 28.515530041661691 0 0 0 0 -0.31001435023533475 0.099970963357606024 0 0.099970963357606024 0.017615291260970056 0 0 0 0 -2.9588810830191505 7.4777898517798747 0 7.4777898517798747 26.642247974204523 0 0 0 0 0.38280240312815295 -0.50674861437826735 0 -0.50674861437826735 11.60254053476632 0 0 0 0 -2.2651744594040792 -0.094137416277305874 0 -0.094137416277305874 12.700960290590011 0 0 0 0 -4.3296008944180358 -5.7349493689766007 0 -5.7349493689766007 6.2803460613984612 0 0 0 0 -9.3050642090584006 0.75471295405114347 0 0.75471295405114347 17.10408812362806 0 0 0 0 -10.30480930822614 -7.7431348183173441 0 -7.7431348183173441 6.7742006429916728 0 0 0 0 -7.8447042710477035 -8.8556491272642006 0 -8.8556491272642006 4.0181476544164525 0 0 0 0 -5.0552034384572835 -7.8904076894536104 0 -7.8904076894536104 3.553693992338026 0 0 0 0 -7.5993007922434117 -5.603210129257377 0 -5.603210129257377 12.414628940093337 0 0 0 0 -1.8482960576129699 -2.084123463136649 0 -2.084123463136649 12.681775687509941 0 0 0 0 -5.7797048129705217 -1.7793195287210608 0 -1.7793195287210608 13.378254879145231 0 0 0 0 -6.3426576324200141 -5.77607363616562 0 -5.77607363616562 8.200256897845847 0 0 0 0 -4.6436258361136424 -3.7217983025585184 0 -3.7217983025585184 7.186397960249451 0 0 0 0 -6.5181122100620996 -3.551132230541441 0 -3.551132230541441 9.2182762650860752 0 0 0 0 -5.8346667599143984 -4.6335196230309634 0 -4.6335196230309634 3.4897615192483897 0 0 0 0 -4.8370961106893446 -3.0542758053444174 0 -3.0542758053444174 4.9372278056400773 0 0 0 0 -5.3401444893333974 -9.7122764531462451 0 -9.7122764531462451 -2.1561599974579053 0 0 0 0 -6.7339857365045646 -8.0197838051704942 0 -8.0197838051704942 2.1096054400257458 0 0 0 0 -6.2433707750406029 -8.1235882035346094 0 -8.1235882035346094 2.0443354570943484 0 0 0 0 -0.043329288904395469 0.1487597012048063 0 0.1487597012048063 -0.020012730842021931 0 0 0 0 -161.08165475354872 40.131894607820385 0 40.131894607820385 7.1046953473409644 0 0 0 0 -55.032509496553757 3.2528991282192123 0 3.2528991282192123 -13.221470669904704 0 0 0 0 -107.32614180891505 23.291124611024742 0 23.291124611024742 -1.5703881241407203 0 0 0 0 -116.79270650423223 -7.9030396207216427 0 -7.9030396207216427 0.59004877277845935 0 0 0 0 -73.564827430644755 -7.9170256630601976 0 -7.9170256630601976 -3.944192817998271 0 0 0 0 -80.708624494756123 48.17014089090118 0 48.17014089090118 -17.093297493342106 0 0 0 0 -22.016734895641093 31.034320094422696 0 31.034320094422696 -12.680837993724367 0 0 0 0 -68.295736130614387 38.229434527897808 0 38.229434527897808 8.3475191049109299 0 0 0 0 -31.859018414199454 42.893590170144392 0 42.893590170144392 8.737428737101709 0 0 0 0 -48.457292276263615 -17.05127720958717 0 -17.05127720958717 -9.3499557950079435 0 0 0 0 -42.44463914509015 -4.1065268114507489 0 -4.1065268114507489 8.1544813387399699 0 0 0 0 -70.411458435875829 12.198474653630683 0 12.198474653630683 4.9176136090807177 0 0 0 0 -23.227290044475012 8.7842100945073298 0 8.7842100945073298 4.9422876744397968 0 0 0 0 -17.2505380973721 9.1617568639894174 0 9.1617568639894174 13.252740057681194 0 0 0 0 -16.220139793825183 8.8676410839069604 0 8.8676410839069604 13.170590869153898 0 0 0 0 -12.236365371245483 13.016768246990608 0 13.016768246990608 3.1144293242884658 0 0 0 0 39.278886680880987 17.92854868382117 0 17.92854868382117 -0.19473775904663171 0 0 0 0 -5.9860975792385034 7.8016878998675665 0 7.8016878998675665 1.8742077563468342 0 0 0 0 -18.624508730299567 2.8468606094879476 0 2.8468606094879476 10.671390491019238 0 0 0 0 -17.490325266969194 8.9064888369660693 0 8.9064888369660693 24.788415471511314 0 0 0 0 -0.11320465386178213 0.020782402011189305 0 0.020782402011189305 0.0065178522876255807 0 0 0 0 -24.098917787739992 -20.778194442110049 0 -20.778194442110049 -14.578425335251183 0 0 0 0 -7.8118404608230776 2.6790149960082204 0 2.6790149960082204 -2.4699140721508854 0 0 0 0 -10.573642188535814 7.7265452740086999 0 7.7265452740086999 1.8715298675820122 0 0 0 0 -3.9178722463948361 1.7964458687232252 0 1.7964458687232252 0.97732186202119919 0 0 0 0 1.5805863883197162 5.2171906704852233 0 5.2171906704852233 0.27160923492445477 0 0 0 0 0.74556613671666128 2.5070684062225439 0 2.5070684062225439 -2.2368656255094379 0 0 0 0 9.2279060442278933 4.5118700663714151 0 4.5118700663714151 -2.597667127815896 0 0 0 0 -119.004002371551 74.994805486361088 0 74.994805486361088 -120.34370088943558 0 0 0 0 0.19880472523251669 0.57535931488177106 0 0.57535931488177106 -0.22365398463125319 0 0 0 0 4.2281787532665476 11.195093738497064 0 11.195093738497064 1.3815679507031575 0 0 0 0 -198.42198655669927 47.002682716029966 0 47.002682716029966 17.217052947763761 0 0 0 0 -155.44525836183038 -26.439673844269493 0 -26.439673844269493 33.767240331907146 0 0 0 0 -49.531062294403455 -22.426834918955223 0 -22.426834918955223 -3.3280208639212674 0 0 0 0 -164.31926304984245 94.776806835344928 0 94.776806835344928 -4.752229882797991 0 0 0 0 -307.55207091466218 62.041682337317923 0 62.041682337317923 83.32983840719919 0 0 0 0 -177.95020529973408 24.646170460179732 0 24.646170460179732 59.386109050874502 0 0 0 0 -193.80969102848758 44.344428749055119 0 44.344428749055119 35.061727843363769 0 0 0 0 -81.627432828943711 -41.503526770713165 0 -41.503526770713165 32.19530485426337 0 0 0 0 -44.313805502664763 62.590984537280207 0 62.590984537280207 -21.195438832544724 0 0 0 0 -1.8329537236384184 0.097825314088830106 0 0.097825314088830106 0.068881663754214922 0 0 0 0 -140.93769672930284 81.524304067725907 0 81.524304067725907 -0.48612106685346745 0 0 0 0 -4.0750872685860102 -0.15126480925616681 0 -0.15126480925616681 0.10510618063773446 0 0 0 0 -15.479325358679489 -22.135243594818956 0 -22.135243594818956 48.594326058918099 0 0 0 0 -9.610552275245027 10.14306694398141 0 10.14306694398141 37.897831622689331 0 0 0 0 25.974781048977093 -16.179765989996753 0 -16.179765989996753 -11.426210218820898 0 0 0 0 -47.401634310807651 -5.1248831553893588 0 -5.1248831553893588 -4.1334565551156288 0 0 0 0 -4.7669370436781833 -0.30680314376675799 0 -0.30680314376675799 0.0089524030419164888 0 0 0 0 -6.517372240989971 6.7348706441739523 0 6.7348706441739523 20.66182669360316 0 0 0 0 0.42679842650659339 5.2840912806172113 0 5.2840912806172113 3.710965995898647 0 0 0 0 -2.7241242842927704 8.300593223578506 0 8.300593223578506 3.0611956290092621 0 0 0 0 -3.748030196835316 3.7891567080910704 0 3.7891567080910704 -1.1969661794117599 0 0 0 0 -4.4217463797637038 0.27749904079137977 0 0.27749904079137977 0.92971631328032345 0 0 0 0 -11.429266649543933 2.6018655964178947 0 2.6018655964178947 0.19612898989822725 0 0 0 0 -8.9735528541641543 -1.6863627749770274 0 -1.6863627749770274 -9.5461652076101018 0 0 0 0 -10.869317678736479 -1.4571375318680566 0 -1.4571375318680566 -3.2706511202417232 0 0 0 0 -5.286862787699647 4.5437143316437272 0 4.5437143316437272 -3.6881067897786579 0 0 0 0 -5.6499105965858689 4.0439051282897935 0 4.0439051282897935 -1.1906562676842896 0 0 0 0 -44.171768623882599 -19.40257460663986 0 -19.40257460663986 -6.9603125501425538 0 0 0 0 -9.4280021801259863 2.2718713230471792 0 2.2718713230471792 -5.377407926691717 0 0 0 0 -14.388254339268769 -11.067730992473706 0 -11.067730992473706 -14.950143051920577 0 0 0 0 -43.97453692599629 0.5663152408744736 0 0.5663152408744736 -6.7963829503269721 0 0 0 0 -40.079639680716355 -15.891444694735014 0 -15.891444694735014 -4.4481648790971349 0 0 0 0 -32.638144055943485 -3.6069898129418334 0 -3.6069898129418334 0.058231832707861031 0 0 0 0 -24.275465059737144 -6.9322400277153235 0 -6.9322400277153235 1.2258050267756744 0 0 0 0 -27.118371944016872 -8.3601506691927057 0 -8.3601506691927057 1.6668426879660387 0 0 0 0 -29.855959574550752 -11.065102012490875 0 -11.065102012490875 -0.81791635814693109 0 0 0 0 -24.088235171660926 -8.2789706320875496 0 -8.2789706320875496 -4.4123672876801834 0 0 0 0 -24.81847332768848 -7.0754914582848301 0 -7.0754914582848301 -4.9125736931299855 0 0 0 0 -12.82567556558206 0.063731762531602953 0 0.063731762531602953 -2.495732129848875 0 0 0 0 -12.529499762179512 0.035824377370090588 0 0.035824377370090588 -3.5781891155555687 0 0 0 0 -6.93287631363728 6.1177234522645279 0 6.1177234522645279 -3.0378242184821147 0 0 0 0 -31.087923095215956 -0.23487252613904275 0 -0.23487252613904275 -0.14291076991298723 0 0 0 0 -68.549458855496596 18.692856901408902 0 18.692856901408902 47.239126426768507 0 0 0 0 4.4338894502252515 18.075390738488068 0 18.075390738488068 9.2939065117273572 0 0 0 0 -0.019244994218894806 -0.1491435827596348 0 -0.1491435827596348 -0.057828613284646391 0 0 0 0 -5.4288707389077899 -0.40442856840468266 0 -0.40442856840468266 -2.9288972823254653 0 0 0 0 -15.226597566247392 -0.12864638652621352 0 -0.12864638652621352 0.2221682740845381 0 0 0 0 -0.028102439586043193 -0.39604700953610106 0 -0.39604700953610106 0.47188698337523194 0 0 0 0 -8.0250392708885556 -2.2679822954646056 0 -2.2679822954646056 -1.5484050013299111 0 0 0 0 -18.909256514275285 6.5217816537479365 0 6.5217816537479365 1.058460496846692 0 0 0 0 90.425379056754082 6.5118872874970464 0 6.5118872874970464 -169.33500410559441 0 0 0 0 -95.42122636617205 -20.96026272229517 0 -20.96026272229517 46.29428676382642 0 0 0 0 -73.276109894708497 -68.114029457267264 0 -68.114029457267264 -35.07747673436802 0 0 0 0 -1.6063385476063559 15.778462259276012 0 15.778462259276012 -53.235185275610917 0 0 0 0 -1.5333188736446601 0.86498544037673675 0 0.86498544037673675 -0.49549414067934783 0 0 0 0 -4.9867465427291791 14.448030644393157 0 14.448030644393157 18.460952731755242 0 0 0 0 22.227887200471741 19.992041753716421 0 19.992041753716421 10.11635792043495 0 0 0 0 -20.232021632940359 -7.6358087260753678 0 -7.6358087260753678 -0.011465611207086113 0 0 0 0 -4.9993079983123003 2.1408213992991154 0 2.1408213992991154 -0.91332069059910326 0 0 0 0 -26.426700115574022 -5.145283766318812 0 -5.145283766318812 3.5919186021493488 0 0 0 0 -25.62005166617746 -9.1459706099166169 0 -9.1459706099166169 2.0597991090664891 0 0 0 0 -37.37822127512527 -22.670812972222691 0 -22.670812972222691 -13.488071700831938 0 0 0 0 -0.33368852326748311 0.091820048612646588 0 0.091820048612646588 0.7553516634557127 0 0 0 0 0.66633987124805572 0.96532948323533674 0 0.96532948323533674 1.518223928736802 0 0 0 0 -0.11702213901806502 0.034819597244597489 0 0.034819597244597489 0.46651214153592857 0 0 0 0 -0.90281938705447828 -0.83952902383259698 0 -0.83952902383259698 2.0354677259039704 0 0 0 0 -0.46056085839563821 0.75694827429661871 0 0.75694827429661871 1.1657281490616924 0 0 0 0 0.024786131042390025 -0.40566288364359337 0 -0.40566288364359337 1.2290075287783111 0 0 0 0 0.23855111294817277 0.20542428866625073 0 0.20542428866625073 0.15786442070992379 0 0 0 0 0.5121083064150298 1.1146837901397362 0 1.1146837901397362 -0.19528646873322941 0 0 0 0 0.21520914663460644 -1.87662942849472 0 -1.87662942849472 2.1017682587856825 0 0 0 0 0.37540762947537587 -0.0092170258549018058 0 -0.0092170258549018058 0.4180924747095105 0 0 0 0 0.90358283590103383 0.25835657878195661 0 0.25835657878195661 -0.30791514821294186 0 0 0 0 0.053517218273981371 -0.058536109570887618 0 -0.058536109570887618 0.22486822423567832 0 0 0 0 -4.7746862147569118 -3.5212371788554719 0 -3.5212371788554719 2.7106810194509308 0 0 0 0 -4.2093959444955544 -1.3694362522862775 0 -1.3694362522862775 -5.2229511042590957 0 0 0 0 -3.5928938161578117 -3.9230018007162926 0 -3.9230018007162926 0.043678053012172313 0 0 0 0 2.9470666807401358 -2.1617053208078971 0 -2.1617053208078971 -2.9781864146818293 0 0 0 0 -5.4408994709101535 0.10274584676193399 0 0.10274584676193399 0.59544358917102613 0 0 0 0 -0.035172522455026112 -0.11689863320461313 0 -0.11689863320461313 0.090998647503872654 0 0 0 0 2.4688296176009317 0.37097472255140929 0 0.37097472255140929 0.15533700948202522 0 0 0 0 -5.1813430053807679 -1.2859233219118096 0 -1.2859233219118096 -6.8361419037553333 0 0 0 0 -4.6296487306335621 1.2675970558051972 0 1.2675970558051972 3.3965318346953381 0 0 0 0 -4.164240681604042 2.6848122974521971 0 2.6848122974521971 -1.1952133546471941 0 0 0 0 2.1335476541912328 -0.34467288750585467 0 -0.34467288750585467 0.14246982085808213 0 0 0 0 2.3085374623351527 3.7709064383622604 0 3.7709064383622604 -3.4939124455115689 0 0 0 0 0.90051158843743906 1.5530834847711219 0 1.5530834847711219 1.3326045089721674 0 0 0 0 1.1228480007102917 1.1693722621848224 0 1.1693722621848224 -0.74085782915744858 0 0 0 0 0.35799068769938458 -0.013362199085463544 0 -0.013362199085463544 1.7453949048064601 0 0 0 0 -0.57340586916325265 0.54305046899213494 0 0.54305046899213494 1.2963963806436141 0 0 0 0 -0.52381266456563935 0.46740089418594266 0 0.46740089418594266 0.92476609705588197 0 0 0 0 -0.024975495531180059 0.65756169559556099 0 0.65756169559556099 0.9640633298032526 0 0 0 0 -0.69872730000483152 0.26357736917096375 0 0.26357736917096375 0.93764211172110068 0 0 0 0 -1.9752481696873474 0.56505984556117284 0 0.56505984556117284 1.7531395436350294 0 0 0 0 -0.78243822962213017 0.59147964738286873 0 0.59147964738286873 1.0477695326359253 0 0 0 0 -1.652838112202037 1.5880438378744728 0 1.5880438378744728 1.9174888852702676 0 0 0 0 -4.8168997841335113 -0.14810302411514087 0 -0.14810302411514087 -0.028535096563970797 0 0 0 0 0.28640933841868588 0.61062788538484281 0 0.61062788538484281 0.29856085660704723 0 0 0 0 1.5926403872217634 2.8014816016515169 0 2.8014816016515169 0.49541427238294489 0 0 0 0 -1.169610105405809 4.3310939045788643 0 4.3310939045788643 0.94172634619663143 0 0 0 0 0.005248205808129569 2.2896978386405351 0 2.2896978386405351 2.1259742447496706 0 0 0 0 -10.439978947762029 -2.4011142486241113 0 -2.4011142486241113 1.0680586405081414 0 0 0 0 -2.3816079709195037 5.5084537969015628 0 5.5084537969015628 -2.904961662522112 0 0 0 0 -4.5440780593307863 5.789335934184237 0 5.789335934184237 -1.9338482143264741 0 0 0 0 -0.00085811337120844655 0.033844351472284373 0 0.033844351472284373 -0.021854957787664997 0 0 0 0 -1.830011791382276 2.7306080212990196 0 2.7306080212990196 3.7522023890589367 0 0 0 0 -1.0864349946277798 5.0741184018601473 0 5.0741184018601473 -4.7264156615667474 0 0 0 0 -4.1204038625446628 5.2664561256581379 0 5.2664561256581379 2.8390828076825869 0 0 0 0 -2.7272374873173248 5.5904601544864647 0 5.5904601544864647 -1.9443697075178363 0 0 0 0 -4.2586906662427282 4.3161097838101483 0 4.3161097838101483 4.1554596382057412 0 0 0 0 -4.1902669610008161 2.2118855443219161 0 2.2118855443219161 8.5713427495247032 0 0 0 0 -3.1660180165463316 3.7813620677671196 0 3.7813620677671196 2.7630850853703919 0 0 0 0 -3.4147915758276213 4.0790913042763464 0 4.0790913042763464 3.2135984262614059 0 0 0 0 -5.2071711771635592 -0.2713045240036307 0 -0.2713045240036307 0.2569702412029477 0 0 0 0 -4.9578653903126906 2.964625885838764 0 2.964625885838764 7.0292448299597226 0 0 0 0 -6.6176417487713479 -0.56010950136531079 0 -0.56010950136531079 -0.37360669623922149 0 0 0 0 -9.3502525245403376 -2.3563243601185349 0 -2.3563243601185349 0.54598845504914095 0 0 0 0 -1.2747345002834045 1.9158623032573807 0 1.9158623032573807 1.5760341277106158 0 0 0 0 -8.1716187351748886 -0.25955694341422131 0 -0.25955694341422131 -0.63914702584634142 0 0 0 0 -1.6833036107523238 1.9049728516982896 0 1.9049728516982896 1.1355690864628789 0 0 0 0 -5.1985725334179733 1.6529504467841178 0 1.6529504467841178 3.3686195581180094 0 0 0 0 -9.2386455995765573 -0.24637811850789859 0 -0.24637811850789859 0.1906784225593583 0 0 0 0 -9.2006666013112408 -0.38277646564972656 0 -0.38277646564972656 0.52182044609776312 0 0 0 0 -12.112088874597248 -0.95292912687227727 0 -0.95292912687227727 0.45451872536008864 0 0 0 0 -12.695149305933228 -0.57149719048823044 0 -0.57149719048823044 0.31836694257958698 0 0 0 0 -10.416526718559908 -1.6688512809748346 0 -1.6688512809748346 0.41441839569963079 0 0 0 0 -12.00906978022158 -2.2840215499845975 0 -2.2840215499845975 -0.28716528491094095 0 0 0 0 -14.595064407783866 -1.6824527761441317 0 -1.6824527761441317 1.3111207851021618 0 0 0 0 -10.821925707257833 -0.27006331957795737 0 -0.27006331957795737 0.63558475429215378 0 0 0 0 -7.4495995718216363 -0.39701153579439108 0 -0.39701153579439108 0.0068343189329027609 0 0 0 0 -0.88732209469116974 -0.48518483524589939 0 -0.48518483524589939 0.32793480599625602 0 0 0 0 -8.6175223928548803 -1.5354995343765836 0 -1.5354995343765836 0.12808181646795447 0 0 0 0 -8.8655313465642394 -1.0855588742341524 0 -1.0855588742341524 0.83416295574615162 0 0 0 0 -8.6297694683307782 -1.4161844826683136 0 -1.4161844826683136 -0.19196195608010669 0 0 0 0 -8.9764585870361771 -0.67954654708282192 0 -0.67954654708282192 -0.59310734680457244 0 0 0 0 -8.6308849345309682 -1.0443770550371063 0 -1.0443770550371063 0.94153649335271439 0 0 0 0 -3.449859299344098 -0.87733551965747836 0 -0.87733551965747836 -0.29323436442072648 0 0 0 0 -12.007431086756696 -0.93583623430720309 0 -0.93583623430720309 1.3220759060480702 0 0 0 0 -8.7582244963837184 -0.49349884358687746 0 -0.49349884358687746 0.16070031683889852 0 0 0 0 -7.7958448877980118 0.24743228043487875 0 0.24743228043487875 0.25337169487056599 0 0 0 0 -7.7390024551141323 0.06896848320614879 0 0.06896848320614879 0.67934252422861618 0 0 0 0 -13.849666587720094 -2.3639874597261965 0 -2.3639874597261965 0.2496621000492496 0 0 0 0 -14.930466200155934 -1.4504716550810031 0 -1.4504716550810031 1.4035332760912951 0 0 0 0 -12.655458748698948 -0.15181762950118127 0 -0.15181762950118127 0.85113349099799507 0 0 0 0 -17.131336165302855 -2.9262067858027621 0 -2.9262067858027621 1.1268542523384895 0 0 0 0 -14.741902757617936 -1.7368406117714983 0 -1.7368406117714983 0.75300566133472557 0 0 0 0 -17.105887750393322 -2.415381166745405 0 -2.415381166745405 1.4771568205381982 0 0 0 0 -18.064486449085962 -3.3049953691301539 0 -3.3049953691301539 1.9134322071200245 0 0 0 0 -16.274824320949847 -2.8263821012288304 0 -2.8263821012288304 0.14611262493946242 0 0 0 0 -16.290037014485137 -1.0149871064653617 0 -1.0149871064653617 1.8512001589083411 0 0 0 0 -13.17598835226454 -0.38364623609092519 0 -0.38364623609092519 1.1336412118874364 0 0 0 0 -11.820325117179891 -0.63218522357328766 0 -0.63218522357328766 0.71144513772867413 0 0 0 0 -11.972287240027072 -0.01003032756780442 0 -0.01003032756780442 1.4244335831436956 0 0 0 0 -7.9870997258440184 0.43249867215405402 0 0.43249867215405402 0.62419749451814255 0 0 0 0 -7.9144594744152528 0.9691488081476578 0 0.9691488081476578 1.0786572174474713 0 0 0 0 -4.2490544807442348 -0.086735064426136432 0 -0.086735064426136432 0.29792451007995169 0 0 0 0 -4.2502554439852247 0.94145990076225416 0 0.94145990076225416 0.12999688775639129 0 0 0 0 -2.5538835867810121 1.3828851124345647 0 1.3828851124345647 -0.3981496014460788 0 0 0 0 -8.069265788842813 2.0321509511827358 0 2.0321509511827358 0.60853294806025815 0 0 0 0 -13.441253515153221 0.55836022597654278 0 0.55836022597654278 1.6615154902374911 0 0 0 0 -7.9841151227046794 1.3411502877498833 0 1.3411502877498833 0.42893376086027502 0 0 0 0 -13.303672189639656 0.56435560939115703 0 0.56435560939115703 1.271026764364251 0 0 0 0 -14.001803176523026 1.8845842842520142 0 1.8845842842520142 1.1605963622062063 0 0 0 0 -21.433882946250378 1.5713560718329802 0 1.5713560718329802 1.6026186311147512 0 0 0 0 -2.3114743419682782 2.0586676934901504 0 2.0586676934901504 -1.0659404580409841 0 0 0 0 -7.8810920730029466 2.1063686282190588 0 2.1063686282190588 -1.2740314268880297 0 0 0 0 -8.0400410422289497 3.3671095792771197 0 3.3671095792771197 0.92193087388807271 0 0 0 0 -5.6815536573776626 0.68634353948382909 0 0.68634353948382909 -0.37181486931422114 0 0 0 0 -8.4471086234061659 4.4423914504245374 0 4.4423914504245374 -2.4888743251392498 0 0 0 0 -3.0398498706344981 2.77755061366679 0 2.77755061366679 -1.8502902277197366 0 0 0 0 -12.770138610609138 2.0879299158966802 0 2.0879299158966802 -2.5267749359372829 0 0 0 0 -20.72972973395008 3.8350454072694902 0 3.8350454072694902 -1.8759150801899409 0 0 0 0 -12.602011896560725 1.3857640698460045 0 1.3857640698460045 0.35469203799868865 0 0 0 0 -29.043625669102767 -0.15668945048827254 0 -0.15668945048827254 1.411896064534119 0 0 0 0 -19.907219255294876 0.72414436627670398 0 0.72414436627670398 -4.140600951586066 0 0 0 0 -17.91294527410173 -6.4204083596593051 0 -6.4204083596593051 -1.91890340315922 0 0 0 0 -21.380827049129039 -10.823442376533229 0 -10.823442376533229 -4.4641062007447658 0 0 0 0 -21.227667055369238 -5.2143149467111982 0 -5.2143149467111982 0.78979344294469911 0 0 0 0 -18.941376618340655 -1.3496648590637648 0 -1.3496648590637648 2.0231091698934733 0 0 0 0 -19.445990874544805 -2.1503358870112947 0 -2.1503358870112947 1.37478038150158 0 0 0 0 -18.949698166550661 -1.2661183029882181 0 -1.2661183029882181 1.7723272211064511 0 0 0 0 0.80696454605640611 -6.9491527411547054 0 -6.9491527411547054 5.140097275930259 0 0 0 0 -8.5819236056959198 3.3563586494109074 0 3.3563586494109074 -4.1546871451466814 0 0 0 0 0.91207244661200093 -4.5214029660521646 0 -4.5214029660521646 -1.5572227573900648 0 0 0 0 -5.1119544965513342 5.2197130318171503 0 5.2197130318171503 1.9939373217887066 0 0 0 0 -11.417621273641998 -1.2783733075541761 0 -1.2783733075541761 0.71448967504079519 0 0 0 0 -4.6438211078238965 2.3084969485870488 0 2.3084969485870488 9.443712713539469 0 0 0 0 6.0347042932298791 -3.6736850389937104 0 -3.6736850389937104 -2.0612346801777335 0 0 0 0 -0.77148987492546439 -1.5449757054322504 0 -1.5449757054322504 4.4036526202885398 0 0 0 0 -1.9213289305698709 4.3075885448074018 0 4.3075885448074018 1.7310197335542057 0 0 0 0 -0.17861260820609459 -16.190842456008539 0 -16.190842456008539 -8.838459923033156 0 0 0 0 0.029865240366914847 -0.036985966037349272 0 -0.036985966037349272 -0.63139447907288671 0 0 0 0 -17.804979721371637 -0.72052610501981462 0 -0.72052610501981462 12.684370462335437 0 0 0 0 -22.326066016520599 10.718651780565636 0 10.718651780565636 12.850561239886474 0 0 0 0 3.501301868358496 1.9619920157652331 0 1.9619920157652331 -2.252863847663491 0 0 0 0 2.8711374491622337 -0.19786378890584899 0 -0.19786378890584899 -0.93288060379086346 0 0 0 0 20.848411992570618 15.328787089836396 0 15.328787089836396 -5.7613149630789167 0 0 0 0 -1.8896128925762241 -1.5303634999127951 0 -1.5303634999127951 0.41217485018853495 0 0 0 0 -4.3008270561040263 -0.15090960601264669 0 -0.15090960601264669 1.8315731632141024 0 0 0 0 0.027846658794135726 0.03373212840241635 0 0.03373212840241635 0.021175275550596728 0 0 0 0 -4.243083684152225 0.74603670170040459 0 0.74603670170040459 1.5036037389092343 0 0 0 0 31.289474515455368 1.6841915214650953 0 1.6841915214650953 -18.151530766442704 0 0 0 0 2.6263788961841783 25.521336757383722 0 25.521336757383722 -8.2662758648206136 0 0 0 0 0.058747581800613347 -0.14067839610217803 0 -0.14067839610217803 -0.061790542482616839 0 0 0 0 11.042790591269181 -3.149785354949092 0 -3.149785354949092 -7.3831557056043948 0 0 0 0 -0.014736775960118464 -0.074713617772477647 0 -0.074713617772477647 -0.21666820374922713 0 0 0 0 2.5954988030371169 3.8824682755658131 0 3.8824682755658131 -6.1119844823443259 0 0 0 0 -4.4011747512122383 -1.2828622830428458 0 -1.2828622830428458 -3.8907782343061399 0 0 0 0 -2.6594905092442787 -1.9576039074407703 0 -1.9576039074407703 -3.695051614554302 0 0 0 0 -3.9159016051326034 -1.9261709344930367 0 -1.9261709344930367 -3.1907460848024982 0 0 0 0 -11.309820437900271 -2.6312592426457684 0 -2.6312592426457684 -1.2896661569475327 0 0 0 0 -4.8934941051265923 0.41097769313157073 0 0.41097769313157073 -6.1628654501960174 0 0 0 0 -1.3764936485822545 -5.4074270554324215 0 -5.4074270554324215 -1.1953789342928389 0 0 0 0 5.3864993959325602 1.785256195167884 0 1.785256195167884 0.20480799662180971 0 0 0 0 -2.8686801255898899 1.1873811224138677 0 1.1873811224138677 -0.33263907813847027 0 0 0 0 0.17892908089514847 -0.22469578938530077 0 -0.22469578938530077 -0.31936784032188725 0 0 0 0 -0.10085804078880756 -4.0763507925844351 0 -4.0763507925844351 -1.2527945955658453 0 0 0 0 11.506254808426092 -4.9396445061638374 0 -4.9396445061638374 -5.408048318589465 0 0 0 0 -4.2565510972490301 -12.867828139934005 0 -12.867828139934005 -4.9346730403713082 0 0 0 0 -4.1200711394230893 -5.3813210058191672 0 -5.3813210058191672 7.3008317466252066 0 0 0 0 -1.2877250055626064 -4.643789873316166 0 -4.643789873316166 -1.3938416339452147 0 0 0 0 -1.9932150990825903 -3.0051886489352713 0 -3.0051886489352713 3.9977854417035097 0 0 0 0 -2.6491771608871204 -6.6757174437481552 0 -6.6757174437481552 4.3668530766976517 0 0 0 0 -2.0411120925882642 -6.713637591318836 0 -6.713637591318836 -1.5189997999128479 0 0 0 0 -4.8516356490054022 -7.6886985826633705 0 -7.6886985826633705 17.498425039624177 0 0 0 0 3.7229495153815151 -10.562437448063552 0 -10.562437448063552 -7.6739193847045897 0 0 0 0 2.3586617368694078 6.9501547282430227 0 6.9501547282430227 -16.590203645801452 0 0 0 0 -11.936777885974152 19.25544834454962 0 19.25544834454962 -31.395635922125734 0 0 0 0 -10.002955178761113 6.1060734070867397 0 6.1060734070867397 -10.174017411658724 0 0 0 0 -8.4700938621645037 6.9935420737194534 0 6.9935420737194534 -10.29537410442105 0 0 0 0 -1.2174574365426452 -0.15982137970827637 0 -0.15982137970827637 -8.5150345824260398 0 0 0 0 -60.161211239474142 28.587386885038427 0 28.587386885038427 -32.7480556115448 0 0 0 0 -61.163075965774624 21.490613762485708 0 21.490613762485708 -78.024680126070052 0 0 0 0 -134.316134549872 48.398365208033276 0 48.398365208033276 -29.651400326747591 0 0 0 0 -175.62701361727886 24.294952314057284 0 24.294952314057284 -19.499731123654911 0 0 0 0 17.139603261029151 -14.466728625059911 0 -14.466728625059911 -42.131866986968731 0 0 0 0 -54.678118620051464 48.160853743800715 0 48.160853743800715 -36.908448559455138 0 0 0 0 -13.141273235298286 2.578999562693582 0 2.578999562693582 -15.466318106155285 0 0 0 0 -9.5650209877874204 17.437790125877491 0 17.437790125877491 -55.78134339049177 0 0 0 0 -73.453477222234142 23.443407193116457 0 23.443407193116457 -24.429834111536195 0 0 0 0 -92.296183983229639 47.161097041845437 0 47.161097041845437 -53.267405053762786 0 0 0 0 -141.1645353667991 4.3235836240742174 0 4.3235836240742174 -45.608663256774776 0 0 0 0 -62.222424137260532 38.857312304407913 0 38.857312304407913 -4.1849567479059715 0 0 0 0 -50.498972670307921 32.358063484093122 0 32.358063484093122 -26.774818651240892 0 0 0 0 -28.551843550807462 34.990393519102753 0 34.990393519102753 -31.187384465557216 0 0 0 0 -26.997964924380312 26.318861286009994 0 26.318861286009994 -13.578229479973913 0 0 0 0 -54.861734838228131 39.395770073657786 0 39.395770073657786 -9.1527003931869331 0 0 0 0 -36.784910295435111 33.4724346283258 0 33.4724346283258 -7.2232536622892098 0 0 0 0 -38.216780416396432 36.141969092337035 0 36.141969092337035 -3.4501835144133111 0 0 0 0 -53.42992271491039 23.892464377815543 0 23.892464377815543 13.090428588215559 0 0 0 0 -31.945291152909704 32.480605168543548 0 32.480605168543548 16.399765315665036 0 0 0 0 -12.778516572490844 5.6527152534114293 0 5.6527152534114293 -4.3876663806382155 0 0 0 0 -11.305475859711805 6.2543114650495824 0 6.2543114650495824 -7.5164930360226094 0 0 0 0 -19.55698728360494 16.431227883793923 0 16.431227883793923 -14.861382264868553 0 0 0 0 -29.813285263835496 28.806473348217935 0 28.806473348217935 -15.273432036594045 0 0 0 0 -26.561078418932084 17.899965250921184 0 17.899965250921184 -4.1572548024699927 0 0 0 0 -43.759845555093079 34.571701793217969 0 34.571701793217969 1.728652191388619 0 0 0 0 -27.460119028295594 18.269926176800823 0 18.269926176800823 -4.2682780827962006 0 0 0 0 -47.82206133186628 21.318639253619494 0 21.318639253619494 1.2963051854384844 0 0 0 0 -37.830094977824956 16.320225063518478 0 16.320225063518478 1.3737210455986997 0 0 0 0 -39.573691705503734 13.549713716591782 0 13.549713716591782 1.4822101822606299 0 0 0 0 -28.662733280078101 12.089693317775925 0 12.089693317775925 -2.7708608542321258 0 0 0 0 -19.773653433472646 6.5791021997935104 0 6.5791021997935104 -0.46355484927494217 0 0 0 0 -18.858709872900363 0.91165523552024297 0 0.91165523552024297 2.8043298591222765 0 0 0 0 -16.388554211787778 6.7186786018358191 0 6.7186786018358191 -1.4737555442766279 0 0 0 0 -27.792827634375499 0.70356544242895325 0 0.70356544242895325 3.0670092854367113 0 0 0 0 -52.955966713569069 19.956485581387312 0 19.956485581387312 -4.0523899477120722 0 0 0 0 -23.704659353077432 3.407570040573269 0 3.407570040573269 0.085986755108024227 0 0 0 0 -24.951048034290579 -11.413619567561227 0 -11.413619567561227 -7.586261584862541 0 0 0 0 -56.741496506003386 0.36221415544724778 0 0.36221415544724778 4.7397226559752994 0 0 0 0 -63.376079487685729 37.2391264855016 0 37.2391264855016 2.0412059908867377 0 0 0 0 -57.472633236742695 17.211892697018811 0 17.211892697018811 2.8407002297839483 0 0 0 0 -0.59109128436289637 0.030529985870641596 0 0.030529985870641596 0.12252991849996153 0 0 0 0 -111.68755953064101 24.276204349042246 0 24.276204349042246 -11.926524167554135 0 0 0 0 -114.18021283314374 30.365345433753077 0 30.365345433753077 -0.50168451907427425 0 0 0 0 -72.131359126766256 62.755046130928122 0 62.755046130928122 -36.261080156082357 0 0 0 0 -112.55962215092768 33.646748856365662 0 33.646748856365662 -108.05281049356017 0 0 0 0 -101.43125546144984 -10.488250711287606 0 -10.488250711287606 4.7954513965969454 0 0 0 0 -135.95942980273685 30.446313894322998 0 30.446313894322998 6.7744520967016797 0 0 0 0 -40.765141990854318 -21.460478772451779 0 -21.460478772451779 2.5730536578740839 0 0 0 0 -11.880567839561991 -3.2331921516793045 0 -3.2331921516793045 -10.243944093802384 0 0 0 0 -36.669896145773237 -7.2577187877470806 0 -7.2577187877470806 -7.6558947872156295 0 0 0 0 -74.779581524679088 21.298198142644878 0 21.298198142644878 -3.8996794364488778 0 0 0 0 -48.062430382437014 -19.204598260140415 0 -19.204598260140415 -7.6316387623676292 0 0 0 0 -23.261522846528294 2.6895592087252442 0 2.6895592087252442 24.844265326936977 0 0 0 0 -4.50524527368907 2.3320722060150274 0 2.3320722060150274 -1.584999848370785 0 0 0 0 -1.1024898492837423 -0.13715347577009673 0 -0.13715347577009673 0.17457944393731961 0 0 0 0 -27.597919903884758 35.996527826952104 0 35.996527826952104 -29.316482371938491 0 0 0 0 -18.13865115398221 -13.806774412481161 0 -13.806774412481161 -5.0883713272620525 0 0 0 0 5.2565555747087274 6.1531404685450752 0 6.1531404685450752 -17.287478979368188 0 0 0 0 -2.8529728226985753 14.22959933373636 0 14.22959933373636 -5.7923707627900285 0 0 0 0 -6.6226451103702857 12.282287865154103 0 12.282287865154103 -1.7754829090441717 0 0 0 0 -7.8036862454955553 8.8906799901132842 0 8.8906799901132842 -11.226800533266896 0 0 0 0 -1.8968514671360026 5.4783363729345638 0 5.4783363729345638 -10.837654359560332 0 0 0 0 -4.2123785317180591 11.656395404060504 0 11.656395404060504 -10.106028770366493 0 0 0 0 -14.381716883215631 -3.0349021803706364 0 -3.0349021803706364 -14.45917762209001 0 0 0 0 -15.177330534037537 -0.15217255068654367 0 -0.15217255068654367 -21.419012196278345 0 0 0 0 -14.579938688562834 2.0862153305737365 0 2.0862153305737365 -11.138631519361525 0 0 0 0 -15.3946768792066 -4.3233892896269026 0 -4.3233892896269026 -20.134214430314614 0 0 0 0 -4.6205460604269319 -9.5071467185912297 0 -9.5071467185912297 -14.72559512001984 0 0 0 0 -2.274085145261779 -3.5435095680888935 0 -3.5435095680888935 -1.5487439958617415 0 0 0 0 -0.095079962526924078 0.21769198686643465 0 0.21769198686643465 0.0018154497926762547 0 0 0 0 -111.93819055471795 34.90991479568936 0 34.90991479568936 -13.21296675769986 0 0 0 0 -59.95994257813436 30.519318086645171 0 30.519318086645171 -13.049451380956413 0 0 0 0 -19.329401322793274 31.811586536748223 0 31.811586536748223 -39.16285497623835 0 0 0 0 -49.903661564350841 53.690313409045075 0 53.690313409045075 -36.311594668760335 0 0 0 0 -41.788504131469381 57.817336259296667 0 57.817336259296667 -69.173709040407061 0 0 0 0 -0.523204977908172 0.11411009557134388 0 0.11411009557134388 -0.027743382431839492 0 0 0 0 -93.800524755522019 81.715595122787533 0 81.715595122787533 -78.496650110907808 0 0 0 0 -105.93359567991865 47.345386447425653 0 47.345386447425653 -32.987991164552568 0 0 0 0 -123.41398047862458 12.465471998382441 0 12.465471998382441 -77.929582076599218 0 0 0 0 -65.971438886033866 -6.6985545483726128 0 -6.6985545483726128 -6.0342509505474027 0 0 0 0 -107.00446345920807 20.652888380723478 0 20.652888380723478 -15.319205101104217 0 0 0 0 -29.043404546773672 -14.474633743919412 0 -14.474633743919412 -18.834587896087442 0 0 0 0 -54.213153816686827 5.5613986700016085 0 5.5613986700016085 -13.800706380205497 0 0 0 0 -88.153860917780548 30.817724320206707 0 30.817724320206707 -27.944557751183993 0 0 0 0 -78.256883444839332 0.43944792656498066 0 0.43944792656498066 -7.654363107856625 0 0 0 0 -64.840967062574236 4.140982070893088 0 4.140982070893088 -9.7220872100165252 0 0 0 0 -32.743321686595664 2.834527611084809 0 2.834527611084809 -9.0955895408278593 0 0 0 0 -44.902758041480411 28.004222278005841 0 28.004222278005841 -8.3312052638560772 0 0 0 0 -28.314187273270363 6.8817302027013056 0 6.8817302027013056 -13.09267568460541 0 0 0 0 -61.050985316786182 31.522600684998736 0 31.522600684998736 -10.473293947719412 0 0 0 0 -55.110230027279613 26.192862377799884 0 26.192862377799884 -6.6983342128676213 0 0 0 0 -48.342350947658815 42.183282204843465 0 42.183282204843465 -10.315690275705492 0 0 0 0 -73.853626867577987 41.995005383013222 0 41.995005383013222 -9.7233149797764327 0 0 0 0 -30.126854455887951 46.019418688979385 0 46.019418688979385 -10.194109152144392 0 0 0 0 -53.244553922642808 44.589004845995078 0 44.589004845995078 -10.055495362592865 0 0 0 0 -27.301248009989649 11.073276023300195 0 11.073276023300195 -2.3230711720411819 0 0 0 0 -62.147804983680544 45.024347291256277 0 45.024347291256277 2.4499336056758239 0 0 0 0 -64.733502601757209 7.4667458885412543 0 7.4667458885412543 58.424682795101944 0 0 0 0 -53.421160743368091 44.571449443583845 0 44.571449443583845 -8.2051233534605217 0 0 0 0 -37.447599958733917 32.736179084197374 0 32.736179084197374 -8.6356945776538865 0 0 0 0 -16.215877595590428 16.597558836415601 0 16.597558836415601 -22.744610860272132 0 0 0 0 -29.090704726593685 28.009207362620941 0 28.009207362620941 -30.215137112054435 0 0 0 0 -30.741816590570352 18.587950352829772 0 18.587950352829772 -17.373499582952945 0 0 0 0 2.693708022175997 6.2804190777358144 0 6.2804190777358144 6.9171219882844639 0 0 0 0 -1.365996188924143 0.54843450545909178 0 0.54843450545909178 -0.98462864852783882 0 0 0 0 -26.252845493330824 11.696146008084838 0 11.696146008084838 -12.123010416990383 0 0 0 0 -1.1831198358371569 0.53676410505173422 0 0.53676410505173422 -0.13196129896682329 0 0 0 0 -2.2181851733475924 -1.0497393196022813 0 -1.0497393196022813 11.249532622174627 0 0 0 0 -2.2326625591431366 3.741492651090212 0 3.741492651090212 5.9149623676412943 0 0 0 0 13.865977528908843 -3.9532211484956008 0 -3.9532211484956008 3.3486064444187207 0 0 0 0 3.8441096567912609 1.3205179741211168 0 1.3205179741211168 7.476093097000728 0 0 0 0 -2.0123987594270147 -1.0295955730663309 0 -1.0295955730663309 9.1525831885579265 0 0 0 0 -3.7182615019139504 2.0354441262159395 0 2.0354441262159395 -1.8204027271821133 0 0 0 0 1.1308473208846408 11.872545990150741 0 11.872545990150741 20.327263830899028 0 0 0 0 10.232965594579582 23.954140502406119 0 23.954140502406119 -13.578754394900315 0 0 0 0 -0.35461110261868045 0.90721772179099602 0 0.90721772179099602 -4.3742994223752047 0 0 0 0 20.665873139301766 14.445418948363027 0 14.445418948363027 -16.012433033326204 0 0 0 0 9.1030024930805666 44.657169080988368 0 44.657169080988368 27.865163985945102 0 0 0 0 17.652459457083751 28.642227531961126 0 28.642227531961126 21.981660277032503 0 0 0 0 19.792939080884025 46.03346981188318 0 46.03346981188318 0.74523433989037358 0 0 0 0 -3.5764635516097769 38.494591060255054 0 38.494591060255054 18.856303198720724 0 0 0 0 -4.8703048885508906 40.712151224706197 0 40.712151224706197 18.740507553781221 0 0 0 0 -3.0894967936601461 19.355222187482553 0 19.355222187482553 21.035502266268168 0 0 0 0 9.9670700930606131 31.138953071007052 0 31.138953071007052 22.274592355147831 0 0 0 0 -0.42234474019642221 17.702829530510485 0 17.702829530510485 12.428095430890494 0 0 0 0 -32.321060720685637 -2.855134628173964 0 -2.855134628173964 108.52045864146734 0 0 0 0 -11.319506193563939 17.395315290984765 0 17.395315290984765 46.66432146716285 0 0 0 0 -29.107892300242383 33.247351941175836 0 33.247351941175836 47.099695415042738 0 0 0 0 6.3529574774329376 4.3864128341606943 0 4.3864128341606943 44.590527520605463 0 0 0 0 -6.6335102261436276 0.93799619759674258 0 0.93799619759674258 0.80974380424280601 0 0 0 0 -20.717796589397039 9.3561488276076261 0 9.3561488276076261 7.540998568623877 0 0 0 0 -31.651297798787709 18.77770911442866 0 18.77770911442866 -3.7106242266702623 0 0 0 0 6.3881315737453406 13.077337430859188 0 13.077337430859188 -8.7271890122341347 0 0 0 0 -2.8182445740894764 13.572549447715232 0 13.572549447715232 23.664116095255594 0 0 0 0 -7.6875342424536939 -8.7352655185701451 0 -8.7352655185701451 12.245727390913828 0 0 0 0 -4.9697436377787199 1.4747095191127242 0 1.4747095191127242 0.58215442680327922 0 0 0 0 -11.103514475980774 -3.2390675434266996 0 -3.2390675434266996 0.10793654575147116 0 0 0 0 -0.43140492641305173 -13.784328232862329 0 -13.784328232862329 2.503617542144184 0 0 0 0 -5.5875678116572089 -4.7716368956885162 0 -4.7716368956885162 9.9720266416102277 0 0 0 0 -6.3320282456534187 -6.7445023501724108 0 -6.7445023501724108 1.4396205824956496 0 0 0 0 -6.9160094601247692 -6.3275907713186825 0 -6.3275907713186825 8.8180217445395783 0 0 0 0 -5.5639029200037839 -4.4797559261485276 0 -4.4797559261485276 2.725424127426777 0 0 0 0 -2.8838162580796052 -3.3800036550968571 0 -3.3800036550968571 3.1648645438779113 0 0 0 0 -1.4220685536602105 -1.1142196540136524 0 -1.1142196540136524 -0.29302540624621543 0 0 0 0 -6.8704485119314995 -1.3749796704653505 0 -1.3749796704653505 0.46520976737178898 0 0 0 0 -9.9410288689505251 -3.5142585785536653 0 -3.5142585785536653 -1.4769624621702633 0 0 0 0 -15.993908195861877 3.7537970053991501 0 3.7537970053991501 -5.4741989295056328 0 0 0 0 -11.879028081279102 -3.6824565017528812 0 -3.6824565017528812 0.11675840106846636 0 0 0 0 -8.5575706522540713 0.067813214023487944 0 0.067813214023487944 -3.7314188477292305 0 0 0 0 -19.457080620381021 -1.09185502470865 0 -1.09185502470865 -0.89847950829397405 0 0 0 0 -10.228861868690956 -0.91521127441340511 0 -0.91521127441340511 -4.0161925077479737 0 0 0 0 -10.214812676509609 -0.70700503950649818 0 -0.70700503950649818 -0.9422131872013324 0 0 0 0 -2.9292356266887509 -0.58878976299081387 0 -0.58878976299081387 -3.1152962241816908 0 0 0 0 -7.0391825229080496 -3.4166302238145505 0 -3.4166302238145505 -0.33627710662267418 0 0 0 0 14.039489475840128 9.2523474611207632 0 9.2523474611207632 0.29919177272847719 0 0 0 0 -58.340841444451144 0.90510463274200958 0 0.90510463274200958 7.4264899471336889 0 0 0 0 0.0032464436580355027 -0.04267547571980046 0 -0.04267547571980046 -0.14713166366270469 0 0 0 0 -30.829092177340499 1.3803622162683951 0 1.3803622162683951 0.80103726474453651 0 0 0 0 -28.75380534386386 -1.7326024126641641 0 -1.7326024126641641 0.56970594843278377 0 0 0 0 -30.084094638883244 -2.9442349328113764 0 -2.9442349328113764 -1.2550149723653021 0 0 0 0 -20.161685416860564 0.98741199204579289 0 0.98741199204579289 -1.1389772988257505 0 0 0 0 -30.224870205867774 0.22107577470978867 0 0.22107577470978867 -0.32598685999246868 0 0 0 0 -0.17461710834953692 0.20423058408049855 0 0.20423058408049855 -0.28376106863083683 0 0 0 0 -22.324738997749591 5.1681822804583391 0 5.1681822804583391 -2.7857608867549288 0 0 0 0 -38.158906167069972 9.7869478410384918 0 9.7869478410384918 0.20477539466486405 0 0 0 0 -25.439160163979977 -0.99565639875959278 0 -0.99565639875959278 -0.23469733797719528 0 0 0 0 -36.092745088048105 -8.663324353341693 0 -8.663324353341693 -5.7304694081404364 0 0 0 0 -21.350937991204773 -3.1724739400517592 0 -3.1724739400517592 -18.422100716040177 0 0 0 0 -35.257182049877883 7.7871866097930251 0 7.7871866097930251 -7.3614212106290893 0 0 0 0 -0.081619004224627645 0.083977999414642623 0 0.083977999414642623 0.089194762159076318 0 0 0 0 -38.400898047823375 -15.881158548190124 0 -15.881158548190124 -4.6481577080253942 0 0 0 0 -7.0327074467822968 1.3533029715035809 0 1.3533029715035809 -2.3976110360429175 0 0 0 0 -2.9444532753748263 -0.49143784730624063 0 -0.49143784730624063 -4.444295985903068 0 0 0 0 -2.8597258085233079 0.5529131407279948 0 0.5529131407279948 -0.4376402744819643 0 0 0 0 -19.476072930840019 -5.0553213844847278 0 -5.0553213844847278 -7.8899437998504709 0 0 0 0 -16.274578606862633 0.38004881947580316 0 0.38004881947580316 -2.0757778658745565 0 0 0 0 -8.2565026583542931 -1.762305161521823 0 -1.762305161521823 -7.2059137940583469 0 0 0 0 -10.818116495065624 3.0676038823173712 0 3.0676038823173712 -3.9257694831125036 0 0 0 0 -12.99664972104074 -0.79812416052948265 0 -0.79812416052948265 -7.6790856568804315 0 0 0 0 -19.860427206383974 1.4306381053250306 0 1.4306381053250306 -4.6019331568951429 0 0 0 0 -6.5150585665578546 -0.35635927408537782 0 -0.35635927408537782 -4.4578443086480206 0 0 0 0 -1.4567412793148833 -0.91693557320678565 0 -0.91693557320678565 -5.0902702478033461 0 0 0 0 -4.9852277630216122 2.5421424876687695 0 2.5421424876687695 -3.3842706393876369 0 0 0 0 -0.51382143152295612 -1.7213203857463668 0 -1.7213203857463668 -1.7580691618453805 0 0 0 0 -0.6836857126763789 -6.7959828322065619 0 -6.7959828322065619 -4.9059853298222151 0 0 0 0 0.047512578001951855 -0.064167714543646781 0 -0.064167714543646781 -0.70358532430687215 0 0 0 0 -11.680952967888516 10.301712249370723 0 10.301712249370723 1.6393771769274252 0 0 0 0 2.2481075966607023 1.3491683566408312 0 1.3491683566408312 -4.8060412257807457 0 0 0 0 0.077228072284227123 -0.14930842283026635 0 -0.14930842283026635 -0.64324257828758635 0 0 0 0 9.5941817529919717 0.49998009378022346 0 0.49998009378022346 -5.6479686806053451 0 0 0 0 4.1813545645345584 -0.6004357973228025 0 -0.6004357973228025 -4.7977110882899936 0 0 0 0 1.9371684893267229 0.30902133461268022 0 0.30902133461268022 -4.0573462046227746 0 0 0 0 6.5167295208530049 3.6628984682497503 0 3.6628984682497503 -3.3247177312201757 0 0 0 0 -0.18237967352979467 1.9741593022825583 0 1.9741593022825583 -3.0531305706113017 0 0 0 0 2.8795120614340703 3.3504604543303884 0 3.3504604543303884 1.4274847823447772 0 0 0 0 14.031347088770417 1.8210097428391805 0 1.8210097428391805 -6.8812554325297697 0 0 0 0 1.9607656164444052 1.4800765725555038 0 1.4800765725555038 -7.7455435260039849 0 0 0 0 -6.0492801428299572 -5.122496050577297 0 -5.122496050577297 -6.3884955031714981 0 0 0 0 -22.95297798540696 -1.9741123286778475 0 -1.9741123286778475 1.0716553119864329 0 0 0 0 -9.7718626649948419 4.3163052898269143 0 4.3163052898269143 1.0803997736581863 0 0 0 0 -4.6286200208719492 -2.4223912739993807 0 -2.4223912739993807 -7.1039701439431155 0 0 0 0 -13.836001809086156 1.3278433883253911 0 1.3278433883253911 -3.8633130333083159 0 0 0 0 -4.5258227236408857 -0.40911078730675854 0 -0.40911078730675854 6.2896655854226537 0 0 0 0 2.1309659976686817 -7.7940878203496595 0 -7.7940878203496595 -3.5677818014396507 0 0 0 0 6.5799894695209105 6.7999302076957093 0 6.7999302076957093 -3.5199132082975666 0 0 0 0 4.7357966810559446 8.5447219928437335 0 8.5447219928437335 -3.0677361730417942 0 0 0 0 -11.379938756821502 3.2605682284187196 0 3.2605682284187196 -1.6836122245007346 0 0 0 0 -0.46472307482326869 0.017053634203875845 0 0.017053634203875845 -8.9429764292638083 0 0 0 0 6.2195575642999756 11.478149541729579 0 11.478149541729579 -4.3713968832182672 0 0 0 0 10.540522632654756 -1.8076744458314806 0 -1.8076744458314806 -14.91425707366966 0 0 0 0 -0.71994294076427412 0.38378190927160816 0 0.38378190927160816 -1.2407139992269611 0 0 0 0 6.7762305284072681 -0.83571539486042923 0 -0.83571539486042923 0.93032071558241114 0 0 0 0 -6.1697470535436878 0.63711611690169434 0 0.63711611690169434 -1.8835684293630237 0 0 0 0 -9.6103715327824375 8.0236292857285605 0 8.0236292857285605 1.2302687654723741 0 0 0 0 -0.87250491565156696 0.22702557159501069 0 0.22702557159501069 -0.31445629044069223 0 0 0 0 2.0762807355931727 -1.864886468868292 0 -1.864886468868292 2.3378902391928023 0 0 0 0 -0.52050415613393852 -3.5851432602741937 0 -3.5851432602741937 0.11673946598489238 0 0 0 0 2.9063131151197013 -0.42987952688758924 0 -0.42987952688758924 2.5377991404623117 0 0 0 0 5.8283463905954704 -3.2183502409638152 0 -3.2183502409638152 -1.309436848957148 0 0 0 0 2.2273884455644293 -1.1527154821477552 0 -1.1527154821477552 -1.0466293531511894 0 0 0 0 -2.291821262515441 -2.7615805834793292 0 -2.7615805834793292 0.18906850922758167 0 0 0 0 0.85404798947274685 -0.12517191886763612 0 -0.12517191886763612 -2.2881194788933499 0 0 0 0 1.0619978947433992 -1.2695151083804603 0 -1.2695151083804603 3.8071359354407264 0 0 0 0 3.644486681518174 -4.2043045203573115 0 -4.2043045203573115 1.0353043611967223 0 0 0 0 -11.138831320371537 -13.301595983360698 0 -13.301595983360698 4.848157849711356 0 0 0 0 -22.94401268351794 -23.609532007720532 0 -23.609532007720532 -3.2484618779948278 0 0 0 0 -19.777179940010683 -8.7226764054788646 0 -8.7226764054788646 -1.5107644446848099 0 0 0 0 -43.006923016013388 -16.446475480586003 0 -16.446475480586003 -3.998045208100848 0 0 0 0 -11.154511390617699 -17.599447214076235 0 -17.599447214076235 -12.128268245237905 0 0 0 0 -13.857298328381148 -24.510530173298321 0 -24.510530173298321 -11.267986435747503 0 0 0 0 -3.2259773410569323 -21.102818208732685 0 -21.102818208732685 -22.721383200067521 0 0 0 0 -4.4910478750425682 -22.604267001733433 0 -22.604267001733433 -17.078244613543575 0 0 0 0 -0.98394269439995696 -19.411347315861917 0 -19.411347315861917 -15.892619566828444 0 0 0 0 -7.888451013899612 -22.403052551776454 0 -22.403052551776454 -4.8900929151869832 0 0 0 0 -2.8527234572757152 -15.174789684810378 0 -15.174789684810378 -0.43405468370690414 0 0 0 0 -6.2855747820321994 -18.348408685259415 0 -18.348408685259415 -7.6767363134730431 0 0 0 0 -13.69558084572418 -22.892799419579887 0 -22.892799419579887 2.2800670970107149 0 0 0 0 -5.9750683003094309 -15.024372206694579 0 -15.024372206694579 7.4333860109488796 0 0 0 0 -9.0154449071942508 -20.024229849320989 0 -20.024229849320989 9.911589048002611 0 0 0 0 -5.6188280518449574 -10.110433201234386 0 -10.110433201234386 18.276932174539752 0 0 0 0 -7.9870936732895643 -13.842526100206328 0 -13.842526100206328 22.231949916810436 0 0 0 0 -5.6405286818589957 -10.428241105533857 0 -10.428241105533857 24.220097314545505 0 0 0 0 -10.418387378518673 -19.806940396511493 0 -19.806940396511493 9.6131281784708449 0 0 0 0 -14.149989736564748 -15.423510826771803 0 -15.423510826771803 23.999664144918029 0 0 0 0 -14.183823794210184 -3.7333818908389844 0 -3.7333818908389844 17.217853250835276 0 0 0 0 -7.0437243609558209 3.9919586524653141 0 3.9919586524653141 51.261261952543123 0 0 0 0 -12.923456093485584 -11.367058822706227 0 -11.367058822706227 41.0344491235536 0 0 0 0 -7.4300214819595567 7.7873623055627945 0 7.7873623055627945 64.803172159485229 0 0 0 0 -7.484451594397342 -8.4095776439356271 0 -8.4095776439356271 37.62834089841715 0 0 0 0 -3.6980795737690642 2.1435845290078532 0 2.1435845290078532 48.418515370638374 0 0 0 0 -0.7976447794590058 -2.9970972614731863 0 -2.9970972614731863 55.24827589419499 0 0 0 0 -4.577067636993867 -0.08347392239744314 0 -0.08347392239744314 0.17313218852506695 0 0 0 0 -11.989791164774942 -11.944621851875485 0 -11.944621851875485 12.63590803887989 0 0 0 0 -5.6603235216480243 -0.66161506961238103 0 -0.66161506961238103 8.5963405437381084 0 0 0 0 -3.078171879367801 0.46624161558330002 0 0.46624161558330002 8.4303137618610897 0 0 0 0 0.077913425042396511 -0.98008852161819338 0 -0.98008852161819338 0.088841156876874106 0 0 0 0 -3.9867181908244973 -0.65152917455338666 0 -0.65152917455338666 0.15855083912915896 0 0 0 0 -7.6643653477694897 -0.22790926910118969 0 -0.22790926910118969 42.839967771193756 0 0 0 0 -1.1254429136861503 -0.54352397618217196 0 -0.54352397618217196 -0.053331301276336729 0 0 0 0 -4.9168097207889332 1.2055020132934828 0 1.2055020132934828 15.190393245741802 0 0 0 0 -4.4518933887543426 -3.5168151550762161 0 -3.5168151550762161 36.01170986598288 0 0 0 0 -0.91751639269932639 6.9017601374130209 0 6.9017601374130209 48.636455314775844 0 0 0 0 -9.7322276887171029 -7.4375482230378225 0 -7.4375482230378225 37.213104212782355 0 0 0 0 -9.3326584845453908 -5.8192787181500307 0 -5.8192787181500307 37.345707132173629 0 0 0 0 -4.3318227562740503 -7.0645344439447229 0 -7.0645344439447229 19.362692577030543 0 0 0 0 -2.8786285223677623 -1.4187928897356272 0 -1.4187928897356272 28.718934305775861 0 0 0 0 -6.8679422020450147 -10.010931177768043 0 -10.010931177768043 22.022742277669295 0 0 0 0 -0.61809338988450691 -7.6828691898128554 0 -7.6828691898128554 31.148617245588525 0 0 0 0 1.5025235945649911 -2.2206471253312259 0 -2.2206471253312259 28.844539795506066 0 0 0 0 5.0874020575520262 -6.120546597515002 0 -6.120546597515002 -18.156379949640296 0 0 0 0 -7.3657193545186601 -9.3012312825493382 0 -9.3012312825493382 5.8242536853921294 0 0 0 0 -10.145712265872135 -3.6437779155725707 0 -3.6437779155725707 42.627830718937503 0 0 0 0 -15.266108132182126 -7.3634496249242716 0 -7.3634496249242716 13.864917498323095 0 0 0 0 -4.5598758210179469 -0.77108361338454701 0 -0.77108361338454701 -0.0046832555673537168 0 0 0 0 -5.0580808281738427 3.3489262526347261 0 3.3489262526347261 31.928401027797975 0 0 0 0 -7.3544091647472669 -7.0556317862652378 0 -7.0556317862652378 31.105298822672125 0 0 0 0 -1.5168336854239897 -3.2778901766450588 0 -3.2778901766450588 13.975500295755353 0 0 0 0 -6.6093774986075005 -9.2826933889727457 0 -9.2826933889727457 13.970239899228687 0 0 0 0 -0.80506146359675768 -6.345008043249095 0 -6.345008043249095 5.7905169964117249 0 0 0 0 -7.0978391898197515 -16.294158497496184 0 -16.294158497496184 13.679992660083713 0 0 0 0 -1.5039651457864238 -11.94997955427624 0 -11.94997955427624 4.2115656223179485 0 0 0 0 -2.4377515561573091 -17.003830698546096 0 -17.003830698546096 -2.6652009840710207 0 0 0 0 -2.7061577126987686 -17.710601020254444 0 -17.710601020254444 -6.7194051049459631 0 0 0 0 -2.767320851296688 -20.454204129391272 0 -20.454204129391272 -5.092196219001039 0 0 0 0 0.63966529485151113 -19.575685321973623 0 -19.575685321973623 -17.211840279825196 0 0 0 0 -0.23366091118259646 -17.774689391553011 0 -17.774689391553011 -17.843203323801902 0 0 0 0 -2.1254972487431587 -19.682978518183944 0 -19.682978518183944 -17.230373531060081 0 0 0 0 -3.1495528698123962 -18.950089603100992 0 -18.950089603100992 -17.793566779506676 0 0 0 0 1.9519891109803211 -15.512274287793076 0 -15.512274287793076 -18.151733607275105 0 0 0 0 -0.7568145732220728 -13.839678811311842 0 -13.839678811311842 -5.4761046240538462 0 0 0 0 -9.2898681612568907 -16.923595689102001 0 -16.923595689102001 -17.902381660302069 0 0 0 0 -12.764755125492229 -28.185807369589725 0 -28.185807369589725 -34.553789837945658 0 0 0 0 -45.986399882366413 -30.166813124984103 0 -30.166813124984103 -17.069242448063392 0 0 0 0 -34.340110970902472 -12.846472001749104 0 -12.846472001749104 -3.3351319264659764 0 0 0 0 -6.8210926806150383 -9.3134321408331289 0 -9.3134321408331289 -30.37504002205722 0 0 0 0 -9.7860677226217376 -7.0147989397531774 0 -7.0147989397531774 -5.2012982461930051 0 0 0 0 0.011654618616375956 -13.223038499004701 0 -13.223038499004701 -1.6871491432945618 0 0 0 0 -12.370438990147704 -6.0171017294763018 0 -6.0171017294763018 30.422731051726629 0 0 0 0 -1.5606301511979837 0.87716340587994068 0 0.87716340587994068 9.2417244408074168 0 0 0 0 3.468761388193343 3.1087791244537826 0 3.1087791244537826 -3.2582264234329443 0 0 0 0 -4.7304333509741596 -0.83986375584648132 0 -0.83986375584648132 -0.0056894862258106884 0 0 0 0 -19.435675708245981 -0.3893134298495724 0 -0.3893134298495724 21.02878280214334 0 0 0 0 -2.1980212369062428 1.0020860403795879 0 1.0020860403795879 7.1517573024162431 0 0 0 0 -1.1682744947256651 5.7015691859449831 0 5.7015691859449831 1.3123352339324015 0 0 0 0 -4.4942560419003712 -0.97101291611778606 0 -0.97101291611778606 -1.6509402387656316 0 0 0 0 -9.7145088134743673 -24.218311390464891 0 -24.218311390464891 -2.8986822530799827 0 0 0 0 -14.818903591457456 -11.103854720568791 0 -11.103854720568791 27.467919311961111 0 0 0 0 -18.328927684946393 -32.262338671975726 0 -32.262338671975726 -16.549365361000014 0 0 0 0 6.7293360170333472 1.8123150695682284 0 1.8123150695682284 -10.057365541002696 0 0 0 0 -4.2939159324032516 4.3744624241544585 0 4.3744624241544585 7.5983465355221398 0 0 0 0 -2.0385404624066723 5.2985531533511079 0 5.2985531533511079 5.5926701525518183 0 0 0 0 -4.6141880687355297 3.115949512947374 0 3.115949512947374 4.8206716153689229 0 0 0 0 -4.4712428964442097 -0.74561049472026941 0 -0.74561049472026941 0.058821124529436802 0 0 0 0 -4.8966078673774973 3.5445761721937359 0 3.5445761721937359 6.6859022859578658 0 0 0 0 -2.7265137070389756 4.0333028983107795 0 4.0333028983107795 3.2735575382805564 0 0 0 0 -141.28124273316644 33.299267316890081 0 33.299267316890081 8.7472634298866865 0 0 0 0 -0.26155488395296977 0.85898410487052956 0 0.85898410487052956 0.56059093258331583 0 0 0 0 -183.37328920465734 30.938589262607366 0 30.938589262607366 33.430008603915269 0 0 0 0 -180.28171101505723 48.623723762892027 0 48.623723762892027 5.3439919164862886 0 0 0 0 -144.96813641555491 71.634796795542513 0 71.634796795542513 -32.519238447943849 0 0 0 0 -167.45295557636928 108.21463589234324 0 108.21463589234324 -64.818872973166776 0 0 0 0 -248.47752247645258 143.22271532917068 0 143.22271532917068 -72.27136938489565 0 0 0 0 -0.30438053580371616 0.45464205777096378 0 0.45464205777096378 0.045420499683072733 0 0 0 0 -185.64778624917381 -6.98894655967581 0 -6.98894655967581 -76.869332027818047 0 0 0 0 -229.22094308702253 23.911282751698188 0 23.911282751698188 -6.4147924181657459 0 0 0 0 -301.38095148910816 41.758375017792908 0 41.758375017792908 -8.9528999641485143 0 0 0 0 -167.20130168203468 49.454427831815622 0 49.454427831815622 -64.729730613984572 0 0 0 0 -256.7819741833755 -10.344102267242135 0 -10.344102267242135 -26.581997760804938 0 0 0 0 -253.28467588711283 -27.386019699098057 0 -27.386019699098057 -2.962628618445617 0 0 0 0 22.505756208895946 -18.036673753481523 0 -18.036673753481523 -38.232738348621069 0 0 0 0 -0.99839517151976409 -0.38659609892591007 0 -0.38659609892591007 -0.19043812415862393 0 0 0 0 -5.9696274351153988 -55.23694910912468 0 -55.23694910912468 -59.124740566420655 0 0 0 0 -103.78328391412629 -30.446409161904903 0 -30.446409161904903 -65.079677116868538 0 0 0 0 -28.910704086320038 -28.992829751158069 0 -28.992829751158069 -15.720208911515606 0 0 0 0 -141.65481182460826 -27.876361976841451 0 -27.876361976841451 -15.109556417710337 0 0 0 0 -69.645668769559506 -8.1958715677146046 0 -8.1958715677146046 -2.3061937723439314 0 0 0 0 -33.957955517187301 -37.183300926769476 0 -37.183300926769476 -15.248979604535293 0 0 0 0 -47.903308018002463 -35.956691993674212 0 -35.956691993674212 -1.2898549582654368 0 0 0 0 -5.6883561601880501 -21.353571275792405 0 -21.353571275792405 -15.225007208617512 0 0 0 0 1.6183881240503979 -50.483485356128142 0 -50.483485356128142 3.4297219270055734 0 0 0 0 -14.144006554706721 -51.047111715225014 0 -51.047111715225014 3.6197792152945283 0 0 0 0 -0.60728155589777799 -0.090767678704768429 0 -0.090767678704768429 0.091290687816373062 0 0 0 0 26.315984619221126 -3.6263371679730199 0 -3.6263371679730199 -1.8437800850250312 0 0 0 0 -34.903960972889763 3.6635762468333155 0 3.6635762468333155 -2.5131990629897984 0 0 0 0 -25.498442933854676 23.914215608757672 0 23.914215608757672 -14.662642636480086 0 0 0 0 -5.0611446613238513 18.185148091749909 0 18.185148091749909 -24.239219079273425 0 0 0 0 1.0165886168542784 7.8669504769815433 0 7.8669504769815433 -19.833935580328671 0 0 0 0 -28.479490110556071 21.218509652558851 0 21.218509652558851 -19.781842590456563 0 0 0 0 -16.824018193839947 6.5729523654597415 0 6.5729523654597415 -6.9288214851710563 0 0 0 0 -58.774613583915198 7.5466601330606409 0 7.5466601330606409 -6.1625347840507629 0 0 0 0 4.2508995985044749 -4.2869800769081507 0 -4.2869800769081507 -2.7491952430651736 0 0 0 0 0.024933214346409494 -0.041831865751515096 0 -0.041831865751515096 -0.074538146575284348 0 0 0 0 -35.615952665772966 12.740109483129601 0 12.740109483129601 -0.31736230322121628 0 0 0 0 -92.339636165874253 -30.735840961334816 0 -30.735840961334816 29.646764341972812 0 0 0 0 -18.518027752179478 0.0076963924634583236 0 0.0076963924634583236 -0.067507291307492778 0 0 0 0 -25.58182680684331 1.8125469317596981 0 1.8125469317596981 -0.15941509877472981 0 0 0 0 -13.020347965910332 8.4132324468764637 0 8.4132324468764637 -2.7967522364928925 0 0 0 0 -23.545076058710947 8.8210241035713466 0 8.8210241035713466 -2.8062744165827098 0 0 0 0 -15.604283248119827 11.412312776835563 0 11.412312776835563 -6.8801505238441223 0 0 0 0 -12.243714998716314 13.228329924142713 0 13.228329924142713 -7.6209471309290961 0 0 0 0 -6.2562147646021913 10.765288747312979 0 10.765288747312979 -6.3415542375964549 0 0 0 0 -8.2985298657113162 9.4006796633255476 0 9.4006796633255476 -6.3748442734172386 0 0 0 0 -10.588921632061101 6.9514504102296542 0 6.9514504102296542 -2.9049640521666333 0 0 0 0 -5.4463795030133042 1.6007088484544738 0 1.6007088484544738 -1.2176546026075812 0 0 0 0 -6.4662465638903086 -1.3880914634162309 0 -1.3880914634162309 -1.6733467901200925 0 0 0 0 -8.6384619124692108 5.1334395379507214 0 5.1334395379507214 -5.2467414286725216 0 0 0 0 -3.3589819222288497 1.5996146182676512 0 1.5996146182676512 -3.0265169983559872 0 0 0 0 -0.17999944450721017 -0.33769872010577773 0 -0.33769872010577773 -0.26356800363545829 0 0 0 0 -0.89519379781557973 -3.0367472474249979 0 -3.0367472474249979 -1.7393786777656715 0 0 0 0 -1.179812188649521 -4.4893816445252241 0 -4.4893816445252241 -4.5836197733694064 0 0 0 0 -10.816343402009807 -6.2019564475806419 0 -6.2019564475806419 3.0648273318111023 0 0 0 0 -0.54739560350313843 -2.5114365205647964 0 -2.5114365205647964 -0.25047339605020502 0 0 0 0 -7.1086180616966885 -4.056141129089383 0 -4.056141129089383 2.5004951320078135 0 0 0 0 -6.1405505367609337 -1.6617374143431736 0 -1.6617374143431736 0.55939940378810649 0 0 0 0 -5.3289046362042427 -4.3025579809054761 0 -4.3025579809054761 2.1180237396711163 0 0 0 0 -11.836546083291296 -9.0508894167307474 0 -9.0508894167307474 0.58278137258139395 0 0 0 0 -0.83713540647356588 -0.23068843390572269 0 -0.23068843390572269 0.2802884644624295 0 0 0 0 -0.88319418510186409 -0.016087937813086484 0 -0.016087937813086484 -0.32853587621806613 0 0 0 0 -3.8223325069375278 0.76250314990068091 0 0.76250314990068091 -3.0908179791158545 0 0 0 0 -9.820243444359221 -9.2235139629895002 0 -9.2235139629895002 -1.8125670471376907 0 0 0 0 -13.620759839162929 2.4632374312288619 0 2.4632374312288619 0.22191695344355367 0 0 0 0 0.70899932980501035 66.506567171999563 0 66.506567171999563 -8.5156444477653395 0 0 0 0 -6.5285292718963319 0.82266518526000709 0 0.82266518526000709 -3.3750053491071412 0 0 0 0 -0.71473826724234613 -0.30975402723751166 0 -0.30975402723751166 -0.037090129923786463 0 0 0 0 -9.3217048017504567 -3.730787803065823 0 -3.730787803065823 -4.1777785982590103 0 0 0 0 -6.8840272834822827 -4.5549709129946905 0 -4.5549709129946905 -4.2262041986859913 0 0 0 0 1.0809417090349598 3.440993586445984 0 3.440993586445984 -6.6048392499913007 0 0 0 0 -6.7332802047421865 -5.3446339528867384 0 -5.3446339528867384 -1.3861404324770774 0 0 0 0 -9.1146852771926206 -3.4104732572154717 0 -3.4104732572154717 6.3579555292526493 0 0 0 0 -10.827434400547645 0.71407235896958809 0 0.71407235896958809 7.2545927919344422 0 0 0 0 -9.1213474588153076 -3.1501117594646573 0 -3.1501117594646573 -2.0104268980903726 0 0 0 0 -3.5247985201058327 0.72015195388348729 0 0.72015195388348729 4.0382430555578139 0 0 0 0 -6.5251395208181933 0.20788444279645901 0 0.20788444279645901 1.7788170594983981 0 0 0 0 -6.7872368813609256 -1.7995552316589496 0 -1.7995552316589496 1.9605274705754709 0 0 0 0 -5.6407456251645414 0.54882736119236464 0 0.54882736119236464 1.5809177814226791 0 0 0 0 -7.3980654260267329 -3.708781172299723 0 -3.708781172299723 3.0636972750060067 0 0 0 0 -7.2048315280735551 -4.1039861769748995 0 -4.1039861769748995 3.1698734192034976 0 0 0 0 -7.9593885303220304 -6.0512607193827819 0 -6.0512607193827819 2.0363502469890697 0 0 0 0 -0.84821414290612651 -1.6093276285287885 0 -1.6093276285287885 2.6629100521742579 0 0 0 0 -21.215258472439018 0.71544905513226809 0 0.71544905513226809 18.44965273299681 0 0 0 0 -23.844127326636226 -7.14102998250101 0 -7.14102998250101 14.84506175413145 0 0 0 0 -3.8175634232208537 0.6151305123621249 0 0.6151305123621249 0.31507662878907405 0 0 0 0 -6.7349841733746629 1.7127615335346229 0 1.7127615335346229 -0.1434775438915557 0 0 0 0 -4.649315221409779 0.133094582893591 0 0.133094582893591 3.0567630496877882 0 0 0 0 5.4186017994361464 -5.1816687887720718 0 -5.1816687887720718 -17.683504712195599 0 0 0 0 -5.8465384349747183 0.10227327173947742 0 0.10227327173947742 -5.2452980694520193 0 0 0 0 -8.7940229224623181 -0.095558161320809631 0 -0.095558161320809631 -4.1449210268071965 0 0 0 0 -10.280977261882072 0.29219149992621851 0 0.29219149992621851 -2.4303577274890813 0 0 0 0 -10.643875216979723 0.69887833542748012 0 0.69887833542748012 5.0384460799004955 0 0 0 0 -9.4944696953389212 -4.2067427917452278 0 -4.2067427917452278 -3.8186464702396279 0 0 0 0 -9.4889608211597078 -3.9873186666063702 0 -3.9873186666063702 -0.72176123782946888 0 0 0 0 -8.2903225674890564 -4.2077540795398818 0 -4.2077540795398818 -4.440799958151274 0 0 0 0 -8.3000557816676519 -5.9424874794803202 0 -5.9424874794803202 -7.7993007007989945 0 0 0 0 -8.370184969251568 -4.9035131192557628 0 -4.9035131192557628 -9.7958490717552422 0 0 0 0 -5.4552327823075757 -5.4818806472204642 0 -5.4818806472204642 -11.931515606227777 0 0 0 0 -8.0955981456590962 -10.671482093920588 0 -10.671482093920588 -11.62151953927355 0 0 0 0 -7.1903238487739145 -9.9936684677484209 0 -9.9936684677484209 -12.04183810944096 0 0 0 0 -13.692964471145388 -16.144344294339817 0 -16.144344294339817 -13.011564615133068 0 0 0 0 -12.303969530359609 -9.2045079317962291 0 -9.2045079317962291 -7.2520606937872287 0 0 0 0 -11.221768584111487 -6.2922156424664024 0 -6.2922156424664024 -4.1421029865814489 0 0 0 0 -10.36907710457308 -5.8235459486089667 0 -5.8235459486089667 -5.6905379043848825 0 0 0 0 -12.3770616402835 2.344302779222744 0 2.344302779222744 0.13101864411419228 0 0 0 0 -20.438474216072791 -0.34793428282193872 0 -0.34793428282193872 5.4890979558146 0 0 0 0 -14.097980904884025 -12.973158557284478 0 -12.973158557284478 -6.209673670524694 0 0 0 0 -18.499827194180398 -11.273367943729227 0 -11.273367943729227 -6.4935418875858772 0 0 0 0 -23.648789235892764 -19.54299994214449 0 -19.54299994214449 -10.649209748078647 0 0 0 0 -38.261850160753966 -8.2833182962178853 0 -8.2833182962178853 4.0723833135613745 0 0 0 0 -14.411630572070862 -18.853617129575014 0 -18.853617129575014 -13.030139947910754 0 0 0 0 -6.2044453312992118 -16.812922145072548 0 -16.812922145072548 -15.871069192376126 0 0 0 0 -3.1536392164889548 -19.415751837443509 0 -19.415751837443509 -23.110611318223732 0 0 0 0 -15.763700808747217 -22.832523783669501 0 -22.832523783669501 -19.362501408864205 0 0 0 0 1.2975031692531047 -19.086767208107062 0 -19.086767208107062 -22.810742791823372 0 0 0 0 -1.2491162212718336 -17.679237046156231 0 -17.679237046156231 -22.856105661715816 0 0 0 0 0.88749092343209668 -18.354047570593067 0 -18.354047570593067 -24.944198218433712 0 0 0 0 1.3444706044174382 -20.713740196985327 0 -20.713740196985327 -25.121311307324277 0 0 0 0 2.1959699344952242 -18.570491574144569 0 -18.570491574144569 -33.451105786548851 0 0 0 0 1.6908521452642162 -17.068855106956562 0 -17.068855106956562 -25.037898554080634 0 0 0 0 1.4237958949161111 -15.630576035775675 0 -15.630576035775675 -27.507552364626122 0 0 0 0 1.4754106006630536 -13.142202197702062 0 -13.142202197702062 -25.489563918320982 0 0 0 0 -1.7686725479070446 -10.113439521978535 0 -10.113439521978535 -27.378889108230169 0 0 0 0 4.1046865465068549 -14.188931976505842 0 -14.188931976505842 -32.267312488340849 0 0 0 0 2.5071698416513755 -12.788795403638289 0 -12.788795403638289 -33.148010770701148 0 0 0 0 2.4144552847792511 -6.6675075791527547 0 -6.6675075791527547 -33.393253754034731 0 0 0 0 5.5880239881316811 -3.1584425511794052 0 -3.1584425511794052 -29.724907207662 0 0 0 0 1.9679588159333434 -6.7526841240300541 0 -6.7526841240300541 -24.413480803516904 0 0 0 0 -4.1543622214594507 -3.8369010422893552 0 -3.8369010422893552 -25.358827661106773 0 0 0 0 -5.7703845752157576 -16.156763397210426 0 -16.156763397210426 -20.308478054224452 0 0 0 0 -3.83525947140879 -5.6765042468673528 0 -5.6765042468673528 -20.35340035554708 0 0 0 0 -2.696032830652257 -10.39279400534565 0 -10.39279400534565 -21.564520932559162 0 0 0 0 -4.0041143294674839 -11.665983504906421 0 -11.665983504906421 -18.022057096275717 0 0 0 0 -6.3593042798929673 -11.046643588963661 0 -11.046643588963661 -17.814515595969169 0 0 0 0 -6.2489693105826518 -7.2859150058397404 0 -7.2859150058397404 -14.510365242815624 0 0 0 0 -6.5062269790796563 -7.4133631296990643 0 -7.4133631296990643 -13.973524017765158 0 0 0 0 -5.5488304164796318 -6.0649238147291555 0 -6.0649238147291555 -18.763933181410266 0 0 0 0 -12.848080822544944 -1.021831277702745 0 -1.021831277702745 -15.550102130903952 0 0 0 0 -2.9624043172079837 -2.0361751700953619 0 -2.0361751700953619 -13.114439467630518 0 0 0 0 -6.2338820806126023 -6.0272520224589243 0 -6.0272520224589243 -13.684124341904862 0 0 0 0 -7.3054342898044666 1.4562950172957216 0 1.4562950172957216 -0.22135334304799664 0 0 0 0 -13.026280444650183 -1.5745914981109763 0 -1.5745914981109763 16.728764026685042 0 0 0 0 -14.313483511883533 5.7697102923200418 0 5.7697102923200418 -6.2385856192242954 0 0 0 0 -6.8752620446721266 4.1552049723537152 0 4.1552049723537152 -2.7097537771941234 0 0 0 0 -13.418413151204732 3.7285166244858772 0 3.7285166244858772 9.8743241742663486 0 0 0 0 -0.17606096449309661 1.0868808384422857 0 1.0868808384422857 -0.41975547977432265 0 0 0 0 -11.033953403213673 -7.629299028751916 0 -7.629299028751916 4.4586008888372248 0 0 0 0 -4.2089443903241772 -3.4800678293803742 0 -3.4800678293803742 5.7615078958247636 0 0 0 0 -4.6521544897259446 8.3350646958581933 0 8.3350646958581933 16.73709345404842 0 0 0 0 1.8367833215306746 6.2292548057545218 0 6.2292548057545218 -21.382384628317141 0 0 0 0 -3.157713142718876 2.1059240968754693 0 2.1059240968754693 -16.50925259048222 0 0 0 0 -0.68607523281153249 -1.1982040059007693 0 -1.1982040059007693 0.67618244616973744 0 0 0 0 -2.502313099004823 1.2890473728427878 0 1.2890473728427878 -26.502558468892403 0 0 0 0 -6.4869615999486996 3.3434316330751699 0 3.3434316330751699 -23.931072226861374 0 0 0 0 0.18439925896927889 -2.5090741294449117 0 -2.5090741294449117 -26.814369519462161 0 0 0 0 -0.99942139863560442 2.192964506994258 0 2.192964506994258 -26.315210315057129 0 0 0 0 8.7618744836618134 4.0989289382007428 0 4.0989289382007428 -32.388780760888039 0 0 0 0 10.014503522179439 6.279508066013932 0 6.279508066013932 -34.237812476369982 0 0 0 0 24.3248758864911 -2.5651507506479447 0 -2.5651507506479447 -57.88036423486551 0 0 0 0 7.6006416039099349 7.615435739819759 0 7.615435739819759 -34.860554214818194 0 0 0 0 6.5680474023938586 5.3379226276198324 0 5.3379226276198324 -32.952246643962667 0 0 0 0 -15.897796169509093 -4.9807387756812886 0 -4.9807387756812886 31.392344921220428 0 0 0 0 -5.9930354970965709 20.314207786407451 0 20.314207786407451 23.163060767039781 0 0 0 0 -17.292923024640913 4.740406690040885 0 4.740406690040885 33.843400781749551 0 0 0 0 -7.7479262211214319 2.1175313981173103 0 2.1175313981173103 -0.4329153682215835 0 0 0 0 47.385070730342704 31.187031338622546 0 31.187031338622546 -20.971421549696629 0 0 0 0 -7.9212474701744213 -17.500425211921282 0 -17.500425211921282 12.484060907513651 0 0 0 0 -25.177717533730174 26.766427857952351 0 26.766427857952351 43.14551652580414 0 0 0 0 -28.676851216114301 114.01933495546609 0 114.01933495546609 129.4391979195151 0 0 0 0 -7.7214095471857505 2.2986322861056809 0 2.2986322861056809 -0.4973135628676067 0 0 0 0 9.9559723267830122 17.695322600525458 0 17.695322600525458 11.332182131882689 0 0 0 0 11.505292545625707 -12.868875434311349 0 -12.868875434311349 47.962547056108519 0 0 0 0 12.616376248646588 32.480107194890678 0 32.480107194890678 -3.4072015502365502 0 0 0 0 43.783734426102455 -19.881615096939072 0 -19.881615096939072 -8.8094371694076017 0 0 0 0 49.453491022255548 11.974679054113153 0 11.974679054113153 -67.273515556928487 0 0 0 0 -1.30456184988725 -32.426913369814656 0 -32.426913369814656 -70.318129749748664 0 0 0 0 -23.8904769009132 -42.032732101309421 0 -42.032732101309421 -71.177292629760245 0 0 0 0 -24.055546586714627 -19.129839526571743 0 -19.129839526571743 -61.061966731300345 0 0 0 0 -9.7798577794801531 -20.017634257614134 0 -20.017634257614134 -48.156858609226902 0 0 0 0 0.28183409694611328 -23.404636931976597 0 -23.404636931976597 -57.503265358725983 0 0 0 0 4.9807733360739803 -6.2054043554552436 0 -6.2054043554552436 -43.127142151743897 0 0 0 0 3.3072715341331786 -17.343066853463029 0 -17.343066853463029 -44.535830219847071 0 0 0 0 8.0147034006586182 -9.9155151335311302 0 -9.9155151335311302 -39.818851666667229 0 0 0 0 -6.0149175834089874 -24.2146736684156 0 -24.2146736684156 -34.468061907129368 0 0 0 0 -0.65528343337064143 -20.579388802183985 0 -20.579388802183985 -32.249429519861678 0 0 0 0 -1.1351477244061243 -21.002562832717445 0 -21.002562832717445 -26.694668605763354 0 0 0 0 -7.8036578342034773 -23.601856717347346 0 -23.601856717347346 -23.853152223387838 0 0 0 0 -8.0526154822227909 -25.738648818320655 0 -25.738648818320655 -33.468533936107406 0 0 0 0 -25.798184899907938 -25.783137685317911 0 -25.783137685317911 -16.607141776750609 0 0 0 0 -43.789240978045655 -28.209877772658785 0 -28.209877772658785 -23.572155394285346 0 0 0 0 -21.716490401038754 -16.539026789538013 0 -16.539026789538013 -17.937221157022464 0 0 0 0 -31.993895929637802 -21.43482857501283 0 -21.43482857501283 -29.839196533241648 0 0 0 0 -21.309746430722953 -35.372091098675469 0 -35.372091098675469 -47.637134622032733 0 0 0 0 -7.3794568085663741 -20.795950264110374 0 -20.795950264110374 -32.754179615798193 0 0 0 0 -38.939096822770807 -3.5501899419070497 0 -3.5501899419070497 -16.588198251668643 0 0 0 0 25.374792191080132 122.66361402555785 0 122.66361402555785 140.68083379741893 0 0 0 0 -5.022624210321375 2.8131704742770545 0 2.8131704742770545 -0.80899298645129047 0 0 0 0 -41.280680990719702 -92.577808349136134 0 -92.577808349136134 -99.22060459627383 0 0 0 0 -2.1232331087581571 1.2437737022148863 0 1.2437737022148863 -0.49743046203647989 0 0 0 0 -246.6922349403203 -109.47836762550696 0 -109.47836762550696 -54.147763740672815 0 0 0 0 98.875608371742146 201.83719301436662 0 201.83719301436662 36.092638924411688 0 0 0 0 3.3478226506990723 68.867094808609409 0 68.867094808609409 -62.183925245628302 0 0 0 0 5.9790775139881589 -23.081512107683665 0 -23.081512107683665 42.195290388191381 0 0 0 0 -41.726238358105547 74.127771605819717 0 74.127771605819717 -49.326582580142656 0 0 0 0 -74.520122015412198 26.376651813226076 0 26.376651813226076 -5.209744890943 0 0 0 0 -21.39525393056374 2.8654501688283176 0 2.8654501688283176 4.5714851131274941 0 0 0 0 -35.290666079175935 32.247963545552579 0 32.247963545552579 8.8805062566784727 0 0 0 0 -12.382810884490027 0.32254651626601571 0 0.32254651626601571 -1.1007749363245125 0 0 0 0 0.5453039439234999 188.66934751632542 0 188.66934751632542 35.156882709789784 0 0 0 0 -1.0813085776875653 0.66687933088484108 0 0.66687933088484108 -0.26228621385253842 0 0 0 0 -43.182052528356962 -26.230489717943833 0 -26.230489717943833 -23.834283242215633 0 0 0 0 -43.743084351890502 -54.889980083462206 0 -54.889980083462206 80.190752086816644 0 0 0 0 -61.12325696264088 -131.49255176117714 0 -131.49255176117714 -69.806526165853484 0 0 0 0 -2.5905849786766382 1.1857054407221472 0 1.1857054407221472 -0.25589097620427126 0 0 0 0 -8.3503653925636172 -15.647659246026393 0 -15.647659246026393 -13.077286403640414 0 0 0 0 -17.136936048133066 -8.7143838006116141 0 -8.7143838006116141 5.4085055027586435 0 0 0 0 4.6394550323084331 -6.8229410404144986 0 -6.8229410404144986 -12.376096933028634 0 0 0 0 -8.6357297727445257 9.0641290127678644 0 9.0641290127678644 106.58403499172979 0 0 0 0 42.680260436508888 -32.33025396956441 0 -32.33025396956441 3.3402509738173762 0 0 0 0 28.800062223215718 -82.227682680698663 0 -82.227682680698663 -112.73576191736709 0 0 0 0 0.37506229769920196 -0.33798630929245022 0 -0.33798630929245022 0.98269792645967913 0 0 0 0 85.86331795335991 -4.7357700514574965 0 -4.7357700514574965 -24.120593330797192 0 0 0 0 78.70926476259956 28.643204248067136 0 28.643204248067136 -63.506299142435381 0 0 0 0 -45.831273000027068 -48.110225151570972 0 -48.110225151570972 17.703910104625493 0 0 0 0 -321.69909391614055 -38.926210721961723 0 -38.926210721961723 41.027632564180749 0 0 0 0 -120.75865905892351 83.00180722230553 0 83.00180722230553 -132.05111621234204 0 0 0 0 -66.109777609264711 34.692911305324273 0 34.692911305324273 -7.4629275054035915 0 0 0 0 -1.2601306170730595 -0.10226851764348832 0 -0.10226851764348832 -0.0033299803993723093 0 0 0 0 -155.09948824873754 -54.498076035631698 0 -54.498076035631698 -25.635530265962018 0 0 0 0 6.9480929169294541 -10.454838677180462 0 -10.454838677180462 2.1312733303930571 0 0 0 0 -0.0057405951793043641 -3.5460658797663385 0 -3.5460658797663385 3.7173422056846377 0 0 0 0 -0.8138388743300311 -6.6146426738460065 0 -6.6146426738460065 8.7149384772679497 0 0 0 0 -4.2212195150423213 3.0766219327443878 0 3.0766219327443878 5.8557175732050766 0 0 0 0 -2.8778951044794496 -0.14757263076748162 0 -0.14757263076748162 0.037109560605233648 0 0 0 0 -0.4038881354004431 0.19302177573078261 0 0.19302177573078261 -0.060164835112355597 0 0 0 0 -2.0465153592516785 0.22807269307516798 0 0.22807269307516798 0.078386509096039725 0 0 0 0 -2.4607644985733259 -0.36028813777175794 0 -0.36028813777175794 0.31290138934568207 0 0 0 0 -1.7334036751854001 -0.073365640892806283 0 -0.073365640892806283 0.10664967614655652 0 0 0 0 -5.5991848893499991 0.80033841100760128 0 0.80033841100760128 4.5602035776860959 0 0 0 0 -14.973855355267006 -2.2963982190685215 0 -2.2963982190685215 1.5867344362079479 0 0 0 0 -1.8027360582655092 -0.35938773706092775 0 -0.35938773706092775 1.0394031299529161 0 0 0 0 -8.4556335184279305 -9.0971017384279662 0 -9.0971017384279662 -0.027031828596591367 0 0 0 0 -4.9308769431850124 -8.0164333169719271 0 -8.0164333169719271 -2.2670377963511896 0 0 0 0 -9.957875439835334 -7.074621625339546 0 -7.074621625339546 7.1071546965050061 0 0 0 0 -0.1137073123072696 -7.138579899446853 0 -7.138579899446853 -13.707808609894983 0 0 0 0 -11.934344645846068 -10.687030327856462 0 -10.687030327856462 -0.14910520898979485 0 0 0 0 0.87003378629378858 -0.10250643226919465 0 -0.10250643226919465 -2.2847664954509241 0 0 0 0 -19.526949601615343 -1.9484767514597934 0 -1.9484767514597934 6.3481774993908431 0 0 0 0 -25.606194920104826 -2.7399951081831091 0 -2.7399951081831091 21.080098758200521 0 0 0 0 -15.746057067837683 0.61321834922455309 0 0.61321834922455309 6.6939466087538904 0 0 0 0 -8.8624256263101415 1.1365812721141992 0 1.1365812721141992 4.9501116759911383 0 0 0 0 -8.3174629080019713 -5.0666805202912073 0 -5.0666805202912073 2.3591453649130472 0 0 0 0 -8.4283805572122219 -5.1461388277360811 0 -5.1461388277360811 2.3729426989043532 0 0 0 0 -9.5731177287161699 -6.5783297673282846 0 -6.5783297673282846 0.65923832845692232 0 0 0 0 -4.9298527613791521 -8.3326529981055444 0 -8.3326529981055444 -8.7922265207212718 0 0 0 0 -6.1143517460868679 2.7066920737331088 0 2.7066920737331088 -1.0811482531674415 0 0 0 0 -0.089470845683990774 -0.65127824509571797 0 -0.65127824509571797 0.088671522162226013 0 0 0 0 -18.052635828829807 -9.9010000759571994 0 -9.9010000759571994 0.60819352440004337 0 0 0 0 -0.78178602069191849 -2.1790523223085643 0 -2.1790523223085643 1.6227715069050608 0 0 0 0 0.49705291226382542 -3.1324486792817652 0 -3.1324486792817652 -3.9168076351019181 0 0 0 0 -7.7201655333919916 -6.023925140514848 0 -6.023925140514848 1.4083080994030297 0 0 0 0 -7.4747427752045041 -5.604384084755111 0 -5.604384084755111 1.523567018135509 0 0 0 0 -1.6081684856249012 -4.0486335644674583 0 -4.0486335644674583 -1.8667637252117402 0 0 0 0 -4.8268945981229194 -2.7522966586902164 0 -2.7522966586902164 5.0510187201584813 0 0 0 0 -1.5043500399569893 -5.4049504272011291 0 -5.4049504272011291 0.15400481509811925 0 0 0 0 -5.76727545425274 -6.5903283337385119 0 -6.5903283337385119 11.869699110535294 0 0 0 0 -5.2803447723816959 0.72340002798939818 0 0.72340002798939818 0.67765201592823709 0 0 0 0 -3.9690090971453174 -0.068614261037907909 0 -0.068614261037907909 -0.44916557279168501 0 0 0 0 -3.6100639423457324 0.66731063677423208 0 0.66731063677423208 0.46895517773941719 0 0 0 0 -3.9532652017660439 -0.024738648628954252 0 -0.024738648628954252 2.2033755847337488 0 0 0 0 -3.1488588119500491 -0.23496582015468448 0 -0.23496582015468448 1.1377121986491261 0 0 0 0 -3.477983633266831 2.4927489475950608 0 2.4927489475950608 2.6102753889240375 0 0 0 0 -1.1170076685247943 0.19627842993958211 0 0.19627842993958211 0.8736608450446568 0 0 0 0 -4.0185017871644959 0.43756363543877796 0 0.43756363543877796 1.3227471012675096 0 0 0 0 -1.1226114957189566 0.16571921766040276 0 0.16571921766040276 -0.37303519456968104 0 0 0 0 -2.7589333745454496 -0.070749442259057105 0 -0.070749442259057105 1.4645304007844651 0 0 0 0 -2.8576120726118974 -0.1561904242900809 0 -0.1561904242900809 0.7001262905565927 0 0 0 0 -2.0555050580733223 -0.06789995285510031 0 -0.06789995285510031 0.55455547522871029 0 0 0 0 -2.6111991284014948 -0.078318218553022234 0 -0.078318218553022234 0.95697460568658244 0 0 0 0 -2.1567555117796076 -0.39531134918506794 0 -0.39531134918506794 0.53131809547962339 0 0 0 0 -2.3606208874944556 -0.39025892967354814 0 -0.39025892967354814 0.74425678035948462 0 0 0 0 -1.5984731766657205 -0.33520248411576858 0 -0.33520248411576858 0.9491453636389906 0 0 0 0 -2.6220707954950147 -0.06314096861188645 0 -0.06314096861188645 0.92145676126000842 0 0 0 0 -2.0221840306181349 0.33499509817771267 0 0.33499509817771267 0.3432446648741263 0 0 0 0 -1.9239999011876137 -0.078817687179091322 0 -0.078817687179091322 0.44956243543554708 0 0 0 0 -1.8000251709822805 0.091531217812575782 0 0.091531217812575782 1.1082683725151128 0 0 0 0 -2.7876151889140601 -1.1126908749324116 0 -1.1126908749324116 0.25600461788268092 0 0 0 0 -2.5287708089999796 -0.15212926693556028 0 -0.15212926693556028 1.1917229061617221 0 0 0 0 -3.7435960736875131 -0.94302919326639767 0 -0.94302919326639767 1.1445731327610069 0 0 0 0 -1.7809791364270495 0.43304884456532022 0 0.43304884456532022 1.1173338807104756 0 0 0 0 -4.3255445619870443 0.94583935163714727 0 0.94583935163714727 1.2181146486807393 0 0 0 0 -1.5023337329948845 0.86791401798184431 0 0.86791401798184431 0.81885543958506446 0 0 0 0 -2.2028148109457106 0.2561050688082176 0 0.2561050688082176 1.1725604215075514 0 0 0 0 -1.5976561622480645 0.56195724548487824 0 0.56195724548487824 0.29271544649545128 0 0 0 0 -1.21293808320479 0.44198661581128817 0 0.44198661581128817 2.7322677438453411 0 0 0 0 -2.9482138024468441 -0.25380631224462036 0 -0.25380631224462036 2.1450621304569495 0 0 0 0 -1.7932761859684732 0.1309517167672154 0 0.1309517167672154 0.62732173236092725 0 0 0 0 -1.559542426640121 -0.6285226897130034 0 -0.6285226897130034 1.1253061543560574 0 0 0 0 -1.8700903657497108 -0.23318913303834243 0 -0.23318913303834243 0.48631447574410724 0 0 0 0 -2.6173578500288386 -0.53722199113573055 0 -0.53722199113573055 1.1349708443437976 0 0 0 0 -2.0073670238634804 -0.13986067871672958 0 -0.13986067871672958 0.30491604696838692 0 0 0 0 -1.1464898679987527 0.60881067973741665 0 0.60881067973741665 1.2881346070698783 0 0 0 0 -1.0351288276035078 1.176056986317036 0 1.176056986317036 0.28201828852644867 0 0 0 0 -0.071704248447971963 -0.22807536833025743 0 -0.22807536833025743 0.10508917084941712 0 0 0 0 -4.0651459110795258 -0.39374721857151762 0 -0.39374721857151762 1.7985858466156373 0 0 0 0 -2.1671535843179299 0.31984735637266937 0 0.31984735637266937 0.91659100295000684 0 0 0 0 -1.1450304416012556 -0.28552799699224707 0 -0.28552799699224707 0.57405799185827056 0 0 0 0 -1.6890741062707093 -1.3041600999371967 0 -1.3041600999371967 0.12285003910362602 0 0 0 0 -1.7999585755812859 0.66387269154090611 0 0.66387269154090611 1.1145584015788224 0 0 0 0 -3.1830933875371556 0.34019039540582341 0 0.34019039540582341 1.7251556878995924 0 0 0 0 -0.30666049827468811 -0.061400602660361514 0 -0.061400602660361514 0.10207329698799027 0 0 0 0 -0.74574148358692582 0.43618450613987575 0 0.43618450613987575 3.1319880268155029 0 0 0 0 -0.49635602463558826 1.192934778206403 0 1.192934778206403 2.8778435989984752 0 0 0 0 0.48007195964737548 2.3795896435198616 0 2.3795896435198616 1.7914635619336181 0 0 0 0 -0.24424397088525041 -0.034472509534410278 0 -0.034472509534410278 0.0057729550346778784 0 0 0 0 -5.0530120904077194 -4.6030075357065465 0 -4.6030075357065465 -1.6111429560402524 0 0 0 0 -2.130292037883919 1.4840797352290434 0 1.4840797352290434 3.8487324417748763 0 0 0 0 -2.2517790626839087 0.8746844364761901 0 0.8746844364761901 2.0144618169480957 0 0 0 0 -2.2095318053034134 1.3197053379455683 0 1.3197053379455683 2.1240233185241699 0 0 0 0 -2.3115330402652035 0.95698423263978238 0 0.95698423263978238 1.9017564747172768 0 0 0 0 -3.052076587890042 -0.35454953644416842 0 -0.35454953644416842 1.7614029498919805 0 0 0 0 -2.1586804612343258 1.4479139661233149 0 1.4479139661233149 1.4269219494563372 0 0 0 0 -2.7972378998347267 1.1814121220850298 0 1.1814121220850298 -0.0037054052331711653 0 0 0 0 -0.57781936079925345 0.38848193417865778 0 0.38848193417865778 1.8686765926020019 0 0 0 0 -0.52439285118998669 -0.061896000425345266 0 -0.061896000425345266 0.29411065819702165 0 0 0 0 -0.094878482774220174 0.4009587415807403 0 0.4009587415807403 1.8493838546092072 0 0 0 0 0.37617608280197601 0.74627128382429997 0 0.74627128382429997 1.3555971892914578 0 0 0 0 -0.081104294527129639 -0.04777117703086553 0 -0.04777117703086553 0.08685251158176327 0 0 0 0 0.16801958801625005 1.7774471716722351 0 1.7774471716722351 4.2076506001604219 0 0 0 0 0.53908736604898877 0.12243701090480875 0 0.12243701090480875 0.0037853787789348171 0 0 0 0 0.52588197098384626 1.3824693522568658 0 1.3824693522568658 7.0560802990714864 0 0 0 0 0.064863268338740454 -0.34171475730045842 0 -0.34171475730045842 2.1070520662565553 0 0 0 0 -8.1106338649269674 -12.905090041244238 0 -12.905090041244238 -4.0932939553151897 0 0 0 0 -5.7597480095175797 1.2901826183735863 0 1.2901826183735863 -11.463677955901993 0 0 0 0 -6.4360150537736445 9.07917681955138 0 9.07917681955138 18.617269464260026 0 0 0 0 2.4729549967323692 -1.6856458908637846 0 -1.6856458908637846 -4.0659028872612888 0 0 0 0 -6.4301718610508942 -2.8656851501522822 0 -2.8656851501522822 5.9682324299128098 0 0 0 0 -5.1836254162280966 1.8635567816041707 0 1.8635567816041707 5.7944948942934005 0 0 0 0 -2.0947860077183975 0.50246207537831289 0 0.50246207537831289 -0.024319492686578084 0 0 0 0 3.6254250863603374 -2.6743468625467059 0 -2.6743468625467059 -7.5130965892651886 0 0 0 0 1.0007175671562436 9.5310553129077569 0 9.5310553129077569 0.15943755408438243 0 0 0 0 -4.0146850182791241 19.871684378038431 0 19.871684378038431 -21.157663104151535 0 0 0 0 9.7434180145614846 -7.1140740212152558 0 -7.1140740212152558 -20.813611549932219 0 0 0 0 -113.08072865836584 -0.53081343010990878 0 -0.53081343010990878 22.10684679700131 0 0 0 0 -44.740484854232818 -30.594192340595292 0 -30.594192340595292 -5.7222516891196307 0 0 0 0 -110.218888207688 -46.734181968974404 0 -46.734181968974404 -8.9958875213645513 0 0 0 0 -1.6968696875972356 0.59962943989041406 0 0.59962943989041406 -0.12316974754801155 0 0 0 0 -5.4532372890898841 -13.124887086628938 0 -13.124887086628938 13.670946941810074 0 0 0 0 13.56971078137758 -6.1778538911626057 0 -6.1778538911626057 -7.7143941857926386 0 0 0 0 -1.7165590231961687 -19.331531985644975 0 -19.331531985644975 -14.218327939879451 0 0 0 0 -0.013051340226589048 -0.034638733278031353 0 -0.034638733278031353 0.030312237081996041 0 0 0 0 -12.931100865876942 -4.1209898849747306 0 -4.1209898849747306 -7.5550318086036867 0 0 0 0 -5.3562371532752877 -6.735358990132573 0 -6.735358990132573 -0.0024762426294226937 0 0 0 0 -11.613245152802847 -1.8736874517548792 0 -1.8736874517548792 -4.3214818392682224 0 0 0 0 -52.444081186440599 -2.9458722186261337 0 -2.9458722186261337 -0.00072218104556812297 0 0 0 0 -16.551980059457492 9.7910645151642903 0 9.7910645151642903 -4.9687556007751947 0 0 0 0 -60.568576159734221 27.190713739770228 0 27.190713739770228 8.4349033530952262 0 0 0 0 -11.660602084794846 30.335578894098582 0 30.335578894098582 8.5958794554511115 0 0 0 0 -0.84489999472677368 0.21856522797005518 0 0.21856522797005518 -0.030736632336381013 0 0 0 0 -113.67137087321703 -31.709021193784828 0 -31.709021193784828 -6.0151920159054875 0 0 0 0 -111.77122712720484 10.675146089860055 0 10.675146089860055 21.1285524714425 0 0 0 0 -78.697343537802226 -12.221290222329895 0 -12.221290222329895 0.027238109678135912 0 0 0 0 -64.027074018478743 -22.066471957804946 0 -22.066471957804946 -29.962308641723965 0 0 0 0 -111.72271742962585 -3.172308881789391 0 -3.172308881789391 -5.4115968772840972 0 0 0 0 -38.978077016797215 -27.326198355379063 0 -27.326198355379063 -11.077012367492095 0 0 0 0 -130.17155582427677 -29.238745739343987 0 -29.238745739343987 18.909549596248475 0 0 0 0 -93.291376878763913 -43.403917532624092 0 -43.403917532624092 8.8333970454208384 0 0 0 0 -135.52403443145158 -31.109742012946086 0 -31.109742012946086 18.506469891950353 0 0 0 0 -184.69426849433512 -4.8699277092069622 0 -4.8699277092069622 23.395250380627573 0 0 0 0 -184.28795809397957 -84.591671700677992 0 -84.591671700677992 -6.8632160228792429 0 0 0 0 -93.520096708251003 -41.031621136641505 0 -41.031621136641505 -4.8604114919000523 0 0 0 0 -12.761044419534301 1.395291741868931 0 1.395291741868931 59.238867101904702 0 0 0 0 47.129104992171051 60.882104341816557 0 60.882104341816557 -91.803224150474193 0 0 0 0 -0.81342927493824391 9.9725583389727035 0 9.9725583389727035 19.284622719261506 0 0 0 0 4.0329569004534278 7.1410225667037821 0 7.1410225667037821 15.14248168176141 0 0 0 0 4.5709758039374719 14.110760925258148 0 14.110760925258148 12.684279706130951 0 0 0 0 4.4643429756079911 7.7682979199441196 0 7.7682979199441196 9.8515875571705465 0 0 0 0 12.308556463816785 -5.329783869037783 0 -5.329783869037783 22.328568164703071 0 0 0 0 -196.08514268610088 185.15468737339506 0 185.15468737339506 -149.61542342120674 0 0 0 0 -12.156290146158426 7.956822471677242 0 7.956822471677242 23.102485949309312 0 0 0 0 -1.29279246871738 10.021766813475438 0 10.021766813475438 19.144779901151423 0 0 0 0 -6.8471783885067126 1.1778633559322524 0 1.1778633559322524 0.061151864115537635 0 0 0 0 -20.4183482948647 -0.47538968148194272 0 -0.47538968148194272 26.115818629680945 0 0 0 0 -19.258012949101612 3.6890579105658219 0 3.6890579105658219 21.573274966288182 0 0 0 0 -14.445619593938318 -0.12986369645955165 0 -0.12986369645955165 11.516580601647092 0 0 0 0 8.253431730396187 7.1785618779333902 0 7.1785618779333902 12.546663117057278 0 0 0 0 -1.9554034605898778 6.6471931270851883 0 6.6471931270851883 -0.84616952475801099 0 0 0 0 6.4953621359454701 10.442388677089639 0 10.442388677089639 1.7747854476903058 0 0 0 0 -1.8279168483131798 8.4479268238576424 0 8.4479268238576424 13.203223396135002 0 0 0 0 -2.2629068826790899 11.671624072049269 0 11.671624072049269 0.54640068709603895 0 0 0 0 -2.0656280804724929 7.4714787088942618 0 7.4714787088942618 0.77436155333089118 0 0 0 0 -12.033355531867528 -1.9985270572925202 0 -1.9985270572925202 -18.550824659877208 0 0 0 0 -15.09130395927059 21.759444977370777 0 21.759444977370777 -13.850209972132802 0 0 0 0 0.29149238918034825 13.976516345722246 0 13.976516345722246 -13.320886789354859 0 0 0 0 7.5709140135841153 10.281138575306329 0 10.281138575306329 -14.937075357835425 0 0 0 0 7.2826041415901273 12.702139390399537 0 12.702139390399537 -0.60670292175541363 0 0 0 0 5.8116988538240548 8.4771699075756999 0 8.4771699075756999 -1.2203933597957075 0 0 0 0 9.3868007402033982 14.745935138700276 0 14.745935138700276 -18.125583573351719 0 0 0 0 9.6710386101440236 8.2218283748961198 0 8.2218283748961198 -17.605924752391132 0 0 0 0 3.398964598258317 26.839348716210225 0 26.839348716210225 -25.01540474386286 0 0 0 0 -18.473090193765529 9.0960138174017686 0 9.0960138174017686 -3.0884169029845907 0 0 0 0 2.0648297147199628 19.793979734132819 0 19.793979734132819 7.4006124411428118 0 0 0 0 -3.3670917712101982 -20.250589415325713 0 -20.250589415325713 14.473892908367816 0 0 0 0 -83.628291284636362 6.2709959670280568 0 6.2709959670280568 12.696352042295985 0 0 0 0 -19.187846474107573 28.166604812825398 0 28.166604812825398 -52.153773674227068 0 0 0 0 -1.8426529241498173 0.46107238901857084 0 0.46107238901857084 -0.038993094837408704 0 0 0 0 -69.103322258702974 -32.854072821730028 0 -32.854072821730028 58.549401933347497 0 0 0 0 -4.4869812343931699 58.949238272816473 0 58.949238272816473 -230.69564470154506 0 0 0 0 -5.4059450349729516 0.86662865164241776 0 0.86662865164241776 0.18599784087568177 0 0 0 0 -10.39034836866449 28.223328639100174 0 28.223328639100174 46.492233418232104 0 0 0 0 12.150182088000292 29.929972407139104 0 29.929972407139104 6.8728156125007445 0 0 0 0 30.010068229261378 59.746414099936715 0 59.746414099936715 -90.264777569205989 0 0 0 0 -17.06004179719821 53.740720752012066 0 53.740720752012066 -67.10704971758696 0 0 0 0 -8.5923787263764098 31.865968284722825 0 31.865968284722825 -31.942079065421723 0 0 0 0 7.4571411077486118 57.71921798625084 0 57.71921798625084 -43.195892709159864 0 0 0 0 38.434540760310483 38.570597709208528 0 38.570597709208528 -63.297862153454219 0 0 0 0 -13.745162727078423 60.266432349453396 0 60.266432349453396 -79.777569037562017 0 0 0 0 -49.797526811453281 5.8317614771372632 0 5.8317614771372632 -92.142159501475248 0 0 0 0 -64.398694504378 60.895772431928123 0 60.895772431928123 -20.352093968563338 0 0 0 0 -26.271474145847606 31.238499282260374 0 31.238499282260374 -4.2707014063863866 0 0 0 0 -46.86104506619813 49.933079563920799 0 49.933079563920799 32.303475860650131 0 0 0 0 33.692259503419336 29.583917727318578 0 29.583917727318578 -14.18565199287309 0 0 0 0 35.917556246924505 30.671351430837547 0 30.671351430837547 -14.806978569694422 0 0 0 0 -23.759039238422702 59.225225757304585 0 59.225225757304585 -4.0078869493752336 0 0 0 0 -5.5311895020240627 37.476996836059826 0 37.476996836059826 17.764907564775136 0 0 0 0 -6.1508718725895051 45.480713251688542 0 45.480713251688542 17.153988394588168 0 0 0 0 12.468411525034753 42.920181617068863 0 42.920181617068863 16.031154161467839 0 0 0 0 5.9924540159609023 29.676791599517561 0 29.676791599517561 51.235638170514363 0 0 0 0 107.64219074943685 -4.7794485172250916 0 -4.7794485172250916 -26.231882210410049 0 0 0 0 71.558927305388352 -16.850269921669963 0 -16.850269921669963 32.43065276494454 0 0 0 0 35.19495835205089 23.050367998801562 0 23.050367998801562 -8.471728427811513 0 0 0 0 69.8888714478162 8.0650219592309895 0 8.0650219592309895 -11.249667892550093 0 0 0 0 125.80693125581456 19.202070779172459 0 19.202070779172459 -69.926875449434647 0 0 0 0 44.83227466340395 39.465707323643414 0 39.465707323643414 -44.41870989214658 0 0 0 0 -0.018156505969963543 0.24273014219606637 0 0.24273014219606637 -1.9721364859927082 0 0 0 0 77.662941943955957 30.826902360539975 0 30.826902360539975 -58.36764494344925 0 0 0 0 -253.14447152075536 48.117382177393154 0 48.117382177393154 -150.37815242487704 0 0 0 0 92.90512211701207 28.65310529490921 0 28.65310529490921 -76.544305627146059 0 0 0 0 48.496297632984351 48.946103531335439 0 48.946103531335439 -68.506699008462874 0 0 0 0 79.832065303480704 34.101390058489756 0 34.101390058489756 -66.309957786093491 0 0 0 0 103.20399198032464 19.842688481486562 0 19.842688481486562 -57.613065955747743 0 0 0 0 108.27785373451115 51.059327966085732 0 51.059327966085732 -93.078100316214204 0 0 0 0 83.241006138017838 44.425406997274081 0 44.425406997274081 -85.856436072444126 0 0 0 0 -253.5932696448217 51.532844027100907 0 51.532844027100907 -2.3086885247444116 0 0 0 0 -59.278315012958046 -19.741695870484023 0 -19.741695870484023 7.2172105251516996 0 0 0 0 32.618556065386656 29.192629505496313 0 29.192629505496313 -10.36958979431347 0 0 0 0 204.68891786156746 -79.609318176343891 0 -79.609318176343891 -266.2275137734041 0 0 0 0 -181.21401124687691 -36.930566269899032 0 -36.930566269899032 25.226399178387965 0 0 0 0 -0.59764120530564924 0.62378988962434434 0 0.62378988962434434 -0.63190893379418633 0 0 0 0 6.3041144095950585 51.665917191856693 0 51.665917191856693 -96.791306986770905 0 0 0 0 -22.419670035054878 100.84529781451306 0 100.84529781451306 -180.44847311618855 0 0 0 0 -139.21537667365919 68.087656452459896 0 68.087656452459896 95.082701928742836 0 0 0 0 -279.76315028490217 188.67596062002684 0 188.67596062002684 -2.7730645361552888 0 0 0 0 -50.454835476637527 68.801915496585025 0 68.801915496585025 20.903019452429589 0 0 0 0 -96.227545371590168 125.49989309192335 0 125.49989309192335 -49.084580062311034 0 0 0 0 6.7254705020849599 16.94607603663998 0 16.94607603663998 -37.089824525850872 0 0 0 0 -47.576462231090773 66.072214010873893 0 66.072214010873893 -33.195453643624205 0 0 0 0 -18.239771042623033 11.813689734108152 0 11.813689734108152 10.554955065379545 0 0 0 0 -10.223378244307241 13.524472334621521 0 13.524472334621521 -18.72424669762313 0 0 0 0 -37.911878143075228 26.860281717894168 0 26.860281717894168 -8.8430321047208054 0 0 0 0 -12.115633420928134 -2.841145069366803 0 -2.841145069366803 -0.36459078591701655 0 0 0 0 -23.860439114338988 12.117865164681632 0 12.117865164681632 9.6978882382552456 0 0 0 0 -4.3854928078412456 1.9341816166725061 0 1.9341816166725061 -0.078913980884519952 0 0 0 0 -8.4669495086545794 -0.094747118057625812 0 -0.094747118057625812 12.198722226518271 0 0 0 0 -16.478153092661159 5.6631320299868548 0 5.6631320299868548 28.670299356491114 0 0 0 0 -2.9685286428664739 0.79958463535650282 0 0.79958463535650282 -0.0052586307899313844 0 0 0 0 -5.1052046620952751 20.847330850958656 0 20.847330850958656 15.571447044841761 0 0 0 0 -2.1450163741465076 -8.1281521691115586 0 -8.1281521691115586 2.9424390473349149 0 0 0 0 -17.934977223267197 0.79714211110297128 0 0.79714211110297128 11.748523578397908 0 0 0 0 -15.66965623390206 -6.5498978706408479 0 -6.5498978706408479 -1.3088779633189915 0 0 0 0 -3.0949790077793295 -3.0061878420726771 0 -3.0061878420726771 -0.47248241297018012 0 0 0 0 -17.100437217901344 7.3595901678962719 0 7.3595901678962719 -7.9138927175077924 0 0 0 0 -13.135338069725549 -6.6133416471129749 0 -6.6133416471129749 26.504381726037082 0 0 0 0 3.856596653797169 -4.4638831109741659 0 -4.4638831109741659 12.143029137072773 0 0 0 0 -4.8811316789697656 1.154688911167443 0 1.154688911167443 0.27987795875533156 0 0 0 0 -3.8175883811018139 2.0522476983512661 0 2.0522476983512661 -0.23271052619367083 0 0 0 0 -6.4536233963408449 -0.95544187322656171 0 -0.95544187322656171 15.63513879815082 0 0 0 0 -5.3414529800247692 0.98535869656984687 0 0.98535869656984687 1.6602575021214534 0 0 0 0 -0.67896006418605737 -0.50860109269920173 0 -0.50860109269920173 0.48883132249995476 0 0 0 0 -6.1137123631579016 0.99395015596041958 0 0.99395015596041958 1.6607056048833329 0 0 0 0 -2.5825111755548278 2.4670152091896398 0 2.4670152091896398 1.2632821679055724 0 0 0 0 -3.2614054993064201 -0.58497300905617067 0 -0.58497300905617067 2.5649099849536015 0 0 0 0 -3.6747749546921114 1.3531510072671153 0 1.3531510072671153 0.41372580457016284 0 0 0 0 -4.6718551360718266 1.6630236200580839 0 1.6630236200580839 1.7959014385261298 0 0 0 0 -4.1063297097134637 2.413904768630573 0 2.413904768630573 2.5429253548597899 0 0 0 0 -0.34315938947474933 1.0603797657554139 0 1.0603797657554139 1.1178172778487578 0 0 0 0 -0.58909548075261142 0.17578704156548985 0 0.17578704156548985 -0.050843501058798146 0 0 0 0 -0.28400207255344867 1.3730638641281416 0 1.3730638641281416 -0.52551140466363222 0 0 0 0 -2.5954825404874029 1.1466533134143517 0 1.1466533134143517 -0.27176381063468313 0 0 0 0 -0.84528530549869174 3.5892934276574238 0 3.5892934276574238 0.24096746562254623 0 0 0 0 -1.8852147747673982 0.53005993631003001 0 0.53005993631003001 -0.0062200271184212896 0 0 0 0 -1.4293457305357151 1.0310375179921039 0 1.0310375179921039 1.9247781617768851 0 0 0 0 -2.2999103415872924 -1.8141175369307945 0 -1.8141175369307945 1.8973205325470417 0 0 0 0 -1.5553891067641388 0.075928806750333422 0 0.075928806750333422 0.30427341976537337 0 0 0 0 -3.2048982158921717 1.9083373301621123 0 1.9083373301621123 2.5443413011074654 0 0 0 0 -3.1206732215927175 0.39099642909917615 0 0.39099642909917615 -0.0092111170695544642 0 0 0 0 -6.3182496743320371 0.75412222657973871 0 0.75412222657973871 3.7202608266794641 0 0 0 0 -2.1309708527478506 0.45270019734800826 0 0.45270019734800826 -2.0466069085407952 0 0 0 0 -17.151254293508828 -0.22922978131163063 0 -0.22922978131163063 0.51093973167903073 0 0 0 0 -17.620523336654514 -5.651725085905241 0 -5.651725085905241 19.086093189986173 0 0 0 0 0.18346138387641986 12.938791588094944 0 12.938791588094944 -6.911782449751513 0 0 0 0 -0.039042622976964481 0.51097762899967003 0 0.51097762899967003 -0.049858200566504127 0 0 0 0 -4.6695908334513661 2.256371144075672 0 2.256371144075672 2.086623998088676 0 0 0 0 -4.7639179805202261 1.41501615122678 0 1.41501615122678 -0.11994231437087088 0 0 0 0 -3.2750372990376491 2.3142553709132017 0 2.3142553709132017 3.5144793512232226 0 0 0 0 -15.862279789122113 -0.19551749815656194 0 -0.19551749815656194 2.5130098856676284 0 0 0 0 -11.273235206504978 16.123211439185496 0 16.123211439185496 -16.148600850154764 0 0 0 0 -0.18994765012602954 0.11664331733998345 0 0.11664331733998345 -0.035485213145903249 0 0 0 0 -23.016705645843103 12.752032089215732 0 12.752032089215732 4.2182767656765918 0 0 0 0 -9.6717075509222923 0.21682835311514737 0 0.21682835311514737 3.0782681879084635 0 0 0 0 -2.5043274685012875 -1.1844044267674292 0 -1.1844044267674292 -0.06156306432387737 0 0 0 0 -0.33554201607694267 0.64819360597539344 0 0.64819360597539344 0.78632262342807735 0 0 0 0 -0.34210591912960808 0.57558181757968896 0 0.57558181757968896 1.7708367551974789 0 0 0 0 -0.73970663587169838 0.46253023984684205 0 0.46253023984684205 2.3814937711899518 0 0 0 0 -0.44960534409619868 0.2632945010060439 0 0.2632945010060439 1.3914674699556997 0 0 0 0 -0.39780625142702775 0.27665142452917735 0 0.27665142452917735 1.3932637131083538 0 0 0 0 -0.36191867508750875 0.34504746608666892 0 0.34504746608666892 1.4163242229924435 0 0 0 0 -0.51661562999652233 0.31888556516685185 0 0.31888556516685185 1.4132891978739082 0 0 0 0 -0.75139579009010049 -1.3133411838332734 0 -1.3133411838332734 2.8349785132805891 0 0 0 0 -0.65584081727865851 -0.78328035925824224 0 -0.78328035925824224 3.6081840647575518 0 0 0 0 -1.1110986079518597 0.60044647633105441 0 0.60044647633105441 0.95193941705460561 0 0 0 0 -0.72834154307020071 -1.5676815233098296 0 -1.5676815233098296 0.70665097888282347 0 0 0 0 -3.1152641059643429 1.6809637161428554 0 1.6809637161428554 2.5535241837259264 0 0 0 0 -1.816919177885211 0.38009296479140176 0 0.38009296479140176 3.5191731177164911 0 0 0 0 -1.506635883852141 0.93754387489593682 0 0.93754387489593682 2.5365420422353679 0 0 0 0 -0.9004224261690652 0.39233284548684644 0 0.39233284548684644 0.087140659001509468 0 0 0 0 -2.2196052624226468 1.2383492392826956 0 1.2383492392826956 1.5484979389676994 0 0 0 0 -1.1930048140184226 0.64334334352560063 0 0.64334334352560063 1.8487177444091003 0 0 0 0 -1.464652073429761 0.66408403340070166 0 0.66408403340070166 0.75032743673821956 0 0 0 0 -1.7293207581715251 0.65512910373604427 0 0.65512910373604427 2.3932431594988657 0 0 0 0 -1.1370621618925725 0.089399701923497332 0 0.089399701923497332 1.1978167817203484 0 0 0 0 -0.28004453482571989 0.73958517555644221 0 0.73958517555644221 1.5831076990210704 0 0 0 0 -0.67880951383631327 0.086960822612411448 0 0.086960822612411448 1.9594049250578109 0 0 0 0 -0.4181210657916381 0.42666546279292561 0 0.42666546279292561 1.4450318048379813 0 0 0 0 -0.50281487722531892 0.40696454337842169 0 0.40696454337842169 1.4415220525688994 0 0 0 0 -0.92024343718003365 1.0521756042170409 0 1.0521756042170409 0.70272010609139102 0 0 0 0 -1.2194339284852376 0.63936510094812782 0 0.63936510094812782 0.67250605474920933 0 0 0 0 -2.6952100908674765 -0.45887176268248964 0 -0.45887176268248964 1.4437072380450875 0 0 0 0 -1.9759296646298026 -0.59174787540193385 0 -0.59174787540193385 1.4368145444952507 0 0 0 0 -1.8654126935871318 0.042536167141292935 0 0.042536167141292935 2.0430357626241857 0 0 0 0 -0.7611968322791185 0.31329138140922552 0 0.31329138140922552 0.77536502816793451 0 0 0 0 -2.3547433020321478 0.91512576144196434 0 0.91512576144196434 1.8706464697289356 0 0 0 0 -1.595113276952361 0.13013163769770086 0 0.13013163769770086 1.213971893375124 0 0 0 0 -2.2556810605838109 -0.07271498282388511 0 -0.07271498282388511 -0.19063627493404356 0 0 0 0 -2.6934253660838294 0.35051413846561408 0 0.35051413846561408 1.1997747263480576 0 0 0 0 -0.24952046588356325 0.11305210935450916 0 0.11305210935450916 0.20258810688116491 0 0 0 0 -0.61034594185548485 1.4143324980645897 0 1.4143324980645897 0.5937376712902096 0 0 0 0 -0.17327267775362998 0.48921121387632582 0 0.48921121387632582 0.65045115944656517 0 0 0 0 0.015314662266650458 -0.0040207123964712821 0 -0.0040207123964712821 -0.03337720892878903 0 0 0 0 1.021437115754452 1.1303632371773751 0 1.1303632371773751 0.00074413574269666127 0 0 0 0 -5.9916078853675572 -2.1295498845301455 0 -2.1295498845301455 0.47526054735883566 0 0 0 0 -1.0265748439925702 0.83473700407051332 0 0.83473700407051332 0.61554298152169207 0 0 0 0 -2.4393181780033046 -0.1811387486619277 0 -0.1811387486619277 1.3493408860733949 0 0 0 0 -0.15137205833052292 0.0010342461777330669 0 0.0010342461777330669 0.2717583543603399 0 0 0 0 -0.7420588446475449 1.2149898842406848 0 1.2149898842406848 0.68207006488515898 0 0 0 0 -1.4942545094145316 1.727250225391102 0 1.727250225391102 0.34128367291763384 0 0 0 0 -0.3745818697238974 1.025661222295978 0 1.025661222295978 -0.60688231893705735 0 0 0 0 -2.3688066077411349 0.92641595620821926 0 0.92641595620821926 -0.00075604156931218945 0 0 0 0 -0.38946995244623395 0.68837172302987959 0 0.68837172302987959 -0.46214950239093378 0 0 0 0 -1.995714745064106 1.4850580851656969 0 1.4850580851656969 -0.23189350287251975 0 0 0 0 -0.52840511896101816 0.75095094571073551 0 0.75095094571073551 0.0039913292250337842 0 0 0 0 0.029494468599295942 0.90704127686542835 0 0.90704127686542835 -0.030774061608980219 0 0 0 0 0.078270688230077212 1.633143502397093 0 1.633143502397093 4.9218719251755658 0 0 0 0 0.057304913353746656 0.0080408671580567415 0 0.0080408671580567415 -0.0047215829153600085 0 0 0 0 -0.37787237355223624 0.72044741998150474 0 0.72044741998150474 -1.7402005104959342 0 0 0 0 0.05491086693109537 1.7233724270163364 0 1.7233724270163364 -0.87144701167292737 0 0 0 0 0.32344014425052592 1.1517767159700405 0 1.1517767159700405 -2.362380880014932 0 0 0 0 -0.46562598520540632 0.31391725332452924 0 0.31391725332452924 0.46547026123034491 0 0 0 0 -0.86468537700297787 1.1493502097327148 0 1.1493502097327148 -0.87052424269222062 0 0 0 0 0.026252724900380997 0.22083564667145339 0 0.22083564667145339 -0.20852214139834027 0 0 0 0 -1.353189227380426 3.2905303185507933 0 3.2905303185507933 1.5376272926083914 0 0 0 0 -2.0573822158240773 4.8344804195417179 0 4.8344804195417179 2.4329731555183116 0 0 0 0 2.6078407210252408 3.6721481162908418 0 3.6721481162908418 -10.335446990867013 0 0 0 0 6.8390129212602915 8.5323554127793955 0 8.5323554127793955 -9.9024810449849383 0 0 0 0 -4.9020735326321301 8.4432036855526178 0 8.4432036855526178 -5.5124417382151023 0 0 0 0 -1.2873604270207579 10.439354082199458 0 10.439354082199458 -4.9624534329340122 0 0 0 0 -69.496217873952901 29.094752774953388 0 29.094752774953388 2.0275100540347921 0 0 0 0 -63.470290872768601 -10.049734204940165 0 -10.049734204940165 9.1718666971887899 0 0 0 0 -0.34316917551807791 0.20359312480588621 0 0.20359312480588621 0.012889932367786239 0 0 0 0 -3.7273525936434453 14.25759122381902 0 14.25759122381902 -59.255113912104036 0 0 0 0 -0.14193744981777456 0.23738653446757496 0 0.23738653446757496 -0.188535678786244 0 0 0 0 1.6162787846888023 5.0379720394203389 0 5.0379720394203389 -3.2169964665586122 0 0 0 0 12.240120814451075 6.7164495126698398 0 6.7164495126698398 -39.46612808551842 0 0 0 0 -1.7080910596450849 -11.503941535281854 0 -11.503941535281854 -15.104935425499775 0 0 0 0 -0.54359529102055149 0.91540383617199161 0 0.91540383617199161 -0.99225737604608166 0 0 0 0 -0.13136505086849581 0.3071613071867354 0 0.3071613071867354 0.50816751867220045 0 0 0 0 -2.3847923894281848 2.8206989456785259 0 2.8206989456785259 -0.019646795695381414 0 0 0 0 -9.2716624075419531 2.8963530449833286 0 2.8963530449833286 -14.293318639584754 0 0 0 0 -32.794687031455396 3.8402824946053791 0 3.8402824946053791 20.791397568551872 0 0 0 0 -0.59889867637321004 0.2841041489016507 0 0.2841041489016507 -2.3713845300532315 0 0 0 0 0.083488014464819571 0.82593235038707036 0 0.82593235038707036 -2.7019145487162959 0 0 0 0 3.2067559059614723 5.4462359863946377 0 5.4462359863946377 -0.0049308990382721449 0 0 0 0 -11.449663476905698 6.3522843016373933 0 6.3522843016373933 7.2491936116583027 0 0 0 0 0.028372292973962487 0.076050822878052315 0 0.076050822878052315 0.13190943034239971 0 0 0 0 -19.311257859972102 31.015937320552649 0 31.015937320552649 0.011214291859534091 0 0 0 0 14.998259387872167 10.341594566866233 0 10.341594566866233 -20.938731001363259 0 0 0 0 -55.427664349651423 4.5548844086884479 0 4.5548844086884479 7.1311643183690023 0 0 0 0 -79.866392111047389 34.78923952197669 0 34.78923952197669 0.0097860882217157448 0 0 0 0 -73.445234852079921 32.375207414084727 0 32.375207414084727 -70.24408895758684 0 0 0 0 -0.11538343799092665 0.1632733441359342 0 0.1632733441359342 0.11047651978433076 0 0 0 0 -127.14284441720883 26.423727930957348 0 26.423727930957348 0.53133328713226535 0 0 0 0 -122.08020557355439 1.6169690749395791 0 1.6169690749395791 6.5580346412161248 0 0 0 0 -117.5909357261437 27.907837580920511 0 27.907837580920511 -0.56697227010897677 0 0 0 0 -0.27921480754845618 0.29589742219589255 0 0.29589742219589255 -0.37126245478327913 0 0 0 0 -91.909896318372603 -10.091154468954679 0 -10.091154468954679 9.1096203915691376 0 0 0 0 -87.737714121605904 27.618318864605357 0 27.618318864605357 -1.0031818844613554 0 0 0 0 -32.25404738947168 21.172911056196263 0 21.172911056196263 -20.013893534422834 0 0 0 0 -43.019286603055662 -11.208747030979753 0 -11.208747030979753 0.31447398981331531 0 0 0 0 -42.677457344539107 -10.541181598058518 0 -10.541181598058518 0.077994099904032055 0 0 0 0 -32.031761394469868 -8.6892710518295555 0 -8.6892710518295555 -2.9671829610874845 0 0 0 0 -73.767413863949514 37.840766205624298 0 37.840766205624298 -44.184585444498758 0 0 0 0 -0.090396825227067268 0.0050874799799842663 0 0.0050874799799842663 -0.034394357796331758 0 0 0 0 -37.398395866372084 -8.3407229416612747 0 -8.3407229416612747 -0.0061160133756422473 0 0 0 0 -25.214538775991969 -8.928708188706608 0 -8.928708188706608 -1.934560228226851 0 0 0 0 -35.38851025846634 -12.356180769200453 0 -12.356180769200453 -2.9556835259883272 0 0 0 0 -38.571427716735343 -9.882412442871356 0 -9.882412442871356 -0.45854463079642294 0 0 0 0 -38.683384281022882 -13.032504745679709 0 -13.032504745679709 -3.091906290005868 0 0 0 0 -44.492460109886451 -15.559074588249192 0 -15.559074588249192 -0.94754998596361872 0 0 0 0 -38.841631753130059 -12.717941445336768 0 -12.717941445336768 -1.6575735674738308 0 0 0 0 -42.212253986544965 -12.810058092041096 0 -12.810058092041096 -1.3733117370653289 0 0 0 0 -34.538966480391537 -13.737932356529267 0 -13.737932356529267 -4.1527947679051849 0 0 0 0 -36.832923182247214 -21.117709735345915 0 -21.117709735345915 -2.0777840009651953 0 0 0 0 -40.202284407774641 -15.909962621088239 0 -15.909962621088239 -0.96451675193389264 0 0 0 0 -37.068683293424328 -18.415803235784836 0 -18.415803235784836 -3.4173567629951407 0 0 0 0 -0.35436727027967052 0.65445555195252325 0 0.65445555195252325 -1.1770841669431609 0 0 0 0 -1.7733344385128476 8.7420894971116638 0 8.7420894971116638 -6.2681756220334819 0 0 0 0 -23.67722424456224 -9.9689441906314791 0 -9.9689441906314791 -5.6578814623764266 0 0 0 0 -0.058560359519429284 0.0022713297769598739 0 0.0022713297769598739 -0.040120072001225082 0 0 0 0 -2.2432460867670443 27.807800152761335 0 27.807800152761335 6.4487182660666349 0 0 0 0 -18.218263477783694 -13.498547343260771 0 -13.498547343260771 -5.8324448310563639 0 0 0 0 -23.875669672435833 26.562271214419695 0 26.562271214419695 15.538477383712689 0 0 0 0 17.101987924568675 4.1380623811314194 0 4.1380623811314194 3.5919552950466027 0 0 0 0 25.041920621704776 -11.055540124371646 0 -11.055540124371646 9.5236412569700519 0 0 0 0 -11.425622173042939 3.2342321308675821 0 3.2342321308675821 36.844064544935918 0 0 0 0 -35.076502541342052 -13.498914404715745 0 -13.498914404715745 6.8241743138123425 0 0 0 0 -28.826999815395538 -15.74277625264407 0 -15.74277625264407 -3.321938620933139 0 0 0 0 -38.456501739572559 -17.694453228282335 0 -17.694453228282335 -1.9271852104268632 0 0 0 0 -76.771512755381991 26.694747712023741 0 26.694747712023741 11.054855029063958 0 0 0 0 -0.092655745270411316 0.22300884857589054 0 0.22300884857589054 0.2400815593112956 0 0 0 0 -92.370757735478946 30.857505523138286 0 30.857505523138286 11.647127002710363 0 0 0 0 -70.309807849820572 23.409242814954041 0 23.409242814954041 -7.832508388903193 0 0 0 0 -82.173568981579592 17.614591391070689 0 17.614591391070689 9.2640870806654334 0 0 0 0 -76.941201449466462 23.411969748769394 0 23.411969748769394 13.285838337829205 0 0 0 0 -43.554024034448958 -13.394989084377301 0 -13.394989084377301 7.6320681772211714 0 0 0 0 -50.177974736234319 10.840548874603712 0 10.840548874603712 10.885171050070582 0 0 0 0 -44.574040668147063 23.078790324935369 0 23.078790324935369 14.245065955453583 0 0 0 0 -70.950469678478839 24.212262821027537 0 24.212262821027537 11.804007060634603 0 0 0 0 -69.904545000426879 4.8957496536378358 0 4.8957496536378358 10.221597904583039 0 0 0 0 -37.804320380550053 7.9201755572297259 0 7.9201755572297259 10.964217551079969 0 0 0 0 -47.136903793292731 5.4426671608250103 0 5.4426671608250103 14.301214531447044 0 0 0 0 -54.092254109062196 18.334437162094133 0 18.334437162094133 17.199108046500328 0 0 0 0 -0.061521378411139693 0.11861246236933454 0 0.11861246236933454 0.10383991786853031 0 0 0 0 -66.539272900620745 -4.1106786012907151 0 -4.1106786012907151 12.60649093033885 0 0 0 0 -73.631414750865588 2.2668263133340361 0 2.2668263133340361 -49.347763643326118 0 0 0 0 -70.180241457287138 7.0603281988895645 0 7.0603281988895645 -5.3941854593019798 0 0 0 0 -85.871690601357841 -8.2068091336432758 0 -8.2068091336432758 17.215697996747679 0 0 0 0 -132.65333311025097 21.543779261130453 0 21.543779261130453 13.808762237710539 0 0 0 0 -18.489683002109814 28.116122297215213 0 28.116122297215213 -87.820004015440645 0 0 0 0 -94.223473690148239 -47.369719733901263 0 -47.369719733901263 -95.286506774594415 0 0 0 0 -33.230232902567877 53.050225221651317 0 53.050225221651317 -121.24095128510169 0 0 0 0 -101.11697426494356 66.842382083008488 0 66.842382083008488 -68.203923899861479 0 0 0 0 -60.216026652689834 14.581102034939306 0 14.581102034939306 -5.3973580860844095 0 0 0 0 -80.833582591170625 26.045966002882846 0 26.045966002882846 5.362704150244781 0 0 0 0 -31.840097408722613 35.45497936419325 0 35.45497936419325 -11.372879892001379 0 0 0 0 46.06154386290109 28.003931554783435 0 28.003931554783435 -31.212951210434085 0 0 0 0 4.4115875123261503 22.868156280837951 0 22.868156280837951 -3.1030019112603782 0 0 0 0 -9.088776372387656 0.14224621621318079 0 0.14224621621318079 -26.299359853849538 0 0 0 0 -0.23429680184421642 0.66683058129479633 0 0.66683058129479633 -1.5615502717724237 0 0 0 0 9.0129226870103594 -5.9928884827543367 0 -5.9928884827543367 -21.710434179180538 0 0 0 0 -9.0243877375455668 -49.826804036348655 0 -49.826804036348655 -34.350267509926269 0 0 0 0 -18.578960954938339 35.652592311982616 0 35.652592311982616 -18.758568761332729 0 0 0 0 -0.11309811375240386 0.29615272412464932 0 0.29615272412464932 -0.77273728513178841 0 0 0 0 24.978599503673649 -35.434904366424213 0 -35.434904366424213 -102.21565327325465 0 0 0 0 27.614175491366041 -26.820800193519119 0 -26.820800193519119 -74.179584897041565 0 0 0 0 0.93146391664049588 -19.097255826182817 0 -19.097255826182817 -71.082945075806236 0 0 0 0 20.690714188021502 29.577331165106855 0 29.577331165106855 -4.1282572313158425 0 0 0 0 29.684238788931907 17.828809096749922 0 17.828809096749922 -105.85408223470125 0 0 0 0 -21.574181764673085 48.419664232736231 0 48.419664232736231 51.129716455500756 0 0 0 0 20.787025851281214 -22.685027565551323 0 -22.685027565551323 30.335814368967384 0 0 0 0 -5.3338994539262785 21.700691379275842 0 21.700691379275842 60.227917101449151 0 0 0 0 -42.677778276678509 -38.385118213488227 0 -38.385118213488227 -6.3845618356490945 0 0 0 0 -57.363563985363726 51.394359490318692 0 51.394359490318692 -0.088227270729561269 0 0 0 0 -34.494474894916493 1.2576703002481544 0 1.2576703002481544 38.502838181446556 0 0 0 0 -38.702088818733955 15.422555865822012 0 15.422555865822012 -61.145342110029787 0 0 0 0 -125.08566850217721 102.03808768352516 0 102.03808768352516 -84.058261560115682 0 0 0 0 2.7006981112298263 15.278726310986508 0 15.278726310986508 -56.650422560333027 0 0 0 0 36.563380376768691 -71.894001390633775 0 -71.894001390633775 -47.142315255762639 0 0 0 0 -5.1340567496908776 1.6105738107079741 0 1.6105738107079741 -0.035333253642989393 0 0 0 0 -195.02720745511397 38.543334559184864 0 38.543334559184864 39.123186517006729 0 0 0 0 -2.2407481972758347 -0.50062613781638543 0 -0.50062613781638543 -0.10393185111468251 0 0 0 0 -99.087788913308032 54.714391860172782 0 54.714391860172782 -49.045045671700365 0 0 0 0 -63.169050539177533 -118.43760100200717 0 -118.43760100200717 8.5331344204720381 0 0 0 0 -97.700067765792483 -45.442487553118852 0 -45.442487553118852 192.26822473239812 0 0 0 0 0.13437574608542491 -46.233668368344212 0 -46.233668368344212 -8.8047188019357634 0 0 0 0 -58.300002386924461 59.042458467895798 0 59.042458467895798 -76.916104426904212 0 0 0 0 -148.01734320060677 -150.80134224460502 0 -150.80134224460502 -76.823967803464811 0 0 0 0 -28.423064259322928 -1.068704026376782 0 -1.068704026376782 -153.0332335195076 0 0 0 0 -75.909855926474847 -34.118248621876873 0 -34.118248621876873 -0.65208467340759313 0 0 0 0 -71.850503066303645 -20.092500473148036 0 -20.092500473148036 2.6382282525096805 0 0 0 0 -157.25391102119283 -51.961473370884761 0 -51.961473370884761 -9.2500952276503021 0 0 0 0 -45.923131229305 23.806874654223805 0 23.806874654223805 -3.8114667261041379 0 0 0 0 -126.33096204937419 38.307212714531147 0 38.307212714531147 -0.65339073261136349 0 0 0 0 -19.745294188925982 35.665315827380425 0 35.665315827380425 -21.652268451978426 0 0 0 0 -2.0605670372047058 0.38174505998602903 0 0.38174505998602903 -0.14386218084573912 0 0 0 0 -7.7271708380760629 -11.955008127091734 0 -11.955008127091734 -1.4552969018487545 0 0 0 0 -40.076230624091522 3.7914654970231334 0 3.7914654970231334 3.2920260229802594 0 0 0 0 -4.685677391680656 4.2141942387701334 0 4.2141942387701334 -15.044394488906057 0 0 0 0 -35.429399714994361 14.581612711218519 0 14.581612711218519 -3.0629153890367746 0 0 0 0 -54.747169044436305 11.996743628144536 0 11.996743628144536 6.0301191186549943 0 0 0 0 -93.410678196629306 16.660360388873826 0 16.660360388873826 6.6247136809949296 0 0 0 0 -49.703500322251784 7.2327023637524732 0 7.2327023637524732 -3.0865841353383097 0 0 0 0 -47.501415586486473 3.9130746091692163 0 3.9130746091692163 -2.7778037687764625 0 0 0 0 -36.930324096728327 -27.368139889748463 0 -27.368139889748463 -0.59623911500716531 0 0 0 0 -51.841725490776298 -26.96430576793275 0 -26.96430576793275 0.74227749484706962 0 0 0 0 -62.426809632986988 -11.968716599445077 0 -11.968716599445077 8.5561230274111431 0 0 0 0 -93.606170853225194 -15.742937878906925 0 -15.742937878906925 8.4120710478005023 0 0 0 0 -76.555650466674706 -2.8972624228144976 0 -2.8972624228144976 6.5394052199311794 0 0 0 0 -55.24795854389231 -4.653964538753554 0 -4.653964538753554 6.3887711956660844 0 0 0 0 -66.418112830926475 -18.572636107899662 0 -18.572636107899662 5.6927959864725608 0 0 0 0 -52.352870780508965 -15.345569676517719 0 -15.345569676517719 3.3988347509945669 0 0 0 0 -49.176045187574346 -21.112392631363576 0 -21.112392631363576 -1.0056253290906056 0 0 0 0 -50.575805598702573 -16.506202479463646 0 -16.506202479463646 3.8818680500431562 0 0 0 0 -49.306568358631921 -12.794726168377043 0 -12.794726168377043 1.3828931844185712 0 0 0 0 -44.499663899596271 -10.77213479501552 0 -10.77213479501552 0.278751370977389 0 0 0 0 -46.37016171751111 -12.738685616754024 0 -12.738685616754024 1.1924268933703601 0 0 0 0 -50.169123722949735 -9.3701396106248254 0 -9.3701396106248254 3.7883567736869885 0 0 0 0 -59.121742066443403 -9.5310644089144905 0 -9.5310644089144905 4.4930747949603145 0 0 0 0 -50.438581620534706 -5.3346910363668254 0 -5.3346910363668254 2.0096208317602056 0 0 0 0 -51.135903321020805 -8.1218799785402762 0 -8.1218799785402762 2.7502411681703585 0 0 0 0 -47.140992792486941 -8.1469266246399492 0 -8.1469266246399492 0.0046530721869719304 0 0 0 0 -36.762992731715713 -2.3529862130272381 0 -2.3529862130272381 -4.2093772579745181 0 0 0 0 -54.571893754873599 -3.4492130484035717 0 -3.4492130484035717 2.7514420112882085 0 0 0 0 -48.1251346214558 -5.5397804584156507 0 -5.5397804584156507 0.0024780415464021946 0 0 0 0 -45.99558513557713 -4.5624853338929654 0 -4.5624853338929654 -4.5267726610290211 0 0 0 0 -43.410286296189042 -8.0588875891846783 0 -8.0588875891846783 -0.0099884836177855096 0 0 0 0 -43.490818238968131 -10.430421708352902 0 -10.430421708352902 -4.5793963798482293 0 0 0 0 -38.407916129472596 -7.1564821980182192 0 -7.1564821980182192 -10.704789035290808 0 0 0 0 -43.612051064524053 -16.578246228084634 0 -16.578246228084634 -8.3574361812826865 0 0 0 0 -54.418789141318484 -14.083583574488328 0 -14.083583574488328 -0.0036502102519021828 0 0 0 0 -62.670072875876031 -23.169595902418379 0 -23.169595902418379 -5.8967261647128097 0 0 0 0 -69.641969640836578 -17.087471795506627 0 -17.087471795506627 -0.0058182136564346974 0 0 0 0 -52.48546115807585 -16.918298303745949 0 -16.918298303745949 -6.6105543526349386 0 0 0 0 -52.447854999414631 -17.208683951405632 0 -17.208683951405632 -9.2914030715914873 0 0 0 0 -70.565956356453171 -25.065601978072145 0 -25.065601978072145 -7.8768801508763744 0 0 0 0 -81.802337844677822 -23.1350423687853 0 -23.1350423687853 -9.7054190162701275 0 0 0 0 -56.90984470814692 -12.13799263742386 0 -12.13799263742386 -14.764357867406519 0 0 0 0 -51.018552152347183 -22.917362307830768 0 -22.917362307830768 -6.9950108081371276 0 0 0 0 -29.458716882627414 -11.812807234625888 0 -11.812807234625888 -10.869272365498972 0 0 0 0 -25.437458331345624 -17.108458481488071 0 -17.108458481488071 -5.323845497061356 0 0 0 0 -0.65068449561431407 -6.7581627342023394 0 -6.7581627342023394 -14.010801439894216 0 0 0 0 -0.053689033855066626 0.042801780401138245 0 0.042801780401138245 0.0062197698235099824 0 0 0 0 -30.136056563080274 -5.0451665864998105 0 -5.0451665864998105 -10.684133767879782 0 0 0 0 -35.635177927615587 -21.531982070793276 0 -21.531982070793276 -12.015460348018856 0 0 0 0 -18.762494317339588 -32.651975929147333 0 -32.651975929147333 -26.299856471248379 0 0 0 0 -57.091459087525436 -41.94129003969163 0 -41.94129003969163 -11.058779222148544 0 0 0 0 -26.597157381620491 -27.530029016624837 0 -27.530029016624837 -9.9660740868614255 0 0 0 0 -0.27784386279537898 -0.10703046597988841 0 -0.10703046597988841 -0.017789314184312205 0 0 0 0 -29.434764839246782 -13.433736210503586 0 -13.433736210503586 0.017829462767114924 0 0 0 0 -42.313543518994265 -10.007891066605996 0 -10.007891066605996 22.691658524871606 0 0 0 0 -71.227626986583346 -23.714897638872102 0 -23.714897638872102 17.60071865776607 0 0 0 0 -68.128001247423526 -22.045578937894074 0 -22.045578937894074 -17.561828712963138 0 0 0 0 -69.406681785186265 -29.515902761800113 0 -29.515902761800113 -9.8957888904891149 0 0 0 0 -63.370831538855782 -15.986678949491566 0 -15.986678949491566 -15.429138965100297 0 0 0 0 -70.667520364070697 -23.3690198991365 0 -23.3690198991365 -8.0102032628346365 0 0 0 0 -68.282944895408036 -13.589749844789729 0 -13.589749844789729 -13.194678484824237 0 0 0 0 -74.566596309537999 -24.828444903461328 0 -24.828444903461328 0.0018076326858384034 0 0 0 0 -71.665995040448252 -19.953765462599588 0 -19.953765462599588 -5.7257957286102918 0 0 0 0 -71.229492430158643 -20.3230144834383 0 -20.3230144834383 -6.1748936808592187 0 0 0 0 -80.323030777883105 -17.711587886669072 0 -17.711587886669072 -4.4463868270304197 0 0 0 0 -74.706140808008058 -18.876087442397129 0 -18.876087442397129 -21.592398172890086 0 0 0 0 -70.688265833794063 -12.237389297759149 0 -12.237389297759149 -11.355495291466191 0 0 0 0 -83.231423345755502 22.551987181478438 0 22.551987181478438 0.44886118761029081 0 0 0 0 -80.413510464173669 -17.139298573836921 0 -17.139298573836921 -18.935770292005515 0 0 0 0 -98.808112350870942 -2.2581310225892111 0 -2.2581310225892111 -13.704936910284324 0 0 0 0 -0.083004477638933594 0.053469619360189569 0 0.053469619360189569 -0.24116762536941067 0 0 0 0 -34.232766535744304 -31.20836698952634 0 -31.20836698952634 -26.141129394038956 0 0 0 0 -37.040101823220539 -26.884685995542061 0 -26.884685995542061 -10.39678718833585 0 0 0 0 -80.291040650100967 -6.2593426565616213 0 -6.2593426565616213 -15.378165950886412 0 0 0 0 -42.694229185752192 -15.163214679811361 0 -15.163214679811361 -36.145236411585529 0 0 0 0 -48.135839928800124 -33.446038224316851 0 -33.446038224316851 -14.027582396510908 0 0 0 0 -47.748915921503794 -32.640927160261711 0 -32.640927160261711 -15.632166995111646 0 0 0 0 -28.637028492474201 -42.685562400521917 0 -42.685562400521917 -19.388240348254897 0 0 0 0 -40.579310171080579 -37.654759918910855 0 -37.654759918910855 -21.506444548440896 0 0 0 0 -40.891486957294603 -45.765432821907119 0 -45.765432821907119 -9.6692265282417793 0 0 0 0 -51.131330998177873 -52.607584664962417 0 -52.607584664962417 -14.235039843708194 0 0 0 0 -46.42596278537826 -32.420091953505661 0 -32.420091953505661 3.6263706992847631 0 0 0 0 -47.870704210632539 -42.20111252847218 0 -42.20111252847218 -11.407682538985213 0 0 0 0 -49.928345420634287 -35.403265081207607 0 -35.403265081207607 -5.0906886904210822 0 0 0 0 -41.834425870281848 -37.907051808325981 0 -37.907051808325981 -10.442567725006285 0 0 0 0 -13.41275515278403 -22.034765380602344 0 -22.034765380602344 -117.18681172593483 0 0 0 0 -4.1654964103418024 -16.840166566682413 0 -16.840166566682413 -27.388047304678992 0 0 0 0 -11.366212505905423 -8.7647078661064768 0 -8.7647078661064768 -36.294624410304294 0 0 0 0 -6.746115158941393 -43.86263189493323 0 -43.86263189493323 -69.222140127772491 0 0 0 0 -40.553058490166222 -61.090712861538535 0 -61.090712861538535 -21.997875609757216 0 0 0 0 -34.698314485915034 -53.04032439378814 0 -53.04032439378814 -16.974302166632953 0 0 0 0 -33.078784479033857 -41.539946676660797 0 -41.539946676660797 -16.563592002642622 0 0 0 0 -18.79420697799651 -40.927092382318932 0 -40.927092382318932 -26.896256734816745 0 0 0 0 3.0876950735291757 -24.630094750885291 0 -24.630094750885291 -20.931276445309081 0 0 0 0 1.7546807297894702 -24.734637270894211 0 -24.734637270894211 -13.64624004403322 0 0 0 0 -8.5327915676061821 -30.859689381581092 0 -30.859689381581092 -17.205574360994547 0 0 0 0 13.492259130827733 -2.9914735015358929 0 -2.9914735015358929 -37.763288207305521 0 0 0 0 3.9146614103719912 1.125514031904018 0 1.125514031904018 13.526305553465136 0 0 0 0 -2.9750469704777061 2.0503034201648731 0 2.0503034201648731 1.3848481096913936 0 0 0 0 -2.6769035054767301 -3.3831660775527688 0 -3.3831660775527688 -0.59328902396813632 0 0 0 0 -81.581862119415746 -35.987156435026648 0 -35.987156435026648 -3.4524179201376199 0 0 0 0 1.546060541208135 -15.230567764602625 0 -15.230567764602625 -15.863676957087861 0 0 0 0 13.549669141442791 -10.637667106508921 0 -10.637667106508921 -18.847455782521223 0 0 0 0 -2.3212720167522889 5.0702750007134316 0 5.0702750007134316 -8.5387282216588005 0 0 0 0 -0.036742728039694583 0.14470753719534457 0 0.14470753719534457 -0.5110175505556005 0 0 0 0 -8.8041227442713534 -12.717241534116695 0 -12.717241534116695 -6.5394398089056835 0 0 0 0 -139.48164670921369 0.68560641185267768 0 0.68560641185267768 3.0554199408535609 0 0 0 0 -128.34400783750971 -34.057265831352936 0 -34.057265831352936 3.6330772224805399 0 0 0 0 -0.43167777801533447 0.26049070285466414 0 0.26049070285466414 -0.13712256824715591 0 0 0 0 -106.74435872667527 -10.922331564446072 0 -10.922331564446072 7.1613462836857096 0 0 0 0 -118.24467536340126 -9.1318902547248229 0 -9.1318902547248229 18.129905259896987 0 0 0 0 -117.39994351116729 -6.6557997907332824 0 -6.6557997907332824 20.233476294309511 0 0 0 0 -136.01514155670884 -9.0019741364468615 0 -9.0019741364468615 23.267890169608208 0 0 0 0 -122.55408158954424 -1.263315031530631 0 -1.263315031530631 22.465760983613876 0 0 0 0 -70.649675799533725 -7.0273902789762133 0 -7.0273902789762133 14.071165122367404 0 0 0 0 -124.63059472649184 8.2979444893894652 0 8.2979444893894652 12.731020669956862 0 0 0 0 -73.150224030261597 25.149667853895963 0 25.149667853895963 -7.5437701627082561 0 0 0 0 -67.392627649391216 17.58868033258446 0 17.58868033258446 -7.7604878114521796 0 0 0 0 -242.40723059155607 -16.259121161578648 0 -16.259121161578648 24.983795625581877 0 0 0 0 -223.50059808926017 -71.809226335683348 0 -71.809226335683348 8.0157530397613073 0 0 0 0 -1.3800978111815851 0.0031587379953159633 0 0.0031587379953159633 -0.0030790285017607 0 0 0 0 -29.342256332194665 22.328986263191553 0 22.328986263191553 -32.307201931563696 0 0 0 0 -201.60629615903053 -83.946499500587279 0 -83.946499500587279 3.5512859253599913 0 0 0 0 -72.943707806742168 73.744049341082302 0 73.744049341082302 -31.000266549089275 0 0 0 0 -172.20192585414588 67.888452437046581 0 67.888452437046581 5.2848985267507942 0 0 0 0 11.717360713686503 -12.793704541122665 0 -12.793704541122665 -12.66232716144782 0 0 0 0 -8.4597575965308351 -4.0887363976101057 0 -4.0887363976101057 9.1385110446590545 0 0 0 0 0.39721659435171119 -0.077283712985211347 0 -0.077283712985211347 -0.17283557364147081 0 0 0 0 2.0966850475997489 -0.68476054303545197 0 -0.68476054303545197 -30.186788339242923 0 0 0 0 -22.640718342488981 -10.875302821165519 0 -10.875302821165519 5.9042840155163958 0 0 0 0 -20.392242929483473 -62.785651365676301 0 -62.785651365676301 -27.042144008217008 0 0 0 0 -3.2442884630727349 46.259689515287221 0 46.259689515287221 9.9408535325400749 0 0 0 0 26.706632081270072 62.848236129374015 0 62.848236129374015 -83.756593498918846 0 0 0 0 -0.6500568417604633 0.62889230228042692 0 0.62889230228042692 -0.56743489513220646 0 0 0 0 -14.417038259151013 7.9951539319486145 0 7.9951539319486145 3.8498387712273257 0 0 0 0 -6.1229989069215662 -6.2479984142253926 0 -6.2479984142253926 6.6149133661681105 0 0 0 0 -4.996778937423187 18.186914856058078 0 18.186914856058078 -12.02824449915471 0 0 0 0 -13.465281968181444 5.2199616827632127 0 5.2199616827632127 -5.6412396076008235 0 0 0 0 -57.898920156003442 23.439759426605065 0 23.439759426605065 -15.251574116030923 0 0 0 0 -21.624263216974214 10.148300009866063 0 10.148300009866063 -15.344580910044527 0 0 0 0 -22.573877988885215 6.153711746049197 0 6.153711746049197 -0.90285489518194595 0 0 0 0 -67.263023014456394 5.3756064545850659 0 5.3756064545850659 -9.0106484412610826 0 0 0 0 -27.402785755577497 3.6269810050723663 0 3.6269810050723663 -9.686553191837163 0 0 0 0 -63.917727657157229 9.1704643378054627 0 9.1704643378054627 -5.9173316275093839 0 0 0 0 -18.111559069286159 16.364570270550701 0 16.364570270550701 -15.089026801405794 0 0 0 0 -0.373054187759152 0.24436367234542544 0 0.24436367234542544 -0.27949962303571579 0 0 0 0 36.296055797098234 20.338952724591735 0 20.338952724591735 -17.958121699084842 0 0 0 0 18.35075723088994 3.541210149223204 0 3.541210149223204 9.4585272617634359 0 0 0 0 24.627302064669493 28.952385522076455 0 28.952385522076455 17.29397718686203 0 0 0 0 -16.253909375765943 20.700425345389533 0 20.700425345389533 35.551033837375257 0 0 0 0 -0.82446122651606402 0.34321188197194985 0 0.34321188197194985 -0.44554812087255924 0 0 0 0 -4.1414166233153082 1.8757559463809912 0 1.8757559463809912 -8.9396585440014675 0 0 0 0 18.664629613114812 -3.2125385434180771 0 -3.2125385434180771 1.9764780100562405 0 0 0 0 -3.2298404445145863 0.41356393724003215 0 0.41356393724003215 -0.0037694570401068418 0 0 0 0 -6.7635919776967057 2.7841510191133096 0 2.7841510191133096 -3.2078403998757494 0 0 0 0 -22.773266202595551 -0.025213354105289909 0 -0.025213354105289909 -2.2912422040080855 0 0 0 0 35.519891562464181 -6.3770500990118535 0 -6.3770500990118535 -16.647493848468216 0 0 0 0 12.355058847708278 -0.85338620398215426 0 -0.85338620398215426 -16.226132210673548 0 0 0 0 -0.79315638257404331 0.2071032370709105 0 0.2071032370709105 0.26350470901284995 0 0 0 0 -1.9333593782453562 -0.41340904585438665 0 -0.41340904585438665 0.28417536350198691 0 0 0 0 -2.8900776540924866 -0.15558728628742102 0 -0.15558728628742102 0.21187825358976786 0 0 0 0 -2.3923529520005644 0.16876994506895082 0 0.16876994506895082 -0.67042626046145959 0 0 0 0 -1.7694524769467534 0.30456468460450026 0 0.30456468460450026 0.45915226916847018 0 0 0 0 -0.62656615159357898 0.17054455076854858 0 0.17054455076854858 -0.069542307024871519 0 0 0 0 -0.965915409347744 0.46486450887915964 0 0.46486450887915964 -0.22806694777498043 0 0 0 0 -0.83581341122261676 0.39303105117041859 0 0.39303105117041859 -0.57753962593009001 0 0 0 0 -1.3323121354333125 0.54740661652292744 0 0.54740661652292744 0.27042957103530796 0 0 0 0 -1.3878588337319968 -0.076832884688894737 0 -0.076832884688894737 0.036200179939921771 0 0 0 0 -2.7177201039032539 -0.54288551323989198 0 -0.54288551323989198 -0.05678936156340153 0 0 0 0 -9.4929012809152482 5.1408906719068028 0 5.1408906719068028 4.0334877112388678 0 0 0 0 -23.926100223956382 26.073188396076773 0 26.073188396076773 69.364322478584569 0 0 0 0 0.073813580443129467 -0.22773017760849612 0 -0.22773017760849612 0.82861976007801985 0 0 0 0 -4.3653307102031249 56.022233890846493 0 56.022233890846493 13.949116581407679 0 0 0 0 -5.7037594619173433 -10.79066390998377 0 -10.79066390998377 -41.802762056934796 0 0 0 0 18.014825860502697 5.2628460354570095 0 5.2628460354570095 14.443354799059705 0 0 0 0 -11.604639017838053 14.842007733667515 0 14.842007733667515 11.357114023119451 0 0 0 0 18.576353071587619 11.958674382548637 0 11.958674382548637 -36.491776736193685 0 0 0 0 -4.8545210134434456 6.8565366639454552 0 6.8565366639454552 3.4754422438594919 0 0 0 0 -28.959159090260982 -12.276634744025749 0 -12.276634744025749 -5.0121614753148549 0 0 0 0 0.14749423478246193 -0.052125109752793719 0 -0.052125109752793719 0.17956522912113243 0 0 0 0 2.7875615455595835 2.0132289843705902 0 2.0132289843705902 -4.5775325814281711 0 0 0 0 -23.172831347390002 -15.722799476938897 0 -15.722799476938897 -3.4128592075291735 0 0 0 0 -26.709643003296605 -7.8217023599596889 0 -7.8217023599596889 -14.819010174294146 0 0 0 0 -58.49289769855568 -15.055824849206678 0 -15.055824849206678 -15.548125585853562 0 0 0 0 -86.853452090752398 -9.8491001896258012 0 -9.8491001896258012 -6.3447041498186421 0 0 0 0 -87.625290955289529 -1.2607282163757461 0 -1.2607282163757461 -29.023663884098205 0 0 0 0 -104.938301696596 -22.526754555427633 0 -22.526754555427633 0.047306274008143134 0 0 0 0 -29.112547225751769 -10.581992308235186 0 -10.581992308235186 -12.777417068671795 0 0 0 0 -57.950902073769612 -19.046636774208256 0 -19.046636774208256 -4.8200026807577814 0 0 0 0 -7.7115237694360985 -21.469326945754716 0 -21.469326945754716 -33.797336998881704 0 0 0 0 -59.788638082934995 -19.729654789876228 0 -19.729654789876228 -3.7287132254888604 0 0 0 0 -181.55847544265271 -88.9673588390703 0 -88.9673588390703 -16.789140455916723 0 0 0 0 -113.69660486078283 -64.896286299876948 0 -64.896286299876948 -8.5916284059410373 0 0 0 0 -58.858077878132463 -23.115769732371881 0 -23.115769732371881 -4.9300240094533692 0 0 0 0 -1.4774315407194081 -34.824856832606343 0 -34.824856832606343 -103.51709447311198 0 0 0 0 -31.402853353576575 16.999599976645385 0 16.999599976645385 25.523421614904805 0 0 0 0 -4.5555841307895975 1.9579666155525999 0 1.9579666155525999 -0.85154643409415987 0 0 0 0 -14.955577047046972 1.0041984980138068 0 1.0041984980138068 10.953405240401025 0 0 0 0 -5.9826035266650308 2.6645552147102505 0 2.6645552147102505 -0.699959889465677 0 0 0 0 -1.9889098394996836 8.2842817874337058 0 8.2842817874337058 12.890366884011115 0 0 0 0 0.63994911308986957 12.791768088468004 0 12.791768088468004 -11.25854009451659 0 0 0 0 -1.5674001888020381 0.093054073861384978 0 0.093054073861384978 0.94301356933347136 0 0 0 0 -10.077850441804912 -0.48844550522110808 0 -0.48844550522110808 12.117239710201176 0 0 0 0 9.1866643804296473 11.503205929909299 0 11.503205929909299 -11.530564067128807 0 0 0 0 64.563019459543284 -43.141696933770362 0 -43.141696933770362 -96.738172089031934 0 0 0 0 -1.4808878170182798 -0.22626586916221569 0 -0.22626586916221569 1.6680226002844376 0 0 0 0 -69.874001326934376 -53.356635691135807 0 -53.356635691135807 17.322961234112825 0 0 0 0 -169.87935228511014 -51.689936159768592 0 -51.689936159768592 21.179163417067912 0 0 0 0 -18.928140864180023 -26.487972046418037 0 -26.487972046418037 -1.6440394038720285 0 0 0 0 0.237863468416462 -0.37900171230679547 0 -0.37900171230679547 0.38637484541192357 0 0 0 0 -27.302879535159263 7.8518320647048441 0 7.8518320647048441 -6.8250760042224101 0 0 0 0 -4.9816708993021166 -1.9845306002703182 0 -1.9845306002703182 -2.8357090217143082 0 0 0 0 -15.438346900356464 12.849605084627555 0 12.849605084627555 17.313178651847807 0 0 0 0 -25.581339791124265 62.074227634055546 0 62.074227634055546 -100.27482077889283 0 0 0 0 9.7193295547622256 -2.9251722266729985 0 -2.9251722266729985 -26.28775082838996 0 0 0 0 -50.731702004004546 56.895703398278556 0 56.895703398278556 -46.514175447899945 0 0 0 0 -68.355353545748585 50.337640135640001 0 50.337640135640001 -12.029020380299471 0 0 0 0 -18.61785642277664 16.153624213079524 0 16.153624213079524 1.1035310954612783 0 0 0 0 -107.22651311998743 33.92975177807034 0 33.92975177807034 -0.91051783555980137 0 0 0 0 -47.020826811633015 65.161023816544002 0 65.161023816544002 2.5485657268209394 0 0 0 0 -1.5855129262595469 -0.31792932984825484 0 -0.31792932984825484 -0.094222441838130958 0 0 0 0 -134.19668824897974 56.469433629467723 0 56.469433629467723 16.335606236525848 0 0 0 0 -49.177289164563263 -49.459692550100726 0 -49.459692550100726 -63.136251722723685 0 0 0 0 -115.97009277069492 -44.085390703969793 0 -44.085390703969793 -69.263850772222213 0 0 0 0 -70.313695495300635 31.060629989291158 0 31.060629989291158 -137.50027094983128 0 0 0 0 -55.758772916713497 5.0214751469720511 0 5.0214751469720511 -53.29349283746879 0 0 0 0 -65.07762049943085 -1.1928182616732954 0 -1.1928182616732954 -46.117751528704787 0 0 0 0 -52.392162795711556 2.5826898131864766 0 2.5826898131864766 -45.076361419452724 0 0 0 0 -79.708161161239332 -15.74052214097199 0 -15.74052214097199 -2.5568621334045787 0 0 0 0 -61.108606998969663 -21.032928245825644 0 -21.032928245825644 -13.418109831658796 0 0 0 0 -55.148119430572478 -24.800685926035598 0 -24.800685926035598 -54.021476096472782 0 0 0 0 -0.028339363594977129 -0.14838445677947476 0 -0.14838445677947476 0.040111998630599111 0 0 0 0 -39.979802637370085 17.119530412076273 0 17.119530412076273 -20.269613055850272 0 0 0 0 12.513919237509526 4.1791905056367753 0 4.1791905056367753 -55.874209851116632 0 0 0 0 15.483777873601866 5.2490612826873786 0 5.2490612826873786 -149.65523669510051 0 0 0 0 -52.315963158293016 -24.425692196792966 0 -24.425692196792966 -30.575318834993993 0 0 0 0 -19.598311069010379 -52.682980908708316 0 -52.682980908708316 -86.769825254824809 0 0 0 0 -25.468286745543082 16.168599709385113 0 16.168599709385113 -14.827632593592938 0 0 0 0 -1.0260684687112054 0.21648014304462748 0 0.21648014304462748 -0.45593460772897565 0 0 0 0 -34.37006014081453 -20.035164715389143 0 -20.035164715389143 -36.090744256959852 0 0 0 0 32.495250354495511 -5.1815754553622924 0 -5.1815754553622924 -104.07016837796846 0 0 0 0 27.880824439522257 0.38558692219936574 0 0.38558692219936574 -102.27972992448946 0 0 0 0 -1.3531304181597079 -25.155242693348441 0 -25.155242693348441 -75.334834402812419 0 0 0 0 25.117026276642719 -1.3112913850454788 0 -1.3112913850454788 -61.052442236508341 0 0 0 0 22.659556258220618 1.2159435442044639 0 1.2159435442044639 -71.772151355402571 0 0 0 0 22.060217313952307 18.858068901230865 0 18.858068901230865 -72.098770789443961 0 0 0 0 33.10317775162116 -7.9161601158097845 0 -7.9161601158097845 -128.14746621259872 0 0 0 0 -114.98342572365073 -107.80860342334006 0 -107.80860342334006 -143.34736107146614 0 0 0 0 -56.785942272555985 -32.616841285067665 0 -32.616841285067665 -46.223732970071381 0 0 0 0 21.584468192915665 18.71514698731869 0 18.71514698731869 -108.780235837117 0 0 0 0 -10.595480215413772 -10.328838821337655 0 -10.328838821337655 -89.452255218555024 0 0 0 0 -35.217396437014031 37.474664786281608 0 37.474664786281608 -182.19120469812208 0 0 0 0 -247.40637709140356 -80.801625974416424 0 -80.801625974416424 5.7245589876498855 0 0 0 0 -1.9583719025656379 0.68684256556954359 0 0.68684256556954359 -0.31318645733466588 0 0 0 0 -259.80831763470633 11.202880591343842 0 11.202880591343842 -45.67607037246313 0 0 0 0 -174.52323274549963 105.029681332623 0 105.029681332623 -39.318622563042453 0 0 0 0 -4.1454343530413098 -3.1413441702373603 0 -3.1413441702373603 -4.9436551416493764 0 0 0 0 -16.704458149921265 53.135805624220907 0 53.135805624220907 -12.473946563348257 0 0 0 0 -3.7277238461613891 -1.045030895623583 0 -1.045030895623583 -0.1859860437180525 0 0 0 0 23.874515626726861 -0.063584840594870684 0 -0.063584840594870684 -34.264393703947704 0 0 0 0 -78.962053734741858 -18.947141922557968 0 -18.947141922557968 102.62943206240124 0 0 0 0 8.0233551368019107 -50.085028643779509 0 -50.085028643779509 -23.64257628837575 0 0 0 0 -3.9974092701140762 -3.1014388357194207 0 -3.1014388357194207 0.78429909256514918 0 0 0 0 -2.0307259463224909 -3.2514167656859456 0 -3.2514167656859456 0.25988389090906594 0 0 0 0 -4.194459332571526 -1.5522038581220716 0 -1.5522038581220716 -0.36241435602938077 0 0 0 0 23.02162650648188 -27.359112723399292 0 -27.359112723399292 -31.986307436285585 0 0 0 0 -27.010360057331127 -12.174256430245691 0 -12.174256430245691 95.515326444132427 0 0 0 0 -4.1674318317873258 -9.0131010364338948 0 -9.0131010364338948 1.3719751071377573 0 0 0 0 0.1738216452541792 -6.7030533173743301 0 -6.7030533173743301 -4.5700890286721858 0 0 0 0 -4.289820798441724 -13.372013162001011 0 -13.372013162001011 -12.866837480027968 0 0 0 0 -3.1648944537637362 -3.0182970450716304 0 -3.0182970450716304 -8.1333264228565554 0 0 0 0 -16.037277949503732 -20.419413011847794 0 -20.419413011847794 -0.87485847112012038 0 0 0 0 1.9799075363398515 -4.5335048410509913 0 -4.5335048410509913 -29.4458477740192 0 0 0 0 -42.461883345502429 -35.624348280329968 0 -35.624348280329968 -17.59683183530322 0 0 0 0 -19.825268030401276 -25.938347261614908 0 -25.938347261614908 -13.676381396620513 0 0 0 0 -28.092137208857821 -18.385057859560476 0 -18.385057859560476 23.717895347706445 0 0 0 0 -25.36751613366323 -26.172552336828062 0 -26.172552336828062 4.2880336432942272 0 0 0 0 -22.921196748635793 -19.58680262055244 0 -19.58680262055244 16.837132204433203 0 0 0 0 -17.246222539053633 -19.254451211922962 0 -19.254451211922962 3.6129106166276301 0 0 0 0 -11.709110743483279 -11.882133150212558 0 -11.882133150212558 6.5081588747707428 0 0 0 0 -11.52394619325969 -14.855645706671027 0 -14.855645706671027 4.9636863268159175 0 0 0 0 -23.655346976665896 -17.42414386614314 0 -17.42414386614314 10.474334488111168 0 0 0 0 -16.75687654385365 -9.901869746385529 0 -9.901869746385529 11.985573635875653 0 0 0 0 -3.0016079881734186 -8.5387659556132576 0 -8.5387659556132576 6.4044199349933422 0 0 0 0 -1.299182790026407 -13.083217709857895 0 -13.083217709857895 5.7983262168553438 0 0 0 0 -1.7771598519966574 -7.8690173474829876 0 -7.8690173474829876 6.6906752759534243 0 0 0 0 -2.6985006659760984 -10.891186800515811 0 -10.891186800515811 -0.51336123503432418 0 0 0 0 -83.774605357404653 7.9032432138682509 0 7.9032432138682509 -1.6533337636191447 0 0 0 0 -64.768284601366759 21.413327890120655 0 21.413327890120655 -26.746460820032617 0 0 0 0 -59.685147274441988 8.2337342364004371 0 8.2337342364004371 -21.90934279348528 0 0 0 0 -68.049399101146264 19.819718330822987 0 19.819718330822987 -0.89777583407965267 0 0 0 0 -52.129801921042599 1.4702116710848543 0 1.4702116710848543 -50.7056066149309 0 0 0 0 -58.879856201076109 18.752895357461199 0 18.752895357461199 -39.385685091444202 0 0 0 0 -63.611138846676113 14.146462502396872 0 14.146462502396872 -29.231636837508212 0 0 0 0 -76.607966540523194 37.308251441170555 0 37.308251441170555 -69.08236020682358 0 0 0 0 -57.195313213809641 -0.90555553673192435 0 -0.90555553673192435 -67.085696202565657 0 0 0 0 -168.83262361187553 46.371896134242036 0 46.371896134242036 -46.150228257323107 0 0 0 0 -129.93160394249162 -55.366420623485297 0 -55.366420623485297 -36.253846313616975 0 0 0 0 -107.90976580245751 5.376589917003173 0 5.376589917003173 -18.665413671491365 0 0 0 0 -66.396389068868302 -21.734164491509603 0 -21.734164491509603 -25.615417510943132 0 0 0 0 -12.433501784746113 -36.63934878180261 0 -36.63934878180261 -67.795328646949145 0 0 0 0 -41.880728730120609 -36.224083536615126 0 -36.224083536615126 -23.375287947792774 0 0 0 0 -89.911980971768571 -8.8224076663908875 0 -8.8224076663908875 1.2994583366351549 0 0 0 0 -69.564481441071621 6.4302947559505697 0 6.4302947559505697 -19.604469794931404 0 0 0 0 -58.068154584703734 -18.859979218062364 0 -18.859979218062364 3.9287113786665486 0 0 0 0 -39.518691053328439 -31.788451030463079 0 -31.788451030463079 9.8904670589569434 0 0 0 0 -38.052490004427455 -5.3263914245895592 0 -5.3263914245895592 13.039361861605897 0 0 0 0 -28.724672432565058 -21.082158374449193 0 -21.082158374449193 27.32877813926774 0 0 0 0 -21.577108824461902 20.164263651960084 0 20.164263651960084 17.690397005120758 0 0 0 0 -63.642935789332114 10.216888008099176 0 10.216888008099176 16.138941293399967 0 0 0 0 -56.784083033669447 16.867524852843601 0 16.867524852843601 1.2055410057822655 0 0 0 0 -66.069376764920889 14.993540325333342 0 14.993540325333342 0.16682979735600156 0 0 0 0 -63.937563438480566 28.184935198083039 0 28.184935198083039 22.001604813214669 0 0 0 0 -82.665635248798935 13.313654467008703 0 13.313654467008703 29.061950126373119 0 0 0 0 -80.741540820616137 18.680642241744309 0 18.680642241744309 38.955978375105559 0 0 0 0 -73.945475801698194 2.2005206187106694 0 2.2005206187106694 43.149059517547656 0 0 0 0 -49.204723288670721 -9.1635197975889007 0 -9.1635197975889007 24.025084493291075 0 0 0 0 -57.823650482121593 5.0620099217914785 0 5.0620099217914785 22.007211590908355 0 0 0 0 -70.145802350960366 10.696337640171947 0 10.696337640171947 26.481448272207359 0 0 0 0 -67.431737128819805 13.956743803735975 0 13.956743803735975 17.021846513792582 0 0 0 0 -57.637663566954416 13.271646526431397 0 13.271646526431397 -20.770499737628825 0 0 0 0 -61.411805920151892 1.6793774497353127 0 1.6793774497353127 2.3741844900919773 0 0 0 0 -47.714802177422825 21.120284327786955 0 21.120284327786955 -9.0216957329552088 0 0 0 0 -76.544375688436048 12.83459002802104 0 12.83459002802104 -11.235392208184066 0 0 0 0 -61.179978198306344 -4.5884774486255111 0 -4.5884774486255111 -43.952402797871002 0 0 0 0 -58.653215663602168 1.3429855632779493 0 1.3429855632779493 -30.05901904327979 0 0 0 0 -8.1115415743406629 10.192407495452329 0 10.192407495452329 -20.048362760196085 0 0 0 0 -4.0288172454838787 8.7286164802518442 0 8.7286164802518442 -23.847256557180685 0 0 0 0 -4.7374460030223418 8.971162217240817 0 8.971162217240817 -20.592034539680981 0 0 0 0 -9.7829404197254917 7.4163468530909995 0 7.4163468530909995 -21.35826042144339 0 0 0 0 -24.460959558139621 35.10200260491898 0 35.10200260491898 -59.075747535621986 0 0 0 0 -3.6838951282879862 13.500307041734828 0 13.500307041734828 -12.230015850771053 0 0 0 0 -5.0826840089157486 12.553153349972405 0 12.553153349972405 -26.817692148872737 0 0 0 0 -4.2735975989348844 15.699455483071425 0 15.699455483071425 -16.253041569565994 0 0 0 0 -8.8713999393339691 9.6743057067861216 0 9.6743057067861216 10.973925869748399 0 0 0 0 3.932937624038459 20.072031323108519 0 20.072031323108519 -8.4155802441471792 0 0 0 0 -17.235773415248332 23.883749055896658 0 23.883749055896658 -12.424140025191136 0 0 0 0 -31.093158797294564 3.6605249616286457 0 3.6605249616286457 5.4724362335438457 0 0 0 0 -18.207534408411448 14.193581893073144 0 14.193581893073144 9.9845172778685978 0 0 0 0 -8.3592178567096198 -0.69957394847254051 0 -0.69957394847254051 31.039307878475455 0 0 0 0 6.0456397147372627 21.128920366183795 0 21.128920366183795 15.692323369753254 0 0 0 0 17.855444425604219 12.74583782788325 0 12.74583782788325 8.2339475967524312 0 0 0 0 -3.7491087632670315 22.037437571022565 0 22.037437571022565 52.099315099704512 0 0 0 0 -0.51819192781265144 0.19481990863654985 0 0.19481990863654985 -0.048077685965834532 0 0 0 0 -9.0662965998762957 38.139309716618165 0 38.139309716618165 10.469130547841651 0 0 0 0 -56.384275272754167 32.32706346358782 0 32.32706346358782 14.69310753846608 0 0 0 0 -7.0394694861461176 24.611176723297689 0 24.611176723297689 3.9977894485684828 0 0 0 0 -24.155808233055723 30.832118767026117 0 30.832118767026117 14.256467378356888 0 0 0 0 -14.344847466101783 19.449033910487969 0 19.449033910487969 1.2901486980441064 0 0 0 0 -7.6551117855788107 20.712956085710189 0 20.712956085710189 -1.8227935647329332 0 0 0 0 -2.9820028973335866 26.903086490909971 0 26.903086490909971 5.8961298886097282 0 0 0 0 -14.970706414713277 -4.3744836880170226 0 -4.3744836880170226 -2.3933342135114657 0 0 0 0 -29.003600486054893 20.3481600348744 0 20.3481600348744 -19.899702456393459 0 0 0 0 -61.976696052890475 -23.357074582759111 0 -23.357074582759111 6.8602774804083992 0 0 0 0 -3.7154641847282619 -4.6183438525236511 0 -4.6183438525236511 2.5445925507791003 0 0 0 0 -48.552880609115164 10.209561886591501 0 10.209561886591501 14.502153634886611 0 0 0 0 -17.371003029671556 9.9070348888488979 0 9.9070348888488979 14.221489969825583 0 0 0 0 -20.133393484440603 5.8012711253167026 0 5.8012711253167026 8.7336336975047288 0 0 0 0 -20.884291417485656 -13.070195742391178 0 -13.070195742391178 9.0172363652214358 0 0 0 0 -18.804198895702939 -3.8219179976684217 0 -3.8219179976684217 1.8465951248619206 0 0 0 0 -4.2143961063684401 -6.3704594455571879 0 -6.3704594455571879 5.3207635717284347 0 0 0 0 0.039839808018072631 -0.14757025307312333 0 -0.14757025307312333 0.25676378415493217 0 0 0 0 -17.883488166333336 -2.1774823293987282 0 -2.1774823293987282 0.90948350181395199 0 0 0 0 -18.638202786148668 -5.2459389236670901 0 -5.2459389236670901 -0.76730085074052568 0 0 0 0 -16.964701909929772 -3.0005760487805482 0 -3.0005760487805482 -0.92525437336553296 0 0 0 0 -0.64799037900593248 2.6463733986893203 0 2.6463733986893203 -3.3561879873147404 0 0 0 0 -2.0235093193332432 3.1170032442022944 0 3.1170032442022944 -2.5905628420393896 0 0 0 0 -2.2023411059417413 -0.26676278207094128 0 -0.26676278207094128 0.90609172400615989 0 0 0 0 -13.535261536093458 3.7889562976316711 0 3.7889562976316711 9.2614765580615597 0 0 0 0 -0.039079377804490889 0.037016485127612242 0 0.037016485127612242 0.1647297658213942 0 0 0 0 -1.0069105670595491 1.6878728578951154 0 1.6878728578951154 -2.2006754870328109 0 0 0 0 -1.619450668884383 2.1642907681786099 0 2.1642907681786099 -1.7232489935785793 0 0 0 0 -0.45962484213123389 1.230166937522938 0 1.230166937522938 -1.429713520640334 0 0 0 0 -4.8113874618647969 1.8917860468566374 0 1.8917860468566374 0.51697696087217082 0 0 0 0 -0.07528132024877543 -0.21736962746237509 0 -0.21736962746237509 0.70349967472593722 0 0 0 0 -17.740216334292199 -5.5360022420471751 0 -5.5360022420471751 -1.119012359715498 0 0 0 0 -1.0688626745941292 17.221243699134689 0 17.221243699134689 -11.532106331131956 0 0 0 0 -4.2046986556524644 11.437062794252768 0 11.437062794252768 -13.454940989691011 0 0 0 0 -6.7902459647266369 19.201585180302516 0 19.201585180302516 -1.6118790437106156 0 0 0 0 -7.9512713476833596 17.430940317265367 0 17.430940317265367 -3.1901353295595527 0 0 0 0 -8.8708927497500554 8.9609778055638003 0 8.9609778055638003 1.526621389379585 0 0 0 0 -19.529920691427833 14.363280021665418 0 14.363280021665418 5.6933292224395586 0 0 0 0 -8.7959307332494063 12.374590490262506 0 12.374590490262506 -8.1308575084146923 0 0 0 0 -7.668954472108453 13.591560765642839 0 13.591560765642839 -7.8619472040327025 0 0 0 0 -8.4305011334436131 13.021729677787505 0 13.021729677787505 -7.3665873390723959 0 0 0 0 -0.20531595485823217 0.36715641500679475 0 0.36715641500679475 0.053679852096011782 0 0 0 0 -1.7079708514138474 2.180251085621876 0 2.180251085621876 -0.0052877058702733848 0 0 0 0 -2.189059727377753 1.897093924425576 0 1.897093924425576 -2.850354944001765 0 0 0 0 -7.934200833322393 13.157926460433259 0 13.157926460433259 -8.1549405617882602 0 0 0 0 -0.10258292264875735 0.017471544012238382 0 0.017471544012238382 0.062813484296283528 0 0 0 0 -1.3346591449487732 3.856287468133317 0 3.856287468133317 -1.5412519327672953 0 0 0 0 -0.43854315609671346 0.2401117069439902 0 0.2401117069439902 -0.10658616293466516 0 0 0 0 -1.9861269056782476 2.384756619062955 0 2.384756619062955 -1.6801307401399299 0 0 0 0 -3.2726295631582616 6.6902369220306355 0 6.6902369220306355 -12.586985746030507 0 0 0 0 -5.0830861796175668 10.469964905589094 0 10.469964905589094 -14.339532669541427 0 0 0 0 -3.1927063452303628 12.029224575179114 0 12.029224575179114 -16.646280490366053 0 0 0 0 -3.2227475420258997 6.575056266390618 0 6.575056266390618 -19.953690143356397 0 0 0 0 -0.27653719082582029 0.37515987905476855 0 0.37515987905476855 0.099163684180186396 0 0 0 0 -0.66209285080731206 -5.1754017711898772 0 -5.1754017711898772 8.9966703634528358 0 0 0 0 -1.5344909008108516 2.3676000482411155 0 2.3676000482411155 -1.6101150044252091 0 0 0 0 -1.2712836071824043 0.8508079061089493 0 0.8508079061089493 0.23834959138295214 0 0 0 0 -1.3102702093147585 0.81158327812768138 0 0.81158327812768138 0.024463803812427739 0 0 0 0 0.21494478885870194 -0.61417313090052517 0 -0.61417313090052517 7.33943821205213 0 0 0 0 -3.5563864952491713 0.87041372397364114 0 0.87041372397364114 8.1584816169748535 0 0 0 0 -5.8908403907089451 -0.94092085081010879 0 -0.94092085081010879 7.6652656261489938 0 0 0 0 -4.1312227684084064 2.7618934472081627 0 2.7618934472081627 5.0387936638937845 0 0 0 0 -2.9590139092861136 0.044016855777329056 0 0.044016855777329056 8.4995235897889074 0 0 0 0 -1.4723644380819678 -0.18477737955498696 0 -0.18477737955498696 1.6970245751668358 0 0 0 0 2.7134641592406297 4.5450287938118805 0 4.5450287938118805 2.8443495701477559 0 0 0 0 -1.0596347360426748 0.77269653779898773 0 0.77269653779898773 -0.025359451613792536 0 0 0 0 -3.1832063055189792 0.35642593383323629 0 0.35642593383323629 1.9647724610342152 0 0 0 0 -0.38613559309669654 3.3185401021541452 0 3.3185401021541452 5.003138889571618 0 0 0 0 -2.2092368587491364 0.72480012677887373 0 0.72480012677887373 6.8721641919838419 0 0 0 0 -3.6089100395497553 4.8994917363401846 0 4.8994917363401846 4.7589440344702325 0 0 0 0 1.0928161694810115 5.0193613032955966 0 5.0193613032955966 2.4703334128521988 0 0 0 0 1.5889018803027284 3.9726001778488467 0 3.9726001778488467 3.2528083529479375 0 0 0 0 -6.5596064772053069 3.2855107372499788 0 3.2855107372499788 4.8780295049961353 0 0 0 0 -1.3022402468814107 10.68597459630243 0 10.68597459630243 2.2835908784989272 0 0 0 0 -4.0783153080892589 2.282843030534238 0 2.282843030534238 -5.7549383276661388 0 0 0 0 -8.0037818034579686 1.2301217541777305 0 1.2301217541777305 4.6027069344382312 0 0 0 0 -30.622829766382893 -38.597170734425305 0 -38.597170734425305 138.95994087963314 0 0 0 0 -4.234508828001708 6.4686270334763094 0 6.4686270334763094 -10.244555748624549 0 0 0 0 -7.4026631514844254 0.32362936328686054 0 0.32362936328686054 0.58482260574238487 0 0 0 0 4.1320223642342171 22.039958255636229 0 22.039958255636229 48.556962512888582 0 0 0 0 -37.992926201979571 31.107307191125614 0 31.107307191125614 88.243996395605308 0 0 0 0 -8.4015902508508589 -1.7898526765144993 0 -1.7898526765144993 1.5043386016850775 0 0 0 0 -9.2009681092931714 6.0327308016640018 0 6.0327308016640018 -2.6622211217546692 0 0 0 0 -7.2148195928593282 -0.25463055273129509 0 -0.25463055273129509 0.38199873575794141 0 0 0 0 -1.9139708168049765 4.0613182983288425 0 4.0613182983288425 -12.86689597633341 0 0 0 0 -34.604454452358368 -28.4657426262645 0 -28.4657426262645 182.91387968946631 0 0 0 0 -6.5608792655384605 -1.7545851061540674 0 -1.7545851061540674 1.3573098263000247 0 0 0 0 0.81114190499556571 -5.9471020114161206 0 -5.9471020114161206 -10.677916194161526 0 0 0 0 -3.0852437963330885 4.8812159580328967 0 4.8812159580328967 7.7449060412421886 0 0 0 0 -5.702799987508115 -9.2407602398379254 0 -9.2407602398379254 12.566756851209902 0 0 0 0 -1.4210535945858283 -6.6068549372997722 0 -6.6068549372997722 13.956588350920981 0 0 0 0 6.557401075044254 2.1360142378383955 0 2.1360142378383955 -5.9342001929568369 0 0 0 0 -0.10648979506017753 0.020245302123841569 0 0.020245302123841569 0.15972241012016497 0 0 0 0 -5.7209434852238843 -0.67796122116653734 0 -0.67796122116653734 0.13946224878366076 0 0 0 0 -5.4395706987015728 -6.0212483170519135 0 -6.0212483170519135 -9.2557755985955339 0 0 0 0 -78.55524156964384 25.262278592452276 0 25.262278592452276 -3.7128525328749902 0 0 0 0 10.348117474419269 12.086587627501757 0 12.086587627501757 -32.503212118117574 0 0 0 0 -182.44815087291317 39.342843888025271 0 39.342843888025271 7.2369315216839141 0 0 0 0 -95.142015934156007 4.1849683207082649 0 4.1849683207082649 19.324179749321672 0 0 0 0 -124.61062531876905 -4.1668543538852845 0 -4.1668543538852845 18.621817449261528 0 0 0 0 -78.306307863553229 -10.13656613764266 0 -10.13656613764266 19.310385173411731 0 0 0 0 -72.935505595079917 6.7241898023972997 0 6.7241898023972997 -0.27375148965211338 0 0 0 0 -74.288648276725439 -1.9207462333767307 0 -1.9207462333767307 -3.3650678129953349 0 0 0 0 -69.962203573781153 -0.10573141656621488 0 -0.10573141656621488 -3.5942964194960005 0 0 0 0 -80.51945260524144 -1.6246051411641673 0 -1.6246051411641673 13.411402974557973 0 0 0 0 -85.438711543247337 22.971381590768317 0 22.971381590768317 -33.508495666592125 0 0 0 0 -39.102851675324928 -12.653412091354085 0 -12.653412091354085 2.2485250083098549 0 0 0 0 -0.46932405369786778 0.14219782130311504 0 0.14219782130311504 -0.053624246987870799 0 0 0 0 6.779565673063189 -2.0987305725603846 0 -2.0987305725603846 -13.3540426154442 0 0 0 0 -1.2222229553524357 0.29000499270279739 0 0.29000499270279739 0.012508970601257566 0 0 0 0 6.6807557851971069 2.5901891041513068 0 2.5901891041513068 0.23076620402420467 0 0 0 0 -2.5332832862095529 1.2709081551721795 0 1.2709081551721795 -2.0712114851083925 0 0 0 0 -0.19101824390406108 0.33096620816106714 0 0.33096620816106714 0.21433737494474103 0 0 0 0 0.78069919968766044 4.5796878834785275 0 4.5796878834785275 -0.53728558286161388 0 0 0 0 3.1618014984269394 -10.573365861966437 0 -10.573365861966437 12.445677455439686 0 0 0 0 -0.053267048631457925 0.026874663086411843 0 0.026874663086411843 0.18059524242655656 0 0 0 0 -32.238507059475523 10.988997228192233 0 10.988997228192233 -1.578167418397868 0 0 0 0 -411.40515032862731 26.85620554476192 0 26.85620554476192 83.654332237669394 0 0 0 0 -399.82252309741034 -41.145534257584032 0 -41.145534257584032 48.230439292273999 0 0 0 0 -413.24656226675143 -20.60306935683208 0 -20.60306935683208 47.504844016633143 0 0 0 0 -402.4296668999059 -36.330393039193929 0 -36.330393039193929 68.18571283188264 0 0 0 0 -187.244811287841 -58.608846697823729 0 -58.608846697823729 58.450316401720649 0 0 0 0 -389.52833213683562 78.203734004460046 0 78.203734004460046 44.044226881111626 0 0 0 0 -1.5477073789617215 -0.98838887067399028 0 -0.98838887067399028 -0.26442660156635583 0 0 0 0 -733.98354930084133 171.12300759044695 0 171.12300759044695 65.619086539772212 0 0 0 0 -673.59409392388625 182.77286567380074 0 182.77286567380074 -4.2429233160481417 0 0 0 0 -624.25161238144574 148.28364452490109 0 148.28364452490109 5.0619850934595938 0 0 0 0 -2.4105872641237536 -2.0317056560460003 0 -2.0317056560460003 -0.76700058490992362 0 0 0 0 -415.5935110285991 6.6838506536966404 0 6.6838506536966404 77.826613375937711 0 0 0 0 -475.67185136184457 147.15323401559618 0 147.15323401559618 -40.455276778062441 0 0 0 0 -500.04464767082891 92.465284080609607 0 92.465284080609607 12.652344314703678 0 0 0 0 -468.7218336692797 111.39535922724389 0 111.39535922724389 -78.990311303533403 0 0 0 0 -221.69286095259622 42.884523979817637 0 42.884523979817637 -0.057889437053007677 0 0 0 0 -1.3343294224914715 -0.41687391274217944 0 -0.41687391274217944 -0.12592199597578252 0 0 0 0 -740.64163090371949 23.488108236149838 0 23.488108236149838 0.47418601953121103 0 0 0 0 -237.21430248609249 33.080091537772063 0 33.080091537772063 0.099827093137489692 0 0 0 0 -230.4537515036418 43.516158901431815 0 43.516158901431815 15.519670888997226 0 0 0 0 -326.46001566553605 97.073899312797209 0 97.073899312797209 3.8812035567723342 0 0 0 0 -264.67498639447604 5.8122505547790801 0 5.8122505547790801 47.218515220633122 0 0 0 0 -537.32053168335551 47.241327980063112 0 47.241327980063112 47.013152328931 0 0 0 0 -2.0713848124687431 -1.5211590476457317 0 -1.5211590476457317 -0.59831199745432262 0 0 0 0 -237.03162763227556 98.955395907769528 0 98.955395907769528 -24.450304900232652 0 0 0 0 -319.75309414012372 74.024135045892905 0 74.024135045892905 -6.1939638773421173 0 0 0 0 -347.56272560614889 172.90035584011224 0 172.90035584011224 -67.196225378101843 0 0 0 0 -423.48682619058582 -16.619553729430919 0 -16.619553729430919 -129.48878143074057 0 0 0 0 -109.17587743617696 -111.16410737993345 0 -111.16410737993345 -30.700313711149164 0 0 0 0 -162.99113460812805 -33.333903099954512 0 -33.333903099954512 -1.2887072573404978 0 0 0 0 -228.2562257290665 -152.17406877796006 0 -152.17406877796006 -13.543851050386401 0 0 0 0 -25.513216927083704 16.705596782224291 0 16.705596782224291 -6.5112004004456736 0 0 0 0 -96.778628229945753 -30.754507464354589 0 -30.754507464354589 -29.155150166254522 0 0 0 0 17.602662013287045 -32.150448278175944 0 -32.150448278175944 -3.322338261745946 0 0 0 0 -0.089990013574133165 -0.002221596130898007 0 -0.002221596130898007 0.7777478900078838 0 0 0 0 -226.36973725128883 21.387163915508619 0 21.387163915508619 26.139728172725853 0 0 0 0 -219.66878302343707 -27.905854500155105 0 -27.905854500155105 69.764588014202218 0 0 0 0 -67.253341650810398 8.7177779794589068 0 8.7177779794589068 -0.035726040111796517 0 0 0 0 -156.14177148376803 -66.461924721925598 0 -66.461924721925598 48.821645301007528 0 0 0 0 -163.03229579689287 -25.994421463315515 0 -25.994421463315515 28.800880572076309 0 0 0 0 -29.35107933496829 1.1819762231674549 0 1.1819762231674549 0.0091865372234881809 0 0 0 0 -39.581460126391903 -18.101191039291781 0 -18.101191039291781 17.031819654633178 0 0 0 0 -20.475110802533891 -37.470564411887523 0 -37.470564411887523 27.56560640064048 0 0 0 0 -26.924324866185998 -21.227961456922365 0 -21.227961456922365 -7.012338730982556 0 0 0 0 -1.2717304434954713 -8.2834729473757385 0 -8.2834729473757385 -1.490919982081659 0 0 0 0 -3.1481752757026698 0.91718960256377358 0 0.91718960256377358 26.879019812994528 0 0 0 0 -1.8755553591727221 -13.375194951485105 0 -13.375194951485105 17.661953483378177 0 0 0 0 -13.61037778631362 -6.5682617137552555 0 -6.5682617137552555 49.539508138324507 0 0 0 0 -0.18701046637475827 -0.069669008614480887 0 -0.069669008614480887 0.048609774174691006 0 0 0 0 -6.6830811198415176 -10.543033302405313 0 -10.543033302405313 14.637997991759036 0 0 0 0 -10.532587758976661 3.3543828172165604 0 3.3543828172165604 10.883614979605927 0 0 0 0 -6.6134801209223042 -12.165871705412826 0 -12.165871705412826 10.796366593308022 0 0 0 0 -10.166223407157304 -7.1259075053087741 0 -7.1259075053087741 6.4821474985383247 0 0 0 0 -9.0647189078972588 -4.0177888537663566 0 -4.0177888537663566 7.65520282856275 0 0 0 0 -13.862836333134965 -1.8266974854818345 0 -1.8266974854818345 0.78739892319271121 0 0 0 0 -13.540064018178214 -7.8280892129003732 0 -7.8280892129003732 7.1424583370522328 0 0 0 0 -19.761475381994387 5.9312885078472064 0 5.9312885078472064 5.8174723467989011 0 0 0 0 -26.554567285802477 -1.8031501020249578 0 -1.8031501020249578 4.8125070905692553 0 0 0 0 -14.826671230390275 -5.981233863265075 0 -5.981233863265075 7.5369437947656195 0 0 0 0 -14.694647174972346 0.22492192607739359 0 0.22492192607739359 0.39331756113705296 0 0 0 0 3.8109983717677096 35.717300821548235 0 35.717300821548235 11.436587056251483 0 0 0 0 0.1832944537527883 0.16623215139380676 0 0.16623215139380676 2.6404809887601086 0 0 0 0 -21.873040666652741 -1.5945974399137626 0 -1.5945974399137626 10.978358385898673 0 0 0 0 -25.450025865881571 13.967300582345622 0 13.967300582345622 -0.3108906830569822 0 0 0 0 23.659050743230182 -70.801501237237744 0 -70.801501237237744 -22.797784828747922 0 0 0 0 -661.58621103261976 225.60816140410458 0 225.60816140410458 -30.472996354208803 0 0 0 0 -2.5610347555693309 -1.8326073861041721 0 -1.8326073861041721 -1.4642126301694858 0 0 0 0 -158.88538157998119 117.86142745504425 0 117.86142745504425 -85.237134613601398 0 0 0 0 -597.254851912513 202.37079764794942 0 202.37079764794942 -59.326432117749711 0 0 0 0 -186.19058791462885 -11.756483633721288 0 -11.756483633721288 -65.579303483312628 0 0 0 0 -4.9398741541942037 -5.1671150612160126 0 -5.1671150612160126 -3.6141426529449143 0 0 0 0 -1.9405246901319746 0.044868542620612573 0 0.044868542620612573 4.5475131683520083 0 0 0 0 -22.679783592837339 -24.035352297103145 0 -24.035352297103145 24.765509839575671 0 0 0 0 -255.48810825371038 40.249148867627611 0 40.249148867627611 54.999427741076929 0 0 0 0 -190.79467335083245 59.731900946830393 0 59.731900946830393 16.358497448282918 0 0 0 0 -145.99607072773506 55.468174899173732 0 55.468174899173732 11.273269207204862 0 0 0 0 -143.53658268090658 3.0761500025606665 0 3.0761500025606665 34.379234697419861 0 0 0 0 193.43650762171455 32.435335109711218 0 32.435335109711218 4.7360373274339054 0 0 0 0 -99.719133332315323 -46.474883092269806 0 -46.474883092269806 -18.960245780087007 0 0 0 0 -2.3617740150013566 -1.2846656933400453 0 -1.2846656933400453 0.30744827072226077 0 0 0 0 -9.5096194484181602 -5.2306520811981549 0 -5.2306520811981549 2.2011180699881088 0 0 0 0 -584.57962561091517 -2.5865974539035648 0 -2.5865974539035648 -6.391821615483849 0 0 0 0 -295.37713758166137 1.1780613431121196 0 1.1780613431121196 -28.141459459088523 0 0 0 0 -292.08546389800176 -12.047392271742083 0 -12.047392271742083 24.652980528470835 0 0 0 0 -353.18738268914058 49.962263935768007 0 49.962263935768007 23.125180113479502 0 0 0 0 -313.03596641139029 -9.665716473393374 0 -9.665716473393374 29.208914327961423 0 0 0 0 -3.478935723931194 0.70733366462301817 0 0.70733366462301817 -0.072124047350071718 0 0 0 0 -171.38086806128558 35.403137043994803 0 35.403137043994803 -12.314999127249337 0 0 0 0 -15.604018906216766 5.5900885986755195 0 5.5900885986755195 4.4145756128401672 0 0 0 0 -119.7425979177915 -36.793795130605275 0 -36.793795130605275 -9.3418433480513272 0 0 0 0 -183.43076646579357 23.449974192521267 0 23.449974192521267 26.532702250970289 0 0 0 0 -204.02425182993829 54.199479945400469 0 54.199479945400469 27.630171217303484 0 0 0 0 -204.70444340178074 51.148161409378389 0 51.148161409378389 23.572812310196632 0 0 0 0 -16.676369961455066 -2.4201730396559258 0 -2.4201730396559258 -1.8833848447629578 0 0 0 0 -8.5692169030163612 -5.2518495869319199 0 -5.2518495869319199 -0.42128919444869517 0 0 0 0 -16.340738695423624 -0.036459417679449935 0 -0.036459417679449935 -0.52483338507749977 0 0 0 0 -17.009310404147982 -9.2829192520038077 0 -9.2829192520038077 -1.2754368008428401 0 0 0 0 -12.59388775313807 0.89124377560690249 0 0.89124377560690249 0.3797686183109521 0 0 0 0 -15.793378374841268 -1.0097292233058717 0 -1.0097292233058717 1.1761275368496484 0 0 0 0 -16.492476969562745 -3.3729891614264229 0 -3.3729891614264229 5.0695607537301441 0 0 0 0 -16.637133722573481 -2.0981757418365916 0 -2.0981757418365916 1.2071111336371132 0 0 0 0 -27.522119406468164 -7.5207947976136094 0 -7.5207947976136094 3.1349432997892563 0 0 0 0 -12.403627057014091 0.39339940864638834 0 0.39339940864638834 -0.72740921904426159 0 0 0 0 -2.7400936944666405 -0.42287607227838464 0 -0.42287607227838464 0.06004934482757146 0 0 0 0 -19.453887766649132 -4.8536627513683186 0 -4.8536627513683186 -3.4921028073447644 0 0 0 0 -21.207988779162406 -7.3324283871198475 0 -7.3324283871198475 -2.528144989442751 0 0 0 0 -21.8598879536803 -4.1306640174816209 0 -4.1306640174816209 1.1893451634559256 0 0 0 0 -18.400973661955504 -0.92109896626087107 0 -0.92109896626087107 1.3252104120095396 0 0 0 0 -11.873651037565651 -0.71836369501038311 0 -0.71836369501038311 10.670078430284917 0 0 0 0 -9.8163814726394776 -3.8549920826969384 0 -3.8549920826969384 8.1631195905424718 0 0 0 0 -11.930425756887416 0.41788502601019673 0 0.41788502601019673 1.5154800294343929 0 0 0 0 -11.277527701939384 1.100040797745927 0 1.100040797745927 0.38046331528769617 0 0 0 0 -51.941276652250963 12.625169306452477 0 12.625169306452477 10.234291735783756 0 0 0 0 -37.373390358312463 22.417036289679864 0 22.417036289679864 -68.519908288915531 0 0 0 0 -106.99451399737882 -123.70260823002928 0 -123.70260823002928 -93.303421723215536 0 0 0 0 -72.681252109055094 -40.908312851385361 0 -40.908312851385361 -19.175672294571825 0 0 0 0 -9.3105801880273731 0.32221168040133819 0 0.32221168040133819 0.59589338741533815 0 0 0 0 -11.981336562976139 -2.7693328769759447 0 -2.7693328769759447 29.152976909680604 0 0 0 0 -10.673885973563301 -2.2822377993511509 0 -2.2822377993511509 14.896321161147867 0 0 0 0 -5.7684529494526942 0.94870503067697598 0 0.94870503067697598 29.711982943224882 0 0 0 0 -13.969006368191913 -15.617458344799083 0 -15.617458344799083 29.08528557787902 0 0 0 0 -11.30195016137759 -11.645234182673553 0 -11.645234182673553 18.036507113059969 0 0 0 0 -13.16298536510476 -15.817297976678589 0 -15.817297976678589 16.02673494944861 0 0 0 0 -12.065095738023956 -10.208310465651365 0 -10.208310465651365 20.790223408577866 0 0 0 0 -12.07793201145796 -5.4066498648029153 0 -5.4066498648029153 11.750616905824145 0 0 0 0 -11.11543815553523 -4.6184985169897317 0 -4.6184985169897317 2.7327107313573293 0 0 0 0 -11.955315302252302 -9.192722863858581 0 -9.192722863858581 9.3352797058528267 0 0 0 0 -9.8244067223586171 -11.80655410638122 0 -11.80655410638122 12.08637771510358 0 0 0 0 -6.9718824646843132 -12.172178600408259 0 -12.172178600408259 11.805812935320354 0 0 0 0 -9.2315732526330976 -11.189910955793124 0 -11.189910955793124 15.479186930026408 0 0 0 0 -9.0860622138316103 -15.018822640814559 0 -15.018822640814559 11.478115793602285 0 0 0 0 -8.5892365697509376 -9.9593958758236916 0 -9.9593958758236916 13.152697474539366 0 0 0 0 0.75311220110916111 -8.6662925612753625 0 -8.6662925612753625 13.63986942718347 0 0 0 0 -6.946989622262663 -12.404738372862056 0 -12.404738372862056 16.712559269524974 0 0 0 0 -0.35025370292355262 -0.13828462792198959 0 -0.13828462792198959 0.068770712063032591 0 0 0 0 -3.3768165225392295 -4.2703191143320893 0 -4.2703191143320893 13.966855737612383 0 0 0 0 5.1179875186862773 -5.2614457472990281 0 -5.2614457472990281 0.0016783114170811604 0 0 0 0 -39.165775230142344 -15.496651406715028 0 -15.496651406715028 14.951722379006714 0 0 0 0 -32.986180105028325 -24.068645162630997 0 -24.068645162630997 14.964841241440018 0 0 0 0 -10.70821603616605 -14.475077706487314 0 -14.475077706487314 0.0068521436348012634 0 0 0 0 2.8224314717772359 -0.73161048695436581 0 -0.73161048695436581 13.635581808866363 0 0 0 0 -21.011155511576362 -5.4948490136587509 0 -5.4948490136587509 41.631682796715772 0 0 0 0 -0.16203163318071745 -0.062957248475433936 0 -0.062957248475433936 0.034583818894386567 0 0 0 0 -25.38377089140522 -29.798916882001951 0 -29.798916882001951 -13.205345926727881 0 0 0 0 -22.864222806144198 -4.0915817649738919 0 -4.0915817649738919 7.2832364700169592 0 0 0 0 -8.4994988971830026 -12.3824932308165 0 -12.3824932308165 0.44357585898223562 0 0 0 0 -22.042496970405409 -19.67268989376656 0 -19.67268989376656 14.593815407842072 0 0 0 0 -12.634681878795163 -5.2440529048150708 0 -5.2440529048150708 9.6093971862525791 0 0 0 0 -11.449738525154316 -9.5782829097495608 0 -9.5782829097495608 17.09928459328215 0 0 0 0 -6.1052390680470126 -4.4973795554587355 0 -4.4973795554587355 4.5624182107473912 0 0 0 0 -9.5412913872969511 -0.6280477019652011 0 -0.6280477019652011 4.6090494961827346 0 0 0 0 -10.271034571884229 -0.42494168835774104 0 -0.42494168835774104 5.1693583295228223 0 0 0 0 -18.052536161038006 -7.1312665416303105 0 -7.1312665416303105 9.0929615502506493 0 0 0 0 -39.711060494620142 -15.046388815709026 0 -15.046388815709026 8.1085496712581744 0 0 0 0 -20.669392721149052 -0.82912849941601507 0 -0.82912849941601507 5.1664117669403344 0 0 0 0 -17.258745883233132 -4.5304144409774807 0 -4.5304144409774807 4.1801239549808855 0 0 0 0 -7.0149659230446559 6.6356876360513866 0 6.6356876360513866 7.024479980874915 0 0 0 0 -4.4464035657078966 -1.3051388392677552 0 -1.3051388392677552 2.7368361752682944 0 0 0 0 -13.948673591996339 1.9902043631791528 0 1.9902043631791528 7.5858285305179969 0 0 0 0 -23.11979896216144 7.9176873235683463 0 7.9176873235683463 15.315316645045669 0 0 0 0 -0.61366979182457726 -1.984962776416014 0 -1.984962776416014 -1.1909340554332501 0 0 0 0 -0.24009526990951002 -0.023195113915815746 0 -0.023195113915815746 0.011965252743103028 0 0 0 0 5.6307206547007809 10.137001806607232 0 10.137001806607232 6.9849789940267897 0 0 0 0 -57.468839240667876 -8.3484491865425259 0 -8.3484491865425259 -0.018622269285826748 0 0 0 0 -59.372184049134376 -15.925315567201487 0 -15.925315567201487 15.201363668002891 0 0 0 0 -40.500128282427795 -24.384428627232271 0 -24.384428627232271 -8.4480708280992296 0 0 0 0 -38.527424386469647 -9.3085527117525189 0 -9.3085527117525189 15.419632743798417 0 0 0 0 -45.401639674120815 0.066398854615670189 0 0.066398854615670189 15.245806570999989 0 0 0 0 -24.695735980469181 7.0040047137841341 0 7.0040047137841341 15.785494844643637 0 0 0 0 14.823891541003832 4.7212380720275542 0 4.7212380720275542 7.3457055848761073 0 0 0 0 -7.248353899398353 -5.3434716931315052 0 -5.3434716931315052 32.223062924032071 0 0 0 0 1.8685372327117875 0.39763596985855482 0 0.39763596985855482 0.006227186807018165 0 0 0 0 -0.51060372175320623 -0.15105501752730621 0 -0.15105501752730621 -0.0034577758484604583 0 0 0 0 12.746390391614113 -7.1008125029415066 0 -7.1008125029415066 3.0459038793969855 0 0 0 0 3.20227636450727 -11.27241319807726 0 -11.27241319807726 19.264802337063855 0 0 0 0 11.503877905391164 -7.0942109787686078 0 -7.0942109787686078 10.441781119262174 0 0 0 0 0.9448491868115525 -4.1948811379337343 0 -4.1948811379337343 -1.3059550091890344 0 0 0 0 -4.0871825951217033 -3.0803210604464368 0 -3.0803210604464368 18.164399310382567 0 0 0 0 2.7254831496211409 2.3574072969110205 0 2.3574072969110205 4.5943885136435583 0 0 0 0 -5.8345425398692896 0.029627992639959189 0 0.029627992639959189 1.6955756800389565 0 0 0 0 -2.014302789229987 -7.0334530350949507 0 -7.0334530350949507 -4.0097824257640298 0 0 0 0 -9.3500752390900743 -8.8147454917289281 0 -8.8147454917289281 0.44628451424331672 0 0 0 0 -2.5472987821121933 -15.771834882468227 0 -15.771834882468227 -8.6674796865084431 0 0 0 0 0.84744168700490263 7.8323856587188914 0 7.8323856587188914 19.228383701322251 0 0 0 0 10.960352221274661 -9.1128454507720704 0 -9.1128454507720704 -14.300080654160311 0 0 0 0 -24.242877130051056 -29.366635812107774 0 -29.366635812107774 -11.926840246166076 0 0 0 0 -26.681691802357818 -27.909511933657718 0 -27.909511933657718 -7.7459963003977776 0 0 0 0 -29.347470240494658 -24.495599415635077 0 -24.495599415635077 -3.5051200959877775 0 0 0 0 -16.714092882490149 -9.8332598460647205 0 -9.8332598460647205 2.2717656839683968 0 0 0 0 -11.716692176214565 -3.5434645306448402 0 -3.5434645306448402 0.70193387551771735 0 0 0 0 -10.02332381692031 -10.369647531835824 0 -10.369647531835824 -3.6413935323505022 0 0 0 0 -30.116350590849834 -20.143777556350415 0 -20.143777556350415 1.0398192956616885 0 0 0 0 -21.143622436035002 -2.0529874632169189 0 -2.0529874632169189 21.957830776764752 0 0 0 0 -42.603653308313369 -16.809378931316601 0 -16.809378931316601 16.117247221148745 0 0 0 0 -62.123602014110475 -42.640511617303837 0 -42.640511617303837 -0.58979235311713296 0 0 0 0 -115.75996461171235 -60.402883704646719 0 -60.402883704646719 17.857051010633967 0 0 0 0 -56.524354160119401 -92.559377230925946 0 -92.559377230925946 -83.142770668875812 0 0 0 0 -43.347207082615569 -183.63790404117572 0 -183.63790404117572 -281.16202787917786 0 0 0 0 -2.0302403136383376 -0.30236038746305738 0 -0.30236038746305738 0.14049618325379321 0 0 0 0 -50.552643262548372 17.836230861233297 0 17.836230861233297 105.06421961573119 0 0 0 0 2.319910792648443 -0.7135344870527689 0 -0.7135344870527689 22.017743632491907 0 0 0 0 -4.0912723055207607 -5.024635107113653 0 -5.024635107113653 18.709729375443736 0 0 0 0 -14.151819956417967 2.5550806259500263 0 2.5550806259500263 66.121588926996196 0 0 0 0 -4.1528901838319143 -15.094141543350673 0 -15.094141543350673 41.305344344224068 0 0 0 0 -48.894145320529788 -101.34068925227177 0 -101.34068925227177 -142.36196788178239 0 0 0 0 -63.950412010690343 -86.275694491182904 0 -86.275694491182904 -133.00237404495545 0 0 0 0 -5.9406259529181753 -0.26911434929606237 0 -0.26911434929606237 0.53078220899303419 0 0 0 0 7.8814171009435086 -62.611207696197965 0 -62.611207696197965 -144.35214552767385 0 0 0 0 -13.409947007808114 -60.083107453978343 0 -60.083107453978343 -144.37571708342242 0 0 0 0 -105.74036335868368 -44.206161954128291 0 -44.206161954128291 -16.794480328266303 0 0 0 0 -60.885277042321832 -92.485151969468632 0 -92.485151969468632 -124.38527303908276 0 0 0 0 28.517733764019795 -4.148034641549458 0 -4.148034641549458 -23.808162416931353 0 0 0 0 -0.67847679011325823 -0.60823603375191126 0 -0.60823603375191126 -0.076007374508179598 0 0 0 0 -20.462660856508592 11.343643321525434 0 11.343643321525434 13.265814799627151 0 0 0 0 -2.9446649462878369 -0.74212546948042157 0 -0.74212546948042157 0.18825193399141349 0 0 0 0 -1.5591559992238544 -0.58726100157411631 0 -0.58726100157411631 0.035373049677680152 0 0 0 0 12.913238742046815 -4.6339573137995131 0 -4.6339573137995131 -6.7622801150489877 0 0 0 0 -91.030891342712493 -41.243543374787293 0 -41.243543374787293 53.957278351558735 0 0 0 0 -70.985871094007962 16.957995907755731 0 16.957995907755731 -44.875245731714983 0 0 0 0 -142.303876317088 -94.252938280624505 0 -94.252938280624505 -66.066123935942187 0 0 0 0 15.183693555422906 -8.6673982784964601 0 -8.6673982784964601 -41.26623042876696 0 0 0 0 46.2849048850494 -59.703137380980948 0 -59.703137380980948 -146.94247835439484 0 0 0 0 -64.846727842786095 -45.328674848160858 0 -45.328674848160858 -147.53357956533216 0 0 0 0 17.286785351692743 -17.142132986235879 0 -17.142132986235879 -47.680117849630363 0 0 0 0 10.051191222681155 -7.8369444644136763 0 -7.8369444644136763 -20.617538710190559 0 0 0 0 11.183083512894882 -36.578542118615772 0 -36.578542118615772 -106.55528335853901 0 0 0 0 10.65789051124375 -35.508380670637678 0 -35.508380670637678 -59.464078215343704 0 0 0 0 14.687752853212601 4.8563752462261291 0 4.8563752462261291 -77.082460894507136 0 0 0 0 14.827308945785262 6.8734534130668692 0 6.8734534130668692 -106.69785126323791 0 0 0 0 14.992170765026458 -2.2880821057097265 0 -2.2880821057097265 -56.520397329024178 0 0 0 0 1.0577460776657972 -21.518667880186698 0 -21.518667880186698 -36.825583199249408 0 0 0 0 -4.342909883498578 -9.721997179102317 0 -9.721997179102317 -49.719004505113816 0 0 0 0 -2.6310538010015208 -0.94782217243727462 0 -0.94782217243727462 0.15790958184944714 0 0 0 0 4.8002692148872939 -24.218908236410513 0 -24.218908236410513 -42.995691904691455 0 0 0 0 16.412340898629736 10.429406950825587 0 10.429406950825587 -81.281927073412731 0 0 0 0 6.909104141910575 -23.581649132229273 0 -23.581649132229273 -45.031048689882994 0 0 0 0 -2.2175494455844245 -1.4281622865799259 0 -1.4281622865799259 -0.50388653095743785 0 0 0 0 6.1876273090783798 -18.406667818408028 0 -18.406667818408028 23.244671901900865 0 0 0 0 6.7993014286157631 -7.2290798068203426 0 -7.2290798068203426 0.021186246729058666 0 0 0 0 15.586923597456916 -16.034280830325695 0 -16.034280830325695 -0.85850586309403809 0 0 0 0 2.1381869604847452 -8.4422086341399947 0 -8.4422086341399947 3.991699431100006 0 0 0 0 2.3310982880793745 -7.8717039159893254 0 -7.8717039159893254 5.6539927472075533 0 0 0 0 -3.5052970493324125 -1.6959090032602773 0 -1.6959090032602773 -0.48893619397846777 0 0 0 0 -17.364380515187804 -49.065160891906686 0 -49.065160891906686 37.130212188716598 0 0 0 0 -2.1790557186340038 -4.1912978732411759 0 -4.1912978732411759 2.6563102899259476 0 0 0 0 4.8720450030268694 -7.9621502982581234 0 -7.9621502982581234 1.1611049053864591 0 0 0 0 0.16693205965111702 -6.4923982276655385 0 -6.4923982276655385 2.3702885947113828 0 0 0 0 4.8232341928674032 -8.102994629209288 0 -8.102994629209288 1.0976958861002117 0 0 0 0 4.7106329191465193 -8.5229686499827437 0 -8.5229686499827437 5.9970216984525564 0 0 0 0 8.777555989636312 -7.6809748800980344 0 -7.6809748800980344 0.98009902128704596 0 0 0 0 4.9403909110951645 -8.7369778418903365 0 -8.7369778418903365 0.73147927273770108 0 0 0 0 7.4635726141714258 -6.6825266710204119 0 -6.6825266710204119 7.1558419483695275 0 0 0 0 9.459185630266802 -6.2545700363439209 0 -6.2545700363439209 -15.62315125151332 0 0 0 0 7.9527945578392973 -15.907293868677243 0 -15.907293868677243 10.675402131146569 0 0 0 0 0.050399428930397505 -0.1771210523701825 0 -0.1771210523701825 -0.060720774924808762 0 0 0 0 2.0113805483279066 -12.909236300811983 0 -12.909236300811983 25.920701909322815 0 0 0 0 3.0767974955806494 -9.0815523829421636 0 -9.0815523829421636 8.5822685795770326 0 0 0 0 -0.017416222126854564 -0.28893251058461189 0 -0.28893251058461189 -0.097280607882171688 0 0 0 0 7.9861212856658312 -3.2949123246087595 0 -3.2949123246087595 -6.9953491578206695 0 0 0 0 1.2927303638261947 -4.4794523397365822 0 -4.4794523397365822 15.807611191197054 0 0 0 0 -7.8858779412921649 -5.5979453001032482 0 -5.5979453001032482 10.182098845176824 0 0 0 0 4.6508871455639564 -5.2992715940152593 0 -5.2992715940152593 11.544229919850409 0 0 0 0 4.1247746466688113 -4.0914262863367981 0 -4.0914262863367981 16.078600808469304 0 0 0 0 6.8371852946856961 -5.427224113133974 0 -5.427224113133974 5.0101777523447311 0 0 0 0 6.9512267899751805 -10.08597519236303 0 -10.08597519236303 10.985469946026512 0 0 0 0 0.74526937598420773 -1.2075858447592509 0 -1.2075858447592509 14.478474171366486 0 0 0 0 3.4269096164316579 -3.3843284836995622 0 -3.3843284836995622 10.357486571318191 0 0 0 0 6.1828761739307083 -6.5891062422309403 0 -6.5891062422309403 7.6993709840235169 0 0 0 0 3.2970778860681094 -4.472964716125869 0 -4.472964716125869 11.019065383507268 0 0 0 0 4.0164584212907357 -1.3554459229419535 0 -1.3554459229419535 5.9810361748584455 0 0 0 0 3.6939468647478861 -4.3090207256913118 0 -4.3090207256913118 5.2577703973037728 0 0 0 0 5.743654502541176 -3.0846405477017669 0 -3.0846405477017669 1.7351204918196004 0 0 0 0 7.1860722134460957 -6.8379404584593431 0 -6.8379404584593431 0.23617590040388592 0 0 0 0 8.461211495245152 -8.0863803294745082 0 -8.0863803294745082 2.9552524486570206 0 0 0 0 8.5746233449244755 -6.0463761557386491 0 -6.0463761557386491 -1.9015895106906555 0 0 0 0 10.165035538891061 -9.9199424775617615 0 -9.9199424775617615 -2.251810181474923 0 0 0 0 8.5544760771390429 -10.922430510741464 0 -10.922430510741464 2.7578871527279247 0 0 0 0 2.576029486808693 -13.042473966272592 0 -13.042473966272592 -7.5208763649876698 0 0 0 0 5.2201578584126764 -3.3327153863798458 0 -3.3327153863798458 -5.3878573845204727 0 0 0 0 -12.977739526899313 -24.213873538691963 0 -24.213873538691963 -20.415149021499673 0 0 0 0 -13.457257094540182 -15.082722158052363 0 -15.082722158052363 -10.216336721635273 0 0 0 0 -10.646544394205193 -26.105537965408541 0 -26.105537965408541 -27.00378112079548 0 0 0 0 0.92175145108194556 -6.1655536995042723 0 -6.1655536995042723 -16.359269507485507 0 0 0 0 -4.7363998930250091 -4.3308536620444897 0 -4.3308536620444897 -2.5826587837876787 0 0 0 0 -1.0752957389413496 -4.6185843400729709 0 -4.6185843400729709 -2.7656945040886569 0 0 0 0 -1.1626649030040426 -4.7190639601557223 0 -4.7190639601557223 -0.78349741237292392 0 0 0 0 -1.8436825331300497 -8.1155860168490506 0 -8.1155860168490506 -2.0530961082501449 0 0 0 0 2.3081387288439146 -5.9643925765914219 0 -5.9643925765914219 -3.3973778718320489 0 0 0 0 -2.0459702183361514 -0.43291434480897806 0 -0.43291434480897806 5.2059195364541324 0 0 0 0 3.7361594453832367 -1.8220392765499582 0 -1.8220392765499582 -0.68914168237840379 0 0 0 0 2.2806424084901664 0.38698741442473761 0 0.38698741442473761 11.269327169522739 0 0 0 0 4.0297651151981881 -4.2870017751123584 0 -4.2870017751123584 6.5864533829843595 0 0 0 0 1.8088977066217922 -0.53326958125697388 0 -0.53326958125697388 0.64841432337823335 0 0 0 0 -4.5822326938941842 3.9725986569586098 0 3.9725986569586098 11.214351749392108 0 0 0 0 -1.0901919206002901 -0.40784142752600872 0 -0.40784142752600872 -0.10326710987237969 0 0 0 0 -5.6073803490889986 -4.2050528575471446 0 -4.2050528575471446 17.187328644953311 0 0 0 0 -0.0974105297763046 -0.45622668352094609 0 -0.45622668352094609 -0.20148241170053932 0 0 0 0 -0.4045510729556554 -0.66652239655928724 0 -0.66652239655928724 9.8581996792659652 0 0 0 0 -0.26586256241353112 -5.288244460858408 0 -5.288244460858408 11.022720524579071 0 0 0 0 3.3225294377771206 -2.4527615583817521 0 -2.4527615583817521 9.8360087105852472 0 0 0 0 -1.2271498432605199 -0.64272994842548758 0 -0.64272994842548758 -0.29536920184888021 0 0 0 0 -4.0139796373332501 -2.6025312046164117 0 -2.6025312046164117 2.0407309144152919 0 0 0 0 -4.1761746134870918 -7.672856694347729 0 -7.672856694347729 23.224391682200462 0 0 0 0 3.7227609817039138 -6.2061255709414116 0 -6.2061255709414116 13.234520159802571 0 0 0 0 -13.708829780853193 3.0204482958641279 0 3.0204482958641279 8.2126555926675735 0 0 0 0 -37.576329555444318 7.6454661208456116 0 7.6454661208456116 8.0614497241834044 0 0 0 0 -14.388616827288388 4.0230388825632986 0 4.0230388825632986 7.967499728613916 0 0 0 0 -10.065251015970716 7.6074286994053182 0 7.6074286994053182 5.0079068077704392 0 0 0 0 0.51906318458350142 -1.4952208086757537 0 -1.4952208086757537 7.4513005602996891 0 0 0 0 -3.2769187569028873 4.6693090197438778 0 4.6693090197438778 1.0234493794374657 0 0 0 0 3.1796386515597987 -2.2238197107908064 0 -2.2238197107908064 2.3740803469477711 0 0 0 0 -0.58449475482370872 -3.3326591918774486 0 -3.3326591918774486 9.2631030479758465 0 0 0 0 4.1837364232051186 0.34722813253969775 0 0.34722813253969775 -8.4005629880120978 0 0 0 0 -1.3424896282813279 -8.1719030169317932 0 -8.1719030169317932 28.73834529116732 0 0 0 0 -0.92723237464376496 -0.78023480182269811 0 -0.78023480182269811 -0.35886361252320598 0 0 0 0 -45.226683784014313 12.427679929465967 0 12.427679929465967 -2.4753582832726977 0 0 0 0 -5.1895230418776919 9.149340264773798 0 9.149340264773798 -6.2072760586961806 0 0 0 0 -13.59571606776899 -29.030992793852889 0 -29.030992793852889 -79.186429505462698 0 0 0 0 -0.4173842508437815 -0.35883363662150192 0 -0.35883363662150192 -0.2713900687298258 0 0 0 0 -42.408314380296815 -64.38766010884062 0 -64.38766010884062 -66.578010711175537 0 0 0 0 11.643045247934424 6.2437234556612964 0 6.2437234556612964 -30.3518398336019 0 0 0 0 -1.2140829243471671 -27.703563831662365 0 -27.703563831662365 -54.752492172452889 0 0 0 0 6.6346239209560736 -0.36493922176842375 0 -0.36493922176842375 -8.362584832399758 0 0 0 0 0.74851243364264519 -14.744242267945459 0 -14.744242267945459 -30.530638404206201 0 0 0 0 -30.6684560797421 -56.292553942694809 0 -56.292553942694809 -47.852746387402611 0 0 0 0 -14.210517348605208 -35.22560766524456 0 -35.22560766524456 -43.544003400297974 0 0 0 0 -20.77142086488675 -28.60428718581656 0 -28.60428718581656 -23.372453114536803 0 0 0 0 -21.892999835032242 -35.102056105152542 0 -35.102056105152542 -18.462842104417284 0 0 0 0 -34.016405236763603 -42.018640267405942 0 -42.018640267405942 -42.044971540349884 0 0 0 0 -48.059504512975764 -62.284294065943769 0 -62.284294065943769 -41.629317452842635 0 0 0 0 -47.114132154983963 -64.685542827958145 0 -64.685542827958145 -35.561804642680286 0 0 0 0 -38.174114041792564 -67.275663964501774 0 -67.275663964501774 -44.178556565867204 0 0 0 0 -53.521363313822803 -78.068694175803969 0 -78.068694175803969 -28.629872636458238 0 0 0 0 -39.969143386158976 -71.719464139479882 0 -71.719464139479882 -54.970501118411853 0 0 0 0 -36.892830077262261 -53.377160028776352 0 -53.377160028776352 -24.708985288524872 0 0 0 0 -39.226788150677748 -50.014104732809066 0 -50.014104732809066 -29.246579718654754 0 0 0 0 -31.634664416922533 -23.043379523255581 0 -23.043379523255581 -0.30313549995530487 0 0 0 0 -3.8903653807301453 -7.3255873145704333 0 -7.3255873145704333 -1.9066959318172323 0 0 0 0 -22.928612495565176 -23.261502585062225 0 -23.261502585062225 -3.7929951782746913 0 0 0 0 -51.312725177136599 -24.970737264366434 0 -24.970737264366434 62.337811741048945 0 0 0 0 3.11340614661367 0.23770732485389967 0 0.23770732485389967 14.381343407185025 0 0 0 0 -81.225733730010688 -65.527021076218119 0 -65.527021076218119 12.489527922154601 0 0 0 0 -23.113661726623377 -22.773775940557965 0 -22.773775940557965 -4.9756660952813174 0 0 0 0 -56.413177081074537 -90.808685304386344 0 -90.808685304386344 -61.949625136865961 0 0 0 0 -118.58071727148229 -78.380586419607951 0 -78.380586419607951 -78.638794095199131 0 0 0 0 -0.73335121425757421 -0.63203194672829932 0 -0.63203194672829932 -0.29000772922582635 0 0 0 0 5.0526929499410471 -38.731212968816848 0 -38.731212968816848 -168.09190291638745 0 0 0 0 -17.498394915439349 -124.17038935414945 0 -124.17038935414945 -239.97537187590834 0 0 0 0 -86.631773554074243 -10.522164291762525 0 -10.522164291762525 62.083547998408001 0 0 0 0 -1.2022927458000296 -0.68596362386558996 0 -0.68596362386558996 0.023556996549943934 0 0 0 0 -119.59067499666344 -89.123905464564601 0 -89.123905464564601 -23.081977701870827 0 0 0 0 -10.639778376467802 -38.147851695039435 0 -38.147851695039435 -134.93112758764812 0 0 0 0 -21.723962088548433 -42.182292993240722 0 -42.182292993240722 -50.032917972012726 0 0 0 0 -3.1854674456335488 -18.636916502633284 0 -18.636916502633284 -48.488305048445753 0 0 0 0 -38.802929643598873 -64.214284841314225 0 -64.214284841314225 -44.324541251235914 0 0 0 0 -37.2736782035754 -69.165644325595309 0 -69.165644325595309 -81.856291967536805 0 0 0 0 -38.010761590863694 -61.041135223505584 0 -61.041135223505584 -52.532326123203958 0 0 0 0 -35.26169665710222 -39.353499239224476 0 -39.353499239224476 -13.468387304054119 0 0 0 0 -50.690185660434054 4.3663435235677319 0 4.3663435235677319 14.404762773437028 0 0 0 0 -36.594716776637142 -65.437893787682057 0 -65.437893787682057 -47.370050604133823 0 0 0 0 -37.095623611668998 -33.255469786402941 0 -33.255469786402941 -17.90667890442046 0 0 0 0 -31.606859697923937 -4.0133016551883003 0 -4.0133016551883003 -0.81755924524063062 0 0 0 0 -1.876827010137383 0.51912497675562541 0 0.51912497675562541 0.26756859118964216 0 0 0 0 0.39938527393678669 -21.22476388116057 0 -21.22476388116057 -4.480518804946314 0 0 0 0 -25.485847563393691 3.1107365158460283 0 3.1107365158460283 11.625050753057508 0 0 0 0 -18.415789547460008 13.02215509553583 0 13.02215509553583 25.336872179660475 0 0 0 0 -1.2985286228477264 -2.0606858490862408 0 -2.0606858490862408 0.32896649537920986 0 0 0 0 -179.93290518977199 -29.601025929006532 0 -29.601025929006532 10.205272106975087 0 0 0 0 -22.57146961223043 -2.4415329226507367 0 -2.4415329226507367 13.543554830420391 0 0 0 0 -394.33795102893964 -64.532733617085228 0 -64.532733617085228 9.3117510112230235 0 0 0 0 -371.23752342117973 -9.7357706858398529 0 -9.7357706858398529 16.296448380555631 0 0 0 0 -8.3912305578651285 19.515607000827949 0 19.515607000827949 -2.3155880199247036 0 0 0 0 -0.37289541778610591 0.5843226488222264 0 0.5843226488222264 -0.035237546120402308 0 0 0 0 13.684034939555204 10.957331535857669 0 10.957331535857669 -7.2819172055123573 0 0 0 0 -214.80112386008113 7.1906652448625579 0 7.1906652448625579 7.2206652085429255 0 0 0 0 -126.29520268015403 22.681095126762628 0 22.681095126762628 5.2075820101200918 0 0 0 0 -244.0851378448765 -54.589073659133533 0 -54.589073659133533 -5.9525541672228144 0 0 0 0 -261.72348936325852 -46.070782990186757 0 -46.070782990186757 2.2219826440410202 0 0 0 0 -109.43494042931979 -43.931931630189993 0 -43.931931630189993 -40.083443059826209 0 0 0 0 -137.61898320813907 -32.103474125029251 0 -32.103474125029251 -41.54128495201234 0 0 0 0 -23.399707250973734 -42.997064822481306 0 -42.997064822481306 -39.676759131906437 0 0 0 0 -93.758447614593933 -36.039369206490868 0 -36.039369206490868 -39.960331018375811 0 0 0 0 -39.131289565406405 -54.510621212770467 0 -54.510621212770467 -58.267999035162219 0 0 0 0 -87.479024944663252 -56.863416165184297 0 -56.863416165184297 -45.794184966829803 0 0 0 0 -76.881750137252311 -40.202053249525591 0 -40.202053249525591 -52.844847350971307 0 0 0 0 -79.53422481798907 -47.207357004766621 0 -47.207357004766621 -71.129456327255156 0 0 0 0 -89.830700780330517 -63.264684108482747 0 -63.264684108482747 -62.800119726521274 0 0 0 0 -116.82662058287588 -59.092984945765792 0 -59.092984945765792 -73.656589770365244 0 0 0 0 -74.96494908146542 -20.984863892075907 0 -20.984863892075907 2.75471607965099 0 0 0 0 -21.73344194572428 -73.326285870927919 0 -73.326285870927919 -79.527171284941218 0 0 0 0 -15.313600624025639 -16.933265483311203 0 -16.933265483311203 12.848013287963795 0 0 0 0 56.028694024450488 -14.099365988381848 0 -14.099365988381848 -37.132787777944941 0 0 0 0 -23.853793246904388 -11.158490194016821 0 -11.158490194016821 -4.3382658458082517 0 0 0 0 -18.266412783792475 -2.5147261270205092 0 -2.5147261270205092 6.1977200370751007 0 0 0 0 -0.096931643185011129 -0.15260445719327365 0 -0.15260445719327365 -0.27436349676572008 0 0 0 0 -186.10957632784539 -105.83149709358428 0 -105.83149709358428 -57.064339793185965 0 0 0 0 -179.01596505989164 -97.152833739322745 0 -97.152833739322745 -71.221050214520346 0 0 0 0 -113.34716269333239 -84.730286565747321 0 -84.730286565747321 -72.598031763898646 0 0 0 0 -206.40241378743394 -75.46616345316454 0 -75.46616345316454 -38.204858546806385 0 0 0 0 -174.19449410762081 -67.609859103061837 0 -67.609859103061837 -36.28877813792451 0 0 0 0 -499.77785398837909 -193.58557059154364 0 -193.58557059154364 16.83765733961916 0 0 0 0 -306.39747175494722 -94.58943734521921 0 -94.58943734521921 0.14241839467416639 0 0 0 0 -319.38324161062883 -124.69844437707977 0 -124.69844437707977 17.027072562262646 0 0 0 0 -298.39730658683948 -133.32774634993234 0 -133.32774634993234 11.019851061478121 0 0 0 0 -214.80546955302998 -106.62457635970871 0 -106.62457635970871 -22.0672378108858 0 0 0 0 -284.21348057757223 -149.45255412805344 0 -149.45255412805344 -48.003479572375809 0 0 0 0 -177.16459174115786 -124.11827245605096 0 -124.11827245605096 -76.799462123574841 0 0 0 0 -237.03241409772727 -196.88717993992054 0 -196.88717993992054 -70.178834834388155 0 0 0 0 -218.84224025124877 -117.21160365349475 0 -117.21160365349475 -51.063357813810654 0 0 0 0 -388.64217823095441 -190.49184278651336 0 -190.49184278651336 47.838641030034601 0 0 0 0 -353.31228396157303 -149.01973080470663 0 -149.01973080470663 -40.893272383781266 0 0 0 0 -1.1174673337154424 -0.29350006845983678 0 -0.29350006845983678 0.39975451736289996 0 0 0 0 -469.28595231965937 -110.96451540012556 0 -110.96451540012556 110.1212774253472 0 0 0 0 -0.81194664122960347 -0.25341819920571673 0 -0.25341819920571673 0.34829840500213349 0 0 0 0 -399.07177683658301 -235.54360805887495 0 -235.54360805887495 -67.496857809329697 0 0 0 0 -414.77215989311708 -85.637591978676738 0 -85.637591978676738 63.58822373005227 0 0 0 0 -499.83260331017345 -32.796695852727581 0 -32.796695852727581 87.953067335961777 0 0 0 0 -339.66845486348848 -75.983888916724425 0 -75.983888916724425 28.022772275894638 0 0 0 0 -391.97195285555335 -120.24948570736106 0 -120.24948570736106 34.228428209590746 0 0 0 0 -277.65993830763546 -88.947347864368325 0 -88.947347864368325 -0.066638357828566086 0 0 0 0 -314.6649787821998 -17.146742404476761 0 -17.146742404476761 -5.8582973416626771 0 0 0 0 -350.86277471206904 -67.169878485215705 0 -67.169878485215705 32.848883763277115 0 0 0 0 -396.65633464463826 -42.194088424182105 0 -42.194088424182105 35.123093488557217 0 0 0 0 -378.35357782476876 -18.27312556781537 0 -18.27312556781537 46.338368157906245 0 0 0 0 -385.30110936960932 -35.727137707522566 0 -35.727137707522566 38.793607681090393 0 0 0 0 -408.26213421052125 -70.166084046868605 0 -70.166084046868605 69.207301723797272 0 0 0 0 -172.35041887040734 -40.179955563899483 0 -40.179955563899483 25.950617891036174 0 0 0 0 -320.6060944512783 -8.4583074304939956 0 -8.4583074304939956 60.669582888613903 0 0 0 0 -321.2977193261861 -1.9398517570595935 0 -1.9398517570595935 101.3903754863199 0 0 0 0 -500.13247645251977 -68.346606995931552 0 -68.346606995931552 113.19545832490761 0 0 0 0 -265.85678952856097 -109.86195906812156 0 -109.86195906812156 64.868441142548775 0 0 0 0 -240.47954017888514 -38.021468197908909 0 -38.021468197908909 41.097193416970427 0 0 0 0 -122.88323774429682 -97.312649822780173 0 -97.312649822780173 -38.08349460621362 0 0 0 0 -0.23706573521918806 -0.10570162253585114 0 -0.10570162253585114 0.40969523346913672 0 0 0 0 -9.5545956627220221 16.074696113465816 0 16.074696113465816 -11.612941235895594 0 0 0 0 -13.183500010502939 -12.794621857087829 0 -12.794621857087829 -20.504612646444716 0 0 0 0 -0.30367378719799909 -1.3449686769361744 0 -1.3449686769361744 -2.8018594879861283 0 0 0 0 -3.2138438544893688 -7.4894582286972664 0 -7.4894582286972664 -5.5325453504040638 0 0 0 0 -3.2167903673798719 -7.3736943677856743 0 -7.3736943677856743 -2.2573722935366192 0 0 0 0 1.4548554165367023 -1.7745727482484313 0 -1.7745727482484313 -3.3145871127894679 0 0 0 0 2.6239652031126752 -2.9216843227511617 0 -2.9216843227511617 -3.2084289892650304 0 0 0 0 0.18689517151960899 -1.4505094731368757 0 -1.4505094731368757 -1.6076731136406579 0 0 0 0 0.05155829141040158 -1.2593393015357606 0 -1.2593393015357606 -1.5882597051930958 0 0 0 0 -0.5901380537713079 -0.98445852524077715 0 -0.98445852524077715 0.38388405707957651 0 0 0 0 24.385008500621097 4.1269748939640394 0 4.1269748939640394 -19.777750478128212 0 0 0 0 10.685801329405876 16.676641921843157 0 16.676641921843157 19.229647233526293 0 0 0 0 -163.61459092920222 -6.5609898825211062 0 -6.5609898825211062 26.814857544158713 0 0 0 0 -65.803728999724626 -42.468169350327457 0 -42.468169350327457 -19.909963716330978 0 0 0 0 -57.041719468164047 1.5332063437852952 0 1.5332063437852952 20.494122626861923 0 0 0 0 -67.505094279374134 -12.093130102389523 0 -12.093130102389523 13.5879934108101 0 0 0 0 -6.5810254768528011 -21.162558004187517 0 -21.162558004187517 -5.5700289115756618 0 0 0 0 -73.143922923944046 2.5191392521492872 0 2.5191392521492872 -2.6304798039149659 0 0 0 0 -124.3334386927263 -6.3042445497113988 0 -6.3042445497113988 7.9952383593626948 0 0 0 0 -41.036674518331893 25.365015569286271 0 25.365015569286271 -21.166718455006617 0 0 0 0 -10.114833392502987 -22.438602237303567 0 -22.438602237303567 -2.1207363143617997 0 0 0 0 -3.0536502609397758 10.02836754292278 0 10.02836754292278 -6.7591732372964088 0 0 0 0 -27.234205833948408 -7.923833818169447 0 -7.923833818169447 5.7318014654462672 0 0 0 0 0.13282934185126738 -1.5210181309336086 0 -1.5210181309336086 -1.3351698084778167 0 0 0 0 -0.21623247617128527 -2.637118512384685 0 -2.637118512384685 -0.70893348967604197 0 0 0 0 0.17129138934084409 -0.37653173269822626 0 -0.37653173269822626 -0.2051225867934868 0 0 0 0 -1.3992006873947709 -1.734284116586867 0 -1.734284116586867 -1.2662322006794078 0 0 0 0 -9.102773211812746 -0.92453861221321176 0 -0.92453861221321176 0.7695560990642889 0 0 0 0 -0.25174642313191953 -2.2754991873236392 0 -2.2754991873236392 0.96566368545569503 0 0 0 0 5.4713330514277914 -2.943857177272946 0 -2.943857177272946 -2.5162030633998071 0 0 0 0 -22.798131198509509 -5.1091471619382673 0 -5.1091471619382673 -3.2431235439964894 0 0 0 0 -0.91911662878066736 -0.49472533118585549 0 -0.49472533118585549 -0.37551950103855103 0 0 0 0 -93.897152809292947 73.457101844467346 0 73.457101844467346 -12.55508379466977 0 0 0 0 4.2118656461934734 4.2795701944530009 0 4.2795701944530009 -23.386368762468685 0 0 0 0 3.5560083811487857 18.000850462803115 0 18.000850462803115 -9.9636442308611777 0 0 0 0 -123.48603872362219 59.521664959292039 0 59.521664959292039 -4.6556708634051809 0 0 0 0 -137.86136031823571 28.958329249013914 0 28.958329249013914 -18.204233501458155 0 0 0 0 -218.35251305937209 102.54892907959551 0 102.54892907959551 -39.937019444209326 0 0 0 0 -341.12662560782883 74.193445828445419 0 74.193445828445419 29.539118756194277 0 0 0 0 -113.98477177057794 45.575963623025089 0 45.575963623025089 -16.886742404484096 0 0 0 0 -164.27905719981391 32.268450804778347 0 32.268450804778347 -9.4018011814793851 0 0 0 0 -211.98139583623924 51.535692158743586 0 51.535692158743586 27.260251729986408 0 0 0 0 -230.1978293490065 17.91943986053947 0 17.91943986053947 42.513798236828961 0 0 0 0 -305.05866437762461 92.566818943001749 0 92.566818943001749 24.286675780310773 0 0 0 0 -191.18313316428157 13.048907768465021 0 13.048907768465021 41.828173381317185 0 0 0 0 -166.83406073635979 44.73297816188218 0 44.73297816188218 26.980483581221677 0 0 0 0 -388.78746839307678 11.963501165641759 0 11.963501165641759 98.834500513208837 0 0 0 0 -500.07404389305702 87.615093625607869 0 87.615093625607869 91.678088939599576 0 0 0 0 -348.37110503828251 98.459845562771818 0 98.459845562771818 37.752426031133496 0 0 0 0 -498.94078472137244 157.23751589123484 0 157.23751589123484 17.602262533162673 0 0 0 0 -337.84696885407084 221.84674506751134 0 221.84674506751134 -145.66556666643447 0 0 0 0 -66.060102417944847 246.35489499254365 0 246.35489499254365 -180.47989336793748 0 0 0 0 -117.84115412810297 74.628434114648485 0 74.628434114648485 -53.315791678756163 0 0 0 0 -55.332927278149825 -189.70462272939378 0 -189.70462272939378 -166.54659928908424 0 0 0 0 -87.830625580340893 -316.50939879028266 0 -316.50939879028266 -587.9111144665269 0 0 0 0 -111.51714164026509 -106.11958244627581 0 -106.11958244627581 -93.558134752534215 0 0 0 0 -4.3389454249631711 -1.0520325637842376 0 -1.0520325637842376 -0.86245984154721422 0 0 0 0 -498.96002590770701 -380.43480279873251 0 -380.43480279873251 -142.51652863090399 0 0 0 0 -314.8494312037592 -300.6667411022986 0 -300.6667411022986 -124.9823764557156 0 0 0 0 -500.00463214380852 -278.75025293568524 0 -278.75025293568524 9.7114976093612366 0 0 0 0 -140.15154033668023 -135.33337030787055 0 -135.33337030787055 -90.531687207856649 0 0 0 0 -282.5172663526871 -206.60179721841683 0 -206.60179721841683 -70.049996160336519 0 0 0 0 -99.267955974436518 -164.83183288814007 0 -164.83183288814007 -193.11897611787961 0 0 0 0 -134.29268146580762 -120.43761867284294 0 -120.43761867284294 -68.544075861624492 0 0 0 0 -77.308586230094534 -58.934820340410454 0 -58.934820340410454 -46.053753055978007 0 0 0 0 -47.984982090808444 -6.5320002703927571 0 -6.5320002703927571 7.7555133135209644 0 0 0 0 -0.31365162868951302 -33.809403257400845 0 -33.809403257400845 -94.190229894426608 0 0 0 0 -74.935919087664843 -113.39042048209814 0 -113.39042048209814 -112.38645101497639 0 0 0 0 -75.197357712926532 -22.123967854720419 0 -22.123967854720419 110.70041272413424 0 0 0 0 -9.976677554671614 -2.4635410694985027 0 -2.4635410694985027 -0.50798346055030486 0 0 0 0 2.470316444789205 2.3103370379798207 0 2.3103370379798207 -52.589143447289644 0 0 0 0 -34.424011502871508 -106.5610909141763 0 -106.5610909141763 6.605841651198773 0 0 0 0 3.2938316557706457 5.2037323948222749 0 5.2037323948222749 -32.735089100603659 0 0 0 0 20.055369431542204 17.622713786508257 0 17.622713786508257 -45.190726119762076 0 0 0 0 -11.302209826199711 -3.1462191531225918 0 -3.1462191531225918 -0.22582540874603402 0 0 0 0 -9.1998313605417934 -17.341114399826225 0 -17.341114399826225 25.366148577287788 0 0 0 0 0.058431177744829199 -0.4307176160309778 0 -0.4307176160309778 -0.39493074354798202 0 0 0 0 69.029773701531667 -16.2198865883868 0 -16.2198865883868 -56.5545635765383 0 0 0 0 13.027767315796154 -30.570490520826553 0 -30.570490520826553 4.5519889309153996 0 0 0 0 -8.2876778660793207 -2.9731733822054593 0 -2.9731733822054593 -5.0271798023835856 0 0 0 0 -2.8142823580983531 -8.4141495773379802 0 -8.4141495773379802 -4.3650167007095888 0 0 0 0 -10.352121908505069 -12.956831340583904 0 -12.956831340583904 0.18883670266518493 0 0 0 0 -1.3966777289813201 -3.3068047655103054 0 -3.3068047655103054 -1.1760905661176426 0 0 0 0 -24.011027678867322 -32.453885111886734 0 -32.453885111886734 23.313424140276084 0 0 0 0 -7.3775590676814318 -8.4514022330120042 0 -8.4514022330120042 5.1557972695137835 0 0 0 0 -5.5955374714321806 -3.5824996650726177 0 -3.5824996650726177 3.6004756379061291 0 0 0 0 -5.8770774592849193 -9.2767117672090649 0 -9.2767117672090649 -1.2795093556194388 0 0 0 0 -3.7887068054114934 -4.2081593371769657 0 -4.2081593371769657 -2.57208568805639 0 0 0 0 2.2250789512181655 -14.729235226124047 0 -14.729235226124047 -13.598736574376971 0 0 0 0 -0.64722554539548582 2.2155902642059573 0 2.2155902642059573 3.201525034685119 0 0 0 0 -0.12321470813367341 -1.6400599642959151 0 -1.6400599642959151 -0.60112800978913583 0 0 0 0 -39.377737165705184 56.065234627572636 0 56.065234627572636 56.955306634613862 0 0 0 0 -52.138862156652976 49.51051856787933 0 49.51051856787933 115.76991884170684 0 0 0 0 -51.966087332473762 3.7767399649685558 0 3.7767399649685558 77.668345072124339 0 0 0 0 -2.3007769545603978 -3.3659118541558897 0 -3.3659118541558897 -2.5861944153223937 0 0 0 0 -3.1376831278447135 -2.6617020318127285 0 -2.6617020318127285 -1.183484010678761 0 0 0 0 -3.3966969247128667 -4.4227119136458635 0 -4.4227119136458635 -1.7367499901200447 0 0 0 0 6.0423458635395946 1.7304842041269239 0 1.7304842041269239 2.0602842281332414 0 0 0 0 -32.34404228589483 5.6007334659550452 0 5.6007334659550452 -6.1700325429653731 0 0 0 0 0.42413881731602032 -1.6913957776072746 0 -1.6913957776072746 -0.89793383085785905 0 0 0 0 -1.2095161980912383 -0.64284054635370325 0 -0.64284054635370325 -0.23287061294038436 0 0 0 0 -7.3092742042945247 -2.2734912662071451 0 -2.2734912662071451 7.3205065566515941 0 0 0 0 -19.308013177604153 -12.970602841994264 0 -12.970602841994264 -9.9265710357751686 0 0 0 0 1.3255304226440785 -4.1791833543243229 0 -4.1791833543243229 -41.728273447321044 0 0 0 0 5.0109437380615418 -16.614498554645593 0 -16.614498554645593 15.008249656027374 0 0 0 0 -15.473665037889077 27.628546776052076 0 27.628546776052076 -15.306281297591795 0 0 0 0 0.23856492398005003 0.032590543802944794 0 0.032590543802944794 -0.35449571223995902 0 0 0 0 7.4343453585913721 -5.4327816664250292 0 -5.4327816664250292 0.25129706528423412 0 0 0 0 -4.865308216944868 3.0724116944220441 0 3.0724116944220441 -12.750379756752636 0 0 0 0 0.0015186137681673095 -0.39959644343988643 0 -0.39959644343988643 0.63236885684549438 0 0 0 0 -9.430468839093237 8.5756341155758236 0 8.5756341155758236 8.3153998684540511 0 0 0 0 -11.883958696550735 -2.9227035858662163 0 -2.9227035858662163 24.524011841936044 0 0 0 0 -11.488854763469135 12.902816323078582 0 12.902816323078582 -7.6035206348553857 0 0 0 0 -32.176855101437468 -38.258522609119893 0 -38.258522609119893 -48.296408200162659 0 0 0 0 -64.540191209915065 -66.428710472962962 0 -66.428710472962962 -44.394844547475373 0 0 0 0 -68.634600586416127 -27.685089481090017 0 -27.685089481090017 -22.646437541117166 0 0 0 0 -24.353872693005542 8.3015370837063927 0 8.3015370837063927 -6.873473463856385 0 0 0 0 -0.1147319776537592 -0.45239168397375451 0 -0.45239168397375451 -0.22045500586430156 0 0 0 0 -45.121949872954247 -42.188296151145465 0 -42.188296151145465 -36.733504698731906 0 0 0 0 -106.21500296195063 -30.558072228542414 0 -30.558072228542414 -8.2390548726497599 0 0 0 0 -16.346243861385346 -10.262020513062808 0 -10.262020513062808 14.176886984475459 0 0 0 0 -19.885595195625001 2.8360924285509981 0 2.8360924285509981 10.108694565552469 0 0 0 0 -0.90639381554865395 -6.6169526816765369 0 -6.6169526816765369 7.3224580451945371 0 0 0 0 18.808065455386213 -21.062394110428535 0 -21.062394110428535 5.9037024418046258 0 0 0 0 -6.5509887564039673 -4.5998020522049501 0 -4.5998020522049501 6.6076722017097609 0 0 0 0 -7.3000589126472732 -2.2817659517590627 0 -2.2817659517590627 7.8885297399966703 0 0 0 0 -5.6277427727363829 -1.4026905964479397 0 -1.4026905964479397 7.3967329917740017 0 0 0 0 -5.5402074993035058 -2.4049814713816318 0 -2.4049814713816318 5.2087080038053273 0 0 0 0 -4.4363421993803058 -1.3159407345264071 0 -1.3159407345264071 4.6259268358008399 0 0 0 0 -4.0319370123670524 -4.5540171466832362 0 -4.5540171466832362 6.4255361886753519 0 0 0 0 -0.094624713615303335 -3.7844364343856682 0 -3.7844364343856682 2.7553342841962376 0 0 0 0 -5.546223846860812 -0.33571660240068013 0 -0.33571660240068013 2.485286924053753 0 0 0 0 -0.86116787541096418 -0.33122095851668476 0 -0.33122095851668476 1.685533032796664 0 0 0 0 -5.1777021108209738 -0.083998307836964159 0 -0.083998307836964159 2.1025658932732654 0 0 0 0 -4.2478599962305452 -0.82816708408438444 0 -0.82816708408438444 1.3867767236912414 0 0 0 0 -4.432694550895576 -0.88034908050104832 0 -0.88034908050104832 2.3469162423646139 0 0 0 0 -4.3199067120222026 -1.1394045854229944 0 -1.1394045854229944 3.7749305647449773 0 0 0 0 -3.9914763922724887 -1.1596593271072777 0 -1.1596593271072777 3.5767067947779196 0 0 0 0 -4.2718014666315867 -0.64622955149025074 0 -0.64622955149025074 2.6820371747024865 0 0 0 0 -3.5998837250626821 -2.091215369353506 0 -2.091215369353506 3.3997707174730749 0 0 0 0 -3.7721932730100889 -0.48020539361590409 0 -0.48020539361590409 1.1550928330462966 0 0 0 0 -3.3833117185286028 0.25314958270797661 0 0.25314958270797661 2.3644454989006363 0 0 0 0 -2.8519036713156325 -0.45906920201963874 0 -0.45906920201963874 0.4034162898954608 0 0 0 0 -2.6202664292359259 -1.1763491491030891 0 -1.1763491491030891 1.7232303989544562 0 0 0 0 -4.3668064924895589 2.9739475667236945 0 2.9739475667236945 1.5340516409687355 0 0 0 0 -2.9910637182290216 -0.58503741230223039 0 -0.58503741230223039 0.85890300684196874 0 0 0 0 -0.69875923565814446 -0.61891869611963557 0 -0.61891869611963557 0.12122069880956587 0 0 0 0 -1.5226895050036546 0.7306630822426996 0 0.7306630822426996 1.5378625692131389 0 0 0 0 -2.37270545174411 -0.99378218794715423 0 -0.99378218794715423 0.073937508234885208 0 0 0 0 -4.0602848455600906 -0.2953566116627826 0 -0.2953566116627826 0.41721910207717272 0 0 0 0 -2.0565716016413695 -0.57592065935776482 0 -0.57592065935776482 0.59029460467034411 0 0 0 0 -3.337394030411474 -2.8057413545770018 0 -2.8057413545770018 0.33231359852675268 0 0 0 0 -2.1644539671451639 -3.0450658972227984 0 -3.0450658972227984 0.96820986574095969 0 0 0 0 -3.4242024671960642 -0.91481722116960906 0 -0.91481722116960906 0.71856398925661602 0 0 0 0 -2.9972936440026388 -0.21423905148299127 0 -0.21423905148299127 0.41410253388174567 0 0 0 0 -1.80772365746326 -0.84055476194439116 0 -0.84055476194439116 -0.15806651622432644 0 0 0 0 -5.2806447666807799 -0.68793279507633542 0 -0.68793279507633542 2.3424022429228142 0 0 0 0 -0.45461865844243121 -0.32018998424375944 0 -0.32018998424375944 0.073206880373399397 0 0 0 0 -13.854557517683133 -1.5005281616106458 0 -1.5005281616106458 4.8972093858483277 0 0 0 0 -2.5780450136662694 -3.0707956910650864 0 -3.0707956910650864 0.27035082241047803 0 0 0 0 -14.046507305385603 -0.1497548835732232 0 -0.1497548835732232 6.580851159985059 0 0 0 0 -3.256095622107658 -2.1966302931275075 0 -2.1966302931275075 -0.31158664031092109 0 0 0 0 -1.6272697002605128 2.2277313823283293 0 2.2277313823283293 3.0270938097132785 0 0 0 0 -3.2742606713688751 -1.2896582142553505 0 -1.2896582142553505 0.26538773374835323 0 0 0 0 -1.3429073719526059 -4.5462000885469251 0 -4.5462000885469251 1.520768923472346 0 0 0 0 -1.5036912796912887 -2.155482516862727 0 -2.155482516862727 -1.0283229883664764 0 0 0 0 0.072483209211469557 -2.2093056791959911 0 -2.2093056791959911 -1.1436765991178739 0 0 0 0 1.9076030309675289 -1.9759239574817631 0 -1.9759239574817631 -1.3946156384526445 0 0 0 0 0.89793428332632175 -2.2833499860857955 0 -2.2833499860857955 -1.0454562090783384 0 0 0 0 -2.9228651882167469 -9.5832965261226946 0 -9.5832965261226946 -10.647785191567436 0 0 0 0 -6.1232604986362276 -12.957953663488865 0 -12.957953663488865 -13.943856666990996 0 0 0 0 -1.9084606918371207 -2.4284680147689315 0 -2.4284680147689315 -0.5524077552445581 0 0 0 0 0.35792531964398222 -3.1646948228672045 0 -3.1646948228672045 1.4083464607159044 0 0 0 0 -1.5727953474406604 -3.145575433740305 0 -3.145575433740305 -0.82295251203868247 0 0 0 0 -2.0464000685666619 -2.8335722657227418 0 -2.8335722657227418 -1.9680709759513908 0 0 0 0 -0.97897213130306682 -3.0898606162220514 0 -3.0898606162220514 -1.1902294947309646 0 0 0 0 -0.66739285259760806 -1.8496046908581523 0 -1.8496046908581523 -0.082731607008844854 0 0 0 0 -1.1402279277358502 -2.6373584230768756 0 -2.6373584230768756 -1.1868330821016571 0 0 0 0 -1.3298661032927157 -2.8048205119528689 0 -2.8048205119528689 -1.0849391943205546 0 0 0 0 -0.99897148527634272 -1.8486428015466458 0 -1.8486428015466458 -0.12285160891610758 0 0 0 0 -0.83639062406667364 -1.6409007057537206 0 -1.6409007057537206 -1.4155077511710288 0 0 0 0 -0.76882979858783074 -2.9781104703735082 0 -2.9781104703735082 -1.0871511614679301 0 0 0 0 -3.1626749548240696 -1.844021671196586 0 -1.844021671196586 0.21280407461074446 0 0 0 0 -2.5591446736016223 -2.1640938668073204 0 -2.1640938668073204 1.2001663292315925 0 0 0 0 -2.3332506223566281 -1.3377579492719107 0 -1.3377579492719107 -0.2622827273272299 0 0 0 0 -1.4341744885938859 -2.0053101850575157 0 -2.0053101850575157 -0.74264280756819545 0 0 0 0 -2.6794335044214677 -2.9696468127258413 0 -2.9696468127258413 -0.8005170223730147 0 0 0 0 -2.2934128443505415 -1.8193286704760965 0 -1.8193286704760965 0.10768340883760175 0 0 0 0 -2.438763676362214 -2.3390596304482898 0 -2.3390596304482898 0.11603774323634752 0 0 0 0 -1.6597132888629851 -1.2370946041278552 0 -1.2370946041278552 -0.97090512446831756 0 0 0 0 -3.0892831885055756 -0.74412277095964097 0 -0.74412277095964097 0.71617872332182642 0 0 0 0 -0.35433120988992073 0.087100518925271153 0 0.087100518925271153 0.25848639037713994 0 0 0 0 -8.3139319382071335 -0.90136493829834308 0 -0.90136493829834308 0.74700653340931922 0 0 0 0 -0.056817290203071025 -1.8240674800989538 0 -1.8240674800989538 -0.79884648776845779 0 0 0 0 -1.0226242846802052 -1.0464677346659528 0 -1.0464677346659528 -1.3601472546707782 0 0 0 0 -0.83067563140684797 -1.8661114213064707 0 -1.8661114213064707 -1.0025017738851147 0 0 0 0 0.10667582835958456 -1.0809990577704411 0 -1.0809990577704411 -2.0280189047959993 0 0 0 0 1.2056020160571279 -0.89014926768980729 0 -0.89014926768980729 -5.3250480329627408 0 0 0 0 -1.176185750602599 0.21772915800477222 0 0.21772915800477222 -2.9903097439212161 0 0 0 0 -2.1959875167231075 -0.99663242378164796 0 -0.99663242378164796 -0.94480670023246205 0 0 0 0 -3.2680483852163889 -1.0193459648135104 0 -1.0193459648135104 -4.2129152990697776 0 0 0 0 -3.0745418709575461 -1.8076219537948646 0 -1.8076219537948646 -1.8649436134332973 0 0 0 0 -3.0599196407711133 -4.279234871558856 0 -4.279234871558856 -7.2090006855538604 0 0 0 0 -0.56512883216901599 -0.3100941738532681 0 -0.3100941738532681 0.10092806698942525 0 0 0 0 -3.259164792244519 -2.5262902373283396 0 -2.5262902373283396 -5.9421414464526379 0 0 0 0 -4.753590507505578 -1.4999031122393944 0 -1.4999031122393944 -3.1985380335724471 0 0 0 0 -6.8201087882025604 -1.6755481296993366 0 -1.6755481296993366 -3.0327703431303235 0 0 0 0 -11.596812986539248 10.928431810493926 0 10.928431810493926 7.1635711749190705 0 0 0 0 -4.536350936389681 -1.172133730789028 0 -1.172133730789028 -2.4688901792908382 0 0 0 0 4.7430760314036888 -3.2947948683907953 0 -3.2947948683907953 -8.5288943341188315 0 0 0 0 -0.88497730545565112 0.2674645920912706 0 0.2674645920912706 -0.30846339121659438 0 0 0 0 -4.536013231680954 -0.63907083247846685 0 -0.63907083247846685 -3.3620575722742387 0 0 0 0 -5.2137568149810249 -0.56791651016396827 0 -0.56791651016396827 -3.0619463417385759 0 0 0 0 -2.1773984879301089 -2.8573700988959558 0 -2.8573700988959558 -2.1208367459809438 0 0 0 0 2.132647591283785 -0.83402371198371839 0 -0.83402371198371839 -5.6107803754352972 0 0 0 0 4.5782265739562717 -2.2768898655142493 0 -2.2768898655142493 -8.4176065106821625 0 0 0 0 4.7965215002586774 -3.032630006169029 0 -3.032630006169029 -8.3383563972441834 0 0 0 0 -4.9703306384089956 -12.534048097918912 0 -12.534048097918912 -4.0006443958827731 0 0 0 0 -1.0099715908563667 -4.4461203028808995 0 -4.4461203028808995 -6.9514526487287185 0 0 0 0 1.8625234638157053 -7.8821150616877844 0 -7.8821150616877844 -11.929235019109001 0 0 0 0 2.4302376330851985 -5.3662750768216938 0 -5.3662750768216938 -9.0906577259393089 0 0 0 0 5.375213084713323 -3.5827726373640871 0 -3.5827726373640871 -8.6549226936688228 0 0 0 0 4.4211514687740419 -3.5496293172330979 0 -3.5496293172330979 -8.264054705965691 0 0 0 0 0.78055863884583232 -5.4893342686350479 0 -5.4893342686350479 4.7058194865186351 0 0 0 0 6.347440424549859 -0.57017509719764803 0 -0.57017509719764803 -2.7837081388555589 0 0 0 0 3.786074516185181 -3.9839077527110476 0 -3.9839077527110476 -4.8579969040183641 0 0 0 0 2.3091414089722093 -5.3583811025196155 0 -5.3583811025196155 -5.9209315564285134 0 0 0 0 8.8547256710262445 -5.0700177404983151 0 -5.0700177404983151 -6.5737927589192395 0 0 0 0 0.067023673066245237 0.073933173683139231 0 0.073933173683139231 -0.14949194813993705 0 0 0 0 -2.3242199724290913 3.09687659421229 0 3.09687659421229 -4.1311471368796902 0 0 0 0 -5.1336738527897978 -9.7555648029654094 0 -9.7555648029654094 4.7483052833136981 0 0 0 0 -0.61997036281409379 -0.63513206756181884 0 -0.63513206756181884 -0.35494228335574074 0 0 0 0 -0.31403022967231209 0.14543408753738518 0 0.14543408753738518 -0.088521413757742584 0 0 0 0 2.7259208794130245 5.8126620971831926 0 5.8126620971831926 12.405109876022834 0 0 0 0 -1.878951524391919 -1.996948976129822 0 -1.996948976129822 0.39021537813434759 0 0 0 0 -13.896049556486105 -22.904906707729424 0 -22.904906707729424 -24.679502295436578 0 0 0 0 -2.7170266044345492 -2.7912616637507757 0 -2.7912616637507757 -1.3124943636502557 0 0 0 0 -4.7726930746794096 -3.3007214147327488 0 -3.3007214147327488 -3.7820118484803729 0 0 0 0 -21.430569243166246 -4.9889425549299631 0 -4.9889425549299631 10.242880245179833 0 0 0 0 4.5548857289677471 -3.8082893713864792 0 -3.8082893713864792 -9.3891301993946854 0 0 0 0 -1.6220303585469082 -13.067509723721628 0 -13.067509723721628 -7.9168580755899711 0 0 0 0 -22.804632825329463 -6.1632646587280817 0 -6.1632646587280817 3.2930200035858661 0 0 0 0 -6.3644768998155996 -15.268340140784915 0 -15.268340140784915 -2.9811230104680817 0 0 0 0 -2.7585554997385771 6.488830266488776 0 6.488830266488776 -19.134359183727156 0 0 0 0 -19.642427184160624 5.5495438021918631 0 5.5495438021918631 -0.0048601725745811564 0 0 0 0 -11.454645703067399 8.4221399575415603 0 8.4221399575415603 -7.1630959876035831 0 0 0 0 0.07629221283853127 -0.40351730584492529 0 -0.40351730584492529 -0.53888129484535785 0 0 0 0 5.4082461729049101 -6.2681911646150184 0 -6.2681911646150184 -30.047354796213995 0 0 0 0 2.2573958346874861 -4.8132671988551579 0 -4.8132671988551579 -9.1884276231844524 0 0 0 0 -6.9656055079867656 -9.9142209561171057 0 -9.9142209561171057 13.14835108964985 0 0 0 0 -7.5791961066624935 -24.872549921116615 0 -24.872549921116615 -11.568885901111912 0 0 0 0 -4.6602252413613314 25.717458283303131 0 25.717458283303131 -15.608499270422044 0 0 0 0 0.40596747607259331 0.14416763323517046 0 0.14416763323517046 -0.22925601258232486 0 0 0 0 -13.981359504756483 -20.175638813399004 0 -20.175638813399004 -10.728045796188326 0 0 0 0 -7.728966285108072 -14.692654156336175 0 -14.692654156336175 -18.509220763870417 0 0 0 0 -10.054807411022921 -9.4298819040600392 0 -9.4298819040600392 -7.6292077571267782 0 0 0 0 -11.018929622065116 -6.8497577927530529 0 -6.8497577927530529 4.4929242946809609 0 0 0 0 -7.2275085191031394 -12.93995322531282 0 -12.93995322531282 -4.7962492430563088 0 0 0 0 -13.496442808256688 -13.175666503894718 0 -13.175666503894718 -4.6584079615586234 0 0 0 0 -9.2614101976287202 -13.121887976578932 0 -13.121887976578932 -14.966531041921826 0 0 0 0 -12.795544549042461 -11.093321823847532 0 -11.093321823847532 -5.3817176040220147 0 0 0 0 -11.737603805441154 -19.144377227062527 0 -19.144377227062527 -19.145668390745413 0 0 0 0 -5.3603516870534804 -11.19857074692311 0 -11.19857074692311 -27.475798430231407 0 0 0 0 -12.700254382645653 -9.7275528554441735 0 -9.7275528554441735 -25.813541404459556 0 0 0 0 -11.514357249048771 -16.070895508711146 0 -16.070895508711146 -15.294464921218861 0 0 0 0 -0.15634193819993758 0.47705487363862886 0 0.47705487363862886 0.058922690425063706 0 0 0 0 -12.550980140189495 -23.847353310154631 0 -23.847353310154631 -32.043918037486094 0 0 0 0 -9.877289392392413 -19.867083951010272 0 -19.867083951010272 -26.191688488564978 0 0 0 0 5.6811127783780648 -1.0382587215909496 0 -1.0382587215909496 -2.6208893746795638 0 0 0 0 8.407887365087845 -6.0652132492920146 0 -6.0652132492920146 -4.3398197869593105 0 0 0 0 -0.046632727795291373 0.15184836076337582 0 0.15184836076337582 -0.77078671934115617 0 0 0 0 -2.4334055807490884 -1.4197780481897713 0 -1.4197780481897713 -0.57370631722596133 0 0 0 0 1.5276610595974489 -3.3849675817244247 0 -3.3849675817244247 -1.3780226009009766 0 0 0 0 -2.9785938975292083 -1.0997639932327843 0 -1.0997639932327843 -2.5029442614843731 0 0 0 0 -1.8988787687067088 -1.8333304451288086 0 -1.8333304451288086 -12.885127758797807 0 0 0 0 -0.55751681409856246 -0.1282234916942997 0 -0.1282234916942997 -0.30695174644324652 0 0 0 0 -0.7530777635432031 -0.041826840062338277 0 -0.041826840062338277 -0.3209503341060409 0 0 0 0 -0.46170658824200839 -0.17361230547053808 0 -0.17361230547053808 -1.3943531699588476 0 0 0 0 -1.1680171623520437 -0.82728593827732766 0 -0.82728593827732766 -0.44405529833102264 0 0 0 0 -0.59831762217542916 -0.50526469151977826 0 -0.50526469151977826 -0.80754770250110086 0 0 0 0 -0.36963790801929797 0.11649290745183194 0 0.11649290745183194 -0.3948723589818699 0 0 0 0 -2.3955210810117933 1.9487364495249153 0 1.9487364495249153 -5.4245730307791291 0 0 0 0 -0.48535170689774532 1.1739020289371354 0 1.1739020289371354 0.066827416270029971 0 0 0 0 -5.8424883258894624 -0.93961872497129661 0 -0.93961872497129661 3.0822852773020486 0 0 0 0 -2.212385864195312 -0.78369766212642844 0 -0.78369766212642844 -1.7272855727650267 0 0 0 0 -4.8438367229264259 -4.2657451346240691 0 -4.2657451346240691 0.26923623032381272 0 0 0 0 -3.5318672250318741 -3.5530879576160217 0 -3.5530879576160217 2.6675502956255741 0 0 0 0 -2.8193545610720321 -6.5315215369306259 0 -6.5315215369306259 -2.8072026941967323 0 0 0 0 -3.0393045149976388 0.39194034076993489 0 0.39194034076993489 2.0170121203273936 0 0 0 0 -10.050307127746237 -2.9107288403880744 0 -2.9107288403880744 6.1169844300702323 0 0 0 0 -10.202449506319681 0.44705385118965069 0 0.44705385118965069 2.5858333669810918 0 0 0 0 -3.326301901898546 -0.21452787276520269 0 -0.21452787276520269 3.4651909611990277 0 0 0 0 -3.867464772614575 -1.3945153761459892 0 -1.3945153761459892 -0.10080006377073386 0 0 0 0 -0.84328889437460575 -0.27860865872964702 0 -0.27860865872964702 -0.056984410060835655 0 0 0 0 -2.5952926828831551 -0.40383737357399241 0 -0.40383737357399241 3.2886669393874683 0 0 0 0 -1.2868509040185927 4.6203889072875732 0 4.6203889072875732 4.134329378022926 0 0 0 0 -0.61846248936740267 1.4659738882273885 0 1.4659738882273885 4.2565429614943469 0 0 0 0 -4.9382392820480163 1.1543801606214288 0 1.1543801606214288 5.495998072854718 0 0 0 0 -5.8084569992533943 -0.74163478487025714 0 -0.74163478487025714 5.5509164735311458 0 0 0 0 -4.043792624067919 -0.2793641421269939 0 -0.2793641421269939 5.655369982129514 0 0 0 0 -8.6900459958742431 2.6447757395783356 0 2.6447757395783356 7.5506850900583089 0 0 0 0 -5.1402533851305634 2.5604543520036032 0 2.5604543520036032 7.5127052996753605 0 0 0 0 -4.9349840847457926 4.0363161301883821 0 4.0363161301883821 6.9133893677300193 0 0 0 0 -5.2688192935802363 4.1585319071040772 0 4.1585319071040772 6.9776688359102081 0 0 0 0 -5.2427615166143369 4.5392718707240647 0 4.5392718707240647 7.4017390121778703 0 0 0 0 -8.8941213888865605 4.3179270281587492 0 4.3179270281587492 8.2854933871772118 0 0 0 0 -4.4500565080834349 3.8367196227033276 0 3.8367196227033276 7.9264342989644021 0 0 0 0 -4.1495691526333758 3.9354116785799249 0 3.9354116785799249 6.1995837876992255 0 0 0 0 -11.20630649686882 3.5260477306465248 0 3.5260477306465248 8.959433541778651 0 0 0 0 -11.322825979704248 -1.4096531604537859 0 -1.4096531604537859 11.150908542358337 0 0 0 0 -8.8955464048094655 4.3410297874848389 0 4.3410297874848389 7.911015245780618 0 0 0 0 -2.3432411611047428 1.6975080121034125 0 1.6975080121034125 10.686551664315232 0 0 0 0 -2.3984339755888868 1.8175024388870327 0 1.8175024388870327 10.61345595448006 0 0 0 0 -0.70399369148435653 -2.3548757193436813 0 -2.3548757193436813 15.084670999315705 0 0 0 0 -1.899026542003412 1.820020274494766 0 1.820020274494766 10.844030118502914 0 0 0 0 -4.9372753290463152 4.3946014408179508 0 4.3946014408179508 8.2226196236790727 0 0 0 0 -2.0797950756186765 1.0330961505505201 0 1.0330961505505201 9.0695388088594768 0 0 0 0 -2.961861072114516 0.46922374363136043 0 0.46922374363136043 8.3245453567907362 0 0 0 0 -0.047145195047222366 0.15156044578768402 0 0.15156044578768402 -0.041929316832934216 0 0 0 0 1.4162323970249417 4.4082466730224326 0 4.4082466730224326 7.5204527334421698 0 0 0 0 0.52406248836359737 2.7647685747391506 0 2.7647685747391506 4.5060630019536632 0 0 0 0 -4.9433696225460153 5.1273136077581682 0 5.1273136077581682 5.1691437721632951 0 0 0 0 -7.8638097231705615 -1.9788404630083392 0 -1.9788404630083392 1.8902916940144223 0 0 0 0 -9.8202313403613744 -0.13073761665285133 0 -0.13073761665285133 1.9902328289915658 0 0 0 0 -0.11078874824361762 0.057590442269274789 0 0.057590442269274789 0.089997518113079655 0 0 0 0 -9.0871637658965483 -7.8050680697686801 0 -7.8050680697686801 -5.0357453141836572 0 0 0 0 -0.036428334827611764 0.27401944492471131 0 0.27401944492471131 -0.20040531893320335 0 0 0 0 1.4201769255905674 2.3614299183867047 0 2.3614299183867047 -3.72685716502221 0 0 0 0 -13.003867817749779 4.8407870709938834 0 4.8407870709938834 -1.5480495561300813 0 0 0 0 -11.414240247679118 1.5967498317795616 0 1.5967498317795616 1.8895897076722576 0 0 0 0 -13.826072204802585 2.7711135908141316 0 2.7711135908141316 1.31961578789344 0 0 0 0 -21.11572532395985 -2.438349414624895 0 -2.438349414624895 1.0999628404205453 0 0 0 0 -10.612940571763829 -6.3554311467578373 0 -6.3554311467578373 8.5687062986805813 0 0 0 0 -6.4266698215533324 -2.3995351557651361 0 -2.3995351557651361 0.95580948703246094 0 0 0 0 -11.347006102628256 4.1228821326434968 0 4.1228821326434968 1.0612370675065108 0 0 0 0 -18.106759601111207 -4.7166932157824171 0 -4.7166932157824171 8.3984883713953877 0 0 0 0 -3.0383564598614612 2.0524921532752103 0 2.0524921532752103 9.5937444916020809 0 0 0 0 -7.0796524323582162 -6.1253619094377036 0 -6.1253619094377036 24.628158372087 0 0 0 0 -1.2922242788846319 -0.73416254850663165 0 -0.73416254850663165 -0.34111541835608905 0 0 0 0 -2.2832554898022863 -16.440855269523894 0 -16.440855269523894 27.395396227744357 0 0 0 0 -8.3422028678160132 -0.14854988873312891 0 -0.14854988873312891 21.850322281765557 0 0 0 0 7.3299418061478718 -10.692226159465861 0 -10.692226159465861 10.976857957752543 0 0 0 0 -0.98603496386768086 -0.65235031207780203 0 -0.65235031207780203 -0.32369905789341891 0 0 0 0 -0.60240202066825077 -9.8183611714379708 0 -9.8183611714379708 19.385533972517067 0 0 0 0 0.8850385829427978 -12.456550980612406 0 -12.456550980612406 7.5506662721391962 0 0 0 0 -1.5121247241859237 -17.828595589132192 0 -17.828595589132192 19.784012534577869 0 0 0 0 6.2941317456316028 -6.7505988140032684 0 -6.7505988140032684 7.7665788696032223 0 0 0 0 5.9459723363279409 -8.9604829170222331 0 -8.9604829170222331 6.3216584328280305 0 0 0 0 -4.7817324189463761 -19.257069451607336 0 -19.257069451607336 -1.8967998863739695 0 0 0 0 -0.4350030412997512 -10.433560853239499 0 -10.433560853239499 -2.2479671809977617 0 0 0 0 -14.594515603543186 -11.642082953687748 0 -11.642082953687748 -2.0734362272297346 0 0 0 0 -9.3216913482128803 -18.016003209323628 0 -18.016003209323628 -2.2025732229685673 0 0 0 0 -8.4808030976546434 -18.652395646902221 0 -18.652395646902221 -6.0915414825913103 0 0 0 0 -10.055164035928101 -10.922375138692985 0 -10.922375138692985 -9.1567311880055513 0 0 0 0 -7.4954619004765846 -13.306451012520398 0 -13.306451012520398 -11.472726076570325 0 0 0 0 -7.9874686365842535 -4.1195590333819609 0 -4.1195590333819609 -6.1000221650199364 0 0 0 0 -13.42314683188124 -14.994081381868227 0 -14.994081381868227 -13.924297293155917 0 0 0 0 -8.061463256010029 -5.3004685161628231 0 -5.3004685161628231 -24.307057523743083 0 0 0 0 -16.836902862666648 -9.0098140654326642 0 -9.0098140654326642 -15.986781256061249 0 0 0 0 -20.06991969988394 -17.52283970788784 0 -17.52283970788784 -8.0095252794287717 0 0 0 0 -25.237409716693946 -0.66069461352242342 0 -0.66069461352242342 1.394996276526399 0 0 0 0 -23.662178488675636 -1.0496174894664136 0 -1.0496174894664136 -2.3908426375742238 0 0 0 0 -27.888238012768852 6.7048628609419438 0 6.7048628609419438 -0.61979252215178349 0 0 0 0 -1.2548215818605968 -1.0854761151581442 0 -1.0854761151581442 -0.29830036331213705 0 0 0 0 -5.314234294122798 9.298527158154684 0 9.298527158154684 -7.2244175023801063 0 0 0 0 -0.39018213596910556 -0.29538554108918813 0 -0.29538554108918813 -0.21388513465912362 0 0 0 0 -13.417586572370055 -23.475351812307736 0 -23.475351812307736 -48.633241493001776 0 0 0 0 -2.8286804579038289 4.6873452299098517 0 4.6873452299098517 -13.708308566647474 0 0 0 0 -33.260144442532692 11.348662181906775 0 11.348662181906775 -3.9398744956793053 0 0 0 0 -0.24811426260870917 -0.15241615746303516 0 -0.15241615746303516 0.013153066073784192 0 0 0 0 -6.1164488414797233 -12.04650333488587 0 -12.04650333488587 -34.233767153419649 0 0 0 0 -29.091185932335065 -27.399687505907195 0 -27.399687505907195 -43.350933738063304 0 0 0 0 -56.350376085862081 -10.762684697892496 0 -10.762684697892496 -3.2916054161348427 0 0 0 0 -32.310820199374575 11.27211152627558 0 11.27211152627558 -33.152020451371868 0 0 0 0 -51.439142564787289 -24.522034741830623 0 -24.522034741830623 -21.524232944173264 0 0 0 0 -18.667592469915689 -12.698124988282643 0 -12.698124988282643 -14.060590155530804 0 0 0 0 -20.13457007087618 6.9697788828433431 0 6.9697788828433431 -11.675388159831982 0 0 0 0 -30.014789592885791 -4.2145921986569874 0 -4.2145921986569874 -3.8758559302732465 0 0 0 0 -11.076328979614118 -19.569201489687998 0 -19.569201489687998 -23.399014437083451 0 0 0 0 -19.222840673122846 -28.112255767221995 0 -28.112255767221995 -31.139821801500688 0 0 0 0 -24.631552585635291 -10.898788687109345 0 -10.898788687109345 -14.603386576232992 0 0 0 0 -11.298206759362984 -12.318875039985002 0 -12.318875039985002 -19.399264246972507 0 0 0 0 -12.77967334407731 -16.95190541132888 0 -16.95190541132888 -14.602701505285495 0 0 0 0 -18.475045164552284 -12.214620027923843 0 -12.214620027923843 -4.8325683394491534 0 0 0 0 -14.545519228166086 -7.2451416728194999 0 -7.2451416728194999 -9.2162937397392852 0 0 0 0 -13.566399142145201 -5.5698274941681802 0 -5.5698274941681802 1.995508292213799 0 0 0 0 -8.4629629832743376 -11.36667407029563 0 -11.36667407029563 3.147246057237794 0 0 0 0 -10.430201713817951 -11.838190986547033 0 -11.838190986547033 -4.826443712862087 0 0 0 0 -14.192726779503573 -9.6106138288919283 0 -9.6106138288919283 2.8143896516025961 0 0 0 0 -10.478864449509274 -13.796681348294442 0 -13.796681348294442 -4.0310113584937426 0 0 0 0 -13.468218959540536 -0.045099922394228997 0 -0.045099922394228997 -3.0082406059608502 0 0 0 0 -16.094918740131106 -10.530711831401277 0 -10.530711831401277 -2.7527443129183666 0 0 0 0 -8.0365551334652991 -7.857687397324753 0 -7.857687397324753 2.7973512334283441 0 0 0 0 -12.068706146839759 -6.5434988049419189 0 -6.5434988049419189 12.013921881380156 0 0 0 0 -5.956178878499486 1.6758622176128029 0 1.6758622176128029 3.2892544415317388 0 0 0 0 -17.221836918613917 -1.3719237763584715 0 -1.3719237763584715 2.5059089028670769 0 0 0 0 -15.248442048419747 8.1064668207261548 0 8.1064668207261548 3.2075785217730299 0 0 0 0 -11.465847376861348 5.6245039235504919 0 5.6245039235504919 4.3581662173501172 0 0 0 0 -10.994145292883331 5.9876936600977615 0 5.9876936600977615 -3.4815138390831635 0 0 0 0 -16.29817495588577 1.5905273392743311 0 1.5905273392743311 -4.9345499274912754 0 0 0 0 -13.696795940581069 4.9192626963267685 0 4.9192626963267685 -2.0265715256889507 0 0 0 0 -15.449889098861604 9.3621531033263636 0 9.3621531033263636 7.6996615410896538 0 0 0 0 -17.550076922314474 5.4599990308504402 0 5.4599990308504402 3.6968233858831354 0 0 0 0 -7.95588506936474 -2.2881346248461796 0 -2.2881346248461796 6.7119482504722328 0 0 0 0 -15.13081155796317 -0.1284742821310374 0 -0.1284742821310374 6.0975350881592476 0 0 0 0 -6.8536005882451718 1.7175610785666322 0 1.7175610785666322 0.42673325359101 0 0 0 0 -5.8305955777505005 -1.360239940421252 0 -1.360239940421252 0.031718536654665286 0 0 0 0 -14.583484862967453 6.4210319008468559 0 6.4210319008468559 1.8805253801651816 0 0 0 0 -4.3536638193691033 -4.0391638213976648 0 -4.0391638213976648 -8.7371034893699289 0 0 0 0 -11.491940169124064 0.66297273712359583 0 0.66297273712359583 -2.8723562176664927 0 0 0 0 -10.548429122090965 2.297644556521675 0 2.297644556521675 -2.6736977209272936 0 0 0 0 -17.215522849393892 2.8577600049264902 0 2.8577600049264902 -10.333865256017589 0 0 0 0 -18.264488154845822 -3.6355914870965762 0 -3.6355914870965762 -17.330236444449383 0 0 0 0 -11.065612275662716 2.1156392857019455 0 2.1156392857019455 -10.691909716212422 0 0 0 0 -16.37213258834305 7.1967490705307533 0 7.1967490705307533 -3.5987499697589556 0 0 0 0 -4.6188559608385731 -3.2487628170999869 0 -3.2487628170999869 0.47611811448666685 0 0 0 0 -5.6697925576894406 -1.6534419311042265 0 -1.6534419311042265 1.3030359239816804 0 0 0 0 -12.267852121513897 -4.7010456650397998 0 -4.7010456650397998 0.87871800971947778 0 0 0 0 -6.457674696009235 0.13667087550453516 0 0.13667087550453516 4.4220681794092229 0 0 0 0 -5.8061213110453949 -2.120922141598232 0 -2.120922141598232 0.4623920992012498 0 0 0 0 -47.221527657388833 26.967495908002093 0 26.967495908002093 44.322023432165679 0 0 0 0 -20.090560266402463 0.79557579908907883 0 0.79557579908907883 9.0694103667963191 0 0 0 0 4.8724251549538167 -0.10520132875149102 0 -0.10520132875149102 16.923553684198851 0 0 0 0 -0.561989694192782 0.17324444847331533 0 0.17324444847331533 1.366562108292021 0 0 0 0 -31.378841645162538 12.679768838446194 0 12.679768838446194 7.2268288640689207 0 0 0 0 30.149014678052481 -2.6104846304242528 0 -2.6104846304242528 -15.223905320374797 0 0 0 0 -1.6003811267182755 21.176502125649677 0 21.176502125649677 -10.83073644391925 0 0 0 0 19.037814079632881 -23.986600098892779 0 -23.986600098892779 10.749834352667222 0 0 0 0 -0.46179532292029535 -3.4703992947804494 0 -3.4703992947804494 16.888325342260941 0 0 0 0 -7.5986787667625322 7.8534402003874675 0 7.8534402003874675 5.3883697359410689 0 0 0 0 -3.200523206312937 -5.9061023573024158 0 -5.9061023573024158 12.300642314461584 0 0 0 0 -9.8947816693198547 -11.708262746427408 0 -11.708262746427408 51.429146850989355 0 0 0 0 -8.3414512963472589 0.053127819470205395 0 0.053127819470205395 25.628335573384447 0 0 0 0 -7.6742556817844161 -2.3674768435430451 0 -2.3674768435430451 13.505181907369206 0 0 0 0 -5.4706533352800761 -5.8558530498685286 0 -5.8558530498685286 17.042527344719929 0 0 0 0 -3.027882352926099 3.942868996827201 0 3.942868996827201 25.131064659111757 0 0 0 0 4.2796849999176629 -4.5391071364051641 0 -4.5391071364051641 21.453853237414933 0 0 0 0 -8.5665264577110065 -3.5301497547202416 0 -3.5301497547202416 21.683339500469174 0 0 0 0 -9.3204694078267494 -6.631332793443562 0 -6.631332793443562 10.663351240269094 0 0 0 0 -12.23745405380123 -11.267294122446742 0 -11.267294122446742 9.9830368035150059 0 0 0 0 -11.180576895101694 -5.5643013551070908 0 -5.5643013551070908 20.6772198596218 0 0 0 0 -12.608540257417189 -6.987274765418988 0 -6.987274765418988 11.042814781903871 0 0 0 0 -6.1688214437454008 -6.772016588900442 0 -6.772016588900442 10.887175467439079 0 0 0 0 -9.8723597275456996 -6.5272512252457773 0 -6.5272512252457773 17.670498819070417 0 0 0 0 -5.5401745782110083 -7.5676769819556284 0 -7.5676769819556284 26.284147173029851 0 0 0 0 -4.7928749318161863 -5.0496959070101184 0 -5.0496959070101184 17.73645718351105 0 0 0 0 -8.7660150842493749 -10.239624986354329 0 -10.239624986354329 25.747813863973533 0 0 0 0 -15.17444097589032 -5.7582389544985517 0 -5.7582389544985517 34.63497233471503 0 0 0 0 -7.9372578748043452 -3.2954690162805989 0 -3.2954690162805989 2.4474272328812958 0 0 0 0 -7.2062972319909022 -5.7859722208407334 0 -5.7859722208407334 0.049259712819917922 0 0 0 0 -8.3356663768569383 -2.2304757145997249 0 -2.2304757145997249 0.45161655575244947 0 0 0 0 -6.9373819709707938 -2.996318982756681 0 -2.996318982756681 -0.0049541002934312683 0 0 0 0 -8.1817674802732654 -5.2596453700807615 0 -5.2596453700807615 51.869139232473799 0 0 0 0 -5.2479289229892672 -1.6128033742757104 0 -1.6128033742757104 1.3872575955657993 0 0 0 0 -6.9689117632751731 -2.7888679911745271 0 -2.7888679911745271 0.84387129252766613 0 0 0 0 -4.8331711947976146 1.3267845353038865 0 1.3267845353038865 59.799488886816107 0 0 0 0 -0.55022790908254393 -0.56985193999199524 0 -0.56985193999199524 -0.23223895674607942 0 0 0 0 -4.5633288623119261 -2.2104658361792495 0 -2.2104658361792495 -0.069250543812604537 0 0 0 0 -6.3467861086510311 -3.9052900910571715 0 -3.9052900910571715 -1.3105042849333799 0 0 0 0 -7.29307621159478 -1.0267140610002166 0 -1.0267140610002166 2.7518393515548327 0 0 0 0 -6.0888646208752206 -1.0706534519754505 0 -1.0706534519754505 1.3207311503250476 0 0 0 0 -0.70952446845407646 -1.3641443752867062 0 -1.3641443752867062 0.73250155336508738 0 0 0 0 -11.229287099887642 -3.8092094489536841 0 -3.8092094489536841 1.4812890806850021 0 0 0 0 -7.7196762556941394 -3.5407272698975589 0 -3.5407272698975589 0.1161469795578256 0 0 0 0 -4.8317889668323915 -1.9261865881355682 0 -1.9261865881355682 -0.4572669906306146 0 0 0 0 -13.757098301919541 -9.1043070909151709 0 -9.1043070909151709 -2.479233470564516 0 0 0 0 -10.664452132608858 -3.1980733573240343 0 -3.1980733573240343 0.81503391907023115 0 0 0 0 -6.344225217583471 -4.3197009633546113 0 -4.3197009633546113 -3.8711668578925291 0 0 0 0 -0.14883696940662539 0.25553371680429571 0 0.25553371680429571 0.42637007018120954 0 0 0 0 -8.5536146468461993 -4.6665297939122361 0 -4.6665297939122361 -0.072092059849524048 0 0 0 0 -5.9865056646528956 2.0527679224209692 0 2.0527679224209692 1.8201679290563106 0 0 0 0 -14.699844558835068 0.28276463331605228 0 0.28276463331605228 4.7875960819253578 0 0 0 0 -10.839375069917878 -7.4740376742703916 0 -7.4740376742703916 -2.6090156737648726 0 0 0 0 -9.2930940029955309 -2.2020935577564984 0 -2.2020935577564984 -0.028209614362822322 0 0 0 0 -7.0174695801970302 -2.8535369107065947 0 -2.8535369107065947 -1.707510520761133 0 0 0 0 -21.43537805914184 -3.8240854606638095 0 -3.8240854606638095 1.4818138189831416 0 0 0 0 -1.1494648589271765 0.10505229287022821 0 0.10505229287022821 -0.087926481040391469 0 0 0 0 -11.744155220766515 -2.0207997790263903 0 -2.0207997790263903 -1.169619334357094 0 0 0 0 -6.4089405856280202 -0.055992767007547073 0 -0.055992767007547073 0.92315125525781072 0 0 0 0 -11.566056172998572 -2.4533474102591164 0 -2.4533474102591164 -1.3179764249948676 0 0 0 0 -8.921309732704767 -3.4730113950200989 0 -3.4730113950200989 -0.99465401143801957 0 0 0 0 -7.591039819800244 -9.7248751811755483 0 -9.7248751811755483 0.14406027284886136 0 0 0 0 -13.675429110143341 -3.6274093801433196 0 -3.6274093801433196 0.22696926264097783 0 0 0 0 -11.661783262403674 -4.3119600473856785 0 -4.3119600473856785 0.088038769201716605 0 0 0 0 -8.589921302473158 -8.4365592275348149 0 -8.4365592275348149 -0.14894560272325919 0 0 0 0 -1.3503838430898707 -1.1323843865548753 0 -1.1323843865548753 0.038043089858259549 0 0 0 0 -22.736933730071542 6.450567281526844 0 6.450567281526844 17.342633088866137 0 0 0 0 -3.0442818955543771 -7.9282759405529077 0 -7.9282759405529077 -3.6938248869676613 0 0 0 0 -3.0442818955466464 -7.9282759405568299 0 -7.9282759405568299 -3.6938248869681729 0 0 0 0 -6.5063880341731419 -1.0275439715095445 0 -1.0275439715095445 0.80983965810446534 0 0 0 0 -3.0442818955448274 -7.9282759405525951 0 -7.9282759405525951 -3.6938248869676045 0 0 0 0 -4.7412603260780806 -1.1921448773615246 0 -1.1921448773615246 0.14484364759259793 0 0 0 0 17.277919217427097 -2.959379481393853 0 -2.959379481393853 -1.3611479763478087 0 0 0 0 -40.093922779920831 6.6424770057731735 0 6.6424770057731735 3.0499274455794989 0 0 0 0 -15.03632435599684 2.0295559263854557 0 2.0295559263854557 -2.9697956253185112 0 0 0 0 13.317431226635563 -11.967731038899842 0 -11.967731038899842 0.74124306851035726 0 0 0 0 -10.784638482356058 -6.3696410792279039 0 -6.3696410792279039 -1.4579269073900605 0 0 0 0 -21.291043440307476 0.15178431740389442 0 0.15178431740389442 5.4046872106146111 0 0 0 0 -9.0366517004640627 -9.6527937706903799 0 -9.6527937706903799 3.4709607854806563 0 0 0 0 -19.580767598305101 -4.5611805804010146 0 -4.5611805804010146 -0.092521842506016583 0 0 0 0 -4.8967633459487843 -3.3000940493505198 0 -3.3000940493505198 -1.2159225903633342 0 0 0 0 -17.619423486701635 -0.41754383935159467 0 -0.41754383935159467 1.6012720937090421 0 0 0 0 12.257531588631537 -11.402180726560232 0 -11.402180726560232 5.393240972903186 0 0 0 0 -15.549428801465183 0.93423225881801386 0 0.93423225881801386 2.4803900920057913 0 0 0 0 -1.1477594695004081 -0.13666707123627919 0 -0.13666707123627919 -0.37670746616500073 0 0 0 0 -7.3584922028137729 -2.64937548304529 0 -2.64937548304529 -0.76558669673433788 0 0 0 0 -3.2671936147424585 2.3157804534845212 0 2.3157804534845212 0.068777712065884344 0 0 0 0 -10.060390729228857 -2.7920516026799191 0 -2.7920516026799191 2.2482274068519246 0 0 0 0 -7.2851995069986515 -3.3132768678175921 0 -3.3132768678175921 0.17987975071014262 0 0 0 0 -7.9378712159823408 -2.7591331106135044 0 -2.7591331106135044 0.20037664848189252 0 0 0 0 -0.48535463219024777 -0.7212851316581812 0 -0.7212851316581812 -0.075825643909882334 0 0 0 0 -6.3222158582752854 -2.874427514646186 0 -2.874427514646186 -0.43243888050108126 0 0 0 0 -11.226240819462873 -5.06650526587282 0 -5.06650526587282 -3.8251292337208724 0 0 0 0 26.696632709067671 10.946567913116439 0 10.946567913116439 15.3480305312235 0 0 0 0 -16.292486816500059 -3.2748860404551579 0 -3.2748860404551579 3.2478583953596285 0 0 0 0 -8.3534560464449896 4.2193039272825672 0 4.2193039272825672 -7.0205460821130288 0 0 0 0 -48.67007531947047 -1.5590599589644256 0 -1.5590599589644256 -2.0737981395689644 0 0 0 0 -47.047989155820915 -6.1485317779666389 0 -6.1485317779666389 -5.2814968706143759 0 0 0 0 0.11075939797147338 -0.10788302731488564 0 -0.10788302731488564 -0.24397123636965801 0 0 0 0 25.752616552634237 -15.385731276018142 0 -15.385731276018142 -6.8445425570976113 0 0 0 0 -0.13843262847376181 -0.16199200109678813 0 -0.16199200109678813 -0.21950875642090462 0 0 0 0 -9.0990133504383266 4.8266010926963077 0 4.8266010926963077 -1.7633671586946775 0 0 0 0 -2.3375132717988851 -2.9418078263935312 0 -2.9418078263935312 -0.70172599605225083 0 0 0 0 -13.279808892128131 -3.8117101963188134 0 -3.8117101963188134 -6.3709480766676734 0 0 0 0 -0.54810222263592223 0.48891634108238424 0 0.48891634108238424 -0.09994337440261214 0 0 0 0 12.427630024834798 -5.113924635035346 0 -5.113924635035346 9.5511467936764802 0 0 0 0 24.168895180597247 1.5098496634120693 0 1.5098496634120693 10.164092491748988 0 0 0 0 -15.757910093324426 8.7507371709769046 0 8.7507371709769046 -2.5668668180765621 0 0 0 0 0.085459133095000972 -0.4108578260977902 0 -0.4108578260977902 -0.7223193546731228 0 0 0 0 -1.0333274126310785 -0.14280396981521637 0 -0.14280396981521637 -0.0062158090450326053 0 0 0 0 -22.650667649681054 14.641148960278542 0 14.641148960278542 -6.1780622336381192 0 0 0 0 -26.290864213365808 -2.2802515179485248 0 -2.2802515179485248 1.7907195456172644 0 0 0 0 -19.124023262670562 14.365742259725522 0 14.365742259725522 -8.5192331434462858 0 0 0 0 -45.245741327884389 1.6668476025774908 0 1.6668476025774908 1.4887899244837968 0 0 0 0 -19.22934374983015 -0.80908851902958645 0 -0.80908851902958645 6.0357020629243152 0 0 0 0 -11.653474031876158 -1.207396921140429 0 -1.207396921140429 1.7464989102738571 0 0 0 0 -13.983171485603634 -3.9554641646918611 0 -3.9554641646918611 12.467757755379779 0 0 0 0 -10.377227673342531 -4.8541001434968507 0 -4.8541001434968507 1.2657173825351151 0 0 0 0 -10.559341835410123 1.1033158537652525 0 1.1033158537652525 -1.4632325797172427 0 0 0 0 -16.695720346679309 7.0485460644866613 0 7.0485460644866613 -4.371852449808614 0 0 0 0 -8.6279066351927547 -2.0428432527416902 0 -2.0428432527416902 0.30827564712604627 0 0 0 0 -7.4218017181483447 -1.7570486293909084 0 -1.7570486293909084 -2.1548359095011733 0 0 0 0 -7.1817640975999009 -1.2591690044149697 0 -1.2591690044149697 -0.36203884532593467 0 0 0 0 -6.4836557991260406 -4.0288382215023262 0 -4.0288382215023262 0.70678501888655632 0 0 0 0 -9.4931552071316219 -9.9883940485354969 0 -9.9883940485354969 4.1044524393254704 0 0 0 0 -10.815362949960218 -0.34245826615111241 0 -0.34245826615111241 2.5456363693677986 0 0 0 0 -5.653416862267477 -3.5023641513379857 0 -3.5023641513379857 -1.255886648011824 0 0 0 0 -11.177123112373465 -12.103056229830329 0 -12.103056229830329 -10.7950086900683 0 0 0 0 -2.4297085210855252 -2.5408972297179879 0 -2.5408972297179879 0.032538692877129183 0 0 0 0 -5.0394368973002202 -4.7504475247782523 0 -4.7504475247782523 -2.3518108925418062 0 0 0 0 -0.29438542991924188 -2.7323471696537442 0 -2.7323471696537442 -0.71579005513304972 0 0 0 0 -4.7188181679539412 -1.3067061537233684 0 -1.3067061537233684 -0.049126242430304501 0 0 0 0 -4.5767972911280594 -0.39526830409479885 0 -0.39526830409479885 -3.9139597142834077 0 0 0 0 0.66717652891702528 -2.46696975540479 0 -2.46696975540479 -7.2207695128950391 0 0 0 0 -3.3169718810931954 2.1523276245988683 0 2.1523276245988683 0.49721353938610946 0 0 0 0 -7.7367774773738347 0.67996380348918706 0 0.67996380348918706 3.3386953858560844 0 0 0 0 -8.3003778263564527 -1.9934066028000643 0 -1.9934066028000643 -0.084542747247880357 0 0 0 0 -4.8973261479950452 -3.1030573950757372 0 -3.1030573950757372 -2.7421282607366209 0 0 0 0 -3.4625941218855587 -1.0696851320775522 0 -1.0696851320775522 -0.32419284756804245 0 0 0 0 -3.4778509356201539 -1.1442062431675595 0 -1.1442062431675595 -0.48179458731237901 0 0 0 0 -1.3293973843715996 -0.051295711091701612 0 -0.051295711091701612 0.20507051649327201 0 0 0 0 -5.1196852856660549 -0.68034466647388347 0 -0.68034466647388347 -0.85684552917205403 0 0 0 0 -9.4424230294380322 1.7565522397460853 0 1.7565522397460853 1.8767218647373056 0 0 0 0 -4.3208003627696598 -1.5164008420908885 0 -1.5164008420908885 0.32388709371684854 0 0 0 0 -2.9731041544299224 -1.3217159517209691 0 -1.3217159517209691 -1.1388025938428774 0 0 0 0 -0.83843782913754694 -0.84228480192996358 0 -0.84228480192996358 -0.52196848673384011 0 0 0 0 -0.046676323402820685 0.098360638979219539 0 0.098360638979219539 0.006470402936322478 0 0 0 0 -2.4932832927940805 -2.0068334671085371 0 -2.0068334671085371 0.012681096016069926 0 0 0 0 -8.2487739389734998 -0.15773672543326711 0 -0.15773672543326711 -0.37629110637814733 0 0 0 0 -7.5779048891308776 -0.46715483986429263 0 -0.46715483986429263 -0.81829315159285443 0 0 0 0 -13.113887525117207 -1.981390821176376 0 -1.981390821176376 -0.76866993823091434 0 0 0 0 -7.5953941875260824 0.2931016198728198 0 0.2931016198728198 -0.54990755916560374 0 0 0 0 -4.367519953774325 -2.4398286180391313 0 -2.4398286180391313 -1.0569621123149013 0 0 0 0 -10.067882201998625 -0.52505517412559977 0 -0.52505517412559977 0.8318702324890962 0 0 0 0 -8.0783599458673052 -3.8085826766529749 0 -3.8085826766529749 -3.3216601638812335 0 0 0 0 -5.9417706147823992 -4.2521225041188586 0 -4.2521225041188586 -2.2979477489941473 0 0 0 0 -8.3878245687837989 2.7449531931335969 0 2.7449531931335969 2.026937855907363 0 0 0 0 -1.7075933358632049 -0.12635385145882339 0 -0.12635385145882339 -0.11440116290656221 0 0 0 0 -11.691212977859777 6.5245615673403563 0 6.5245615673403563 5.652713793995872 0 0 0 0 -20.685040630766252 -34.565156932517382 0 -34.565156932517382 -10.438093259208443 0 0 0 0 -3.38807512394163 -2.7130019902382907 0 -2.7130019902382907 0.21448669833400325 0 0 0 0 -10.975996046435739 7.3760397132746789 0 7.3760397132746789 0.98520352809350697 0 0 0 0 -6.4771949020359898 -2.1884479323969117 0 -2.1884479323969117 -1.2681762140200021 0 0 0 0 -6.7008564843185923 -1.955238502257636 0 -1.955238502257636 0.70959596674958902 0 0 0 0 -7.0040878953532228 -0.64358113280836449 0 -0.64358113280836449 0.044160770661136439 0 0 0 0 -5.6793121024501296 -1.7146619864058876 0 -1.7146619864058876 0.71785637962732285 0 0 0 0 -7.2021494263810837 -0.54420476216427716 0 -0.54420476216427716 2.694221825805414 0 0 0 0 -4.2738535196640441 -4.0444632539672511 0 -4.0444632539672511 -5.8359652096365835 0 0 0 0 -11.667951834250289 -0.085829730487773759 0 -0.085829730487773759 -3.950017019403731 0 0 0 0 -19.362812151473918 -6.6307301873528104 0 -6.6307301873528104 -3.9270585830854543 0 0 0 0 -3.1133568084191729 -0.90324620051169013 0 -0.90324620051169013 1.1633347490895436 0 0 0 0 -12.482620818800797 -0.085372733284245328 0 -0.085372733284245328 10.470622369694297 0 0 0 0 -8.3772664287261271 -2.3674486969680038 0 -2.3674486969680038 0.17918983478065695 0 0 0 0 -19.346806248104258 -9.4217299594491806 0 -9.4217299594491806 3.6028950091661613 0 0 0 0 -5.5137111989788536 -4.3727696493247663 0 -4.3727696493247663 -5.8367726365390808 0 0 0 0 -13.808964296184058 -12.455864627565916 0 -12.455864627565916 4.7306656273915451 0 0 0 0 -4.5888431586704428 -8.8323124675094107 0 -8.8323124675094107 4.149520028926645 0 0 0 0 -8.2147798105943366 2.5558474800009208 0 2.5558474800009208 22.879183125098962 0 0 0 0 -14.592563903056543 -7.275230353526922 0 -7.275230353526922 19.230384956365469 0 0 0 0 -4.1593171443819301 -2.9087277444368738 0 -2.9087277444368738 -6.1774195729888675 0 0 0 0 -14.984302648615085 -11.631790171617808 0 -11.631790171617808 1.9832709457505189 0 0 0 0 -0.64163242917165419 -1.2257534373205203 0 -1.2257534373205203 -0.41485826498779499 0 0 0 0 -6.2507725196483079 -11.03172419670409 0 -11.03172419670409 -10.517815813131165 0 0 0 0 -4.3731432634212979 -2.4303355241293048 0 -2.4303355241293048 8.9970143689125734 0 0 0 0 -8.0920817815957236 -2.7800290912076333 0 -2.7800290912076333 -0.0052917995046544153 0 0 0 0 -9.5828723663971687 -0.74354485027481587 0 -0.74354485027481587 6.854174222830693 0 0 0 0 -8.3183128629716521 -0.54700241070258926 0 -0.54700241070258926 -1.4913443678415206 0 0 0 0 -3.7827082341736205 -0.80040189438161669 0 -0.80040189438161669 1.3873194619806748 0 0 0 0 -4.5888897059603551 2.353918340660357 0 2.353918340660357 -0.33635133753238478 0 0 0 0 -3.6462414002189689 -3.4941358316545461 0 -3.4941358316545461 -4.8936455334888649 0 0 0 0 -5.5931612700314872 -1.1657294373057425 0 -1.1657294373057425 -0.25889004756027134 0 0 0 0 -14.029319083727387 -6.9847229429218487 0 -6.9847229429218487 6.5760687551154433 0 0 0 0 -4.2642966462247287 -1.0652852522475174 0 -1.0652852522475174 -0.05710962869017118 0 0 0 0 -10.955145912863372 -2.4477993053778846 0 -2.4477993053778846 -0.84318528742456067 0 0 0 0 -6.058957369350054 -1.8424334364682267 0 -1.8424334364682267 -0.98858272616310394 0 0 0 0 -7.612701740103148 -1.8965113491265129 0 -1.8965113491265129 0.98402645074202155 0 0 0 0 -3.6974347481285079 -3.9514454638578673 0 -3.9514454638578673 0.063017721267731308 0 0 0 0 -5.5536085755833646 -3.1062403225811011 0 -3.1062403225811011 -1.6895005921257398 0 0 0 0 -3.4839021800653427 -4.1323217025083068 0 -4.1323217025083068 2.1629553897711276 0 0 0 0 -8.4743117012900022 -5.5919888183941957 0 -5.5919888183941957 -0.79585460252248907 0 0 0 0 -4.3474063562516676 -1.8289228541734701 0 -1.8289228541734701 1.164563668287883 0 0 0 0 -5.3692886338122232 -2.9759294358957771 0 -2.9759294358957771 -0.28912466090203193 0 0 0 0 -4.3271990520916255 -1.4606038411392108 0 -1.4606038411392108 -1.2383611067896894 0 0 0 0 -17.301511347144697 -4.1665395773941327 0 -4.1665395773941327 3.6046524983075869 0 0 0 0 -4.3358597341839413 -1.3082829319423581 0 -1.3082829319423581 -0.88023991633018284 0 0 0 0 -2.4722275602116834 -1.0944178837841276 0 -1.0944178837841276 0.49337349026285571 0 0 0 0 -1.35336189558193 -0.075107805739282441 0 -0.075107805739282441 -0.0064948040197370105 0 0 0 0 -2.6997132080628585 -1.2317025913918265 0 -1.2317025913918265 -1.3818135506607758 0 0 0 0 -0.90582027295221357 0.21299396871550513 0 0.21299396871550513 -0.062543283140272798 0 0 0 0 -1.0427056141618269 -1.7147250926562894 0 -1.7147250926562894 -1.3666271974536355 0 0 0 0 -1.6111639140399348 -5.4523563669670239 0 -5.4523563669670239 6.755151412184432 0 0 0 0 -4.7701880996078216 -0.50922470378714024 0 -0.50922470378714024 -1.5499629025393915 0 0 0 0 -12.385759732271708 -4.543342039312023 0 -4.543342039312023 5.9662197795209977 0 0 0 0 -5.3847766614890133 -3.2622683494598732 0 -3.2622683494598732 -4.4674785120378147 0 0 0 0 -4.6790560373738117 -0.14739608974377916 0 -0.14739608974377916 -2.2783716471494699 0 0 0 0 -5.0497965404871366 1.038053534928018 0 1.038053534928018 -3.7603034516625939 0 0 0 0 -4.37311944486828 -1.0439152416784054 0 -1.0439152416784054 -4.7061540380570364 0 0 0 0 -6.5684127005301889 -2.6262419424365078 0 -2.6262419424365078 -2.3038579186561492 0 0 0 0 -4.6861785133605736 -0.99379719452281279 0 -0.99379719452281279 -2.2323221948211085 0 0 0 0 -4.5033194016700691 -1.1371917085857604 0 -1.1371917085857604 -3.1042089455113455 0 0 0 0 -4.9301755993892584 -0.68651099226610768 0 -0.68651099226610768 -2.8847735433785147 0 0 0 0 -3.9602929982702335 -1.2082503857193387 0 -1.2082503857193387 -3.1154590971274274 0 0 0 0 -2.6222705546133511 -1.4590923995731373 0 -1.4590923995731373 -2.1803059020349451 0 0 0 0 -4.3785172451434846 -1.7991868632963701 0 -1.7991868632963701 -2.1925687863633812 0 0 0 0 -3.2203914204892499 -2.7859317600162967 0 -2.7859317600162967 -2.9274462847206451 0 0 0 0 -3.2779466957163095 -1.1314752460458521 0 -1.1314752460458521 -2.2546889219247674 0 0 0 0 -1.7986473182918417 -2.0339563867689776 0 -2.0339563867689776 -2.8797913223743308 0 0 0 0 5.0370706432340739 -1.5923974684843074 0 -1.5923974684843074 -6.3979841208870312 0 0 0 0 -0.72024914924490346 -1.2443929217539189 0 -1.2443929217539189 -2.777464987566554 0 0 0 0 -1.6257359526225628 -3.2400478071056114 0 -3.2400478071056114 -2.4213940538800784 0 0 0 0 0.92690709561793483 -1.5772249950638297 0 -1.5772249950638297 -0.50643680738124885 0 0 0 0 -1.6538768220125348 0.8892271872284141 0 0.8892271872284141 2.6770103609435409 0 0 0 0 -0.034046251703991004 -0.51045405661300491 0 -0.51045405661300491 -0.47192181569891006 0 0 0 0 -1.065737185063651 0.24555038774470006 0 0.24555038774470006 -0.25998841819925489 0 0 0 0 -2.2803984981469512 0.94194847436628493 0 0.94194847436628493 -0.20917255178983396 0 0 0 0 -2.0186743914214276 1.6414963755575798 0 1.6414963755575798 -3.4865627005195847 0 0 0 0 -1.6919802724660258 0.22308588803218754 0 0.22308588803218754 -4.2186251265126202 0 0 0 0 -1.9180499265276012 0.87812585913269459 0 0.87812585913269459 0.098321904750719114 0 0 0 0 -2.7260104496490385 0.96184629905354768 0 0.96184629905354768 2.4332731243859342 0 0 0 0 1.8543201846273405 2.3388380010579226 0 2.3388380010579226 -4.7200168973394625 0 0 0 0 -3.1217110373621786 -1.0718005048556118 0 -1.0718005048556118 -0.24692797609406136 0 0 0 0 -3.4832596253290831 -1.7603612428167708 0 -1.7603612428167708 -1.4390225682516302 0 0 0 0 -7.1467761238745879 -1.0759215920365648 0 -1.0759215920365648 0.69314793950422882 0 0 0 0 -0.38866419532496366 -2.6363034928351681 0 -2.6363034928351681 -4.1137719667514148 0 0 0 0 -0.28593866123057055 -0.24875268930274363 0 -0.24875268930274363 -0.10520488013133678 0 0 0 0 -4.1188794454970417 -1.1975987711308183 0 -1.1975987711308183 -0.25922859915844365 0 0 0 0 -7.9303144804539443 -3.8049836234906707 0 -3.8049836234906707 0.71258143787378003 0 0 0 0 -5.7029670815263671 -1.6850950953496593 0 -1.6850950953496593 -0.23012041041914699 0 0 0 0 -1.0026943085449602 -0.14053014116745999 0 -0.14053014116745999 -0.56543574466167001 0 0 0 0 -2.3432876845863575 -0.72316662627554251 0 -0.72316662627554251 1.47019752440292 0 0 0 0 -0.59548427948607241 2.0312067355057764 0 2.0312067355057764 0.3553535258431566 0 0 0 0 -2.3076353068421405 -0.17075793594323119 0 -0.17075793594323119 0.1788231332079373 0 0 0 0 -1.6381588114309125 -0.0075953965083499497 0 -0.0075953965083499497 1.4223911528474673 0 0 0 0 -4.2901115651687363 -0.49534831843113647 0 -0.49534831843113647 0.14042908773702245 0 0 0 0 -5.0977683551909649 -0.15290290287694575 0 -0.15290290287694575 -1.1937906619001808 0 0 0 0 -3.5087295209374982 -0.32772691079317262 0 -0.32772691079317262 0.35822272912733155 0 0 0 0 -4.9472578938914804 -0.36174927074581564 0 -0.36174927074581564 0.46459636147002392 0 0 0 0 -5.3361108760891511 -3.4355013242611108 0 -3.4355013242611108 1.2639452314352297 0 0 0 0 -6.4803916225180274 -1.9865369286261796 0 -1.9865369286261796 -0.3343442473117193 0 0 0 0 -32.863408374541905 8.96005445755236 0 8.96005445755236 -3.7117287265577943 0 0 0 0 -5.8706459120212457 1.1275583240628606 0 1.1275583240628606 -2.6324762643276927 0 0 0 0 -9.7132661390946851 -1.2688262083545965 0 -1.2688262083545965 1.7480487172253447 0 0 0 0 -0.95370680424513399 0.036617229021594255 0 0.036617229021594255 -0.091660622890744836 0 0 0 0 33.789628321050259 2.4557599138427122 0 2.4557599138427122 -21.193060921909364 0 0 0 0 -4.3753415114720831 -0.19429290836331914 0 -0.19429290836331914 0.61614588561695249 0 0 0 0 -6.9301668142056769 -2.6277392258029693 0 -2.6277392258029693 0.4150682021203238 0 0 0 0 -4.6980281865842706 -1.0001777418607016 0 -1.0001777418607016 0.63369241758002914 0 0 0 0 -0.85030476854626613 -1.3866835636804922 0 -1.3866835636804922 0.037518638908863977 0 0 0 0 -1.5864321135532009 0.018901054570278575 0 0.018901054570278575 -3.4629800325233191 0 0 0 0 -1.4400245257072797 -1.1871061895763031 0 -1.1871061895763031 -0.42403099320069515 0 0 0 0 -7.4334021319073145 -4.3299100503323587 0 -4.3299100503323587 -3.2931836994886794 0 0 0 0 -10.818727624217445 -0.99218139577943987 0 -0.99218139577943987 1.1848197186765219 0 0 0 0 -10.205276888328626 -0.39901439510232706 0 -0.39901439510232706 -0.73124210680467883 0 0 0 0 -2.223198858721434 -0.58136652682130752 0 -0.58136652682130752 0.078605148679493642 0 0 0 0 -8.6287441594304255 -1.272307087448965 0 -1.272307087448965 -0.062848683546690154 0 0 0 0 -13.928943684670685 -3.2654378296905833 0 -3.2654378296905833 3.4106389045557606 0 0 0 0 -5.2990284881112348 -0.96534658084639768 0 -0.96534658084639768 0.38405959106266535 0 0 0 0 -4.6702300788636073 -0.79674865811726381 0 -0.79674865811726381 0.36348369673987524 0 0 0 0 -4.0166311299922199 -1.138292475656602 0 -1.138292475656602 1.3150152514272975 0 0 0 0 -3.7140620827560067 -1.6050347353585628 0 -1.6050347353585628 -0.93464243572732919 0 0 0 0 -7.6158593208341472 -3.9103572424539985 0 -3.9103572424539985 -3.359688680803572 0 0 0 0 -1.729189158286208 -2.9149444684201606 0 -2.9149444684201606 -1.3780529929537626 0 0 0 0 -16.365910534642353 -2.7988450301299626 0 -2.7988450301299626 0.35251580001956206 0 0 0 0 -0.63515931216011268 2.4377384586409661 0 2.4377384586409661 -1.0094995560501125 0 0 0 0 -5.1053224346688353 -1.1387602191455528 0 -1.1387602191455528 0.015352673175954124 0 0 0 0 -1.2170081076827044 -0.02211044817357255 0 -0.02211044817357255 0.3514286415925022 0 0 0 0 -0.10063193414201521 0.053529301299399368 0 0.053529301299399368 0.084016174460691123 0 0 0 0 -18.10099763836962 -8.6047685323080891 0 -8.6047685323080891 -2.3750870086868634 0 0 0 0 -0.2109358269437922 0.17001727097286867 0 0.17001727097286867 0.04069006969993702 0 0 0 0 -1.6578411445691983 -0.36536631907616135 0 -0.36536631907616135 0.3911832719950824 0 0 0 0 -14.56591534395335 -5.2751474686387745 0 -5.2751474686387745 -1.3421284913888627 0 0 0 0 -9.1305246192723644 -4.8837830803034308 0 -4.8837830803034308 -2.045715994022018 0 0 0 0 0.55168666884776485 -0.75965435469802145 0 -0.75965435469802145 0.32441025053438466 0 0 0 0 -6.5938078789873771 -2.485491762666431 0 -2.485491762666431 -1.8371872152867184 0 0 0 0 -10.845802087102129 -2.19302825739166 0 -2.19302825739166 0.23851802594694504 0 0 0 0 -11.343494757692497 -0.28881276069296291 0 -0.28881276069296291 -0.7603876358923003 0 0 0 0 -12.442892614942593 -5.922360613658924 0 -5.922360613658924 -3.2121582760688021 0 0 0 0 -8.966896050476862 -1.6225777416641733 0 -1.6225777416641733 0.24902567326878522 0 0 0 0 -6.691855522144067 -2.2692175060697668 0 -2.2692175060697668 0.25412934795571118 0 0 0 0 -5.3026416845435946 -2.0806387357713199 0 -2.0806387357713199 -0.23154080205233102 0 0 0 0 -9.0741069763041651 -5.8956003874292762 0 -5.8956003874292762 0.58288218154726223 0 0 0 0 -5.2510173815558456 -1.5158274368182003 0 -1.5158274368182003 -0.399135980269402 0 0 0 0 -6.6339081424252981 -3.8539758084673394 0 -3.8539758084673394 -1.652555048233495 0 0 0 0 -13.580007296091253 2.7695201319727083 0 2.7695201319727083 -3.9120591469069019 0 0 0 0 -0.87269022051100364 4.0584274424046498 0 4.0584274424046498 -7.1561131681758603 0 0 0 0 -4.9342636921122232 -2.4849502135448462 0 -2.4849502135448462 -0.55367945830957266 0 0 0 0 -3.1121971476441104 -3.5567411473820698 0 -3.5567411473820698 0.5950421731630513 0 0 0 0 -12.807009123408534 -5.2926145803958162 0 -5.2926145803958162 2.2041008576395456 0 0 0 0 -4.5340229454601584 -2.8165028914107397 0 -2.8165028914107397 -1.1714304524375696 0 0 0 0 -6.2001999531054803 -1.7733880669257669 0 -1.7733880669257669 -0.36416975345514169 0 0 0 0 -3.5676365813379789 -4.8158041249912529 0 -4.8158041249912529 -14.253550173548952 0 0 0 0 0.3363818488245478 -0.087213157868488933 0 -0.087213157868488933 -0.11797004555453526 0 0 0 0 -1.6458860951658778 -2.6876550426477408 0 -2.6876550426477408 -9.987649379644381 0 0 0 0 -3.760390327412324 -3.8067256986438167 0 -3.8067256986438167 -5.8578914592875826 0 0 0 0 -6.2812485362640018 -1.3608142408167421 0 -1.3608142408167421 -1.5891115364260049 0 0 0 0 -4.1541313736256598 -1.9034807651792818 0 -1.9034807651792818 1.3955957387847349 0 0 0 0 -6.3950206584038369 -2.0449249670893632 0 -2.0449249670893632 -4.7227997228179559 0 0 0 0 -6.2848199307835451 -2.7674950436055932 0 -2.7674950436055932 -0.026864449155096046 0 0 0 0 -6.706338184751762 -1.0702069649449215 0 -1.0702069649449215 0.15039065589096545 0 0 0 0 22.694529233768435 -11.754722154182261 0 -11.754722154182261 2.3354566001440844 0 0 0 0 26.106284585417484 -3.7851827127004913 0 -3.7851827127004913 -29.083527924158176 0 0 0 0 -0.84458785770125955 -0.95275812281199368 0 -0.95275812281199368 0.14747056900874456 0 0 0 0 -7.0549067112734747 -17.828548008540423 0 -17.828548008540423 -4.9569986164111413 0 0 0 0 -9.2361112212140597 4.0144076128590314 0 4.0144076128590314 13.929932960936938 0 0 0 0 13.681522591794492 0.64395314397227976 0 0.64395314397227976 -2.5029490775557974 0 0 0 0 -32.753582962438941 17.375856426936878 0 17.375856426936878 8.3222030823532975 0 0 0 0 13.410873738636063 21.286506759996609 0 21.286506759996609 -30.42861754930442 0 0 0 0 5.6171573361680203 -5.6932700197550616 0 -5.6932700197550616 1.2313417673532854 0 0 0 0 -5.9553978955418643 -4.7751670098626917 0 -4.7751670098626917 2.4853208406495071 0 0 0 0 -1.6081417270065685 2.1926489353434704 0 2.1926489353434704 -1.5166896067354969 0 0 0 0 -4.3107888528447287 -2.1528515371634569 0 -2.1528515371634569 -0.13777138674268974 0 0 0 0 -5.5816748084930623 -0.95995986096352226 0 -0.95995986096352226 0.21197634598154025 0 0 0 0 -5.6435249496948927 -2.0018400291746516 0 -2.0018400291746516 -0.23740953004167409 0 0 0 0 -5.0353356110790628 -1.4114408836406138 0 -1.4114408836406138 0.53792730459861104 0 0 0 0 -4.4366223187075775 -0.71043127579233989 0 -0.71043127579233989 -0.12709761525606389 0 0 0 0 -4.736096645059888 -0.9421799276238243 0 -0.9421799276238243 2.2635093893382567 0 0 0 0 -4.9455825952555248 -0.92024694990763756 0 -0.92024694990763756 0.59236580537053884 0 0 0 0 -32.393284285117602 -17.257254249932799 0 -17.257254249932799 13.426549799241485 0 0 0 0 -4.9014283086431485 -0.86834178023901032 0 -0.86834178023901032 0.75287367434914398 0 0 0 0 -4.2272674360610063 0.12254745947137369 0 0.12254745947137369 -0.10408066660992926 0 0 0 0 -4.7650566079896635 1.8343156445256739 0 1.8343156445256739 1.6754615957730579 0 0 0 0 -4.1496037303122648 -0.12219695995571556 0 -0.12219695995571556 -0.32445702077207272 0 0 0 0 -8.049386545694432 19.797886874734047 0 19.797886874734047 37.846676079930546 0 0 0 0 -7.5870276707214543 3.1063551367322191 0 3.1063551367322191 2.3855880636724942 0 0 0 0 -4.9822622997133408 0.92130985057655601 0 0.92130985057655601 -0.023835927677151134 0 0 0 0 -227.64621589867502 87.555823370537809 0 87.555823370537809 71.775330924652053 0 0 0 0 -2.1233933837271781 0.58173025898387887 0 0.58173025898387887 -0.037692643474734402 0 0 0 0 42.503298314400581 -86.206307556686497 0 -86.206307556686497 67.167910767773819 0 0 0 0 -0.46901527522266839 -0.65171412367411152 0 -0.65171412367411152 0.026216418377515725 0 0 0 0 -4.9434191747500904 4.6325765446893676 0 4.6325765446893676 -5.424082513385116 0 0 0 0 -7.154123404070786 -0.51023821885846576 0 -0.51023821885846576 0.27348058808275089 0 0 0 0 160.27959513111659 85.644742452351196 0 85.644742452351196 -165.56049494671007 0 0 0 0 4.4847858546713724 3.0256432142133338 0 3.0256432142133338 -1.6775204445740979 0 0 0 0 4.029357656234879 27.072437373058669 0 27.072437373058669 -36.589297110657569 0 0 0 0 -79.188521093615236 63.728891825683661 0 63.728891825683661 -18.785153046670558 0 0 0 0 -188.54322515567719 66.490248586974857 0 66.490248586974857 -12.130880981688804 0 0 0 0 -167.1071756777452 -91.079969133383344 0 -91.079969133383344 -35.537398301614353 0 0 0 0 -0.80612264904720732 0.91051110479009689 0 0.91051110479009689 -1.4077863851112575 0 0 0 0 23.260377463428426 41.762382421991013 0 41.762382421991013 17.851740555419724 0 0 0 0 -217.13646887849188 -14.511803651087057 0 -14.511803651087057 13.730155859249518 0 0 0 0 -154.88391251976498 -31.981392274257637 0 -31.981392274257637 -8.736038696949187 0 0 0 0 -74.435350348219799 -5.0501222271047972 0 -5.0501222271047972 -17.593007338917786 0 0 0 0 -92.859311580595659 -6.4554416845390818 0 -6.4554416845390818 -1.2139497758324822 0 0 0 0 -57.712756157890226 -20.041612020822814 0 -20.041612020822814 -17.215048042790865 0 0 0 0 -79.750791695605074 -49.144299245429742 0 -49.144299245429742 -50.019145421935313 0 0 0 0 -53.055579220600976 -23.282208544356386 0 -23.282208544356386 -15.377344126628543 0 0 0 0 -68.718369509753302 -8.4115162221763171 0 -8.4115162221763171 -3.0234216448669144 0 0 0 0 -53.617150687274716 11.200439506739606 0 11.200439506739606 11.778439373859534 0 0 0 0 -5.2401175950599281 -6.5530214789126404 0 -6.5530214789126404 -7.4380937909530989 0 0 0 0 14.543010732453467 40.21901687453957 0 40.21901687453957 -6.1644085324598628 0 0 0 0 -88.616671599847564 12.614700467884562 0 12.614700467884562 0.63946199729596032 0 0 0 0 -42.759819724872159 21.345287841340728 0 21.345287841340728 -4.5891524184770134 0 0 0 0 -1.318195162433266 -0.49313409842902522 0 -0.49313409842902522 3.6406161117025939 0 0 0 0 -235.10061560681592 17.894353563594663 0 17.894353563594663 73.832633244837666 0 0 0 0 -2.8284729724499127 3.2721682093516309 0 3.2721682093516309 -2.5942567271056407 0 0 0 0 -10.909502160914997 22.084081537407087 0 22.084081537407087 8.1754812006350335 0 0 0 0 -56.985853771404805 -24.547936662113873 0 -24.547936662113873 -13.077861183921172 0 0 0 0 0.21729179955206235 -0.56102733267674409 0 -0.56102733267674409 0.86225411406725316 0 0 0 0 -63.847553661961058 -9.8341240632523821 0 -9.8341240632523821 35.24808931175366 0 0 0 0 -24.852727279627818 -25.805806891201712 0 -25.805806891201712 18.440344664938195 0 0 0 0 21.36354536335358 -1.3441732007654963 0 -1.3441732007654963 2.9736658968233769 0 0 0 0 -34.549898449602495 27.036581780100946 0 27.036581780100946 14.70042978055379 0 0 0 0 -212.80140054055539 267.04817186392148 0 267.04817186392148 -94.932614278534913 0 0 0 0 -499.35120561469068 138.46097052274501 0 138.46097052274501 125.60685199616684 0 0 0 0 -299.04582416513438 -3.8160462880439354 0 -3.8160462880439354 95.853868473146321 0 0 0 0 102.04238396493761 137.97762203853731 0 137.97762203853731 -97.265791871755226 0 0 0 0 -1.5480932407538863 0.91250218707413555 0 0.91250218707413555 -0.30996727749416858 0 0 0 0 109.59392245285471 27.972777808365578 0 27.972777808365578 -203.98086916049672 0 0 0 0 -0.86915555978711767 0.11415737157879685 0 0.11415737157879685 -0.067965110597480477 0 0 0 0 -469.61286376922175 149.46483564372869 0 149.46483564372869 -42.660998197726549 0 0 0 0 -18.470912042335385 1.3971933085709907 0 1.3971933085709907 4.7367279029131382 0 0 0 0 -265.52913738548204 -94.839675043147068 0 -94.839675043147068 -21.770700524532174 0 0 0 0 -2.0701998568672879 0.15653219594681667 0 0.15653219594681667 -0.38493916743241952 0 0 0 0 14.545226198992168 -3.3662577900400379 0 -3.3662577900400379 -9.0002661304966907 0 0 0 0 -14.197155120309318 2.2789378793439532 0 2.2789378793439532 -7.8168896137854063 0 0 0 0 37.650030295756551 8.2961307408417646 0 8.2961307408417646 0.037598937334867522 0 0 0 0 -2.1716642943338229 -0.37753592720196139 0 -0.37753592720196139 -1.3870513355048217 0 0 0 0 -3.9894244077684675 -1.0912482916204844 0 -1.0912482916204844 -0.2901602684178215 0 0 0 0 -2.1889606371052732 -0.51018247111492698 0 -0.51018247111492698 -0.49953847040319055 0 0 0 0 -1.7904280494349223 -1.0870513262811841 0 -1.0870513262811841 -1.7418573775343873 0 0 0 0 -498.00018232299283 52.958853668191331 0 52.958853668191331 73.719395007140747 0 0 0 0 33.722834106973949 22.48936379858246 0 22.48936379858246 -42.110774360414055 0 0 0 0 -184.75822783873446 -45.593296007629966 0 -45.593296007629966 14.531693404088202 0 0 0 0 -1.4276412230665478 -0.55248501508061776 0 -0.55248501508061776 -0.51617458260895077 0 0 0 0 42.448131238243604 198.07775146750751 0 198.07775146750751 -138.07259067495389 0 0 0 0 -0.64165312483735537 -0.35600173572970961 0 -0.35600173572970961 -0.43511287169837232 0 0 0 0 -496.29141325682212 -0.51641059666525457 0 -0.51641059666525457 -0.17374757738698518 0 0 0 0 -0.40899367016840849 -0.1245737036107466 0 -0.1245737036107466 -0.45501056147844693 0 0 0 0 -227.35392197599219 -45.326508969733311 0 -45.326508969733311 -3.9543644025130398 0 0 0 0 -70.140651445571621 -350.21243452314127 0 -350.21243452314127 -276.05617996539519 0 0 0 0 -499.51866597003732 -115.93249716824954 0 -115.93249716824954 86.121008627946395 0 0 0 0 -1.1023891775325119 0.19733593549562123 0 0.19733593549562123 -0.30525248713871811 0 0 0 0 -264.24867756349136 57.142559635110999 0 57.142559635110999 31.972791125823889 0 0 0 0 -29.452878023663374 -3.7984787719531665 0 -3.7984787719531665 -2.9363775022216405 0 0 0 0 -39.98095766367851 -68.230997113325259 0 -68.230997113325259 -60.845894312110062 0 0 0 0 -4.6703375286464128 -2.944250674895017 0 -2.944250674895017 -1.903784994612236 0 0 0 0 -3.8157725262317399 -1.7749865223957642 0 -1.7749865223957642 -2.300431514483023 0 0 0 0 -1.846869729699506 -0.48245302583876903 0 -0.48245302583876903 -0.60053298413643708 0 0 0 0 -5.6814286516564607 -0.65944976937774413 0 -0.65944976937774413 -0.091246088801426595 0 0 0 0 -3.6033638081226638 -1.1125868291198158 0 -1.1125868291198158 -0.47531263075455876 0 0 0 0 -5.2523671566505072 -0.53709999498785521 0 -0.53709999498785521 -0.45473308203239071 0 0 0 0 -4.9342804197054111 -1.0950060338909859 0 -1.0950060338909859 0.35514314121139057 0 0 0 0 -0.021917379792284919 8.5687625918316144 0 8.5687625918316144 -4.2902582625645209 0 0 0 0 -0.18106231873022161 0.23880208406869796 0 0.23880208406869796 0.097064758428277886 0 0 0 0 -5.4693150810253428 0.39456947054088687 0 0.39456947054088687 4.7653354010801081 0 0 0 0 -14.081428986562969 5.7147474491941352 0 5.7147474491941352 14.297893109479503 0 0 0 0 -10.537660198152935 4.1252383639248364 0 4.1252383639248364 -0.32291393265131774 0 0 0 0 -13.624923366976418 -12.124556074306071 0 -12.124556074306071 24.111369178761834 0 0 0 0 -10.656955730922618 15.876760568893886 0 15.876760568893886 -17.1802436759329 0 0 0 0 -9.0341859303262027 5.5033244597108251 0 5.5033244597108251 0.94023183578815406 0 0 0 0 -7.2897905052632268 5.6028629510308292 0 5.6028629510308292 0.92983846962967576 0 0 0 0 -3.8467978069784294 2.2876764673043795 0 2.2876764673043795 0.15970309946132488 0 0 0 0 -3.7884431049242266 2.7870314166144681 0 2.7870314166144681 -0.060368357972322428 0 0 0 0 -8.1629494028729823 3.7280495331644943 0 3.7280495331644943 2.7665826173555956 0 0 0 0 -7.0365358658191326 6.056552668051566 0 6.056552668051566 -2.6557937182731166 0 0 0 0 1.7158948349569982 -0.53846439124725975 0 -0.53846439124725975 -2.8786645003473552 0 0 0 0 1.1107608750089639 0.92728896045525744 0 0.92728896045525744 -3.8722390650474381 0 0 0 0 -0.18724083585129847 3.1071315304814675 0 3.1071315304814675 -9.2101814193731855 0 0 0 0 -1.9428101193871044 -0.45947740189191677 0 -0.45947740189191677 -6.7030417324408234 0 0 0 0 -2.3098315101087792 -2.6565110807534147 0 -2.6565110807534147 -10.675323862679946 0 0 0 0 -5.2032686708839719 3.7632240125166234 0 3.7632240125166234 -7.3964403337402125 0 0 0 0 -2.2035486899931129 -1.4258458520231585 0 -1.4258458520231585 0.98363612127246114 0 0 0 0 4.5085332155834976 2.9075999008428903 0 2.9075999008428903 -5.899521997425353 0 0 0 0 -10.959761011409682 11.628569830693197 0 11.628569830693197 -60.418901064808587 0 0 0 0 -10.235116714791729 -3.6484416803101123 0 -3.6484416803101123 -15.699033516694543 0 0 0 0 -498.72157163912198 -224.92725020835678 0 -224.92725020835678 16.258945675900272 0 0 0 0 -499.20073975103287 109.30965076218939 0 109.30965076218939 22.048050901932818 0 0 0 0 -1.9856925495155622 -1.2070210841247646 0 -1.2070210841247646 -1.0376466207651918 0 0 0 0 -47.384066622493862 -139.97956163920068 0 -139.97956163920068 -179.29143185086588 0 0 0 0 -38.891613438211152 21.670862583559607 0 21.670862583559607 -11.113182850675402 0 0 0 0 -34.740628504582673 10.180772185217165 0 10.180772185217165 11.915205667897339 0 0 0 0 -46.594036664564555 -2.8897166914963606 0 -2.8897166914963606 -71.21765229423319 0 0 0 0 -50.61693150778774 45.528451440166265 0 45.528451440166265 -79.672079104157987 0 0 0 0 -110.25757654422705 2.72420740042371 0 2.72420740042371 -17.172237646083815 0 0 0 0 -37.07624021961783 24.465847643710841 0 24.465847643710841 -47.854668304621825 0 0 0 0 -29.206024860994148 26.824803602585774 0 26.824803602585774 -54.768127864405244 0 0 0 0 -55.25327343547724 8.2439475656301067 0 8.2439475656301067 -46.551208176139632 0 0 0 0 -44.38390446368021 20.807112458550016 0 20.807112458550016 -67.16089022290258 0 0 0 0 -56.63141041196036 -7.7390113078547973 0 -7.7390113078547973 -70.471138228992046 0 0 0 0 -45.841294707181532 22.854450167627608 0 22.854450167627608 -45.397259017215049 0 0 0 0 -29.823623263298941 27.847229246635131 0 27.847229246635131 -55.692451992815776 0 0 0 0 -27.032522939522096 6.6337514562635249 0 6.6337514562635249 -35.374882830521784 0 0 0 0 -21.691434999022022 18.136455181224093 0 18.136455181224093 -58.590003831886875 0 0 0 0 -25.375513779634275 14.556000807416467 0 14.556000807416467 -25.578416729139434 0 0 0 0 -39.285784493311439 -10.408519374632 0 -10.408519374632 -3.6890556872701268 0 0 0 0 -25.970216584020818 -24.110131122665095 0 -24.110131122665095 24.28440880467457 0 0 0 0 -8.2723627762752585 -8.7876782510755049 0 -8.7876782510755049 -4.4733347576340918 0 0 0 0 -18.066338266538878 0.25791523429211338 0 0.25791523429211338 23.14035805604027 0 0 0 0 22.377795713742671 -8.5707739023848717 0 -8.5707739023848717 25.054634853651635 0 0 0 0 -11.817644211630977 -12.295490041104415 0 -12.295490041104415 26.555723665015989 0 0 0 0 -23.813232760091523 21.493794377315993 0 21.493794377315993 10.134245610475375 0 0 0 0 -10.006512032750834 -4.4842308253191732 0 -4.4842308253191732 -8.8043343095078512 0 0 0 0 -11.002400056993793 6.5465896766569927 0 6.5465896766569927 17.122651095972856 0 0 0 0 -60.423462889838447 17.665787473170028 0 17.665787473170028 22.763843576404668 0 0 0 0 -36.408679746791677 20.19689953343665 0 20.19689953343665 51.231151008681422 0 0 0 0 -30.089479546884832 24.722773708158286 0 24.722773708158286 24.268737179513494 0 0 0 0 -22.003304306553218 11.521839924157071 0 11.521839924157071 -24.520738171442019 0 0 0 0 -40.386327091893691 15.595528250830874 0 15.595528250830874 -23.969626747730146 0 0 0 0 -107.84478945391311 24.35718057144139 0 24.35718057144139 -4.6727440173958996 0 0 0 0 -46.636683364623423 36.077136228689419 0 36.077136228689419 -2.489194192468517 0 0 0 0 -64.837390701822187 36.915488098575594 0 36.915488098575594 -1.0859136482897327 0 0 0 0 -64.69383528477556 27.971118630068645 0 27.971118630068645 29.563328912584609 0 0 0 0 -64.051052827337571 37.680858464323961 0 37.680858464323961 -0.43965477594466051 0 0 0 0 -49.891201105119762 31.664436832272163 0 31.664436832272163 2.1155534593602425 0 0 0 0 0.010715244955245673 0.16525388702102362 0 0.16525388702102362 0.41441642360654629 0 0 0 0 -0.04673842831626196 -0.52089959895918625 0 -0.52089959895918625 1.6034171117392342 0 0 0 0 -3.8285102786867355 2.7052677950764519 0 2.7052677950764519 -0.27406883626012046 0 0 0 0 -2.5562352007177651 1.5996907409962802 0 1.5996907409962802 0.40222663630743227 0 0 0 0 -3.6202760793839843 1.0001173960867504 0 1.0001173960867504 0.1519238372827374 0 0 0 0 -6.1094031085954157 0.91968238213209474 0 0.91968238213209474 1.6599665368240437 0 0 0 0 -2.5328256372013129 -0.58072221068215413 0 -0.58072221068215413 2.2219771100151036 0 0 0 0 -2.5133139678659973 -0.047301205283922343 0 -0.047301205283922343 1.1140230387009069 0 0 0 0 -1.6362276399453854 -0.15661407634605062 0 -0.15661407634605062 1.1828029055819185 0 0 0 0 -3.4410886748614757 1.4660429161456783 0 1.4660429161456783 1.2258025632975489 0 0 0 0 -3.6007621000626386 0.42082833694206201 0 0.42082833694206201 1.4457177889355277 0 0 0 0 -1.7916771724802061 0.18157121058979264 0 0.18157121058979264 0.9509051237512538 0 0 0 0 -3.8587814452946532 2.4519505322064594 0 2.4519505322064594 -1.7193974431045405 0 0 0 0 -2.1728477390958858 -0.61872010272021782 0 -0.61872010272021782 0.35584700176504647 0 0 0 0 -1.7657634291117574 0.067761185425268877 0 0.067761185425268877 2.1057677258305603 0 0 0 0 -2.3423473515486393 0.3495353508287744 0 0.3495353508287744 0.7695188980094928 0 0 0 0 -1.6982803510181839 0.1383318604996191 0 0.1383318604996191 0.92545934010458097 0 0 0 0 -21.068791762965702 32.95762964364279 0 32.95762964364279 -57.261386616163655 0 0 0 0 -67.29786397157477 59.321713522622481 0 59.321713522622481 -28.699194907418544 0 0 0 0 -0.96180212852190294 0.44531902142504975 0 0.44531902142504975 -0.10643945391675913 0 0 0 0 -4.2513072469346298 1.1938347893491272 0 1.1938347893491272 1.235157069890505 0 0 0 0 1.9414896206817502 8.7538773693787704 0 8.7538773693787704 -36.106033097207074 0 0 0 0 -0.61554162598022977 0.32674742088970277 0 0.32674742088970277 0.64846791171924556 0 0 0 0 -8.0860908120507702 -21.234987010893523 0 -21.234987010893523 -31.21888625594179 0 0 0 0 -3.3434666549010217 1.1810958759835608 0 1.1810958759835608 0.094174926217064581 0 0 0 0 -2.9628429722416669 0.74905549203890143 0 0.74905549203890143 0.98484965965121807 0 0 0 0 -4.9029093190638378 1.0248611743295157 0 1.0248611743295157 -0.9948079604931479 0 0 0 0 -1.0153307982564002 -5.4458300709143881 0 -5.4458300709143881 -20.132602993044031 0 0 0 0 -0.79581124765682887 0.017412428083769527 0 0.017412428083769527 -0.037536564638984915 0 0 0 0 -54.428484462079723 -33.498727723148477 0 -33.498727723148477 -33.042314900445461 0 0 0 0 -41.75702545121203 -2.3913635421403896 0 -2.3913635421403896 -20.046480270026382 0 0 0 0 -45.379078204190591 -32.02293462868117 0 -32.02293462868117 -18.894925399993465 0 0 0 0 -24.188876827522108 -15.27897889456284 0 -15.27897889456284 -5.6815134026003165 0 0 0 0 -17.984893446440765 -24.160189690129151 0 -24.160189690129151 -21.126988007769427 0 0 0 0 -24.155275870107289 -21.605039123294986 0 -21.605039123294986 -5.4892501027274143 0 0 0 0 -23.170560611053588 -18.291497955551662 0 -18.291497955551662 5.4228087575662869 0 0 0 0 -32.10281739912989 -21.698078324855899 0 -21.698078324855899 11.689470354935978 0 0 0 0 -6.5836640281377186 -0.043710317509905394 0 -0.043710317509905394 1.8976830758958876 0 0 0 0 -3.7537242310399961 -6.2786151369597611 0 -6.2786151369597611 -4.4178624310169283 0 0 0 0 -9.0487331666554383 -10.40767358627798 0 -10.40767358627798 -6.6787741548870621 0 0 0 0 -8.9236481786047079 -11.089708362055362 0 -11.089708362055362 -4.7570895117672478 0 0 0 0 -13.395026883247738 -10.127940287046266 0 -10.127940287046266 0.59063007692219571 0 0 0 0 -15.138632780111948 -16.648386684918421 0 -16.648386684918421 -6.7849173573965764 0 0 0 0 -16.117089950610534 -8.3419196823974744 0 -8.3419196823974744 2.4890486827085141 0 0 0 0 -10.475678118636097 -2.0560993901046274 0 -2.0560993901046274 -0.24583559541559907 0 0 0 0 -12.11983025411914 -2.218688896481126 0 -2.218688896481126 0.19355491997642105 0 0 0 0 -18.465973022008257 -1.8713754120631236 0 -1.8713754120631236 1.0940459321876759 0 0 0 0 -25.429521829761143 -7.638398726426793 0 -7.638398726426793 3.7484510563279017 0 0 0 0 -23.438253841982714 -11.999738995960261 0 -11.999738995960261 10.384261285968648 0 0 0 0 -54.640236968647514 -12.67729446926883 0 -12.67729446926883 14.224348651036934 0 0 0 0 -0.025365097165195749 -0.016512739163371037 0 -0.016512739163371037 0.015869575045144524 0 0 0 0 -15.263313353601006 -1.7307065591949851 0 -1.7307065591949851 0.66971935223493517 0 0 0 0 -14.003936482191421 -2.487399904985395 0 -2.487399904985395 0.67175310603759897 0 0 0 0 -11.605759374771424 -4.3196982588768726 0 -4.3196982588768726 16.120969477954787 0 0 0 0 -32.037632937703165 -10.728201094977223 0 -10.728201094977223 11.475089697112608 0 0 0 0 -19.976470725243416 -23.677309714804466 0 -23.677309714804466 4.3877260834414642 0 0 0 0 -40.76403627383479 -27.195376409726212 0 -27.195376409726212 8.0627609439077332 0 0 0 0 -16.434348962644435 -6.5999521667413106 0 -6.5999521667413106 40.870111725552519 0 0 0 0 -1.3344201402498257 0.40863998775821742 0 0.40863998775821742 -0.022531584267736993 0 0 0 0 -19.752766161755062 18.91057701697828 0 18.91057701697828 57.286443717617104 0 0 0 0 -1.495935898867657 0.4564125601365383 0 0.4564125601365383 0.00020052360687733417 0 0 0 0 -18.16709327800254 21.857890091458572 0 21.857890091458572 71.288497038994336 0 0 0 0 -8.2511749102577596 -8.5642223483725672 0 -8.5642223483725672 26.053070973446779 0 0 0 0 2.3534404348729367 9.0098692574249313 0 9.0098692574249313 20.535048719496302 0 0 0 0 -27.808375628554131 -6.930705564738048 0 -6.930705564738048 20.217513547515072 0 0 0 0 -19.187230097925749 -6.3555154400198006 0 -6.3555154400198006 -7.2127706295386105 0 0 0 0 -9.9742587702589844 16.631056645877479 0 16.631056645877479 -6.462753488558306 0 0 0 0 -35.421352654828297 9.3743815369491799 0 9.3743815369491799 -8.199482109439387 0 0 0 0 -44.878891619734873 26.187930896571828 0 26.187930896571828 -22.692370512210985 0 0 0 0 -31.245458692699685 15.929710921407828 0 15.929710921407828 -45.316560711136006 0 0 0 0 -42.983753807349785 -9.4578290131224065 0 -9.4578290131224065 -7.307682675376526 0 0 0 0 -41.973257704125444 26.526877754455867 0 26.526877754455867 -23.19168681525845 0 0 0 0 -24.08676500254478 30.522398544322598 0 30.522398544322598 -22.586223661872395 0 0 0 0 -94.542592736223924 34.395437369207485 0 34.395437369207485 12.478748846256281 0 0 0 0 -103.69176667069542 3.825402865725156 0 3.825402865725156 10.309298556912978 0 0 0 0 -0.68073968987008726 0.2390481573966543 0 0.2390481573966543 -0.037125451466327453 0 0 0 0 -7.9468313522720564 59.079333654325822 0 59.079333654325822 14.860317446042671 0 0 0 0 -9.4825864265130804 11.203260779053664 0 11.203260779053664 26.239244248149944 0 0 0 0 -74.527428092105765 -39.703134646968159 0 -39.703134646968159 23.729713064280531 0 0 0 0 -115.68533192579071 6.7212843104387545 0 6.7212843104387545 44.03734108457877 0 0 0 0 -93.108914975064181 36.232111496536291 0 36.232111496536291 24.289622977848268 0 0 0 0 -71.174005731930265 15.308353192919228 0 15.308353192919228 32.37106326960199 0 0 0 0 -72.568219292963477 -2.7835657839265764 0 -2.7835657839265764 -11.434211973502393 0 0 0 0 -57.299296585763841 16.118565722593772 0 16.118565722593772 0.67045795554921028 0 0 0 0 -51.124623373416398 1.1422970893770525 0 1.1422970893770525 13.332388950382736 0 0 0 0 -67.012562920833261 29.47142020045591 0 29.47142020045591 66.307444314143311 0 0 0 0 -33.516052133325502 -6.9020160912177175 0 -6.9020160912177175 16.695091513378685 0 0 0 0 24.00946281195138 29.284518657998888 0 29.284518657998888 29.571154785323159 0 0 0 0 0.063859247673658359 -0.16385420748051871 0 -0.16385420748051871 0.44098178075760397 0 0 0 0 -29.439458053906492 1.4583135640290834 0 1.4583135640290834 57.751299608172673 0 0 0 0 -20.345104210059617 -15.495403448725568 0 -15.495403448725568 19.337354635544614 0 0 0 0 0.92716850373835769 11.91467756112894 0 11.91467756112894 17.275734298476721 0 0 0 0 -27.541642441375188 0.71204122169596218 0 0.71204122169596218 1.2312551932785425 0 0 0 0 -12.578477696717528 -5.0646798749500199 0 -5.0646798749500199 0.65041483948142842 0 0 0 0 -7.4795675643754294 2.3377125919918509 0 2.3377125919918509 0.61341978288587029 0 0 0 0 0.29411514036699771 -0.56956826897178559 0 -0.56956826897178559 1.2344000428793027 0 0 0 0 -1.4862772646820304 -3.7313372229240471 0 -3.7313372229240471 4.8665049347509921 0 0 0 0 0.10309776208859844 -1.1739144267691799 0 -1.1739144267691799 2.0655390154663507 0 0 0 0 -2.6663764316729726 -0.60649265763240745 0 -0.60649265763240745 0.784582795239121 0 0 0 0 -13.482831095749134 2.3869487897867501 0 2.3869487897867501 10.162502987956884 0 0 0 0 -1.2083722167353699 -5.2880327828776572 0 -5.2880327828776572 -3.6453884448896794 0 0 0 0 -30.84369082167359 23.123698378688275 0 23.123698378688275 -12.457087277017834 0 0 0 0 -19.234051978139178 -5.0426207554205291 0 -5.0426207554205291 2.2337912854531154 0 0 0 0 -83.814791037142641 7.7960812471526566 0 7.7960812471526566 0.29819462355368032 0 0 0 0 -104.55122622555064 -7.7531845470140013 0 -7.7531845470140013 3.3435042079174639 0 0 0 0 -79.638666832145191 -1.5786475277824579 0 -1.5786475277824579 4.5232460213499053 0 0 0 0 -24.856415770732383 13.352799960432389 0 13.352799960432389 -13.547417968742394 0 0 0 0 -0.32637207746338248 -0.3189076781781619 0 -0.3189076781781619 -0.19669231339398541 0 0 0 0 -2.1284690379629865 -4.9723372146768128 0 -4.9723372146768128 13.646313293319338 0 0 0 0 -33.013134269937837 -5.3789355699271084 0 -5.3789355699271084 22.132904908664074 0 0 0 0 -29.531699025459602 -26.07122357396733 0 -26.07122357396733 5.1857654963625919 0 0 0 0 -22.941579581372935 -17.062571872100051 0 -17.062571872100051 15.542903503243991 0 0 0 0 -23.733126164072928 -13.664288271801155 0 -13.664288271801155 27.708970715267697 0 0 0 0 -2.919430151933966 -1.4453584914306958 0 -1.4453584914306958 6.4016458318458263 0 0 0 0 -8.0387337221691268 -1.8828660902843239 0 -1.8828660902843239 9.6422988437536787 0 0 0 0 -8.981448815261956 -5.6702340743401294 0 -5.6702340743401294 1.3903542509676754 0 0 0 0 2.3954370743122126 6.7486951047935122 0 6.7486951047935122 6.0447479801167958 0 0 0 0 -0.064155921752579559 -0.066213593429644391 0 -0.066213593429644391 0.92166674226480927 0 0 0 0 -5.9926397432009253 -3.1049909532958395 0 -3.1049909532958395 10.736716758309626 0 0 0 0 -17.838172944631879 7.388123003066994 0 7.388123003066994 4.2067323863458341 0 0 0 0 0.31908912981089088 -17.244659097559179 0 -17.244659097559179 18.118307432811022 0 0 0 0 -22.420637869032362 3.163868155813546 0 3.163868155813546 14.733141503285992 0 0 0 0 -10.50695495272339 1.0403059077894454 0 1.0403059077894454 -17.214078173144799 0 0 0 0 -25.951927906632591 9.2508189484241825 0 9.2508189484241825 6.3893159531612014 0 0 0 0 -12.4032165623114 -35.436325236730006 0 -35.436325236730006 -2.9479083096293834 0 0 0 0 -10.848366439473466 -20.016454244368447 0 -20.016454244368447 16.883630618832285 0 0 0 0 -8.4882849830601117 -18.656833910344659 0 -18.656833910344659 -3.4031517888491862 0 0 0 0 2.5970206249585317 -23.000155713798847 0 -23.000155713798847 -21.783778285355453 0 0 0 0 -0.11446564840844076 -1.7505185446512996 0 -1.7505185446512996 -5.0497028566436484 0 0 0 0 -7.9180126323999502 -6.9761859051662896 0 -6.9761859051662896 -2.4433142942639279 0 0 0 0 -6.2999715221194492 -9.4317328352911716 0 -9.4317328352911716 0.099177494424111501 0 0 0 0 -15.483119509011885 -9.3101550412848155 0 -9.3101550412848155 2.5651450781231233 0 0 0 0 27.523154204705634 -10.664430409266153 0 -10.664430409266153 1.0559845508503258 0 0 0 0 -0.0056292665081878468 0.042500838531108087 0 0.042500838531108087 0.2806018209904928 0 0 0 0 -4.9748212009126291 -10.513433377927583 0 -10.513433377927583 0.072511866079308263 0 0 0 0 7.115680453072855 -0.40306494909009416 0 -0.40306494909009416 0.4695607228121581 0 0 0 0 -18.285461328497718 -5.7503265508027539 0 -5.7503265508027539 17.313175839415408 0 0 0 0 -1.0805279051748684 -0.45255258159927081 0 -0.45255258159927081 3.3715256054148184 0 0 0 0 -2.6477764621349706 0.075429947862012625 0 0.075429947862012625 1.3194021931240059 0 0 0 0 -17.837297387572107 0.54165912225960255 0 0.54165912225960255 3.7302498488687377 0 0 0 0 -11.020337241430752 -5.6600453486653066 0 -5.6600453486653066 3.5481475211813915 0 0 0 0 -3.6590780685637583 -5.1619197744803387 0 -5.1619197744803387 0.13554835678030486 0 0 0 0 -6.4540371350940404 -1.1377304426474808 0 -1.1377304426474808 2.0414707115748456 0 0 0 0 -17.311587975058501 -5.6673999134581834 0 -5.6673999134581834 2.5544779507615374 0 0 0 0 -19.958296873053769 -2.8584158709555183 0 -2.8584158709555183 9.8759086867049177 0 0 0 0 -5.0734009005973348 1.7481293828790854 0 1.7481293828790854 2.5653425838704038 0 0 0 0 -19.765356720168256 -2.6766085543886931 0 -2.6766085543886931 4.5504400761269039 0 0 0 0 -1.5570245968883683 -2.1987183820290994 0 -2.1987183820290994 3.6161357027593226 0 0 0 0 -6.1967456163656607 -0.5650260964231677 0 -0.5650260964231677 5.4224109466890695 0 0 0 0 -0.19171881466536433 -3.7567072837155706 0 -3.7567072837155706 2.2625044167652959 0 0 0 0 0.0278658543684287 -3.86307352918692 0 -3.86307352918692 7.7132873406919771 0 0 0 0 -1.1293278510975142 -4.4895973398423195 0 -4.4895973398423195 7.5241340319374785 0 0 0 0 -0.40739506843237905 -1.3477045062328159 0 -1.3477045062328159 1.2083095976305032 0 0 0 0 -5.9812179773898606 -2.1286546487248046 0 -2.1286546487248046 2.7875787406088079 0 0 0 0 -0.5639577627908956 -0.60613798557389487 0 -0.60613798557389487 3.6695089301609922 0 0 0 0 -2.2298967743779485 0.91548407207032056 0 0.91548407207032056 0.80831345334260618 0 0 0 0 0.033525142191509261 0.095733274072561159 0 0.095733274072561159 0.89303411250089848 0 0 0 0 1.5678905024938103 -3.4860422066307422 0 -3.4860422066307422 -3.5391276510363241 0 0 0 0 5.9743462506537526 1.6486921087924458 0 1.6486921087924458 -1.2473305081352919 0 0 0 0 -3.4756504837023385 -7.1770114235117148 0 -7.1770114235117148 -1.594364759906636 0 0 0 0 -0.78195162668113838 -0.61212649828941679 0 -0.61212649828941679 4.2752238930854993 0 0 0 0 -1.2351086201210819 -4.175628627144965 0 -4.175628627144965 6.2608662867054932 0 0 0 0 5.8438998680958321 0.89112496582765743 0 0.89112496582765743 0.2788271119534329 0 0 0 0 -0.41309146362496829 -0.63109787562039443 0 -0.63109787562039443 1.5315427111638482 0 0 0 0 -0.73253907564867404 0.18924681795465403 0 0.18924681795465403 1.697046306518132 0 0 0 0 3.8700850204768358 3.1533818145865098 0 3.1533818145865098 0.2572877732093275 0 0 0 0 4.264083470661717 -1.4129560336800751 0 -1.4129560336800751 4.2377514190638976 0 0 0 0 3.2741739669036178 0.37950811404380147 0 0.37950811404380147 1.4146197632517215 0 0 0 0 -2.5599394527889672 -0.11973301167722639 0 -0.11973301167722639 3.1963747843645365 0 0 0 0 -1.9907655866227287 -1.5770474795951941 0 -1.5770474795951941 5.1092611426884105 0 0 0 0 -5.3734110384575615 -0.92772037960344278 0 -0.92772037960344278 3.4218701835769139 0 0 0 0 -0.82998571213192918 0.54110392548221853 0 0.54110392548221853 0.58608921085669863 0 0 0 0 -1.1185949277169129 -2.0768348248476514 0 -2.0768348248476514 -4.5039924280054038 0 0 0 0 -4.542041535808039 -3.1920482815656612 0 -3.1920482815656612 -1.2230543596569987 0 0 0 0 -5.6801667379440914 0.34560831462977148 0 0.34560831462977148 1.8556534546507919 0 0 0 0 -1.5135072926823341 -1.4947433334383504 0 -1.4947433334383504 4.1754091828896662 0 0 0 0 -13.86362278456545 -22.627245907622083 0 -22.627245907622083 -13.705641272144135 0 0 0 0 -12.133117625638988 -16.28233756319861 0 -16.28233756319861 -28.127149820309178 0 0 0 0 -25.308875239803456 -38.919318012602616 0 -38.919318012602616 -36.87987671668138 0 0 0 0 -96.76957424907414 4.6727946207737716 0 4.6727946207737716 -17.509704505427379 0 0 0 0 -33.932021368627829 -11.604498768590076 0 -11.604498768590076 -20.499497626663981 0 0 0 0 -89.523342367121813 37.81319803262587 0 37.81319803262587 3.0259797473995178 0 0 0 0 -51.049659336937566 -57.874355705857411 0 -57.874355705857411 -69.557807336630759 0 0 0 0 -0.76158013143507475 -0.098816092431290858 0 -0.098816092431290858 -0.045128235104296227 0 0 0 0 -13.789815332881972 -12.4662153479095 0 -12.4662153479095 -10.721174102646444 0 0 0 0 -8.3029608158412884 -13.152090753962767 0 -13.152090753962767 -12.562264069359514 0 0 0 0 -1.9157385919155843 -0.38185123331978366 0 -0.38185123331978366 -0.13258913839007799 0 0 0 0 -6.1005531494192837 -3.4716788328532004 0 -3.4716788328532004 4.6748972318639872 0 0 0 0 -0.096900641508000263 -2.5350466637824809 0 -2.5350466637824809 -7.6002152742644853 0 0 0 0 -7.6791154923225804 -10.60446215851649 0 -10.60446215851649 -4.5493878362805731 0 0 0 0 -10.94387249686406 -19.769740617403258 0 -19.769740617403258 -19.3341635977865 0 0 0 0 -12.591563907990349 -13.050300137171874 0 -13.050300137171874 -5.1847308012515043 0 0 0 0 -17.942417793416098 -24.743709704310838 0 -24.743709704310838 -1.3480407179720828 0 0 0 0 -14.07468088382484 -10.417832854799883 0 -10.417832854799883 3.6564870243060739 0 0 0 0 -25.11884400958661 -18.932919333820195 0 -18.932919333820195 -2.0819233854288299 0 0 0 0 -39.645488177211519 -15.139612273266835 0 -15.139612273266835 5.5369800114365759 0 0 0 0 -28.077339369883703 -27.184113534740561 0 -27.184113534740561 -1.7919685398967431 0 0 0 0 -28.759469245980654 -27.677915993427746 0 -27.677915993427746 0.27326965083662458 0 0 0 0 -27.919904798269272 -27.001349261876669 0 -27.001349261876669 -1.591879924314032 0 0 0 0 -26.95062444765972 -32.202002991507456 0 -32.202002991507456 0.33308040760377366 0 0 0 0 -28.645302535122028 -26.063840507967214 0 -26.063840507967214 11.326530079845384 0 0 0 0 -23.451765050905124 -33.484308269528512 0 -33.484308269528512 -15.213227041079364 0 0 0 0 -34.279975219817061 -32.328734501047208 0 -32.328734501047208 0.56280689361747704 0 0 0 0 -44.074441560343985 -45.407866495723155 0 -45.407866495723155 -16.033102754327132 0 0 0 0 -51.844357521225902 -19.736864789801018 0 -19.736864789801018 0.36209057844251902 0 0 0 0 -22.549490604686071 -22.388838003324935 0 -22.388838003324935 0.58479753270592028 0 0 0 0 -32.738262825869242 -31.384965873041338 0 -31.384965873041338 17.171767519906439 0 0 0 0 -26.045531858828326 -17.83995786255511 0 -17.83995786255511 22.442417541524776 0 0 0 0 -25.879134207913012 -12.823159435159226 0 -12.823159435159226 45.383042175541107 0 0 0 0 -25.068682102638491 -20.611633844859178 0 -20.611633844859178 26.952430270472064 0 0 0 0 -22.738596221462103 -1.6501343873051297 0 -1.6501343873051297 36.805881022460426 0 0 0 0 -16.393289728763193 -10.906582238762155 0 -10.906582238762155 38.830166710392632 0 0 0 0 -24.610085216656444 -1.7525894041083205 0 -1.7525894041083205 51.446277237715094 0 0 0 0 -9.1318309288617456 9.2641919229625671 0 9.2641919229625671 36.138492948015084 0 0 0 0 -19.026657481106668 7.6628125666064477 0 7.6628125666064477 36.993724450871326 0 0 0 0 -27.753268672728154 3.8387254484140314 0 3.8387254484140314 27.021291773694941 0 0 0 0 -18.650302697911684 7.9477834844734332 0 7.9477834844734332 26.252092488379866 0 0 0 0 -25.056621979647389 -8.0022496168341206 0 -8.0022496168341206 21.411334051683866 0 0 0 0 -26.918417650087576 -8.5786307104732771 0 -8.5786307104732771 26.705538613584348 0 0 0 0 -28.692221792008695 -25.700834681014292 0 -25.700834681014292 10.784566889673044 0 0 0 0 -26.590268124799877 -14.040181284300594 0 -14.040181284300594 -2.0920359717057408 0 0 0 0 -29.556913267728305 -20.490881174932881 0 -20.490881174932881 9.4076596856218089 0 0 0 0 -29.560910715685168 -20.72130150650834 0 -20.72130150650834 -3.7895698637899784 0 0 0 0 -41.790637017560584 -39.04838286502644 0 -39.04838286502644 -28.576039150579618 0 0 0 0 -33.914048462962455 10.945468832643598 0 10.945468832643598 -24.397313466192909 0 0 0 0 -77.861169272484403 -23.948887877646726 0 -23.948887877646726 -2.7996063976883079 0 0 0 0 -17.708117466585463 17.931500453860281 0 17.931500453860281 8.66376680487366 0 0 0 0 -24.915713531016081 1.6630629906629792 0 1.6630629906629792 1.655647867068712 0 0 0 0 -25.911918360736308 4.6997520933743147 0 4.6997520933743147 16.812179958245423 0 0 0 0 -27.500846666040161 -4.6090331574621217 0 -4.6090331574621217 0.50443518391932685 0 0 0 0 -28.121995387498828 6.3401967435284377 0 6.3401967435284377 15.857632805857847 0 0 0 0 -41.353280833127428 -1.291706419924509 0 -1.291706419924509 40.389903055613331 0 0 0 0 -29.350630931910928 14.895385316177936 0 14.895385316177936 35.302169296175663 0 0 0 0 -32.242415754609283 -5.6699809125889757 0 -5.6699809125889757 16.394766643954398 0 0 0 0 0.089079560968343685 -0.1399711243344175 0 -0.1399711243344175 0.29060082980369939 0 0 0 0 -11.049600438584093 35.66976833294234 0 35.66976833294234 63.998382226962264 0 0 0 0 -30.676524421016893 -12.96150340289568 0 -12.96150340289568 32.766446392248668 0 0 0 0 -33.517658337983448 -4.6861183815194334 0 -4.6861183815194334 15.434778916490671 0 0 0 0 7.116528686698075 -1.469366027325286 0 -1.469366027325286 -9.4801615843035734 0 0 0 0 -34.235281443387976 -0.92692743580978565 0 -0.92692743580978565 -3.9644295148191873 0 0 0 0 -74.893112900626875 11.027487877918958 0 11.027487877918958 10.04690524620672 0 0 0 0 -13.192875596578233 22.719244133945793 0 22.719244133945793 -3.8021820259243668 0 0 0 0 -15.866604839839056 -4.9670283851139629 0 -4.9670283851139629 12.474087122815533 0 0 0 0 -41.303883100976236 -9.6322498151827034 0 -9.6322498151827034 7.9512621551529605 0 0 0 0 -44.189243761182297 -20.681277407440817 0 -20.681277407440817 3.7563708732493239 0 0 0 0 3.654473150458216 3.5801756330060144 0 3.5801756330060144 0.77892083968590775 0 0 0 0 -12.774074731547444 -4.3016509947610189 0 -4.3016509947610189 2.6972523401171813 0 0 0 0 -3.8776272622490424 1.5473756634012119 0 1.5473756634012119 1.5305403236252373 0 0 0 0 -8.7160648877418225 4.9811071288902706 0 4.9811071288902706 11.490779036468126 0 0 0 0 -2.8489734370014048 6.7877125677843253 0 6.7877125677843253 7.0587267474001578 0 0 0 0 -7.3808873329344351 -0.11158975944147187 0 -0.11158975944147187 2.9030644508492429 0 0 0 0 7.5354029461723258 17.621861465317593 0 17.621861465317593 20.572566512733886 0 0 0 0 -8.9693676467040859 5.3322048362649141 0 5.3322048362649141 11.446826766391482 0 0 0 0 -16.723848675199406 6.8501837140963033 0 6.8501837140963033 25.581479257629873 0 0 0 0 -0.38953441444190107 -3.7368720334269643 0 -3.7368720334269643 -0.58737408840375838 0 0 0 0 -10.634238929667845 -7.6183780245411867 0 -7.6183780245411867 -3.5117445656976543 0 0 0 0 -12.284953276917804 -5.198653924487914 0 -5.198653924487914 -0.75814812388553454 0 0 0 0 -1.5416874901451987 -0.55177123681051476 0 -0.55177123681051476 0.067779602970117536 0 0 0 0 -5.9787131820848103 -3.1917006931873662 0 -3.1917006931873662 1.9140175572282294 0 0 0 0 -3.2088645627445658 -2.9461173292614404 0 -2.9461173292614404 0.86108747374741768 0 0 0 0 -8.2528525384964624 -4.9264095210502585 0 -4.9264095210502585 -0.68441433246366712 0 0 0 0 -5.2892090964017946 -2.3547535777084478 0 -2.3547535777084478 1.7571761686258864 0 0 0 0 -5.1377156788513005 -1.0385187791272354 0 -1.0385187791272354 2.1721150866351913 0 0 0 0 -2.1865845946231275 0.028857205217946102 0 0.028857205217946102 3.6597726166575626 0 0 0 0 -7.528236561200174 -2.3926611592376048 0 -2.3926611592376048 9.6783998239379798 0 0 0 0 4.6276446420160937 1.3130434091731331 0 1.3130434091731331 6.1848885139493177 0 0 0 0 3.5716895019231742 1.2027348538607612 0 1.2027348538607612 8.6349551887133202 0 0 0 0 2.0068339626741363 -2.1347806204894368 0 -2.1347806204894368 4.805711913415962 0 0 0 0 -2.3094355006932759 -0.68948647512571881 0 -0.68948647512571881 3.1593516302898879 0 0 0 0 5.6619328739789125 4.176842599545239 0 4.176842599545239 8.9965344856418596 0 0 0 0 -5.1668337000592146 2.3245622842341618 0 2.3245622842341618 17.056273490008607 0 0 0 0 -1.8196737440949988 -0.52803332805816749 0 -0.52803332805816749 5.500450481729243 0 0 0 0 -2.261000306065668 -1.6743821178742788 0 -1.6743821178742788 2.3537440192711929 0 0 0 0 -2.4575152479083044 -3.1864426055836361 0 -3.1864426055836361 0.43893127178835556 0 0 0 0 -2.4069603384232323 -2.0520653678789245 0 -2.0520653678789245 0.6581980826013023 0 0 0 0 -6.8686726801598681 -3.8424709361926741 0 -3.8424709361926741 2.1807788543712219 0 0 0 0 -0.674483631948533 -2.3454587947931032 0 -2.3454587947931032 1.3452561891467099 0 0 0 0 -3.9756788113016568 -2.8269732021382801 0 -2.8269732021382801 0.5002121591864036 0 0 0 0 -4.2702181596301294 -2.5046812415205792 0 -2.5046812415205792 0.35330203420658768 0 0 0 0 -1.0354166261706936 -1.7435382779370565 0 -1.7435382779370565 1.1132023444623143 0 0 0 0 1.0700316883812775 0.44169005081209889 0 0.44169005081209889 4.6247536938411713 0 0 0 0 -3.8238008210973931 -0.65260125063099395 0 -0.65260125063099395 6.0202761088605712 0 0 0 0 -1.8995997174521619 -0.42157431999001282 0 -0.42157431999001282 2.301040729884372 0 0 0 0 -0.96540608638201775 -1.4734567300309127 0 -1.4734567300309127 2.0211870593172847 0 0 0 0 -3.0265136057823838 -1.1217684259898988 0 -1.1217684259898988 1.1794970098569957 0 0 0 0 -7.6455702693347121 0.094742064630565892 0 0.094742064630565892 7.0139213039138326 0 0 0 0 -1.8247559864394134 -1.6788436975331251 0 -1.6788436975331251 0.89622623971695248 0 0 0 0 -2.8091902714895802 -1.8046867612777753 0 -1.8046867612777753 3.2676688729852064 0 0 0 0 -3.499154667086259 1.2524177657500104 0 1.2524177657500104 5.4210425294436391 0 0 0 0 -0.29662205274507869 -3.12974429668526 0 -3.12974429668526 4.7368398130169567 0 0 0 0 -0.87980227513980935 -4.8394247680470528 0 -4.8394247680470528 11.795695128698526 0 0 0 0 0.61149910726862799 2.0645809984432759 0 2.0645809984432759 8.4780501401670563 0 0 0 0 -5.5417443815604202 -1.8667346901950737 0 -1.8667346901950737 3.4035623215819442 0 0 0 0 -0.071272270302628726 -1.1086846205714171 0 -1.1086846205714171 -0.076262029600677808 0 0 0 0 -9.4909306514000491 -11.53907025431065 0 -11.53907025431065 -7.4192073944787431 0 0 0 0 -4.3766580276660534 -9.342653576700144 0 -9.342653576700144 -7.5606485346111754 0 0 0 0 -11.22105757954705 -22.90650098339573 0 -22.90650098339573 -10.958431746323399 0 0 0 0 -10.189313884027797 -14.941461357466991 0 -14.941461357466991 -14.773404074700423 0 0 0 0 -2.2846540180271404 -22.165497496913986 0 -22.165497496913986 -46.423343644286831 0 0 0 0 -18.647332094866215 -26.737643385731104 0 -26.737643385731104 -20.223480929978848 0 0 0 0 -0.015001386695118413 -0.11202686670277529 0 -0.11202686670277529 -0.018010804148743058 0 0 0 0 -3.0524256354292447 -10.24001936520358 0 -10.24001936520358 -22.714738665381901 0 0 0 0 -1.6153204884898713 -0.27514914073139823 0 -0.27514914073139823 0.3487168360237109 0 0 0 0 -0.36176360997342272 -10.127154521914179 0 -10.127154521914179 9.7710839487681653 0 0 0 0 -0.17661590892620183 -0.30456379688274549 0 -0.30456379688274549 0.30488362712458428 0 0 0 0 -2.7890734868378786 -1.1738843485881603 0 -1.1738843485881603 17.973655152683307 0 0 0 0 3.2789403178594512 -0.29127371878877284 0 -0.29127371878877284 0.77666781026562148 0 0 0 0 -0.47192655488470336 -7.9370047223804363 0 -7.9370047223804363 14.461684485863657 0 0 0 0 -3.9910883488882973 2.0306578238681539 0 2.0306578238681539 6.657563535510576 0 0 0 0 12.062550361417379 -0.68039600673120049 0 -0.68039600673120049 7.0738648927511463 0 0 0 0 5.3621197077154648 -4.3974395426012052 0 -4.3974395426012052 4.8720725869290078 0 0 0 0 -8.6909402608143864 -4.1703814384362659 0 -4.1703814384362659 6.4232486203036743 0 0 0 0 -17.349438331380952 9.494045416527058 0 9.494045416527058 15.993023975881256 0 0 0 0 -0.55955218344545443 -0.18112340187752568 0 -0.18112340187752568 -0.050573638236219853 0 0 0 0 -2.0584564926539315 -20.123472590006486 0 -20.123472590006486 -79.797493111427571 0 0 0 0 -10.431952258866659 -3.3882175347429211 0 -3.3882175347429211 3.9586283324111093 0 0 0 0 -60.409588620123031 -13.155461462550875 0 -13.155461462550875 12.12621818165443 0 0 0 0 -30.387418703003277 7.9476568488378234 0 7.9476568488378234 16.885947067089944 0 0 0 0 -31.971827855377342 -50.082900608697997 0 -50.082900608697997 -59.98976723131517 0 0 0 0 -14.411023349206516 -16.805181294854464 0 -16.805181294854464 -28.739503846832832 0 0 0 0 -34.760615790028169 -34.147818472509911 0 -34.147818472509911 -9.3209038466977603 0 0 0 0 -1.6926118803821737 -2.2448316231339405 0 -2.2448316231339405 15.73778142569698 0 0 0 0 -17.145835806775722 -2.9052036111776367 0 -2.9052036111776367 24.831040728947062 0 0 0 0 -11.268455667166563 -6.3819104174308627 0 -6.3819104174308627 24.652061921224735 0 0 0 0 -0.21565927231383597 -0.84934406498825865 0 -0.84934406498825865 0.80854846773233535 0 0 0 0 -6.3302872429194394 1.6815186781323064 0 1.6815186781323064 1.77591948549275 0 0 0 0 -1.3124266195081873 -4.0514702343338342 0 -4.0514702343338342 25.022571234775221 0 0 0 0 -0.5335931039872257 -0.028473520823197873 0 -0.028473520823197873 0.19973732119819598 0 0 0 0 -9.6657790260233014 -3.6359626622709698 0 -3.6359626622709698 19.735410002839814 0 0 0 0 -3.6551912168988565 -18.095826364546021 0 -18.095826364546021 0.19680419882386246 0 0 0 0 -18.766174571287479 -20.674535466907432 0 -20.674535466907432 -2.3733323340381673 0 0 0 0 -8.6325499854592636 -13.70517108471666 0 -13.70517108471666 -3.6042976044414079 0 0 0 0 -8.6498767102641665 -15.808823360817497 0 -15.808823360817497 -1.0334469963192845 0 0 0 0 -20.277062342197041 -5.4083686480130284 0 -5.4083686480130284 1.2595252709735476 0 0 0 0 -15.84979881581603 -16.030376252477566 0 -16.030376252477566 24.629487548000355 0 0 0 0 -9.1686573504430271 4.6736547415376037 0 4.6736547415376037 11.290578917838602 0 0 0 0 -30.806505691753046 -9.7443206968420064 0 -9.7443206968420064 11.492464357176924 0 0 0 0 -14.114353919395853 -3.2016900199627258 0 -3.2016900199627258 0.021459181188447474 0 0 0 0 -13.934524740532652 -3.192359885706594 0 -3.192359885706594 -5.2692327680280755 0 0 0 0 0.62412282106237615 -3.6106498856217986 0 -3.6106498856217986 0.085047262406205526 0 0 0 0 -13.886600483714574 -5.0513802296308015 0 -5.0513802296308015 1.9327860444961118 0 0 0 0 -11.925106168931961 -3.5127444972513899 0 -3.5127444972513899 2.1998054017692894 0 0 0 0 -11.039822308518524 -5.8225496054226653 0 -5.8225496054226653 -0.23750840957946195 0 0 0 0 -11.815690835849637 -4.1018263111539142 0 -4.1018263111539142 -0.64731567271334711 0 0 0 0 -3.7376251099258297 -3.3676274781557254 0 -3.3676274781557254 -1.0017485521586877 0 0 0 0 -6.6042307023237754 -1.0354557096028145 0 -1.0354557096028145 0.82029279217476869 0 0 0 0 -4.4339234759477222 -0.6415728654338082 0 -0.6415728654338082 1.0744857031984338 0 0 0 0 -6.6177962260862842 -1.0600751281523344 0 -1.0600751281523344 1.1034479216768887 0 0 0 0 -5.3839778805242382 -0.44577039821712994 0 -0.44577039821712994 1.0168230842202526 0 0 0 0 -0.25183879016583077 -0.84209869688580519 0 -0.84209869688580519 0.20626790711765969 0 0 0 0 -6.9030409770348342 -4.5813219457500054 0 -4.5813219457500054 -0.51684092773484736 0 0 0 0 -9.3547919176235155 -6.4463847162146521 0 -6.4463847162146521 -1.9350919705399292 0 0 0 0 -0.23259341864841288 -3.5615220825425435 0 -3.5615220825425435 0.5973111500499706 0 0 0 0 -22.584618668317717 0.87113930428565212 0 0.87113930428565212 3.2454658104168175 0 0 0 0 -14.48733466373119 -6.2107491004405944 0 -6.2107491004405944 1.2162140652971516 0 0 0 0 -15.62068417692717 2.1418987099900733 0 2.1418987099900733 -2.9053460344244968 0 0 0 0 -15.654664922538132 2.2752936126917334 0 2.2752936126917334 4.991390664526989 0 0 0 0 -6.0451975691135438 0.61745474526985689 0 0.61745474526985689 0.64737335821445385 0 0 0 0 -7.0497392142606259 2.7303161022337008 0 2.7303161022337008 1.7047836171157087 0 0 0 0 -13.040464981963282 4.039943452388556 0 4.039943452388556 1.9305878062116335 0 0 0 0 -6.5948278531213518 0.24145459896793064 0 0.24145459896793064 0.61551744202834802 0 0 0 0 -4.3513658289593877 0.095023789479625975 0 0.095023789479625975 1.3641222684724426 0 0 0 0 -10.906023221536088 -0.91432416704492425 0 -0.91432416704492425 0.71804197028245653 0 0 0 0 -8.7727091373226358 0.22331024807255062 0 0.22331024807255062 -1.1712402973803648 0 0 0 0 -7.2459029264610351 0.36080393170967962 0 0.36080393170967962 1.3152430447635615 0 0 0 0 -13.483935722961178 -2.5971414992876589 0 -2.5971414992876589 -0.016560417492655688 0 0 0 0 -5.516800879691317 0.22698884515133688 0 0.22698884515133688 1.3181622207475179 0 0 0 0 -4.0804858576809124 -0.81201315166031129 0 -0.81201315166031129 0.58734018456264403 0 0 0 0 -9.3092660085781063 0.082200508559409968 0 0.082200508559409968 1.0110553053600597 0 0 0 0 -9.7869728548976127 -0.14562257675832768 0 -0.14562257675832768 -0.0069805274024474784 0 0 0 0 -9.7864926621896302 -0.13564604275920544 0 -0.13564604275920544 0.16221573230595965 0 0 0 0 -5.5138511597505371 -1.2644872359216075 0 -1.2644872359216075 0.45628891093100882 0 0 0 0 -6.1744968892853649 -1.1039211473778892 0 -1.1039211473778892 0.77356314148004657 0 0 0 0 -5.9778096452058485 0.42759810195730275 0 0.42759810195730275 0.84388264134325253 0 0 0 0 -1.6644923637674971 -0.14084387600241399 0 -0.14084387600241399 0.44618878421957264 0 0 0 0 -6.4101468083263171 -1.0377310676705633 0 -1.0377310676705633 2.2058691900522263 0 0 0 0 -4.4249226555448402 0.28398348064398071 0 0.28398348064398071 1.2930295783199215 0 0 0 0 -7.1372558583370846 -4.8005551776947684 0 -4.8005551776947684 1.1567338552679871 0 0 0 0 -6.0469073286494677 -0.91270031305444377 0 -0.91270031305444377 0.94719986945541734 0 0 0 0 -3.7587800964897262 -1.9123337188467531 0 -1.9123337188467531 0.64430439065469614 0 0 0 0 -1.1380023363986922 -0.032077570456095827 0 -0.032077570456095827 0.3928346453907558 0 0 0 0 7.0192687720118556 -23.556377279529656 0 -23.556377279529656 37.631151266723407 0 0 0 0 -13.263923662248999 0.36825172599603206 0 0.36825172599603206 3.2721793217017989 0 0 0 0 -0.57935839355492647 -0.67789018493942033 0 -0.67789018493942033 0.067315996127368299 0 0 0 0 -2.4266117824645335 -5.1119858344493139 0 -5.1119858344493139 -1.5341834342599299 0 0 0 0 1.7927771801769268 -4.1739328441591113 0 -4.1739328441591113 -0.32049031951764562 0 0 0 0 2.6273767634393153 -11.947989501066793 0 -11.947989501066793 3.6680183496652603 0 0 0 0 -4.1117975806948337 -1.6314287688328921 0 -1.6314287688328921 0.50586221492528083 0 0 0 0 -4.8091884002068177 -1.7560446338628779 0 -1.7560446338628779 0.83231414370473367 0 0 0 0 -4.9108774367723527 -4.8675727084382459 0 -4.8675727084382459 -1.9643887991243218 0 0 0 0 -3.2144292086813948 -10.111248487175146 0 -10.111248487175146 -6.5507987624233834 0 0 0 0 -8.2181657487490156 -0.91090248876996327 0 -0.91090248876996327 1.103236324096784 0 0 0 0 -6.9743048640812049 -0.50746820611888666 0 -0.50746820611888666 0.51792054243202212 0 0 0 0 -6.7219764430585016 -1.4564239510594499 0 -1.4564239510594499 1.1085037624192193 0 0 0 0 -7.8978551907421206 -1.8086690059677615 0 -1.8086690059677615 1.0675805878787443 0 0 0 0 -6.8896835874506905 -1.7472606645364788 0 -1.7472606645364788 0.69705355868246599 0 0 0 0 -10.163805086778666 -0.25726506524867432 0 -0.25726506524867432 -1.1573922782614829 0 0 0 0 -8.3197164191615229 -0.43392649856643573 0 -0.43392649856643573 -0.5954633134716687 0 0 0 0 -2.0760700648505317 -1.4035601412561078 0 -1.4035601412561078 -0.29158309341447064 0 0 0 0 -11.75765181006318 -0.36271699621164544 0 -0.36271699621164544 -0.58815962835882374 0 0 0 0 -6.923263237853849 -0.43167587916185113 0 -0.43167587916185113 0.0062098284750763399 0 0 0 0 -7.1541546178236288 -2.1984065363271128 0 -2.1984065363271128 -0.31180411059943247 0 0 0 0 -8.0422220194225247 0.01282362498787748 0 0.01282362498787748 0.1226473494378979 0 0 0 0 -3.8597866071864715 -3.1906692873879043 0 -3.1906692873879043 -0.54270541417483664 0 0 0 0 -2.3393915192345807 -1.6580646591245891 0 -1.6580646591245891 -0.66033586474808381 0 0 0 0 -8.0618924729978971 0.26653547202852579 0 0.26653547202852579 -2.9214109930670702 0 0 0 0 -11.933989484979975 0.47814221894199704 0 0.47814221894199704 -0.76069853933445586 0 0 0 0 -11.081588639468464 0.71436804101122675 0 0.71436804101122675 -1.011725397203918 0 0 0 0 -12.928353734465418 -0.052606949286413851 0 -0.052606949286413851 -1.0439432458477711 0 0 0 0 -20.359257052028624 2.0759276635489385 0 2.0759276635489385 1.8158978888459174 0 0 0 0 0.44406192971109704 -5.6592219945770381 0 -5.6592219945770381 -7.7481320765585338 0 0 0 0 -26.228801628556994 -6.013341537685708 0 -6.013341537685708 2.014595441973718 0 0 0 0 -17.872693637931661 -3.1537022416721925 0 -3.1537022416721925 2.3124287585627989 0 0 0 0 -8.3342386039387968 0.10820798300914092 0 0.10820798300914092 1.093763736006244 0 0 0 0 -52.016334963445843 5.826126532243407 0 5.826126532243407 21.831017885182149 0 0 0 0 -8.9778658374671068 1.4189707660577824 0 1.4189707660577824 2.1192647344232114 0 0 0 0 -8.3246740874410534 -0.71259106799504934 0 -0.71259106799504934 0.72747744239185508 0 0 0 0 27.284828706612643 5.3253911474674425 0 5.3253911474674425 -6.6774422616779106 0 0 0 0 3.2120719476224622 8.3049406137773758 0 8.3049406137773758 8.6930312774198626 0 0 0 0 8.3047414264674444 -0.30762142224283195 0 -0.30762142224283195 -2.3400718692808198 0 0 0 0 -16.008127012477416 -10.481571770123365 0 -10.481571770123365 -5.7857808938170301 0 0 0 0 -0.30377990384755016 0.22137979790308115 0 0.22137979790308115 0.24717462525193834 0 0 0 0 -7.144783826786167 0.50810448530183194 0 0.50810448530183194 1.3685578006446764 0 0 0 0 -7.234867064471473 -5.7704157922289312 0 -5.7704157922289312 -6.7572433747890344 0 0 0 0 -9.5110767588930685 -0.93004945678842432 0 -0.93004945678842432 0.32729217184231629 0 0 0 0 -3.7728920840745386 -0.887558922630312 0 -0.887558922630312 0.54036167292560577 0 0 0 0 -9.7856079343473539 2.3674900990775711 0 2.3674900990775711 9.6807881443000099 0 0 0 0 -8.8879268089149264 3.647023938736595 0 3.647023938736595 8.1085210022078513 0 0 0 0 -7.1792062149906997 1.6649624779502687 0 1.6649624779502687 6.1400461394383683 0 0 0 0 -5.202105843271946 0.37278926818535574 0 0.37278926818535574 1.9954918511337423 0 0 0 0 -9.3455106439105293 6.2082640879862652 0 6.2082640879862652 0.92108318396324762 0 0 0 0 -3.2325134171680352 -0.08007304901500234 0 -0.08007304901500234 0.99455644761557283 0 0 0 0 -1.658507677828311 0.57750357532273711 0 0.57750357532273711 1.2381918115546569 0 0 0 0 -1.0191190222678337 1.4861199192823875 0 1.4861199192823875 1.3886030780051 0 0 0 0 -0.29637981902183519 0.18686072533361475 0 0.18686072533361475 0.29281094095434024 0 0 0 0 -4.1282374981983594 -0.11437165920000325 0 -0.11437165920000325 1.6563806877761635 0 0 0 0 -3.3027945836469339 -0.34279735631745112 0 -0.34279735631745112 0.67468660816660742 0 0 0 0 -3.9139035504704225 0.23182721438047338 0 0.23182721438047338 1.2235454904332528 0 0 0 0 -2.3678787771459611 -0.048976899584204148 0 -0.048976899584204148 1.255879963584789 0 0 0 0 -2.3191409707401807 -0.48927537619351202 0 -0.48927537619351202 1.2787890319922077 0 0 0 0 -3.0248196941834067 -0.99198622425392102 0 -0.99198622425392102 1.646802732851711 0 0 0 0 -4.80829796254001 -0.69336261443278691 0 -0.69336261443278691 0.72486543980216978 0 0 0 0 -9.7680078565783788 -1.0242383116455969 0 -1.0242383116455969 0.8632610749880314 0 0 0 0 -9.5693585782310038 -1.1055754350559823 0 -1.1055754350559823 1.1252714417710195 0 0 0 0 -2.2797130439287301 -0.84647949304693526 0 -0.84647949304693526 0.36463459465741543 0 0 0 0 -4.481168218010275 0.86012702113895045 0 0.86012702113895045 1.6604249252721215 0 0 0 0 -8.8603096945371362 14.260521674329908 0 14.260521674329908 28.166844375127738 0 0 0 0 -47.40999604526769 -55.14878400966986 0 -55.14878400966986 56.661221709226922 0 0 0 0 -44.722530684586673 28.007523901734544 0 28.007523901734544 36.165308798988804 0 0 0 0 -15.029967104432217 27.449560058375368 0 27.449560058375368 40.520479807143943 0 0 0 0 -16.102205266614419 32.566761691680696 0 32.566761691680696 16.977531842344774 0 0 0 0 -8.5982390955198724 0.89779144231994579 0 0.89779144231994579 1.1529916409045822 0 0 0 0 2.7184477126611455 39.140103835553532 0 39.140103835553532 31.340032343551684 0 0 0 0 -20.417524845609478 7.7630535209624441 0 7.7630535209624441 33.417554283839422 0 0 0 0 -2.9515044998199755 15.070605832883359 0 15.070605832883359 33.431585392432225 0 0 0 0 -72.618577280489262 -20.379138107374757 0 -20.379138107374757 89.609507788277455 0 0 0 0 -8.0782551006159142 4.5760891365260363 0 4.5760891365260363 2.2692634276835482 0 0 0 0 -1.8192815766713295 1.4546975820564052 0 1.4546975820564052 0.59928234551663173 0 0 0 0 -6.2232582556971465 5.8110620516406364 0 5.8110620516406364 8.4574559900242718 0 0 0 0 7.9212818277519546 64.852387704256031 0 64.852387704256031 -64.970777599754513 0 0 0 0 74.838425439913408 56.675219599795156 0 56.675219599795156 -18.524165952113549 0 0 0 0 -57.587094035667178 48.415407392146278 0 48.415407392146278 -16.804286194735099 0 0 0 0 -46.092669282452334 -31.682879588018466 0 -31.682879588018466 -21.30839569911803 0 0 0 0 -0.98788252708439472 -0.16330639180665374 0 -0.16330639180665374 0.062992085769038905 0 0 0 0 32.53129971931412 -18.544418401795809 0 -18.544418401795809 -36.462092603997874 0 0 0 0 -157.68516919430476 48.326049663144204 0 48.326049663144204 69.880943458070206 0 0 0 0 -0.23437992585908773 0.23090854286762275 0 0.23090854286762275 -0.036844975455120596 0 0 0 0 -38.214654319093825 31.909225930076431 0 31.909225930076431 54.152595229655319 0 0 0 0 -1.3722953727351523 -12.379610816075482 0 -12.379610816075482 -14.023628833295788 0 0 0 0 -115.52197752274151 -15.221461845535295 0 -15.221461845535295 7.5630606139087924 0 0 0 0 -13.360236461456225 17.06466613201809 0 17.06466613201809 -24.681513678918435 0 0 0 0 -127.20575473305507 70.380645184722681 0 70.380645184722681 -14.83661519114888 0 0 0 0 48.776879855242441 66.021899721035822 0 66.021899721035822 -70.15011890694781 0 0 0 0 62.234795639131335 -35.396467790439544 0 -35.396467790439544 -8.1037916408353183 0 0 0 0 -3.430984083423688 0.17444617542262719 0 0.17444617542262719 -0.12145208927349187 0 0 0 0 -20.191572763231306 -9.9546106027146664 0 -9.9546106027146664 13.413192817559548 0 0 0 0 -9.5924063059510445 3.2133230442174039 0 3.2133230442174039 15.816165746211084 0 0 0 0 -15.553228757869874 -7.2404756980021716 0 -7.2404756980021716 -3.1495736725868753 0 0 0 0 -0.82376793629696721 0.48597435022165669 0 0.48597435022165669 -0.26418831683560856 0 0 0 0 -19.367697785597557 -42.164613972977634 0 -42.164613972977634 -42.139496345964744 0 0 0 0 -17.158365266270266 -2.3685319702829304 0 -2.3685319702829304 0.69848385177319727 0 0 0 0 -15.35696552497393 -1.516733287757063 0 -1.516733287757063 1.0072495105474388 0 0 0 0 -17.558322721757577 -2.320285558723171 0 -2.320285558723171 0.82302401050114327 0 0 0 0 -11.986307704183446 0.5290900532674101 0 0.5290900532674101 -0.71929726347832457 0 0 0 0 -5.1713252309545013 -2.7648331744222094 0 -2.7648331744222094 0.075338703754884495 0 0 0 0 -7.8790130984107236 -5.0731018945016615 0 -5.0731018945016615 -2.5380990504791612 0 0 0 0 -11.509235652647476 0.13782061272763713 0 0.13782061272763713 -1.13862111467094 0 0 0 0 -10.678936808471462 -2.1971686756426578 0 -2.1971686756426578 -1.5474827000060998 0 0 0 0 -5.5369475651940174 -3.7469086951503776 0 -3.7469086951503776 -0.48432097002773 0 0 0 0 -12.325982095902873 -0.046775607456510215 0 -0.046775607456510215 -0.81824652222564964 0 0 0 0 -7.0868541569298298 5.2357824976142773 0 5.2357824976142773 1.5858549940141131 0 0 0 0 46.407839577001596 11.00643383678668 0 11.00643383678668 -14.585074844868293 0 0 0 0 -16.839748536989646 -1.6472753974463785 0 -1.6472753974463785 1.1057374934744075 0 0 0 0 33.826488992781378 -3.4621518348074667 0 -3.4621518348074667 0.82101520422361496 0 0 0 0 -0.57079455864277406 13.462278446155416 0 13.462278446155416 -8.5991346649534961 0 0 0 0 32.23838678719585 6.0557600219320555 0 6.0557600219320555 -32.273205847312163 0 0 0 0 -6.8516245241735163 5.5504585171873373 0 5.5504585171873373 1.6910793823826724 0 0 0 0 -17.040296619898072 12.354198862588319 0 12.354198862588319 6.3772129168962977 0 0 0 0 19.62780869524795 -1.0102100043440885 0 -1.0102100043440885 -1.0710312165880964 0 0 0 0 41.317499802345537 61.13213490112355 0 61.13213490112355 -11.633103129528337 0 0 0 0 -78.998011248282637 74.875720688680758 0 74.875720688680758 -32.911438648717166 0 0 0 0 -9.2604033490506481 16.543260905554149 0 16.543260905554149 15.808644106721431 0 0 0 0 -76.568491646006805 -67.817111957731242 0 -67.817111957731242 -38.667793490037965 0 0 0 0 0.33494283046553619 -4.5749896212140984 0 -4.5749896212140984 -117.10790187088401 0 0 0 0 -21.285201741689889 -75.812444857923296 0 -75.812444857923296 -66.676944138512994 0 0 0 0 -1.7683069895232286 -0.71632687506715964 0 -0.71632687506715964 -0.3927853830497911 0 0 0 0 -66.23079546509598 68.461301517685342 0 68.461301517685342 -81.016837012939789 0 0 0 0 4.1703004893888647 -35.444684729655918 0 -35.444684729655918 -3.3280760142816348 0 0 0 0 -137.99708733663056 -17.591398220495449 0 -17.591398220495449 41.54769490391061 0 0 0 0 -11.677991971240772 -45.481645926407936 0 -45.481645926407936 26.094805698869266 0 0 0 0 -1.6475960001907879 -22.499382255755833 0 -22.499382255755833 25.027830345262814 0 0 0 0 -15.420228231108013 -40.765807681537382 0 -40.765807681537382 43.697356741993218 0 0 0 0 0.50283953478447074 -29.620300443137531 0 -29.620300443137531 1.08646389951776 0 0 0 0 -43.172474469511144 -54.131828399021742 0 -54.131828399021742 -9.8126747506326808 0 0 0 0 -22.236593119061126 -34.540005122384414 0 -34.540005122384414 -42.030398628442185 0 0 0 0 0.38247329913560435 0.38922707595302342 0 0.38922707595302342 -0.20517915677775966 0 0 0 0 -49.800689732603132 -10.291106779045748 0 -10.291106779045748 2.869728139658946 0 0 0 0 -12.253306545009764 6.1707285318216236 0 6.1707285318216236 5.1287063636557377 0 0 0 0 -9.7901766811037305 -2.7227319118206879 0 -2.7227319118206879 -8.3622419540445208 0 0 0 0 -13.547871399838584 -6.0234147589421099 0 -6.0234147589421099 6.6515001236537046 0 0 0 0 0.16918338035611669 -2.5794346352461446 0 -2.5794346352461446 -13.996193733924599 0 0 0 0 -30.743491221043769 -12.016326495555063 0 -12.016326495555063 34.407703625704187 0 0 0 0 -46.774733994328017 -5.5577688037646453 0 -5.5577688037646453 37.483903586722818 0 0 0 0 79.032780537333565 -58.620584755134644 0 -58.620584755134644 -27.904329693095463 0 0 0 0 -36.383117738110741 -25.575027900190264 0 -25.575027900190264 31.309394175886382 0 0 0 0 -2.1745484306862757 0.13024589364061079 0 0.13024589364061079 0.41565394685207036 0 0 0 0 -7.6463259241299397 -1.5671481967350571 0 -1.5671481967350571 0.54961389358452628 0 0 0 0 6.2510696541503421 -26.038196608857447 0 -26.038196608857447 28.541400634155309 0 0 0 0 -15.220824804633594 -9.9321511006839103 0 -9.9321511006839103 23.552475500113133 0 0 0 0 -10.340914544893167 -1.2273270828729892 0 -1.2273270828729892 37.684235014536512 0 0 0 0 -7.1666963716470491 0.14971193711181741 0 0.14971193711181741 1.5068928663963561 0 0 0 0 -8.7903043290498317 -0.98249268720434202 0 -0.98249268720434202 -0.36390332505933998 0 0 0 0 -7.1543376948102377 -1.0489947168777007 0 -1.0489947168777007 -0.37071983312227985 0 0 0 0 -2.7192503927673641 2.0283269381699895 0 2.0283269381699895 1.3681182499516285 0 0 0 0 -6.8091239024433889 -6.5952548929619752 0 -6.5952548929619752 -1.1974999356253164 0 0 0 0 -1.2819999808558649 -2.6873957016699066 0 -2.6873957016699066 0.13272441466495088 0 0 0 0 -8.4272277537775153 0.36236266887564739 0 0.36236266887564739 4.396603017325674 0 0 0 0 -8.414869076937066 -0.8363439851119665 0 -0.8363439851119665 2.5189903178069244 0 0 0 0 -15.904184529004851 4.1025916969920786 0 4.1025916969920786 -0.035180816704041717 0 0 0 0 -3.4164978864568489 -2.3410539919964961 0 -2.3410539919964961 1.2359877993172068 0 0 0 0 -9.5907634196596945 -0.8328683124403371 0 -0.8328683124403371 0.72380552614047178 0 0 0 0 -8.8888850711136911 -1.9124470992553597 0 -1.9124470992553597 -3.3914470910858086 0 0 0 0 -8.9325206409985185 -0.023031198972518041 0 -0.023031198972518041 3.1839307721162413 0 0 0 0 -6.3359716032517959 -0.74080636385411225 0 -0.74080636385411225 0.11841310313588166 0 0 0 0 -6.5069661705283579 -1.9150387029226295 0 -1.9150387029226295 -2.8077632819718019 0 0 0 0 -10.178658244079088 -0.29230908111577492 0 -0.29230908111577492 7.3206226373850427 0 0 0 0 -8.6759753265669133 -3.1439006859303049 0 -3.1439006859303049 3.6800040006444874 0 0 0 0 -10.590726135097611 -3.8309555689827874 0 -3.8309555689827874 28.156340909866799 0 0 0 0 -29.046016354937819 9.5583294424781684 0 9.5583294424781684 36.59275335757755 0 0 0 0 -14.168032913292336 -15.125334946375744 0 -15.125334946375744 28.95366094515839 0 0 0 0 -7.4826162268313965 3.0480958861996257 0 3.0480958861996257 1.387748686076975 0 0 0 0 -8.8224135119526181 7.6055235307484281 0 7.6055235307484281 32.838520302134725 0 0 0 0 -30.436323341288698 46.130266929417246 0 46.130266929417246 39.186760273931156 0 0 0 0 -36.64429581637205 14.169060777229657 0 14.169060777229657 48.46077647170398 0 0 0 0 -28.291985481454844 0.033313746547470657 0 0.033313746547470657 69.865043366727377 0 0 0 0 -18.362618341587222 15.415052399142496 0 15.415052399142496 45.896251909619849 0 0 0 0 9.8002988234220538 27.90420296466101 0 27.90420296466101 38.744940558508688 0 0 0 0 -17.749588671500987 6.2250283420497787 0 6.2250283420497787 73.142057507069126 0 0 0 0 14.855140526793548 37.258515740309804 0 37.258515740309804 100.57401081052798 0 0 0 0 62.747399389076236 -11.095163507626495 0 -11.095163507626495 55.813476455591058 0 0 0 0 14.354123053566582 -6.8882831828788653 0 -6.8882831828788653 166.44783421251725 0 0 0 0 1.8715407761378628 -0.70384008293110867 0 -0.70384008293110867 55.634039134123441 0 0 0 0 -9.5100087782848277 -16.882384707456197 0 -16.882384707456197 60.452360205690525 0 0 0 0 -4.2386192847770872 -25.876528882223511 0 -25.876528882223511 42.724657650102813 0 0 0 0 -10.055110758989031 -13.562470748388876 0 -13.562470748388876 72.811751893908536 0 0 0 0 -15.156316278291342 -2.8621125557630194 0 -2.8621125557630194 53.456146104582501 0 0 0 0 -2.4240147749551397 16.448233469363288 0 16.448233469363288 58.207684272532134 0 0 0 0 3.705538592665107 0.76513026677127982 0 0.76513026677127982 63.576815145228394 0 0 0 0 15.76449564761424 -11.280559992814347 0 -11.280559992814347 75.369909053420656 0 0 0 0 -3.5506299282897089 19.082946474212577 0 19.082946474212577 122.59945127064492 0 0 0 0 8.9874207565064808 23.696235055284191 0 23.696235055284191 31.186068912583949 0 0 0 0 43.767452227981266 54.56248755226909 0 54.56248755226909 48.52490749460037 0 0 0 0 21.188551005780027 22.928557444245655 0 22.928557444245655 30.857094288968256 0 0 0 0 -9.7218940897500943 15.469350627613306 0 15.469350627613306 60.642719396639563 0 0 0 0 -18.941770241000995 2.2519259655431085 0 2.2519259655431085 22.224126719695619 0 0 0 0 -14.519643184023153 -20.157842639132696 0 -20.157842639132696 99.878762964739096 0 0 0 0 17.762204044318423 -34.210502480592481 0 -34.210502480592481 -6.665052964684719 0 0 0 0 60.488023554920801 97.698437402120874 0 97.698437402120874 146.25444546575824 0 0 0 0 -1.3527822129566403 -0.50141761448688982 0 -0.50141761448688982 0.41477012963353133 0 0 0 0 -56.42555173304936 -19.244887680436705 0 -19.244887680436705 5.7101317806756242 0 0 0 0 -0.84123829803138506 -0.34057642275797662 0 -0.34057642275797662 -2.4298772260265196 0 0 0 0 0.15243028234817757 -0.3730490638152979 0 -0.3730490638152979 0.83679234130633384 0 0 0 0 -0.87227634133296306 -1.2270647924349021 0 -1.2270647924349021 -1.396851477514474 0 0 0 0 -20.951642479223665 0.18337656359375387 0 0.18337656359375387 15.550627585219672 0 0 0 0 -0.069786998294148361 0.95754130701089935 0 0.95754130701089935 -0.96165105959445896 0 0 0 0 -0.099171494291164564 -0.049984251075311903 0 -0.049984251075311903 0.21211482557094352 0 0 0 0 -106.68926212337783 19.703419850604131 0 19.703419850604131 25.258665588830411 0 0 0 0 -129.69993401492684 16.635254078728508 0 16.635254078728508 27.137560027017287 0 0 0 0 -152.29487870031426 -1.5808920140505265 0 -1.5808920140505265 31.482918640645266 0 0 0 0 0.020480150660294516 0.054432408163233248 0 0.054432408163233248 0.1897156614600628 0 0 0 0 23.055816152773332 30.426605952306886 0 30.426605952306886 24.367238027258338 0 0 0 0 -69.905762194024646 16.434967393525483 0 16.434967393525483 9.1103339422314775 0 0 0 0 -122.44636289815026 -7.3030743834810323 0 -7.3030743834810323 16.344463482031301 0 0 0 0 -182.4293542919022 3.5830878666806711 0 3.5830878666806711 22.343183784017469 0 0 0 0 -127.21031543532808 10.197008461633345 0 10.197008461633345 9.4987635400179897 0 0 0 0 -61.980272327111379 26.039364783043879 0 26.039364783043879 -23.56284091078885 0 0 0 0 -1.01817546281486 0.10571568941316301 0 0.10571568941316301 0.51171309755149785 0 0 0 0 -1.4880406806689095 0.029272015982433786 0 0.029272015982433786 -0.19167688089701002 0 0 0 0 -127.53948319718802 69.261853704058808 0 69.261853704058808 -27.414574953812007 0 0 0 0 -173.7603748119509 -106.9549920512361 0 -106.9549920512361 -63.830386855756373 0 0 0 0 -98.618815571310734 -91.909227772461264 0 -91.909227772461264 -62.51564902606242 0 0 0 0 -32.815501537537784 37.901705640116802 0 37.901705640116802 -129.86894919307588 0 0 0 0 54.701396165846745 35.676648010865165 0 35.676648010865165 -32.391111980433493 0 0 0 0 34.113388397799099 -32.594099852757182 0 -32.594099852757182 -70.459497893585421 0 0 0 0 0.041893353624802288 -0.17990414830294554 0 -0.17990414830294554 0.20486553905521054 0 0 0 0 -14.574404957261322 -20.220803922172394 0 -20.220803922172394 -23.066868206565687 0 0 0 0 -26.056802902307936 -5.1211604466649305 0 -5.1211604466649305 -21.900641579668161 0 0 0 0 -4.959444104186332 -5.9280797802734924 0 -5.9280797802734924 -5.0652859172298577 0 0 0 0 4.3961319169586659 -1.062817665534979 0 -1.062817665534979 -22.198711778014058 0 0 0 0 15.074758712062248 11.066005394209924 0 11.066005394209924 -16.357957147518277 0 0 0 0 4.4447531957653155 12.686963984116858 0 12.686963984116858 -10.6303025579723 0 0 0 0 14.900924659299562 -5.5219078984442831 0 -5.5219078984442831 -53.976514578407887 0 0 0 0 0.76986485053566867 23.666268663635606 0 23.666268663635606 -3.8205503252376616 0 0 0 0 -15.537306032936613 20.279691303061554 0 20.279691303061554 24.605310674572848 0 0 0 0 6.9807681664560732 39.935065835190656 0 39.935065835190656 22.433019292664085 0 0 0 0 76.109115661144642 22.107279878727994 0 22.107279878727994 -11.192980184759961 0 0 0 0 0.022650795567999538 0.39055991264192969 0 0.39055991264192969 1.1683019736334312 0 0 0 0 -40.833920135142762 0.92719737098013866 0 0.92719737098013866 11.525709384926699 0 0 0 0 -17.508739735421841 6.6612195228188398 0 6.6612195228188398 10.134163173077468 0 0 0 0 -131.40561672566582 -56.371992202902135 0 -56.371992202902135 -6.7546356382793533 0 0 0 0 -0.93300513115600126 0.12700897303607306 0 0.12700897303607306 -0.80521869375324551 0 0 0 0 -191.80803587190348 45.595505908703672 0 45.595505908703672 4.420223985919506 0 0 0 0 -46.771444591357067 63.112023854807376 0 63.112023854807376 44.27963644849946 0 0 0 0 -110.29694559763266 -19.744115799720703 0 -19.744115799720703 52.368728120620858 0 0 0 0 -93.206804510771235 -50.277934920815191 0 -50.277934920815191 -33.615226198803384 0 0 0 0 -35.293579366804806 20.739457194803734 0 20.739457194803734 -11.681021677031477 0 0 0 0 -74.54140001151336 -3.0223727151719233 0 -3.0223727151719233 20.849659478485787 0 0 0 0 -41.32451448006168 23.155951453048232 0 23.155951453048232 12.717195314313756 0 0 0 0 -8.6103793996367131 17.600636518139765 0 17.600636518139765 10.826257714744571 0 0 0 0 -34.75850731941 7.3437360573774697 0 7.3437360573774697 34.74057022634554 0 0 0 0 -9.0881305021375738 0.29964760563368031 0 0.29964760563368031 20.98638284421714 0 0 0 0 -11.067899780411381 9.0306624231513837 0 9.0306624231513837 -2.6516939885721058 0 0 0 0 0.42784884790987521 0.81922567234523669 0 0.81922567234523669 3.5905205976353973 0 0 0 0 -4.658985194187153 15.806927124013441 0 15.806927124013441 6.5376206712420526 0 0 0 0 -27.633141110460201 5.70226382606171 0 5.70226382606171 4.7029876923896836 0 0 0 0 -8.0733638008068738 5.803037026197444 0 5.803037026197444 1.9171568648872039 0 0 0 0 -18.780248382324999 4.9903916896892326 0 4.9903916896892326 8.2951770589538683 0 0 0 0 -19.290538195084082 1.6810856802565013 0 1.6810856802565013 7.5564035521197361 0 0 0 0 -2.6889661803787623 1.3018237211861212 0 1.3018237211861212 5.9321870540928803 0 0 0 0 -20.651754807164252 -0.35996108401127458 0 -0.35996108401127458 18.368432218595785 0 0 0 0 -11.721253005581893 -3.6101743329379428 0 -3.6101743329379428 -0.27313176617952201 0 0 0 0 -23.664294371735195 -0.1285874165443488 0 -0.1285874165443488 22.792580818331544 0 0 0 0 -17.985837752291445 -12.133606278239462 0 -12.133606278239462 7.6232094251384339 0 0 0 0 -12.739662552556183 3.1707178398429363 0 3.1707178398429363 8.8737702629358637 0 0 0 0 -2.1639746046618242 -1.7424070075487901 0 -1.7424070075487901 0.3918264509450069 0 0 0 0 -7.3322204862688523 -0.4458092735782202 0 -0.4458092735782202 1.389074368454331 0 0 0 0 -6.0164798203295504 4.7720486199795005 0 4.7720486199795005 5.7983794334521122 0 0 0 0 -6.1006117676935609 2.2285247989429418 0 2.2285247989429418 1.5455384356415864 0 0 0 0 -7.571648673105642 2.3747453206935774 0 2.3747453206935774 0.78978725521420201 0 0 0 0 -9.9416730757841378 -15.61581202812544 0 -15.61581202812544 44.327599038012352 0 0 0 0 -8.8460634820707291 -2.6786605543061368 0 -2.6786605543061368 -0.8406952740110083 0 0 0 0 -20.718597964488254 5.9025068934323599 0 5.9025068934323599 20.073786978392491 0 0 0 0 -2.1808838887450293 -4.2652810318145349 0 -4.2652810318145349 -6.2580796271509023 0 0 0 0 -30.765145367961395 -0.26275336785267456 0 -0.26275336785267456 10.626542916266125 0 0 0 0 -26.380163919809775 1.295413963456685 0 1.295413963456685 -1.5886628652011439 0 0 0 0 -40.123912096772074 -9.9278057752499436 0 -9.9278057752499436 -6.9030679047943551 0 0 0 0 0.37114900614627544 0.18182960806750081 0 0.18182960806750081 -0.36524454889778807 0 0 0 0 -6.8144182350333722 15.71479467923983 0 15.71479467923983 15.528702440809244 0 0 0 0 -62.111083176743705 -18.068493827230299 0 -18.068493827230299 -10.61804638097756 0 0 0 0 -16.038301405086258 -2.9612476142806141 0 -2.9612476142806141 -5.6880734211450772 0 0 0 0 -39.52511288138885 -5.4387089574564413 0 -5.4387089574564413 8.6259386842722208 0 0 0 0 -61.598198832352864 12.525159715777789 0 12.525159715777789 -5.6145890640715663 0 0 0 0 -39.834171602880815 5.7156090757620461 0 5.7156090757620461 -2.4779810352227827 0 0 0 0 -37.59294986589066 5.7217785923157862 0 5.7217785923157862 -3.6946219958657593 0 0 0 0 -2.699049949408618 3.4900920247133058 0 3.4900920247133058 2.0479722084403846 0 0 0 0 -11.625468283609734 -5.8896227104143293 0 -5.8896227104143293 5.4870994951924388 0 0 0 0 -1.6252107809888905 1.2524444546226121 0 1.2524444546226121 -0.33818228601652911 0 0 0 0 -2.2244138281021151 -10.547134892037661 0 -10.547134892037661 8.5228599005198191 0 0 0 0 -8.2683922004671331 0.60497778901709864 0 0.60497778901709864 -8.0113003027258856 0 0 0 0 2.0298674963078156 3.3938306402459872 0 3.3938306402459872 3.2398821358062833 0 0 0 0 -0.42467531704898676 0.6021244485620425 0 0.6021244485620425 -0.89261178490229731 0 0 0 0 -15.687229924797052 -14.860060935846521 0 -14.860060935846521 -4.3564465424049104 0 0 0 0 2.3118938219922711 5.0491277734386557 0 5.0491277734386557 2.5190558640689815 0 0 0 0 -1.4282888315133278 6.3173321733707866 0 6.3173321733707866 4.4007831341021699 0 0 0 0 6.9481103148182228 16.619433735223264 0 16.619433735223264 11.746078251078757 0 0 0 0 -11.239703092979198 -3.4425868897898226 0 -3.4425868897898226 -6.7718692863777505 0 0 0 0 -9.9865616446247714 8.2417318739058487 0 8.2417318739058487 -8.8682104545583513 0 0 0 0 -10.916988111140066 2.7675737710997907 0 2.7675737710997907 2.0231182872449263 0 0 0 0 8.6782132331530875 10.520415524520935 0 10.520415524520935 -8.9146257493715098 0 0 0 0 2.997106639062622 3.3582240619579409 0 3.3582240619579409 3.0992946945715545 0 0 0 0 2.9783319839953037 6.2122875524694052 0 6.2122875524694052 -12.75836904275593 0 0 0 0 -0.15611068401629602 0.19503668208043834 0 0.19503668208043834 -0.31790400688159626 0 0 0 0 -36.495355084228322 16.23651536926721 0 16.23651536926721 -25.825447333226805 0 0 0 0 -37.55650489902564 1.4045034835041008 0 1.4045034835041008 6.2290608324193499 0 0 0 0 -26.803049917673889 -1.1835512215627375 0 -1.1835512215627375 6.5686916781696141 0 0 0 0 -40.615027710880895 -18.961944780530416 0 -18.961944780530416 -24.849875438224313 0 0 0 0 -6.2020827496389757 34.930237607355309 0 34.930237607355309 16.839770704844202 0 0 0 0 -12.657070919478883 10.101571781913236 0 10.101571781913236 14.86411138918686 0 0 0 0 -49.181199399474281 41.137872756124978 0 41.137872756124978 -11.504244355218093 0 0 0 0 -24.089533997341277 9.5981853534780157 0 9.5981853534780157 1.8039743751091919 0 0 0 0 -27.88769953380779 9.3609926244168946 0 9.3609926244168946 24.699863013753017 0 0 0 0 -35.022735448275853 -3.1748912371220115 0 -3.1748912371220115 23.052754114677214 0 0 0 0 -14.962792998767164 0.98975811220887078 0 0.98975811220887078 1.1012999027720263 0 0 0 0 -8.8835871541273264 5.0452239592337946 0 5.0452239592337946 0.23445109132586595 0 0 0 0 -14.423720913376656 -6.5773875974704197 0 -6.5773875974704197 4.0249988216003203 0 0 0 0 -15.91791952376208 4.191404869875508 0 4.191404869875508 0.98682883475342031 0 0 0 0 -22.373924986536622 -0.28102711296605776 0 -0.28102711296605776 2.8446531669187607 0 0 0 0 -2.6217185154246065 2.1693263527848958 0 2.1693263527848958 2.0959668190355067 0 0 0 0 -11.491931501769223 1.2595405875154764 0 1.2595405875154764 0.7719638523049801 0 0 0 0 -13.519757170448429 2.4084553566822251 0 2.4084553566822251 -4.7272042632416742 0 0 0 0 -15.083686575391766 11.793029449145251 0 11.793029449145251 4.0396946046417384 0 0 0 0 -19.579307410388033 3.4674336877813783 0 3.4674336877813783 4.9661599790608477 0 0 0 0 -9.7252764788372588 10.506703457703907 0 10.506703457703907 29.266231433104792 0 0 0 0 -20.62787066559499 21.437356898126584 0 21.437356898126584 5.6055648059089735 0 0 0 0 -9.2877871457335708 0.28227217320886488 0 0.28227217320886488 0.76798369989392734 0 0 0 0 -7.2047949443147088 1.1772892096986594 0 1.1772892096986594 1.6645294387806551 0 0 0 0 -18.410506003559931 -2.75687726885144 0 -2.75687726885144 1.8192278309365975 0 0 0 0 -0.79952172913817776 -15.389110293136127 0 -15.389110293136127 6.3226288392861534 0 0 0 0 -10.426597195279328 4.6541253064294779 0 4.6541253064294779 5.2949873775227161 0 0 0 0 -8.2246186596557891 1.5594282893919171 0 1.5594282893919171 -0.62511563679549909 0 0 0 0 -8.9102558576698812 4.1890840545364654 0 4.1890840545364654 8.173069614795395 0 0 0 0 -16.961463465753241 2.342196381505687 0 2.342196381505687 7.8404339071176139 0 0 0 0 -13.712383696421057 5.6719080334749492 0 5.6719080334749492 4.1221299383265659 0 0 0 0 -11.455635759640362 2.036420675899496 0 2.036420675899496 0.44158137714683643 0 0 0 0 -12.095737046603585 4.2051377522939823 0 4.2051377522939823 0.96754761945653067 0 0 0 0 -12.152302402981832 -12.396502460276281 0 -12.396502460276281 -1.461305891639995 0 0 0 0 -14.538061425575506 1.514695411019261 0 1.514695411019261 3.5998425427350185 0 0 0 0 -26.380249215962294 -3.6205351159310339 0 -3.6205351159310339 11.808166669208674 0 0 0 0 -18.637320926722349 -0.83890576556254626 0 -0.83890576556254626 2.1516511324892642 0 0 0 0 -15.587357678451554 0.4195511030192165 0 0.4195511030192165 3.9868914934089617 0 0 0 0 -17.636014907434856 -6.8726700346650205 0 -6.8726700346650205 15.066763738122972 0 0 0 0 -4.4360263720111011 1.2030914330815001 0 1.2030914330815001 1.9284326203204269 0 0 0 0 -13.700429859263295 0.51894881760676981 0 0.51894881760676981 3.649741507674662 0 0 0 0 -24.730181892703058 9.2376397326332835 0 9.2376397326332835 -1.6440843596136574 0 0 0 0 -14.09591100391799 4.3910746212034155 0 4.3910746212034155 -7.9799432914773547 0 0 0 0 -18.719469624373914 -9.1710129700536385 0 -9.1710129700536385 5.0404045985580979 0 0 0 0 -25.818721162155498 7.8232986976015582 0 7.8232986976015582 -8.6760404452934097 0 0 0 0 -32.678188944043598 -9.9426970482229819 0 -9.9426970482229819 -3.5797568632569892 0 0 0 0 -14.753471764350024 2.936203562233402 0 2.936203562233402 7.9158232154395591 0 0 0 0 -11.788387593382367 -0.8203254183347326 0 -0.8203254183347326 -0.66419594517370228 0 0 0 0 -26.672544433711664 1.8285821660622155 0 1.8285821660622155 14.970182807948845 0 0 0 0 -19.258305993253515 0.15551780356073452 0 0.15551780356073452 2.842037693588098 0 0 0 0 -14.587213823689581 2.9987068233137961 0 2.9987068233137961 7.9210399099811184 0 0 0 0 -18.712510951678684 -8.4759650451353075 0 -8.4759650451353075 5.8052868998520459 0 0 0 0 -30.05959526550032 0.47969147400200995 0 0.47969147400200995 16.453954471605442 0 0 0 0 -17.880087936976267 -1.6179928933858965 0 -1.6179928933858965 1.8254139452123415 0 0 0 0 -19.688547218161602 -5.9775676701081153 0 -5.9775676701081153 4.4836099272506544 0 0 0 0 -21.973890219474924 -7.5775298829316 0 -7.5775298829316 17.159735507177601 0 0 0 0 -28.633204961008232 -0.85915897051604873 0 -0.85915897051604873 5.8109378998255004 0 0 0 0 -25.930766740714262 -2.4729277673381063 0 -2.4729277673381063 -13.826008364499927 0 0 0 0 -34.015056241638945 4.77369382261403 0 4.77369382261403 -6.1406262734467134 0 0 0 0 -20.18745660066088 -7.7420821074921236 0 -7.7420821074921236 -3.0103056751711108 0 0 0 0 -13.340145432602185 -6.4744086210880027 0 -6.4744086210880027 2.5984855874352206 0 0 0 0 -18.824988167954871 -3.7245753423997598 0 -3.7245753423997598 3.0209646945315711 0 0 0 0 -16.775911857454048 -11.637656478379185 0 -11.637656478379185 8.9846185768770397 0 0 0 0 -2.8231668056259878 -1.1770034404917542 0 -1.1770034404917542 3.3082086909261506 0 0 0 0 -21.085925371366102 -8.086144530322656 0 -8.086144530322656 6.4831460796633991 0 0 0 0 -8.1151616708848451 11.914614598241442 0 11.914614598241442 15.500787119899428 0 0 0 0 9.83088386655254 26.906652752037857 0 26.906652752037857 22.768977797326926 0 0 0 0 -32.023537443442365 -1.8836099562025126 0 -1.8836099562025126 -2.9854482326659406 0 0 0 0 0.26868377052240078 -0.13014957784472259 0 -0.13014957784472259 1.5927926977650799 0 0 0 0 -34.270015162810523 8.2117275556798006 0 8.2117275556798006 -8.5531058586117723 0 0 0 0 -37.691570704830141 11.324193304664783 0 11.324193304664783 -3.3833705752263938 0 0 0 0 -28.307540596704712 -0.17166042213844435 0 -0.17166042213844435 -5.0961821223561969 0 0 0 0 -38.520514330165497 0.68088387008778284 0 0.68088387008778284 -2.6475124871010607 0 0 0 0 -50.481276517387414 -1.9591673930650213 0 -1.9591673930650213 -1.6489331706311932 0 0 0 0 -30.808778917531754 12.696971626528251 0 12.696971626528251 -2.8782553119439456 0 0 0 0 -40.492752524372918 9.9618323735611227 0 9.9618323735611227 -1.8571524483262394 0 0 0 0 -19.390654717683901 5.0292883623211253 0 5.0292883623211253 -10.368943278120845 0 0 0 0 -43.790602607135952 13.028736494759373 0 13.028736494759373 -0.51457656562199183 0 0 0 0 -89.343473380017713 8.1467300735523125 0 8.1467300735523125 5.5668315476490591 0 0 0 0 -5.5558857364996612 -1.7229144555098195 0 -1.7229144555098195 -0.51462967075770938 0 0 0 0 -11.655099357630661 47.366209183301862 0 47.366209183301862 -25.472314906394374 0 0 0 0 -34.135485099092875 16.838910019525656 0 16.838910019525656 -6.1145680614057056 0 0 0 0 -20.819222257617184 -19.275156626618273 0 -19.275156626618273 12.709308274793738 0 0 0 0 -40.420691211442772 -3.7879059437094682 0 -3.7879059437094682 13.799269850007661 0 0 0 0 -0.16174425224681244 0.016300244790905083 0 0.016300244790905083 0.47199069667716853 0 0 0 0 41.268720167148786 73.363537478180049 0 73.363537478180049 1.3562514445321199 0 0 0 0 -37.407966817140505 9.409606740608 0 9.409606740608 8.47557010009875 0 0 0 0 -137.14882677441256 -9.2337967643408447 0 -9.2337967643408447 13.784392447945223 0 0 0 0 -25.450246694940688 -19.367162032946524 0 -19.367162032946524 -1.3335558887905137 0 0 0 0 -52.566491112972926 -28.596325630937212 0 -28.596325630937212 16.744596645094447 0 0 0 0 -43.502858007244413 -33.851591162234612 0 -33.851591162234612 4.4438173230539064 0 0 0 0 -10.355365705649092 -9.166477943176929 0 -9.166477943176929 10.780738351601315 0 0 0 0 -1.8093423158443329 -18.627062628366488 0 -18.627062628366488 -5.2499249897268001 0 0 0 0 34.634535499348203 -4.0749583759031154 0 -4.0749583759031154 -1.4199328038626788 0 0 0 0 -12.462011484460618 -35.382028469983929 0 -35.382028469983929 -2.3658200663574931 0 0 0 0 2.8539500216502347 -0.80089350297899387 0 -0.80089350297899387 3.8946383429288574 0 0 0 0 -3.4728232085767559 0.95359671183440753 0 0.95359671183440753 0.67482254463276092 0 0 0 0 -1.195339520359159 1.9458276351985404 0 1.9458276351985404 0.51269085194771968 0 0 0 0 0.33775164997538454 -0.2367830852416084 0 -0.2367830852416084 -0.26615800790445548 0 0 0 0 -1.0463745627043224 -0.31296021923703954 0 -0.31296021923703954 -0.13599837422467093 0 0 0 0 -22.225575302431025 -3.3598186325814581 0 -3.3598186325814581 1.7050246700288199 0 0 0 0 -13.59857463071603 0.65530976313760547 0 0.65530976313760547 -1.5765522872220288 0 0 0 0 -14.517840057036665 -2.9911178433676611 0 -2.9911178433676611 -1.6808930687998043 0 0 0 0 -9.0947377330248855 -0.18088298215671728 0 -0.18088298215671728 -1.6546615457418454 0 0 0 0 -19.048827840751983 8.5899429178661197 0 8.5899429178661197 5.0028831430923617 0 0 0 0 -10.983194426750742 -5.8457834681167355 0 -5.8457834681167355 -4.1005173451428831 0 0 0 0 1.1604722973333992 -5.7869560193704217 0 -5.7869560193704217 0.23136100266731319 0 0 0 0 -3.3449365430210953 -3.827544119328655 0 -3.827544119328655 1.0954329801267206 0 0 0 0 -7.575236273793962 4.4130141784751302 0 4.4130141784751302 -0.77687447437826407 0 0 0 0 -3.9137429590305146 -1.1261681613420138 0 -1.1261681613420138 -1.0968839263679442 0 0 0 0 -0.67951322556554139 -0.52297867469872727 0 -0.52297867469872727 -1.2434653540437191 0 0 0 0 -3.0563138697027625 -3.1763419662315666 0 -3.1763419662315666 -0.082066548512315762 0 0 0 0 -2.7674629525315879 1.7784037894151901 0 1.7784037894151901 0.63329612768217947 0 0 0 0 -4.9865126247386797 -0.33741235597385533 0 -0.33741235597385533 -0.54680575155917666 0 0 0 0 -4.0170277447837179 -0.21043494269600416 0 -0.21043494269600416 -5.2220016676357659 0 0 0 0 -3.5594082230882123 -4.1301261579141908 0 -4.1301261579141908 -7.9017019033262557 0 0 0 0 -3.5462473495008453 -3.9954972030385392 0 -3.9954972030385392 2.5352960296942797 0 0 0 0 -8.0586551660380792 -2.9179186649252529 0 -2.9179186649252529 0.54925812951131547 0 0 0 0 -0.55283819129781264 -0.13412206092251466 0 -0.13412206092251466 0.21865252005752056 0 0 0 0 -0.072568044324642145 -2.1105410319632361 0 -2.1105410319632361 1.3749391592192928 0 0 0 0 -8.7555632142357354 -6.3537008933286074 0 -6.3537008933286074 -4.6887688156179479 0 0 0 0 -9.2887535488616777 -6.7011275484941564 0 -6.7011275484941564 1.7125564112536722 0 0 0 0 -4.1037260881603288 -9.8273925308151036 0 -9.8273925308151036 -2.4590543802925708 0 0 0 0 -0.59831156425661902 -10.827290711494072 0 -10.827290711494072 -5.1724401245408274 0 0 0 0 -0.50082342864789098 -7.7467481149226387 0 -7.7467481149226387 -4.1872512928983383 0 0 0 0 -1.883554410947454 -14.312115327654851 0 -14.312115327654851 -30.306105158989794 0 0 0 0 -28.813293579067249 -33.848630809941767 0 -33.848630809941767 -12.409559370343118 0 0 0 0 -13.601960587388476 -12.860143623638386 0 -12.860143623638386 -22.199289799746964 0 0 0 0 -61.161624545518862 -24.783101297243377 0 -24.783101297243377 23.187124528911099 0 0 0 0 -0.012478747254888845 -0.16623184166253857 0 -0.16623184166253857 -0.56580222575544625 0 0 0 0 -70.120220858507992 -1.3029195356387611 0 -1.3029195356387611 10.051807381859788 0 0 0 0 1.5256954199094253 3.5731872601970807 0 3.5731872601970807 -20.501884373693979 0 0 0 0 -0.74756422927931809 -0.26962801743143139 0 -0.26962801743143139 0.58432837728268283 0 0 0 0 -0.2136937827078127 -1.2449439610671815 0 -1.2449439610671815 0.59864437377112489 0 0 0 0 -10.002437474954718 -0.94563332208852557 0 -0.94563332208852557 2.4002758777471627 0 0 0 0 -8.6837391005519748 -2.8641258201386393 0 -2.8641258201386393 -0.17929342786521829 0 0 0 0 -12.069949715135408 -0.99919665846670114 0 -0.99919665846670114 2.1509121567995066 0 0 0 0 -9.5819579705994329 -3.1837735636602247 0 -3.1837735636602247 0.9026210117061737 0 0 0 0 -0.67897716543019837 -0.33197690585719553 0 -0.33197690585719553 1.113854418090908 0 0 0 0 -3.9864696959518824 -1.4480041915609014 0 -1.4480041915609014 -1.4723763127279312 0 0 0 0 -1.0938557302885445 -0.84806590739249454 0 -0.84806590739249454 1.6032048805979415 0 0 0 0 -6.2637304563999123 2.9459492862871741 0 2.9459492862871741 3.2769039039544623 0 0 0 0 -6.4926788365191896 -0.6621002821181321 0 -0.6621002821181321 1.4358292101242114 0 0 0 0 -5.9511122677340609 0.0078368030656008614 0 0.0078368030656008614 -0.66127877047514971 0 0 0 0 -3.9344201583671747 -0.40244490098177721 0 -0.40244490098177721 1.4411630451638757 0 0 0 0 -2.6909801463821257 0.13404105411988976 0 0.13404105411988976 1.7355094758739866 0 0 0 0 -2.304295890134199 -4.2622041542513749 0 -4.2622041542513749 -3.6396618941818701 0 0 0 0 -3.2787986525036104 0.36436511472263078 0 0.36436511472263078 2.7876613569296289 0 0 0 0 1.9834364599591936 3.8977772380342657 0 3.8977772380342657 -3.9580927990774484 0 0 0 0 -1.20619311312098 0.40276946948245085 0 0.40276946948245085 1.2665897417481615 0 0 0 0 -1.6266463930442114 -0.32947132886307884 0 -0.32947132886307884 2.8935081253950443 0 0 0 0 -6.4856001635307621 -0.5757925296868649 0 -0.5757925296868649 0.9667710999763699 0 0 0 0 -7.3088530974164314 -3.1303403992395431 0 -3.1303403992395431 -0.082080534217134016 0 0 0 0 -12.106941829105381 -1.8178575523909615 0 -1.8178575523909615 0.50426288129688146 0 0 0 0 -10.280475450465019 -3.9898966426813729 0 -3.9898966426813729 0.10286591883317442 0 0 0 0 -12.137893326202175 -4.8394842941028671 0 -4.8394842941028671 -0.10878090435184617 0 0 0 0 -12.282596238133465 -5.2252663003471227 0 -5.2252663003471227 -0.20992505395429362 0 0 0 0 -6.1909493033981562 -7.5265795017728649 0 -7.5265795017728649 -4.1936613166851231 0 0 0 0 -17.272165035202306 -3.2246682482719251 0 -3.2246682482719251 2.0792598636156185 0 0 0 0 -18.746919412458283 -3.5463249692764034 0 -3.5463249692764034 2.2059809924377021 0 0 0 0 -19.414943081928868 -8.3671829501959678 0 -8.3671829501959678 -1.5939541238818293 0 0 0 0 -17.477588350038786 -3.3888146196323277 0 -3.3888146196323277 1.9490343258508744 0 0 0 0 -14.248835398183473 -2.9630722520585238 0 -2.9630722520585238 2.0030342016082727 0 0 0 0 -12.81212718676079 -1.9089458004939317 0 -1.9089458004939317 -0.32447171820456333 0 0 0 0 -12.513982266207677 -3.1578495879734874 0 -3.1578495879734874 0.78444364839197078 0 0 0 0 -10.143593503365082 -2.27562209831801 0 -2.27562209831801 -0.49235017874025289 0 0 0 0 -16.625067892063271 -0.59292791351975893 0 -0.59292791351975893 -0.20087106120257658 0 0 0 0 -18.210399411825165 -5.2924890224659578 0 -5.2924890224659578 -3.7609576087546088 0 0 0 0 -12.937154212772839 0.59049245157771679 0 0.59049245157771679 -0.6847835583532742 0 0 0 0 -16.447555682118264 0.43625221576880335 0 0.43625221576880335 4.1570437761734524 0 0 0 0 -10.957897877341566 2.9529469233963823 0 2.9529469233963823 1.347099021541446 0 0 0 0 -16.7116073326888 -0.47730236123442182 0 -0.47730236123442182 1.0038196943939184 0 0 0 0 -19.324527911607674 -1.4236910032770567 0 -1.4236910032770567 3.7554431403248998 0 0 0 0 -17.316558567188622 -2.9980842895748836 0 -2.9980842895748836 1.9824103231251513 0 0 0 0 1.5542970573515049 -5.3307117468311276 0 -5.3307117468311276 -0.011615061954273642 0 0 0 0 1.309898272398641 -6.6672513811761505 0 -6.6672513811761505 0.44611691893217653 0 0 0 0 -0.7348660406950529 -2.8654397945188155 0 -2.8654397945188155 0.25342657884420527 0 0 0 0 -4.0097028325574904 -3.9840866106513211 0 -3.9840866106513211 0.11479783099147989 0 0 0 0 0.085012318611006776 -3.5992005161912175 0 -3.5992005161912175 -1.5979313210352757 0 0 0 0 -14.064584975724756 -5.1870494360655925 0 -5.1870494360655925 2.6514767852130205 0 0 0 0 -2.3685161431269535 -2.0246624587244497 0 -2.0246624587244497 -0.59112031708866652 0 0 0 0 -2.1165406342124697 -2.6402990933062824 0 -2.6402990933062824 0.69699027549262382 0 0 0 0 0.17291582026198515 0.14360106001717199 0 0.14360106001717199 -0.13488150715905323 0 0 0 0 -10.973629301165602 -1.9798144554775945 0 -1.9798144554775945 1.9496785034193067 0 0 0 0 -2.5819639973292978 0.36395028232001891 0 0.36395028232001891 -0.28016081455127173 0 0 0 0 -2.2314298156703609 -2.4179020452518101 0 -2.4179020452518101 1.5136301896355866 0 0 0 0 -15.796529442120118 -1.0972789670087764 0 -1.0972789670087764 2.4718976153764061 0 0 0 0 -10.523301572281824 -2.2389191997832816 0 -2.2389191997832816 -0.23429499217333172 0 0 0 0 -2.2242084427360851 -18.841550338250755 0 -18.841550338250755 10.262025093381453 0 0 0 0 -16.226101472452683 2.2277811192306558 0 2.2277811192306558 -0.64085826305046112 0 0 0 0 -29.416623214181072 0.63549331582784419 0 0.63549331582784419 2.8586677351792105 0 0 0 0 -9.4266203374418183 -4.0964149020330183 0 -4.0964149020330183 -1.728904861805006 0 0 0 0 -10.723506626794915 -1.5191519387231551 0 -1.5191519387231551 -3.2288001041794701 0 0 0 0 -10.625637524008653 -5.0467960764433144 0 -5.0467960764433144 3.1570267591981747 0 0 0 0 -11.502763149403336 -2.8988664014225094 0 -2.8988664014225094 0.25280714923633241 0 0 0 0 -9.989008425506654 -3.7360105188775492 0 -3.7360105188775492 -0.506323819129332 0 0 0 0 -9.69736466177892 -5.5324137575016152 0 -5.5324137575016152 -0.026169510438130317 0 0 0 0 -24.977024759634105 -18.716478241297921 0 -18.716478241297921 35.370486144651011 0 0 0 0 -10.428401548695886 -2.2056956120157771 0 -2.2056956120157771 0.046023502551618689 0 0 0 0 -3.8816164749362088 -4.1441426127127556 0 -4.1441426127127556 12.326044497655914 0 0 0 0 -1.2291717879884345 -18.037189211117834 0 -18.037189211117834 14.83086832153964 0 0 0 0 -9.0422818522674788 -11.510507529674669 0 -11.510507529674669 37.971333037344607 0 0 0 0 -21.057875017246261 -18.085033470432109 0 -18.085033470432109 16.607685373123388 0 0 0 0 -4.6271997777325851 1.5090336870628107 0 1.5090336870628107 12.077480385755052 0 0 0 0 -23.564322109341617 9.0067269257653777 0 9.0067269257653777 11.644138043661997 0 0 0 0 0.0034869279161284794 7.6718488396567182 0 7.6718488396567182 19.186314412200545 0 0 0 0 -4.8822024205721108 -1.32004023685543 0 -1.32004023685543 -0.03043246262606325 0 0 0 0 -0.50841362434039183 -8.7723223787173765 0 -8.7723223787173765 -1.0562638134629196 0 0 0 0 -0.90681495814087043 -24.857105823470782 0 -24.857105823470782 38.689108151659184 0 0 0 0 -3.5725955013522253 -3.7122642404563351 0 -3.7122642404563351 -1.6167645562934467 0 0 0 0 -2.0455460272660981 0.17207374538342046 0 0.17207374538342046 0.080065069623374452 0 0 0 0 -9.2142403991711035 -2.2820803369885425 0 -2.2820803369885425 0.95070184367318689 0 0 0 0 -9.7791473344668702 -3.2206412409925065 0 -3.2206412409925065 0.68737068373661714 0 0 0 0 -10.015559628524443 -2.6406996932646933 0 -2.6406996932646933 0.65714830479760167 0 0 0 0 -13.558916678875903 -3.1640187107294651 0 -3.1640187107294651 0.70041196443924036 0 0 0 0 0.67633328071954768 -0.00050561447685293359 0 -0.00050561447685293359 -0.0077125115373997133 0 0 0 0 -32.58126749308235 -28.179395809652263 0 -28.179395809652263 -38.888808538284593 0 0 0 0 -18.806420338003818 -3.0781378185399149 0 -3.0781378185399149 -67.26843199217376 0 0 0 0 -37.086720833886488 26.298122650225537 0 26.298122650225537 -21.113964565926608 0 0 0 0 -52.913100663287082 -2.3345868983453215 0 -2.3345868983453215 9.4074609908507227 0 0 0 0 -25.199272498467167 -28.854203777256572 0 -28.854203777256572 -16.297181523889208 0 0 0 0 -20.38045486506735 23.792481618732722 0 23.792481618732722 -30.324419697255024 0 0 0 0 -0.7624321471132891 -0.15164150678252031 0 -0.15164150678252031 -0.10522128912927675 0 0 0 0 -2.1343237902528926 -5.7379417601213163 0 -5.7379417601213163 -41.845940367461878 0 0 0 0 8.0747517770080321 -5.5047435041745416 0 -5.5047435041745416 -10.324808024769652 0 0 0 0 -8.7841151356340106 -6.4913786032399798 0 -6.4913786032399798 1.7455925511794703 0 0 0 0 -2.7182328301449843 -22.768995770999563 0 -22.768995770999563 -0.493323955068945 0 0 0 0 5.3991749440351668 -9.704925798314207 0 -9.704925798314207 -12.440457729844411 0 0 0 0 5.6127501029740188 -7.8917993723967825 0 -7.8917993723967825 1.4461018495586586 0 0 0 0 -2.9117599073299241 -0.88971722304476908 0 -0.88971722304476908 0.24174967037651829 0 0 0 0 -3.4159977727164179 -0.59336464213881701 0 -0.59336464213881701 -2.3005410264475441 0 0 0 0 -13.373320627363228 -2.0518100868546867 0 -2.0518100868546867 -0.58606220130843667 0 0 0 0 -2.1901315910242247 -0.81995334873675763 0 -0.81995334873675763 -0.17419256964185736 0 0 0 0 -8.2948520304987596 -2.7338137412643846 0 -2.7338137412643846 -0.52074133929954769 0 0 0 0 -1.205798780862704 -0.92830280426609546 0 -0.92830280426609546 -0.55827214574762962 0 0 0 0 -6.4539130480559379 5.5760829460828631 0 5.5760829460828631 -8.0352263902032064 0 0 0 0 -9.3473009914815748 1.9412644346998036 0 1.9412644346998036 -2.5345577291265045 0 0 0 0 -9.5243051587871861 3.5307296497282863 0 3.5307296497282863 -1.2293743535556132 0 0 0 0 -12.01735297872915 1.9633377893396187 0 1.9633377893396187 1.4248555415849751 0 0 0 0 -9.4502238741458768 3.1889169632094791 0 3.1889169632094791 -0.32732794200569515 0 0 0 0 -13.903840274141317 6.8081409557575796 0 6.8081409557575796 19.860761993347978 0 0 0 0 -11.963309152384252 -0.65315817341086724 0 -0.65315817341086724 0.20550259468981236 0 0 0 0 -6.0905661492831769 7.9879691038229907 0 7.9879691038229907 -2.295493196949792 0 0 0 0 -10.703815775844873 15.697131123666225 0 15.697131123666225 -0.40005226296000274 0 0 0 0 -5.4395027756364698 5.4669913904621481 0 5.4669913904621481 -12.903796000472198 0 0 0 0 -29.423137646156192 7.3156875259005005 0 7.3156875259005005 48.54768398602107 0 0 0 0 -10.787094646227047 -0.82366376263104257 0 -0.82366376263104257 -6.2232092394517622 0 0 0 0 -12.759297557425141 -0.8669335152708415 0 -0.8669335152708415 0.090907055039351592 0 0 0 0 -49.19470215778415 9.0412394227265906 0 9.0412394227265906 0.88866205554472799 0 0 0 0 -14.622211079601527 -4.8104755222532845 0 -4.8104755222532845 4.5496483270702583 0 0 0 0 -11.677278464265328 11.111824228757314 0 11.111824228757314 6.3158519680337122 0 0 0 0 -13.634329239849741 -31.133952064272457 0 -31.133952064272457 -3.2633981936548935 0 0 0 0 -22.870624588983446 -1.2913627506851526 0 -1.2913627506851526 26.883133390451576 0 0 0 0 -19.852866250649186 -21.194221403872461 0 -21.194221403872461 23.268919137037301 0 0 0 0 -16.631624252848898 -3.6419565566105496 0 -3.6419565566105496 1.2962215869805984 0 0 0 0 -35.079241794161135 16.535953428389945 0 16.535953428389945 15.103212486458119 0 0 0 0 -22.292335097790101 -26.923790702858771 0 -26.923790702858771 28.839313673239246 0 0 0 0 -56.53764915831789 -12.453364077996227 0 -12.453364077996227 18.940427528396867 0 0 0 0 -15.752193230584453 -1.0552609322728017 0 -1.0552609322728017 21.94951411867379 0 0 0 0 -11.133723235853722 -9.641211664134687 0 -9.641211664134687 16.692228541323061 0 0 0 0 -12.655563000269922 2.4676761841071624 0 2.4676761841071624 0.17094219609793981 0 0 0 0 -4.1827045116096997 -16.033635417109537 0 -16.033635417109537 8.7290055149368584 0 0 0 0 -12.030477059944353 -1.8629806205777864 0 -1.8629806205777864 0.95890409205219684 0 0 0 0 -10.223242124206081 5.1207597953599588 0 5.1207597953599588 -1.5220027457379501 0 0 0 0 -8.8193145534251016 3.3831033912356361 0 3.3831033912356361 -3.8401235124335926 0 0 0 0 -10.570991461431618 5.9622734843921421 0 5.9622734843921421 -3.5570632334195125 0 0 0 0 -15.234762065846077 -2.0596563949531221 0 -2.0596563949531221 0.83229552456146583 0 0 0 0 -32.213099581300867 -4.6046554947350842 0 -4.6046554947350842 25.30954295387312 0 0 0 0 -8.4520064053140231 6.4532291183975303 0 6.4532291183975303 -3.4518995812492506 0 0 0 0 -10.873273447906058 -16.931975488282632 0 -16.931975488282632 -21.835590007319524 0 0 0 0 -0.54096358028109748 0.1297648984191242 0 0.1297648984191242 0.066616757424876494 0 0 0 0 -27.36444416604968 29.976923710203209 0 29.976923710203209 -30.492111250978951 0 0 0 0 -3.5324482676153366 -1.4418531252165394 0 -1.4418531252165394 -0.97828099838409344 0 0 0 0 -8.6724966538622539 5.4984360568896591 0 5.4984360568896591 -6.6694730061088876 0 0 0 0 -1.3348634081654511 -1.6056354496452867 0 -1.6056354496452867 -0.35931713374429197 0 0 0 0 -1.0969239234823771 -0.49836156171953894 0 -0.49836156171953894 -0.10826770319864498 0 0 0 0 -0.22776140045652937 -2.1141295907219728 0 -2.1141295907219728 -2.4450331467429578 0 0 0 0 -4.2141904126669862 -0.97229580458183218 0 -0.97229580458183218 -0.61396459341095966 0 0 0 0 -2.2473807629332896 -5.9223986021445967 0 -5.9223986021445967 -3.2379155053134525 0 0 0 0 -13.336938092961645 -11.046896233597465 0 -11.046896233597465 2.5407450339749147 0 0 0 0 -53.892297342621532 -6.1911140596015457 0 -6.1911140596015457 3.2070133933485323 0 0 0 0 -17.080270674954818 8.7395214191967625 0 8.7395214191967625 -5.8429975302914272 0 0 0 0 -22.012417477315694 15.94127494583995 0 15.94127494583995 1.2115180675174884 0 0 0 0 -32.237409998540443 25.427184591627821 0 25.427184591627821 -23.409343322007771 0 0 0 0 -11.19328209313494 -12.658403179175025 0 -12.658403179175025 -38.449724146865947 0 0 0 0 -14.986825892587603 -2.0806333591774546 0 -2.0806333591774546 -3.0204359775786802 0 0 0 0 -70.307063935999395 -5.8420392666316729 0 -5.8420392666316729 2.0273898493401248 0 0 0 0 -9.7691616030938349 -0.22855928794433567 0 -0.22855928794433567 13.37964229128238 0 0 0 0 -13.958521113849201 -1.3312222288168414 0 -1.3312222288168414 13.090881927469127 0 0 0 0 -11.317220907930277 0.7211665920683572 0 0.7211665920683572 3.4510180980596488 0 0 0 0 -12.633533015539342 1.3460436209118143 0 1.3460436209118143 11.397486712890895 0 0 0 0 -13.035886594999283 -2.9419912632915839 0 -2.9419912632915839 3.6041586955757339 0 0 0 0 8.3582722553223903 -10.144170915405084 0 -10.144170915405084 17.423557389649432 0 0 0 0 -12.188091834418401 -5.8134540066394038 0 -5.8134540066394038 -2.5863244938402659 0 0 0 0 -14.339027727007306 2.5918505987062872 0 2.5918505987062872 -0.71466303480383431 0 0 0 0 -8.9548599300742353 3.9524131870327892 0 3.9524131870327892 -10.125628020315276 0 0 0 0 -9.8348432205320933 -1.5604694311609819 0 -1.5604694311609819 -0.49106623952957307 0 0 0 0 -17.030542912273177 9.0121810883191529 0 9.0121810883191529 -5.0782011362358048 0 0 0 0 -14.482659768160147 3.9505293451167631 0 3.9505293451167631 1.3046950570699209 0 0 0 0 -25.022514422390486 7.7301766659483064 0 7.7301766659483064 12.863697026774844 0 0 0 0 -14.358979959635388 0.17351227530570879 0 0.17351227530570879 0.51044970488757468 0 0 0 0 -3.5076299593172324 1.4661881272596355 0 1.4661881272596355 -0.14623802843811151 0 0 0 0 -13.360809414698906 -0.13556426161170521 0 -0.13556426161170521 -0.76724396755435009 0 0 0 0 -13.817574864414459 1.6677828360784046 0 1.6677828360784046 0.44610585331639963 0 0 0 0 -15.463857359812209 0.99605513894096021 0 0.99605513894096021 2.8553968475146121 0 0 0 0 -28.033247663959628 -3.0123983902610689 0 -3.0123983902610689 7.324845347236888 0 0 0 0 -13.408896953764042 1.4073423978308028 0 1.4073423978308028 1.0537718095724813 0 0 0 0 -13.764458387282048 0.4725310194191934 0 0.4725310194191934 -1.1403199818728353 0 0 0 0 -13.410480601441495 0.076662673808668647 0 0.076662673808668647 0.35365381527781126 0 0 0 0 -20.004822395868246 -10.536600015627414 0 -10.536600015627414 14.798060702412386 0 0 0 0 -14.822880166592313 1.484044283785579 0 1.484044283785579 -1.4772818233823273 0 0 0 0 -3.2065071340691156 0.045840288247936734 0 0.045840288247936734 -1.5318684619161238 0 0 0 0 -15.946910539159944 1.5349233072209927 0 1.5349233072209927 -2.1464744607221746 0 0 0 0 -15.700863404945267 1.3740537380762419 0 1.3740537380762419 -0.87550402719057274 0 0 0 0 -3.7876980369829427 -0.026663268697111331 0 -0.026663268697111331 -0.077564589877110013 0 0 0 0 -15.587940544390676 2.7486720886298599 0 2.7486720886298599 0.90034426906663612 0 0 0 0 -12.827173943972412 2.3647631806009599 0 2.3647631806009599 -2.1857056774098282 0 0 0 0 -15.650755653935221 1.110375080637823 0 1.110375080637823 0.067732555927193516 0 0 0 0 -17.009656027538313 2.3751503485706849 0 2.3751503485706849 -0.78656128452764307 0 0 0 0 -13.579186522890771 2.3655754100171071 0 2.3655754100171071 0.45743566998353224 0 0 0 0 -18.837304700723507 9.6125202808184156 0 9.6125202808184156 6.0031250947635044 0 0 0 0 -12.60410505614982 4.5006436897828621 0 4.5006436897828621 1.9208132016979107 0 0 0 0 -11.078061674039727 2.444927259791791 0 2.444927259791791 0.20234147191312069 0 0 0 0 -3.3040306143040077 0.71505933560739443 0 0.71505933560739443 1.7927770943276276 0 0 0 0 -15.789667775958833 2.5389659521022026 0 2.5389659521022026 1.8354342663996022 0 0 0 0 -9.9187754978956946 2.7516306222700848 0 2.7516306222700848 -0.059243212035056558 0 0 0 0 -8.5811152066578416 5.8743737734336285 0 5.8743737734336285 -4.4987200462704777 0 0 0 0 -49.536663157359726 -8.1290688468584733 0 -8.1290688468584733 4.4561597942226285 0 0 0 0 0.60579128107746882 -0.080068667658549586 0 -0.080068667658549586 -0.33985497023976341 0 0 0 0 -28.033247663953233 -3.0123983902637637 0 -3.0123983902637637 7.3248453472376696 0 0 0 0 -28.03324766395508 -3.0123983902623195 0 -3.0123983902623195 7.3248453472368862 0 0 0 0 -17.742169701094781 -4.2700285411325183 0 -4.2700285411325183 -6.3632357134277413 0 0 0 0 -11.116573873812783 -1.3984521556236196 0 -1.3984521556236196 -1.6038627066934623 0 0 0 0 -11.768023746134986 -0.79108447525140946 0 -0.79108447525140946 0.34012411574781254 0 0 0 0 -10.737878861016725 0.7487557961985658 0 0.7487557961985658 -3.57434441956201 0 0 0 0 -11.222681700329758 -0.11071234697089949 0 -0.11071234697089949 -3.9348229582143404 0 0 0 0 -12.212280794901289 1.6571880120053493 0 1.6571880120053493 -5.3389384785878065 0 0 0 0 -10.81718038001145 -0.33195221845915057 0 -0.33195221845915057 -3.7679754904883112 0 0 0 0 -11.248320722286735 0.83796335608440131 0 0.83796335608440131 -1.827310561310469 0 0 0 0 -9.8502477370643646 0.79652900934866011 0 0.79652900934866011 -2.2224725759296007 0 0 0 0 -12.0733099216136 0.54726108743815871 0 0.54726108743815871 -2.2501691795796432 0 0 0 0 -11.738862843097195 1.4344804426481801 0 1.4344804426481801 -3.7510431306451437 0 0 0 0 -12.852546934131624 0.50035024388012062 0 0.50035024388012062 -4.4694895458362396 0 0 0 0 -10.947095345431023 -0.65943623040326205 0 -0.65943623040326205 -0.1793968380942752 0 0 0 0 -13.403169402347203 1.2219917275403986 0 1.2219917275403986 -1.0930262563842916 0 0 0 0 -9.7385151511639378 2.0957240236665484 0 2.0957240236665484 -1.0260352953862366 0 0 0 0 -11.035965301936358 0.27703715237566939 0 0.27703715237566939 0.13571499948443488 0 0 0 0 -10.306267426324666 1.9968279597753167 0 1.9968279597753167 2.2380012468129848 0 0 0 0 -8.7214947875696858 1.6456512866079591 0 1.6456512866079591 0.0042078565807273094 0 0 0 0 -9.9013968584431495 1.792973906806651 0 1.792973906806651 1.4324161535687949 0 0 0 0 -9.5190374521548051 -0.59665331963245904 0 -0.59665331963245904 -0.1391236217284586 0 0 0 0 -11.169972231372185 -0.34271678173780629 0 -0.34271678173780629 -0.10261713059583144 0 0 0 0 -7.2843774938903749 -0.23705171378021639 0 -0.23705171378021639 0.7809075151302165 0 0 0 0 -11.082810297003789 -0.9361641287407565 0 -0.9361641287407565 0.46867013478936315 0 0 0 0 -11.092682418559747 -0.99781315756638378 0 -0.99781315756638378 1.2543774881384024 0 0 0 0 -2.9674170767302712 -5.2013628197728394 0 -5.2013628197728394 2.4578919591972408 0 0 0 0 -6.7240927477578225 -3.0851219697567558 0 -3.0851219697567558 3.433292812396985 0 0 0 0 -7.1378728729558905 -1.3691543459106299 0 -1.3691543459106299 0.44331695641082614 0 0 0 0 -8.9341767457287915 0.63787094397187616 0 0.63787094397187616 1.1509297629180537 0 0 0 0 -4.3555267021687385 -0.97107636440667111 0 -0.97107636440667111 0.63561813334036121 0 0 0 0 -7.9998396623053765 -4.6080102088181443 0 -4.6080102088181443 2.7377508410457949 0 0 0 0 -7.5184065343733053 -0.12671061078559287 0 -0.12671061078559287 0.76332140565542417 0 0 0 0 -7.8540973333983857 -1.5677251706792958 0 -1.5677251706792958 2.9424459127868658 0 0 0 0 -6.8893689737630694 -0.14523630881251348 0 -0.14523630881251348 1.7737842018152965 0 0 0 0 -7.8117623490473989 3.6282311933877818 0 3.6282311933877818 0.55748684781462998 0 0 0 0 -7.2175997611093408 -0.25495448432678813 0 -0.25495448432678813 4.067192000591163 0 0 0 0 -6.7351656764014649 -0.42569896431320409 0 -0.42569896431320409 0.55397535503865225 0 0 0 0 -7.139875038232276 -1.2478993436314454 0 -1.2478993436314454 -0.47428145403239341 0 0 0 0 -6.7098764431830205 -1.9855586117056134 0 -1.9855586117056134 -2.4646825810153814 0 0 0 0 -7.7061447191135812 -4.9882129979222327 0 -4.9882129979222327 3.3247135424718977 0 0 0 0 -6.5437328572170372 0.99279787372609007 0 0.99279787372609007 -1.0492838792269623 0 0 0 0 -6.4465183708343829 1.3287447772865875 0 1.3287447772865875 0.010221976212562822 0 0 0 0 -9.8803544200691249 0.44415388926078947 0 0.44415388926078947 1.1598332123137922 0 0 0 0 -5.8479674412453893 -0.80266887488420124 0 -0.80266887488420124 1.5163572344628391 0 0 0 0 -6.353585231950742 -0.041371145000828946 0 -0.041371145000828946 0.72617646083841769 0 0 0 0 -7.3225552934818552 -6.1734019353520466 0 -6.1734019353520466 -0.076083043687965812 0 0 0 0 -7.4943339025765567 4.2935067379837717 0 4.2935067379837717 1.9474960017205376 0 0 0 0 -5.3002957854936952 -0.53078985999076256 0 -0.53078985999076256 0.58873017574712805 0 0 0 0 -6.3813190243150757 0.10476961255037409 0 0.10476961255037409 -2.3458782023038793 0 0 0 0 -5.8690819213516079 0.017681831158512296 0 0.017681831158512296 -2.3355263500240611 0 0 0 0 -4.3823342178329767 3.2349765262793255 0 3.2349765262793255 -6.5212038258175085 0 0 0 0 -5.873407935195246 -0.68476591892597583 0 -0.68476591892597583 -3.0351758879460817 0 0 0 0 -6.7816110899225386 -1.0742498764665243 0 -1.0742498764665243 0.28165344320694319 0 0 0 0 -6.1240168486365292 0.22102617692149806 0 0.22102617692149806 -3.1098783800040053 0 0 0 0 -7.2193678259300214 0.82334602938914259 0 0.82334602938914259 -5.7599116520187295 0 0 0 0 -7.3072658233322727 -1.6040378312546864 0 -1.6040378312546864 -2.4686719455382899 0 0 0 0 -5.2463663776434259 -0.71778463991540775 0 -0.71778463991540775 -4.8609968187217873 0 0 0 0 -7.1704513496206346 -1.5501186205849535 0 -1.5501186205849535 -3.4179159593674342 0 0 0 0 -7.9281264050507616 -1.1175826622696903 0 -1.1175826622696903 -3.5167626896163711 0 0 0 0 -22.629890186387456 -3.8167288834465438 0 -3.8167288834465438 0.40022422136755864 0 0 0 0 -27.227297122030222 5.5661976751352835 0 5.5661976751352835 3.5056892366963268 0 0 0 0 -2.2164813640035845 5.3840933103021413 0 5.3840933103021413 -0.39939063113561701 0 0 0 0 -26.336272861663247 10.234806575809383 0 10.234806575809383 -5.9224001740404919 0 0 0 0 -11.994030924228355 -1.821255447521045 0 -1.821255447521045 -1.8624997458987642 0 0 0 0 0.53782760850507838 0.097219387549966285 0 0.097219387549966285 0.63531245392624902 0 0 0 0 -17.647735424291568 3.1188673489341241 0 3.1188673489341241 0.75604387303210863 0 0 0 0 -8.5890700054701483 3.4879697613165939 0 3.4879697613165939 -2.1113026571342846 0 0 0 0 -17.669264668074902 4.2254988717972708 0 4.2254988717972708 -1.4186559367390998 0 0 0 0 -14.519309597601477 -0.84335659152583631 0 -0.84335659152583631 1.1014785028323786 0 0 0 0 -3.5874098673883239 0.81786116840963885 0 0.81786116840963885 -0.67243566535917365 0 0 0 0 -5.4280190196733784 -0.25535523933606719 0 -0.25535523933606719 0.7905544708714235 0 0 0 0 -7.1400839480099734 0.45053694432227864 0 0.45053694432227864 1.033175515309853 0 0 0 0 -7.0588032384584949 5.403276489461291 0 5.403276489461291 1.5162038712160211 0 0 0 0 -5.502878455688915 2.0724812670729733 0 2.0724812670729733 -2.321557014940268 0 0 0 0 -4.4962994659729674 0.81583969019075209 0 0.81583969019075209 0.65446909271358455 0 0 0 0 -2.6851585299637364 4.3803321121951271 0 4.3803321121951271 -1.9270213514495442 0 0 0 0 -9.5056566100720374 1.7442083945984486 0 1.7442083945984486 -1.3194659706327485 0 0 0 0 -4.7440510446613189 5.3369122940650868 0 5.3369122940650868 -3.2322135831238086 0 0 0 0 -9.6341604160726995 0.29210002055872941 0 0.29210002055872941 1.0515041302229744 0 0 0 0 -10.220568710161508 -0.13164841647048764 0 -0.13164841647048764 1.2380414899584489 0 0 0 0 -13.223391262049518 -6.2445589275941131 0 -6.2445589275941131 11.677373376629589 0 0 0 0 -7.2546858515888744 2.6163446009791187 0 2.6163446009791187 -2.04322870613845 0 0 0 0 -30.434070383549624 3.4774868375124584 0 3.4774868375124584 7.6743187513600333 0 0 0 0 -20.495639444870903 0.21930695086575724 0 0.21930695086575724 1.3444077053264323 0 0 0 0 -16.368281219743949 14.282490652113445 0 14.282490652113445 -0.80412071346309233 0 0 0 0 -8.3830588924867158 7.9039331028794173 0 7.9039331028794173 -1.1316800491714945 0 0 0 0 -15.605329952920783 5.6062159577414832 0 5.6062159577414832 3.0872547882054704 0 0 0 0 2.6585480669091339 10.25803469893674 0 10.25803469893674 -1.0296708287705627 0 0 0 0 -4.2443721947620361 9.7607543800179712 0 9.7607543800179712 -10.608594885427266 0 0 0 0 -21.606856136939314 18.69313878364602 0 18.69313878364602 -1.0439082266706379 0 0 0 0 -16.403391844702128 6.7083726214737567 0 6.7083726214737567 3.4759115463909325 0 0 0 0 -13.523081267569871 1.2213258914499576 0 1.2213258914499576 0.19049401296186397 0 0 0 0 -2.2572981587543595 3.0034365594103285 0 3.0034365594103285 1.2250743722213215 0 0 0 0 8.9046835052467941 -11.691158859827851 0 -11.691158859827851 99.881211318868509 0 0 0 0 -1.4549472110733248 0.37127078016912662 0 0.37127078016912662 1.0291347646212516 0 0 0 0 -22.868358919189632 18.173737918225015 0 18.173737918225015 -10.717777400474088 0 0 0 0 -28.836673003297619 9.8204003193467315 0 9.8204003193467315 -6.2952882431592201 0 0 0 0 -29.570077668668091 15.519772551010263 0 15.519772551010263 -4.5966782559844397 0 0 0 0 -27.105600291361043 11.708070898576782 0 11.708070898576782 1.2354313897747033 0 0 0 0 -27.857684705068095 5.1672980533222415 0 5.1672980533222415 5.1804969709984903 0 0 0 0 -36.956320394117938 7.5731027427167419 0 7.5731027427167419 10.823746189208265 0 0 0 0 -26.554585083537859 1.5182230161304757 0 1.5182230161304757 12.345822528555026 0 0 0 0 -26.009932044000379 1.8401810591456371 0 1.8401810591456371 8.4255450821827509 0 0 0 0 -15.36018953538769 9.9696858717241525 0 9.9696858717241525 1.4919887462856778 0 0 0 0 -24.994725089355597 2.8201643252404587 0 2.8201643252404587 3.4572830200888234 0 0 0 0 -7.7206979709441548 6.8572173496951585 0 6.8572173496951585 0.79356700068331554 0 0 0 0 -21.635325524095606 -1.2535971140397919 0 -1.2535971140397919 2.6635042251315895 0 0 0 0 -8.8842047101034041 11.193134774566474 0 11.193134774566474 -2.6407377035869217 0 0 0 0 -22.213750831749167 -2.6786667285408896 0 -2.6786667285408896 -0.46368082025901458 0 0 0 0 -23.679375085477659 -6.0238058264766323 0 -6.0238058264766323 -3.9202642802598291 0 0 0 0 -15.375750372837501 2.7595381463648607 0 2.7595381463648607 -13.59880469032035 0 0 0 0 -25.554948321518168 9.7714830954499377 0 9.7714830954499377 -2.8569131011960707 0 0 0 0 -29.556503431658712 -5.5273022658875846 0 -5.5273022658875846 2.7337027839711254 0 0 0 0 -25.902151142985531 -0.59026777315887102 0 -0.59026777315887102 6.459758385595336 0 0 0 0 -21.916494304219668 3.6290097526462404 0 3.6290097526462404 5.758841831469482 0 0 0 0 -9.104276187812502 9.6799699581148815 0 9.6799699581148815 6.9125913813626596 0 0 0 0 -9.1534702867702435 7.4495652170192415 0 7.4495652170192415 11.655134133339686 0 0 0 0 -4.9567453771978762 2.5361304969969467 0 2.5361304969969467 11.134512103232716 0 0 0 0 -6.5726851881803441 14.367120090849397 0 14.367120090849397 19.943021433121135 0 0 0 0 -18.940717879893782 -2.7250306457333666 0 -2.7250306457333666 7.0264175170183822 0 0 0 0 -21.987699056828205 3.5901798069589201 0 3.5901798069589201 12.457631023125948 0 0 0 0 -14.922787265848456 -1.4361910963688871 0 -1.4361910963688871 10.893723026163002 0 0 0 0 -28.888565395402111 5.7356018217201097 0 5.7356018217201097 18.22041656843291 0 0 0 0 -14.35864711388308 5.2090039469859688 0 5.2090039469859688 19.132446590015419 0 0 0 0 -7.4169871728445287 10.323387131773643 0 10.323387131773643 27.46963718592508 0 0 0 0 -8.1123326206143247 0.17102342615265798 0 0.17102342615265798 11.852615891781625 0 0 0 0 4.8719600667991472 15.035378782407349 0 15.035378782407349 34.648546773152702 0 0 0 0 4.2943188132976502 19.976672303919486 0 19.976672303919486 27.172844206053526 0 0 0 0 10.091078302571987 16.94001060434762 0 16.94001060434762 17.613136296056112 0 0 0 0 5.0659721729571174 5.0588403327773221 0 5.0588403327773221 15.407180077965307 0 0 0 0 11.680142175213405 31.026787101464947 0 31.026787101464947 28.271052336587935 0 0 0 0 9.6894579565159802 14.445246092125416 0 14.445246092125416 25.602367024956038 0 0 0 0 -2.1066854180737238 0.87612915074954323 0 0.87612915074954323 -0.2097454298821988 0 0 0 0 5.784614595822859 21.047781041937387 0 21.047781041937387 22.120492370178603 0 0 0 0 15.480818957902557 25.91834235783335 0 25.91834235783335 0.28060463660436596 0 0 0 0 -1.8105086585310346 26.123535132306657 0 26.123535132306657 19.062228206183164 0 0 0 0 -0.73978438002193769 0.5629950164262354 0 0.5629950164262354 0.1021362539273184 0 0 0 0 -13.024753491212323 -4.8732174743896053 0 -4.8732174743896053 15.336418806775072 0 0 0 0 -35.199277460396843 -15.163328614924124 0 -15.163328614924124 11.22381123654146 0 0 0 0 -0.90252646871094555 0.22571642302938955 0 0.22571642302938955 0.035572777159918766 0 0 0 0 18.042928781436331 29.2011631168706 0 29.2011631168706 -37.563905817185237 0 0 0 0 -33.396616244208417 65.117751373328474 0 65.117751373328474 2.8558977115769721 0 0 0 0 -53.633033314912609 15.103950619144477 0 15.103950619144477 -38.19186076393018 0 0 0 0 -0.99861973061024401 54.453393003987614 0 54.453393003987614 -47.992051769044998 0 0 0 0 -44.767848593900453 -10.217779562769559 0 -10.217779562769559 8.1670136778831761 0 0 0 0 -7.1547992458128533 4.2343317211698936 0 4.2343317211698936 50.710430877800491 0 0 0 0 -57.227526234504694 29.920830097479097 0 29.920830097479097 38.472732777149929 0 0 0 0 1.5252211736133177 24.793095530556911 0 24.793095530556911 42.766544900406814 0 0 0 0 -11.196456132679316 83.209161807499115 0 83.209161807499115 82.911939726718401 0 0 0 0 90.998383424962412 94.989679322536702 0 94.989679322536702 65.425098713923489 0 0 0 0 -50.177249064352509 -1.2759629707241515 0 -1.2759629707241515 -2.0526409916926696 0 0 0 0 -0.16512116188125603 -0.052815082473742336 0 -0.052815082473742336 0.61844379218628065 0 0 0 0 -1.563087173839449 -3.9907264231122781 0 -3.9907264231122781 -2.9537682393517457 0 0 0 0 2.7618457944663533 38.72691688289521 0 38.72691688289521 52.717960867541535 0 0 0 0 1.4560269889861956 33.239123505145699 0 33.239123505145699 67.307940429114069 0 0 0 0 -21.708214696165669 12.325906734738012 0 12.325906734738012 10.896129180090014 0 0 0 0 15.547521227690595 46.769331006583172 0 46.769331006583172 2.6452336664562068 0 0 0 0 -13.827145924846263 44.10045672678676 0 44.10045672678676 52.731802964674216 0 0 0 0 -50.185005633476862 -1.7552987335342358 0 -1.7552987335342358 17.476759865840449 0 0 0 0 -62.39525138645331 5.675517164674261 0 5.675517164674261 14.066400626430521 0 0 0 0 -22.522453228773884 -9.5546590197202761 0 -9.5546590197202761 -18.663937262436605 0 0 0 0 -22.012756610474753 2.3596811849801043 0 2.3596811849801043 2.5793004657150007 0 0 0 0 -11.726065560473216 11.874615551529601 0 11.874615551529601 1.7023097684992763 0 0 0 0 -20.178756826689096 10.640326665741611 0 10.640326665741611 -21.368828706652948 0 0 0 0 -17.783771703458115 3.2143435757857901 0 3.2143435757857901 -6.3267838830786332 0 0 0 0 -52.259464860344451 11.282448209238623 0 11.282448209238623 3.0468517162031503 0 0 0 0 -35.238336253522903 -31.87636068561013 0 -31.87636068561013 -30.349550333363595 0 0 0 0 -36.008719400043447 -1.3471234662140716 0 -1.3471234662140716 35.991882523294237 0 0 0 0 -19.568793265088971 -7.1448346256817103 0 -7.1448346256817103 10.500704626547389 0 0 0 0 -15.158894437352501 9.2271630206622817 0 9.2271630206622817 -1.029705336251368 0 0 0 0 14.622813760840017 24.862242874058794 0 24.862242874058794 57.634206206204681 0 0 0 0 23.794144139517812 55.507011830796955 0 55.507011830796955 65.784126675791043 0 0 0 0 -0.4523690579411479 -0.65491073656804488 0 -0.65491073656804488 1.3980911519198296 0 0 0 0 -0.99909423875941172 -0.12368528310927118 0 -0.12368528310927118 0.4920330881210353 0 0 0 0 -14.589313064076123 -7.7188535782693748 0 -7.7188535782693748 -2.8240636039162155 0 0 0 0 -4.1868383073306177 -15.772324316044205 0 -15.772324316044205 -14.673687676511406 0 0 0 0 -1.6684494078035641 -3.3240767070938091 0 -3.3240767070938091 3.9435096616875853 0 0 0 0 -36.569555419926473 20.275668298816754 0 20.275668298816754 1.487224564116957 0 0 0 0 -0.35674546836490606 -0.059300922901157627 0 -0.059300922901157627 0.053512890983098971 0 0 0 0 1.9813896687901433 -10.201681232238798 0 -10.201681232238798 -2.7810634287308797 0 0 0 0 -12.165819117467436 -16.465925514168958 0 -16.465925514168958 15.536269196123044 0 0 0 0 -11.765041503465881 0.00099587496783470897 0 0.00099587496783470897 0.47001626247116035 0 0 0 0 -8.0476911342429958 -4.6297523833713115 0 -4.6297523833713115 7.1539116298452541 0 0 0 0 -1.2672611089992927 -1.8285765043796776 0 -1.8285765043796776 1.70298448940491 0 0 0 0 -8.1776439461436894 1.8561991977002208 0 1.8561991977002208 0.89158439315826854 0 0 0 0 -8.3132041263424981 1.4661889431722557 0 1.4661889431722557 0.34187302994996571 0 0 0 0 -7.3542213762375468 2.0787734593893674 0 2.0787734593893674 -1.0773802801900842 0 0 0 0 -7.5327746819766617 4.8543640229337086 0 4.8543640229337086 -9.0616126597030302 0 0 0 0 -7.1338178419537144 2.6006379387249012 0 2.6006379387249012 0.037158294684900284 0 0 0 0 -10.980941869234487 0.050342563401661877 0 0.050342563401661877 1.1135968560296621 0 0 0 0 -0.53696731905893103 6.0684785455696897 0 6.0684785455696897 -2.4248923689624462 0 0 0 0 -9.2010508590884506 -0.58530007303089038 0 -0.58530007303089038 0.56898336034298724 0 0 0 0 -11.333325036243082 -0.26266132022226429 0 -0.26266132022226429 -3.1827690188179076 0 0 0 0 -14.717433816012544 -4.7214820957397023 0 -4.7214820957397023 2.293087165583529 0 0 0 0 -7.3695865391350708 5.5234540670642218 0 5.5234540670642218 -4.2103412742931141 0 0 0 0 -6.8555054930803543 -0.0031348958596639775 0 -0.0031348958596639775 0.610170469317175 0 0 0 0 -4.4880463522327041 -1.0075916179353013 0 -1.0075916179353013 1.1045394931416372 0 0 0 0 -9.0006615500133194 -7.059688353263482 0 -7.059688353263482 5.0890023463757643 0 0 0 0 1.9811028858412101 -9.324340428273814 0 -9.324340428273814 -39.80406838843885 0 0 0 0 -6.9516679095277141 -17.232428182093656 0 -17.232428182093656 0.84864315726099449 0 0 0 0 -47.728696208635483 9.8292159673920878 0 9.8292159673920878 25.564208009958691 0 0 0 0 -16.183068414968155 -0.96417369253632357 0 -0.96417369253632357 0.14152617525771505 0 0 0 0 -0.85593596837025743 -0.48992024739599116 0 -0.48992024739599116 0.34763286595980314 0 0 0 0 3.8552633264043834 -19.661428414665238 0 -19.661428414665238 -11.424405717754603 0 0 0 0 -78.628426623809901 15.713942424175116 0 15.713942424175116 26.489282636286475 0 0 0 0 -45.227636766237993 -5.0854040116103079 0 -5.0854040116103079 30.558723012563632 0 0 0 0 -32.774288185382829 29.832210617345311 0 29.832210617345311 -22.739180819616649 0 0 0 0 -13.99824014503065 7.8628397863547548 0 7.8628397863547548 -2.2705870177412635 0 0 0 0 -13.816299253150646 8.6934981780049725 0 8.6934981780049725 -1.472913080754779 0 0 0 0 -13.427359648940183 9.3207275290289431 0 9.3207275290289431 -1.1472106793081593 0 0 0 0 -18.782972689402413 7.3038039862357209 0 7.3038039862357209 16.352327493762971 0 0 0 0 -13.600098643469664 -0.16866780673598214 0 -0.16866780673598214 8.289930295547606 0 0 0 0 -21.139706245663547 6.7379877056810642 0 6.7379877056810642 0.18003570103223865 0 0 0 0 -19.540132565239901 0.51834840889753764 0 0.51834840889753764 0.36632675914916035 0 0 0 0 -12.727227549097046 2.2586163693194883 0 2.2586163693194883 0.96841942235094591 0 0 0 0 -11.235440030516664 -0.49704653063899595 0 -0.49704653063899595 0.58286130003893843 0 0 0 0 1.1248628395906426 0.77736999559157383 0 0.77736999559157383 -0.13345765080212058 0 0 0 0 -11.048623155973473 -2.0722418488990115 0 -2.0722418488990115 -0.47011383642563942 0 0 0 0 -12.174717175259502 3.1745627394195708 0 3.1745627394195708 -9.8108335667119491 0 0 0 0 -27.596478304321863 3.8589077936615013 0 3.8589077936615013 16.903726567345444 0 0 0 0 -20.304859849560337 -0.5434076411555715 0 -0.5434076411555715 1.1595797628909963 0 0 0 0 -17.306815642908077 -11.964186685365405 0 -11.964186685365405 19.316153272624774 0 0 0 0 -11.739211637415636 4.6265233311676752 0 4.6265233311676752 3.0524888010922169 0 0 0 0 -27.080562516244754 1.4767341903172166 0 1.4767341903172166 5.4363145770530537 0 0 0 0 -31.632126870596949 14.169829879226455 0 14.169829879226455 1.4097227722290882 0 0 0 0 -9.8300660866888769 1.1969703308104611 0 1.1969703308104611 2.5722634447716644 0 0 0 0 -23.458127560107187 -18.365430164395033 0 -18.365430164395033 -8.096021082484981 0 0 0 0 -65.139149937666843 -5.9738337939974997 0 -5.9738337939974997 20.451859757483305 0 0 0 0 -18.629050442493735 -3.7101770925622759 0 -3.7101770925622759 2.5925610792443194 0 0 0 0 -5.8752851310761116 6.5525930526087564 0 6.5525930526087564 4.1965227718354186 0 0 0 0 -14.976472220980426 0.69030145436918366 0 0.69030145436918366 0.84124973847361184 0 0 0 0 -29.093763888595504 3.8737799632478982 0 3.8737799632478982 5.2860917413718482 0 0 0 0 -40.555385627111718 -1.4272126112846877 0 -1.4272126112846877 4.0812709062284966 0 0 0 0 -15.455800793430853 0.69078604600406379 0 0.69078604600406379 -1.9525757055492932 0 0 0 0 -4.0192476706814659 -0.5768948754733394 0 -0.5768948754733394 -0.13665384574227701 0 0 0 0 -16.327175351370215 -5.9025308772790481 0 -5.9025308772790481 -3.6728792935880392 0 0 0 0 -13.398718495077935 1.4218846778231036 0 1.4218846778231036 0.18775599639432139 0 0 0 0 -14.804744903829828 2.1229162758621101 0 2.1229162758621101 0.86219681404895709 0 0 0 0 -13.104254623060587 0.54440778960378466 0 0.54440778960378466 2.3171968236841733 0 0 0 0 -16.0134905024006 2.5685463777590485 0 2.5685463777590485 3.0879302521356067 0 0 0 0 -16.254909582791697 6.4886835444635125 0 6.4886835444635125 1.0197720835343915 0 0 0 0 -16.853468518820591 1.7673119281339496 0 1.7673119281339496 2.3239971080984105 0 0 0 0 -13.327493312843846 3.9771348802435873 0 3.9771348802435873 1.2337809071329913 0 0 0 0 -19.496408538133554 -2.8525607598571181 0 -2.8525607598571181 2.721295963887036 0 0 0 0 -22.703264164980141 0.1932078258106884 0 0.1932078258106884 -0.96309759011952289 0 0 0 0 -11.191434990874797 0.36135319674119426 0 0.36135319674119426 0.74960332275017605 0 0 0 0 -12.598693409636326 2.191091235773456 0 2.191091235773456 4.5273498671112975 0 0 0 0 -8.503983829426943 1.7768118383050933 0 1.7768118383050933 5.9676293215292731 0 0 0 0 -7.293633028697883 -1.6636098195530549 0 -1.6636098195530549 2.3369807102613995 0 0 0 0 -17.073654869640336 2.9205488240676765 0 2.9205488240676765 0.85015464883412051 0 0 0 0 -15.261360986286491 5.657607218790659 0 5.657607218790659 4.3378906786820757 0 0 0 0 -12.370673365296726 2.9573095614206593 0 2.9573095614206593 1.2467625440161703 0 0 0 0 -13.571704219132926 4.6742058863083713 0 4.6742058863083713 4.8045687833470083 0 0 0 0 -22.028272803056097 7.5771640146969119 0 7.5771640146969119 0.97377045662744877 0 0 0 0 -7.9140488440135677 0.42248212256904516 0 0.42248212256904516 4.5682885462734699 0 0 0 0 -8.7124943783579507 7.7087205002336567 0 7.7087205002336567 0.047162404629434107 0 0 0 0 -16.573239005072537 2.9501061569572755 0 2.9501061569572755 1.2027847307607544 0 0 0 0 -11.905034680321478 0.7300933881963374 0 0.7300933881963374 2.0256716968461888 0 0 0 0 -3.1735693686218731 -0.31830909217178061 0 -0.31830909217178061 -0.62839555849399309 0 0 0 0 -8.357210435719935 3.136808195199194 0 3.136808195199194 2.4512603621963081 0 0 0 0 -17.002971619995151 -1.5081239162294651 0 -1.5081239162294651 -5.6159985201694411 0 0 0 0 -7.7199993501642084 5.8230521884216859 0 5.8230521884216859 3.0000601811427066 0 0 0 0 -7.579077962951601 6.9211683631255241 0 6.9211683631255241 4.1843594691750923 0 0 0 0 -34.774628186840346 2.6837046285884014 0 2.6837046285884014 0.56152941690118041 0 0 0 0 -33.12248345277294 13.745282689329315 0 13.745282689329315 -0.62804887055847303 0 0 0 0 -3.6476546501509262 0.99304320302047344 0 0.99304320302047344 0.41444400571840001 0 0 0 0 -17.48382978236441 4.7360660340651748 0 4.7360660340651748 -4.2579701440064355 0 0 0 0 -25.165335638943361 -2.3046257191623454 0 -2.3046257191623454 -10.705991294460517 0 0 0 0 -25.554846956623805 2.797764809664443 0 2.797764809664443 1.7107618327999035 0 0 0 0 -20.608036375631855 11.036720121964947 0 11.036720121964947 9.3043839614180115 0 0 0 0 -24.943941222227295 6.3423481978875103 0 6.3423481978875103 1.8214153437806999 0 0 0 0 -24.794975707085541 4.4485743104398239 0 4.4485743104398239 5.7245919893252122 0 0 0 0 -17.71214305817557 11.639384995249543 0 11.639384995249543 -0.36994807383450734 0 0 0 0 -233.08806825006559 114.97460478351704 0 114.97460478351704 -7.2264874994403243 0 0 0 0 -296.13296333726589 221.05636555117317 0 221.05636555117317 -61.11610063909184 0 0 0 0 -173.86780857800477 96.585220859918095 0 96.585220859918095 -14.403736081277657 0 0 0 0 -313.06146327102806 192.66113615490804 0 192.66113615490804 -14.770329495319693 0 0 0 0 -380.1636632843115 131.63257575782728 0 131.63257575782728 82.932538248274966 0 0 0 0 -499.98240400375153 190.37133851053011 0 190.37133851053011 62.226379203318416 0 0 0 0 -358.38095569527786 81.704831938196875 0 81.704831938196875 65.679486540600024 0 0 0 0 -281.33177692876961 123.08112857951333 0 123.08112857951333 -2.0404456406439131 0 0 0 0 -190.54015604235337 32.855710933898202 0 32.855710933898202 10.609118683713248 0 0 0 0 -136.1054350727527 56.318905797000369 0 56.318905797000369 -21.657651884706326 0 0 0 0 -94.870009253654189 4.519331520249338 0 4.519331520249338 -12.476850995402458 0 0 0 0 -48.293653038699631 23.565791801428759 0 23.565791801428759 -34.930202018920546 0 0 0 0 -76.949701347583868 20.920141430003738 0 20.920141430003738 -17.179398854354076 0 0 0 0 -69.407410344548225 46.28055234765516 0 46.28055234765516 -35.463658273084171 0 0 0 0 -29.977157784604969 1.7280229680799577 0 1.7280229680799577 -31.278952259501725 0 0 0 0 -178.45693301463734 87.661776476302776 0 87.661776476302776 -26.094853464011386 0 0 0 0 -108.83073849745961 31.664098853236023 0 31.664098853236023 -19.809912098288454 0 0 0 0 -67.808584539888216 68.717197193683319 0 68.717197193683319 -50.940731721186367 0 0 0 0 -54.394967989612269 14.275836859595387 0 14.275836859595387 24.575697928672639 0 0 0 0 -100.81046192458234 67.501126797145943 0 67.501126797145943 -19.399010313712353 0 0 0 0 -2.457562338354049 0.21525565142952008 0 0.21525565142952008 0.24902198400624387 0 0 0 0 34.976899059576681 40.367329875802739 0 40.367329875802739 -75.185876581012053 0 0 0 0 -3.8733899950748309 30.536599872988262 0 30.536599872988262 -23.982929157138841 0 0 0 0 -17.28642596047257 4.034456742117241 0 4.034456742117241 -0.76090429959106998 0 0 0 0 -13.251856161940822 -9.9621414003632864 0 -9.9621414003632864 0.32953452502457026 0 0 0 0 -10.749355975369141 11.740764957898547 0 11.740764957898547 -5.2005213048085182 0 0 0 0 -8.4167537521865228 0.018331296472939018 0 0.018331296472939018 0.18644417052093354 0 0 0 0 -8.9971970395833978 8.9182287496936201 0 8.9182287496936201 30.272521638364573 0 0 0 0 -112.460615787405 114.19741844590777 0 114.19741844590777 -126.28326784381007 0 0 0 0 -6.3401732141841727 0.092913007564377148 0 0.092913007564377148 0.25501586556373568 0 0 0 0 10.982173244308342 14.63591133751726 0 14.63591133751726 -32.864101169269532 0 0 0 0 -143.14267410571756 136.98934180856671 0 136.98934180856671 -58.902696065379246 0 0 0 0 -73.232584524173035 75.002521194480238 0 75.002521194480238 -92.179962029594378 0 0 0 0 -118.82807427989201 117.63404783909161 0 117.63404783909161 -104.23492631113434 0 0 0 0 -133.91711649234844 148.88854531383595 0 148.88854531383595 -132.42022447069093 0 0 0 0 -85.538477349906088 131.01197880778014 0 131.01197880778014 -119.90962434609511 0 0 0 0 -499.36151462753651 317.85871988161347 0 317.85871988161347 -98.502950587666248 0 0 0 0 -195.19615744698012 -161.81847111460738 0 -161.81847111460738 -103.98658581549041 0 0 0 0 -2.6329853988747427 0.38082692602170376 0 0.38082692602170376 -0.35753202758895108 0 0 0 0 -197.19638137495127 353.26432459073317 0 353.26432459073317 -486.33324001986165 0 0 0 0 -0.84267787690350815 -57.385596053341125 0 -57.385596053341125 -108.13047879817528 0 0 0 0 -499.50998058673201 35.58227281798186 0 35.58227281798186 38.94916779695275 0 0 0 0 -441.63965569566403 -154.24602892606575 0 -154.24602892606575 26.633323872298487 0 0 0 0 -101.68047914799445 4.2295690104825177 0 4.2295690104825177 16.053852708081493 0 0 0 0 -311.4190622194094 -52.235792340215198 0 -52.235792340215198 4.1631380305175583 0 0 0 0 -26.567797114682151 -5.1647491362839748 0 -5.1647491362839748 6.2449215223163375 0 0 0 0 -59.176092990618372 -60.419229615771584 0 -60.419229615771584 -58.583704900221996 0 0 0 0 -59.14273740105773 -7.4842839492656061 0 -7.4842839492656061 4.426884194680639 0 0 0 0 -39.573741337803085 -23.182585254507007 0 -23.182585254507007 -0.060629024104883911 0 0 0 0 -534.6547771954115 -30.738051197007252 0 -30.738051197007252 62.801706331579908 0 0 0 0 -52.320905096821434 -0.48715197693509538 0 -0.48715197693509538 9.9945518683315235 0 0 0 0 -0.52622731278743429 0.50420922979827587 0 0.50420922979827587 0.0076043799873064116 0 0 0 0 -499.65633472459035 -69.745692836395122 0 -69.745692836395122 76.475097279775255 0 0 0 0 -51.778199863584632 -14.604345854546459 0 -14.604345854546459 0.27996636965814758 0 0 0 0 -140.80568149110155 105.67885115311239 0 105.67885115311239 -72.824299370105678 0 0 0 0 -46.729728113236433 -15.698840722803155 0 -15.698840722803155 -0.42607276517227888 0 0 0 0 -45.309104871752425 -12.967753627578361 0 -12.967753627578361 -8.749835833725399 0 0 0 0 -55.852184212219981 -26.260823644330802 0 -26.260823644330802 -11.731678691092164 0 0 0 0 -1.5967934593023743 1.2819277347517031 0 1.2819277347517031 0.5024411809312288 0 0 0 0 -499.59948709466562 -145.0634955167408 0 -145.0634955167408 -2.5023065298443097 0 0 0 0 -1.0396606302301963 0.72506038254933558 0 0.72506038254933558 0.12265968953921295 0 0 0 0 -19.890613854995422 -3.3997941838000116 0 -3.3997941838000116 -3.795291635041508 0 0 0 0 -51.493869351279045 17.452637325160907 0 17.452637325160907 12.155440306735814 0 0 0 0 -21.157202094652575 7.9851265110910461 0 7.9851265110910461 -6.220137402766369 0 0 0 0 -44.375564895383832 -17.095651517794579 0 -17.095651517794579 2.1666260191003346 0 0 0 0 -26.27052408946588 -6.0994030991576054 0 -6.0994030991576054 -2.7627643183066519 0 0 0 0 -0.088113451232567197 0.042341570351639657 0 0.042341570351639657 -0.032019570019448995 0 0 0 0 -64.254958445258012 -16.589386697334898 0 -16.589386697334898 -0.65727149020008824 0 0 0 0 -44.173896588723551 -9.3407982777654723 0 -9.3407982777654723 5.9577483772640036 0 0 0 0 -12.503787137049926 2.2560066959770939 0 2.2560066959770939 -6.9914933017361953 0 0 0 0 -26.266490846104261 -0.83824922651775546 0 -0.83824922651775546 3.1409047383830151 0 0 0 0 -15.541163379187992 -8.4228775771145763 0 -8.4228775771145763 -3.9380185836545678 0 0 0 0 0.093731319298687388 0.10189687919564516 0 0.10189687919564516 -0.089469012508607865 0 0 0 0 2.4130695290700714 3.0449094695514378 0 3.0449094695514378 -24.37000359012772 0 0 0 0 -12.94837780098004 1.573079617094939 0 1.573079617094939 -0.11244891833041137 0 0 0 0 -1.500009682847907 0.10167700085782938 0 0.10167700085782938 0.11075323073887369 0 0 0 0 -18.425270712563588 -0.37457692553438449 0 -0.37457692553438449 -0.4110332260701739 0 0 0 0 -18.636341717198889 -0.58826902193435704 0 -0.58826902193435704 3.8738635922748097 0 0 0 0 -19.212588859540517 1.1738983483016452 0 1.1738983483016452 2.7123917405091591 0 0 0 0 -0.093810252437545039 0.087111652792118299 0 0.087111652792118299 -0.053967884651116266 0 0 0 0 1.5970366996863277 3.7997268196243645 0 3.7997268196243645 -1.5958094802020586 0 0 0 0 -7.4455224409227867 -1.1255197561668879 0 -1.1255197561668879 3.8488701799665392 0 0 0 0 -3.1958706488530879 3.9263672474167528 0 3.9263672474167528 2.1563608399668013 0 0 0 0 -0.16036337058420935 0.16779689788469687 0 0.16779689788469687 -0.12725212909440603 0 0 0 0 -13.342343320109819 1.5257616638154232 0 1.5257616638154232 2.3718996597737707 0 0 0 0 5.9891354398331345 0.057033894230728466 0 0.057033894230728466 -9.4106366382194153 0 0 0 0 -13.400469728896155 4.3868320484502057 0 4.3868320484502057 -9.8313476389685377 0 0 0 0 -2.513196106059695 -5.2709035293882351 0 -5.2709035293882351 -2.9932137651802169 0 0 0 0 -7.3167462250417259 3.4831017261636843 0 3.4831017261636843 -11.903918459684423 0 0 0 0 -6.702528330442945 -1.6237787086861561 0 -1.6237787086861561 -2.3625944362162876 0 0 0 0 -18.783793393550468 1.7338915158014743 0 1.7338915158014743 0.33586180843068547 0 0 0 0 5.5707598939710223 5.3235995523099353 0 5.3235995523099353 -8.3434630828475065 0 0 0 0 -0.082757247785407273 0.081089769343516416 0 0.081089769343516416 -0.065666804151232022 0 0 0 0 -12.120624219319552 -0.88853868062280661 0 -0.88853868062280661 1.367961495343156 0 0 0 0 -13.058752298524638 2.3128952206306277 0 2.3128952206306277 -0.053753211377202348 0 0 0 0 -12.077678797626959 0.19143919906874807 0 0.19143919906874807 0.13227256110518226 0 0 0 0 -5.5076764440536863 -0.52522109205326117 0 -0.52522109205326117 0.18092204521855493 0 0 0 0 -7.0159595038553562 -2.1249773982525184 0 -2.1249773982525184 -3.0096052441738195 0 0 0 0 -10.512727243927202 -1.2487754280969412 0 -1.2487754280969412 2.2181292322951975 0 0 0 0 -11.240749276932661 0.61075829138433413 0 0.61075829138433413 -2.3666900873480614 0 0 0 0 -10.798018218461721 -2.8701214662741634 0 -2.8701214662741634 -2.6474240597072503 0 0 0 0 -10.11546878328727 -3.7941526200807303 0 -3.7941526200807303 -3.7776448845066852 0 0 0 0 -10.606744354255731 -0.74027130321958601 0 -0.74027130321958601 -0.055856185883960421 0 0 0 0 -9.6887565568904392 -2.983667741069155 0 -2.983667741069155 8.6542997258848686 0 0 0 0 -11.025498808472776 -1.2246647061289231 0 -1.2246647061289231 -4.5801073012725126 0 0 0 0 -12.461727253607251 -1.123434973377023 0 -1.123434973377023 0.83194449789468194 0 0 0 0 -8.8990100914439836 -1.5694561793890287 0 -1.5694561793890287 -2.7720761642327787 0 0 0 0 -11.201215932119908 -1.9769687017782367 0 -1.9769687017782367 -2.8437834373572883 0 0 0 0 -12.836336764650923 0.74283038836366444 0 0.74283038836366444 -3.3699948249655787 0 0 0 0 2.6799379710864741 0.45648956323789136 0 0.45648956323789136 -3.5099535483144422 0 0 0 0 1.7647815752386578 9.1443847746524405 0 9.1443847746524405 -4.662465449271636 0 0 0 0 -9.6025821256356974 -0.46970395528403275 0 -0.46970395528403275 0.19109715198032368 0 0 0 0 -3.1480468926529284 7.7372010122439043 0 7.7372010122439043 -3.0990025090093454 0 0 0 0 -24.797013223544013 -18.348766224256487 0 -18.348766224256487 34.255726599351277 0 0 0 0 -10.218349979928085 -0.75519696084999677 0 -0.75519696084999677 0.10487619478151895 0 0 0 0 -24.276023107579931 -15.101514936897615 0 -15.101514936897615 34.053755282396878 0 0 0 0 -7.0326108150417213 -0.89604522926996921 0 -0.89604522926996921 -9.3400103779792261 0 0 0 0 1.4511524579352226 -16.363604791390227 0 -16.363604791390227 -3.0606841335620061 0 0 0 0 -24.214405357308351 9.6788344014646555 0 9.6788344014646555 -19.199767669837865 0 0 0 0 -5.2457866961913169 11.836560278896517 0 11.836560278896517 -13.293109768538521 0 0 0 0 -33.099699196292931 1.7805754798050799 0 1.7805754798050799 -16.855990022293433 0 0 0 0 -34.41877676466288 -2.7473956271705013 0 -2.7473956271705013 -24.223208370985233 0 0 0 0 -4.5307624162783213 1.7008986097299967 0 1.7008986097299967 -32.108326285985783 0 0 0 0 -4.8066182664988446 -0.050171780701077751 0 -0.050171780701077751 -43.222238937330175 0 0 0 0 -21.197667781074415 -3.0512737873012341 0 -3.0512737873012341 -19.837416174488979 0 0 0 0 -4.2833810826114131 22.080186599627254 0 22.080186599627254 -13.842621248487298 0 0 0 0 -8.2285225867881309 12.752930944506844 0 12.752930944506844 -20.824338103904275 0 0 0 0 -26.548054461999072 22.813119176342958 0 22.813119176342958 2.8279926726978317 0 0 0 0 37.685465811483027 52.128654043848769 0 52.128654043848769 38.005142710753702 0 0 0 0 -33.868299568900511 3.6658891847591093 0 3.6658891847591093 -5.2189902018582188 0 0 0 0 0.2215752028973963 0.097096131435807642 0 0.097096131435807642 -0.69702248949249879 0 0 0 0 -0.54980298837926966 -2.5041270037188639 0 -2.5041270037188639 -4.6722555479764907 0 0 0 0 -1.875094860189165 11.365757775167367 0 11.365757775167367 19.480940037127766 0 0 0 0 -1.1486335712612377 -0.34311525744832272 0 -0.34311525744832272 -0.68295795378510071 0 0 0 0 -9.1511021516794244 -14.959493178296302 0 -14.959493178296302 1.9304558928026267 0 0 0 0 -6.3429907923755309 -3.7692852067601095 0 -3.7692852067601095 0.61298349039930144 0 0 0 0 -1.8113095116035733 0.30858097089692471 0 0.30858097089692471 -1.5476265934206948 0 0 0 0 1.4593205048786331 1.6741076313928076 0 1.6741076313928076 -6.7493530291236397 0 0 0 0 -15.342060312485955 -22.62636656520079 0 -22.62636656520079 -21.382696445193162 0 0 0 0 -0.071892145945151142 0.23020591344944252 0 0.23020591344944252 -0.17301958542126095 0 0 0 0 18.071645204670858 59.217847858691414 0 59.217847858691414 51.542495018690602 0 0 0 0 -7.2490483500505185 1.3744668542331224 0 1.3744668542331224 -0.0032821270861475293 0 0 0 0 50.544179609065395 72.086104579717812 0 72.086104579717812 -15.032578299396505 0 0 0 0 -2.5646718442494603 23.081827457507757 0 23.081827457507757 68.083056210062466 0 0 0 0 -2.1451421590900281 18.852382059931813 0 18.852382059931813 26.942069778608698 0 0 0 0 -12.832407152702217 -6.5091288030921532 0 -6.5091288030921532 -8.6312773889826531 0 0 0 0 11.740110540418755 20.826077636727234 0 20.826077636727234 13.268403134920163 0 0 0 0 12.302576133466573 28.251290310269724 0 28.251290310269724 13.837362563001534 0 0 0 0 20.788705025132913 28.474049271328795 0 28.474049271328795 13.499260801090804 0 0 0 0 11.835464730032072 15.093877196073183 0 15.093877196073183 10.216937997940221 0 0 0 0 19.709189872393836 22.222924450704831 0 22.222924450704831 13.474757989722399 0 0 0 0 36.870381307051957 21.800072433473048 0 21.800072433473048 -20.035934654476023 0 0 0 0 -76.167547185799776 -70.386155001811119 0 -70.386155001811119 -33.670680748751863 0 0 0 0 -1.4236506333179584 0.86015702670398753 0 0.86015702670398753 -0.5966304261743447 0 0 0 0 80.266617998305563 19.771030880925032 0 19.771030880925032 -47.949896843443298 0 0 0 0 -91.791448561012658 -7.0857813938297625 0 -7.0857813938297625 24.241797634730858 0 0 0 0 -2.599455868326344 -0.28941011057064792 0 -0.28941011057064792 0.90243283338033853 0 0 0 0 -15.262882885088402 -1.9048972327197475 0 -1.9048972327197475 -0.98846328928217986 0 0 0 0 -18.272254556961549 -5.3759295366920803 0 -5.3759295366920803 0.69788200932856626 0 0 0 0 -17.513709803037727 -5.4609597141052291 0 -5.4609597141052291 2.1112828112468378 0 0 0 0 -14.707124210859547 -3.5046815097645094 0 -3.5046815097645094 0.22696316032781283 0 0 0 0 -10.83841433391976 -3.2856629789648419 0 -3.2856629789648419 -0.64014467546502829 0 0 0 0 -8.6354208400125572 0.64793786467546965 0 0.64793786467546965 -0.89415172708105217 0 0 0 0 -148.61461777255681 -111.78341878202588 0 -111.78341878202588 84.256477855082039 0 0 0 0 -8.5607233687889241 -0.64614475092184287 0 -0.64614475092184287 0.20824322355616573 0 0 0 0 -10.091014960474695 0.45693466790044113 0 0.45693466790044113 0.63673898914314009 0 0 0 0 -9.4576629593102552 -0.096254848016641859 0 -0.096254848016641859 0.8524602241253092 0 0 0 0 -7.2163703720018475 -2.5276351797798711 0 -2.5276351797798711 -3.447690025845116 0 0 0 0 -2.7151504933226565 -0.97998485481123954 0 -0.97998485481123954 -0.57799529998394528 0 0 0 0 -10.89158864145179 -3.9128045048226454 0 -3.9128045048226454 0.11364027261700471 0 0 0 0 -9.0486075594976683 -0.96397551554508709 0 -0.96397551554508709 -3.9197622714655154 0 0 0 0 -5.5522885115603966 -0.99732202707737949 0 -0.99732202707737949 1.7657597093219977 0 0 0 0 -4.8962440305441852 -0.93401866716873627 0 -0.93401866716873627 0.84523925223690788 0 0 0 0 7.4393095076299858 9.2499724788056774 0 9.2499724788056774 0.24037147029457628 0 0 0 0 -2.073725881780093 -0.30448258760039515 0 -0.30448258760039515 0.0020378190869332347 0 0 0 0 -6.8613465584205526 1.2340431430146599 0 1.2340431430146599 0.54340699411364413 0 0 0 0 -10.09430500872395 9.3791672430708672 0 9.3791672430708672 7.2569697173019279 0 0 0 0 -6.2719586402390632 0.35513965726551078 0 0.35513965726551078 1.6362425733652515 0 0 0 0 -29.8127194749718 -15.524025462833919 0 -15.524025462833919 -2.7037710277255371 0 0 0 0 -0.1982180044020958 0.51719051014231043 0 0.51719051014231043 -0.73273092885930102 0 0 0 0 -30.120948143720398 -4.878867094123251 0 -4.878867094123251 0.90919344059521912 0 0 0 0 -12.084928291624806 -14.150907785332052 0 -14.150907785332052 -10.410294263679589 0 0 0 0 0.61939979099679476 -2.4620016224584447 0 -2.4620016224584447 -5.8930970859821628 0 0 0 0 -19.13196810985346 0.28983059455646298 0 0.28983059455646298 0.51931883590067685 0 0 0 0 -7.2543654862586937 0.28262584397130075 0 0.28262584397130075 0.32857630654483799 0 0 0 0 -6.8675717599802475 1.8630506178474258 0 1.8630506178474258 1.9642487821925272 0 0 0 0 -20.208987134933295 -3.8228899559529452 0 -3.8228899559529452 8.269315099677442 0 0 0 0 -6.8380561394533288 -0.44675190047522051 0 -0.44675190047522051 -0.24629077220723161 0 0 0 0 -12.129295966518612 -8.7938442026339487 0 -8.7938442026339487 -4.0975915473700439 0 0 0 0 -19.183087560370041 -0.78553509273501732 0 -0.78553509273501732 0.67496901007893939 0 0 0 0 -3.0614405173042529 0.13815671804240104 0 0.13815671804240104 -1.2412549924231926 0 0 0 0 -12.47859275692376 0.12486923155761659 0 0.12486923155761659 3.0076612595426866 0 0 0 0 -3.5180716593586112 2.5353876788829837 0 2.5353876788829837 6.347562386060531 0 0 0 0 -7.5456366196907592 0.93046318683650009 0 0.93046318683650009 0.86326581981001582 0 0 0 0 -11.038040965084649 -2.7197946854748691 0 -2.7197946854748691 2.3216800445538337 0 0 0 0 -7.1312893312310468 2.1342176140993745 0 2.1342176140993745 -1.6907825007885009 0 0 0 0 -14.147750552164496 -3.0059842836024533 0 -3.0059842836024533 8.1545659844531428 0 0 0 0 -13.654229030178158 -4.6026552439220296 0 -4.6026552439220296 -3.2369875182006353 0 0 0 0 -3.1638386910163945 3.8624484470082496 0 3.8624484470082496 -20.510808620518759 0 0 0 0 -12.581038752223776 -14.585080722028863 0 -14.585080722028863 2.2025654801039494 0 0 0 0 -8.895191104037167 -5.2627985040247154 0 -5.2627985040247154 -15.644951281088055 0 0 0 0 -11.634480843889833 -3.3503681228353912 0 -3.3503681228353912 -0.088183654120626898 0 0 0 0 -12.400779266868767 2.7337770506209225 0 2.7337770506209225 -5.618281721747266 0 0 0 0 -0.029166832074034754 -0.023553438740850474 0 -0.023553438740850474 -0.13896177022746353 0 0 0 0 -46.78819199227155 -19.747936918162679 0 -19.747936918162679 0.065180831986765497 0 0 0 0 -0.19762925459356628 0.17181939053859363 0 0.17181939053859363 -0.19219193637831744 0 0 0 0 -2.4135096563255729 -1.2006886631089984 0 -1.2006886631089984 -2.1925094100272133 0 0 0 0 -3.8002894391935911 -6.435296589438483 0 -6.435296589438483 -20.135843535064083 0 0 0 0 0.10943353822410151 -0.00059263751105387286 0 -0.00059263751105387286 -0.42503780306440342 0 0 0 0 -9.9833677998177563 4.72255726482841 0 4.72255726482841 -5.1345824839000898 0 0 0 0 -12.564785485519678 1.3445685667272151 0 1.3445685667272151 1.0744231068156331 0 0 0 0 -12.492040441823065 -2.6206959256368521 0 -2.6206959256368521 9.7319645329865345 0 0 0 0 -5.0769475919191791 14.063052516075658 0 14.063052516075658 7.4454027250444597 0 0 0 0 10.244262456657225 13.771901800738725 0 13.771901800738725 -11.992752993261888 0 0 0 0 -6.9004279918737303 -3.2196126726199084 0 -3.2196126726199084 -0.28046930014376342 0 0 0 0 -7.8210634539013597 -3.7019151778418511 0 -3.7019151778418511 -1.6405207690341399 0 0 0 0 -8.9188476291867573 0.2943694910353134 0 0.2943694910353134 -4.0218087449785518 0 0 0 0 -2.1337664314852667 -0.12453891307278697 0 -0.12453891307278697 -0.69493430119242405 0 0 0 0 -16.751913055082696 3.3064174416264649 0 3.3064174416264649 3.3519247793561817 0 0 0 0 -9.7092058158512202 -1.9543142386832062 0 -1.9543142386832062 -0.17832839478100698 0 0 0 0 -9.5840833340736413 -1.5938636019666115 0 -1.5938636019666115 0.3006627854107855 0 0 0 0 -6.9632102891890497 0.1877214200208428 0 0.1877214200208428 -4.7847928911669442 0 0 0 0 -11.27343689088309 -0.98742448459573495 0 -0.98742448459573495 -0.868253211897553 0 0 0 0 -7.9054952676297034 -3.9104501953219852 0 -3.9104501953219852 -1.5343374703046795 0 0 0 0 -9.1886847107143694 1.2447663016020201 0 1.2447663016020201 -4.9095075566762603 0 0 0 0 -9.2384465955371127 1.6913162027575668 0 1.6913162027575668 -1.7197505181973582 0 0 0 0 -6.5011933280273375 -2.9284638856912082 0 -2.9284638856912082 -0.0041888569794724662 0 0 0 0 -23.05375974553408 -36.828730708995238 0 -36.828730708995238 -13.397979568718853 0 0 0 0 -28.1002542029305 10.124603503145408 0 10.124603503145408 16.221184084150252 0 0 0 0 7.3033820631476374 5.6196540353751914 0 5.6196540353751914 -4.5381551570534953 0 0 0 0 -10.043062232868351 9.4109580612773556 0 9.4109580612773556 -3.1484607854492879 0 0 0 0 -15.991996749727377 0.93496621571850369 0 0.93496621571850369 -6.2719594933165581 0 0 0 0 -17.592439002102765 1.1534090844986622 0 1.1534090844986622 4.8677875669856121 0 0 0 0 1.2535049431410243 -1.8512424310970204 0 -1.8512424310970204 1.8724686627542724 0 0 0 0 -6.3221865229201946 -1.9594976246768829 0 -1.9594976246768829 0.45791965907100884 0 0 0 0 7.9665031230841272 -5.3568645170095639 0 -5.3568645170095639 -0.92182227638920722 0 0 0 0 0.51970717650692677 4.0471560188434239 0 4.0471560188434239 -2.4381173024790428 0 0 0 0 -0.63484141887906009 -0.90618552462975721 0 -0.90618552462975721 -1.8183937452564825 0 0 0 0 -10.534255164779324 -0.96894179080925369 0 -0.96894179080925369 -0.72931519761471009 0 0 0 0 -10.762109961686065 0.70819621909116393 0 0.70819621909116393 -1.4820466913232764 0 0 0 0 -4.9237289336940693 -1.8616183165312838 0 -1.8616183165312838 -1.001841686397352 0 0 0 0 -26.048644050562643 -3.632229182242213 0 -3.632229182242213 -0.92814841842846363 0 0 0 0 -0.55417566800270501 -0.54240484932894129 0 -0.54240484932894129 -0.48722910774476214 0 0 0 0 -15.079426556697854 13.613082142095209 0 13.613082142095209 -19.021252057283675 0 0 0 0 -10.133621461084203 -3.9023378279964476 0 -3.9023378279964476 5.9942417114191358 0 0 0 0 -12.879620102192575 6.6416592756626187 0 6.6416592756626187 -3.930914093314982 0 0 0 0 -12.096911879041272 6.6488738820117419 0 6.6488738820117419 -4.0669544449526711 0 0 0 0 -29.606404431860142 6.7407911208532028 0 6.7407911208532028 3.3161589782621377 0 0 0 0 -14.578651685471868 -0.27501828951329799 0 -0.27501828951329799 -2.2168524846545381 0 0 0 0 -3.1212509715291032 -0.46748032825920038 0 -0.46748032825920038 -1.3186054095666919 0 0 0 0 -16.963252233272385 2.5891718922072897 0 2.5891718922072897 5.5246142902343536 0 0 0 0 -10.177752867240546 -2.2558790495425263 0 -2.2558790495425263 -0.35158412982468712 0 0 0 0 -7.8025328602998343 -28.49062434041889 0 -28.49062434041889 18.326371343936444 0 0 0 0 -57.08041197918277 -12.533491239651184 0 -12.533491239651184 -10.763970262091334 0 0 0 0 65.964517881977372 57.147722217922706 0 57.147722217922706 -150.83898782138158 0 0 0 0 -13.923163899835345 9.2088639096368752 0 9.2088639096368752 -13.34542949135971 0 0 0 0 -58.844716395276919 29.516867984812734 0 29.516867984812734 -16.501006054316804 0 0 0 0 38.36247912406543 -25.456679207264074 0 -25.456679207264074 -39.033736669063273 0 0 0 0 -14.64730141279324 7.8603410203684234 0 7.8603410203684234 -10.306988585911768 0 0 0 0 -8.3446828804480901 7.0352306804780937 0 7.0352306804780937 -12.257135273358017 0 0 0 0 -15.159997656829773 4.4279323488880209 0 4.4279323488880209 -13.156404430133307 0 0 0 0 -26.291421622967391 10.013229576704248 0 10.013229576704248 -7.1342085297512767 0 0 0 0 -14.726999547736341 2.2004842486466032 0 2.2004842486466032 -2.8090154836402235 0 0 0 0 -2.9997151526968082 14.017209747265611 0 14.017209747265611 8.8870474384066256 0 0 0 0 -18.224405086356001 -6.4420262979525091 0 -6.4420262979525091 17.464102776964864 0 0 0 0 -27.610612508521172 -7.4375824787159672 0 -7.4375824787159672 1.4995576139419882 0 0 0 0 0.049961616351822613 -0.037710041033888864 0 -0.037710041033888864 -0.20127947427429138 0 0 0 0 -2.4192089867757254 -0.32827776419385479 0 -0.32827776419385479 -1.2202777479179234 0 0 0 0 11.154007441206431 -6.6303445761100761 0 -6.6303445761100761 -2.3303384283229889 0 0 0 0 -26.847165004119233 -0.36523033208732159 0 -0.36523033208732159 14.13697733045413 0 0 0 0 -2.3545177440083709 1.0192363953401213 0 1.0192363953401213 -0.17820491139582106 0 0 0 0 -5.4633763925330641 0.62455476423156142 0 0.62455476423156142 0.35938766093454433 0 0 0 0 -6.0563876396172418 -0.79536127570213466 0 -0.79536127570213466 -1.003562441733493 0 0 0 0 -6.5066792020588764 2.4963070863933581 0 2.4963070863933581 5.3430852748372217 0 0 0 0 -0.71260417223521699 -0.50918045629647946 0 -0.50918045629647946 0.14740433706273826 0 0 0 0 -9.8217607075303022 0.80603238786483189 0 0.80603238786483189 0.35495755874489987 0 0 0 0 -0.48419345501571343 -0.81894930741789906 0 -0.81894930741789906 -1.0243394763442666 0 0 0 0 -10.446597941798245 -27.794158520614928 0 -27.794158520614928 3.0084224543007281 0 0 0 0 15.26023335407308 -14.034368977149143 0 -14.034368977149143 -11.217680342027734 0 0 0 0 -16.218386019027093 -14.365060754819979 0 -14.365060754819979 -10.564740442256891 0 0 0 0 -11.871360650847691 -29.103287216649846 0 -29.103287216649846 -13.824871359820463 0 0 0 0 -11.577333762314083 -13.120370513782575 0 -13.120370513782575 -12.164745451160343 0 0 0 0 -23.206379445055063 -15.291238205987042 0 -15.291238205987042 -14.55321056800085 0 0 0 0 -14.748586756755685 -22.537185608751543 0 -22.537185608751543 -22.723459209623627 0 0 0 0 -22.200802879211551 -18.626364699135138 0 -18.626364699135138 -3.9033059156647596 0 0 0 0 -10.095140374560936 -1.8168975191403898 0 -1.8168975191403898 0.27896631190950649 0 0 0 0 -15.779564748153462 0.4521570412056235 0 0.4521570412056235 29.094229381657073 0 0 0 0 -0.2047597009477613 4.7495614975230183 0 4.7495614975230183 6.5543491711572415 0 0 0 0 -0.63079468558981944 0.42778392571140023 0 0.42778392571140023 -0.31898599683843054 0 0 0 0 -25.585992067393818 -27.903294449573195 0 -27.903294449573195 -21.773235610886104 0 0 0 0 -88.850076457311843 60.874386088105211 0 60.874386088105211 16.009919562662276 0 0 0 0 -7.5903143431660283 -0.56024701095384444 0 -0.56024701095384444 4.5922339181069276 0 0 0 0 -5.1738481035254154 -0.19302291671078819 0 -0.19302291671078819 4.5286044182016667 0 0 0 0 1.4640849460229219 4.0983570944491703 0 4.0983570944491703 4.1569939301862178 0 0 0 0 -5.1572508920962719 0.61631465053051215 0 0.61631465053051215 0.7083035131968245 0 0 0 0 -11.817093816198849 -10.161691449337809 0 -10.161691449337809 26.797318714318862 0 0 0 0 -5.1016258501094853 -0.53757621021244972 0 -0.53757621021244972 -0.36836318430886195 0 0 0 0 -8.4481877981127838 -1.6789254773388798 0 -1.6789254773388798 0.23080946367217481 0 0 0 0 -7.8233988014449665 -0.62676518387056035 0 -0.62676518387056035 -0.37109197683298589 0 0 0 0 -3.2213052471634001 -9.7456557347982482 0 -9.7456557347982482 11.770049484686865 0 0 0 0 -18.042433287899257 -7.2907150505321283 0 -7.2907150505321283 19.899705243982567 0 0 0 0 -8.9210629996450734 3.2144046868493774 0 3.2144046868493774 6.5256197349556828 0 0 0 0 -17.243148692417208 -6.4599598085584091 0 -6.4599598085584091 -4.1889390182825537 0 0 0 0 -9.5470246682941138 8.0402825770271988 0 8.0402825770271988 1.465923119800209 0 0 0 0 -11.138255028361527 13.895659442049407 0 13.895659442049407 -14.682817657137036 0 0 0 0 -23.151294757457663 15.307533336729762 0 15.307533336729762 -5.6885022224369095 0 0 0 0 -10.868576136118918 7.9066069244815935 0 7.9066069244815935 30.725937990204557 0 0 0 0 -11.380592706171683 6.5573148494879661 0 6.5573148494879661 7.9368011600463433 0 0 0 0 -15.199978165638186 2.2878430621474308 0 2.2878430621474308 25.484069315999022 0 0 0 0 -15.615821738571412 9.0065401158832401 0 9.0065401158832401 9.3613509792819514 0 0 0 0 -13.216001942581443 11.658583318090905 0 11.658583318090905 -3.3818101022282008 0 0 0 0 -13.122175850773147 16.965826724588396 0 16.965826724588396 -6.5799862292863054 0 0 0 0 -14.897868712185755 7.4714092294034344 0 7.4714092294034344 -1.7939075502426931 0 0 0 0 -16.059416914498343 15.464678748185747 0 15.464678748185747 6.7822678331418729 0 0 0 0 -23.876885014168238 19.806359088826071 0 19.806359088826071 -5.0952399940793782 0 0 0 0 -22.811557491197163 9.1579599255513813 0 9.1579599255513813 -1.5280214693366929 0 0 0 0 -13.70681243541253 20.072264447467887 0 20.072264447467887 -17.729087650674728 0 0 0 0 -12.0655654267307 10.369102064880963 0 10.369102064880963 -21.119961651865538 0 0 0 0 -25.966244471714163 -17.187554035266544 0 -17.187554035266544 -39.877955417434691 0 0 0 0 -21.771716051663816 -1.8520021785678864 0 -1.8520021785678864 0.92639609746498763 0 0 0 0 -17.596373384145409 5.8302523703447378 0 5.8302523703447378 -10.276197527811973 0 0 0 0 -5.0946192578353475 -6.8496433457419812 0 -6.8496433457419812 11.120921621641401 0 0 0 0 -0.32800672360987715 -0.12545074172325954 0 -0.12545074172325954 -0.040082016823145938 0 0 0 0 0.49876055949653164 10.62396009951641 0 10.62396009951641 -18.923227147225191 0 0 0 0 0.84054855854193078 -0.99537026825315778 0 -0.99537026825315778 -1.0602594991308452 0 0 0 0 -0.17980175397649845 -1.7789868275222087 0 -1.7789868275222087 -4.6265594495091591 0 0 0 0 -11.566869672964913 12.841433212576021 0 12.841433212576021 -10.610066105207352 0 0 0 0 -10.318209655663509 16.197597010134388 0 16.197597010134388 -11.570595889572587 0 0 0 0 -12.351412226724278 15.539050440165738 0 15.539050440165738 -7.6680703829844106 0 0 0 0 -7.7844375328501201 10.855902179089554 0 10.855902179089554 -4.591265752475465 0 0 0 0 -1.7994743256243879 -2.6678464553119454 0 -2.6678464553119454 0.22323379682453037 0 0 0 0 -2.528125813083026 -1.6937131001053463 0 -1.6937131001053463 -1.2474113386315104 0 0 0 0 -3.4760611103013161 -1.9147010240211557 0 -1.9147010240211557 -5.0136426549740918 0 0 0 0 -14.257823641847153 6.6718215465353978 0 6.6718215465353978 -5.7559210028321104 0 0 0 0 -4.1648063854800537 -3.4619452544334726 0 -3.4619452544334726 -1.3621348337136971 0 0 0 0 -8.6950876010882894 -5.1261484690875179 0 -5.1261484690875179 -1.7820385615884362 0 0 0 0 -9.3555818529307544 -2.7714149116117568 0 -2.7714149116117568 0.57318776829903584 0 0 0 0 -10.303553685974975 -8.150109846294427 0 -8.150109846294427 -3.7102333798403606 0 0 0 0 -14.562260140956369 -2.0955670972597318 0 -2.0955670972597318 -0.64051491240240921 0 0 0 0 15.267803176094958 -0.16335704749928937 0 -0.16335704749928937 -6.7961839978166836 0 0 0 0 -3.397118390038071 -3.9854860528425862 0 -3.9854860528425862 -1.061547831713554 0 0 0 0 -7.1873598139637807 -5.1212133509438047 0 -5.1212133509438047 -0.86529367935338541 0 0 0 0 -7.1931220791552732 -4.9188498034486656 0 -4.9188498034486656 -2.0064270856769042 0 0 0 0 -5.7003927887379859 -3.0976168655476499 0 -3.0976168655476499 0.035533573220618564 0 0 0 0 -3.4166241479742894 -2.9756857732083972 0 -2.9756857732083972 -1.502943154146152 0 0 0 0 -3.4600971201642361 -2.0841275356896571 0 -2.0841275356896571 -0.802575926384266 0 0 0 0 -2.3474252153385518 0.085250365793326566 0 0.085250365793326566 0.41364391238258058 0 0 0 0 -3.6968257387616177 -3.2755133978954518 0 -3.2755133978954518 -3.5316546462680591 0 0 0 0 -5.3268860522387786 -4.066406681526626 0 -4.066406681526626 -1.6313843943775457 0 0 0 0 -9.860055827260112 -7.6926838478884179 0 -7.6926838478884179 0.89519326882287942 0 0 0 0 -15.569593875286955 -4.2655211584661856 0 -4.2655211584661856 3.7237207565253243 0 0 0 0 -3.2829275442668404 -2.546878294928888 0 -2.546878294928888 -3.1109052737872389 0 0 0 0 2.5514329607465243 -2.330211500570897 0 -2.330211500570897 -6.2125133267966248 0 0 0 0 -18.068259829531826 -5.0519710165789746 0 -5.0519710165789746 -2.9826667542179166 0 0 0 0 -10.300292689914841 2.5424150732969224 0 2.5424150732969224 -4.7012092088921236 0 0 0 0 -3.0107792219216192 0.00079648753421324159 0 0.00079648753421324159 0.25022848096192218 0 0 0 0 -12.895774806926356 -1.648265034682163 0 -1.648265034682163 0.40859548868724294 0 0 0 0 -10.802143868645999 -1.0646517025794537 0 -1.0646517025794537 -8.1402619901177218 0 0 0 0 -39.462873744596436 -33.894190648629831 0 -33.894190648629831 37.002280445768207 0 0 0 0 -0.0063055037319372786 0.29951112792315371 0 0.29951112792315371 -13.688718872758955 0 0 0 0 -29.626725201085947 -20.132532347546601 0 -20.132532347546601 -19.733925172900854 0 0 0 0 14.876379341986876 -7.3482395971078631 0 -7.3482395971078631 -22.394661282863581 0 0 0 0 0.37385617828795148 9.0317454244126338 0 9.0317454244126338 -20.146294425145697 0 0 0 0 -4.5991608363794949 -3.2658941259322067 0 -3.2658941259322067 0.18464732578576237 0 0 0 0 22.066234229117072 -19.263496251311608 0 -19.263496251311608 -13.95820011399951 0 0 0 0 -10.328257063858928 -2.727952491329404 0 -2.727952491329404 1.3857851705201938 0 0 0 0 -6.4443285636461951 -7.3563433949316845 0 -7.3563433949316845 2.3326990893910988 0 0 0 0 -4.5683686728118698 -3.4696440391524144 0 -3.4696440391524144 -0.63194853219036773 0 0 0 0 -8.8850802221149934 -1.4810849353611957 0 -1.4810849353611957 -0.98614142610847466 0 0 0 0 -12.685235093945721 2.2224425727679318 0 2.2224425727679318 -4.2510075219028067 0 0 0 0 -12.247004384904812 -0.65170448901506006 0 -0.65170448901506006 -0.49077930617090715 0 0 0 0 -15.236540091506413 -2.7092933972664781 0 -2.7092933972664781 1.6373578682949983 0 0 0 0 -1.8881723933759531 -7.312473044886076 0 -7.312473044886076 -10.608136787482636 0 0 0 0 -6.8925874177014066 -15.807292795531467 0 -15.807292795531467 1.8530777022310758 0 0 0 0 -1.5124100678954164 -10.344038639865403 0 -10.344038639865403 -0.32600453363147608 0 0 0 0 -3.4056484688775059 -4.02457008542771 0 -4.02457008542771 -1.3726406410980934 0 0 0 0 -11.948955286401542 0.33959558675729795 0 0.33959558675729795 -3.1836120703170536 0 0 0 0 -10.768993988680563 -0.97672305157622219 0 -0.97672305157622219 -7.8565961031624738 0 0 0 0 -7.6150440343926675 -10.521278193852481 0 -10.521278193852481 -9.1308118170059203 0 0 0 0 -4.6314459083887414 -6.3260288314315289 0 -6.3260288314315289 -3.2324513868713893 0 0 0 0 -11.96383800659919 1.5994354975909175 0 1.5994354975909175 -2.6461048131750431 0 0 0 0 0.65908012983267916 -0.60728586070032398 0 -0.60728586070032398 -0.4968282318599484 0 0 0 0 8.5604093600923079 -2.5558952356912528 0 -2.5558952356912528 -11.801665740994679 0 0 0 0 -2.1878633687078946 -0.75068330242231696 0 -0.75068330242231696 -2.4271838345956667 0 0 0 0 -4.4640809894635822 -0.93266528615993138 0 -0.93266528615993138 -0.13168760430750126 0 0 0 0 -1.2197111572336325 -6.8886652809190707 0 -6.8886652809190707 -3.4268985356159192 0 0 0 0 -6.9726410726088943 -0.34740912139915281 0 -0.34740912139915281 2.9967277850967093 0 0 0 0 10.80800369845565 8.9924266663722392 0 8.9924266663722392 -21.063040030523894 0 0 0 0 -3.3084143366563161 -1.1568226379190261 0 -1.1568226379190261 -0.42828041408905637 0 0 0 0 -3.215269524528594 -5.2449388268101984 0 -5.2449388268101984 6.125854674289144 0 0 0 0 1.8139408302276934 -2.1622214680230627 0 -2.1622214680230627 -1.2482912827913424 0 0 0 0 -0.34708512553697801 2.2438603371006138 0 2.2438603371006138 -2.1443961809760594 0 0 0 0 -19.921103241441415 -3.8019247188292411 0 -3.8019247188292411 7.4953933269968047 0 0 0 0 -0.85517651820600094 0.21330520010144483 0 0.21330520010144483 -0.16747499427809265 0 0 0 0 -6.174664438786424 -2.6531201981732293 0 -2.6531201981732293 -0.14858001575597557 0 0 0 0 -5.549885569831531 3.0252167721350816 0 3.0252167721350816 -0.33109586851821859 0 0 0 0 -14.96124315826728 -3.4665374921538614 0 -3.4665374921538614 3.3901419059418458 0 0 0 0 -9.809063774887818 -4.4590673664904443 0 -4.4590673664904443 2.5790081819363877 0 0 0 0 -6.9331153369157619 -1.2356120888000532 0 -1.2356120888000532 -0.073264771172716792 0 0 0 0 -1.8203902687455411 -1.1569171567332432 0 -1.1569171567332432 -4.417253803991116 0 0 0 0 -4.3037155764141062 3.4606872777803801 0 3.4606872777803801 -3.0277838143255735 0 0 0 0 -4.066946669860954 1.178064039037281 0 1.178064039037281 1.4716154133020609 0 0 0 0 1.184987386532157 3.861751661521339 0 3.861751661521339 1.6164035864150463 0 0 0 0 -2.4051210157363645 -0.82907598738855626 0 -0.82907598738855626 0.1115799937506381 0 0 0 0 -9.2448277957846585 0.19029092351183863 0 0.19029092351183863 -4.4555502374240916 0 0 0 0 -7.7000195256004176 -1.0292731435023939 0 -1.0292731435023939 -0.21245676897369092 0 0 0 0 -10.279996332747032 -5.1301429638924674 0 -5.1301429638924674 7.1723115221413423 0 0 0 0 -7.0564574859890854 6.580483900314448 0 6.580483900314448 -5.3606403576484354 0 0 0 0 -4.9739425889821121 -1.323095855326573 0 -1.323095855326573 -0.2500024996287975 0 0 0 0 -1.1177910398000677 12.001804857533898 0 12.001804857533898 -0.41733212814187937 0 0 0 0 -7.3350098918301967 -0.064248077472302434 0 -0.064248077472302434 0.08950099599993333 0 0 0 0 -14.69203858223409 -0.38073584501728419 0 -0.38073584501728419 1.9128232443032402 0 0 0 0 -1.0783434634089595 -0.66356660839293102 0 -0.66356660839293102 0.60848354706921093 0 0 0 0 -12.118195446045775 -2.5822088368576388 0 -2.5822088368576388 -2.8448410714621559 0 0 0 0 -4.9673924277177122 1.8346835072471492 0 1.8346835072471492 0.059373883622446666 0 0 0 0 -8.0235186071849967 -0.98440214746494803 0 -0.98440214746494803 -0.66780594595721254 0 0 0 0 -9.2854632529197261 -0.084561053550771703 0 -0.084561053550771703 0.023531110169187741 0 0 0 0 -11.345937446936659 -0.23373217155386783 0 -0.23373217155386783 -3.3552319379405162 0 0 0 0 -8.5611192968263552 -1.3896350464326872 0 -1.3896350464326872 0.24793203649224405 0 0 0 0 -8.8233083519662614 -0.47440578021559077 0 -0.47440578021559077 -3.4317049281625032 0 0 0 0 -10.554942602822848 -1.9600264327056607 0 -1.9600264327056607 -2.9344425075834337 0 0 0 0 -10.85767452924938 -2.1230128630293876 0 -2.1230128630293876 -1.8339358923239502 0 0 0 0 -9.2399668218331499 -2.056108577863597 0 -2.056108577863597 -2.0928849381271277 0 0 0 0 -10.81211553923913 -1.8985644372656623 0 -1.8985644372656623 -2.0639895659649028 0 0 0 0 -5.581087471680803 0.090398866212979101 0 0.090398866212979101 -2.6081068813131765 0 0 0 0 -3.5953394122194915 2.4909228803717802 0 2.4909228803717802 0.16579161986869817 0 0 0 0 -9.6876088845883714 -1.28700906439866 0 -1.28700906439866 -1.2986136055128554 0 0 0 0 -4.9297420349812455 -0.54824804718668929 0 -0.54824804718668929 -2.1012887664365678 0 0 0 0 -6.8411100179400819 1.6949367095424464 0 1.6949367095424464 0.43021663815773081 0 0 0 0 -7.5031012772624308 0.72375179244727406 0 0.72375179244727406 8.6646768702735599 0 0 0 0 -5.029771765295159 0.87481729278358422 0 0.87481729278358422 0.54384678100043526 0 0 0 0 -9.9793890486298551 7.5937863464831707 0 7.5937863464831707 9.0124838831090983 0 0 0 0 -5.6315682776282188 1.0493790002567316 0 1.0493790002567316 0.3758426771290706 0 0 0 0 -8.379791333212097 0.73389076024439959 0 0.73389076024439959 0.08604407915822776 0 0 0 0 -20.215802790911312 -6.4693594024660115 0 -6.4693594024660115 9.1602522854850577 0 0 0 0 -0.52777309483027324 0.73651855501725949 0 0.73651855501725949 0.13004780306578279 0 0 0 0 -2.0647613587643718 6.5158583002476007 0 6.5158583002476007 1.8333436098148468 0 0 0 0 -2.1381656016162651 7.1793919431812299 0 7.1793919431812299 -1.7444541544184631 0 0 0 0 -10.043695950484107 8.0493418286296219 0 8.0493418286296219 -1.6661954036592306 0 0 0 0 -3.7365589669780093 10.210622017470882 0 10.210622017470882 -2.1586330169673147 0 0 0 0 -8.7592386831529438 2.1075073786668099 0 2.1075073786668099 -6.4816827955794452 0 0 0 0 -13.593955498733976 -0.67204036423152047 0 -0.67204036423152047 1.6861618462950219 0 0 0 0 -13.273039589307245 -2.8987267153081575 0 -2.8987267153081575 10.378018823358616 0 0 0 0 -15.017182099763886 -0.46577555843049367 0 -0.46577555843049367 8.178176906443241 0 0 0 0 -11.545207543833385 7.2317886064382719 0 7.2317886064382719 19.857740238249562 0 0 0 0 -9.5703694156054553 5.7458067578780856 0 5.7458067578780856 14.801821955665446 0 0 0 0 -2.0597858597804954 -0.16552655439246067 0 -0.16552655439246067 0.57267451896303756 0 0 0 0 -6.1709781938725428 -2.2389926337327779 0 -2.2389926337327779 15.250676372115329 0 0 0 0 0.1119128969958183 6.7702136235215562 0 6.7702136235215562 5.9106343846219715 0 0 0 0 -6.0324169654732032 2.5154755294056486 0 2.5154755294056486 3.8764852944973427 0 0 0 0 -8.0786352135178277 3.8538138909535178 0 3.8538138909535178 10.140910257129235 0 0 0 0 -6.4451424400995165 -3.1099262852396237 0 -3.1099262852396237 -3.5799594591800883 0 0 0 0 -5.6971130248025332 0.25139168063659945 0 0.25139168063659945 1.8447528062787912 0 0 0 0 -6.1390330199592427 -2.6048467954653631 0 -2.6048467954653631 -3.2884230580576279 0 0 0 0 -7.7961897488276009 -1.8211353321118153 0 -1.8211353321118153 -2.2292820367592867 0 0 0 0 -2.1940484078326055 -1.1185709200118321 0 -1.1185709200118321 -1.1445883128005443 0 0 0 0 -5.7226750057834579 -0.50771292374520272 0 -0.50771292374520272 -0.58623107239841943 0 0 0 0 -7.5609396762183678 -3.791483538998591 0 -3.791483538998591 3.4583832570156119 0 0 0 0 -8.586178286903305 -4.033178363002321 0 -4.033178363002321 3.422195596147958 0 0 0 0 -7.6644716563469046 -4.2364071386291471 0 -4.2364071386291471 1.7860216158510411 0 0 0 0 -6.9654190400124207 -2.9104769659606973 0 -2.9104769659606973 1.5391907073563402 0 0 0 0 -6.9437144671792339 -2.7455329546314715 0 -2.7455329546314715 2.3792759117231981 0 0 0 0 -5.128544735543727 -0.57689439906998441 0 -0.57689439906998441 1.7408655939622379 0 0 0 0 -8.3933955280463124 -3.0309382153595834 0 -3.0309382153595834 4.0579425554550852 0 0 0 0 -7.7627656562526681 -2.2000464695153141 0 -2.2000464695153141 4.1194624126260706 0 0 0 0 -11.28207909095272 -2.6277020039703416 0 -2.6277020039703416 6.4477570213578019 0 0 0 0 -8.8884207191513269 -5.9903390210866974 0 -5.9903390210866974 6.2328129344024319 0 0 0 0 -10.505413524379946 -4.5637966692708005 0 -4.5637966692708005 9.1067155384467924 0 0 0 0 -15.044516634150568 -6.4291617700739607 0 -6.4291617700739607 9.17294992191378 0 0 0 0 -19.348169026337473 1.9808392249979647 0 1.9808392249979647 11.097556135346395 0 0 0 0 -25.679109798030368 -11.019653530838752 0 -11.019653530838752 8.3421396224041473 0 0 0 0 -40.275567196516022 7.6441271686089749 0 7.6441271686089749 0.16874807177337914 0 0 0 0 -13.212627597115898 -12.554859003419551 0 -12.554859003419551 3.7266062595199401 0 0 0 0 -31.91805358656984 -8.4510112325084492 0 -8.4510112325084492 5.7696886588363441 0 0 0 0 -91.615794663737688 -12.972739878999619 0 -12.972739878999619 -7.4986566139718889 0 0 0 0 -17.8829030133993 -26.627528404301188 0 -26.627528404301188 -40.462712192157255 0 0 0 0 -40.094774215086545 29.333914368917164 0 29.333914368917164 -33.128596518032964 0 0 0 0 -0.65295652823758488 -0.31702375836114061 0 -0.31702375836114061 -0.20012720389068428 0 0 0 0 -23.826133836002555 -23.760337441074569 0 -23.760337441074569 -33.803240610809155 0 0 0 0 -27.624313069934942 -11.120680070449737 0 -11.120680070449737 -8.8245991280690532 0 0 0 0 -8.0519206153849154 7.799612005871893 0 7.799612005871893 -13.955447479156533 0 0 0 0 -8.5625465569946755 12.243288469321215 0 12.243288469321215 -24.233281582980567 0 0 0 0 -5.5732298304560572 1.6758011015939189 0 1.6758011015939189 -15.817768640189115 0 0 0 0 -4.4989663549358738 7.659419890223603 0 7.659419890223603 -21.399197489274968 0 0 0 0 -2.0278066871291252 -0.72589857458278551 0 -0.72589857458278551 -0.29438949727647956 0 0 0 0 10.602778252375174 -7.3619507608466108 0 -7.3619507608466108 -8.051107635711503 0 0 0 0 0.51334726178265555 -5.5778042767587408 0 -5.5778042767587408 -6.4755826253325495 0 0 0 0 3.7888733929014506 7.9984910840884709 0 7.9984910840884709 -9.6162378909135668 0 0 0 0 0.99884706014654512 -14.978019924577595 0 -14.978019924577595 -6.0439131557167229 0 0 0 0 0.1562466631354919 0.15619159717315156 0 0.15619159717315156 0.19830749215780896 0 0 0 0 -30.448394964902036 -6.3808396401993264 0 -6.3808396401993264 0.8368027747893052 0 0 0 0 -9.2960242326595335 -9.7320665201905285 0 -9.7320665201905285 -1.7088898876627354 0 0 0 0 -46.54639525530547 -19.281333069164873 0 -19.281333069164873 11.483102615599933 0 0 0 0 52.739894803064466 9.0031655547601606 0 9.0031655547601606 -1.0226962405465656 0 0 0 0 -46.501206943974466 -17.919177435652671 0 -17.919177435652671 -0.18572268330080988 0 0 0 0 -39.61378414608771 -17.641794291675296 0 -17.641794291675296 -3.897489148730017 0 0 0 0 -39.835511109011435 -3.4258974434436498 0 -3.4258974434436498 -8.5521697103656606 0 0 0 0 -4.3817475190596191 2.5383603597757718 0 2.5383603597757718 -1.3770159017899648 0 0 0 0 -58.352578903830818 12.347173235080845 0 12.347173235080845 -14.816723048445965 0 0 0 0 -15.803589118891068 6.6418870876556184 0 6.6418870876556184 -39.109968709476448 0 0 0 0 -78.381077477709368 -13.394506101810009 0 -13.394506101810009 6.0058772734575996 0 0 0 0 -4.4611147591535882 -6.0778987720075577 0 -6.0778987720075577 10.881508766051297 0 0 0 0 -6.8445672242241429 3.7529002732275938 0 3.7529002732275938 -1.8084753191183383 0 0 0 0 12.519798386883849 -36.062927803943921 0 -36.062927803943921 8.6477693803469009 0 0 0 0 14.198983142543966 -56.073893315895248 0 -56.073893315895248 -31.870513631550011 0 0 0 0 2.6487412366404897 -16.29934133562233 0 -16.29934133562233 -26.424891100080686 0 0 0 0 -1.8261521806434757 -15.187192457965352 0 -15.187192457965352 -10.64208206718115 0 0 0 0 -16.2955659805084 -2.6525350056156753 0 -2.6525350056156753 -9.7704121183647885 0 0 0 0 -7.2796509294003044 3.0552311040195832 0 3.0552311040195832 -17.708486536028659 0 0 0 0 54.791344046173435 -9.9176065496314791 0 -9.9176065496314791 11.681471678459047 0 0 0 0 -113.57022380600029 23.23528555752705 0 23.23528555752705 94.711860081438829 0 0 0 0 -2.4618426584775079 84.128782899453313 0 84.128782899453313 78.322615834344816 0 0 0 0 13.630544570147322 47.630811066679989 0 47.630811066679989 17.822171200832003 0 0 0 0 -2.4439345629734817 13.419423664600224 0 13.419423664600224 9.7728067299001395 0 0 0 0 9.0425443225522031 15.74000647208311 0 15.74000647208311 -10.987196565309944 0 0 0 0 -13.817121565963589 1.5662141505911222 0 1.5662141505911222 -1.25917250874366 0 0 0 0 27.191545954956382 8.6009442365260895 0 8.6009442365260895 -3.3159271222320115 0 0 0 0 5.3905712077275894 31.263702500563454 0 31.263702500563454 25.394113853569905 0 0 0 0 -8.4368435773867532 -1.6147119544369843 0 -1.6147119544369843 -25.51749689247071 0 0 0 0 -65.852500966631851 -6.2983084921533532 0 -6.2983084921533532 -0.17472668594263041 0 0 0 0 -5.1592822192005769 5.3020765101342704 0 5.3020765101342704 -5.7018956616405987 0 0 0 0 -75.430534160115712 -9.6102998485336428 0 -9.6102998485336428 15.730025555736603 0 0 0 0 28.118308110360886 26.901962835375311 0 26.901962835375311 11.399414624956933 0 0 0 0 6.7153434909232601 3.7587066563919507 0 3.7587066563919507 60.781265232805879 0 0 0 0 -7.8626874837804479 4.1829527654833338 0 4.1829527654833338 -1.9047637775033723 0 0 0 0 -2.5944304689001001 62.64443046093065 0 62.64443046093065 72.868997888490469 0 0 0 0 65.044352407406222 24.685660166527299 0 24.685660166527299 24.069153678481683 0 0 0 0 -5.8959704739427536 24.671394956723613 0 24.671394956723613 37.776521400958757 0 0 0 0 -123.31130405976637 -66.096248155403828 0 -66.096248155403828 45.139177603191229 0 0 0 0 -162.95396283622995 -38.771049457700343 0 -38.771049457700343 51.843346982902972 0 0 0 0 -0.077130150844849421 -0.31251312536015696 0 -0.31251312536015696 -0.83797850942515817 0 0 0 0 -48.955530475920796 71.345073306026805 0 71.345073306026805 -2.1404702328271696 0 0 0 0 -27.051321962389807 29.687307311473262 0 29.687307311473262 82.338716087160378 0 0 0 0 -22.064066696604641 -60.613296715174414 0 -60.613296715174414 -5.9227074248737495 0 0 0 0 -79.728460836771319 -12.662244758992841 0 -12.662244758992841 -17.789338247468436 0 0 0 0 17.126409483825228 -10.154505900009838 0 -10.154505900009838 -4.1675087501434973 0 0 0 0 17.506236826742679 -14.405586182523905 0 -14.405586182523905 12.65583919100709 0 0 0 0 70.913670427097315 -4.4861008278321215 0 -4.4861008278321215 -29.330583316144612 0 0 0 0 33.543194383889841 -18.247820080892083 0 -18.247820080892083 -27.628080827499844 0 0 0 0 30.83743802281424 -28.131984877937839 0 -28.131984877937839 -39.22118619396133 0 0 0 0 1.7011987527821475 -4.4425650806281283 0 -4.4425650806281283 -15.958795942635238 0 0 0 0 -6.5011760975412471 -28.923445429558569 0 -28.923445429558569 -16.188981626044772 0 0 0 0 -0.79154296437900484 -24.375454749846881 0 -24.375454749846881 1.3711545492097628 0 0 0 0 -11.610178819405974 -11.436649656522206 0 -11.436649656522206 3.9714955104203682 0 0 0 0 41.720040163681915 -15.487866022474691 0 -15.487866022474691 -7.819298277714438 0 0 0 0 16.238972638419 -6.5448613927796941 0 -6.5448613927796941 0.20671463966868941 0 0 0 0 11.40328663317905 -11.304156838946312 0 -11.304156838946312 -2.1603765523466336 0 0 0 0 -12.99886232700328 -13.62544827530462 0 -13.62544827530462 5.3588762926244726 0 0 0 0 -1.7997476656173603 -11.863711401567173 0 -11.863711401567173 3.7553395629191755 0 0 0 0 -8.986365513391263 -7.4526149117175571 0 -7.4526149117175571 1.8912234190029267 0 0 0 0 -0.98317221677251609 -6.0153139188944635 0 -6.0153139188944635 -1.8274929529200108 0 0 0 0 -3.2622842487953676 -3.4543173057923013 0 -3.4543173057923013 -4.0215337943139957 0 0 0 0 -1.2072263400541487 -5.842051871992112 0 -5.842051871992112 -1.6521256661731627 0 0 0 0 -3.5862505108862024 -5.2790070838173051 0 -5.2790070838173051 0.40495606394279093 0 0 0 0 -6.374750495850094 -5.5784481192656017 0 -5.5784481192656017 2.0525438659838073 0 0 0 0 -196.06892721518943 -26.986471483365889 0 -26.986471483365889 22.691620454121704 0 0 0 0 -161.48189200380148 57.066800511472572 0 57.066800511472572 -67.012002817252991 0 0 0 0 58.387158966248535 2.9859047287353473 0 2.9859047287353473 -45.416277823053008 0 0 0 0 -62.523017438729767 -31.822493044355181 0 -31.822493044355181 -10.533942173328764 0 0 0 0 -0.63430189798415049 -1.0733436097633646 0 -1.0733436097633646 -4.6206352099625096 0 0 0 0 -1.1783824233559699 -0.033392010423059393 0 -0.033392010423059393 -0.5744635248705916 0 0 0 0 -60.895485693332375 28.089298532848954 0 28.089298532848954 -4.022825328622389 0 0 0 0 -80.681809848492776 -36.848983770685976 0 -36.848983770685976 -1.521033977922094 0 0 0 0 -60.039570937640292 -15.779150054072689 0 -15.779150054072689 -31.556366731324843 0 0 0 0 -122.28150229109519 53.271864977021892 0 53.271864977021892 -48.998038219959199 0 0 0 0 0.017646361030683178 -0.87527678161560019 0 -0.87527678161560019 -3.9342216724086598 0 0 0 0 12.025963066102122 -2.8799350627872116 0 -2.8799350627872116 -26.484782645131219 0 0 0 0 -0.074439627621216697 -0.8266885532277346 0 -0.8266885532277346 -2.5063289246510871 0 0 0 0 -69.162135698506063 -36.000841408345224 0 -36.000841408345224 -3.5288209567291915 0 0 0 0 -49.923607031746826 -31.991151928885021 0 -31.991151928885021 -7.9983528483457462 0 0 0 0 -145.69091988525815 68.219410942463952 0 68.219410942463952 -76.457922890759249 0 0 0 0 -64.259207244381287 207.79136070078476 0 207.79136070078476 -112.83772187152161 0 0 0 0 -417.56834263722976 264.67286975490333 0 264.67286975490333 -55.642486935596963 0 0 0 0 -175.84536152009423 55.895070879514307 0 55.895070879514307 -37.417225018500687 0 0 0 0 -211.44525186150622 18.691120349901567 0 18.691120349901567 1.3630952189065439 0 0 0 0 -258.41196989640412 123.73096228596083 0 123.73096228596083 -45.957736750834577 0 0 0 0 -371.37853597236153 83.990275832933818 0 83.990275832933818 5.0025674411304806 0 0 0 0 -284.33826985025189 88.28386826014281 0 88.28386826014281 -3.7949081931116453 0 0 0 0 -338.87051133954992 65.262859438223714 0 65.262859438223714 -12.704928661403912 0 0 0 0 -367.62946405718822 32.193913151162327 0 32.193913151162327 26.785728665739512 0 0 0 0 -261.85142273153542 81.637677120491702 0 81.637677120491702 -18.41171682041 0 0 0 0 -276.81718914777593 60.191560151315421 0 60.191560151315421 -49.069536774867657 0 0 0 0 -274.37484377305009 34.055695601422855 0 34.055695601422855 -58.833139411680662 0 0 0 0 -499.93673365485574 28.814701882952512 0 28.814701882952512 71.138128154200274 0 0 0 0 -452.61582192793048 28.721409197152635 0 28.721409197152635 45.685741829067851 0 0 0 0 -434.65706315233729 78.177813661557508 0 78.177813661557508 30.646619736055904 0 0 0 0 -371.7046197653051 86.448577940352848 0 86.448577940352848 11.170163601928731 0 0 0 0 -500.04304893865674 58.594296894601385 0 58.594296894601385 27.356218686597277 0 0 0 0 -501.88577169845667 5.6846030320955521 0 5.6846030320955521 -70.472148025606998 0 0 0 0 -494.18515349118115 108.51919006922805 0 108.51919006922805 33.842525924064901 0 0 0 0 -588.48855785086653 28.876608937081372 0 28.876608937081372 -18.719455203778423 0 0 0 0 -499.90826177683266 57.680677730070101 0 57.680677730070101 -80.917151523201298 0 0 0 0 -488.27888877859573 22.672211727777192 0 22.672211727777192 -204.68773555748652 0 0 0 0 -500.02314864869959 53.406762567554452 0 53.406762567554452 23.967754704952288 0 0 0 0 -454.99952673390044 -46.122546289927065 0 -46.122546289927065 67.273114811068382 0 0 0 0 -523.14126411707457 167.05999647779956 0 167.05999647779956 -83.979738511947261 0 0 0 0 -627.25419292983338 -123.4892796036562 0 -123.4892796036562 14.04496162984892 0 0 0 0 -3.0715659858922475 1.4601179097659971 0 1.4601179097659971 -0.77362447416495583 0 0 0 0 14.64164197871105 -47.045014571336139 0 -47.045014571336139 -27.184559539108506 0 0 0 0 -112.59605643466898 37.246592508990517 0 37.246592508990517 18.86388736738229 0 0 0 0 -90.54962506600441 -19.221027492433635 0 -19.221027492433635 48.352397542665287 0 0 0 0 -7.0272651540731808 3.5984870810524212 0 3.5984870810524212 -1.6062346149076288 0 0 0 0 -110.43342959758684 27.264794610573922 0 27.264794610573922 57.823057432419716 0 0 0 0 -183.31299257626324 -61.289570446577784 0 -61.289570446577784 -0.57341871567028591 0 0 0 0 -216.5607895828453 3.8818488247669416 0 3.8818488247669416 38.985470986785856 0 0 0 0 -212.53740914926948 -11.879563221162982 0 -11.879563221162982 31.26288333272079 0 0 0 0 -85.986399135426609 5.653512726000983 0 5.653512726000983 4.1972366643132659 0 0 0 0 -92.505654043065078 -8.2883603732731501 0 -8.2883603732731501 -12.686616746726244 0 0 0 0 -156.15368719105118 -0.95557388558606249 0 -0.95557388558606249 10.486761121466913 0 0 0 0 -68.690348420400198 13.231793574507716 0 13.231793574507716 -14.799739383460064 0 0 0 0 -179.79296517127204 46.159299494898846 0 46.159299494898846 8.1284384853602205 0 0 0 0 -313.23077543704539 5.7368062905976771 0 5.7368062905976771 47.978662416517537 0 0 0 0 -364.44520381951133 92.531554110051161 0 92.531554110051161 57.864305511280975 0 0 0 0 -499.95546913599856 105.56722045692331 0 105.56722045692331 101.14938728963898 0 0 0 0 -424.57320685794821 66.737599125157516 0 66.737599125157516 81.924492448247463 0 0 0 0 -467.84833449901816 99.553604338614605 0 99.553604338614605 69.921143380570442 0 0 0 0 -337.94921681165215 -180.83902054714289 0 -180.83902054714289 -65.81144734715815 0 0 0 0 -374.3367430590506 -142.04397533346082 0 -142.04397533346082 50.04389141498617 0 0 0 0 -500.1350822271055 -232.51932793633239 0 -232.51932793633239 -0.13310515292795383 0 0 0 0 -361.80567688467272 -234.87763438051064 0 -234.87763438051064 -25.374318278397901 0 0 0 0 -263.2299593022326 -186.7429102643267 0 -186.7429102643267 -67.443243290539243 0 0 0 0 -0.54710349665503699 -0.14908447272713232 0 -0.14908447272713232 -0.77361134652655483 0 0 0 0 33.129927568654239 -9.2641992191170459 0 -9.2641992191170459 -17.924712070021826 0 0 0 0 -6.6631402771004105 -55.220084132709395 0 -55.220084132709395 -70.194997358870381 0 0 0 0 -155.55631149604415 -128.37047928756607 0 -128.37047928756607 -62.880444466130037 0 0 0 0 -247.34200781908703 -95.699772156243185 0 -95.699772156243185 2.2664205592274485 0 0 0 0 -255.65382530923398 -116.90259862435873 0 -116.90259862435873 -2.0476403680743118 0 0 0 0 -177.80259810682378 -52.677293979209757 0 -52.677293979209757 11.327147450460785 0 0 0 0 -266.37941291090374 -74.090863501904479 0 -74.090863501904479 25.3802399546652 0 0 0 0 -272.86012904457039 -66.291230886815285 0 -66.291230886815285 56.173727342867124 0 0 0 0 -380.66204455774277 -96.070043328059825 0 -96.070043328059825 54.406493084469744 0 0 0 0 -381.65187812642148 -89.832930793963513 0 -89.832930793963513 82.723542602311255 0 0 0 0 -499.84224674733105 -149.91460496104222 0 -149.91460496104222 61.615536244311883 0 0 0 0 -499.97057752698402 -50.40723120792623 0 -50.40723120792623 104.42453127077347 0 0 0 0 -399.26536321965159 -92.396201350396822 0 -92.396201350396822 83.202440404493018 0 0 0 0 -407.46200292453295 -24.084861056933864 0 -24.084861056933864 65.20031790599586 0 0 0 0 -413.2482225038857 -48.035491435085014 0 -48.035491435085014 102.98565245920344 0 0 0 0 -499.96442436706548 -13.19243336924324 0 -13.19243336924324 96.629109851923616 0 0 0 0 -419.21114525361713 -3.0511642986875529 0 -3.0511642986875529 56.927498219542088 0 0 0 0 -420.01267828812445 -0.79935040455489981 0 -0.79935040455489981 81.748713990661102 0 0 0 0 -295.9642307501108 21.460010544185963 0 21.460010544185963 -3.5373861842752596 0 0 0 0 -288.95768225113397 27.881009839210989 0 27.881009839210989 -2.4102676079537559 0 0 0 0 -354.33597123157415 28.111617214826509 0 28.111617214826509 24.195904275157787 0 0 0 0 -333.34428911270879 -0.36834741452766195 0 -0.36834741452766195 30.912168206847497 0 0 0 0 -346.03156858196962 -18.990663644161202 0 -18.990663644161202 59.196167485454453 0 0 0 0 -324.13195893244665 4.6880114819412171 0 4.6880114819412171 31.138774302894745 0 0 0 0 -298.98435508579678 -19.107454102432364 0 -19.107454102432364 38.254648509214235 0 0 0 0 -282.3314400009458 2.7831283912487379 0 2.7831283912487379 13.527374809151866 0 0 0 0 -256.74300896717796 12.678102489039745 0 12.678102489039745 13.225642079967514 0 0 0 0 -266.7703529272294 -19.721283531217821 0 -19.721283531217821 37.619640506549729 0 0 0 0 -279.73062759617005 -3.5280355626393174 0 -3.5280355626393174 37.124886323101791 0 0 0 0 -314.08277965228444 -42.316194765652362 0 -42.316194765652362 59.466710011672234 0 0 0 0 -375.47731828904466 -43.48747378348147 0 -43.48747378348147 65.676748414839466 0 0 0 0 -202.9524052752754 -18.702115251712264 0 -18.702115251712264 25.635556777959664 0 0 0 0 -187.12122954586266 -28.762876483890864 0 -28.762876483890864 20.945153013008053 0 0 0 0 -35.387720434840048 -8.7833732822879966 0 -8.7833732822879966 -7.9773821594179424 0 0 0 0 -134.07524042900695 13.19485308664305 0 13.19485308664305 20.079903721521475 0 0 0 0 -93.511813216815426 -4.7900277434939369 0 -4.7900277434939369 -3.9453515975440752 0 0 0 0 -17.017183821627441 4.4427708037487506 0 4.4427708037487506 -11.222477554759791 0 0 0 0 -0.34323284664578857 -0.29654377481070959 0 -0.29654377481070959 -0.043698624282159537 0 0 0 0 -133.74981169746752 12.698306632228224 0 12.698306632228224 5.240296277676066 0 0 0 0 -185.32129932365388 0.029634853883464984 0 0.029634853883464984 13.954164061728974 0 0 0 0 -189.63935965300152 5.9594134096688549 0 5.9594134096688549 19.455915714140019 0 0 0 0 -240.43765779956721 -5.7505978637271085 0 -5.7505978637271085 24.53216402363887 0 0 0 0 -225.48115724518539 21.677809002458574 0 21.677809002458574 4.5664721692928438 0 0 0 0 -183.42293307890213 42.021949595297272 0 42.021949595297272 9.8205034092652568 0 0 0 0 -114.12650555509572 30.733118651447995 0 30.733118651447995 -5.8955907559029583 0 0 0 0 -27.41269943156658 -0.16245645720513124 0 -0.16245645720513124 -13.205708549069669 0 0 0 0 -0.34260011396571599 -0.16654673032125977 0 -0.16654673032125977 -0.023415340313919675 0 0 0 0 -20.08577913582667 80.100728131290211 0 80.100728131290211 -65.412864560873672 0 0 0 0 -69.386781735180193 68.8841405852625 0 68.8841405852625 -30.809818724180957 0 0 0 0 28.771557227350058 37.326346802944329 0 37.326346802944329 -63.063864665620798 0 0 0 0 -179.42855295224854 23.179632751718714 0 23.179632751718714 -29.962711255338121 0 0 0 0 -276.95324585553954 20.009320764189866 0 20.009320764189866 -17.763886933072683 0 0 0 0 -232.83493282419658 71.164232508970386 0 71.164232508970386 -55.801554128033963 0 0 0 0 -229.45366580129303 30.708711605386711 0 30.708711605386711 -15.623646262046123 0 0 0 0 -6.3416710670189786 -5.7175780944612589 0 -5.7175780944612589 0.16654240677248211 0 0 0 0 0.13240538614354591 -4.5321930616603794 0 -4.5321930616603794 -14.836506841352502 0 0 0 0 -3.9835603127181969 -2.488221990280282 0 -2.488221990280282 -1.1677089220011356 0 0 0 0 -0.77654996680372812 -0.46142999479632785 0 -0.46142999479632785 -0.065110016073147731 0 0 0 0 -10.244771772342574 -1.9951759904654907 0 -1.9951759904654907 4.3004911445767853 0 0 0 0 -11.159008561169685 -9.1400075361331261 0 -9.1400075361331261 -11.034047475298507 0 0 0 0 -2.0355539881038567 -0.82797638132556983 0 -0.82797638132556983 -32.332585830230556 0 0 0 0 -3.8679978029831545 -2.3729088115364902 0 -2.3729088115364902 -15.74833664691846 0 0 0 0 -2.5166537793813859 -3.1814639720643854 0 -3.1814639720643854 -15.923243326692671 0 0 0 0 -4.3297245768299035 -3.3390480070538331 0 -3.3390480070538331 -15.018711420247801 0 0 0 0 -5.8656629578272259 -2.5567874604776648 0 -2.5567874604776648 -14.882741284827489 0 0 0 0 -6.5775275289488491 4.2486912493301361 0 4.2486912493301361 -17.884665112184955 0 0 0 0 -13.501101297833884 7.5376414137640211 0 7.5376414137640211 -7.4262835702972438 0 0 0 0 -13.623585423552868 6.2916256204809429 0 6.2916256204809429 -3.3384098588948916 0 0 0 0 -21.002425925533089 18.357933722592975 0 18.357933722592975 -19.024585532562639 0 0 0 0 -0.29711387129265532 -0.22038107763343895 0 -0.22038107763343895 0.39770663719849053 0 0 0 0 -15.688954246301364 6.1607048858527094 0 6.1607048858527094 -3.278924196641654 0 0 0 0 -14.337041681951632 4.2743949153221479 0 4.2743949153221479 -1.2830865497615775 0 0 0 0 -9.5929862194461748 4.0800777312539935 0 4.0800777312539935 -4.8623003169382741 0 0 0 0 -10.069566134063166 4.582224437264335 0 4.582224437264335 -1.9004830923119016 0 0 0 0 -9.9881004169128573 2.8904978315521248 0 2.8904978315521248 0.20455202713907283 0 0 0 0 -17.468353250520522 5.7229438689128642 0 5.7229438689128642 1.1441293386473319 0 0 0 0 0.2762937127859999 0.16093765482311184 0 0.16093765482311184 1.1665316823590572 0 0 0 0 -7.8329460280874628 -9.9779648671437648 0 -9.9779648671437648 -3.3616361366201986 0 0 0 0 -99.498508793622022 -1.7576041977018306 0 -1.7576041977018306 10.876386603530406 0 0 0 0 -100.96698433682468 -34.773988409945744 0 -34.773988409945744 -6.0391452158312973 0 0 0 0 -179.85243101373339 -46.78996187454851 0 -46.78996187454851 5.6453295384242779 0 0 0 0 -77.208592433160447 -43.94182094167563 0 -43.94182094167563 -29.530963635805115 0 0 0 0 -73.753829767458228 1.9802699904894965 0 1.9802699904894965 2.5357365714667317 0 0 0 0 -19.397430770777646 7.1091405147808793 0 7.1091405147808793 -16.806947704917963 0 0 0 0 -16.5493917882186 -0.21957100379700023 0 -0.21957100379700023 -17.4094879683622 0 0 0 0 -36.189091427866288 12.415098896189299 0 12.415098896189299 2.5243662134242868 0 0 0 0 -74.110329198951149 -23.495508536816022 0 -23.495508536816022 -16.581584881578291 0 0 0 0 -24.797182848235025 -20.775681101170818 0 -20.775681101170818 -38.181833928749057 0 0 0 0 -62.375794809544004 -4.0709841884802671 0 -4.0709841884802671 13.596431745044072 0 0 0 0 16.278032324138621 1.5222381457915901 0 1.5222381457915901 0.15709398848125034 0 0 0 0 -17.770894536820379 -42.122807446079463 0 -42.122807446079463 -23.353781212173544 0 0 0 0 -0.37082888300938066 39.585330321379615 0 39.585330321379615 16.218532148397699 0 0 0 0 -1.5300913796071356 0.44469642516439301 0 0.44469642516439301 0.10986332558079093 0 0 0 0 -12.907890438555114 -2.9809851643887839 0 -2.9809851643887839 -2.90854030867159 0 0 0 0 -11.903334999355117 6.0536236964544798 0 6.0536236964544798 3.3062273199113639 0 0 0 0 -191.76208715265784 112.68296542073756 0 112.68296542073756 38.29530436508265 0 0 0 0 -6.0105884332800077 -4.2925336868228818 0 -4.2925336868228818 -0.66687465475560193 0 0 0 0 -5.7029368620718515 3.4032395520486869 0 3.4032395520486869 -1.2611007401515324 0 0 0 0 -14.880096791499 6.0781988733916137 0 6.0781988733916137 1.0166216350337436 0 0 0 0 -2.8786000312840176 1.1293489629639915 0 1.1293489629639915 2.4241685439012897 0 0 0 0 -60.797014296420457 -115.11066429881406 0 -115.11066429881406 39.953257401058409 0 0 0 0 -5.9347608913001295 20.515439326339134 0 20.515439326339134 3.85645090529448 0 0 0 0 -10.125692849082043 23.694670046985578 0 23.694670046985578 2.0554330927357896 0 0 0 0 -12.707044975180906 -3.6143766472357015 0 -3.6143766472357015 -4.6647655855769017 0 0 0 0 0.040063884851832654 -0.12054762653676931 0 -0.12054762653676931 -0.0076961272168132311 0 0 0 0 -12.921650050901007 -5.2952936495899223 0 -5.2952936495899223 -2.4276105523692308 0 0 0 0 -4.8828974738007673 -10.318850421226749 0 -10.318850421226749 2.3282588177608545 0 0 0 0 10.536693177480629 6.5955093051277345 0 6.5955093051277345 -19.599578576399551 0 0 0 0 -8.179598309139692 -6.8882550905695723 0 -6.8882550905695723 3.7428340940953753 0 0 0 0 -12.6674962050256 0.24946515523870971 0 0.24946515523870971 -1.2346796008101251 0 0 0 0 -12.803780084020616 -2.7421235647993942 0 -2.7421235647993942 -2.086025213257642 0 0 0 0 -16.712168453839695 -3.4049846799106831 0 -3.4049846799106831 -1.1744634948866803 0 0 0 0 -16.104223950758751 -0.037119679948744988 0 -0.037119679948744988 -0.7085929521106209 0 0 0 0 -14.699051585599591 -1.8190390627772786 0 -1.8190390627772786 -0.2190331913388377 0 0 0 0 -19.855218571650767 0.085435146828331199 0 0.085435146828331199 -0.90860341142197854 0 0 0 0 -19.028346311884889 -4.3880015415127183 0 -4.3880015415127183 0.76062980427622051 0 0 0 0 -7.0768230471603601 -5.4633254233830542 0 -5.4633254233830542 -6.1456398687474803 0 0 0 0 -1.5638195773881307 1.8059095422671305 0 1.8059095422671305 -2.1372986199215234 0 0 0 0 -0.61115209661718239 -0.27019927709229563 0 -0.27019927709229563 0.19448765951985003 0 0 0 0 -20.847488501322005 -10.128391297683692 0 -10.128391297683692 11.88823614151363 0 0 0 0 -14.734978195332587 -5.8350830919452079 0 -5.8350830919452079 0.56687308306237583 0 0 0 0 5.4170037111653073 -4.5754722535345991 0 -4.5754722535345991 -0.40966697919884609 0 0 0 0 -23.713962007097507 10.034977932228259 0 10.034977932228259 2.9347269083077663 0 0 0 0 -0.086421285391303115 -0.21597314769775622 0 -0.21597314769775622 0.0088108492736080901 0 0 0 0 4.4512193382761325 -12.925253687591109 0 -12.925253687591109 2.0465829749223445 0 0 0 0 -6.6938662389256933 -5.3010941369842897 0 -5.3010941369842897 2.1654160360117203 0 0 0 0 -0.059278840387378295 1.4126966635308094 0 1.4126966635308094 1.1549668693410808 0 0 0 0 -6.7356956335370342 -1.7404310326074608 0 -1.7404310326074608 2.5808545301385095 0 0 0 0 -15.141102797490021 0.76360462176712218 0 0.76360462176712218 -1.2463022994207478 0 0 0 0 -13.224470965309592 2.0303474356421418 0 2.0303474356421418 -0.75472745997464408 0 0 0 0 -6.0097573483653832 0.01275645321689467 0 0.01275645321689467 -0.95106009037476724 0 0 0 0 -8.8555605742512853 -3.5535174494767006 0 -3.5535174494767006 -0.1345905588479468 0 0 0 0 -17.235730448586764 -0.88930765753406149 0 -0.88930765753406149 -0.63635072638794732 0 0 0 0 -6.6424654891784485 -9.0520808313381629 0 -9.0520808313381629 1.8783619168028736 0 0 0 0 -6.7211324430463719 -8.8064977144085788 0 -8.8064977144085788 2.6631409175460803 0 0 0 0 -7.7701378672973078 -3.0477352149541446 0 -3.0477352149541446 -0.20755658691541612 0 0 0 0 -8.4411940183545084 -4.4455096577569932 0 -4.4455096577569932 -1.2533203976228648 0 0 0 0 -7.0037919635033177 -9.061210402583912 0 -9.061210402583912 -9.7942181547755354 0 0 0 0 -11.543758407131463 -7.6957467609855001 0 -7.6957467609855001 -4.4625929025819175 0 0 0 0 -12.193907909053451 -3.9797421861424986 0 -3.9797421861424986 -6.0526763129666783 0 0 0 0 -36.608136528864634 2.3570790443874543 0 2.3570790443874543 -2.1385923279306382 0 0 0 0 -13.705339640801867 1.738417625228994 0 1.738417625228994 -3.5669231617457058 0 0 0 0 -14.824026416488778 -7.0095149395173095 0 -7.0095149395173095 -6.1353081972048251 0 0 0 0 -55.878461336686087 -6.5235725736783259 0 -6.5235725736783259 -3.0606016347794194 0 0 0 0 -42.827682823770829 24.9503540731193 0 24.9503540731193 -15.809167768096264 0 0 0 0 1.9903651014824391 -25.056728016035255 0 -25.056728016035255 -35.973479836882909 0 0 0 0 17.54761442349627 12.925280664846159 0 12.925280664846159 -10.758349680522025 0 0 0 0 -4.4944740378371648 3.4062553473934063 0 3.4062553473934063 -1.1251287329332043 0 0 0 0 -2.9062653369246618 -5.5194485847452093 0 -5.5194485847452093 -7.1048165785115138 0 0 0 0 -2.5692557302681962 -4.1723121786238266 0 -4.1723121786238266 -6.0884350215466085 0 0 0 0 -4.4314050020586642 3.5570788941130331 0 3.5570788941130331 -1.4168573669498783 0 0 0 0 -3.1541605956140302 7.784779864964122 0 7.784779864964122 0.12200395177194423 0 0 0 0 -10.127601715239791 4.9065481361231704 0 4.9065481361231704 1.6704230503234498 0 0 0 0 -4.1765362942196589 2.903263171297624 0 2.903263171297624 -2.0576495266008408 0 0 0 0 -9.5163310583339467 5.3028384833365365 0 5.3028384833365365 -2.8398051339545418 0 0 0 0 -0.95824972400987463 8.3219993693443897 0 8.3219993693443897 0.27649409307940687 0 0 0 0 -4.0461902693205047 3.568338276270751 0 3.568338276270751 -5.7183010392831477 0 0 0 0 -4.1878754848448807 2.1587390094687038 0 2.1587390094687038 -1.7307344978094648 0 0 0 0 -5.685681773828037 0.10495904190692329 0 0.10495904190692329 -5.3580988621502019 0 0 0 0 -5.5766606757770205 1.3300563766658797 0 1.3300563766658797 -6.8221548711238711 0 0 0 0 -6.420984799043822 2.2990079822676925 0 2.2990079822676925 -7.6177564214917197 0 0 0 0 -5.1488820321646926 -0.63545905973590777 0 -0.63545905973590777 -12.308189378343315 0 0 0 0 -5.6390826027654839 -3.6902578917036557 0 -3.6902578917036557 -12.57285510558027 0 0 0 0 -5.8960750654728145 -2.5652314732833448 0 -2.5652314732833448 -11.035082135079222 0 0 0 0 -3.8637250074054919 1.9585921122199474 0 1.9585921122199474 -5.0337514415858919 0 0 0 0 -4.5364834241518111 -1.1781981747727279 0 -1.1781981747727279 -8.28796945451883 0 0 0 0 -6.7334030169404286 -2.1397341387150703 0 -2.1397341387150703 -6.6576203326181158 0 0 0 0 -10.307411005555878 -5.5519002826252493 0 -5.5519002826252493 -8.6168281375985885 0 0 0 0 -10.827044149686117 -3.9613643322084542 0 -3.9613643322084542 -1.4911007176512641 0 0 0 0 -7.0923921439543847 -1.118408812623068 0 -1.118408812623068 -6.2846024102554168 0 0 0 0 -5.1862486820809863 -2.1300118576463412 0 -2.1300118576463412 -6.4320369496558669 0 0 0 0 -6.2232714798592497 -3.8327332973793631 0 -3.8327332973793631 -6.4339071968391792 0 0 0 0 -5.5037667399092243 -3.7324570165901605 0 -3.7324570165901605 -0.7863161325898318 0 0 0 0 -4.9562756905660734 -2.2745449317490705 0 -2.2745449317490705 0.13502365812138439 0 0 0 0 -4.7902674995348207 -5.3637090554005233 0 -5.3637090554005233 -12.580429992881605 0 0 0 0 -0.27643575459189762 1.0702757737528088 0 1.0702757737528088 0.69029884796596164 0 0 0 0 -0.5054081593040749 -0.54488494112272434 0 -0.54488494112272434 -0.56810748942314482 0 0 0 0 -6.0326164575890289 -7.7804325944892483 0 -7.7804325944892483 -14.263264928559135 0 0 0 0 -4.2956229341953076 0.1216916902842371 0 0.1216916902842371 -2.404700306668798 0 0 0 0 -4.1981375733794266 0.029342945582839342 0 0.029342945582839342 -2.3319766403596338 0 0 0 0 -5.033419709359805 -2.1343816512050422 0 -2.1343816512050422 -4.6743818066660054 0 0 0 0 -4.0620165698819619 0.25868740925420042 0 0.25868740925420042 -3.4610104288944044 0 0 0 0 -4.4184927750675342 0.93705504495179781 0 0.93705504495179781 -1.525388278353276 0 0 0 0 -2.3831589556120889 0.20505121560045581 0 0.20505121560045581 -4.291229627689944 0 0 0 0 -1.713051344600899 2.9984534970797174 0 2.9984534970797174 -1.6988851286465616 0 0 0 0 -4.0869016496695387 2.2196620616683358 0 2.2196620616683358 -0.13553483930014576 0 0 0 0 -2.5939229957011776 10.680815004972798 0 10.680815004972798 8.7825201193874243 0 0 0 0 -4.2528002739952271 3.0931126703070966 0 3.0931126703070966 -0.54348246528010558 0 0 0 0 0.49607735456811497 5.5805273761363594 0 5.5805273761363594 -2.1709261910889381 0 0 0 0 -3.1403461972531659 -22.569991933551016 0 -22.569991933551016 -10.428404503562394 0 0 0 0 -65.757962308605784 10.734447587445484 0 10.734447587445484 12.835923397597366 0 0 0 0 9.1898832985871195 -9.0166391699094035 0 -9.0166391699094035 -6.796132790213095 0 0 0 0 -17.092854742085365 1.0905166744609289 0 1.0905166744609289 -2.2247721565606753 0 0 0 0 -19.507028571767933 2.851353997029527 0 2.851353997029527 -0.95136188792747589 0 0 0 0 -0.112839175594587 -0.50496681979960556 0 -0.50496681979960556 -1.1123898328387074 0 0 0 0 -18.08994640509718 -1.4113503889503427 0 -1.4113503889503427 3.8860203000580356 0 0 0 0 6.8789969387489691 -7.887939778850793 0 -7.887939778850793 -5.4425266504936616 0 0 0 0 -8.0203437327563734 -2.5026720546420194 0 -2.5026720546420194 3.7325218013981356 0 0 0 0 -1.7888441382946176 -0.66422725029941176 0 -0.66422725029941176 -1.7023540902326344 0 0 0 0 -13.666045469077289 1.4587972183663851 0 1.4587972183663851 -1.5396668920826357 0 0 0 0 -11.651133467746149 0.54803852491582461 0 0.54803852491582461 -1.6023066844448977 0 0 0 0 -9.2285042323574089 -0.017192276548612995 0 -0.017192276548612995 -1.7343646807344157 0 0 0 0 -8.9153291440861722 -1.8602345617364904 0 -1.8602345617364904 -2.2209936565117161 0 0 0 0 -4.0947336484689814 2.1784292565228185 0 2.1784292565228185 -0.17047190241751409 0 0 0 0 -2.2648741940281489 -0.86623614693624518 0 -0.86623614693624518 -1.4995415992107128 0 0 0 0 -10.838319879720984 -2.393186231780362 0 -2.393186231780362 -0.65009208235352389 0 0 0 0 -11.233523565993892 -1.6568084341570284 0 -1.6568084341570284 -1.8297040338168464 0 0 0 0 -13.311426767439116 -2.3321974609866203 0 -2.3321974609866203 0.082290551679903956 0 0 0 0 -11.100304252229762 -2.0514529190658664 0 -2.0514529190658664 -0.73389828615178487 0 0 0 0 -8.558496896660472 -3.6253511251768344 0 -3.6253511251768344 -0.98550454109619068 0 0 0 0 -8.157863948573322 -2.6576220852874002 0 -2.6576220852874002 -1.1801678621213512 0 0 0 0 -11.724826084569031 -3.4588712912919952 0 -3.4588712912919952 -0.13367054691047997 0 0 0 0 -11.935114146337582 -2.3583226045020638 0 -2.3583226045020638 -0.63203047846201343 0 0 0 0 -19.125324478198308 -0.84103833471925782 0 -0.84103833471925782 0.38776863678192797 0 0 0 0 -13.404039454186204 -4.9154488324491155 0 -4.9154488324491155 0.65880676710173702 0 0 0 0 -22.710220162058249 -1.7559111455791196 0 -1.7559111455791196 0.45551010076654208 0 0 0 0 -21.179389432436437 4.8373849827939779 0 4.8373849827939779 -3.9488950061910302 0 0 0 0 -11.202881936351332 -7.4455333572449263 0 -7.4455333572449263 -1.6483418329384847 0 0 0 0 -0.079327498579907285 0.12448119341454866 0 0.12448119341454866 -0.057741710903706472 0 0 0 0 4.0564449872599653 4.6829580944184102 0 4.6829580944184102 -23.685564777148898 0 0 0 0 21.884438957877137 -3.5894334666864083 0 -3.5894334666864083 -17.261298324803413 0 0 0 0 9.8705283513208997 17.221462197029915 0 17.221462197029915 -7.9844526886028504 0 0 0 0 -16.072461311747247 -18.7618982675741 0 -18.7618982675741 -22.838128578981497 0 0 0 0 -4.1399782213211438 9.8585464537906233 0 9.8585464537906233 -8.8349780845710271 0 0 0 0 -0.13243039053141636 -0.18053229890495359 0 -0.18053229890495359 -0.34249459366766216 0 0 0 0 6.7181534907413152 18.456885493514264 0 18.456885493514264 13.616723986045088 0 0 0 0 -48.774800990951917 -9.7061373143833265 0 -9.7061373143833265 -10.973985193804268 0 0 0 0 -0.57974198555324108 -0.30550117614146899 0 -0.30550117614146899 -0.1795349917729166 0 0 0 0 24.990155580195278 -4.0899106993053636 0 -4.0899106993053636 -10.723532582761948 0 0 0 0 15.137779080563632 -14.780026519236941 0 -14.780026519236941 -10.765642552019777 0 0 0 0 -11.083953838216985 7.3376365741160257 0 7.3376365741160257 -8.6347701377111861 0 0 0 0 -17.356670995000968 14.633145039680926 0 14.633145039680926 -16.475414890315523 0 0 0 0 -11.042768068891291 7.7022237339043755 0 7.7022237339043755 -5.4950945292303999 0 0 0 0 -36.618854833741352 -50.936157104089176 0 -50.936157104089176 13.552170672107989 0 0 0 0 -1.5207111386245558 -0.7329107541667863 0 -0.7329107541667863 -0.26665848060158387 0 0 0 0 -11.316503256437954 8.1861400159552637 0 8.1861400159552637 -5.6057485226943413 0 0 0 0 -12.154577074422377 8.0936833355972055 0 8.0936833355972055 -2.4920932720977476 0 0 0 0 -10.421792056053164 5.3537065624891937 0 5.3537065624891937 -1.3404777432842252 0 0 0 0 -17.192262224139995 10.187007572268275 0 10.187007572268275 -4.4911037010567867 0 0 0 0 -8.9807051391426285 5.4206602681705469 0 5.4206602681705469 -2.5869234142602977 0 0 0 0 -13.787608017242746 12.661412563223777 0 12.661412563223777 -8.9268327785571842 0 0 0 0 -9.9201532585811947 6.1219493689193598 0 6.1219493689193598 -1.4418749222678287 0 0 0 0 -13.871977930320099 -2.8456075124051665 0 -2.8456075124051665 -0.79835205318741487 0 0 0 0 -21.144292554596177 7.2045745743128862 0 7.2045745743128862 -1.507241187715465 0 0 0 0 -4.530274966399702 4.2532833654552391 0 4.2532833654552391 -4.6456567657685355 0 0 0 0 -3.6628599397527069 2.7395939985313547 0 2.7395939985313547 -2.3755997192200766 0 0 0 0 -4.4681223217330626 3.3339993844667557 0 3.3339993844667557 21.018248468968611 0 0 0 0 -1.8316892733794674 -0.82422048299063455 0 -0.82422048299063455 -0.20668586481810078 0 0 0 0 -7.6370813603093666 -0.071323745267493521 0 -0.071323745267493521 -1.6318367829831857 0 0 0 0 -6.6731348318844539 4.0428568335188118 0 4.0428568335188118 -2.258997341130156 0 0 0 0 -5.1522273045193288 15.879091783017572 0 15.879091783017572 -18.624836150172271 0 0 0 0 -19.925099039820452 -8.3945734391807036 0 -8.3945734391807036 5.2811586991286958 0 0 0 0 -7.5333943579153129 7.2017011911313205 0 7.2017011911313205 7.617529660431444 0 0 0 0 13.121212019543236 9.6047888254165059 0 9.6047888254165059 -9.451826414191089 0 0 0 0 -1.7431566777413536 -6.0805292983362023 0 -6.0805292983362023 -0.46049017712033447 0 0 0 0 -0.23771830751038436 -0.0015874584387818302 0 -0.0015874584387818302 0.021611849332751204 0 0 0 0 -3.7742454622366495 3.4961995583718419 0 3.4961995583718419 -16.778072391853726 0 0 0 0 -5.36565291723673 0.39305846052377547 0 0.39305846052377547 1.7505735734880545 0 0 0 0 -7.3262031823742291 5.4966737369110774 0 5.4966737369110774 -6.9761959082680391 0 0 0 0 -5.2997941457997513 -1.2854716052406161 0 -1.2854716052406161 -0.3388772475300641 0 0 0 0 -3.4351936345705099 -4.0461612215683012 0 -4.0461612215683012 3.1939318188553898 0 0 0 0 -5.7558926026704285 -3.9373518307244524 0 -3.9373518307244524 10.694020437478741 0 0 0 0 -3.6925025839793761 -1.0988382694065439 0 -1.0988382694065439 -0.64624282995373505 0 0 0 0 -5.18282060277852 -8.0787427785261912 0 -8.0787427785261912 2.9923075462115207 0 0 0 0 -11.143089402272153 3.7426317405792489 0 3.7426317405792489 17.924909017067193 0 0 0 0 -6.5724033748192596 0.8931011903289372 0 0.8931011903289372 1.9044536369383529 0 0 0 0 -5.3976710072585945 0.84644716487554361 0 0.84644716487554361 0.043757769772530153 0 0 0 0 -7.1585306337083239 2.9496332513755661 0 2.9496332513755661 0.025058573135257944 0 0 0 0 -5.1370920434335332 0.96178882563415891 0 0.96178882563415891 -0.082226063609321109 0 0 0 0 -5.3887160594485977 2.1804340999406264 0 2.1804340999406264 -2.0737438858627684 0 0 0 0 -8.906635716942219 2.8833436571503341 0 2.8833436571503341 -1.8635390945415793 0 0 0 0 -4.0020932279003318 1.6194427220773946 0 1.6194427220773946 -1.035494756483331 0 0 0 0 -1.8845002159062254 -0.73626859945202661 0 -0.73626859945202661 0.57470858138201342 0 0 0 0 -0.73172547120272213 -0.12716397159375958 0 -0.12716397159375958 -0.58116803172964793 0 0 0 0 -8.1629202350941341 3.0046149242865283 0 3.0046149242865283 -1.9915705222397264 0 0 0 0 -7.391810930255815 0.88739024510718423 0 0.88739024510718423 -1.60117781214921 0 0 0 0 -3.7526494449414791 2.3428882242654296 0 2.3428882242654296 -0.89651211697624311 0 0 0 0 -4.9017451355330195 1.1456701499525224 0 1.1456701499525224 -1.6624056667159266 0 0 0 0 -5.4432738987822091 1.6219151198121975 0 1.6219151198121975 -0.17541001202519241 0 0 0 0 -4.0554586769833705 1.7626365935257304 0 1.7626365935257304 -0.20016488259727319 0 0 0 0 -5.7010155252078221 0.51872651098875844 0 0.51872651098875844 1.5443487879601072 0 0 0 0 -8.5064878853845585 5.8463497242647566 0 5.8463497242647566 1.6492277049110573 0 0 0 0 -1.6815126404750913 1.1860022210568237 0 1.1860022210568237 -1.4384373785326225 0 0 0 0 -7.9690132642226672 -3.1487080357022386 0 -3.1487080357022386 3.9467983763194425 0 0 0 0 -12.22684299809589 9.4816120086103872 0 9.4816120086103872 -7.7803613332155948 0 0 0 0 -0.061645169399611177 -0.11819900791879645 0 -0.11819900791879645 -0.017191871171943054 0 0 0 0 -1.8828077896083073 5.5223044649415218 0 5.5223044649415218 -1.8811469889781236 0 0 0 0 -0.22427859966435904 0.70832406502221001 0 0.70832406502221001 -0.38410423991237547 0 0 0 0 -0.06477885788626736 1.483230603776005 0 1.483230603776005 -0.41234496905986617 0 0 0 0 -1.9866520158921048 2.5917459396051612 0 2.5917459396051612 2.2931906515445384 0 0 0 0 -15.465545219572959 2.2483790345338122 0 2.2483790345338122 2.5682929372640668 0 0 0 0 -6.6082040315613995 0.75387899189977325 0 0.75387899189977325 0.55509249775895997 0 0 0 0 -6.7347518460369429 0.13254313454851385 0 0.13254313454851385 -0.018108742717988235 0 0 0 0 -3.2929285394129693 0.56772989050505585 0 0.56772989050505585 -0.76321185689969129 0 0 0 0 -2.5589503095488908 2.1719562908074694 0 2.1719562908074694 0.50850504051842105 0 0 0 0 -2.9537695646786233 0.25030171500702592 0 0.25030171500702592 0.071943127082374936 0 0 0 0 -7.838280802441659 1.0421187240625187 0 1.0421187240625187 0.94439669984477514 0 0 0 0 -4.4179645508593239 1.9753655775955372 0 1.9753655775955372 -7.9550749860722841e-06 0 0 0 0 0.74156851672614721 0.79215878699514974 0 0.79215878699514974 0.58770938412796214 0 0 0 0 -0.5455713430637843 1.9346388484951766 0 1.9346388484951766 -0.00033160878836502967 0 0 0 0 -0.70742822530155536 0.81661527069097772 0 0.81661527069097772 1.0486645244508352 0 0 0 0 -10.655703488462677 -5.5744411699046168 0 -5.5744411699046168 -2.15209316633171 0 0 0 0 1.0372562819029554 2.5713768320872221 0 2.5713768320872221 0.51893679950396088 0 0 0 0 -0.23496857405238458 0.25561344693225863 0 0.25561344693225863 -0.20714429991403202 0 0 0 0 -5.2824805395794101 -2.2166851878915281 0 -2.2166851878915281 -3.0673613267243667 0 0 0 0 -7.3065505945633049 -0.24329627624712202 0 -0.24329627624712202 2.3613581196318876 0 0 0 0 -5.9800602994073415 -4.3368497826598968 0 -4.3368497826598968 1.0741771579513966 0 0 0 0 -1.1208726847038228 0.25614592625733579 0 0.25614592625733579 -0.15549261198083497 0 0 0 0 -1.6297250189181796 2.6906286550428167 0 2.6906286550428167 0.96546825684633442 0 0 0 0 -6.677870967500894 1.5772175808491937 0 1.5772175808491937 -2.96015254510354 0 0 0 0 -5.6576333459332417 0.71842947957255587 0 0.71842947957255587 0.02218227613498934 0 0 0 0 -6.1452639212220674 -0.27028237092781637 0 -0.27028237092781637 -1.3579753090615156 0 0 0 0 -1.3500171689812426 0.066978319356589822 0 0.066978319356589822 0.36367936310424109 0 0 0 0 -8.7953872932266677 -1.0450653352014712 0 -1.0450653352014712 6.719097730229592 0 0 0 0 -3.9245728844896774 -0.12392586837750064 0 -0.12392586837750064 -0.01101478790160727 0 0 0 0 -3.5577703603566988 -0.0538465456381374 0 -0.0538465456381374 0.49219748256254547 0 0 0 0 0.31127069935610052 -2.7910528589853243 0 -2.7910528589853243 3.2131781747523007 0 0 0 0 -2.7777345370352258 -0.48008356116302764 0 -0.48008356116302764 0.26192824102091161 0 0 0 0 -4.596824271001843 -0.031931074980844576 0 -0.031931074980844576 0.1832505290233972 0 0 0 0 -5.3401025265811768 -0.41651265898725853 0 -0.41651265898725853 0.69945506299042748 0 0 0 0 -4.2913878942417796 2.2555295524416099 0 2.2555295524416099 0.57169254379516588 0 0 0 0 -5.2478440899021734 2.1502213737988214 0 2.1502213737988214 2.8037958928056668 0 0 0 0 -8.4759503956502158 -3.837133972686793 0 -3.837133972686793 3.8262021235371293 0 0 0 0 -7.918801771537801 -3.6452132915962459 0 -3.6452132915962459 -5.495112520068794 0 0 0 0 -14.230904943100541 0.69087981065099235 0 0.69087981065099235 1.5403886818278423 0 0 0 0 0.11885154138375142 0.060536234316920456 0 0.060536234316920456 0.1086794994777316 0 0 0 0 -1.8934795828408824 -0.46793918387229816 0 -0.46793918387229816 -6.4106491487800099 0 0 0 0 -24.080309217288232 23.013574034111841 0 23.013574034111841 0.014152052964279401 0 0 0 0 -0.16552572099294949 0.077796355802998818 0 0.077796355802998818 -0.018244122356652459 0 0 0 0 1.8501419434578565 1.5636065521273457 0 1.5636065521273457 0.0013050199514118691 0 0 0 0 -30.252165312975194 -11.119966227363712 0 -11.119966227363712 -3.1375699899807614 0 0 0 0 -2.0759452569673158 0.43846182437308401 0 0.43846182437308401 0.16990666817273847 0 0 0 0 -2.1148102459468419 -0.092429777948006553 0 -0.092429777948006553 0.087932457446029511 0 0 0 0 -1.9344533630810474 0.3965829851218301 0 0.3965829851218301 0.00036253178693612545 0 0 0 0 -0.62778397676362729 0.2915325861818765 0 0.2915325861818765 0.41005747108412116 0 0 0 0 -3.1932960660687968 0.35604980832073918 0 0.35604980832073918 0.21107000186020841 0 0 0 0 -3.4355859459674321 -0.64015311031506439 0 -0.64015311031506439 0.52767642788181668 0 0 0 0 -2.3163880911112429 -0.25011068589368513 0 -0.25011068589368513 0.13792374647402197 0 0 0 0 -2.5458467848320652 -0.25048840770351483 0 -0.25048840770351483 -0.067431437746563905 0 0 0 0 -0.025797563280157476 -0.63630826281396224 0 -0.63630826281396224 -0.026180988695676477 0 0 0 0 -3.5891733063162974 -0.41078698008120718 0 -0.41078698008120718 0.2165970340214099 0 0 0 0 -1.4221415165533919 -1.007521798697848 0 -1.007521798697848 0.10699814645078332 0 0 0 0 -6.7240377979396726 -0.74684468463269127 0 -0.74684468463269127 0.19852173065295631 0 0 0 0 -5.4489724550803658 0.51321155914007477 0 0.51321155914007477 -0.27671732283522488 0 0 0 0 -6.1930665954150754 -3.3129296162403179 0 -3.3129296162403179 0.80786339428613019 0 0 0 0 -1.3926160737586564 -0.84711636162789006 0 -0.84711636162789006 0.028558314734242196 0 0 0 0 -4.0287827762604138 0.82182810925245775 0 0.82182810925245775 -0.4110295114103053 0 0 0 0 -6.6196578104712955 -0.17603109833660824 0 -0.17603109833660824 0.49348174851763604 0 0 0 0 -7.681640655970746 -2.9615338283745776 0 -2.9615338283745776 2.4008863052819516 0 0 0 0 -2.798825181544089 -0.816061744040951 0 -0.816061744040951 0.84044458868083893 0 0 0 0 -2.9908181770715601 -2.1651113238135764 0 -2.1651113238135764 -0.6550494236685438 0 0 0 0 -3.5299987413739196 -1.7818747315849102 0 -1.7818747315849102 -0.1872238129840566 0 0 0 0 -5.0615057424111001 -0.31973498438358661 0 -0.31973498438358661 -0.55742210683041549 0 0 0 0 -4.8891924174276937 0.46637409220795689 0 0.46637409220795689 -0.29198129613473617 0 0 0 0 -4.0860839748824631 0.39678186627188772 0 0.39678186627188772 -0.17194014294460119 0 0 0 0 -4.0417623704106518 0.098958475088281261 0 0.098958475088281261 -0.60589457733786389 0 0 0 0 -5.7749725377998402 0.14129133252828296 0 0.14129133252828296 -0.013919696150992422 0 0 0 0 -5.1065384944936341 -0.014919878788457908 0 -0.014919878788457908 -0.037347385411266032 0 0 0 0 -1.7083025705028625 -0.75000041647978932 0 -0.75000041647978932 0.51825372995351349 0 0 0 0 -5.454876535339281 -0.14589454335350638 0 -0.14589454335350638 -0.080461195716843292 0 0 0 0 -4.0233542883215705 -0.02108415442022249 0 -0.02108415442022249 -0.075494734832375343 0 0 0 0 -4.1580714827032352 0.26532010829899377 0 0.26532010829899377 0.027671476957912944 0 0 0 0 -4.3729387316816428 0.5312087072600491 0 0.5312087072600491 0.085740568646599513 0 0 0 0 -4.2063619109976571 0.43737419943882827 0 0.43737419943882827 -0.58509671411502495 0 0 0 0 -4.118305756830523 1.2795978781231128 0 1.2795978781231128 -1.4373209470593764 0 0 0 0 -1.3564200502690156 0.24436767057565234 0 0.24436767057565234 -0.43614846470778679 0 0 0 0 -6.1286101415935264 0.74573810994658629 0 0.74573810994658629 -0.58747569466987448 0 0 0 0 -4.3588164943635093 0.22432081858960196 0 0.22432081858960196 -0.45838374148672756 0 0 0 0 -4.1616194051309776 0.16682618134508453 0 0.16682618134508453 0.10966895984617363 0 0 0 0 -3.3106936361593213 -0.64312887839536614 0 -0.64312887839536614 0.16527725654187975 0 0 0 0 -5.1569945158844348 -0.67126127238552158 0 -0.67126127238552158 -0.94882658679048859 0 0 0 0 -4.1396926170833765 -0.25826984614402615 0 -0.25826984614402615 0.10915106840805067 0 0 0 0 -5.0528475999731199 -0.15140220961870243 0 -0.15140220961870243 -0.3341152854803795 0 0 0 0 -6.3350517828839656 -0.49576922905792742 0 -0.49576922905792742 -0.3757098626726787 0 0 0 0 -3.6008906620501584 -0.42079717344249978 0 -0.42079717344249978 0.57639876599179685 0 0 0 0 -4.6953968210036692 0.26914958079072449 0 0.26914958079072449 0.88678015944869193 0 0 0 0 -8.1207289704827872 -0.74135150860246313 0 -0.74135150860246313 0.71977441159094724 0 0 0 0 -11.987228888110167 0.72545138054850256 0 0.72545138054850256 2.138294854452738 0 0 0 0 -11.668222395255725 4.251400075614896 0 4.251400075614896 -0.070977472686138299 0 0 0 0 -0.58443768749339142 -4.8744640940263082 0 -4.8744640940263082 3.7036501207812762 0 0 0 0 -1.1688762157341337 -0.029788230299896412 0 -0.029788230299896412 -0.38764018108482223 0 0 0 0 -1.3372541420303605 -2.4058969294008534 0 -2.4058969294008534 4.4759877699135586 0 0 0 0 -7.4118277906782168 3.5793676362433189 0 3.5793676362433189 -3.3203587528905509 0 0 0 0 -3.2862848068101016 -2.0075389286484508 0 -2.0075389286484508 6.0772545093440726 0 0 0 0 -3.2065260355448117 0.039734342375709275 0 0.039734342375709275 -0.96393698529294625 0 0 0 0 -4.9057463103181362 3.8623397678157971 0 3.8623397678157971 -7.7450645646641192 0 0 0 0 -6.9670916860159195 -2.9980095153469506 0 -2.9980095153469506 1.4760515525456128 0 0 0 0 -3.2821842272004744 -1.090055905947759 0 -1.090055905947759 0.53044446371156018 0 0 0 0 -23.902186726411855 0.89382965823982374 0 0.89382965823982374 -0.11688572865054425 0 0 0 0 -13.601817729073446 -1.0069532118441487 0 -1.0069532118441487 -7.0387519767563731 0 0 0 0 -0.72012173609822838 0.16514096767058462 0 0.16514096767058462 0.31873318684996388 0 0 0 0 -18.490310972243606 -0.4166184344755095 0 -0.4166184344755095 0.17051399497125885 0 0 0 0 -4.1972676304426919 -3.9746000523886629 0 -3.9746000523886629 -0.1066948772206946 0 0 0 0 -2.7777056127302462 1.6942769333791823 0 1.6942769333791823 -0.19353110461517997 0 0 0 0 -18.401158242277234 -0.71377458600076693 0 -0.71377458600076693 -1.5662422507277551 0 0 0 0 21.306446793454597 -58.369927456064687 0 -58.369927456064687 -55.980529755252803 0 0 0 0 -4.06455803942481 -0.71855578564165512 0 -0.71855578564165512 0.059650760906316012 0 0 0 0 -5.933403801933764 -0.010209400579462624 0 -0.010209400579462624 -0.084050535535538984 0 0 0 0 14.438532393836795 -36.261126656841043 0 -36.261126656841043 7.4147228837994135 0 0 0 0 -1.5142415245829 0.97937479781750891 0 0.97937479781750891 0.73571350318324258 0 0 0 0 -21.776032148675768 33.036894139953816 0 33.036894139953816 -18.001821978285932 0 0 0 0 28.874989545796325 -82.919350973393492 0 -82.919350973393492 -62.583206618679995 0 0 0 0 -105.43325050897693 -5.8004851306216949 0 -5.8004851306216949 56.456555657400955 0 0 0 0 -47.836866511850531 26.936007401202687 0 26.936007401202687 19.496042442294709 0 0 0 0 -24.162495663857044 -7.1341265266184735 0 -7.1341265266184735 16.943304267956933 0 0 0 0 -38.970073849206528 9.7992441764608316 0 9.7992441764608316 29.068151590755861 0 0 0 0 -9.7792220031351462 13.869946196775103 0 13.869946196775103 -7.7189781957242189 0 0 0 0 -18.353000994646209 -4.4114275009707171 0 -4.4114275009707171 -12.1177015291901 0 0 0 0 -11.725118030660145 4.0435174788171082 0 4.0435174788171082 4.1732884789672928 0 0 0 0 -18.525164455646518 -4.0187109662185776 0 -4.0187109662185776 -3.951069746017879 0 0 0 0 -4.4949566236978704 0.90204508581529197 0 0.90204508581529197 -0.4710486588188072 0 0 0 0 -3.459827958349706 -5.2975051764178147 0 -5.2975051764178147 8.7364267153246828 0 0 0 0 -26.353331350786902 22.389800337895963 0 22.389800337895963 44.596942618012207 0 0 0 0 -10.036498183859862 -0.12649865877103617 0 -0.12649865877103617 0.83836777878775592 0 0 0 0 -9.3253798834080683 -1.5188657205848934 0 -1.5188657205848934 0.21364993665816595 0 0 0 0 -7.5081293805542373 -0.1986782108038625 0 -0.1986782108038625 0.51111190249083194 0 0 0 0 -40.182723497372535 69.03855908830505 0 69.03855908830505 -89.912397726239902 0 0 0 0 -5.2251380105596752 1.9359660218486638 0 1.9359660218486638 1.106645848288067 0 0 0 0 -81.834398899091866 42.341928241678616 0 42.341928241678616 5.4321672200183571 0 0 0 0 -79.814680344546161 -2.0524337391141403 0 -2.0524337391141403 41.6673247611037 0 0 0 0 -9.4877954572966701 -1.8919920147310947 0 -1.8919920147310947 0.31533998682527908 0 0 0 0 12.392990032250168 3.6732521029085694 0 3.6732521029085694 -0.81460172550733745 0 0 0 0 -4.7585023726753164 2.6128544446711679 0 2.6128544446711679 0.49315380265012709 0 0 0 0 11.750345469568856 -20.661833291279137 0 -20.661833291279137 8.9649198836754067 0 0 0 0 -56.682839081089696 8.7431083441442574 0 8.7431083441442574 18.212102116208001 0 0 0 0 -33.75547219375585 -28.283069079319091 0 -28.283069079319091 39.503597190707929 0 0 0 0 -24.866386850608251 -5.5611576494491857 0 -5.5611576494491857 4.6050897506354715 0 0 0 0 -24.560957901747315 -4.6023750859116319 0 -4.6023750859116319 7.523438212642148 0 0 0 0 -43.793730663772294 5.0449190377252506 0 5.0449190377252506 19.188983541551508 0 0 0 0 -48.0833694338653 7.9418466809472932 0 7.9418466809472932 9.0669312231268933 0 0 0 0 -43.554197929548877 7.5269618067556383 0 7.5269618067556383 8.9806515807972005 0 0 0 0 -24.106245874478191 11.024610713876704 0 11.024610713876704 5.5161399685833388 0 0 0 0 -0.95046804241098215 -0.019688368789019806 0 -0.019688368789019806 -0.044810033311044078 0 0 0 0 -31.706327160874935 37.133740096759382 0 37.133740096759382 -36.348754537938902 0 0 0 0 -45.445617348443193 14.214012846945536 0 14.214012846945536 20.779503724982845 0 0 0 0 -46.881094683999663 24.010130924354684 0 24.010130924354684 -1.7458558484665048 0 0 0 0 -4.9367932877794374 12.848434278775883 0 12.848434278775883 -14.647392864138453 0 0 0 0 -4.828851525428945 -2.4722910865137706 0 -2.4722910865137706 -4.1758031458512903 0 0 0 0 -2.5009616161666131 -1.0865293102232891 0 -1.0865293102232891 -0.0218915122616886 0 0 0 0 -7.9552210395850125 -4.4159029417892555 0 -4.4159029417892555 6.172025534784467 0 0 0 0 -5.7661726215410454 -8.210489079084951 0 -8.210489079084951 0.92216190054814717 0 0 0 0 -5.4386458131793916 -0.79923500717715612 0 -0.79923500717715612 -2.9726811941220301 0 0 0 0 -25.599255053948582 -2.6374765919778369 0 -2.6374765919778369 0.528984928165535 0 0 0 0 -0.1379509290764247 -0.10937273122023239 0 -0.10937273122023239 -0.092737972054197246 0 0 0 0 -33.748166178709653 -16.539934712442868 0 -16.539934712442868 -4.4530774856257622 0 0 0 0 -37.283269005085458 7.07924184350885 0 7.07924184350885 -2.540062479201886 0 0 0 0 -26.334268030252133 -7.6894733304580534 0 -7.6894733304580534 -4.4021373639548145 0 0 0 0 -38.536020032699525 -5.6217662152160264 0 -5.6217662152160264 2.9260209897500964 0 0 0 0 -2.2094294368034753 0.080988655143096389 0 0.080988655143096389 0.0019861853873985869 0 0 0 0 -0.33219118184794283 0.1569291595347444 0 0.1569291595347444 -0.086836210797776439 0 0 0 0 -32.692059848510326 7.0101833489263843 0 7.0101833489263843 -1.8201997384900548 0 0 0 0 -29.54244710767307 -5.8799535214813705 0 -5.8799535214813705 0.0076343307819000117 0 0 0 0 -47.926145350669231 -7.868765299149727 0 -7.868765299149727 3.8260555450439315 0 0 0 0 -30.734477365253042 1.199702700322903 0 1.199702700322903 -0.016264213897952729 0 0 0 0 -0.06776706832197732 0.075447255975980454 0 0.075447255975980454 -0.012413238218161976 0 0 0 0 -1.4644707712286618 0.29993937015855188 0 0.29993937015855188 -0.00013267696613098438 0 0 0 0 -11.447208778128697 -0.40774795252360257 0 -0.40774795252360257 -2.6644655077440982 0 0 0 0 -18.202724543103614 1.2158289821086297 0 1.2158289821086297 0.0027224610380076346 0 0 0 0 -25.607293565190048 -4.566885692440259 0 -4.566885692440259 0.026168519922448397 0 0 0 0 -17.45712385709885 -2.1469035868413409 0 -2.1469035868413409 -2.2077120750518797 0 0 0 0 -29.725007926932449 -3.4466331184579015 0 -3.4466331184579015 2.3812356764868277 0 0 0 0 -17.815057599152624 -0.68581645061097729 0 -0.68581645061097729 0.37638792332575832 0 0 0 0 -14.257620218760167 1.3399743852931751 0 1.3399743852931751 4.0444661941732427 0 0 0 0 -8.7532762389146228 -1.3259713976886385 0 -1.3259713976886385 -1.2534960214127553 0 0 0 0 -14.717544874982195 -5.1730807502178138 0 -5.1730807502178138 -0.59402416002980019 0 0 0 0 -25.081756643674453 -2.8943849358599798 0 -2.8943849358599798 3.3437160477134427 0 0 0 0 -7.5228430059851235 -6.6816096988734461 0 -6.6816096988734461 0.58285627679997454 0 0 0 0 -5.8423793935453432 -1.8080955816467696 0 -1.8080955816467696 5.0023673999683211 0 0 0 0 -0.747592033910216 0.65961731194171058 0 0.65961731194171058 0.051206000617264644 0 0 0 0 -7.571091425444191 5.416850368126914 0 5.416850368126914 -0.027705346046211332 0 0 0 0 -3.5904771221848932 3.6494911924405864 0 3.6494911924405864 5.4339529114299445 0 0 0 0 -11.572325314795307 -1.4440240960744539 0 -1.4440240960744539 0.34845314593889043 0 0 0 0 -1.3815528034660502 -0.2736691860593794 0 -0.2736691860593794 0.12954023773633699 0 0 0 0 -152.1039534710726 70.81006563109986 0 70.81006563109986 -46.446636172975204 0 0 0 0 -1.550395498700138 1.5665677877294257 0 1.5665677877294257 0.1984643529299967 0 0 0 0 -12.249206959664662 -2.329641842897292 0 -2.329641842897292 0.16732549376413219 0 0 0 0 -24.863583166422359 9.8887289129502811 0 9.8887289129502811 -8.4863851813214239 0 0 0 0 -0.34739516829423911 1.2600743202969866 0 1.2600743202969866 -0.15534669787468061 0 0 0 0 -307.50845369457772 46.3389277642762 0 46.3389277642762 15.074944531295344 0 0 0 0 -27.981196571317469 -12.91962310785061 0 -12.91962310785061 -1.2081989274011633 0 0 0 0 3.6748060500394786 9.7055201554964938 0 9.7055201554964938 -0.90679283706242941 0 0 0 0 0.0021940593596418978 -0.0022215856322169714 0 -0.0022215856322169714 -0.09993519455348146 0 0 0 0 -8.5695035361259215 2.9645621392439216 0 2.9645621392439216 0.81541265364453341 0 0 0 0 -1.9125745749661291 -0.36754055282365883 0 -0.36754055282365883 2.0993219593910855 0 0 0 0 -6.8842305683319864 2.0799423359920128 0 2.0799423359920128 -1.9862621845263551 0 0 0 0 -22.457577034685528 3.1887025055851641 0 3.1887025055851641 3.7348126968070492 0 0 0 0 -9.1273137483185565 9.3741480345491155 0 9.3741480345491155 -0.89340185887340051 0 0 0 0 -0.47449968746646221 0.50478602873116429 0 0.50478602873116429 -0.074883766052360273 0 0 0 0 -7.9975472619971697 1.0399276538835267 0 1.0399276538835267 1.0738610671412294 0 0 0 0 -11.719808774823832 0.73057545213196406 0 0.73057545213196406 -0.37728374015189964 0 0 0 0 -9.8079698858045958 2.6429357416246742 0 2.6429357416246742 -0.0036005399951628317 0 0 0 0 -499.76274160465437 34.699053088156511 0 34.699053088156511 37.617853397157738 0 0 0 0 -424.32635698522427 20.263363749550013 0 20.263363749550013 0.066656773947965556 0 0 0 0 -416.95799329730016 22.998082620304835 0 22.998082620304835 -1.4627069902559953 0 0 0 0 -386.82359328755774 2.0951226686719515 0 2.0951226686719515 9.7531025674141709 0 0 0 0 -339.03300003699951 87.617873911698183 0 87.617873911698183 35.446645655438672 0 0 0 0 -425.47038271274687 89.713685860978217 0 89.713685860978217 40.219463037668831 0 0 0 0 -347.53429345337463 40.642895256450288 0 40.642895256450288 34.479880417750692 0 0 0 0 -502.01176841227607 163.9393935670839 0 163.9393935670839 26.683564018905763 0 0 0 0 -261.63180896747144 312.13228822244662 0 312.13228822244662 -224.01809762660173 0 0 0 0 -499.58124586114445 156.8682968024726 0 156.8682968024726 -74.725850102629792 0 0 0 0 -1.2900450359536748 0.25690773379673004 0 0.25690773379673004 0.3094381265075577 0 0 0 0 -3.3124495804935918 -1.5660298021556294 0 -1.5660298021556294 -1.0382574370532096 0 0 0 0 -541.07055428100648 121.73264970154187 0 121.73264970154187 33.540023362132956 0 0 0 0 -4.1873603545427613 13.98052341183803 0 13.98052341183803 -22.53611079190074 0 0 0 0 -91.827917919768879 122.90816232193419 0 122.90816232193419 -180.3542023570989 0 0 0 0 -6.0868104150576983 -2.7112898103897578 0 -2.7112898103897578 4.1842461279870662 0 0 0 0 1.0044360507131387 -7.4469326937202656 0 -7.4469326937202656 -5.8887688078140172 0 0 0 0 -1.353338484745251 -1.2026251274821362 0 -1.2026251274821362 0.42632064692307148 0 0 0 0 -2.2677310524595669 1.1384829897482405 0 1.1384829897482405 -7.324612493087912 0 0 0 0 -2.546388580220416 0.33039044148320684 0 0.33039044148320684 0.38570340490580501 0 0 0 0 -228.63390955643354 68.39140865712335 0 68.39140865712335 -24.819455349511713 0 0 0 0 -0.058414500868821051 -0.52680564287085474 0 -0.52680564287085474 -4.0374162436234968 0 0 0 0 -0.16196777695519415 0.10875990049118123 0 0.10875990049118123 -0.21247871057756271 0 0 0 0 -4.701127825614094 1.6289278754988032 0 1.6289278754988032 -2.0733194513542799 0 0 0 0 -2.6913424490385278 -0.48211052426979961 0 -0.48211052426979961 -0.93835955976190011 0 0 0 0 -7.7826726372895791 3.2705386402122301 0 3.2705386402122301 -6.1732627135260429 0 0 0 0 -13.088036454351823 -7.725358956311311 0 -7.725358956311311 1.6121738089545659 0 0 0 0 -6.8370514170379977 -1.7233611767294832 0 -1.7233611767294832 -0.098466279870096818 0 0 0 0 -14.088517259940886 5.2646228753440845 0 5.2646228753440845 -1.7533542499752741 0 0 0 0 -13.248633833794884 -3.4469198221260626 0 -3.4469198221260626 -0.27826820280124309 0 0 0 0 -5.3363825716587598 1.6592923301044635 0 1.6592923301044635 -0.27819685204839573 0 0 0 0 -5.0492277169105364 -2.6528446874195346 0 -2.6528446874195346 -0.18621693705318876 0 0 0 0 -3.8589604395456405 -0.46922933671711675 0 -0.46922933671711675 0.2723741190506675 0 0 0 0 -3.0796786731065846 0.54380588919563166 0 0.54380588919563166 0.35601842001045458 0 0 0 0 -4.9190643581843574 -0.027090986922940985 0 -0.027090986922940985 0.71014900347648979 0 0 0 0 -3.8135998273592122 -0.39280279010998242 0 -0.39280279010998242 0.76154257228535016 0 0 0 0 76.759186983662403 3.4152690716548264 0 3.4152690716548264 -80.899985143417808 0 0 0 0 22.76748776916611 -59.414147955177214 0 -59.414147955177214 -122.40905891509715 0 0 0 0 -2.2407895900533568 1.1146532586179383 0 1.1146532586179383 -0.73297565318310753 0 0 0 0 -4.7236846547857567 0.074903253496984235 0 0.074903253496984235 -0.93068412988293403 0 0 0 0 -4.6206615579512302 1.2513547102506521 0 1.2513547102506521 0.56383138242221253 0 0 0 0 -4.8882161963683757 0.076443693956093739 0 0.076443693956093739 -0.77213513455990324 0 0 0 0 -9.9462906026528799 -2.451705807339053 0 -2.451705807339053 1.1303113984518092 0 0 0 0 -8.9219204546952824 2.7989320473417933 0 2.7989320473417933 1.4297442455739287 0 0 0 0 -10.139103867847211 -2.1586661074817717 0 -2.1586661074817717 1.4726916493976603 0 0 0 0 -6.7599812655149272 -0.55087457299780063 0 -0.55087457299780063 0.11135910393920989 0 0 0 0 -5.049406414686576 -0.32963660339402256 0 -0.32963660339402256 -0.50189756701279542 0 0 0 0 -22.906604235610757 -15.058156521227119 0 -15.058156521227119 29.316167382912113 0 0 0 0 -291.45772327030215 -155.74811604046903 0 -155.74811604046903 -84.605177672072216 0 0 0 0 -86.14098917562842 -14.934316689329236 0 -14.934316689329236 108.51034623901234 0 0 0 0 0.074449782455523916 -0.40745240861892729 0 -0.40745240861892729 -0.77487157898062131 0 0 0 0 -342.71579247532918 -269.49343469852681 0 -269.49343469852681 -99.734017496090487 0 0 0 0 -123.64520796709621 -177.74798166276682 0 -177.74798166276682 -120.10332661037923 0 0 0 0 -499.05673966365248 -325.76772410708736 0 -325.76772410708736 -76.285552747247408 0 0 0 0 -308.33660218746081 -347.36358720507803 0 -347.36358720507803 -257.53078471327962 0 0 0 0 2.3464354106490646 73.71181673866829 0 73.71181673866829 21.726927130234287 0 0 0 0 -51.748232264066246 -102.8766566738239 0 -102.8766566738239 -322.01479850856833 0 0 0 0 -170.79650522840893 -134.86635872718912 0 -134.86635872718912 -20.766624419170569 0 0 0 0 -36.254826606991458 27.486683886549582 0 27.486683886549582 -16.040892942471601 0 0 0 0 -36.083771034103847 23.877116083481042 0 23.877116083481042 -16.414596344458801 0 0 0 0 -140.74747944935189 60.570541968274824 0 60.570541968274824 -20.234613236309997 0 0 0 0 -0.019597406097412479 0.32052521299506864 0 0.32052521299506864 -0.71794548226094701 0 0 0 0 -58.75943148288934 27.339806000469821 0 27.339806000469821 -7.145003560324767 0 0 0 0 0.028834178312528297 0.8892144706882128 0 0.8892144706882128 -1.6500446743203234 0 0 0 0 -19.161892774160151 22.918410324749516 0 22.918410324749516 -15.645101725387008 0 0 0 0 -20.095328808218255 20.349361032290858 0 20.349361032290858 -12.926959681040671 0 0 0 0 -8.0937476102808432 15.004192972205828 0 15.004192972205828 -13.913557030386983 0 0 0 0 -12.414656802331592 16.285457892131262 0 16.285457892131262 -11.357676806247582 0 0 0 0 -5.2870713262818754 12.347579720691328 0 12.347579720691328 -12.751164732756934 0 0 0 0 -7.7175977601618797 18.3407736514514 0 18.3407736514514 -21.053666988108489 0 0 0 0 -3.6433665475306043 10.716418716918724 0 10.716418716918724 -12.715097027601928 0 0 0 0 -5.7098623680603851 10.449065436952509 0 10.449065436952509 -11.826478227243115 0 0 0 0 0.97888530542331864 4.1777431074882543 0 4.1777431074882543 -10.924126834975596 0 0 0 0 1.5251165535555629 -0.21373448105850912 0 -0.21373448105850912 -13.516878521851481 0 0 0 0 -3.5555956111529667 8.4743711781013644 0 8.4743711781013644 -14.024727428325377 0 0 0 0 -10.803659299572246 28.969888668537124 0 28.969888668537124 -35.805819820356419 0 0 0 0 0.38121476451487979 9.7594240723137773 0 9.7594240723137773 -17.038391903637148 0 0 0 0 -2.2920289414560102 -4.811061986247978 0 -4.811061986247978 -1.4475332427984995 0 0 0 0 19.377962588578157 0.64470509967884482 0 0.64470509967884482 -35.434340199568339 0 0 0 0 -2.0228387376700994 -0.76645145319071162 0 -0.76645145319071162 0.74821996063030838 0 0 0 0 0.35607773117942543 -0.21227778516276175 0 -0.21227778516276175 -0.3598539657076234 0 0 0 0 5.0368583754025167 -2.7349006711210677 0 -2.7349006711210677 -2.44295838637629 0 0 0 0 -0.7527421927479736 0.69276114063109162 0 0.69276114063109162 -1.6368512324406765 0 0 0 0 3.9251947452212335 -3.093037605337031 0 -3.093037605337031 -1.8682266063801762 0 0 0 0 -1.379930246497679 0.56767213700459251 0 0.56767213700459251 -3.428307501680024 0 0 0 0 2.607438882923816 -2.4882498974815235 0 -2.4882498974815235 -4.5283491661180051 0 0 0 0 0.27699621131887397 -1.0694267363313656 0 -1.0694267363313656 -1.797027971636453 0 0 0 0 -0.21484032368843486 -1.2734234845557388 0 -1.2734234845557388 -0.74487533828754371 0 0 0 0 0.49240891618750737 -0.84493289872891353 0 -0.84493289872891353 -1.2456060422599644 0 0 0 0 2.460880097169138 1.0182130009261527 0 1.0182130009261527 -3.5638182553911406 0 0 0 0 14.417510087148003 -10.256812385447006 0 -10.256812385447006 0.46559910422536177 0 0 0 0 1.4087674853171848 -0.37648594726054174 0 -0.37648594726054174 -0.30353785917354115 0 0 0 0 2.1458597225500853 -5.0468655746847162 0 -5.0468655746847162 5.9056498856783719 0 0 0 0 -3.8183562064441503 -31.232936239666742 0 -31.232936239666742 -23.54314402935961 0 0 0 0 2.721571402194968 38.715320743386428 0 38.715320743386428 -98.785891460217954 0 0 0 0 -17.312996465781907 26.251425408968714 0 26.251425408968714 -8.4049794664633737 0 0 0 0 -59.400990133281084 -21.435317917828456 0 -21.435317917828456 -9.6880718718226717 0 0 0 0 -27.830458247317438 -17.758754615536418 0 -17.758754615536418 -14.757631870174066 0 0 0 0 0.41836463311365435 0.0023729933375795653 0 0.0023729933375795653 0.029720079013141776 0 0 0 0 -16.408694866855967 21.627281643857799 0 21.627281643857799 21.333219439737377 0 0 0 0 -54.931476165213098 -32.164271777533941 0 -32.164271777533941 -22.064488380857142 0 0 0 0 -64.875976195049589 4.5078224099406725 0 4.5078224099406725 -10.671690966349331 0 0 0 0 -102.46196692311605 -53.276866435224292 0 -53.276866435224292 -99.50512148596431 0 0 0 0 -42.020155634110779 19.227547223490319 0 19.227547223490319 -114.44481977395557 0 0 0 0 -41.702862807225756 15.338046260246756 0 15.338046260246756 -67.131274951950616 0 0 0 0 -2.964566090583503 9.1246450832744017 0 9.1246450832744017 -73.388708918890188 0 0 0 0 -97.214350017969991 43.651150677802434 0 43.651150677802434 -0.3912328602832531 0 0 0 0 -2.6757121326354536 48.580505877277574 0 48.580505877277574 -54.906325763781297 0 0 0 0 -161.58911617996546 95.732544411577578 0 95.732544411577578 -10.739703723232424 0 0 0 0 -234.0064744977135 -18.148628029986298 0 -18.148628029986298 6.6148275560908587 0 0 0 0 -96.49972753174734 -94.884868830836581 0 -94.884868830836581 -53.180581375090355 0 0 0 0 -2.0965109294570965 0.34461841601805077 0 0.34461841601805077 -0.12105288166576378 0 0 0 0 -71.087400437929318 87.542334922679402 0 87.542334922679402 -56.118242753011828 0 0 0 0 -123.40862999977253 -48.84896452236876 0 -48.84896452236876 10.474585967402817 0 0 0 0 -212.84561855844549 -41.400560297606717 0 -41.400560297606717 9.8598271715061401 0 0 0 0 -144.75459899059842 -26.548833461132915 0 -26.548833461132915 -0.76667845097495047 0 0 0 0 -99.011577170593227 -33.504483912983119 0 -33.504483912983119 3.0532586507604265 0 0 0 0 100.80459146068864 -28.284627569076033 0 -28.284627569076033 -58.753229365268453 0 0 0 0 -71.079286392692666 13.179614249061615 0 13.179614249061615 -19.471100816324736 0 0 0 0 -192.92360278065507 34.138329305084085 0 34.138329305084085 -22.473582019742253 0 0 0 0 -68.296395901629694 -0.53360187234306977 0 -0.53360187234306977 9.2277874143507006 0 0 0 0 94.41461089133918 3.1822457635089449 0 3.1822457635089449 -43.346535039932178 0 0 0 0 -46.421846345527683 52.2243521159306 0 52.2243521159306 3.5419498787305201 0 0 0 0 -0.48803832844889783 0.40939550476468156 0 0.40939550476468156 -0.22105344487758849 0 0 0 0 -109.72564900230645 -38.873375328726468 0 -38.873375328726468 -1.6317620101397097 0 0 0 0 -37.727494055532588 11.871489181449988 0 11.871489181449988 2.055294220792014 0 0 0 0 -223.03899913676469 -77.311024811290508 0 -77.311024811290508 13.937777615216191 0 0 0 0 -122.99103999305771 -46.324543968318267 0 -46.324543968318267 16.022886551901138 0 0 0 0 -122.56627454023692 -44.11129549338682 0 -44.11129549338682 -9.1223031982146381 0 0 0 0 30.781533416459752 -24.110634164352177 0 -24.110634164352177 -42.177130231411184 0 0 0 0 -129.02978439213985 -97.951842614896009 0 -97.951842614896009 -66.763900580116342 0 0 0 0 -17.263417009118712 56.94105738750244 0 56.94105738750244 -58.334039434645618 0 0 0 0 -193.14725404044339 -57.0666070389928 0 -57.0666070389928 12.286706290156758 0 0 0 0 -142.14001353652566 -25.341845038929023 0 -25.341845038929023 30.958691086369186 0 0 0 0 -1.0046937912938247 0.99617949261870109 0 0.99617949261870109 -0.49609250327512866 0 0 0 0 -68.992614571804552 -21.03868655527026 0 -21.03868655527026 6.127870318513942 0 0 0 0 -35.021753676035587 1.9329266246544137 0 1.9329266246544137 13.502173515699155 0 0 0 0 -109.10199768153871 -36.900409281478346 0 -36.900409281478346 -0.11401700871203957 0 0 0 0 -1.1832252979606963 1.0863382796094037 0 1.0863382796094037 -0.2620103771690272 0 0 0 0 -71.444489153905124 5.2353247152228164 0 5.2353247152228164 23.728755832879756 0 0 0 0 -15.672570964172564 0.42600228162713449 0 0.42600228162713449 -0.31940910935713873 0 0 0 0 -9.296279762617587 29.386428964908177 0 29.386428964908177 9.4216891365347237 0 0 0 0 -28.15535593493405 14.763941916824763 0 14.763941916824763 13.291927379621825 0 0 0 0 -21.642271362939937 -11.427629859149192 0 -11.427629859149192 -7.0143660874052216 0 0 0 0 -18.242787447413093 17.483724700706631 0 17.483724700706631 22.668019369406579 0 0 0 0 2.0119811028052936 6.5460024267568997 0 6.5460024267568997 11.75137796794462 0 0 0 0 6.030380618012714 20.847927615680391 0 20.847927615680391 12.815252995781407 0 0 0 0 -2.7357015921035099 1.4012063440158666 0 1.4012063440158666 -0.17433239939784462 0 0 0 0 16.151424517007399 38.069767207140671 0 38.069767207140671 45.822762830096593 0 0 0 0 13.383035066221964 33.706509917581215 0 33.706509917581215 57.528430024868385 0 0 0 0 -0.48450738345053423 0.81540848292650026 0 0.81540848292650026 -0.76283617729899489 0 0 0 0 28.267198382030983 20.026218159675011 0 20.026218159675011 15.67672344421544 0 0 0 0 -47.999029756516393 14.281770465722275 0 14.281770465722275 56.732082447573589 0 0 0 0 -30.397897416496562 13.73318739081742 0 13.73318739081742 24.977816183246944 0 0 0 0 5.822647744884307 -5.8166172280511717 0 -5.8166172280511717 23.951245670450248 0 0 0 0 -25.279116096127836 31.485745210706227 0 31.485745210706227 44.249833909178278 0 0 0 0 -0.56601177662191304 0.19255468555741473 0 0.19255468555741473 0.0025189825314841929 0 0 0 0 -11.183564897159158 14.554416150615509 0 14.554416150615509 -33.136759130808969 0 0 0 0 3.8175302723210507 -4.0132611817803578 0 -4.0132611817803578 -11.476078368672688 0 0 0 0 -18.376420895907358 20.628411408138732 0 20.628411408138732 -24.835491815005412 0 0 0 0 33.934619850648232 19.414001172446717 0 19.414001172446717 -1.3906517182458629 0 0 0 0 7.3724428487130353 -0.44379952100564424 0 -0.44379952100564424 -12.681685460018571 0 0 0 0 -0.30885862135762077 1.4553236711045798 0 1.4553236711045798 -0.91947928199023954 0 0 0 0 3.8337886170083948 -3.383374780621125 0 -3.383374780621125 9.5235267246083595 0 0 0 0 0.094481694588076925 1.243792563107732 0 1.243792563107732 -1.6456840340362477 0 0 0 0 83.123738681942996 16.697481359122662 0 16.697481359122662 -22.023729108479188 0 0 0 0 -14.29603059024339 18.225004167945087 0 18.225004167945087 -10.811429555256723 0 0 0 0 -5.2992284737592854 1.2457757393908082 0 1.2457757393908082 1.5821074444555734 0 0 0 0 -44.833418776430335 24.187174211745742 0 24.187174211745742 -3.6198293729146371 0 0 0 0 -17.907304991723322 22.972503391372683 0 22.972503391372683 -22.455896352001218 0 0 0 0 -37.050789581457138 16.658253183049851 0 16.658253183049851 -3.6767956755832074 0 0 0 0 -27.282704673638818 15.063243451190203 0 15.063243451190203 -3.7782634545064866 0 0 0 0 -31.252383347821706 22.650004336610778 0 22.650004336610778 -4.4873995443590502 0 0 0 0 -12.213673321981332 14.446854773193081 0 14.446854773193081 -11.417714462093727 0 0 0 0 -10.577095162519981 15.820289281423584 0 15.820289281423584 -11.116025559110767 0 0 0 0 -11.989681041872245 15.424112797739554 0 15.424112797739554 -10.393259391547872 0 0 0 0 -10.142249402667403 15.183861103987937 0 15.183861103987937 -11.336992822512002 0 0 0 0 -8.640558099723421 14.751134441817612 0 14.751134441817612 -11.589077160654142 0 0 0 0 -10.406344573611932 13.590169087299955 0 13.590169087299955 -10.187045440248767 0 0 0 0 -12.132993999453902 16.445719918734881 0 16.445719918734881 -12.421654657697445 0 0 0 0 -18.510459087323397 18.447248801335149 0 18.447248801335149 -10.885516833455767 0 0 0 0 -33.704709769809142 26.384618717571669 0 26.384618717571669 -9.0518920576637356 0 0 0 0 -26.725681760148291 21.769998536405183 0 21.769998536405183 -6.4542966642720785 0 0 0 0 -22.634773147467058 15.939589879335358 0 15.939589879335358 -7.2357956141368049 0 0 0 0 -25.931195810371719 15.723639644539617 0 15.723639644539617 -7.2465592456872088 0 0 0 0 -31.078143653227016 14.041741498971305 0 14.041741498971305 -3.7749104104914295 0 0 0 0 -35.553250929402566 23.491853113128059 0 23.491853113128059 -3.6843229081182471 0 0 0 0 -37.235280313376279 18.662562607394989 0 18.662562607394989 -3.6991431311757879 0 0 0 0 -29.777894324230147 2.5562782602399352 0 2.5562782602399352 -7.9576011197964363 0 0 0 0 -40.353266910151433 16.798127891283684 0 16.798127891283684 -4.3158932385217668 0 0 0 0 -5.0365290990848735 7.5513508230415027 0 7.5513508230415027 -15.337055817667533 0 0 0 0 -9.0105185107568104 18.241002595169903 0 18.241002595169903 -5.0026633000484253 0 0 0 0 -9.3957094962133851 9.8636456801555141 0 9.8636456801555141 -11.523150427615747 0 0 0 0 -16.343949169520783 12.730872714465818 0 12.730872714465818 -9.3930139270810287 0 0 0 0 -17.43809989476722 11.443312410710064 0 11.443312410710064 -9.6484690672693887 0 0 0 0 -13.202910692289151 15.75548949699953 0 15.75548949699953 -10.547363405989927 0 0 0 0 -9.1741171283429139 16.38827202650964 0 16.38827202650964 -10.8884935179683 0 0 0 0 -10.86288873149897 14.533192277837543 0 14.533192277837543 -11.08387227556932 0 0 0 0 -7.9658237926487345 16.179118145570783 0 16.179118145570783 -7.3580202415448639 0 0 0 0 -7.1383708047342225 19.391673157701092 0 19.391673157701092 -8.1615547306382723 0 0 0 0 -7.2086577844493149 17.148183827784578 0 17.148183827784578 -10.258362209391635 0 0 0 0 -7.0461246982122248 16.563880545847383 0 16.563880545847383 5.3500032800641293 0 0 0 0 12.469476513871541 16.691992574335046 0 16.691992574335046 2.6166296966655409 0 0 0 0 14.712967550030953 2.6268640597180024 0 2.6268640597180024 5.4872981306851756 0 0 0 0 -3.8070737936068326 19.275646225936271 0 19.275646225936271 -6.0436114191853676 0 0 0 0 -6.563170477013955 10.967702091494317 0 10.967702091494317 7.3113833727625206 0 0 0 0 -21.756275000661844 -25.664689226596238 0 -25.664689226596238 92.915471107904182 0 0 0 0 -81.072734154331556 32.655562213022222 0 32.655562213022222 -6.5993070673428633 0 0 0 0 -34.209176786298485 35.68591819182825 0 35.68591819182825 -32.204495810236949 0 0 0 0 -38.701071218525612 -14.439680231026443 0 -14.439680231026443 -10.049378011322005 0 0 0 0 -59.776714790194092 67.541341734692537 0 67.541341734692537 12.552368973516934 0 0 0 0 -50.692331751954953 72.947060359651815 0 72.947060359651815 -42.087552485080494 0 0 0 0 0.068963911691270141 -0.057236137026706047 0 -0.057236137026706047 -0.020355502750938559 0 0 0 0 -77.939712972653069 52.00410210377234 0 52.00410210377234 24.900200893344504 0 0 0 0 -28.252152766193831 22.299532856243616 0 22.299532856243616 -37.350610853100136 0 0 0 0 -29.122709563837816 12.812599788235062 0 12.812599788235062 3.8340120470089687 0 0 0 0 -50.343323666300421 20.884080576903159 0 20.884080576903159 10.140746444387716 0 0 0 0 0.61913506684140884 22.460715048334691 0 22.460715048334691 16.453775732613167 0 0 0 0 -9.9729157395668153 5.8868244617424352 0 5.8868244617424352 36.734192248820648 0 0 0 0 -0.76867931137499568 0.69752126281157523 0 0.69752126281157523 0.28564254619815443 0 0 0 0 1.7168079199400381 -34.916806106557942 0 -34.916806106557942 27.298349634947726 0 0 0 0 29.683833963601501 -49.846821660300293 0 -49.846821660300293 -36.721668557472867 0 0 0 0 -2.9868352321263956 3.9234889235006563 0 3.9234889235006563 2.7768825943749107 0 0 0 0 -25.270585513326296 45.156638444652344 0 45.156638444652344 -68.167422893314551 0 0 0 0 -3.3039423745995009 14.795149425681871 0 14.795149425681871 1.486551786693326 0 0 0 0 -38.572265624363354 20.211969205661831 0 20.211969205661831 4.5683249155008525 0 0 0 0 -16.437859067722457 32.141131762962118 0 32.141131762962118 -9.7409097427350844 0 0 0 0 -25.998300772629591 21.213928714873532 0 21.213928714873532 4.3874567559810913 0 0 0 0 -19.475954278249446 18.680942330382834 0 18.680942330382834 -0.38117976146418187 0 0 0 0 -14.636740629728592 26.024278474353423 0 26.024278474353423 -2.596551762622596 0 0 0 0 -5.6204853885565171 19.306768575663341 0 19.306768575663341 -4.6208480040795621 0 0 0 0 -54.261518456038175 14.019935729092879 0 14.019935729092879 7.2100084165438147 0 0 0 0 -27.355470845010132 12.790896985220797 0 12.790896985220797 2.4261435266994873 0 0 0 0 -32.978196543241211 11.78072992734883 0 11.78072992734883 2.4064558592451704 0 0 0 0 -77.392756221178388 79.616489056804113 0 79.616489056804113 -2.3623344178453181 0 0 0 0 0.42810106652683899 2.9328736057079539 0 2.9328736057079539 -0.73371172668360907 0 0 0 0 -27.6706082460787 -5.6913225000200498 0 -5.6913225000200498 -4.2304184436930541 0 0 0 0 -1.6952604828999611 1.1509438881385252 0 1.1509438881385252 -0.13436358460776754 0 0 0 0 -3.5256874000037897 3.9145179175363296 0 3.9145179175363296 -1.8474870069113649 0 0 0 0 -6.4519212111226807 4.5785045641552244 0 4.5785045641552244 -1.1825303241735128 0 0 0 0 -4.2125149880739627 3.473602769781138 0 3.473602769781138 -1.0658279960885757 0 0 0 0 -4.0815975005207292 1.891226283368411 0 1.891226283368411 0.67479819756434267 0 0 0 0 -4.9587690999996994 3.9557394428788939 0 3.9557394428788939 1.4574511420862564 0 0 0 0 -3.5872148761118297 2.8457395857961671 0 2.8457395857961671 -0.92123635763124145 0 0 0 0 -4.5837611809165537 4.0733005332214987 0 4.0733005332214987 -0.95336366829781127 0 0 0 0 -3.1059339704420381 2.9087600233656303 0 2.9087600233656303 -1.8066143032838511 0 0 0 0 -2.6320970072156342 1.5950126749538356 0 1.5950126749538356 -0.23643944029799968 0 0 0 0 -4.1301983741232107 2.6807997092563483 0 2.6807997092563483 -0.65061975158516816 0 0 0 0 -3.8756437371180255 1.7786536092906147 0 1.7786536092906147 0.73465654453326579 0 0 0 0 -4.4390341565813287 1.1301365874822409 0 1.1301365874822409 0.12683892758144566 0 0 0 0 -2.6950957029002893 1.6853698264964123 0 1.6853698264964123 -0.93171842325841681 0 0 0 0 -2.5324487132147198 1.1820111068203571 0 1.1820111068203571 -0.24036197734721682 0 0 0 0 -3.4859175020028488 1.2999958846713753 0 1.2999958846713753 -1.1126304218616383 0 0 0 0 -3.400813239094532 1.5799788876273553 0 1.5799788876273553 0.37526702800889211 0 0 0 0 -2.4060087523266702 1.8113661290487926 0 1.8113661290487926 -1.6554242882568602 0 0 0 0 -2.598131822393043 0.88519510403887125 0 0.88519510403887125 0.077408476205732768 0 0 0 0 -2.5125368991635639 1.566321231462465 0 1.566321231462465 -0.56193261896055324 0 0 0 0 -2.0654009743448114 1.6091793508570618 0 1.6091793508570618 -0.47868059102790994 0 0 0 0 -2.274684743171747 0.92075256299926878 0 0.92075256299926878 -1.6571842092728275 0 0 0 0 -2.183465920319577 1.2292248821429439 0 1.2292248821429439 -0.80253354490042739 0 0 0 0 -1.4386844115069835 1.5651791367688475 0 1.5651791367688475 -1.2905613667691114 0 0 0 0 -1.6541298450829345 1.1144707212069989 0 1.1144707212069989 -1.7589902607992371 0 0 0 0 -15.197796522770659 9.5782213144204889 0 9.5782213144204889 -7.1020150078165898 0 0 0 0 -12.850352336270589 7.787335572472557 0 7.787335572472557 -6.7341841674037823 0 0 0 0 -12.319839975869399 7.6048152043254049 0 7.6048152043254049 -7.0720446746072412 0 0 0 0 -11.21365194756072 9.3142338608615773 0 9.3142338608615773 -7.2008124288176987 0 0 0 0 -13.524231042829342 13.959447515252577 0 13.959447515252577 -4.9679078858455341 0 0 0 0 -8.2598321416335239 8.8894335921875154 0 8.8894335921875154 -9.4944455402160202 0 0 0 0 -9.7089764807151369 11.82228219298554 0 11.82228219298554 -10.43377486198824 0 0 0 0 -0.64881650537506452 1.6697792992433236 0 1.6697792992433236 -1.665237454139525 0 0 0 0 0.87917798346274623 -0.086562176962235782 0 -0.086562176962235782 -0.70256519385309835 0 0 0 0 -7.3983929818678007 11.97197395800606 0 11.97197395800606 -9.4794495017981717 0 0 0 0 -11.811114724929212 9.5014991198328289 0 9.5014991198328289 -7.9603611053753411 0 0 0 0 -9.3173454059578944 8.8885712382416386 0 8.8885712382416386 -9.452182496856949 0 0 0 0 -9.1928977007046342 12.791419681819207 0 12.791419681819207 -9.0477707279806054 0 0 0 0 -8.3068520680317306 12.847796156692766 0 12.847796156692766 -9.9756152752997878 0 0 0 0 -9.2601531775217154 14.473449056912386 0 14.473449056912386 -10.351753238137007 0 0 0 0 -10.087002052321623 14.105294541337571 0 14.105294541337571 -10.152434323051409 0 0 0 0 -10.355487813725631 14.814824564601736 0 14.814824564601736 -9.2684415459038973 0 0 0 0 -10.528658558156167 15.331261898936646 0 15.331261898936646 -10.539348654303808 0 0 0 0 -10.083916317109924 15.865949972890277 0 15.865949972890277 -9.987804442770539 0 0 0 0 -12.094536195130786 10.124697772092986 0 10.124697772092986 -7.7575714619423479 0 0 0 0 -10.741813207838277 11.450318976744029 0 11.450318976744029 -8.0429027555774155 0 0 0 0 -9.504500965718762 13.26435329541664 0 13.26435329541664 -9.2519255864358456 0 0 0 0 -10.969791007664753 12.06901955770627 0 12.06901955770627 -9.3995634111264508 0 0 0 0 -11.821744571298041 13.330133302078366 0 13.330133302078366 -7.8780004127129359 0 0 0 0 -11.959266094941995 13.793133883195424 0 13.793133883195424 -9.2384053348575534 0 0 0 0 -13.388058867814834 12.050849069088144 0 12.050849069088144 -7.9309064542459282 0 0 0 0 -12.900293335776951 11.310652143899233 0 11.310652143899233 -6.8683883197090836 0 0 0 0 -17.112108675290074 11.640359994119763 0 11.640359994119763 -6.8126119777417671 0 0 0 0 -14.660119239459164 13.310955114031344 0 13.310955114031344 -6.2194061679829247 0 0 0 0 -12.93100193400096 15.756876517029923 0 15.756876517029923 -7.5999676450946936 0 0 0 0 -14.428159028197115 13.573431291242741 0 13.573431291242741 -7.8548019797369193 0 0 0 0 -15.962987451850495 16.80537806497432 0 16.80537806497432 -4.4545353682633504 0 0 0 0 -18.083308512274016 13.204008446618047 0 13.204008446618047 -6.1386515395961396 0 0 0 0 -10.996052677321131 16.134535920451526 0 16.134535920451526 -10.017488030001687 0 0 0 0 -11.180259612614464 15.634196337520962 0 15.634196337520962 -9.2431324654479141 0 0 0 0 -13.742440857102338 16.259251905917836 0 16.259251905917836 -7.5844878524068164 0 0 0 0 -11.791018361709575 18.517316387369988 0 18.517316387369988 -5.7988941195085317 0 0 0 0 -10.028596075349924 17.125755118424195 0 17.125755118424195 -9.1937415750780929 0 0 0 0 -10.681595089197799 17.385643895512203 0 17.385643895512203 -9.2969694625280681 0 0 0 0 -11.709714816410269 21.013047825151261 0 21.013047825151261 -4.6522196317955604 0 0 0 0 -14.925725429064187 18.455013621680791 0 18.455013621680791 -5.7714651073903269 0 0 0 0 -19.132591151745146 17.865914170910173 0 17.865914170910173 -0.19666031704718989 0 0 0 0 -22.85850068030777 14.949555818271506 0 14.949555818271506 -2.0554558288808948 0 0 0 0 -14.867044733277908 18.127223254062329 0 18.127223254062329 -4.3465918302672435 0 0 0 0 -4.1506126155290985 3.1842894694291175 0 3.1842894694291175 -0.93442457602697004 0 0 0 0 -26.207065508271626 12.350326244159447 0 12.350326244159447 1.0994106746711623 0 0 0 0 1.2594343425131882 2.4741768861801887 0 2.4741768861801887 -2.1345523275542075 0 0 0 0 -22.135549649348832 8.9711677179136586 0 8.9711677179136586 -4.2558553222024784 0 0 0 0 -16.191919773635163 7.9930314731150247 0 7.9930314731150247 -6.7461536633457513 0 0 0 0 -6.0519744217244806 -2.6563629102665374 0 -2.6563629102665374 -0.98581763653174903 0 0 0 0 -7.5002044973571174 -1.726947575515112 0 -1.726947575515112 -0.75405525758075953 0 0 0 0 -9.2799339298812811 -1.8874213972618961 0 -1.8874213972618961 -1.7987398015816325 0 0 0 0 -7.0661198880934535 -3.0032292026427285 0 -3.0032292026427285 -1.4065679499817065 0 0 0 0 -5.0395998392486945 -2.2389837654696123 0 -2.2389837654696123 -0.90392881895502342 0 0 0 0 -6.0553787085900694 -0.98686100763033835 0 -0.98686100763033835 -2.4469803173666378 0 0 0 0 -3.7318401528409595 0.28604746589417118 0 0.28604746589417118 0.11033192225359301 0 0 0 0 -1.2771927048652287 -1.6262917254955482 0 -1.6262917254955482 0.30042232219437892 0 0 0 0 -2.1681336537731113 2.6763698005767367 0 2.6763698005767367 3.2595720632472904 0 0 0 0 -3.416502404059429 0.79605004780826505 0 0.79605004780826505 -2.3314183672225113 0 0 0 0 -2.257671991501411 2.5298713912655444 0 2.5298713912655444 -2.0149661478531158 0 0 0 0 -5.7203875704167331 1.4624164153603623 0 1.4624164153603623 -2.2344623151433325 0 0 0 0 -0.36777124329000799 5.0315220094805326 0 5.0315220094805326 1.1675411214204132 0 0 0 0 -4.4187104530155921 1.74269617047878 0 1.74269617047878 4.5359616832537313 0 0 0 0 0.67703229945618659 1.8651930940380055 0 1.8651930940380055 -0.31135445974643972 0 0 0 0 -0.70859438000115915 -0.30952883775643159 0 -0.30952883775643159 1.5437798680665082 0 0 0 0 -0.2560839404911448 0.079391936172260813 0 0.079391936172260813 0.092901130707456758 0 0 0 0 -1.2032767364944448 1.2639474610243155 0 1.2639474610243155 -0.49255333136406421 0 0 0 0 -0.22626893919698965 0.0060226911187122312 0 0.0060226911187122312 0.0025591997430376434 0 0 0 0 -1.3100708103365797 0.31702995604948825 0 0.31702995604948825 0.15145500211259622 0 0 0 0 -0.7900572411752691 0.6201252142256557 0 0.6201252142256557 -0.43738618563263421 0 0 0 0 -2.6514482543707345 0.75767227139891702 0 0.75767227139891702 -1.0865321014086931 0 0 0 0 -1.3210775489169464 0.45097093361380303 0 0.45097093361380303 0.00093191127075442637 0 0 0 0 -1.6003577912524634 0.52499588570125866 0 0.52499588570125866 0.12467975563322398 0 0 0 0 -0.041813675729640565 -0.025992900137978836 0 -0.025992900137978836 -0.014897960540692035 0 0 0 0 -0.36481171305058524 0.23935194607793164 0 0.23935194607793164 -2.2016871909600013 0 0 0 0 0.26882788750481268 1.1609569441175154 0 1.1609569441175154 -1.8927455440548329 0 0 0 0 -0.58243877658418697 0.33224896964342499 0 0.33224896964342499 0.061172241931114257 0 0 0 0 -0.79785820677372499 0.61498091354407558 0 0.61498091354407558 -0.65346946563760477 0 0 0 0 -2.8876318028997048 0.52694483173934259 0 0.52694483173934259 -0.23101558689874935 0 0 0 0 -1.2936310406548728 2.2221343403391671 0 2.2221343403391671 0.31189311414095755 0 0 0 0 -0.65216897624122794 2.4031801127778181 0 2.4031801127778181 0.99439512646250705 0 0 0 0 -0.31749856197487958 0.42926888167158461 0 0.42926888167158461 -0.23875097500516365 0 0 0 0 0.1303660237481381 2.631640267129427 0 2.631640267129427 -0.02283641943239445 0 0 0 0 0.18873820981752942 2.6694334098460786 0 2.6694334098460786 -0.027879129509415179 0 0 0 0 0.41444030017009936 2.5420166775041935 0 2.5420166775041935 -0.43060106847684665 0 0 0 0 0.60441461276241171 2.9704335265136308 0 2.9704335265136308 -0.036879887270060863 0 0 0 0 -2.4817297036422588 -0.060305326387823044 0 -0.060305326387823044 -0.55816241367188013 0 0 0 0 -3.3083852698782721 0.71020028946369962 0 0.71020028946369962 0.84739983721135559 0 0 0 0 -0.27182610810076113 0.15409100483218285 0 0.15409100483218285 -0.031393615591064628 0 0 0 0 -2.404921551177722 2.0358321517172584 0 2.0358321517172584 4.240324922722138 0 0 0 0 0.42217228201434409 0.39449113986404782 0 0.39449113986404782 0.52609110413334292 0 0 0 0 2.1925105902882933 -0.28020362825938605 0 -0.28020362825938605 -2.6097115108858517 0 0 0 0 -1.5124031439218015 -0.78342479812032195 0 -0.78342479812032195 -1.4195039760042505 0 0 0 0 -6.9785413017834799 -3.7913235127742269 0 -3.7913235127742269 -1.1397671912401108 0 0 0 0 -2.5055933989760888 3.0850603100076608 0 3.0850603100076608 -0.66396871392640122 0 0 0 0 -1.2987617335629693 2.7215996899227193 0 2.7215996899227193 -4.8899027536816844 0 0 0 0 -0.75565764595739893 1.1677206999501362 0 1.1677206999501362 -0.44904262920535132 0 0 0 0 0.27011975232471741 1.3921103467892451 0 1.3921103467892451 -1.7677413783348381 0 0 0 0 -0.33437311665608149 0.62603936489013634 0 0.62603936489013634 -0.42664706246785333 0 0 0 0 -0.69590733768038859 0.50430432131917158 0 0.50430432131917158 -0.50582136234494346 0 0 0 0 -4.5082362140083205 0.10160270195743237 0 0.10160270195743237 -0.46664777191745088 0 0 0 0 -3.1956222835488006 0.60628792100308715 0 0.60628792100308715 -0.39463780302946816 0 0 0 0 -1.931894876921433 0.11504025350762959 0 0.11504025350762959 -0.96779596697228953 0 0 0 0 -0.58656419026919693 0.53099057137996297 0 0.53099057137996297 -0.54987063793263147 0 0 0 0 -2.8360153533631092 -0.7885491933389801 0 -0.7885491933389801 -0.73322608869983696 0 0 0 0 -2.283546091426615 0.47820878880881423 0 0.47820878880881423 -0.17388648898690917 0 0 0 0 -1.051107761334503 0.96882197911950207 0 0.96882197911950207 -0.40035277982047301 0 0 0 0 -3.486485007664669 2.1276712953869605 0 2.1276712953869605 1.8945733592597094 0 0 0 0 0.4991455479976139 0.52916390335514052 0 0.52916390335514052 -1.9554287778852313 0 0 0 0 -0.63606304894327259 0.6944520106124088 0 0.6944520106124088 -0.80807108065649791 0 0 0 0 -13.364034692814357 2.6538145609336903 0 2.6538145609336903 4.1742922381138214 0 0 0 0 4.9786551711476932 6.5281381495567672 0 6.5281381495567672 -2.4854626617635631 0 0 0 0 0.055367190321351956 -0.026859939348764073 0 -0.026859939348764073 -0.25570799767202468 0 0 0 0 -32.912097001331858 -12.51413648269579 0 -12.51413648269579 3.6586259601078766 0 0 0 0 -5.3190398104234191 8.7544282308184904 0 8.7544282308184904 4.7970527850466169 0 0 0 0 -1.3288635930894088 0.17666420319619469 0 0.17666420319619469 -0.84733349699706295 0 0 0 0 -1.649571158738695 1.1900656595237873 0 1.1900656595237873 -0.76020068645569105 0 0 0 0 -8.1510711748378526 3.5382804366862466 0 3.5382804366862466 2.1988367780843419 0 0 0 0 -0.53220051807799429 -0.12102378378568091 0 -0.12102378378568091 -0.058766230447931556 0 0 0 0 -0.98255026576589444 0.46306137433143135 0 0.46306137433143135 -0.61667143469347252 0 0 0 0 -0.77833229350870958 0.75669989787544267 0 0.75669989787544267 -0.7527163105656578 0 0 0 0 -2.0531817234477785 2.2779283455129686 0 2.2779283455129686 -0.87271265921273411 0 0 0 0 -2.4783392748940969 0.56196519830048786 0 0.56196519830048786 -1.211146049284423 0 0 0 0 -0.30662744699604261 0.66611190088464944 0 0.66611190088464944 -0.47616870637157804 0 0 0 0 -2.9047536355083139 2.2655115718433763 0 2.2655115718433763 0.23837335326308562 0 0 0 0 -3.1816008035930281 0.69042070343350304 0 0.69042070343350304 2.0581981245167889 0 0 0 0 -3.3284545749847894 0.094435840333062515 0 0.094435840333062515 -0.26857827955982572 0 0 0 0 -1.9449815674423157 -0.5866638231743142 0 -0.5866638231743142 -0.24895868030779672 0 0 0 0 -2.9039534091289809 2.4720235698396094 0 2.4720235698396094 1.8030424987570939 0 0 0 0 -2.7987654212338384 3.4232390726595163 0 3.4232390726595163 -0.42999957306098757 0 0 0 0 -0.53568786115647526 0.9675697180290399 0 0.9675697180290399 -1.6529927906021911 0 0 0 0 -0.38030461057684306 0.039054965085622229 0 0.039054965085622229 -0.79034866530758219 0 0 0 0 0.24216331738613306 0.24775366769197404 0 0.24775366769197404 -1.7320903874600382 0 0 0 0 -1.8947074825591699 0.68383535360931091 0 0.68383535360931091 -3.0156466796609038 0 0 0 0 4.1541783359789406 -2.2364099963883746 0 -2.2364099963883746 -6.631953958736176 0 0 0 0 -3.4729223417598405 5.670782036480432 0 5.670782036480432 -3.8406552515563988 0 0 0 0 -2.2382781765409163 8.1770832991229554 0 8.1770832991229554 -7.9282577848111941 0 0 0 0 1.6608111771865879 2.820545819931624 0 2.820545819931624 -5.5754182877153653 0 0 0 0 -6.9482753218835569 9.4748476360476843 0 9.4748476360476843 -5.6584228191923103 0 0 0 0 -6.5734150020507514 11.744808849188303 0 11.744808849188303 -9.3932657117055669 0 0 0 0 -9.4421233531311373 7.026699823998797 0 7.026699823998797 -0.57604714746821628 0 0 0 0 -1.8871668410047278 1.3084971233822955 0 1.3084971233822955 -1.8044891122276994 0 0 0 0 -0.015437827365795798 0.75552595598667693 0 0.75552595598667693 -1.2600174110113338 0 0 0 0 0.040593500385512016 0.5814624313309622 0 0.5814624313309622 -1.639258329014524 0 0 0 0 -0.71716932648551435 1.0019015637565829 0 1.0019015637565829 -1.4072666998983028 0 0 0 0 -1.8981478338464512 1.4795254388316152 0 1.4795254388316152 -2.0501430168114894 0 0 0 0 -2.3493132413568674 1.1214274844246575 0 1.1214274844246575 -1.4776802491929857 0 0 0 0 -2.3617809680463324 1.012620434346502 0 1.012620434346502 -2.3648355867603641 0 0 0 0 -1.1366387055221097 0.025082023763458139 0 0.025082023763458139 -0.085098554031630247 0 0 0 0 -2.1853426961988589 1.267034112217118 0 1.267034112217118 -1.8950064182746189 0 0 0 0 -0.74274188579544287 0.30098665427973614 0 0.30098665427973614 -0.62603575033879655 0 0 0 0 -2.7763901967700804 1.3733072228212677 0 1.3733072228212677 -2.0183827284681684 0 0 0 0 -2.8153263875456105 1.0441998467685067 0 1.0441998467685067 -0.63896154022165774 0 0 0 0 -1.8649225727861563 1.4389314498572094 0 1.4389314498572094 -0.51869510180438283 0 0 0 0 -1.1930103605533127 0.33619218819572261 0 0.33619218819572261 -0.11871237874572005 0 0 0 0 -4.2966204140830087 1.8130792918132101 0 1.8130792918132101 -2.0179907523147449 0 0 0 0 -0.14342778194319372 -0.089441318821950944 0 -0.089441318821950944 -0.033328990908587208 0 0 0 0 -1.6505270912756949 0.87708034331150841 0 0.87708034331150841 -0.29301026507180539 0 0 0 0 -3.6981737339319807 -1.3219223026494831 0 -1.3219223026494831 -1.2100309630382355 0 0 0 0 -3.8004587751820509 -0.42479548370323528 0 -0.42479548370323528 0.16511140921463152 0 0 0 0 -2.819057206830621 0.61841727645980882 0 0.61841727645980882 -0.09910340173428267 0 0 0 0 -2.7159407160470437 -0.072576754573685065 0 -0.072576754573685065 -0.45591122220423586 0 0 0 0 -1.4878741080810869 0.64788937194509799 0 0.64788937194509799 -1.392417420472384 0 0 0 0 -1.6279737910736003 0.90421172274250239 0 0.90421172274250239 -0.94940860804172189 0 0 0 0 -1.0577260904707444 -0.16111807531599709 0 -0.16111807531599709 -0.3843724092267673 0 0 0 0 -1.2941572004938209 0.20067982489199565 0 0.20067982489199565 -0.89103770715336328 0 0 0 0 -0.74997351585466276 0.042717660414833603 0 0.042717660414833603 -0.76733546845230194 0 0 0 0 -0.7465508166607151 0.0011399714942754713 0 0.0011399714942754713 -0.62279028093678335 0 0 0 0 -0.3338265937965339 -0.15369292160983505 0 -0.15369292160983505 -0.69988557736235335 0 0 0 0 -0.15764960327556565 0.1155377123530954 0 0.1155377123530954 -0.58248843386865157 0 0 0 0 -0.62084098502600682 -0.18746319750334806 0 -0.18746319750334806 -0.67214381549658242 0 0 0 0 -3.0212923595954635 -0.51795219814429316 0 -0.51795219814429316 -2.4484457827784354 0 0 0 0 -10.877044269916951 4.6415413311508473 0 4.6415413311508473 -2.6138838185861886 0 0 0 0 -0.35418307901733215 0.012839914760724547 0 0.012839914760724547 -0.024700269720952073 0 0 0 0 -13.190872920508326 -6.2514637717823449 0 -6.2514637717823449 0.22594103055632786 0 0 0 0 -0.34948720039574255 -0.046684696251929836 0 -0.046684696251929836 -0.87560849628437154 0 0 0 0 0.0070930774798192431 0.16258766321321616 0 0.16258766321321616 -0.48873057013717935 0 0 0 0 4.2091945700885844 -0.76872493377243245 0 -0.76872493377243245 -2.3440079867351891 0 0 0 0 -0.68183303738896939 -0.059874441090713049 0 -0.059874441090713049 -0.8746421884094957 0 0 0 0 -0.81458645211775149 -0.043096758309314254 0 -0.043096758309314254 -0.21644607955004791 0 0 0 0 -1.5914964857292944 -2.1447839244166857 0 -2.1447839244166857 2.2475042879975717 0 0 0 0 0.72119666488288203 -4.9100636062269132 0 -4.9100636062269132 -2.3857423447227575 0 0 0 0 2.7152433651754109 8.6443804544184104 0 8.6443804544184104 -7.314283274525252 0 0 0 0 -0.56973696875502355 -0.72307620578004617 0 -0.72307620578004617 -1.5246679315780511 0 0 0 0 -0.79351674988961562 -0.63842327525044595 0 -0.63842327525044595 -0.86980852518440077 0 0 0 0 -0.53277454382987344 -0.90433172870348244 0 -0.90433172870348244 -1.6707022729938217 0 0 0 0 -0.70053991951255767 -0.19101915005139691 0 -0.19101915005139691 -0.92728218567458942 0 0 0 0 -1.4253088639070484 0.73993006348982249 0 0.73993006348982249 -1.5660640152949554 0 0 0 0 -0.50987214281631665 -0.35499568272421911 0 -0.35499568272421911 -0.59802448711624456 0 0 0 0 -0.85042825221898966 0.046694508146174485 0 0.046694508146174485 -0.74356497007954658 0 0 0 0 -1.3065832958773171 0.046221386158094901 0 0.046221386158094901 -1.6622735191849642 0 0 0 0 3.4311085882800398 -1.1016779090830369 0 -1.1016779090830369 -2.8145588280112861 0 0 0 0 0.15335582487983856 -0.17560327901595585 0 -0.17560327901595585 -1.7232762861787037 0 0 0 0 0.23982098764463444 -0.5088231501761129 0 -0.5088231501761129 -0.91284171906454503 0 0 0 0 -0.026139798220395249 -0.28540768370435643 0 -0.28540768370435643 -1.1276442993923386 0 0 0 0 -1.0411310733179562 -0.16581487801499861 0 -0.16581487801499861 -1.5304321027592778 0 0 0 0 0.34132947577018058 -0.6274860705939318 0 -0.6274860705939318 -1.0397294727472399 0 0 0 0 -0.27121841554617276 -2.9301058025007478 0 -2.9301058025007478 -1.3418477991986038 0 0 0 0 6.3616270105812873 -1.2781316590201186 0 -1.2781316590201186 -2.1903899329772685 0 0 0 0 0.068172093423187974 -0.75441550425449577 0 -0.75441550425449577 -1.0205947316285569 0 0 0 0 0.18826917371560192 -0.38779273667251246 0 -0.38779273667251246 -0.29659141040282311 0 0 0 0 3.0024212296993937 -0.83077096012539187 0 -0.83077096012539187 -1.1190465877853057 0 0 0 0 0.3708710977777514 -0.64669415745956549 0 -0.64669415745956549 -0.94690505636984357 0 0 0 0 -0.1320829540345585 -0.80352469984791242 0 -0.80352469984791242 -1.269492719281061 0 0 0 0 -0.11594560592493508 -0.83066789480653824 0 -0.83066789480653824 -1.583669942866436 0 0 0 0 0.28469187443624833 -0.52913382646306673 0 -0.52913382646306673 -0.91559287649397447 0 0 0 0 -0.096854838011495303 -0.90648673085524933 0 -0.90648673085524933 -0.97833801592844338 0 0 0 0 0.19691945461742932 -0.60387269341062932 0 -0.60387269341062932 -1.5343771313373433 0 0 0 0 0.1807451476524875 -0.73002239213315079 0 -0.73002239213315079 -1.1212335009854542 0 0 0 0 -0.66621990052954061 -0.55135221448313132 0 -0.55135221448313132 -0.93346236312163455 0 0 0 0 -0.026909389314823784 -0.38265257525677043 0 -0.38265257525677043 -0.58853975201418507 0 0 0 0 0.01870102352184233 -0.44115351036911399 0 -0.44115351036911399 -1.7839698442797531 0 0 0 0 -0.1770422880554694 -0.67889369637044439 0 -0.67889369637044439 -0.77243525477831287 0 0 0 0 -0.38867243856174127 -0.46101313850012815 0 -0.46101313850012815 -0.76634827706803321 0 0 0 0 -0.6229815025043024 -0.5886155510772646 0 -0.5886155510772646 -0.66963506978214715 0 0 0 0 -0.044898738845111197 -0.5773383692084586 0 -0.5773383692084586 -0.82179511849494924 0 0 0 0 -0.6820143685763469 -0.60777259481517376 0 -0.60777259481517376 -0.9620981488653797 0 0 0 0 -0.49627817783402861 -0.67893039162922264 0 -0.67893039162922264 -0.8714964101732221 0 0 0 0 0.094376423227686246 -0.57278897874436296 0 -0.57278897874436296 -0.73277203069258956 0 0 0 0 -0.39992500403241138 -0.84842876332243122 0 -0.84842876332243122 -1.0493998244506315 0 0 0 0 -0.26455875687679509 -1.0551734017313947 0 -1.0551734017313947 -1.2070912496643302 0 0 0 0 0.68459944956354235 -0.61771230450587566 0 -0.61771230450587566 -1.4253318552744605 0 0 0 0 -0.27877933300833391 -0.144565122479829 0 -0.144565122479829 -0.8982026951182227 0 0 0 0 -0.83709219895195019 -1.1061478263419602 0 -1.1061478263419602 -1.0915872233644408 0 0 0 0 -0.42733143534860574 -0.49783981505356678 0 -0.49783981505356678 -0.9260584566666239 0 0 0 0 0.034070547866576817 -1.1569644635522991 0 -1.1569644635522991 -1.0558670621844612 0 0 0 0 0.26995813743582175 -1.0750680514329036 0 -1.0750680514329036 -1.6468487849066471 0 0 0 0 -1.821910868690388 -1.1058145677337556 0 -1.1058145677337556 -1.3132409020275966 0 0 0 0 -0.69831337254259473 -0.42710763216565439 0 -0.42710763216565439 -1.0830297407883185 0 0 0 0 -0.20580673140466388 -0.37901929726416483 0 -0.37901929726416483 -0.67515702361924923 0 0 0 0 -0.19493751728441566 -0.33369282318449223 0 -0.33369282318449223 -0.75005378330752137 0 0 0 0 -0.37592489001861651 -0.49133356210905443 0 -0.49133356210905443 -1.0640830559387049 0 0 0 0 -2.3054960867266345 -1.4367062661629006 0 -1.4367062661629006 -1.9647215836257601 0 0 0 0 -1.9349512149419752 -1.2470066869112202 0 -1.2470066869112202 -1.9719074044973013 0 0 0 0 -1.1625989202431093 -0.32874088869550278 0 -0.32874088869550278 -0.57241860930842492 0 0 0 0 -0.76880437409787206 -0.45789087645200155 0 -0.45789087645200155 -0.68069962587837463 0 0 0 0 -0.68806156529171858 -0.48350653890065587 0 -0.48350653890065587 -0.47794145889713491 0 0 0 0 -0.55782023161770766 -1.0383283973756008 0 -1.0383283973756008 -1.2285420062395396 0 0 0 0 0.5953669152695511 -0.92935384216173134 0 -0.92935384216173134 -0.45743778117792999 0 0 0 0 -0.84641268757068211 -0.94647002260453661 0 -0.94647002260453661 -0.80335570016637536 0 0 0 0 -1.1465426510197947 -0.79089590167508561 0 -0.79089590167508561 -0.62380134060710635 0 0 0 0 -1.9173818949329871 -1.5484031589839446 0 -1.5484031589839446 -1.8603872736462108 0 0 0 0 -2.034756055622438 -0.87973586041442786 0 -0.87973586041442786 -0.70972154379296626 0 0 0 0 -2.774121634212861 -1.1676096290216265 0 -1.1676096290216265 -1.6755951494471901 0 0 0 0 -3.1986351651576115 -0.5687436509717827 0 -0.5687436509717827 -0.63116131252172636 0 0 0 0 -0.65161317148076314 -0.40176608505494826 0 -0.40176608505494826 -0.99880418059933329 0 0 0 0 -1.0096628067934752 0.27903269794579444 0 0.27903269794579444 -0.57191752139846141 0 0 0 0 -1.8116296933476406 0.20011253927420114 0 0.20011253927420114 -1.7712701034366205 0 0 0 0 -2.8598259378486546 -0.83627340810866713 0 -0.83627340810866713 -1.0001438312059463 0 0 0 0 -3.0718994032736191 -1.8422648483865345 0 -1.8422648483865345 -1.4355956912357897 0 0 0 0 -1.6857485933576655 0.34399235919742566 0 0.34399235919742566 -0.31051014775793068 0 0 0 0 -1.4604982758537517 -0.79826988301721258 0 -0.79826988301721258 -0.89255023636883379 0 0 0 0 -0.44328900960018558 0.17107732475439086 0 0.17107732475439086 -0.39567108651212501 0 0 0 0 -0.97605538813058956 -0.24782231684179123 0 -0.24782231684179123 -0.88137098928660862 0 0 0 0 -0.011002296156220837 -0.92769645158958269 0 -0.92769645158958269 -3.109219677947948 0 0 0 0 -1.0912446388638273 -0.20693207271493463 0 -0.20693207271493463 -1.5308782502494296 0 0 0 0 0.13250269296622719 -1.5221333219400321 0 -1.5221333219400321 -1.9958624707419261 0 0 0 0 -5.6278094475073885 -2.5907524592521725 0 -2.5907524592521725 -5.1902626947394594 0 0 0 0 -0.7079327647225 5.105454107074479 0 5.105454107074479 -12.18387119515279 0 0 0 0 -0.09732918508344568 0.21141951042816309 0 0.21141951042816309 -0.083153258593019308 0 0 0 0 0.30087513314356329 -0.39770835451790276 0 -0.39770835451790276 -5.3441567190845092 0 0 0 0 -1.064912810628357 0.86286534820651184 0 0.86286534820651184 -3.4374485025942363 0 0 0 0 3.1244544174423936 0.91863456862482451 0 0.91863456862482451 -4.8047350499135746 0 0 0 0 -15.124017049160102 3.9257312025679738 0 3.9257312025679738 -14.613303110349989 0 0 0 0 -0.24664991015239601 -0.21223058602598854 0 -0.21223058602598854 -0.050503154272403483 0 0 0 0 -15.090542798929164 5.0090912669633099 0 5.0090912669633099 -1.3126045009918812 0 0 0 0 -0.51215643469186034 3.2003851956746132 0 3.2003851956746132 7.509298598994917 0 0 0 0 -1.3770649890797273 -0.30494744264012219 0 -0.30494744264012219 -0.25372582270263894 0 0 0 0 -1.2037523303904436 -0.28805621700569151 0 -0.28805621700569151 -0.41536368324632184 0 0 0 0 -1.2701680687388759 -0.2721716229863711 0 -0.2721716229863711 -0.3239087009224646 0 0 0 0 -1.1577815861164709 -0.50152056594274219 0 -0.50152056594274219 -1.7155084416141646 0 0 0 0 -1.4038613871107088 -0.21317866269597507 0 -0.21317866269597507 -0.083036710679887771 0 0 0 0 -1.8957318974717055 -0.83374913459265088 0 -0.83374913459265088 0.032128872043216461 0 0 0 0 -1.1972939818450206 -0.76572563875504684 0 -0.76572563875504684 -0.46707699532664299 0 0 0 0 -1.5112466780192335 -0.025230038032219682 0 -0.025230038032219682 -0.80187228429473478 0 0 0 0 -2.3778437690193641 -2.575890507085008 0 -2.575890507085008 -1.6961929840172161 0 0 0 0 0.052978374926532013 -0.17035383185138064 0 -0.17035383185138064 -0.12365535968054843 0 0 0 0 -30.770911915544275 7.682508816774714 0 7.682508816774714 44.901597799479418 0 0 0 0 -1.8057997918658657 0.14086051433683622 0 0.14086051433683622 -1.1693433134585689 0 0 0 0 -4.3181438454776071 2.6251673259891106 0 2.6251673259891106 -3.3080873893626794 0 0 0 0 -6.0352928081592836 2.3901709182748334 0 2.3901709182748334 1.1705469852863644 0 0 0 0 -7.275382912128407 16.532420242794615 0 16.532420242794615 -1.912770095702399 0 0 0 0 -5.9887830037623644 1.8245219551229184 0 1.8245219551229184 3.0963995903453565 0 0 0 0 -5.2265345979121776 1.2998961832511213 0 1.2998961832511213 -0.24967320840607954 0 0 0 0 -5.1792127253575018 0.90347405958470972 0 0.90347405958470972 2.2131755403903526 0 0 0 0 -5.7612200303410646 0.099185092391508078 0 0.099185092391508078 1.1042110464528037 0 0 0 0 -2.8238541740502114 -0.070844714083413862 0 -0.070844714083413862 0.48163059353791837 0 0 0 0 -4.9554181026214792 0.1923251578791394 0 0.1923251578791394 0.90506884598685744 0 0 0 0 -2.7268363002519038 0.14225283407033107 0 0.14225283407033107 -0.074318692802337202 0 0 0 0 -1.2570364483544836 0.3552651114819696 0 0.3552651114819696 0.22611322093473518 0 0 0 0 -3.8677524213162542 0.29872260267427464 0 0.29872260267427464 -0.042943910457665879 0 0 0 0 -3.8604981231015643 2.6336627151900136 0 2.6336627151900136 -0.32498869310444434 0 0 0 0 -0.7287137387302991 0.22675761981370712 0 0.22675761981370712 0.27717001992138074 0 0 0 0 -2.2354415971151766 0.18247632675472758 0 0.18247632675472758 -0.55073901450565277 0 0 0 0 -1.0232736171528813 -2.5526176241954062 0 -2.5526176241954062 -5.5652893022516539 0 0 0 0 0.0015445860691087887 0.031098537517788571 0 0.031098537517788571 -0.018065013443633968 0 0 0 0 -2.0350864756946976 -0.39330932492010895 0 -0.39330932492010895 0.15877075280246444 0 0 0 0 -5.7688904430160619 0.70017858591713455 0 0.70017858591713455 -1.9135217326726099 0 0 0 0 -4.1981139819381497 3.0066512498824256 0 3.0066512498824256 -3.52679430423367 0 0 0 0 -1.9983105183055159 0.120181455148753 0 0.120181455148753 -0.58651949329802733 0 0 0 0 -1.9757102208227337 0.31568204786793075 0 0.31568204786793075 -0.13925768015250434 0 0 0 0 -3.2123997193411924 0.7351500665798727 0 0.7351500665798727 -0.64836453178994713 0 0 0 0 -4.1507046346378047 0.34511345680784444 0 0.34511345680784444 0.36226414884794167 0 0 0 0 -1.3672976681118598 -0.34220039956905091 0 -0.34220039956905091 -0.94282891542099723 0 0 0 0 -0.26703989381953264 -0.10011084993631414 0 -0.10011084993631414 -0.029491223139620867 0 0 0 0 -1.7755847816915775 0.61274592405485073 0 0.61274592405485073 -1.211280260399505 0 0 0 0 -1.2940678499090232 -0.56873086193468225 0 -0.56873086193468225 0.22293407280797434 0 0 0 0 -2.3134051975030161 0.11543771372670131 0 0.11543771372670131 -0.078631696768506565 0 0 0 0 -2.185170280856255 -0.51181974096505201 0 -0.51181974096505201 -0.37512729381766974 0 0 0 0 -2.0340115944563877 0.16312051164676689 0 0.16312051164676689 -0.26795280737511007 0 0 0 0 -1.2468257477994484 0.27024291269732714 0 0.27024291269732714 -0.478576867076697 0 0 0 0 -1.9122322978423547 0.027077661576122125 0 0.027077661576122125 -0.14191285864329259 0 0 0 0 -1.1610573054764117 -0.11691778493713656 0 -0.11691778493713656 0.0053409353464288212 0 0 0 0 -1.5650162174279103 -0.49067057028310757 0 -0.49067057028310757 -0.16604533437029545 0 0 0 0 -1.6352104662073543 0.18281585341572537 0 0.18281585341572537 -0.16997414446396419 0 0 0 0 -1.0296255281730282 0.0083611773128291489 0 0.0083611773128291489 -0.41261126451308883 0 0 0 0 -1.7251715802303806 0.0461823073149219 0 0.0461823073149219 0.17312886204700817 0 0 0 0 -1.2998993546441344 0.15357387766755792 0 0.15357387766755792 -0.017335931612947192 0 0 0 0 -1.3368226203056111 0.30247861901349182 0 0.30247861901349182 0.11848970365053901 0 0 0 0 -1.5526988083147444 -0.55651540169529667 0 -0.55651540169529667 -0.32029108740958634 0 0 0 0 -1.2891083473922293 -0.097132789555068655 0 -0.097132789555068655 -0.18267378956467303 0 0 0 0 -0.93323400794009359 -0.044578625430013119 0 -0.044578625430013119 -0.10302035693641159 0 0 0 0 -2.9903359141953842 -0.51369929213049481 0 -0.51369929213049481 -0.097898457369652192 0 0 0 0 -1.7902012080521672 0.39090351496397346 0 0.39090351496397346 -0.26512270449287811 0 0 0 0 -0.87078411727570781 0.4409840033030541 0 0.4409840033030541 0.044192338110585927 0 0 0 0 -1.024834284027321 0.46172987423398126 0 0.46172987423398126 0.23704497082374876 0 0 0 0 -1.9484079789318685 -0.62407567913468664 0 -0.62407567913468664 -0.74197659561369278 0 0 0 0 -2.1759496712256805 -0.73228208262721495 0 -0.73228208262721495 -0.36842285570734834 0 0 0 0 -2.2864481428261119 -0.13318108403490569 0 -0.13318108403490569 -0.2612084410252532 0 0 0 0 -6.6339992769862874 -1.3888054225062829 0 -1.3888054225062829 -0.4173220478739168 0 0 0 0 -1.9190140092596266 -0.25496724537268545 0 -0.25496724537268545 -0.65211855007716935 0 0 0 0 -4.2994117077396368 -0.69813342614641893 0 -0.69813342614641893 -1.0833447910402914 0 0 0 0 -2.0836282880489208 -1.5989972572530871 0 -1.5989972572530871 -1.0505372346855615 0 0 0 0 -1.4292897101122932 -0.78389502628566166 0 -0.78389502628566166 -0.58573956916429271 0 0 0 0 -2.4731428187014899 -1.9759322258203724 0 -1.9759322258203724 -1.642349918697164 0 0 0 0 -0.65829544831012754 -2.4562538891628591 0 -2.4562538891628591 -1.935169365402146 0 0 0 0 -2.6137794948226656 -2.0490077083021561 0 -2.0490077083021561 -3.5919996631232607 0 0 0 0 -1.7541579683447708 -0.25960530600436726 0 -0.25960530600436726 -0.49258951764954872 0 0 0 0 -1.4158779380108513 -0.64189713905107171 0 -0.64189713905107171 -0.37857302838508788 0 0 0 0 -6.0300654110760661 -2.0808192889507424 0 -2.0808192889507424 -0.1623264441763439 0 0 0 0 -1.3154738874844512 0.36451592999084426 0 0.36451592999084426 -0.20270058732402907 0 0 0 0 -5.5225283416957609 -0.82176002454374653 0 -0.82176002454374653 -1.823088914918257 0 0 0 0 -2.2516019017950768 0.031083735629265696 0 0.031083735629265696 -0.28466131132790867 0 0 0 0 -3.7974309316305153 -2.6082164272924047 0 -2.6082164272924047 2.0531708999933791 0 0 0 0 -2.2609208547504238 -0.46177498590885691 0 -0.46177498590885691 -1.6614351506591158 0 0 0 0 -1.507863970771723 -2.4917740824721175 0 -2.4917740824721175 -1.1986395198642779 0 0 0 0 -2.5118142823635736 -1.3148186736308851 0 -1.3148186736308851 -0.82744269500858958 0 0 0 0 -4.5870348220487358 7.7035735389927424 0 7.7035735389927424 -5.0222511964156098 0 0 0 0 -5.1606933927751015 0.68453980459329955 0 0.68453980459329955 1.2580847141692288 0 0 0 0 -4.1755708512597565 1.5702514953497317 0 1.5702514953497317 -0.6892456188941698 0 0 0 0 -0.18810021978065095 0.40108851657814348 0 0.40108851657814348 -0.17615964767629838 0 0 0 0 -2.105911906075562 0.1545865797621957 0 0.1545865797621957 -1.1635132772871088 0 0 0 0 1.5323169379189494 0.72632727793120466 0 0.72632727793120466 -2.0109710770224183 0 0 0 0 -0.82558784612449898 0.55614385471075378 0 0.55614385471075378 -0.13803155086919761 0 0 0 0 -18.30297643484846 4.300534521936612 0 4.300534521936612 4.3849141911718164 0 0 0 0 -3.336734696061967 -0.92536048681677485 0 -0.92536048681677485 -1.6638820648860246 0 0 0 0 -1.8123086843328338 0.75956811602642116 0 0.75956811602642116 -0.18354149792255176 0 0 0 0 -2.0641163045465873 1.1108096528322875 0 1.1108096528322875 -0.86623151184778635 0 0 0 0 -2.5193935124427469 0.37355305842785214 0 0.37355305842785214 -0.83888984973503344 0 0 0 0 -1.3215361244706543 0.16434447400306595 0 0.16434447400306595 -0.83102470781098814 0 0 0 0 -2.1572573734320031 0.91594993215362308 0 0.91594993215362308 -1.0987131709869971 0 0 0 0 -4.3172568419286108 1.3495777253225754 0 1.3495777253225754 -0.20165694212286667 0 0 0 0 -3.1710302379068978 0.6880380211032584 0 0.6880380211032584 -0.04761050035792555 0 0 0 0 -2.6418794337114377 0.88039284003734508 0 0.88039284003734508 -1.0452928478195531 0 0 0 0 -3.809679320612986 0.61514657943085638 0 0.61514657943085638 0.38441792357508575 0 0 0 0 -2.1727226799440214 0.54297234787760829 0 0.54297234787760829 -0.271235772870419 0 0 0 0 -2.9643111279801815 2.1015624806311735 0 2.1015624806311735 -1.4307399519407227 0 0 0 0 -3.572643347406256 -0.28760817270933359 0 -0.28760817270933359 -0.42853882356952455 0 0 0 0 -0.3430864577567263 1.0060476094654547 0 1.0060476094654547 -3.0519110644977729 0 0 0 0 -0.87224106760887121 0.55149584906519777 0 0.55149584906519777 -1.2767862043722529 0 0 0 0 -8.1052120010572253 -1.7661185275033517 0 -1.7661185275033517 -2.5385496552027575 0 0 0 0 -1.7876750022903352 0.55531521228203573 0 0.55531521228203573 -0.16129240335164255 0 0 0 0 14.202923988827024 -3.9433362065277038 0 -3.9433362065277038 -22.244303626165447 0 0 0 0 -12.185618463090577 -4.3094895762845056 0 -4.3094895762845056 12.145999093042946 0 0 0 0 -1.4756691082056932 -0.12774320841245812 0 -0.12774320841245812 -0.43632532276370684 0 0 0 0 5.8088082290596503 -1.3069030758729525 0 -1.3069030758729525 -15.96050602839307 0 0 0 0 -2.8728817488299683 9.3961750245386497 0 9.3961750245386497 -7.9450531248172211 0 0 0 0 -1.5862943768988771 -1.454288942271579 0 -1.454288942271579 -1.0450319322249619 0 0 0 0 -2.577752831246471 1.1575691160248045 0 1.1575691160248045 -0.18171618004111145 0 0 0 0 -2.3607336540339929 0.2224145200449712 0 0.2224145200449712 -0.097809720322004523 0 0 0 0 -1.6847593895089545 0.16291158928395788 0 0.16291158928395788 -0.18839397679595404 0 0 0 0 -2.6054433816288025 -0.08235530445425443 0 -0.08235530445425443 -0.034259610717876907 0 0 0 0 -5.7044905041038874 -0.93742443489705352 0 -0.93742443489705352 0.48333132805380075 0 0 0 0 -2.3546079856450888 -0.11542897875336777 0 -0.11542897875336777 -2.0759385339883636 0 0 0 0 -2.1544246341072721 -0.64639195993115095 0 -0.64639195993115095 -1.2217083446176957 0 0 0 0 -2.768350591766648 0.18014119901488357 0 0.18014119901488357 -0.71032434845920989 0 0 0 0 -3.9392928722882061 1.0047911696852339 0 1.0047911696852339 -1.5561085639232033 0 0 0 0 -2.7466563776979456 0.20388662840404947 0 0.20388662840404947 -1.0516130775667847 0 0 0 0 -2.6108224600829999 -0.16656221949565264 0 -0.16656221949565264 -0.29119882911034356 0 0 0 0 -4.7914831510306612 0.24376378217380967 0 0.24376378217380967 -0.33228966148944039 0 0 0 0 -2.303169371547483 -0.16755643590002833 0 -0.16755643590002833 -0.47465170362488607 0 0 0 0 -2.7966645109008823 0.43352714073778875 0 0.43352714073778875 -0.23995379466882971 0 0 0 0 -2.6345923225599108 -0.82540800722966523 0 -0.82540800722966523 -0.13361463502936033 0 0 0 0 -4.1194582030493621 -0.4874864607108842 0 -0.4874864607108842 -0.19155995505363421 0 0 0 0 -3.0423167853150517 -0.74183225984248935 0 -0.74183225984248935 0.039280555977718734 0 0 0 0 -7.6740267526038224 -1.3099959188496655 0 -1.3099959188496655 -0.57291002233540311 0 0 0 0 -0.29939782586168651 0.00070286381055240099 0 0.00070286381055240099 -0.073662662811108476 0 0 0 0 -3.9642757906731276 -0.8718426069702101 0 -0.8718426069702101 0.021211951954004604 0 0 0 0 -0.010708057480883326 -1.0964463943229532 0 -1.0964463943229532 -0.086325561957964203 0 0 0 0 -7.4203695070827962 -1.7045387665035463 0 -1.7045387665035463 -0.0439390777783224 0 0 0 0 -8.4750502573879203 -1.3351191080555509 0 -1.3351191080555509 0.031570465337203757 0 0 0 0 0.15665686982958604 0.056896605856451288 0 0.056896605856451288 -0.020802529447739637 0 0 0 0 -3.8963004503275442 -0.73805240364662694 0 -0.73805240364662694 -0.16240310494599441 0 0 0 0 -4.3451711726011126 -2.1700861451910249 0 -2.1700861451910249 -0.020118113331193399 0 0 0 0 -5.2039280885292101 -0.37199094366914309 0 -0.37199094366914309 1.386373474955775 0 0 0 0 -6.7545275693410076 -1.8568787927624548 0 -1.8568787927624548 0.17338145775766733 0 0 0 0 -0.65487886851841459 -0.97641064105107489 0 -0.97641064105107489 0.13754411952486245 0 0 0 0 -4.1051915909438321 -1.075172276119897 0 -1.075172276119897 -0.70645721503751702 0 0 0 0 -8.5876631659339182 -2.0823244209233422 0 -2.0823244209233422 -0.51951128092605359 0 0 0 0 -0.0091751897039387131 0.022804768481295173 0 0.022804768481295173 -0.13275887222907429 0 0 0 0 -6.4763046429288806 -0.73695496765479263 0 -0.73695496765479263 2.6907503006120792 0 0 0 0 -4.2936291930663586 0.2884906027136892 0 0.2884906027136892 0.059936386786218251 0 0 0 0 -7.1719402967428323 0.42824565069659037 0 0.42824565069659037 1.041608918696447 0 0 0 0 -4.3717702340090909 -0.045383128688087027 0 -0.045383128688087027 1.109307295852858 0 0 0 0 -5.7909746133736917 -0.81467985868908954 0 -0.81467985868908954 -0.073694050433246616 0 0 0 0 -7.9036525376031932 -0.88164104347773531 0 -0.88164104347773531 -0.030630281984469931 0 0 0 0 -7.3522539315436006 -0.43154592178465379 0 -0.43154592178465379 -0.22125091606644531 0 0 0 0 -9.4887350831595541 -0.49246362057731474 0 -0.49246362057731474 -0.22083790113563762 0 0 0 0 -8.4862961298349546 -0.34973369619287098 0 -0.34973369619287098 0.58449416422708111 0 0 0 0 -7.9690782172765466 1.9002413158825178 0 1.9002413158825178 0.87747706871349762 0 0 0 0 -10.80657087909276 0.79068465139081212 0 0.79068465139081212 0.87273736014484926 0 0 0 0 -8.5436294920800719 1.6389293728625081 0 1.6389293728625081 1.8773774848280738 0 0 0 0 -5.2710438024924215 1.2266446217111708 0 1.2266446217111708 -0.024908372975173801 0 0 0 0 -7.315593730108958 2.6253158912506498 0 2.6253158912506498 2.6523046635663903 0 0 0 0 -12.887673788523898 5.9379062004969603 0 5.9379062004969603 -4.0255890800671992 0 0 0 0 -11.907731315877754 3.2520293696270164 0 3.2520293696270164 -0.054549797914175358 0 0 0 0 -8.8852641262783436 2.2182480312963548 0 2.2182480312963548 -7.5157544938847227 0 0 0 0 -10.890639722553715 -0.98903288241041376 0 -0.98903288241041376 -2.8550632938330835 0 0 0 0 -10.061105168515496 1.8340821683799717 0 1.8340821683799717 -2.412896691760587 0 0 0 0 -9.9343430587568946 1.6463542509027054 0 1.6463542509027054 -2.1658899622925283 0 0 0 0 -8.6117017990745808 -0.42819993888543095 0 -0.42819993888543095 -2.4268025901610102 0 0 0 0 -7.768652566262972 -1.5026477214574783 0 -1.5026477214574783 -0.9441509568222024 0 0 0 0 -11.535745216891883 -0.42570218784663627 0 -0.42570218784663627 0.081778356306074329 0 0 0 0 -12.533044795494789 2.7192111511674621 0 2.7192111511674621 -2.5189064150547136 0 0 0 0 -13.734122103209302 1.1234111338314774 0 1.1234111338314774 -0.98550242119834053 0 0 0 0 -11.852746002481581 3.3895072324998194 0 3.3895072324998194 -1.8679528271944221 0 0 0 0 -3.7116204812300566 0.020666433502563919 0 0.020666433502563919 -2.5892300998119877 0 0 0 0 -4.4217782643136161 -0.83661301392152865 0 -0.83661301392152865 0.04499848616440616 0 0 0 0 0.0040601687883938808 0.01626446209873933 0 0.01626446209873933 -0.025568111362507653 0 0 0 0 -0.63386615197956075 -0.46636114365725945 0 -0.46636114365725945 -0.18667531185688918 0 0 0 0 -4.3555673222435871 -0.88211376174359302 0 -0.88211376174359302 -0.047626701828622942 0 0 0 0 -3.9416552292677807 -0.4686224556748888 0 -0.4686224556748888 -0.41888498774173044 0 0 0 0 -3.8080169654858764 -0.88057597105972008 0 -0.88057597105972008 -0.22326684919535156 0 0 0 0 -0.27537348471617573 -1.1349549026229298 0 -1.1349549026229298 -0.33246304852904529 0 0 0 0 -1.1933772656513852 0.3162694783076887 0 0.3162694783076887 0.29072528785679547 0 0 0 0 -2.7180914929060691 -0.52762140961051474 0 -0.52762140961051474 -0.17771792846662038 0 0 0 0 -1.9650310605902632 0.050572461815277414 0 0.050572461815277414 -0.51049281688491721 0 0 0 0 -1.9663232341267758 -0.8243621008615305 0 -0.8243621008615305 -1.0257562626254213 0 0 0 0 -2.2230255925218216 1.5038174548229681 0 1.5038174548229681 -0.39990755462663685 0 0 0 0 -0.62305603571219947 0.40845924394053768 0 0.40845924394053768 0.21663329413136517 0 0 0 0 -2.0442882107508922 -0.50702326254703678 0 -0.50702326254703678 -0.11953073804533432 0 0 0 0 -4.3282467705066665 -1.3454538229684223 0 -1.3454538229684223 -2.6616172201752768 0 0 0 0 -4.6044672469333818 -0.90396436424057725 0 -0.90396436424057725 1.9054140157393284 0 0 0 0 -9.0659267386663487 -1.9725829445470828 0 -1.9725829445470828 1.4934190802559399 0 0 0 0 -0.30133558615762013 -0.8428198450326132 0 -0.8428198450326132 -1.7588534874138322 0 0 0 0 -0.11954407518316135 0.013233083513263466 0 0.013233083513263466 0.031517860074003048 0 0 0 0 -5.5389694696568768 4.1802430677111193 0 4.1802430677111193 0.0011417902521152553 0 0 0 0 -12.682276497191197 0.63569782482344206 0 0.63569782482344206 0.0049447160221634525 0 0 0 0 -2.5211073299633426 2.2994965509359382 0 2.2994965509359382 -3.1300702480136704 0 0 0 0 -12.669635042042501 0.81478372140954081 0 0.81478372140954081 0.74799510836149041 0 0 0 0 -15.145912289115586 1.6687399760297865 0 1.6687399760297865 0.4573946500496664 0 0 0 0 -0.16203955264396797 -0.023700457203680969 0 -0.023700457203680969 -0.015980858385663991 0 0 0 0 -11.903780903034203 2.8108955100083302 0 2.8108955100083302 -0.47297137609610207 0 0 0 0 -13.075352719315561 1.790408820935915 0 1.790408820935915 -1.2300271513458443 0 0 0 0 -11.868502705286119 1.134663818416441 0 1.134663818416441 -0.26988633424175745 0 0 0 0 -12.10075430660072 2.0732292153954091 0 2.0732292153954091 -2.6815695064419134 0 0 0 0 -10.547605080717403 2.2034894043741287 0 2.2034894043741287 -0.0014093886394462762 0 0 0 0 -8.0383676544283844 0.40798908828278135 0 0.40798908828278135 -0.5175208045037758 0 0 0 0 -11.375346865081156 1.7609074185071629 0 1.7609074185071629 0.87617638189009517 0 0 0 0 -10.869294552812789 2.139119186151035 0 2.139119186151035 -1.0890412523296225 0 0 0 0 -4.7190880330381333 -2.1640391426562195 0 -2.1640391426562195 -0.56290195219454997 0 0 0 0 -4.7249288204347977 -1.6024659481084798 0 -1.6024659481084798 -0.58625505403512213 0 0 0 0 -2.3827678509987891 -2.8649269534874922 0 -2.8649269534874922 -0.039076544303494831 0 0 0 0 -2.9709446748602204 -2.4780868805183731 0 -2.4780868805183731 -0.52046331076229535 0 0 0 0 -2.0548922662965197 -1.7801304894904035 0 -1.7801304894904035 -1.1517627472174468 0 0 0 0 -7.1695134051169589 -2.2838740511621758 0 -2.2838740511621758 -0.31754405137682262 0 0 0 0 -0.4125501293185998 0.67202963384524139 0 0.67202963384524139 0.11825392966486938 0 0 0 0 -5.2490418504594345 -0.82016291534150554 0 -0.82016291534150554 -0.32119337688919813 0 0 0 0 -5.4229669082360488 -1.6619709717723836 0 -1.6619709717723836 -0.44622045197478144 0 0 0 0 -0.3754514066868726 -0.023749345137858313 0 -0.023749345137858313 -0.086409765040019348 0 0 0 0 -0.30850568373858356 -0.62500593186031139 0 -0.62500593186031139 -0.27291840167250875 0 0 0 0 -4.3049642592905002 -0.22970164597172626 0 -0.22970164597172626 0.031938356342415375 0 0 0 0 -0.29690554533159563 -0.014830447080445452 0 -0.014830447080445452 -0.086258059921588484 0 0 0 0 -3.1515101402183063 -0.39862337383154056 0 -0.39862337383154056 -0.17040517539410338 0 0 0 0 -5.830344593467089 -1.7457644964882819 0 -1.7457644964882819 0.47728947477115824 0 0 0 0 -0.15071849673884485 -0.65498205976072299 0 -0.65498205976072299 -0.30626351722466694 0 0 0 0 -3.3617780653330556 -2.4048271586837799 0 -2.4048271586837799 -0.56542162782623961 0 0 0 0 -4.8723347198083502 0.50968620901443629 0 0.50968620901443629 0.15799474531044666 0 0 0 0 -0.60224499355118866 0.54652563668411247 0 0.54652563668411247 0.24482781662123412 0 0 0 0 -6.4203758550902421 -1.0835992897986477 0 -1.0835992897986477 -0.79464188911671796 0 0 0 0 -4.3790192984306486 -1.3911753852805546 0 -1.3911753852805546 -0.66823966095988396 0 0 0 0 -7.6517759878943252 -2.1098529439623377 0 -2.1098529439623377 0.13770401572503665 0 0 0 0 -6.7978696313134606 -1.5803422088747829 0 -1.5803422088747829 -0.78654849092680479 0 0 0 0 -9.4481634917174233 -2.1122589219766295 0 -2.1122589219766295 -0.29921730011661984 0 0 0 0 -3.020323844437371 -1.4013393640221603 0 -1.4013393640221603 -0.21336745534877855 0 0 0 0 -0.24710189571321139 -0.056459882970376185 0 -0.056459882970376185 -0.0017926319735211849 0 0 0 0 -3.8592992817442564 -2.3862513725732861 0 -2.3862513725732861 -1.8807835397056309 0 0 0 0 -2.9205488900333876 -0.32425207109894272 0 -0.32425207109894272 -1.3425223226010914 0 0 0 0 0.012898713297946784 0.022971325201481818 0 0.022971325201481818 -0.017407499062382956 0 0 0 0 -5.785695003636647 -0.77782325520282947 0 -0.77782325520282947 0.00084792162735808688 0 0 0 0 -0.20607218974810593 -0.064671983136559419 0 -0.064671983136559419 -0.025164844670587563 0 0 0 0 -6.6994983325926114 -1.5069804767907207 0 -1.5069804767907207 -0.51839153837640639 0 0 0 0 -6.6457400515682821 -1.1783342697286547 0 -1.1783342697286547 -1.1637432505929157 0 0 0 0 -6.5114605496037257 -1.6628925827013679 0 -1.6628925827013679 -4.5292073112450609e-05 0 0 0 0 -4.6348638930048764 -1.3586489003884041 0 -1.3586489003884041 -1.0444639003589473 0 0 0 0 -6.8527392397108997 -1.4671417875636188 0 -1.4671417875636188 0.11395225478712145 0 0 0 0 -4.6295346988951778 -0.75850208719766066 0 -0.75850208719766066 0.56138679775844036 0 0 0 0 -2.1344366138218902 -1.9821249733010242 0 -1.9821249733010242 -0.00086099163581187534 0 0 0 0 -1.8816272269377805 -1.4060696359960438 0 -1.4060696359960438 0.79845403338728982 0 0 0 0 -0.9391686872641003 -1.4762487324195217 0 -1.4762487324195217 0.00067357299158146743 0 0 0 0 -1.5075648193878806 -0.58183097633340464 0 -0.58183097633340464 0.59758529136631644 0 0 0 0 -1.5708719605081569 -1.0399351387125326 0 -1.0399351387125326 1.0990308844435259 0 0 0 0 0.50152236114809057 -0.97055931960758479 0 -0.97055931960758479 0.00085587699319477316 0 0 0 0 -36.47478199271427 26.738614841020379 0 26.738614841020379 30.846079579550363 0 0 0 0 -0.18237450824489798 -0.072780520566617213 0 -0.072780520566617213 -0.018387176957434331 0 0 0 0 -0.18592993897982524 -0.8363244591993565 0 -0.8363244591993565 0.52784067277355029 0 0 0 0 -0.42348016340474715 -1.2084522498531767 0 -1.2084522498531767 0.54443081692890583 0 0 0 0 -4.6117237141224905 13.045400565407732 0 13.045400565407732 -1.736157048875242 0 0 0 0 -0.38236477438812244 -0.27089067455133176 0 -0.27089067455133176 -0.17600824541419363 0 0 0 0 -17.040333631524845 9.9171914713887617 0 9.9171914713887617 -8.0900130140672779 0 0 0 0 -7.7216118916139749 4.4315705982925255 0 4.4315705982925255 -18.611978121030866 0 0 0 0 0.10246233746899946 0.026934207398102927 0 0.026934207398102927 0.090465968159476329 0 0 0 0 -31.721246623304978 17.505026090792718 0 17.505026090792718 1.4344736449994402 0 0 0 0 -12.659422009906848 0.92613287592991611 0 0.92613287592991611 -0.87670831443283248 0 0 0 0 -0.92156032488241024 0.27573900936546281 0 0.27573900936546281 0.57621176576466471 0 0 0 0 -5.7917683082596341 -2.3031577246423467 0 -2.3031577246423467 -0.71978409102149055 0 0 0 0 -14.487108004097536 3.551630558933855 0 3.551630558933855 1.9113771974790978 0 0 0 0 -8.5877253786475194 2.248900574997819 0 2.248900574997819 1.3151045602086384 0 0 0 0 -5.4977453034245869 1.2651775690303779 0 1.2651775690303779 1.8086142486181862 0 0 0 0 -11.422003133285216 -0.65831012988196136 0 -0.65831012988196136 2.4880874538037006 0 0 0 0 -0.36149725246006881 -0.27798261156609172 0 -0.27798261156609172 -0.1628483189847772 0 0 0 0 -2.1050479803077451 -2.0563943819995254 0 -2.0563943819995254 -1.3063725589647674 0 0 0 0 -4.3886696961212692 1.3884894089867608 0 1.3884894089867608 -0.49821002012532745 0 0 0 0 -0.88895678387859789 -0.43126425131147883 0 -0.43126425131147883 -0.23742182989700455 0 0 0 0 -5.2696883477983647 -2.4570404482960839 0 -2.4570404482960839 0.73933092087065688 0 0 0 0 -3.7222831427418441 -3.0088266910783332 0 -3.0088266910783332 0.47900911175281635 0 0 0 0 -2.7206422229952594 -0.15272225367410286 0 -0.15272225367410286 0.13967287517392624 0 0 0 0 -3.3552263741366914 -1.2280802139941329 0 -1.2280802139941329 -0.14821875190602896 0 0 0 0 -3.8257407486953348 -2.5077022080854015 0 -2.5077022080854015 -1.1792193778417679 0 0 0 0 -5.6617720974645636 -0.7275904725540272 0 -0.7275904725540272 0.19324251063730458 0 0 0 0 -1.6382813112923031 -2.3084053779901037 0 -2.3084053779901037 -1.2761528032577369 0 0 0 0 -2.4489711233375289 -1.5915526619017051 0 -1.5915526619017051 -0.94526359795367298 0 0 0 0 -1.9254148257023189 -4.4801375594620367 0 -4.4801375594620367 -0.58726321053939046 0 0 0 0 -5.4193765859399718 -0.38494022834153441 0 -0.38494022834153441 -1.69160551844476 0 0 0 0 -1.2726985524893735 -1.1579989310709529 0 -1.1579989310709529 -2.5515538901717036 0 0 0 0 -1.9418059165491286 -1.5199159354269796 0 -1.5199159354269796 -5.353784728306664 0 0 0 0 -2.1065472436153172 -1.1958865884275083 0 -1.1958865884275083 -0.76646059091653118 0 0 0 0 1.0067056795342069 -3.0529915948957296 0 -3.0529915948957296 0.22548767805602665 0 0 0 0 -0.82983715041882533 -11.67606261261426 0 -11.67606261261426 0.81371639411251806 0 0 0 0 -5.4698391867059399 -3.8964220453817973 0 -3.8964220453817973 2.7347312980616607 0 0 0 0 -9.3260983979434968 -4.1611627969215874 0 -4.1611627969215874 3.0611174898633635 0 0 0 0 -2.6466404260888119 -2.6679082707472794 0 -2.6679082707472794 -1.8520551620995833 0 0 0 0 -12.655254278461143 -2.7192432734029808 0 -2.7192432734029808 4.222901914405611 0 0 0 0 -9.4702726871037157 -3.4894249290455264 0 -3.4894249290455264 3.5127076568310258 0 0 0 0 -8.221542682746076 -3.5797992368842984 0 -3.5797992368842984 1.8170162035190529 0 0 0 0 -5.4063678819114962 1.37420360689622 0 1.37420360689622 1.8268664758337141 0 0 0 0 -0.75646793824307679 4.6389619231304096 0 4.6389619231304096 3.0623844281756192 0 0 0 0 -13.475435937039947 17.250405326687826 0 17.250405326687826 27.712466767737851 0 0 0 0 -60.874389341239294 -19.958441000603216 0 -19.958441000603216 37.014376554569026 0 0 0 0 -17.962577574704483 6.0912266396017003 0 6.0912266396017003 64.327732383588568 0 0 0 0 -17.404731612952446 16.440020028130931 0 16.440020028130931 46.433468425059345 0 0 0 0 -1.8769038333514239 0.41567451834972857 0 0.41567451834972857 1.2038281759419389 0 0 0 0 -4.8122912350445404 -11.114899123272608 0 -11.114899123272608 58.443835256133298 0 0 0 0 -3.8509735901159274 -1.6007092819982489 0 -1.6007092819982489 44.67392500965525 0 0 0 0 -18.046657835016958 -6.1770769031838881 0 -6.1770769031838881 6.8762668437843786 0 0 0 0 -10.563788013127123 -7.938541128564907 0 -7.938541128564907 4.4281049044052452 0 0 0 0 -12.283447320922278 -9.7416855307512833 0 -9.7416855307512833 4.1890467288176438 0 0 0 0 -12.421975181798189 -10.032637369305462 0 -10.032637369305462 9.4238758987038409 0 0 0 0 -33.602582213708956 -16.354327924942893 0 -16.354327924942893 2.8256213465758719 0 0 0 0 -31.706511023274288 -41.300408623199132 0 -41.300408623199132 -31.438357417463294 0 0 0 0 -0.46984957692670548 -0.2416723198805073 0 -0.2416723198805073 -0.1159374624985503 0 0 0 0 -1.7305766951376427 -2.4154356892004216 0 -2.4154356892004216 -40.238982023916861 0 0 0 0 21.11142311567346 20.739231432252382 0 20.739231432252382 -25.469323947817429 0 0 0 0 -30.299469962261355 -32.157131248686596 0 -32.157131248686596 -18.093628089926369 0 0 0 0 -13.140347726442997 -29.781441334405145 0 -29.781441334405145 -40.802636445186636 0 0 0 0 -6.432842940145747 -14.492571205986167 0 -14.492571205986167 -19.490381824140968 0 0 0 0 -17.736284907010486 -16.339531785180952 0 -16.339531785180952 -15.541519691706981 0 0 0 0 -29.893857186943023 -17.738056263988653 0 -17.738056263988653 -18.136573946489989 0 0 0 0 -27.660129389889335 -23.592621053918037 0 -23.592621053918037 -5.5978407664597398 0 0 0 0 0.65608228674045677 2.2391370735280702 0 2.2391370735280702 -4.6104434413241506 0 0 0 0 0.15337823803929496 -0.67379225550575939 0 -0.67379225550575939 -2.9013755046153165 0 0 0 0 -0.81214533137059064 -0.90313741440807682 0 -0.90313741440807682 -0.47108146240730164 0 0 0 0 4.8791301747542093 -2.4595262098859507 0 -2.4595262098859507 -2.6765290647906568 0 0 0 0 0.55281079890012563 -0.53425552337621163 0 -0.53425552337621163 -0.55687051134674792 0 0 0 0 1.7859194086936441 -0.86035975142758048 0 -0.86035975142758048 -2.1368667400145114 0 0 0 0 0.11898945015673235 -0.85346151797381253 0 -0.85346151797381253 -1.5033552700410837 0 0 0 0 4.2468341190706269 -5.8302301029342516 0 -5.8302301029342516 -4.6259227590905994 0 0 0 0 -1.6493242028442232 -1.3774275046164668 0 -1.3774275046164668 -0.83732282237637934 0 0 0 0 -1.449886987953505 -0.75073905387660034 0 -0.75073905387660034 -0.43511508887218042 0 0 0 0 -2.1017217844264451 -10.307380366788436 0 -10.307380366788436 -16.491207501520648 0 0 0 0 -0.92006387802211975 3.0665811652158226 0 3.0665811652158226 -7.1286685169168322 0 0 0 0 -108.28605566341503 21.85039948356939 0 21.85039948356939 25.621047703796421 0 0 0 0 -99.07247785952859 20.660704606784691 0 20.660704606784691 22.656414256361359 0 0 0 0 -97.048048050892248 23.412627940788525 0 23.412627940788525 25.805963442407972 0 0 0 0 -93.844228444897453 24.95621924964496 0 24.95621924964496 20.61113316061207 0 0 0 0 -84.448041171188379 23.945558005196517 0 23.945558005196517 20.422508222104938 0 0 0 0 -74.631946076986424 28.481718444716989 0 28.481718444716989 3.1249715486853802 0 0 0 0 -94.249769340443891 34.271439344504927 0 34.271439344504927 20.523259841143044 0 0 0 0 -124.43055370210277 36.414655070394019 0 36.414655070394019 20.371750567767322 0 0 0 0 -78.377063139032543 53.106388749231314 0 53.106388749231314 -3.3689551237815465 0 0 0 0 -52.559205963948443 23.206678969851339 0 23.206678969851339 2.6030283976194823 0 0 0 0 -112.32293017815027 11.241322483742579 0 11.241322483742579 13.354535419746583 0 0 0 0 -124.60217084655486 14.341969839661111 0 14.341969839661111 19.87532257668181 0 0 0 0 -104.38596287253313 21.617541938773684 0 21.617541938773684 21.927228926883572 0 0 0 0 -113.11216111072098 -24.059039550817438 0 -24.059039550817438 4.0432502340377141 0 0 0 0 -112.83197586583628 12.430925750771848 0 12.430925750771848 16.932522426311152 0 0 0 0 -60.410139825708029 -4.6450816894783884 0 -4.6450816894783884 7.8999651901990546 0 0 0 0 -106.18980723698269 8.2206936330770048 0 8.2206936330770048 19.291157009754443 0 0 0 0 -31.217883866682314 -12.778375159050483 0 -12.778375159050483 -17.070613951422729 0 0 0 0 -62.619824200328367 -11.493152537573792 0 -11.493152537573792 -2.9900892100222336 0 0 0 0 -34.956317275977199 -22.176901824745755 0 -22.176901824745755 -17.859047331868567 0 0 0 0 -30.348960081892074 4.5984526642965307 0 4.5984526642965307 4.2962174317790414 0 0 0 0 -35.659284413974092 -3.0650272597996491 0 -3.0650272597996491 -0.35586214138390915 0 0 0 0 -61.625255630995525 9.0419546285610295 0 9.0419546285610295 15.164305435804408 0 0 0 0 -49.376614206332306 6.2389474057890766 0 6.2389474057890766 13.386686614451946 0 0 0 0 -17.107426143327757 0.58231879340826254 0 0.58231879340826254 4.8442656333804166 0 0 0 0 -90.022590457028855 15.492403841074747 0 15.492403841074747 21.087442498238033 0 0 0 0 -92.190831501917273 -1.2521354701540304 0 -1.2521354701540304 13.152165172279638 0 0 0 0 -62.421615405517514 7.9492631940231604 0 7.9492631940231604 15.459594069301033 0 0 0 0 -88.703237581370558 13.253856907637783 0 13.253856907637783 23.217451118401755 0 0 0 0 -89.025821662326052 12.521890874854193 0 12.521890874854193 21.604445371236864 0 0 0 0 -85.153190222643389 20.546580885004914 0 20.546580885004914 15.298894897985917 0 0 0 0 -65.22025743562881 13.036419150109396 0 13.036419150109396 17.389694517290422 0 0 0 0 -22.44620485721498 -6.9361424470911288 0 -6.9361424470911288 1.4794870107534734 0 0 0 0 -37.948721325896258 20.289125051152496 0 20.289125051152496 24.705107813320865 0 0 0 0 -1.3211090656450999 -0.66813829911401967 0 -0.66813829911401967 0.12621690154197296 0 0 0 0 -63.44242804422538 5.8385196839345781 0 5.8385196839345781 28.643564606865993 0 0 0 0 -57.389457441946433 11.54050011243703 0 11.54050011243703 28.440902464380542 0 0 0 0 -8.3749936975927994 -4.2182072743714034 0 -4.2182072743714034 2.9782310615513836 0 0 0 0 -4.9020369945619393 -3.0319848555335849 0 -3.0319848555335849 -0.88644181195055993 0 0 0 0 -46.91076982082086 8.1726400060148308 0 8.1726400060148308 1.3228887103303424 0 0 0 0 -46.832039258851246 16.720140473826199 0 16.720140473826199 -1.6046319185337552 0 0 0 0 -101.55098078345691 35.819926250141435 0 35.819926250141435 9.5261047657097038 0 0 0 0 -92.694902268505757 25.844271051052829 0 25.844271051052829 15.365857947600261 0 0 0 0 -86.843773719821002 18.487487109999563 0 18.487487109999563 22.366872510269559 0 0 0 0 -85.060634269301318 20.137200228545652 0 20.137200228545652 22.555623874256753 0 0 0 0 -98.548723615414929 23.598949748821269 0 23.598949748821269 25.482237352618672 0 0 0 0 -95.182030379950447 22.25234926513383 0 22.25234926513383 25.550627553893946 0 0 0 0 -97.099997164532397 20.807239664311965 0 20.807239664311965 24.969363452727009 0 0 0 0 -96.798080842210766 24.816056060744756 0 24.816056060744756 19.768095154175626 0 0 0 0 -102.50175160256549 25.156870813294717 0 25.156870813294717 21.273337024141739 0 0 0 0 -98.032774929566585 25.541174949457229 0 25.541174949457229 13.796667915501075 0 0 0 0 -122.01933261581689 35.851699259325983 0 35.851699259325983 13.393933487672712 0 0 0 0 -96.359493305704746 51.972343516524262 0 51.972343516524262 -34.168191725504045 0 0 0 0 -82.901633749688699 31.443767160216229 0 31.443767160216229 -4.9726145003771762 0 0 0 0 6.2056595631902383 -16.967421313039839 0 -16.967421313039839 11.949336626716315 0 0 0 0 -2.6179695603180946 -1.284370292204347 0 -1.284370292204347 0.036722369933827576 0 0 0 0 -142.67893163341614 77.630500735542711 0 77.630500735542711 -35.754261097659253 0 0 0 0 -119.50436824728558 44.122299903546256 0 44.122299903546256 -41.286949255158348 0 0 0 0 -8.8010943575973215 -3.8211130010581194 0 -3.8211130010581194 4.4934887202309568 0 0 0 0 -6.0637167531767773 -1.5447583052683882 0 -1.5447583052683882 4.0575143543420147 0 0 0 0 -3.6620377643848556 -2.19052592691461 0 -2.19052592691461 -0.48836799399141007 0 0 0 0 -82.975050670959718 41.907052592088 0 41.907052592088 -18.284465467286019 0 0 0 0 -2.3081048992171418 -11.52556005474581 0 -11.52556005474581 7.3707583534649217 0 0 0 0 -10.06550846797154 -8.3901179019926424 0 -8.3901179019926424 8.9559258576523177 0 0 0 0 -1.2463855361238529 -3.3392799001077158 0 -3.3392799001077158 8.6010753135007771 0 0 0 0 -16.231389665913412 -0.22519089943553539 0 -0.22519089943553539 6.8397844597097901 0 0 0 0 -10.924581910110646 1.2509788292640849 0 1.2509788292640849 1.6554585501390235 0 0 0 0 -21.536256340245018 7.8689567109499805 0 7.8689567109499805 0.9661643412757499 0 0 0 0 -19.105893559720244 1.4611411276087889 0 1.4611411276087889 6.4559296368149859 0 0 0 0 -17.643578336241262 1.2055350466174728 0 1.2055350466174728 4.6642191088787008 0 0 0 0 -18.187707746128581 0.59080780102314634 0 0.59080780102314634 10.261593110099035 0 0 0 0 -1.0853598139919995 -2.8499766042512977 0 -2.8499766042512977 -0.79282958842143492 0 0 0 0 -19.295772862212289 -8.2515851359466179 0 -8.2515851359466179 -0.0512938373671952 0 0 0 0 -32.291483953053103 6.4940851789838039 0 6.4940851789838039 9.9730803853168872 0 0 0 0 -28.688536312285578 3.2029998636697741 0 3.2029998636697741 9.8424438810825059 0 0 0 0 -52.260493448564375 5.1052547521304534 0 5.1052547521304534 15.116747682313388 0 0 0 0 -0.7365701799371891 -0.30299406045146443 0 -0.30299406045146443 15.262341546772888 0 0 0 0 -1.0802397997266269 -0.36368556443936484 0 -0.36368556443936484 0.081573478144107606 0 0 0 0 -86.774903697802074 -69.396946803551657 0 -69.396946803551657 76.076071549014159 0 0 0 0 8.8044506126716442 -2.1242638907537525 0 -2.1242638907537525 0.057902710434441479 0 0 0 0 -239.95607782008665 51.778890184348882 0 51.778890184348882 -0.011718532633295621 0 0 0 0 -282.60069727281916 32.948387443973552 0 32.948387443973552 -17.498777985796757 0 0 0 0 -226.35806763151777 113.2108098046877 0 113.2108098046877 -66.302105707547909 0 0 0 0 -301.01814475360152 143.17402029339547 0 143.17402029339547 -37.119283664639823 0 0 0 0 -129.59538412649727 13.925488218415575 0 13.925488218415575 -50.004145717594866 0 0 0 0 -76.64273930816853 6.4062972649625181 0 6.4062972649625181 -21.657330997819486 0 0 0 0 -140.57777505923241 12.181793855959423 0 12.181793855959423 -8.0862570949563946 0 0 0 0 -91.868240364256053 20.830591715952096 0 20.830591715952096 -54.016768607568977 0 0 0 0 -146.95800464199056 -0.13951472348593805 0 -0.13951472348593805 -23.005227961662612 0 0 0 0 -91.448624198377729 12.673369686411906 0 12.673369686411906 0.77435889238883959 0 0 0 0 -30.108486124519914 -22.009600947574729 0 -22.009600947574729 -0.053300574384408737 0 0 0 0 -6.9469863551894377 -0.36395953325464703 0 -0.36395953325464703 -8.052090601590514 0 0 0 0 -80.059326584279916 -32.206432640492494 0 -32.206432640492494 -1.9609583420472338 0 0 0 0 -21.94113991264453 -2.2307522531853117 0 -2.2307522531853117 0.85919524634738309 0 0 0 0 -14.497003972340281 -28.516142645434506 0 -28.516142645434506 9.1425027318982615 0 0 0 0 -5.4593361745778566 -25.88027675227012 0 -25.88027675227012 15.054410721189697 0 0 0 0 -5.3765215597932183 -26.225370819791074 0 -26.225370819791074 6.7267068670294634 0 0 0 0 -43.767566829539646 -35.839546182026695 0 -35.839546182026695 12.207296232524058 0 0 0 0 -78.090953515220463 -7.1026871842609438 0 -7.1026871842609438 23.461673510575054 0 0 0 0 -34.849398833863233 -29.1575106171436 0 -29.1575106171436 17.98164798103511 0 0 0 0 -29.349936317212268 -7.6897100820938817 0 -7.6897100820938817 12.423027897492261 0 0 0 0 -71.318553527033146 1.4526976053104903 0 1.4526976053104903 1.9931582084503958 0 0 0 0 -96.865228923024915 -3.4619771124619092 0 -3.4619771124619092 28.924354711874116 0 0 0 0 -102.52342345532452 25.282568353573254 0 25.282568353573254 15.141694592826695 0 0 0 0 -107.87863028243555 18.613854208464829 0 18.613854208464829 7.2163458624756913 0 0 0 0 -136.15351614629981 53.362694994834868 0 53.362694994834868 -13.755966153060115 0 0 0 0 -132.77848552016104 -6.097831527479916 0 -6.097831527479916 13.818441949083621 0 0 0 0 -3.1731521913316101 -2.0102247218035094 0 -2.0102247218035094 -0.093817677577410108 0 0 0 0 -2.7937308527168341 -0.95130981142883719 0 -0.95130981142883719 -0.091177835299702581 0 0 0 0 -2.5268534839933636 -1.480130890331242 0 -1.480130890331242 0.19282892819258468 0 0 0 0 -0.43340411412821211 -0.50767481801927516 0 -0.50767481801927516 0.16638337452088475 0 0 0 0 -3.8090485421489575 -1.7951367520671058 0 -1.7951367520671058 0.25090257927794646 0 0 0 0 -1.2169932339165825 -1.9685575795351307 0 -1.9685575795351307 -0.22778066485019666 0 0 0 0 -4.7213830076016166 -2.4058726145767619 0 -2.4058726145767619 5.2807110889058979 0 0 0 0 0.10423816473236869 -0.1124307209483888 0 -0.1124307209483888 0.073785627046771565 0 0 0 0 44.17964321814361 -11.73387355531549 0 -11.73387355531549 0.012658594235208712 0 0 0 0 39.461613001360092 -28.196194811718279 0 -28.196194811718279 15.339744520762142 0 0 0 0 64.119334361992514 -6.9230252033630677 0 -6.9230252033630677 -3.2068970025733989 0 0 0 0 14.340199780868716 -2.420716680043995 0 -2.420716680043995 -2.6317224033858437 0 0 0 0 9.630098001868646 -7.7575626397180741 0 -7.7575626397180741 3.0143672561774792 0 0 0 0 30.517697682924336 -17.013325435068559 0 -17.013325435068559 2.3765951374684846 0 0 0 0 27.610429523840139 -34.091613572228006 0 -34.091613572228006 6.8051554682896551 0 0 0 0 28.54180457075563 -25.876319074040861 0 -25.876319074040861 2.3465845554707165 0 0 0 0 25.156718519690003 -28.880194815373105 0 -28.880194815373105 0.016291665204420269 0 0 0 0 36.976874139000756 -20.167484050450444 0 -20.167484050450444 -3.7019137466915524 0 0 0 0 10.295396853405691 -22.194656336535317 0 -22.194656336535317 0.31088736232549508 0 0 0 0 24.039741404019878 -25.542156647661873 0 -25.542156647661873 0.010464096277540951 0 0 0 0 26.663711079796485 -12.918238928894169 0 -12.918238928894169 -16.52275121593842 0 0 0 0 28.56680630511255 -26.066542888446271 0 -26.066542888446271 -8.7517158670188451 0 0 0 0 26.111482646723744 -31.760842567917578 0 -31.760842567917578 -3.1929675145496077 0 0 0 0 28.225138475765561 -31.970641863996448 0 -31.970641863996448 -4.1377274311479937 0 0 0 0 35.728767533293649 5.3263647993627785 0 5.3263647993627785 28.675931107662933 0 0 0 0 60.784401204366986 -50.286677987730442 0 -50.286677987730442 5.1360779448822313 0 0 0 0 13.234889194889547 -54.402337462286795 0 -54.402337462286795 47.407336661164301 0 0 0 0 28.51613358495888 -50.435140129176943 0 -50.435140129176943 29.829312321597893 0 0 0 0 62.096620779655495 -7.4850688551339033 0 -7.4850688551339033 -3.285892351262703 0 0 0 0 15.040530094931455 -4.4446743029326399 0 -4.4446743029326399 -3.3500252926264533 0 0 0 0 0.10213918004412648 -0.41466912620389706 0 -0.41466912620389706 0.22711891133237094 0 0 0 0 4.7725279101650813 -4.6428780749122609 0 -4.6428780749122609 47.706192750189757 0 0 0 0 9.1375785161399108 -1.9536296481419413 0 -1.9536296481419413 -63.94850573486076 0 0 0 0 9.2616748485306744 13.106915309192999 0 13.106915309192999 20.176814151534586 0 0 0 0 -0.10703871214551341 -0.32498667896233613 0 -0.32498667896233613 0.11437038957924156 0 0 0 0 -12.475575082993601 -3.8613159634730323 0 -3.8613159634730323 6.5995379345200718 0 0 0 0 1.3600450073108732 10.62928609816252 0 10.62928609816252 19.210135472348952 0 0 0 0 -1.8549986510934104 -9.8300680707407366 0 -9.8300680707407366 -24.007910080613385 0 0 0 0 -38.431109414283128 -25.874477268380289 0 -25.874477268380289 18.991400208626544 0 0 0 0 -0.2553935736024755 -0.1761144408065114 0 -0.1761144408065114 -0.11162705956143248 0 0 0 0 -11.074256201657136 -2.4799752825045331 0 -2.4799752825045331 7.9399417438222599 0 0 0 0 -21.261505270278576 -26.950335941382789 0 -26.950335941382789 43.825162066586699 0 0 0 0 7.6303255812599673 -32.246479337154426 0 -32.246479337154426 18.296907621643527 0 0 0 0 11.822271879466825 -17.018941832021788 0 -17.018941832021788 10.925772379667677 0 0 0 0 1.8539187024980492 -29.168834556962437 0 -29.168834556962437 16.822409445311109 0 0 0 0 3.9329203307061107 -8.9091661029465143 0 -8.9091661029465143 2.9068459339793664 0 0 0 0 -0.55572424946483068 -0.74739716631775011 0 -0.74739716631775011 -0.26596093719412817 0 0 0 0 7.8792237425141138 -2.0151023334122016 0 -2.0151023334122016 -0.60275980112541561 0 0 0 0 -0.084497097352141282 -1.7544104239709668 0 -1.7544104239709668 -0.71539911619544228 0 0 0 0 -0.3764549353854818 -1.8554052718637735 0 -1.8554052718637735 -0.66872834866978792 0 0 0 0 -0.64506271690333961 -2.3280247692559897 0 -2.3280247692559897 -7.0599224276948007 0 0 0 0 -0.4683605732916476 -1.4027409841865648 0 -1.4027409841865648 -2.2321992033367337 0 0 0 0 -3.8027468906439026 -8.8626038208437166 0 -8.8626038208437166 -5.734108250725054 0 0 0 0 -0.70516647092154017 -4.2416249506042405 0 -4.2416249506042405 0.30206548110276898 0 0 0 0 -2.6449667589113233 -6.5914076476763341 0 -6.5914076476763341 -1.281191292219205 0 0 0 0 -1.5397802423940163 -1.6096656623503787 0 -1.6096656623503787 -0.7906719214164688 0 0 0 0 -0.92160694756967132 -5.4326118534843957 0 -5.4326118534843957 -0.82830011855796037 0 0 0 0 -0.01047202222616761 -1.7953454257794874 0 -1.7953454257794874 -1.1520111545217731 0 0 0 0 -0.1811382259174934 -3.3702377118137647 0 -3.3702377118137647 0.10700780580793889 0 0 0 0 -0.25588846323807957 -4.3254017256122097 0 -4.3254017256122097 -5.238982386895799 0 0 0 0 -3.618704493084806 -0.9319757577969483 0 -0.9319757577969483 -1.1344015157673937 0 0 0 0 -3.316571555515111 -2.3697720887826961 0 -2.3697720887826961 -1.4816872539423684 0 0 0 0 0.44033366027300502 -0.061588336163458379 0 -0.061588336163458379 -0.36794133381201288 0 0 0 0 -2.8081826932793774 -2.3908480778779762 0 -2.3908480778779762 0.72605802277530529 0 0 0 0 0.79563313796461443 -2.8836869288184275 0 -2.8836869288184275 1.2159409654043429 0 0 0 0 -3.2259956557455238 -0.86550023808397825 0 -0.86550023808397825 0.6397442806750453 0 0 0 0 -3.3827905272211396 -1.7381021839953181 0 -1.7381021839953181 -0.18876721471775748 0 0 0 0 -4.8453789671948471 -1.269025034726269 0 -1.269025034726269 -0.24379451388153939 0 0 0 0 -6.4837556242127903 -2.3997839060788237 0 -2.3997839060788237 0.74321796873698531 0 0 0 0 0.020426643761311425 -1.8870819449926017 0 -1.8870819449926017 -0.87982273459454063 0 0 0 0 -1.0941519522196943 -1.4501604793262821 0 -1.4501604793262821 -0.50475939798826763 0 0 0 0 -2.1137217373136501 -0.55262053080305051 0 -0.55262053080305051 0.095924825594332686 0 0 0 0 -4.8492970815368608 -1.3584992488075187 0 -1.3584992488075187 0.12011663855213328 0 0 0 0 0.32024612215172965 -0.99155775704196003 0 -0.99155775704196003 0.72190796390600553 0 0 0 0 -2.274824193226614 -1.3794800691773048 0 -1.3794800691773048 0.12822079123537922 0 0 0 0 -2.4861040397372562 -1.0412963962708019 0 -1.0412963962708019 -1.4284029384459318 0 0 0 0 -1.4566515708219026 -0.93353862030813062 0 -0.93353862030813062 -0.060019707137625167 0 0 0 0 -0.70901298529497581 -0.50875640930382815 0 -0.50875640930382815 -0.033166874355856635 0 0 0 0 -0.5317206195152977 -1.4648137262148762 0 -1.4648137262148762 -0.26651470409047595 0 0 0 0 -0.48099009808363213 -0.35054591113065214 0 -0.35054591113065214 0.10917620498449712 0 0 0 0 -3.1850626332916363 -1.2017579638169522 0 -1.2017579638169522 -0.010303438733160419 0 0 0 0 -4.3194211114860082 -0.97010322685292749 0 -0.97010322685292749 0.12850812448616011 0 0 0 0 -9.2864955638397078 -3.8301604888524707 0 -3.8301604888524707 -0.63620089717403516 0 0 0 0 -9.9262254530715381 -3.4170681080326375 0 -3.4170681080326375 -0.90293394500849899 0 0 0 0 0.099396835838168052 -0.082032629691795478 0 -0.082032629691795478 0.0068586022805239288 0 0 0 0 1.0882910620857729 -1.1976222613870959 0 -1.1976222613870959 0.03676891766546575 0 0 0 0 -0.47640412946167388 -0.77564697583997599 0 -0.77564697583997599 0.22813939623082646 0 0 0 0 -6.3140094467962626 -3.584511599854352 0 -3.584511599854352 0.018452256920681975 0 0 0 0 -5.8798944434456644 -2.8317523619291478 0 -2.8317523619291478 -0.38848295255206722 0 0 0 0 -5.9516240041102719 -1.7664236803484528 0 -1.7664236803484528 0.69780398189527659 0 0 0 0 -4.8352881434229857 -2.8083711326741536 0 -2.8083711326741536 -0.031656689578085206 0 0 0 0 -1.0263379852459664 -1.8120205716802396 0 -1.8120205716802396 -0.18380313566702755 0 0 0 0 -2.7139439168731769 -1.9792492049724615 0 -1.9792492049724615 -0.43081048653868947 0 0 0 0 -3.770417527304744 -1.0696330261431797 0 -1.0696330261431797 0.32157787388075576 0 0 0 0 -0.32155774578128415 -1.4046681742771732 0 -1.4046681742771732 -0.90528795808389129 0 0 0 0 -2.424564309148991 -1.3524304372924689 0 -1.3524304372924689 0.53634037602228091 0 0 0 0 -1.4643726605661271 -1.7118795164271887 0 -1.7118795164271887 -0.22580193889820632 0 0 0 0 -4.2907748391808127 -4.5099191002903556 0 -4.5099191002903556 3.0983359941293003 0 0 0 0 -0.14972642256179824 -1.3417158248716987 0 -1.3417158248716987 1.4420518358181198 0 0 0 0 -2.9327430843186448 -5.5285968509981558 0 -5.5285968509981558 0.25072107865207727 0 0 0 0 -1.8884366398080061 -1.2275082109186712 0 -1.2275082109186712 0.35131964382208603 0 0 0 0 -2.7430958666783951 -2.7848829214882009 0 -2.7848829214882009 -0.5023944949318091 0 0 0 0 -2.0135174306502321 -2.5569590865509966 0 -2.5569590865509966 -0.094289805715628283 0 0 0 0 0.28803074524330441 -1.4210678371812264 0 -1.4210678371812264 0.70258895500151652 0 0 0 0 -0.046343294602500862 -0.091457217458088991 0 -0.091457217458088991 0.18456912101498157 0 0 0 0 -2.5229252946646739 -1.5303037792465943 0 -1.5303037792465943 0.681461033157575 0 0 0 0 -1.6133592871671176 -0.36867231886501628 0 -0.36867231886501628 0.73468241649756183 0 0 0 0 -2.6083760296969558 -2.2464947340173467 0 -2.2464947340173467 0.83800540344896035 0 0 0 0 -1.6247115166338943 -1.4474668119356089 0 -1.4474668119356089 0.14770959480861867 0 0 0 0 -0.10291386716926354 -1.9655379442450567 0 -1.9655379442450567 0.94289807252903302 0 0 0 0 -1.8145888071293435 -1.2215938130459705 0 -1.2215938130459705 0.56630446859913697 0 0 0 0 -1.3711959080417833 -0.84317641211757888 0 -0.84317641211757888 0.94467242820667696 0 0 0 0 -0.081167251990336808 -2.4261013958657998 0 -2.4261013958657998 0.84987563221784512 0 0 0 0 -0.80243117309665735 -1.0217707750410181 0 -1.0217707750410181 0.14281187701817633 0 0 0 0 -0.50558488532129786 -0.94248362570422373 0 -0.94248362570422373 0.019520004174349292 0 0 0 0 -0.88193337119446369 -1.3815627205547969 0 -1.3815627205547969 0.035725848261563442 0 0 0 0 -0.03405914894756279 -1.5735418509266879 0 -1.5735418509266879 1.1012642567516195 0 0 0 0 -0.22713777216904418 -1.9169684636414104 0 -1.9169684636414104 1.0480006974181606 0 0 0 0 -0.49421112789087474 -1.1963020123048622 0 -1.1963020123048622 0.02683090682608702 0 0 0 0 3.824411934022919 -5.3452645172354778 0 -5.3452645172354778 4.8193958076633407 0 0 0 0 -1.1907468101800944 -0.83058023408327131 0 -0.83058023408327131 0.80398137085258714 0 0 0 0 -3.4600376878697716 0.05257501374028628 0 0.05257501374028628 4.9019453101516444 0 0 0 0 -0.048518058560148347 -1.8886620393338944 0 -1.8886620393338944 0.88448431686015283 0 0 0 0 11.130702561591534 -10.564275210900405 0 -10.564275210900405 5.2945241731380293 0 0 0 0 24.729837742223026 -10.983003208265472 0 -10.983003208265472 -1.4322621538125304 0 0 0 0 5.9806793531424773 -8.7144322992875232 0 -8.7144322992875232 4.7209282063817284 0 0 0 0 -1.3543196302756897 -1.0019999204431222 0 -1.0019999204431222 -0.27993874860188117 0 0 0 0 -1.5030596839278587 -2.1851503522947269 0 -2.1851503522947269 3.610647855850857 0 0 0 0 0.11934410048840505 -0.38599799734212326 0 -0.38599799734212326 0.041968549460451587 0 0 0 0 -1.5100528073053283 0.80416818260198397 0 0.80416818260198397 1.3554923784308812 0 0 0 0 2.1731700395757798 -1.1514999917600335 0 -1.1514999917600335 -0.34501174971046566 0 0 0 0 -2.204645523619547 0.4677720700780128 0 0.4677720700780128 3.7050482362191417 0 0 0 0 1.8046528901140846 -1.2384574742466157 0 -1.2384574742466157 -0.57464009642126257 0 0 0 0 0.18928107427018404 -2.0903934752175246 0 -2.0903934752175246 0.76184426989789245 0 0 0 0 -0.10228033728226649 -0.048335311863191066 0 -0.048335311863191066 0.02733815664459005 0 0 0 0 4.1411540322708618 -6.1548972353235749 0 -6.1548972353235749 -0.19250094082644864 0 0 0 0 -0.46527368760343535 -1.1821377738860903 0 -1.1821377738860903 -0.26220331319248258 0 0 0 0 3.9879719555223687 5.1566715506613461 0 5.1566715506613461 -4.0337298026765893 0 0 0 0 -0.74827485687016448 -1.4142651081549644 0 -1.4142651081549644 0.00060652021557938696 0 0 0 0 0.34380742895518779 -2.1728175554964082 0 -2.1728175554964082 0.6449422476316613 0 0 0 0 3.19355192727744 -14.332514777941014 0 -14.332514777941014 -0.2376194646472527 0 0 0 0 -3.9978025705131586 -1.3627134358513331 0 -1.3627134358513331 1.2183808918926378 0 0 0 0 -3.4673557729183813 -2.8260653271587444 0 -2.8260653271587444 1.210710831850438 0 0 0 0 -3.3543756695653428 -2.0220235365131884 0 -2.0220235365131884 0.89770647240459311 0 0 0 0 -0.82527265624932689 -1.5898635054524739 0 -1.5898635054524739 0.69148233865288411 0 0 0 0 -1.4658022013936716 -2.6083750047963008 0 -2.6083750047963008 0.27075292597476164 0 0 0 0 -3.2865862767157523 -1.6681020551178563 0 -1.6681020551178563 0.77999727064036506 0 0 0 0 -0.33850578712480139 -1.0196270008889954 0 -1.0196270008889954 0.55013038494384237 0 0 0 0 -3.0454323521607876 -1.6898653963194761 0 -1.6898653963194761 0.52151556325952697 0 0 0 0 -5.5932523557785316 -1.2670056819797537 0 -1.2670056819797537 0.79556523634846599 0 0 0 0 -5.9797449687503104 -1.4494305838347827 0 -1.4494305838347827 0.98949249981660614 0 0 0 0 -3.5668542145415358 -1.7084344496138755 0 -1.7084344496138755 0.30795341162684053 0 0 0 0 -0.64122760533604328 -0.9460251492883387 0 -0.9460251492883387 0.43453429370449159 0 0 0 0 -2.091551360113499 -0.70573032677341985 0 -0.70573032677341985 0.41253252646788496 0 0 0 0 -3.9842052054700616 -1.2498332147438305 0 -1.2498332147438305 -0.43632432880735905 0 0 0 0 -5.6094625495643413 -2.540488581154932 0 -2.540488581154932 0.21206463694602462 0 0 0 0 -7.4910995706377435 0.27189447979071701 0 0.27189447979071701 0.26519753452885197 0 0 0 0 -0.42851235013033318 -0.29817088111555989 0 -0.29817088111555989 0.28942414666235061 0 0 0 0 -2.4926230269447842 -0.81965661282868041 0 -0.81965661282868041 0.57219681828996727 0 0 0 0 -0.5756822848067773 -0.57736587907187342 0 -0.57736587907187342 0.5429133957069654 0 0 0 0 -9.8503988118663983 -0.49348909081629699 0 -0.49348909081629699 2.1164742473434899 0 0 0 0 -4.3929768482662439 -0.7401074160215444 0 -0.7401074160215444 0.11300863693577412 0 0 0 0 0.005962409751190112 -0.49986924117681752 0 -0.49986924117681752 0.40588061939602937 0 0 0 0 -2.3845770255197749 -0.81958459499597325 0 -0.81958459499597325 0.48722778243950415 0 0 0 0 -2.0087997650734906 -0.7058430750705611 0 -0.7058430750705611 0.35853618566443402 0 0 0 0 -1.6540070751252642 0.80806115797821576 0 0.80806115797821576 -0.49097304462009106 0 0 0 0 -0.10290022385198228 -0.026876755620829584 0 -0.026876755620829584 -0.0035721245879152264 0 0 0 0 -12.388245948041003 -4.6596061855536846 0 -4.6596061855536846 -1.3862458740077273 0 0 0 0 -54.023831676668124 -7.5386880221617503 0 -7.5386880221617503 17.512375232414797 0 0 0 0 -52.422382860408106 -2.2524465793927675 0 -2.2524465793927675 17.692987361810992 0 0 0 0 -38.331828802332893 -29.246123247614037 0 -29.246123247614037 47.001159502237982 0 0 0 0 -83.909673376443607 13.859644429471807 0 13.859644429471807 22.861486723850931 0 0 0 0 -93.534332481985984 14.494773162009579 0 14.494773162009579 30.682995015271899 0 0 0 0 -79.89644297437917 13.59630218344239 0 13.59630218344239 22.513860696976678 0 0 0 0 -74.070317263012839 -1.32789767575008 0 -1.32789767575008 34.717423166811045 0 0 0 0 -101.50474387108625 24.346626237283317 0 24.346626237283317 23.322425602207147 0 0 0 0 -89.643580837298941 8.0497137634104661 0 8.0497137634104661 28.97450534890595 0 0 0 0 -59.19986486126345 4.4954538925076051 0 4.4954538925076051 19.211493992400392 0 0 0 0 -61.717618779507802 -9.5536506510422541 0 -9.5536506510422541 30.098205339599758 0 0 0 0 -83.229799341523176 14.307664213080329 0 14.307664213080329 33.342384002392457 0 0 0 0 -5.5193092019726464 -22.531246793690741 0 -22.531246793690741 16.404589618014029 0 0 0 0 -21.430000761542033 -27.496676178202904 0 -27.496676178202904 30.183045378727343 0 0 0 0 -12.975529000035749 11.247016687127825 0 11.247016687127825 32.752859771278395 0 0 0 0 18.743344020502263 -33.298819020889766 0 -33.298819020889766 10.254040935805932 0 0 0 0 -6.131952827103305 -25.82763441650286 0 -25.82763441650286 14.441731160327549 0 0 0 0 -5.3074916662353644 -8.205635458261213 0 -8.205635458261213 15.855989050931214 0 0 0 0 -1.0599473808827042 -0.66777464591784508 0 -0.66777464591784508 -0.26946282632582608 0 0 0 0 -2.9406447875844606 -5.6729549388958276 0 -5.6729549388958276 5.2816339920009341 0 0 0 0 3.880304243905357 -14.911403511226119 0 -14.911403511226119 20.648380350082448 0 0 0 0 -1.6181598317107273 2.6694277123531265 0 2.6694277123531265 45.851222579259797 0 0 0 0 0.12493786832642684 -0.31289434821783857 0 -0.31289434821783857 -0.065737486393492084 0 0 0 0 -17.191175619425849 -8.5034795610756646 0 -8.5034795610756646 1.3258225155846048 0 0 0 0 -25.69342751512886 -10.900470607158582 0 -10.900470607158582 -6.6386746268744901 0 0 0 0 -36.830905939017612 -3.7796711368408751 0 -3.7796711368408751 0.20066548670570228 0 0 0 0 -0.090596243899724982 -0.029179417478335523 0 -0.029179417478335523 0.15694925971917661 0 0 0 0 -16.521707174390031 -19.928232070114746 0 -19.928232070114746 -5.4317904695863035 0 0 0 0 -3.2929693603236956 -5.3173319376159043 0 -5.3173319376159043 -6.7385173443440181 0 0 0 0 -30.45694704206835 -1.7727801028102022 0 -1.7727801028102022 1.0120687803469082 0 0 0 0 -28.628181194628269 -2.5445331303939156 0 -2.5445331303939156 -5.7011609993019192 0 0 0 0 0.65430622044880948 -0.96784276966322835 0 -0.96784276966322835 -0.016478721497036997 0 0 0 0 -5.2519016128812837 0.32202036837355763 0 0.32202036837355763 -3.4404615846974593 0 0 0 0 -0.10565800787662738 2.9913667083818609 0 2.9913667083818609 -6.4235881237420926 0 0 0 0 -5.4632378646492725 3.174603198437012 0 3.174603198437012 -0.41568559561240193 0 0 0 0 -6.0661712222863571 -2.2532456450538803 0 -2.2532456450538803 5.2058914822760016 0 0 0 0 -12.297644964455685 -1.5360326450747834 0 -1.5360326450747834 1.841069688425705 0 0 0 0 -6.7141958469328529 -6.8174625795627435 0 -6.8174625795627435 0.72826132259399401 0 0 0 0 -24.359490153747174 -7.1680744021732608 0 -7.1680744021732608 -0.46972959049981 0 0 0 0 -21.000290176009003 -3.0641436950888874 0 -3.0641436950888874 1.7717868913382517 0 0 0 0 -15.26548805836137 -8.1589282675829509 0 -8.1589282675829509 -3.1242066740406926 0 0 0 0 -31.169040140182915 -7.2381386805520833 0 -7.2381386805520833 2.3539339664216641 0 0 0 0 -18.806721726374235 -9.2408623157057264 0 -9.2408623157057264 -4.9901267215390561 0 0 0 0 -27.307545120711438 -1.7677494338147426 0 -1.7677494338147426 -4.5670741883029748 0 0 0 0 -31.884977986715967 -1.8566611364030905 0 -1.8566611364030905 -0.8919828268224137 0 0 0 0 -29.417900541502604 -1.9335183424748266 0 -1.9335183424748266 -1.0380466500970442 0 0 0 0 -41.336479205767318 -3.9699983076372547 0 -3.9699983076372547 2.6447243997095029 0 0 0 0 -40.525723753388093 3.4236957175885365 0 3.4236957175885365 7.1596143736219346 0 0 0 0 -31.689452261372935 -13.841672235042779 0 -13.841672235042779 12.136217731021588 0 0 0 0 -64.8000402135076 13.199011457145048 0 13.199011457145048 12.029405801635221 0 0 0 0 -62.737306994331448 3.3822306319793825 0 3.3822306319793825 14.681306523917215 0 0 0 0 -56.426352475991735 12.664597667068961 0 12.664597667068961 1.8385736224065568 0 0 0 0 -58.786802439615713 12.694691703545459 0 12.694691703545459 12.007537259870389 0 0 0 0 -50.940659653348121 22.631860689442078 0 22.631860689442078 -9.0700428531708894 0 0 0 0 -28.832047860368675 10.024499481255532 0 10.024499481255532 -2.8131190616452386 0 0 0 0 -1.7726945020040148 16.2907208901172 0 16.2907208901172 -21.837760527866863 0 0 0 0 -5.2711230398682574 -6.0988793778679593 0 -6.0988793778679593 10.423894628670951 0 0 0 0 -18.637819143300476 -9.4095211942280343 0 -9.4095211942280343 -4.8540452936558722 0 0 0 0 -0.87325956857148412 -35.235543942605204 0 -35.235543942605204 -8.2673905882593317 0 0 0 0 17.804991109784169 10.632102112338544 0 10.632102112338544 3.4993422476012483 0 0 0 0 -5.4065742170854918 0.6801687507352181 0 0.6801687507352181 -0.028013935078587071 0 0 0 0 -12.370263318220168 15.841978064241061 0 15.841978064241061 49.972670924308204 0 0 0 0 -19.861935523378634 -4.9984089226891228 0 -4.9984089226891228 20.803604138051924 0 0 0 0 -15.901735420286059 -6.2646495095210071 0 -6.2646495095210071 -24.565820869202071 0 0 0 0 -34.119291286235239 5.5677089012041279 0 5.5677089012041279 12.973098124190983 0 0 0 0 -5.2215712390352564 10.315731470691503 0 10.315731470691503 -19.303001050220246 0 0 0 0 2.1730736454101134 10.171623377641936 0 10.171623377641936 -4.3696242829346374 0 0 0 0 -4.0519790690850641 3.632945432746169 0 3.632945432746169 -1.4765384767342766 0 0 0 0 -8.9327941207702679 -6.2354498571037311 0 -6.2354498571037311 -15.78716875739633 0 0 0 0 -1.8300099645566661 2.2999650118161981 0 2.2999650118161981 -6.1629576295804327 0 0 0 0 -102.12059414702981 -28.918495302030237 0 -28.918495302030237 -0.81848502259890665 0 0 0 0 -38.384852367964413 9.549389887378311 0 9.549389887378311 -10.694781822415052 0 0 0 0 -11.245755113213818 -1.2151243000221257 0 -1.2151243000221257 16.746517370912215 0 0 0 0 -0.96409282367494598 -0.55100316727953214 0 -0.55100316727953214 -1.8916383500662732 0 0 0 0 -4.8044198673213998 -2.1486017357344744 0 -2.1486017357344744 -0.52705806322938908 0 0 0 0 1.1385895495568548 0.3648335337586559 0 0.3648335337586559 -8.7563529709894397 0 0 0 0 -7.1102955459791701 4.4001105180275317 0 4.4001105180275317 18.170287910482102 0 0 0 0 -2.0041605097530919 7.0520066885090529 0 7.0520066885090529 -1.4172370789069646 0 0 0 0 -2.9944748745674588 11.034339475496722 0 11.034339475496722 8.9316385512679517 0 0 0 0 0.59389579049820895 5.638340479287308 0 5.638340479287308 -6.964923090111256 0 0 0 0 -1.29704471356672 2.0296642986243114 0 2.0296642986243114 -0.73265070258958076 0 0 0 0 -8.8094462228873454 2.8440273538417387 0 2.8440273538417387 6.7838401659364536 0 0 0 0 -15.504623113847629 11.875322766351474 0 11.875322766351474 -1.2078353364504437 0 0 0 0 5.2395931445862516 -5.8682506722325343 0 -5.8682506722325343 -2.8495145631349601 0 0 0 0 -1.3566441115453545 -0.011621467835617239 0 -0.011621467835617239 -0.078423278002214047 0 0 0 0 -5.413186122690604 0.84924719194998488 0 0.84924719194998488 3.0962370609372556 0 0 0 0 -7.9084909843570443 0.46863659260216028 0 0.46863659260216028 0.48108835924014004 0 0 0 0 -11.960144643288004 1.9039832195851432 0 1.9039832195851432 -1.4186508673781191 0 0 0 0 -4.9737395327429113 -11.001379219713499 0 -11.001379219713499 23.832287375737451 0 0 0 0 16.540126881656761 -22.916603403853742 0 -22.916603403853742 11.29400960289513 0 0 0 0 37.978093349636765 12.369247628164999 0 12.369247628164999 5.61499271820594 0 0 0 0 -7.1599883983743595 0.80077514804637406 0 0.80077514804637406 -0.045590847628109832 0 0 0 0 -75.714395276081632 15.517761606258773 0 15.517761606258773 72.675559992086278 0 0 0 0 -92.862670559123217 5.9667187675804598 0 5.9667187675804598 69.639815243345311 0 0 0 0 -29.146129995780939 -27.931950000468078 0 -27.931950000468078 -16.358699263653762 0 0 0 0 -52.135263380814649 -16.166682246919208 0 -16.166682246919208 8.2127702640352709 0 0 0 0 -3.0056279546952283 11.634054010155978 0 11.634054010155978 -16.994256965919273 0 0 0 0 -51.282476127303767 10.390463167501256 0 10.390463167501256 1.9262128839136494 0 0 0 0 -0.43435577992210739 -0.27314580290527601 0 -0.27314580290527601 -0.092363854386648292 0 0 0 0 -14.429743644392147 3.7447340503772466 0 3.7447340503772466 3.0547905124440149 0 0 0 0 -25.261789050091465 -14.250910409239509 0 -14.250910409239509 5.3353601603848801 0 0 0 0 -0.58743288502773794 -5.1715958658232353 0 -5.1715958658232353 -2.8781291415427859 0 0 0 0 6.3384399354199559 -8.6737961216090866 0 -8.6737961216090866 -1.1409308738227537 0 0 0 0 -0.49789900452842772 -1.0642909945981636 0 -1.0642909945981636 -0.38899522274471465 0 0 0 0 0.049395639083695819 -1.900389577352211 0 -1.900389577352211 0.82158135811964517 0 0 0 0 -1.5235461968240998 -2.2747584550403417 0 -2.2747584550403417 0.65102827160640686 0 0 0 0 0.43832249349908992 -1.8032661171386835 0 -1.8032661171386835 1.3495017959087496 0 0 0 0 -0.3801110387321387 -2.0516782282778649 0 -2.0516782282778649 0.11775322196945126 0 0 0 0 -1.688572925758411 -0.64916836483472196 0 -0.64916836483472196 1.1237304419542964 0 0 0 0 -3.6489319547195009 -1.546473991735084 0 -1.546473991735084 0.66649110882212881 0 0 0 0 -4.604760045786179 -1.8359478753217573 0 -1.8359478753217573 2.6331257323579393 0 0 0 0 -3.7578087211368256 0.028004455291238628 0 0.028004455291238628 1.1831825107080931 0 0 0 0 -4.7691635292248975 -0.87186201034796795 0 -0.87186201034796795 0.27640996577656551 0 0 0 0 -1.7050211510657762 -2.2365104778513221 0 -2.2365104778513221 1.3181370113137092 0 0 0 0 4.0472386512446974 -8.6192105763964264 0 -8.6192105763964264 -1.1297415134479252 0 0 0 0 -13.215639076355728 -0.61483114717566423 0 -0.61483114717566423 12.916464689671329 0 0 0 0 -1.5238307562201276 -0.61819371354373231 0 -0.61819371354373231 0.27082064922394311 0 0 0 0 -3.5152540427678076 -0.15541251191734773 0 -0.15541251191734773 0.39486939238620855 0 0 0 0 -2.9205098276011086 -0.86853304645551077 0 -0.86853304645551077 0.22645791887896394 0 0 0 0 -4.4640012854829365 -1.0975277646268893 0 -1.0975277646268893 -0.48167058758463099 0 0 0 0 -3.5351365699643793 -0.82481599431616814 0 -0.82481599431616814 0.3108416665616005 0 0 0 0 -3.5701881300446985 -0.84007113484307183 0 -0.84007113484307183 0.31346907815702707 0 0 0 0 -6.7330243102605891 -1.0751338380927109 0 -1.0751338380927109 1.420818861269936 0 0 0 0 -0.43967319780088943 -1.5266793388581803 0 -1.5266793388581803 0.12408665847750999 0 0 0 0 -1.8426455580322454 -0.25195091570064854 0 -0.25195091570064854 0.30390661500178107 0 0 0 0 -6.528033980886903 -2.126873338168366 0 -2.126873338168366 -0.06586551280349795 0 0 0 0 -6.8638677251856279 -0.59091732262913865 0 -0.59091732262913865 1.7084370697521081 0 0 0 0 -1.4149278287173752 -1.198266382875083 0 -1.198266382875083 0.57790109007805057 0 0 0 0 -3.0261735347685317 -1.1295967675751513 0 -1.1295967675751513 0.33139730912193954 0 0 0 0 -2.0336064656135946 -1.3378400299273929 0 -1.3378400299273929 0.394438554965995 0 0 0 0 -3.9967342278541764 -0.43679599567360583 0 -0.43679599567360583 0.43498803324115443 0 0 0 0 -3.0861763604958696 -0.79547818162369488 0 -0.79547818162369488 -0.01126836456503999 0 0 0 0 -0.68903099105073684 -0.16901018139356694 0 -0.16901018139356694 0.88456881273860422 0 0 0 0 -2.0849782480436261 -0.44991176983373293 0 -0.44991176983373293 0.76925835699751133 0 0 0 0 -4.7371883915544686 -0.70553205271222552 0 -0.70553205271222552 1.1967327030383785 0 0 0 0 -4.7844840459183615 -0.99498345742705396 0 -0.99498345742705396 1.0384840674548741 0 0 0 0 -5.144785109856457 -0.88359954786301387 0 -0.88359954786301387 1.2440400655544863 0 0 0 0 -4.6400753773414181 -0.91157363449167406 0 -0.91157363449167406 1.0264204460584097 0 0 0 0 -0.23188131748052854 -0.86335589641289845 0 -0.86335589641289845 0.33143600368422321 0 0 0 0 -0.22167725691542728 -3.4498835167423749 0 -3.4498835167423749 -0.5902879512576078 0 0 0 0 -2.8668615370394361 -0.51099127921536081 0 -0.51099127921536081 0.79931755220538392 0 0 0 0 -0.87000692620995324 -0.77790614271145841 0 -0.77790614271145841 1.1766477863970977 0 0 0 0 -2.7863149100747648 -0.6837590803573006 0 -0.6837590803573006 0.61076764405308803 0 0 0 0 -1.5110015763878408 -0.99691232955759634 0 -0.99691232955759634 0.95627641605690872 0 0 0 0 -3.2805484952605184 -0.6101800471121237 0 -0.6101800471121237 1.0941601858253307 0 0 0 0 -4.1550537479415652 0.222427101912956 0 0.222427101912956 1.3030369776993638 0 0 0 0 -1.252597122601431 -0.40841292931227002 0 -0.40841292931227002 1.1315786628678035 0 0 0 0 -1.8837366227910364 -0.5486575617774534 0 -0.5486575617774534 2.0932400857556024 0 0 0 0 -6.7440190388679184 0.16376640265136189 0 0.16376640265136189 2.2479584313498435 0 0 0 0 -2.4127034671472707 0.53593510887056439 0 0.53593510887056439 1.7330403719771477 0 0 0 0 -5.3500237941625528 -0.038711410347787023 0 -0.038711410347787023 0.79867204560787286 0 0 0 0 -0.85667973483749327 -0.29227985799782985 0 -0.29227985799782985 1.5012595967607727 0 0 0 0 -3.0831536757305003 -1.4016121512734685 0 -1.4016121512734685 2.3636142750263218 0 0 0 0 -3.0629216454717607 -0.94938891499156153 0 -0.94938891499156153 3.3873144149345231 0 0 0 0 -4.609579431671591 0.9335627707457661 0 0.9335627707457661 1.1871677795993492 0 0 0 0 -4.0353960212917208 0.4780499380427301 0 0.4780499380427301 1.6094298067373156 0 0 0 0 -3.8377808389341226 -0.38872856484294971 0 -0.38872856484294971 2.7102236118710152 0 0 0 0 -4.3919472012798906 -0.69497570910588991 0 -0.69497570910588991 1.890940312248631 0 0 0 0 -4.5217764457847807 -0.52605456769617831 0 -0.52605456769617831 0.9188987442156531 0 0 0 0 -2.7292420313580124 -0.75249649972691479 0 -0.75249649972691479 0.84938855429645543 0 0 0 0 -4.7091423646525072 -1.2385212044525815 0 -1.2385212044525815 1.0976522994560582 0 0 0 0 -1.7721867060099612 0.098219056199241095 0 0.098219056199241095 2.674997237156731 0 0 0 0 -3.0917013104302882 -0.037691610183600233 0 -0.037691610183600233 1.1139765701735522 0 0 0 0 -4.0979257796336519 -1.4435342286328812 0 -1.4435342286328812 1.4118915658851368 0 0 0 0 -2.0992065128104755 0.64714016280376363 0 0.64714016280376363 0.69906416201757238 0 0 0 0 -2.1348872311682499 0.2358667890102133 0 0.2358667890102133 1.2879261716246844 0 0 0 0 -3.0261581846534682 -0.9692844889520984 0 -0.9692844889520984 0.8468356681005389 0 0 0 0 -3.6674500177740157 -0.6183679239533646 0 -0.6183679239533646 0.73828463962482171 0 0 0 0 -2.9528535559438751 -0.38099517700266006 0 -0.38099517700266006 1.5867190029739504 0 0 0 0 -4.9688611766969188 -1.329827539628468 0 -1.329827539628468 2.2934374531744197 0 0 0 0 -5.286157585465844 -0.55158025884554718 0 -0.55158025884554718 2.7406766334197528 0 0 0 0 -4.9357503179744526 -0.38760300194894626 0 -0.38760300194894626 4.4928101212312868 0 0 0 0 -3.6300492248307279 -0.030948530989728162 0 -0.030948530989728162 1.2616337318349471 0 0 0 0 -1.1757259196073484 0.19927987481465337 0 0.19927987481465337 -0.0089286244693038697 0 0 0 0 -3.791024028101674 -1.9195453749765647 0 -1.9195453749765647 2.7872685705815456 0 0 0 0 -4.3734154847970785 1.8877327832491346 0 1.8877327832491346 1.666293725855212 0 0 0 0 -3.5954747614958933 0.27883154714616087 0 0.27883154714616087 0.88066554952033116 0 0 0 0 -3.6368449492606487 0.12450738425670238 0 0.12450738425670238 2.2578952543790365 0 0 0 0 -3.8763720878205277 0.23660824081827059 0 0.23660824081827059 3.8944660009865402 0 0 0 0 -3.9354879748995231 -0.29341854326726047 0 -0.29341854326726047 0.75781260348323665 0 0 0 0 -4.450933280884783 -0.40424318356599542 0 -0.40424318356599542 3.2480098040330176 0 0 0 0 -5.2097124798601726 -0.96583838453040016 0 -0.96583838453040016 3.7664918646269143 0 0 0 0 -0.99764601283763366 -0.2106748673806571 0 -0.2106748673806571 1.845852277309926 0 0 0 0 -3.7344141769899579 0.66164665215649165 0 0.66164665215649165 1.2124435174815744 0 0 0 0 -5.4402142136787006 -8.6846584224531398e-05 0 -8.6846584224531398e-05 3.0380547728079819 0 0 0 0 -3.5628445181700954 -0.45765380416310109 0 -0.45765380416310109 1.7072984214205462 0 0 0 0 -3.1947295610175388 -0.29427273246636787 0 -0.29427273246636787 1.6522888445222179 0 0 0 0 -3.7529920321649115 -0.38482694937681572 0 -0.38482694937681572 4.007781933644992 0 0 0 0 -2.7834186004856747 2.4470237612908505 0 2.4470237612908505 -0.081209391854023316 0 0 0 0 -3.9065232819875746 0.53770058335271642 0 0.53770058335271642 1.6895304838586149 0 0 0 0 -1.2422109163081245 -0.54452991085690261 0 -0.54452991085690261 0.25894740442464714 0 0 0 0 -1.7632382373849396 -1.112600821957642 0 -1.112600821957642 1.4499388662356338 0 0 0 0 -3.8166249858404626 -0.086030396843682411 0 -0.086030396843682411 2.0678278939557231 0 0 0 0 -5.4036508113385935 0.035129304467375277 0 0.035129304467375277 2.0685835902929739 0 0 0 0 -4.5664036965972628 0.43411361294778317 0 0.43411361294778317 2.1319638809420667 0 0 0 0 -2.9842666222993266 -0.13277162709240642 0 -0.13277162709240642 1.6568815369746228 0 0 0 0 -2.7651049879755725 0.40596082950554901 0 0.40596082950554901 1.5524158359476985 0 0 0 0 -2.3590837555530015 0.0065217490176792126 0 0.0065217490176792126 1.2603800145111563 0 0 0 0 -3.3053323858909209 -0.20668654326856872 0 -0.20668654326856872 3.2178942612093984 0 0 0 0 -3.2543054459947029 -0.14569128500169315 0 -0.14569128500169315 1.7487943952653766 0 0 0 0 -5.4211033935716841 -0.31528272582215777 0 -0.31528272582215777 2.6544584458089844 0 0 0 0 -4.7354457295659813 -0.11853041322513036 0 -0.11853041322513036 1.2461209927564028 0 0 0 0 -5.8836511042400161 0.15844295879418269 0 0.15844295879418269 2.1703841781047686 0 0 0 0 -5.4292942188603774 0.23175076583953569 0 0.23175076583953569 1.5333895826950084 0 0 0 0 -1.0990557533694125 -0.68379108591721405 0 -0.68379108591721405 1.4912723652731232 0 0 0 0 -4.6983851410287798 0.17224103219432507 0 0.17224103219432507 1.7595307184105877 0 0 0 0 -4.5652157424465258 -0.97279667168180595 0 -0.97279667168180595 2.5494476182808512 0 0 0 0 -1.9549161593573672 0.2729063810964707 0 0.2729063810964707 1.924877332724992 0 0 0 0 -7.8527880947617632 -2.6769740778146804 0 -2.6769740778146804 1.3236188130929918 0 0 0 0 -3.7156389993684158 -1.1124926585201687 0 -1.1124926585201687 1.2149967451474548 0 0 0 0 -6.8965761347290027 -0.2610729696065377 0 -0.2610729696065377 2.1361733373959737 0 0 0 0 -4.8577829287442 -1.2404494870481813 0 -1.2404494870481813 2.6048577736341727 0 0 0 0 -4.8909508533806729 -0.10325866778367754 0 -0.10325866778367754 1.2931609718012851 0 0 0 0 -2.3770784800397493 -0.82773928317191903 0 -0.82773928317191903 0.85903313330977316 0 0 0 0 -2.5667084952809507 -0.4497232816513268 0 -0.4497232816513268 2.2805377055139342 0 0 0 0 -1.3453274498478405 -0.30424141033487118 0 -0.30424141033487118 1.7397222339491225 0 0 0 0 -1.6625566799187936 -1.5117808244397777 0 -1.5117808244397777 0.77785396919858329 0 0 0 0 -2.7760551701020404 -1.925274391032449 0 -1.925274391032449 2.130471867808069 0 0 0 0 -1.4827856122610683 -1.9071916457605766 0 -1.9071916457605766 1.5527907563075587 0 0 0 0 -6.4689608826658258 -1.2995058337487033 0 -1.2995058337487033 1.0963457191177859 0 0 0 0 -6.6823542605307011 0.41918146287653357 0 0.41918146287653357 5.737524391443845 0 0 0 0 -7.1842198133635975 -3.4678083884209912 0 -3.4678083884209912 3.0889148635343417 0 0 0 0 -3.7775692432842334 -0.081265864285967382 0 -0.081265864285967382 0.95366554468989762 0 0 0 0 -2.3795180437973613 0.39871687512925291 0 0.39871687512925291 1.0429388394890111 0 0 0 0 -0.97749246227459352 -0.35793336078840809 0 -0.35793336078840809 0.95710334238953365 0 0 0 0 -5.6592495816257724 0.61973070134058617 0 0.61973070134058617 1.5807228062402601 0 0 0 0 0.11480884267075453 -2.6608495826168905 0 -2.6608495826168905 0.23950015696675564 0 0 0 0 -5.5047266967194446 -5.1041241448839969 0 -5.1041241448839969 -5.3654135762430997 0 0 0 0 -4.2219774630539177 2.3330539768319909 0 2.3330539768319909 0.31400835467957222 0 0 0 0 -0.87316573435642386 0.37594023877150207 0 0.37594023877150207 -0.036818354543446841 0 0 0 0 -0.58715134678930347 -0.076421782266697491 0 -0.076421782266697491 0.28697000790204141 0 0 0 0 -4.4487892893357639 -3.3713089130478693 0 -3.3713089130478693 -2.5317358668262386 0 0 0 0 -13.477975611962393 -6.1127075189384641 0 -6.1127075189384641 -2.1116116371570115 0 0 0 0 -2.8487803495164066 -0.062409173208480162 0 -0.062409173208480162 0.29347523101420392 0 0 0 0 -3.2005823586855513 -0.56652960078145043 0 -0.56652960078145043 -0.36798814639212196 0 0 0 0 -7.4246897604625701 -0.25783990354671005 0 -0.25783990354671005 -0.25073949034992893 0 0 0 0 -6.5444124472214753 -4.5946533931296472 0 -4.5946533931296472 -8.3525537220377828 0 0 0 0 -5.5566355008941173 -14.516566124359429 0 -14.516566124359429 -26.54106767383314 0 0 0 0 -10.695696965540265 -8.0843495735711031 0 -8.0843495735711031 -8.258284450445899 0 0 0 0 -13.774432654132397 -17.958055905369463 0 -17.958055905369463 -26.035478069314195 0 0 0 0 -11.641089712185931 -12.50417336319947 0 -12.50417336319947 -12.153929575341408 0 0 0 0 9.6665774815955956 -6.2971443377939522 0 -6.2971443377939522 -14.043657995570584 0 0 0 0 -0.37670732767088877 0.29210866286849324 0 0.29210866286849324 0.05857754015942529 0 0 0 0 1.7111866240782092 -1.252836883758917 0 -1.252836883758917 -0.330713602294054 0 0 0 0 -0.3532271395412323 0.63072057468214382 0 0.63072057468214382 0.89452292635002983 0 0 0 0 -8.5252536574425903 6.1534166041367371 0 6.1534166041367371 -4.3593710313568863 0 0 0 0 -0.32180747147693722 -0.39130646466127406 0 -0.39130646466127406 0.12962629854286534 0 0 0 0 -42.054637104612993 -27.710931220541397 0 -27.710931220541397 -30.337201077918735 0 0 0 0 -26.360841950725444 -26.913936699744113 0 -26.913936699744113 -31.39629890673649 0 0 0 0 -53.951675333073581 -27.554446625177093 0 -27.554446625177093 -20.324511602130144 0 0 0 0 -83.550859251203292 -33.707279697524541 0 -33.707279697524541 -20.310318415480197 0 0 0 0 -53.78037659279471 -26.71592478943802 0 -26.71592478943802 -21.013249404705959 0 0 0 0 -83.816805775708417 -32.63043378977477 0 -32.63043378977477 -5.6956776909194673 0 0 0 0 -107.19443591824484 -42.881154479751643 0 -42.881154479751643 6.867045240620655 0 0 0 0 -69.344567202882899 -54.501917794082146 0 -54.501917794082146 -34.686745394611989 0 0 0 0 -126.32427190366116 -69.398871999092407 0 -69.398871999092407 -3.2734280668048541 0 0 0 0 -20.32802796480064 -32.037234008492874 0 -32.037234008492874 -33.487225037452419 0 0 0 0 -42.901878010575444 -37.465956381515866 0 -37.465956381515866 -33.891149250458966 0 0 0 0 -0.30244513766387371 -0.56058712950954004 0 -0.56058712950954004 -0.30804919291850075 0 0 0 0 -60.977277222702014 -63.910627252782831 0 -63.910627252782831 -43.701630823719597 0 0 0 0 20.392136039127763 41.216837469038722 0 41.216837469038722 -31.443086772669858 0 0 0 0 -64.00119905262909 -115.82069802142723 0 -115.82069802142723 -90.589587090266832 0 0 0 0 -130.00938848816259 -111.53462942202651 0 -111.53462942202651 -87.774093939173326 0 0 0 0 -1.3445551620300265 -0.77042004274338627 0 -0.77042004274338627 -0.4699185518135125 0 0 0 0 -158.86232328594542 47.174397230483436 0 47.174397230483436 -5.6154774802143947 0 0 0 0 -4.2324212744861143 0.24468628605336562 0 0.24468628605336562 -14.652877734408378 0 0 0 0 -3.458367164918613 -1.7242767112245705 0 -1.7242767112245705 -0.86112563246168605 0 0 0 0 -15.39163445912618 -9.7210626423403141 0 -9.7210626423403141 1.8523970074083991 0 0 0 0 -13.487038479532202 -14.865161354163547 0 -14.865161354163547 31.422368323597652 0 0 0 0 -4.2425970259255337 7.4984989146983025 0 7.4984989146983025 -8.4349938765521983 0 0 0 0 -10.783498716738904 10.999686999274104 0 10.999686999274104 7.7061283420814561 0 0 0 0 -1.8496586632069381 0.87649396117820189 0 0.87649396117820189 2.7842626434445794 0 0 0 0 -5.5088101396759157 -0.28624644893534423 0 -0.28624644893534423 3.5951465668488822 0 0 0 0 -6.0996383298252113 0.42091535971087524 0 0.42091535971087524 6.8331296787364408 0 0 0 0 -2.4561424875591911 0.57415614463945985 0 0.57415614463945985 2.2770559406624216 0 0 0 0 -0.9794027087376338 0.69573968972370182 0 0.69573968972370182 2.3534579667289384 0 0 0 0 1.7026915421929516 3.4603729258846556 0 3.4603729258846556 -0.46235044397099045 0 0 0 0 -1.4041472984318375 -0.49051756188186041 0 -0.49051756188186041 0.29956670498705407 0 0 0 0 -24.354196549199287 2.6986289718040695 0 2.6986289718040695 8.2495566641646292 0 0 0 0 -12.27789055622452 -2.5797704821663956 0 -2.5797704821663956 7.537745733029567 0 0 0 0 -5.4095973453681765 6.2301216871154121 0 6.2301216871154121 -0.065255444651739047 0 0 0 0 -32.699260824602334 -12.683226854277052 0 -12.683226854277052 -4.5471760727119204 0 0 0 0 4.7342840830870045 8.8198750939981352 0 8.8198750939981352 0.76218428349938705 0 0 0 0 -25.032778225767288 -6.3133101760288817 0 -6.3133101760288817 -3.8689850583418774 0 0 0 0 -33.157469391082486 -8.6649023837102206 0 -8.6649023837102206 -4.3291270717809791 0 0 0 0 -1.280245561079937 5.3528570135268581 0 5.3528570135268581 0.3811862555268366 0 0 0 0 -2.7364907244318601 -0.25396570374647354 0 -0.25396570374647354 -2.061482808821296 0 0 0 0 3.8120476539697847 2.8046483739218786 0 2.8046483739218786 -1.1977085790667203 0 0 0 0 2.6863803953638126 4.7402000098784143 0 4.7402000098784143 -3.505961136258378 0 0 0 0 6.7837136005568937 8.6919973382682674 0 8.6919973382682674 -0.023862708192524451 0 0 0 0 10.244386309331276 11.81833284775275 0 11.81833284775275 -1.7729548137268978 0 0 0 0 14.099540536819404 11.085692680197582 0 11.085692680197582 -7.233453487232623 0 0 0 0 5.1056738653815046 1.6414473708437693 0 1.6414473708437693 -8.2394987272183187 0 0 0 0 8.7444730740771774 11.487619235298659 0 11.487619235298659 4.4066198583299183 0 0 0 0 -5.0327955202576113 7.115966461364625 0 7.115966461364625 -1.2697000553282773 0 0 0 0 -48.441750028620845 2.6985265081188174 0 2.6985265081188174 -4.2952379586254779 0 0 0 0 4.7898251861232204 2.9910743249593157 0 2.9910743249593157 -2.9974849751722092 0 0 0 0 -79.429824914546771 -28.945331114773808 0 -28.945331114773808 22.835345127216556 0 0 0 0 -30.117176449480212 -3.5304517873902057 0 -3.5304517873902057 2.7076125156779653 0 0 0 0 -37.792741752316033 -16.875585838371364 0 -16.875585838371364 -5.4995060465783183 0 0 0 0 -50.885682861802707 -0.87259256059178369 0 -0.87259256059178369 0.90145491496190289 0 0 0 0 -17.583857596156122 -6.6355249112054935 0 -6.6355249112054935 -9.1710386431951747 0 0 0 0 -16.383676361211656 2.2028299000807081 0 2.2028299000807081 -0.470959414854633 0 0 0 0 -8.6191698219863611 1.0370653905630434 0 1.0370653905630434 1.2022265060316499 0 0 0 0 -7.1811668571754126 9.3761029112257575 0 9.3761029112257575 9.0389899761414654 0 0 0 0 -6.3018598968911874 10.62616059723473 0 10.62616059723473 3.1365331655922546 0 0 0 0 -3.3427585860717954 7.8451357135730859 0 7.8451357135730859 4.4990971162076221 0 0 0 0 -5.9251812440124922 5.2609575226832703 0 5.2609575226832703 0.44658290844739668 0 0 0 0 -1.7437466570090692 9.6041216230019586 0 9.6041216230019586 3.2287959089096603 0 0 0 0 -11.200812630935616 6.1102692980891788 0 6.1102692980891788 0.74070778503283918 0 0 0 0 -8.4353445976230432 7.5625549286967839 0 7.5625549286967839 1.7924288435043536 0 0 0 0 -7.1739767671660957 6.5699798905148725 0 6.5699798905148725 -2.2426556756551008 0 0 0 0 -15.318407682094403 0.48088463416178229 0 0.48088463416178229 2.3122309538442209 0 0 0 0 -17.567237108971312 3.0837262081059862 0 3.0837262081059862 -0.56787869679152436 0 0 0 0 -9.4011442707178503 3.968461705410931 0 3.968461705410931 -1.8722645276623098 0 0 0 0 -7.6432907127818908 -0.30930637072334832 0 -0.30930637072334832 4.7077184746745928 0 0 0 0 -14.246701027797826 2.2974325955243557 0 2.2974325955243557 9.7837283117594467 0 0 0 0 -8.9458940621620968 16.074474689045942 0 16.074474689045942 -27.418078424777264 0 0 0 0 -7.2051067718003772 0.4658375337863081 0 0.4658375337863081 1.3027400769357551 0 0 0 0 -4.4737991179075998 0.75065502637315085 0 0.75065502637315085 2.4673218588640964 0 0 0 0 -5.6591693505279181 0.083056047997061455 0 0.083056047997061455 1.3716497107594137 0 0 0 0 -16.382532815306298 3.8137813884262046 0 3.8137813884262046 8.2419477623210469 0 0 0 0 -16.322513679424446 11.760561503654742 0 11.760561503654742 6.0544030772599626 0 0 0 0 -44.87654043296061 -52.009643709461784 0 -52.009643709461784 114.87772779886654 0 0 0 0 0.65684839487386171 1.8846553406485704 0 1.8846553406485704 -0.028122317860809432 0 0 0 0 -8.3290448452971759 14.292118301601818 0 14.292118301601818 4.3702468923085291 0 0 0 0 0.26693145674107654 11.691066367287362 0 11.691066367287362 4.998806053239889 0 0 0 0 -8.2095062180833338 8.7599851974005531 0 8.7599851974005531 6.6700791398181991 0 0 0 0 -8.0530014592677617 8.5458121586447646 0 8.5458121586447646 1.1339322158378309 0 0 0 0 -6.9785268283285404 6.2029454005946718 0 6.2029454005946718 -0.72493687000104501 0 0 0 0 -7.062249538672404 5.4561846328019783 0 5.4561846328019783 2.4416978354574894 0 0 0 0 -9.0264043124079762 6.0485147943903712 0 6.0485147943903712 2.3292917920787772 0 0 0 0 -3.4534315364305712 1.3267177505532608 0 1.3267177505532608 2.2934063461704812 0 0 0 0 0.48470650157469208 2.6366050258777136 0 2.6366050258777136 0.80079612072626105 0 0 0 0 -5.7238621787419106 0.11545450192699036 0 0.11545450192699036 8.1064781773600316 0 0 0 0 -4.2213826189836254 -1.2986972981228107 0 -1.2986972981228107 6.5973433735665594 0 0 0 0 -2.523660451752221 2.2320465659241648 0 2.2320465659241648 1.1915978766601611 0 0 0 0 -1.0744107884448333 -0.14273123016511846 0 -0.14273123016511846 0.16606929133919673 0 0 0 0 -5.7811856394073402 4.0043063443363849 0 4.0043063443363849 -3.8353372627925069 0 0 0 0 -4.3057601300579336 4.8762847585117584 0 4.8762847585117584 -4.6035145025881548 0 0 0 0 -2.4148323064255237 2.37015039995498 0 2.37015039995498 -1.4301249820277633 0 0 0 0 -3.2729804008977226 -9.2150491945966664 0 -9.2150491945966664 20.466640057193487 0 0 0 0 -4.1541797809750278 1.3576099896296405 0 1.3576099896296405 -4.6913238722723332 0 0 0 0 -0.46337027318987722 -0.49939331737363268 0 -0.49939331737363268 -0.43254651114521997 0 0 0 0 4.0504070946444699 -9.8048087021949293 0 -9.8048087021949293 -2.6352831259339968 0 0 0 0 -7.1425233942118211 3.1781897614467063 0 3.1781897614467063 3.3202523822553687 0 0 0 0 -27.813898773098117 -3.8293527086342607 0 -3.8293527086342607 -3.08951469610804 0 0 0 0 -18.723232069347432 4.1714885741323187 0 4.1714885741323187 -2.6561367983062212 0 0 0 0 -14.966830396628211 -0.77392421087628804 0 -0.77392421087628804 -6.0049290379486706 0 0 0 0 -18.448855160799212 4.1651333971990425 0 4.1651333971990425 -3.4849472943241651 0 0 0 0 -11.286044353599209 6.1106958696722984 0 6.1106958696722984 -4.2504443548111794 0 0 0 0 -10.211033685805887 4.3392637293680139 0 4.3392637293680139 -1.3826768781113827 0 0 0 0 -8.8712177581328433 6.8397514556233148 0 6.8397514556233148 -0.88971541334564108 0 0 0 0 -1.9900619173276937 4.197702200036634 0 4.197702200036634 -9.062167361040899 0 0 0 0 -7.5097383862612332 8.033623471717064 0 8.033623471717064 -8.4953853521204508 0 0 0 0 -15.081937450164332 13.670791688625838 0 13.670791688625838 -11.520801137129881 0 0 0 0 -35.622883701927094 2.7657280132897597 0 2.7657280132897597 -2.47828908816021 0 0 0 0 -30.715833796002698 -0.50677338557049012 0 -0.50677338557049012 -2.9186801021464674 0 0 0 0 -21.085666674320237 -13.146695295741722 0 -13.146695295741722 -4.309914294975016 0 0 0 0 -44.46945070291622 19.889641748481623 0 19.889641748481623 -12.203182087121537 0 0 0 0 -64.233820392028065 -2.6151286149874977 0 -2.6151286149874977 0.40417489177903576 0 0 0 0 -0.15612435816971981 -0.27738474934190727 0 -0.27738474934190727 -0.31456991414040891 0 0 0 0 1.0987112020266068 -41.464340175061082 0 -41.464340175061082 -19.155686367200275 0 0 0 0 -5.1490606842235138 37.787339901136448 0 37.787339901136448 27.146437091390858 0 0 0 0 -7.8706631546929202 -5.6035069458662221 0 -5.6035069458662221 -0.13150216240944701 0 0 0 0 -9.2642000545038172 -3.4166546591534939 0 -3.4166546591534939 0.43461911299311851 0 0 0 0 -25.260147950652026 -9.9903114185217419 0 -9.9903114185217419 3.1872590897036446 0 0 0 0 -8.2337610920867519 2.9455134566943002 0 2.9455134566943002 13.002743601158386 0 0 0 0 -15.536691301129849 11.099202373064202 0 11.099202373064202 2.5239226577252225 0 0 0 0 -24.308702509953946 -7.9707619882460108 0 -7.9707619882460108 -1.1614062974958301 0 0 0 0 -61.11687138718753 15.611154976134941 0 15.611154976134941 10.225699124009509 0 0 0 0 -36.314246082733007 -16.70708182663094 0 -16.70708182663094 2.1478634475500371 0 0 0 0 -24.43079148313609 -12.549390079713945 0 -12.549390079713945 3.1004666432430668 0 0 0 0 -2.0391357242133381 -0.080873093434604471 0 -0.080873093434604471 2.1504368974125896 0 0 0 0 -1.4559225694829365 -4.0997266090544144 0 -4.0997266090544144 -1.802609596755417 0 0 0 0 -3.0663187655554793 -4.7010544750179974 0 -4.7010544750179974 -1.8076576561418705 0 0 0 0 9.2864578393782722 14.585012238921792 0 14.585012238921792 -16.944554676749291 0 0 0 0 -0.30137636070963225 -0.35227169443571382 0 -0.35227169443571382 -0.21174405281781311 0 0 0 0 -2.6678659965873521 -4.0564177913328479 0 -4.0564177913328479 2.2383997694334994 0 0 0 0 -1.6812753422109381 -3.0779150904797348 0 -3.0779150904797348 1.4324319668013175 0 0 0 0 -4.3081848978581547 -3.0969664441803388 0 -3.0969664441803388 1.4431658964143708 0 0 0 0 -0.25954906467450201 -2.3687165693702497 0 -2.3687165693702497 0.07321685812735268 0 0 0 0 -3.3451300937776978 -2.8916988857756678 0 -2.8916988857756678 0.51342474774332914 0 0 0 0 -5.0935459668489784 -1.975075783559646 0 -1.975075783559646 2.4217531715678433 0 0 0 0 -10.045813623089089 -7.3118230040934691 0 -7.3118230040934691 1.5507040965386523 0 0 0 0 -1.4689329424008761 -0.95590360181281575 0 -0.95590360181281575 0.46270227935451747 0 0 0 0 -4.6419613178732106 -2.8078676184256892 0 -2.8078676184256892 3.5520570058792487 0 0 0 0 -7.8533961822627134 -2.379033707930911 0 -2.379033707930911 -0.3728584727787303 0 0 0 0 -8.9329628671512182 -4.2506496356602383 0 -4.2506496356602383 2.9025918964516677 0 0 0 0 -8.9264132364314719 -2.0100975161466295 0 -2.0100975161466295 -0.58218661775975988 0 0 0 0 -8.2087759994192311 -1.1605413357388557 0 -1.1605413357388557 0.52697345418687291 0 0 0 0 -8.2753385214950868 -1.0435119226654024 0 -1.0435119226654024 0.51455535100126326 0 0 0 0 -25.765704560617451 -4.8498079263126783 0 -4.8498079263126783 5.3966492369677326 0 0 0 0 -24.644498620009472 -19.456408974064516 0 -19.456408974064516 -11.493825543339426 0 0 0 0 -0.25236463357749273 -0.085955448384980926 0 -0.085955448384980926 0.20708630639046088 0 0 0 0 -8.2244736514494434 -7.5148437523461098 0 -7.5148437523461098 -5.0204220769579706 0 0 0 0 -21.03265330380691 -5.0640415843401456 0 -5.0640415843401456 8.2558933978975801 0 0 0 0 -2.6240479822621907 -0.47298844339639601 0 -0.47298844339639601 0.23200246234429844 0 0 0 0 -10.617525725342603 -4.1152911377596979 0 -4.1152911377596979 -0.48339560325075581 0 0 0 0 -5.3510968787154685 3.7516425819242798 0 3.7516425819242798 4.6990024436683884 0 0 0 0 -19.648222498904943 -1.9998440974784444 0 -1.9998440974784444 3.9928337768477888 0 0 0 0 -1.790333492872378 5.0481893349484324 0 5.0481893349484324 3.2451974674507085 0 0 0 0 -3.0389533163643137 3.2483463997888862 0 3.2483463997888862 3.2037941327674275 0 0 0 0 -4.3872123353139614 3.7626826083950675 0 3.7626826083950675 3.1480736801713931 0 0 0 0 -0.33918964463555312 1.49764439743808 0 1.49764439743808 2.1867627483506453 0 0 0 0 -3.8705327939842391 1.0596797974165497 0 1.0596797974165497 2.5816172240943729 0 0 0 0 -3.1544031628563971 4.6124021435558547 0 4.6124021435558547 1.7758516837484137 0 0 0 0 -2.5251763749292877 3.7018087690459254 0 3.7018087690459254 0.13984553673185474 0 0 0 0 -2.7450217352507025 4.0854153491045793 0 4.0854153491045793 3.9955969593039526 0 0 0 0 -4.5805857020317777 4.9822617712332491 0 4.9822617712332491 2.8275895405958362 0 0 0 0 -0.77877380754398473 6.4932391256561743 0 6.4932391256561743 2.0774207796868609 0 0 0 0 -2.6501921793751535 6.4964641223688844 0 6.4964641223688844 -0.11213600253432787 0 0 0 0 -2.3466878005874605 5.5683033368727735 0 5.5683033368727735 2.7248186967898391 0 0 0 0 0.56313113809210336 7.7684229726987439 0 7.7684229726987439 1.4425008208904728 0 0 0 0 -9.9236974015393571 -6.6176170007503572 0 -6.6176170007503572 -15.440863851531191 0 0 0 0 -5.0109010762992998 5.6259050127449726 0 5.6259050127449726 1.1804563793210618 0 0 0 0 -40.793505605102837 -37.391679214421046 0 -37.391679214421046 -20.83339017188672 0 0 0 0 -2.8968948502930516 -2.7172962467324364 0 -2.7172962467324364 1.7511983152044763 0 0 0 0 -7.4559026028546214 3.4189651398966987 0 3.4189651398966987 2.2844752642294033 0 0 0 0 -0.13692077179348416 3.779117772894061 0 3.779117772894061 2.1810226271416866 0 0 0 0 -6.6706369760941016 1.4945904146681244 0 1.4945904146681244 6.7668361433719042 0 0 0 0 -25.569265215573978 6.7473513138191947 0 6.7473513138191947 5.6910056808572449 0 0 0 0 -9.6904937984363642 -3.2467041322981061 0 -3.2467041322981061 2.2372762697035711 0 0 0 0 -19.28488764753638 -11.391909748484608 0 -11.391909748484608 11.365642410288132 0 0 0 0 3.3357421949112904 -9.1129665502785144 0 -9.1129665502785144 3.8658787515810218 0 0 0 0 20.595248376204836 18.601280294581656 0 18.601280294581656 -23.823051423137599 0 0 0 0 -12.920068711528302 -0.6162162138085101 0 -0.6162162138085101 3.7988236506017188 0 0 0 0 0.052952051528516897 0.027355956252527847 0 0.027355956252527847 0.17651006056295959 0 0 0 0 1.2612868807773339 6.2358962297292635 0 6.2358962297292635 -1.3113011475632845 0 0 0 0 -6.9665539211955547 11.081993676628642 0 11.081993676628642 -3.367669483699899 0 0 0 0 -25.475905952398648 -16.642254169047735 0 -16.642254169047735 -2.4193093675254289 0 0 0 0 0.036864885618602017 0.2073292586401756 0 0.2073292586401756 -0.30719272785851781 0 0 0 0 4.0001144337220467 5.2488111385560678 0 5.2488111385560678 -5.7731812279200714 0 0 0 0 -25.562270077503058 3.470299373467272 0 3.470299373467272 17.817088554656209 0 0 0 0 -1.1778707965892261 0.047061824500939764 0 0.047061824500939764 0.64824296580573693 0 0 0 0 -6.826783001337617 2.1164222164407036 0 2.1164222164407036 0.95276179959932961 0 0 0 0 -7.0924333070954617 1.0894917267705573 0 1.0894917267705573 3.916486500273578 0 0 0 0 1.307343634955032 8.1534333300395474 0 8.1534333300395474 7.7161262803290924 0 0 0 0 -1.2120214989052585 0.39245141183575249 0 0.39245141183575249 -0.52557732407973801 0 0 0 0 -2.2612130363859251 0.8771980634912655 0 0.8771980634912655 -0.29052448950187681 0 0 0 0 -4.2438380808843323 -0.062490402293132519 0 -0.062490402293132519 -0.044201494345577297 0 0 0 0 -8.6040132012076356 -1.415640550216068 0 -1.415640550216068 2.3873042969672156 0 0 0 0 3.8312188515155867 -3.2517684516378154 0 -3.2517684516378154 -2.3867916617550691 0 0 0 0 -0.070316447371234325 -1.7775399727606462 0 -1.7775399727606462 -0.21632781620818897 0 0 0 0 7.9245516730024974 -0.049618823411023527 0 -0.049618823411023527 -4.2369601081832116 0 0 0 0 -2.1245286254317719 -0.0039319854132582321 0 -0.0039319854132582321 -0.16220741114532311 0 0 0 0 -7.6862330756193842 -2.5481784060090149 0 -2.5481784060090149 3.6708232534678018 0 0 0 0 -17.987581200959539 -10.783030033968842 0 -10.783030033968842 4.310129577030537 0 0 0 0 5.8822652701928746 -66.139049184629243 0 -66.139049184629243 2.3593093952317759 0 0 0 0 -4.7979713913337037 8.9022157199901244 0 8.9022157199901244 -5.2522187706155989 0 0 0 0 -0.45037217883559322 0.18309030473249877 0 0.18309030473249877 -0.11707199908309673 0 0 0 0 -2.751861604014266 -2.5558201245240753 0 -2.5558201245240753 -0.02527311695695289 0 0 0 0 10.168451940322484 15.137545120324489 0 15.137545120324489 -26.211182096438961 0 0 0 0 -0.90096082001400646 -5.2300917693889915 0 -5.2300917693889915 -31.755814554368214 0 0 0 0 -8.129534828875876 2.7218411165347369 0 2.7218411165347369 8.2646923409766124 0 0 0 0 -8.2961916985932476 5.8550421857698893 0 5.8550421857698893 -2.2755394730572265 0 0 0 0 -5.8454778133681273 0.64722186174175711 0 0.64722186174175711 0.33498218509836469 0 0 0 0 -6.2141518737607839 2.0026721474667113 0 2.0026721474667113 2.2123999802918064 0 0 0 0 -14.333247246874635 -5.4856139357877254 0 -5.4856139357877254 3.9302522304594447 0 0 0 0 -1.8446217573679853 0.43751018655714446 0 0.43751018655714446 -0.53561450088816964 0 0 0 0 -3.473153672183706 0.99681617480683116 0 0.99681617480683116 0.81026454564446904 0 0 0 0 -4.860255865716681 4.1860665945604154 0 4.1860665945604154 -1.0826119922164708 0 0 0 0 -4.2007396121152851 2.0586059823494338 0 2.0586059823494338 1.6008179206770023 0 0 0 0 -11.633341164986632 -4.283691060884621 0 -4.283691060884621 3.7864275968873073 0 0 0 0 -3.7490425236254055 0.26903165075727298 0 0.26903165075727298 0.20096222582280471 0 0 0 0 -3.5434982787228364 2.3933654705392229 0 2.3933654705392229 2.8384007632465682 0 0 0 0 -1.4320427324009373 0.079517699270724052 0 0.079517699270724052 -0.20284744125139342 0 0 0 0 -6.1995335031622574 1.1054616654889395 0 1.1054616654889395 -0.0027247316348711637 0 0 0 0 0.45856939693294407 -6.1168043194083737 0 -6.1168043194083737 -32.688896739671748 0 0 0 0 -12.724369793693768 11.210403791639806 0 11.210403791639806 4.964723053269438 0 0 0 0 -15.391153137483343 -3.7316999533068156 0 -3.7316999533068156 5.0904301809637866 0 0 0 0 -1.1918402959962364 1.4747319316234133 0 1.4747319316234133 0.3153061204526888 0 0 0 0 -100.70146110517817 -13.741415726939181 0 -13.741415726939181 107.09404366718252 0 0 0 0 -23.985272887843166 5.603527396095032 0 5.603527396095032 8.0060460390681669 0 0 0 0 -14.911730324598466 -0.55416701359501985 0 -0.55416701359501985 7.4038307687959666 0 0 0 0 1.671714706577518 13.07054589696132 0 13.07054589696132 -0.33301134747517835 0 0 0 0 7.6034418498261402 7.9286121566740846 0 7.9286121566740846 -2.9234843538290818 0 0 0 0 -3.4528462625821703 -6.6885475739405251 0 -6.6885475739405251 5.0365835552841105 0 0 0 0 -15.290009599788391 2.8984513152357607 0 2.8984513152357607 2.8754220681091311 0 0 0 0 -9.7457845693970739 2.1579431797764528 0 2.1579431797764528 1.8838555403745545 0 0 0 0 -17.304747681549998 -0.43198020344395616 0 -0.43198020344395616 3.0787607883702108 0 0 0 0 -16.512770465452377 -0.46931820869635743 0 -0.46931820869635743 -1.1339442492520391 0 0 0 0 -18.001899126064018 -0.31948990098537422 0 -0.31948990098537422 1.7309731053293831 0 0 0 0 0.46882024670467981 -1.9695607701106752 0 -1.9695607701106752 -0.12954120469988761 0 0 0 0 2.5199438450381422 -1.6131290504975624 0 -1.6131290504975624 1.861199600385504 0 0 0 0 8.003270098332905 -2.3714100684395447 0 -2.3714100684395447 -2.7882912762966043 0 0 0 0 -1.5309543405674049 2.7294836858876863 0 2.7294836858876863 2.8806956516872333 0 0 0 0 -5.6936485996793635 0.20160428110688144 0 0.20160428110688144 -2.5974993606901648 0 0 0 0 -18.958294364410904 10.52039363573148 0 10.52039363573148 -1.691016982069641 0 0 0 0 -12.926427284175588 5.3022870336391179 0 5.3022870336391179 2.8018736043150057 0 0 0 0 -16.584847375998834 2.9439983417750142 0 2.9439983417750142 1.456169449013089 0 0 0 0 -13.617772766570852 -0.40309879043621777 0 -0.40309879043621777 -2.3525065284042057 0 0 0 0 -11.522783805390645 -1.2097626993822814 0 -1.2097626993822814 -0.8506736330879221 0 0 0 0 -9.3738118058008695 -1.7579038154708115 0 -1.7579038154708115 -1.1133342208368049 0 0 0 0 -9.2140550562216958 -0.96296808613988105 0 -0.96296808613988105 -0.77881833970627667 0 0 0 0 -9.4542754452796487 -2.0040734296994374 0 -2.0040734296994374 -0.25434353536070375 0 0 0 0 -9.4510563847761659 -1.2732136827087288 0 -1.2732136827087288 -1.329267479579471 0 0 0 0 -8.6745903976880072 -2.0555610723007476 0 -2.0555610723007476 -0.74911785051540392 0 0 0 0 -9.4153718295146973 -2.3605250601829653 0 -2.3605250601829653 0.25858407714599707 0 0 0 0 -9.5153215242480655 -2.0625282978049313 0 -2.0625282978049313 -0.29047940503073733 0 0 0 0 -9.6089278814288264 -2.4149125433636982 0 -2.4149125433636982 0.25616517932280658 0 0 0 0 -9.9275297398526163 -2.6489199565705803 0 -2.6489199565705803 0.086970727473897114 0 0 0 0 -10.095838924898999 -1.987134931654964 0 -1.987134931654964 -0.050041446140539847 0 0 0 0 -9.8190035101633839 -1.3418860145305871 0 -1.3418860145305871 -1.0144249834238508 0 0 0 0 -11.580069946099684 -0.37544089752373111 0 -0.37544089752373111 -0.40897578906958643 0 0 0 0 -9.8440529346305539 -1.607168252285561 0 -1.607168252285561 0.42212530650476765 0 0 0 0 -7.9952055630346877 -1.2056900894848468 0 -1.2056900894848468 0.050031424833264282 0 0 0 0 -1.4351316110935386 0.42860229441266284 0 0.42860229441266284 0.77183699047319854 0 0 0 0 -5.2247961954926723 1.2651042305467683 0 1.2651042305467683 1.0994868859640334 0 0 0 0 -2.8200486493396966 0.50331579701108353 0 0.50331579701108353 0.78321193635065356 0 0 0 0 -2.7272601676867829 -0.19298514471041628 0 -0.19298514471041628 1.4049708492547544 0 0 0 0 -10.096688925513831 -1.9867493286527065 0 -1.9867493286527065 1.1675744155156735 0 0 0 0 -3.0729861337501276 1.2406823873364807 0 1.2406823873364807 0.88125866468386271 0 0 0 0 -10.142341907994705 -2.5201084439522106 0 -2.5201084439522106 0.47376209479205045 0 0 0 0 -7.3371682282863731 0.12726284764409002 0 0.12726284764409002 1.6870723695221841 0 0 0 0 -2.8052292613357253 -1.5180001950217203 0 -1.5180001950217203 0.79994560731137376 0 0 0 0 -7.8805680044559807 -2.3467361240080287 0 -2.3467361240080287 0.57157430696943967 0 0 0 0 -4.3863791489766299 3.6932915637700949 0 3.6932915637700949 4.4458693755359491 0 0 0 0 -3.1662395851355711 1.5327509003524025 0 1.5327509003524025 1.8360013024515514 0 0 0 0 -6.5797557935147779 2.6748468752898589 0 2.6748468752898589 0.029870289840516762 0 0 0 0 -8.2888204398223024 0.13432660047226364 0 0.13432660047226364 2.1480786683206361 0 0 0 0 -6.4260337967552914 1.2619227595913074 0 1.2619227595913074 3.8190641637213361 0 0 0 0 -4.5496432631119745 1.1108469033692039 0 1.1108469033692039 0.3273284188542227 0 0 0 0 -2.9353480309182487 1.0998208509605831 0 1.0998208509605831 0.70136975939880131 0 0 0 0 -7.7103026257582314 3.9450967303735354 0 3.9450967303735354 6.744525669195724 0 0 0 0 -4.587606904427048 3.4729381682761868 0 3.4729381682761868 -2.6914466374149129 0 0 0 0 -3.1417721654161141 -0.061502568012443248 0 -0.061502568012443248 -3.991665311663013 0 0 0 0 0.10678819579521459 0.11110646311095707 0 0.11110646311095707 -0.19912948697397481 0 0 0 0 -19.808129568451477 7.308027718110921 0 7.308027718110921 18.583063053526871 0 0 0 0 -21.9958647394742 -11.998220026569001 0 -11.998220026569001 -1.4888508699911753 0 0 0 0 -4.3426382377110713 1.7818231014392012 0 1.7818231014392012 0.34472300135001888 0 0 0 0 -3.6067625455307279 0.29302299878513338 0 0.29302299878513338 0.69832487166431534 0 0 0 0 -5.5128091751012107 0.9325070491133971 0 0.9325070491133971 1.0641001019362193 0 0 0 0 -0.83539537130807773 0.86050846605251152 0 0.86050846605251152 0.90579207031244291 0 0 0 0 -2.269471640008895 1.4767962785081039 0 1.4767962785081039 1.2388466589056932 0 0 0 0 0.55993421803604804 0.8202663273054398 0 0.8202663273054398 -0.22258021254160654 0 0 0 0 -10.529428952886519 0.3710515973319275 0 0.3710515973319275 0.39908026953361286 0 0 0 0 -9.6636471692982013 -1.5753075283620319 0 -1.5753075283620319 -0.014053211197847304 0 0 0 0 -1.7024138256051167 1.575389737513273 0 1.575389737513273 0.83226271563187026 0 0 0 0 -11.599340176675469 -4.6409999879537054 0 -4.6409999879537054 -0.81838081607475033 0 0 0 0 -9.6822076474891219 -0.40409795890172973 0 -0.40409795890172973 -1.3203615478541906 0 0 0 0 -9.60886412566947 -0.94710568423445807 0 -0.94710568423445807 -0.61329067685414884 0 0 0 0 -9.2858781239992823 -0.96016158036547949 0 -0.96016158036547949 -1.242954037185811 0 0 0 0 -9.1484122823867438 -1.4961862197784797 0 -1.4961862197784797 -0.65497414116794062 0 0 0 0 -9.6714036036983089 -1.3560385968261244 0 -1.3560385968261244 1.023449550144619 0 0 0 0 -8.8804395761981141 -2.4676867428468654 0 -2.4676867428468654 0.18122310936240638 0 0 0 0 -4.6941578723599378 -0.64946218996357175 0 -0.64946218996357175 0.62230998293466655 0 0 0 0 -0.94737856544106336 -0.34512873051910731 0 -0.34512873051910731 -0.096864819116324163 0 0 0 0 -8.4104349447079585 -2.0421729346890061 0 -2.0421729346890061 1.3970915205168239 0 0 0 0 -5.6478166528249858 -1.0670375252983604 0 -1.0670375252983604 1.6564956124434502 0 0 0 0 -8.0403824876902945 -2.1944884990487594 0 -2.1944884990487594 0.11316754907875293 0 0 0 0 -8.6038894265693671 -0.91423247526267915 0 -0.91423247526267915 -0.033426173026782635 0 0 0 0 -8.8566679506729997 -1.1498281435239051 0 -1.1498281435239051 -0.65237741106091107 0 0 0 0 -4.7375367872264178 -0.81474745787218694 0 -0.81474745787218694 0.31552952735790996 0 0 0 0 -1.9786541321954232 0.48514312545362159 0 0.48514312545362159 0.13103039612225087 0 0 0 0 -4.1274512166801287 -0.74625278258749006 0 -0.74625278258749006 0.13840978952734417 0 0 0 0 -4.7218000885924525 -1.2632326893877206 0 -1.2632326893877206 -0.064115927190474986 0 0 0 0 -8.8346025007358548 -2.1321308241459178 0 -2.1321308241459178 -0.38500822750745556 0 0 0 0 -8.7968447284692957 -2.3560311843726822 0 -2.3560311843726822 -0.17902966936412668 0 0 0 0 -2.6775118750110778 1.1200841705517632 0 1.1200841705517632 0.26860991835189907 0 0 0 0 -8.9073916696252127 -2.255437461706947 0 -2.255437461706947 -0.062089854583291526 0 0 0 0 -2.2377022032862364 1.1940467402142581 0 1.1940467402142581 1.2335129284805606 0 0 0 0 -3.0042336536196927 -0.096439283539845988 0 -0.096439283539845988 0.51473232041830985 0 0 0 0 -5.1242446392698184 0.57991911584171874 0 0.57991911584171874 1.4695116429420274 0 0 0 0 -3.0685188716288394 0.00014013120195954798 0 0.00014013120195954798 1.2644396822108064 0 0 0 0 -4.2514302587460406 0.73632094857720176 0 0.73632094857720176 0.13307438171827357 0 0 0 0 -2.9731524182111571 0.50647894548201133 0 0.50647894548201133 -0.36242536243338463 0 0 0 0 -5.4255136979863892 1.6317303992264058 0 1.6317303992264058 0.45098841592673011 0 0 0 0 4.7892003783845212 -2.1236083725189019 0 -2.1236083725189019 -26.395239362682901 0 0 0 0 0.31630797720607262 0.66173982161661016 0 0.66173982161661016 0.121488124719631 0 0 0 0 -8.8901543798929197 9.2250547779762258 0 9.2250547779762258 4.9689272747692144 0 0 0 0 -0.16178364800959777 0.56428718144662682 0 0.56428718144662682 -0.44895072858159069 0 0 0 0 2.045023678556845 -0.47756206010697966 0 -0.47756206010697966 -1.5256018836046223 0 0 0 0 -6.3976327752188809 1.8956209117664145 0 1.8956209117664145 7.0601978209866019 0 0 0 0 -1.9270216813342813 -1.0361027208271913 0 -1.0361027208271913 13.629721230397035 0 0 0 0 -0.58060216205130999 0.062322760077211825 0 0.062322760077211825 0.078742392077175358 0 0 0 0 7.1443289869434921 -5.9503595892381016 0 -5.9503595892381016 1.5543295177027261 0 0 0 0 -17.682724694593162 15.755994811321909 0 15.755994811321909 18.477888550339948 0 0 0 0 -11.41024461219331 -14.215959416303726 0 -14.215959416303726 7.4999001637900982 0 0 0 0 -0.21079811181443375 -0.043042602035765043 0 -0.043042602035765043 -0.009610643589260854 0 0 0 0 -5.3423987930091243 17.831013698303646 0 17.831013698303646 -14.981481047427355 0 0 0 0 -0.46941369111664244 -0.29954921642812016 0 -0.29954921642812016 5.3192382624469301e-06 0 0 0 0 -2.3100529167803643 -0.23018129855095637 0 -0.23018129855095637 0.31113704282967369 0 0 0 0 -3.83019571181012 -2.5021920111177609 0 -2.5021920111177609 0.15824790314122339 0 0 0 0 -5.5764666071045212 -2.8475418368398238 0 -2.8475418368398238 5.0799222373864197 0 0 0 0 -0.71814887604237754 -0.12517881708827794 0 -0.12517881708827794 -0.018707996943315208 0 0 0 0 -6.0570180484091907 3.6965058335817274 0 3.6965058335817274 -0.74984541333634525 0 0 0 0 -0.86913934999847697 0.15707408350521845 0 0.15707408350521845 0.065991146601828699 0 0 0 0 -1.5420257533587574 -0.33677204737535965 0 -0.33677204737535965 0.00026911018382448371 0 0 0 0 -0.30386735059093439 -0.09738970649901546 0 -0.09738970649901546 -0.032600167088241906 0 0 0 0 -20.485570764185468 -1.3101073976616533 0 -1.3101073976616533 -1.4993899854390662 0 0 0 0 -34.819163355903584 -2.9832799017888334 0 -2.9832799017888334 2.1516428043581897 0 0 0 0 0.048096829137138641 -0.10551243026168677 0 -0.10551243026168677 -0.081840124204993814 0 0 0 0 13.831120056509462 -1.1861341361680999 0 -1.1861341361680999 -3.9658358544452028 0 0 0 0 -10.944768471626958 -11.047117304896524 0 -11.047117304896524 2.6087625117658035 0 0 0 0 9.6480880789395087 -0.47240947572776193 0 -0.47240947572776193 -0.52560892637609413 0 0 0 0 0.46340041726911974 -2.0515517266269967 0 -2.0515517266269967 0.019045218637524508 0 0 0 0 -26.397193318775635 -2.534295554105185 0 -2.534295554105185 2.5715746422199288 0 0 0 0 -10.045433882180077 0.10312246387097446 0 0.10312246387097446 -0.23719924295571104 0 0 0 0 -5.9247197653348849 7.6465465487402327 0 7.6465465487402327 -2.352621804153074 0 0 0 0 -6.8597098796744831 7.2837572164120274 0 7.2837572164120274 0.89159336710241632 0 0 0 0 -5.7452740303497194 4.1666372236409597 0 4.1666372236409597 -1.9273359187513677 0 0 0 0 -11.927207156184522 5.1407999429450371 0 5.1407999429450371 -0.1831999653026628 0 0 0 0 -21.477343682929131 3.526406393419343 0 3.526406393419343 2.4892680899776707 0 0 0 0 -12.065558295420487 4.1620018126128571 0 4.1620018126128571 -2.0249809373408709 0 0 0 0 -25.637348209835181 2.0446159233049954 0 2.0446159233049954 0.58394441052476509 0 0 0 0 -26.678928815501422 5.4313948573149204 0 5.4313948573149204 -0.28840380771518426 0 0 0 0 -6.7207479204735137 11.015496693528583 0 11.015496693528583 -9.3439030735965432 0 0 0 0 -3.3916321110373246 -0.19552737732178649 0 -0.19552737732178649 0.69834157245272976 0 0 0 0 -0.85238325401325454 -0.13749001777177305 0 -0.13749001777177305 -0.096615202755726409 0 0 0 0 -1.5795095718949597 0.32170034192168728 0 0.32170034192168728 -5.9075301182100723 0 0 0 0 -1.2242651040141936 -10.194838293829465 0 -10.194838293829465 -0.055335149584089596 0 0 0 0 -6.6297209740441758 -8.7901732935233774 0 -8.7901732935233774 12.709845012107909 0 0 0 0 4.1879862477562142 -4.3605751492342 0 -4.3605751492342 4.9099738449043766 0 0 0 0 4.1457149122345811 -6.0146872823727531 0 -6.0146872823727531 0.033047284948134116 0 0 0 0 -49.996308443362068 19.53469004582162 0 19.53469004582162 -7.1512051980314766 0 0 0 0 -0.33022317227690223 -0.072614967800179286 0 -0.072614967800179286 0.0080474857021549592 0 0 0 0 -27.534550519649201 15.486633220398419 0 15.486633220398419 -8.541901000986396 0 0 0 0 -39.870728594423781 -7.832066022257429 0 -7.832066022257429 -3.4675359416383174 0 0 0 0 -83.742878405486408 -33.65641882252509 0 -33.65641882252509 -0.024262084604851745 0 0 0 0 -39.442360764397108 -0.22528771923086843 0 -0.22528771923086843 -0.19796017635223961 0 0 0 0 -0.85572361258624596 -0.14388719187176591 0 -0.14388719187176591 0.095192397985227842 0 0 0 0 -50.596213359080139 3.7763085050600296 0 3.7763085050600296 1.7439509776895079 0 0 0 0 -48.38925396974264 -4.9582514517143981 0 -4.9582514517143981 -1.1871135366476153 0 0 0 0 -33.371409122624755 -4.1662140089783275 0 -4.1662140089783275 1.7809052787559665 0 0 0 0 -42.785571409425756 4.860022196278436 0 4.860022196278436 1.8015508062050074 0 0 0 0 0.096006139727125905 -2.1001902155417866 0 -2.1001902155417866 0.12000294146036594 0 0 0 0 -36.232276361894037 -4.3430875246176583 0 -4.3430875246176583 -1.1613381063822272 0 0 0 0 -0.0064220780992698678 -0.5606292934121484 0 -0.5606292934121484 -0.033792057526446671 0 0 0 0 -46.091038402410049 -12.464371263746003 0 -12.464371263746003 -1.7372554356795722 0 0 0 0 -4.8886774236725614 -4.659148077248533 0 -4.659148077248533 7.8722737640794236 0 0 0 0 -4.1473700058547038 -0.16599328338747837 0 -0.16599328338747837 0.15554999397401945 0 0 0 0 1.6027769792790423 -6.6424266197294042 0 -6.6424266197294042 4.0621246767404955 0 0 0 0 -3.7342511246934009 -0.3068111431163234 0 -0.3068111431163234 -0.0033392667155422219 0 0 0 0 -3.9211390740088063 -0.45877925657125279 0 -0.45877925657125279 0.25397129010521508 0 0 0 0 -3.9375776302949816 -0.28305466683956199 0 -0.28305466683956199 0.51189311101892665 0 0 0 0 -3.7507258091227413 -0.13139478534543511 0 -0.13139478534543511 0.2547630889095574 0 0 0 0 -3.849130706543292 0.26540641279166566 0 0.26540641279166566 1.0206449875821713 0 0 0 0 -1.5823631271287013 1.3777606495260262 0 1.3777606495260262 0.62180381938643747 0 0 0 0 -2.9980140894367651 0.99520565908723246 0 0.99520565908723246 1.628382671006211 0 0 0 0 -2.4320274439378409 0.64855654352421099 0 0.64855654352421099 0.013780200462850823 0 0 0 0 -7.3049699435305229 -9.1030136536830426 0 -9.1030136536830426 29.485996921169615 0 0 0 0 2.9285427438790066 -13.005365535262177 0 -13.005365535262177 9.1494675454591547 0 0 0 0 -3.7235578793108317 0.090438979091772731 0 0.090438979091772731 0.017170496995006741 0 0 0 0 -0.56627978023061587 -2.1891278377042909 0 -2.1891278377042909 10.237402505457339 0 0 0 0 -0.79796081622953352 -7.8066184612419391 0 -7.8066184612419391 0.13911501796482639 0 0 0 0 -5.7333846464316593 -13.484206698712512 0 -13.484206698712512 2.2654408062429425 0 0 0 0 -0.49784108060521248 -10.655653524358357 0 -10.655653524358357 -1.3433857522617672 0 0 0 0 -2.7317918878361525 -11.823776459418468 0 -11.823776459418468 8.0119717840155502 0 0 0 0 -3.781681900311014 -8.0497890600303137 0 -8.0497890600303137 0.16367643336059245 0 0 0 0 -2.2001721554793221 -5.3838834678624892 0 -5.3838834678624892 3.2901828437899212 0 0 0 0 0.76436601755267475 -12.703711803915596 0 -12.703711803915596 -0.53060338117589367 0 0 0 0 -11.355224721164632 -8.5519425078264746 0 -8.5519425078264746 2.1994798781010303 0 0 0 0 -0.85730421657535771 -9.2031927675567431 0 -9.2031927675567431 -1.8743966653026334 0 0 0 0 -0.81102442685914866 -10.696197567116528 0 -10.696197567116528 -6.6436616359042091 0 0 0 0 -10.538373870166481 -10.68041185467132 0 -10.68041185467132 -5.7292941481898083 0 0 0 0 5.7532969137100736 -2.4066186034188206 0 -2.4066186034188206 -3.6051451112131474 0 0 0 0 -4.4218047922777259 -7.1600524507990997 0 -7.1600524507990997 -4.0792794295165891 0 0 0 0 -42.895907175972752 7.7658756571768919 0 7.7658756571768919 1.9338522847202455 0 0 0 0 -76.558205037716107 11.087653063891196 0 11.087653063891196 1.9863125400746346 0 0 0 0 -10.532053990509667 -10.492667264679298 0 -10.492667264679298 -7.0100905149026644 0 0 0 0 -36.640422996515554 -6.1790813744482591 0 -6.1790813744482591 -6.3024135486550108 0 0 0 0 -10.154121682920845 -2.5694934759054946 0 -2.5694934759054946 -10.784528479632741 0 0 0 0 -29.54498471298848 10.725973921545204 0 10.725973921545204 -6.9794587787692706 0 0 0 0 -11.599027897693304 -8.6087269944443889 0 -8.6087269944443889 2.4966512028904333 0 0 0 0 -36.353000008256913 36.089636884324008 0 36.089636884324008 -15.568803448056045 0 0 0 0 15.223518664342009 0.70713507343266357 0 0.70713507343266357 -5.9709633316493154 0 0 0 0 -25.010033489576927 -9.4747025030167453 0 -9.4747025030167453 51.240055952825074 0 0 0 0 -3.1025017653422395 0.15747054555159884 0 0.15747054555159884 0.058806395877414305 0 0 0 0 -5.7277512083655893 6.8550976771783176 0 6.8550976771783176 19.426257493505336 0 0 0 0 2.5749374422630353 12.565519975259186 0 12.565519975259186 20.724851276657461 0 0 0 0 -2.4014141375337203 4.3838885216596681 0 4.3838885216596681 11.583096391536717 0 0 0 0 10.301203812878157 9.9053874705751692 0 9.9053874705751692 -0.019196067336330072 0 0 0 0 15.267754527358193 18.076963441542663 0 18.076963441542663 9.1280805513714345 0 0 0 0 -84.729630681569688 -0.11541429216928345 0 -0.11541429216928345 0.02176164895152452 0 0 0 0 -98.178609473099641 -36.433653412399778 0 -36.433653412399778 9.7049307947468542 0 0 0 0 23.28923404493662 -15.31392951243601 0 -15.31392951243601 -22.204748465560378 0 0 0 0 -223.92329517312101 60.920241945505587 0 60.920241945505587 -44.623921642537567 0 0 0 0 -206.01848406879435 -21.290520017222025 0 -21.290520017222025 31.97237222690984 0 0 0 0 -214.59614982831044 55.819865939657035 0 55.819865939657035 26.002947150268596 0 0 0 0 -205.35657279560291 -32.051402418385194 0 -32.051402418385194 -18.162433596608935 0 0 0 0 -1.3591075177328378 0.15832190772745597 0 0.15832190772745597 -0.009429512535893636 0 0 0 0 -89.687855700381988 85.692253801034241 0 85.692253801034241 -35.895721056623827 0 0 0 0 -134.95029825388701 33.264678087457284 0 33.264678087457284 -23.014301826479745 0 0 0 0 -111.5422347764852 -2.6062568570330189 0 -2.6062568570330189 -0.0070174217138525286 0 0 0 0 -162.31757137691602 6.6386726129642728 0 6.6386726129642728 0.00064922277247102841 0 0 0 0 -145.67975092067536 -14.802420861418586 0 -14.802420861418586 -7.9910264481125104 0 0 0 0 -151.60618430611726 9.9062877228260611 0 9.9062877228260611 13.055480513137098 0 0 0 0 -113.01287355696405 8.9212438890565178 0 8.9212438890565178 6.9814973807477543 0 0 0 0 -112.89687490703379 0.37697925257184361 0 0.37697925257184361 7.2946605556510207 0 0 0 0 -143.15992798536672 12.60319384165174 0 12.60319384165174 25.638294206630547 0 0 0 0 -141.6857053340409 1.4886805750429914 0 1.4886805750429914 17.320220342118631 0 0 0 0 -156.4859924341763 1.247272657849976 0 1.247272657849976 16.368329197805167 0 0 0 0 -153.12230289546278 12.680005948779382 0 12.680005948779382 30.559657918636987 0 0 0 0 -128.45217180850159 13.737906435269821 0 13.737906435269821 20.146374153470106 0 0 0 0 -112.44673960145337 15.932668221251419 0 15.932668221251419 19.156039214789132 0 0 0 0 -104.54503279248547 3.8334053972997104 0 3.8334053972997104 12.137789067090495 0 0 0 0 -94.530046289786696 32.204017992404886 0 32.204017992404886 6.5320659124537599 0 0 0 0 -97.113033130355689 27.091862400077247 0 27.091862400077247 13.960481208300251 0 0 0 0 -141.03844069314437 55.557889108985322 0 55.557889108985322 25.671070294829605 0 0 0 0 -175.22689608304609 15.791815047462059 0 15.791815047462059 34.135944112268078 0 0 0 0 -146.01022152478981 22.986943134372893 0 22.986943134372893 34.933362802589684 0 0 0 0 -137.45605906219134 16.682537091913503 0 16.682537091913503 26.2420108162421 0 0 0 0 -127.88717676379565 25.319985005251468 0 25.319985005251468 17.233984141669396 0 0 0 0 -80.970702837981662 8.3137984367797344 0 8.3137984367797344 12.285657707152382 0 0 0 0 -124.64636159290785 1.1276070060256913 0 1.1276070060256913 13.84210919609086 0 0 0 0 -92.219820670274203 -0.21037465787935616 0 -0.21037465787935616 9.6133229281608408 0 0 0 0 -142.5719694771924 11.332380496231224 0 11.332380496231224 26.152479010025843 0 0 0 0 -131.00146855783532 18.276550103839725 0 18.276550103839725 26.135341381964086 0 0 0 0 -166.9846308659944 4.0565096521345367 0 4.0565096521345367 13.745872222308321 0 0 0 0 -162.44197104017803 12.601698785690573 0 12.601698785690573 26.218173166608096 0 0 0 0 -181.36555418828721 -15.139011210348713 0 -15.139011210348713 6.861445293014981 0 0 0 0 -133.25291488551193 -7.0554800012074566 0 -7.0554800012074566 11.454672180934836 0 0 0 0 -132.73325532191848 -7.4093910568023489 0 -7.4093910568023489 5.8121735981882239 0 0 0 0 -132.31375765617463 32.519159512553202 0 32.519159512553202 12.392853409848897 0 0 0 0 -92.946773644127461 28.794807231689106 0 28.794807231689106 12.264215517104049 0 0 0 0 -151.95120973313533 15.280485300380633 0 15.280485300380633 32.436346402379513 0 0 0 0 -142.80520073630214 25.036818839529801 0 25.036818839529801 23.01263689996307 0 0 0 0 -131.22995313219144 23.677520821230701 0 23.677520821230701 20.523091936276387 0 0 0 0 -151.14068235732339 26.434134740118878 0 26.434134740118878 -2.9789921392006136 0 0 0 0 -165.46170337123658 37.220552005964777 0 37.220552005964777 16.937850959577816 0 0 0 0 -79.953075458573949 42.654853700207497 0 42.654853700207497 -17.727211933741046 0 0 0 0 -1.9248192170634439 -0.76423696527737128 0 -0.76423696527737128 -0.47475563821919331 0 0 0 0 -119.90774355295889 86.42804961070928 0 86.42804961070928 -57.594794077914969 0 0 0 0 -167.64266135793696 109.05266630588855 0 109.05266630588855 -60.824194672825172 0 0 0 0 -228.91441596969526 59.460685138672886 0 59.460685138672886 -11.883053807152763 0 0 0 0 -199.36417714851723 20.446004107212644 0 20.446004107212644 2.4092742977539956 0 0 0 0 -77.097007395810579 233.79180696416043 0 233.79180696416043 -17.380885654614129 0 0 0 0 -1.2119440582671608 0.45917892255231507 0 0.45917892255231507 0.45048473589871496 0 0 0 0 -24.498788313925616 -64.65004437014619 0 -64.65004437014619 17.166780024664376 0 0 0 0 0.3876743302516843 -16.310808551688467 0 -16.310808551688467 -15.318031703440369 0 0 0 0 -114.12804377542398 -12.323529563762946 0 -12.323529563762946 -8.4471708457733143 0 0 0 0 -184.5791452102967 -23.349770077154801 0 -23.349770077154801 -14.965916245180949 0 0 0 0 -118.31511776665047 -22.140976063752575 0 -22.140976063752575 -26.953915270029938 0 0 0 0 -164.57168131819708 15.490987196689048 0 15.490987196689048 -2.9771129223012736 0 0 0 0 -218.041627668008 0.25929632053066598 0 0.25929632053066598 -7.2425235073753527 0 0 0 0 -166.50243042838883 -6.8614622929024733 0 -6.8614622929024733 -90.162460205731463 0 0 0 0 -373.56205381415589 -74.542660841018389 0 -74.542660841018389 1.0186492135649701 0 0 0 0 -348.6106234914314 47.063600050734607 0 47.063600050734607 -0.35681064446555411 0 0 0 0 -242.44543573217743 65.716736194267412 0 65.716736194267412 -76.242276195388968 0 0 0 0 -202.0187918553238 -13.644116602943427 0 -13.644116602943427 -15.797044380281974 0 0 0 0 -217.42832164890206 34.685689947048559 0 34.685689947048559 -22.75058471356575 0 0 0 0 -140.89237434248844 4.3948745402499014 0 4.3948745402499014 -53.8978257598244 0 0 0 0 -120.87393074175907 -34.126001191881215 0 -34.126001191881215 -15.528658087420808 0 0 0 0 -107.52365917489078 0.76273059768118401 0 0.76273059768118401 -38.567873475312865 0 0 0 0 -80.358073888357467 -38.090908405933078 0 -38.090908405933078 -8.6255511792030575 0 0 0 0 -52.941181262980535 -0.22841916025504361 0 -0.22841916025504361 -11.979840796717383 0 0 0 0 -3.4483521847359953 16.444719669707013 0 16.444719669707013 2.3229058142464396 0 0 0 0 3.5048151173104998 -1.4314311277202592 0 -1.4314311277202592 -22.834750727744336 0 0 0 0 -9.8011793457949352 -21.940913991489801 0 -21.940913991489801 -19.821955621536745 0 0 0 0 -32.217498372203409 -4.5196108212346395 0 -4.5196108212346395 -7.0074830200471752 0 0 0 0 -35.219522695195337 -27.212888821991044 0 -27.212888821991044 -33.957487282212185 0 0 0 0 -79.364961363196926 -5.0711607843899174 0 -5.0711607843899174 -26.22593244064899 0 0 0 0 -59.755476377349623 -33.854054592996846 0 -33.854054592996846 -32.697624574492032 0 0 0 0 -57.252031009404163 -11.792151669577805 0 -11.792151669577805 -5.5165599492771662 0 0 0 0 -17.841447489325219 -20.496092405801335 0 -20.496092405801335 -33.292002227284627 0 0 0 0 -3.1170759577544231 3.9761325191574883 0 3.9761325191574883 -11.451027709643199 0 0 0 0 -14.611899546194763 -17.837882285125744 0 -17.837882285125744 -18.905818432099238 0 0 0 0 -11.368150833630352 6.0426880324657759 0 6.0426880324657759 -6.7157330053012458 0 0 0 0 8.3326824320556625 -3.2119714451747257 0 -3.2119714451747257 -15.03758755815204 0 0 0 0 11.743493052370468 21.158889769529793 0 21.158889769529793 1.7943693649076522 0 0 0 0 -1.8974318961154495 5.2095339628829436 0 5.2095339628829436 8.5797775261817151 0 0 0 0 24.685582706659261 8.8235631386594662 0 8.8235631386594662 13.540040412758742 0 0 0 0 -0.70382148993220994 0.13408091149974055 0 0.13408091149974055 0.23587474239470652 0 0 0 0 -7.7225411029016868 -2.1591520975773051 0 -2.1591520975773051 3.4632647436183106 0 0 0 0 29.653046350278601 24.141506127352699 0 24.141506127352699 1.9921745524650873 0 0 0 0 -5.5134161410533125 5.2504688331454759 0 5.2504688331454759 3.8204767417095695 0 0 0 0 7.8187181540287156 12.186106332198994 0 12.186106332198994 18.436628126289179 0 0 0 0 -1.567278635011462 0.48968236347323568 0 0.48968236347323568 -0.20158483942844541 0 0 0 0 -2.5844334356150398 0.81271983030610251 0 0.81271983030610251 -0.46802231044181902 0 0 0 0 -2.0735964731825902 0.73598582234753351 0 0.73598582234753351 -0.2325056451750811 0 0 0 0 -8.212210401219636 5.098772256180041 0 5.098772256180041 13.281611710597673 0 0 0 0 -3.0774143068192643 -1.8980419474883092 0 -1.8980419474883092 -3.5672399768712921 0 0 0 0 -6.4912662599053874 -3.5001575295172529 0 -3.5001575295172529 6.2818408947823059 0 0 0 0 2.9538054796466895 11.180797034612567 0 11.180797034612567 -11.171819097059597 0 0 0 0 -5.4476960956199036 -4.6974429213613291 0 -4.6974429213613291 0.018698192356453092 0 0 0 0 0.029882669604225143 -0.050900169126816053 0 -0.050900169126816053 -0.097833806019207215 0 0 0 0 4.7507855301528252 16.057698902316275 0 16.057698902316275 -15.844600059080449 0 0 0 0 -8.586942600488328 -9.1699740040324684 0 -9.1699740040324684 0.2007055182740487 0 0 0 0 4.8593612065560592 -4.883166922783829 0 -4.883166922783829 -8.1683907820544164 0 0 0 0 31.312949432408004 20.154347567719626 0 20.154347567719626 -11.632418922250736 0 0 0 0 0.055921445132653957 0.021641066384944452 0 0.021641066384944452 -0.070713237974433296 0 0 0 0 26.798466762069438 -0.0058717304631272782 0 -0.0058717304631272782 -12.70311883113925 0 0 0 0 -0.69072622563908226 -0.098170108110821275 0 -0.098170108110821275 -5.9000394133834106 0 0 0 0 4.6609559652260941 1.1622415564058883 0 1.1622415564058883 -17.760302135780762 0 0 0 0 7.210367754662002 -1.5759322256172936 0 -1.5759322256172936 -15.014381987987463 0 0 0 0 6.6964249283736876 12.921556641420203 0 12.921556641420203 -2.0523033210535004 0 0 0 0 1.525748221349204 5.9934337266904549 0 5.9934337266904549 -9.764546398611003 0 0 0 0 -1.8442387976756436 -2.5090515820246253 0 -2.5090515820246253 1.2490564342246557 0 0 0 0 1.4381771891648896 6.6629952246747877 0 6.6629952246747877 11.353766626545507 0 0 0 0 14.607957876399269 -4.5498052581923929 0 -4.5498052581923929 -8.2246136483366854 0 0 0 0 0.066733646897120025 -0.11433847674557285 0 -0.11433847674557285 -0.1614878063058528 0 0 0 0 7.4206843621504959 -9.1706418530719134 0 -9.1706418530719134 1.284282043124108 0 0 0 0 4.3714337501951377 -3.0316968663972688 0 -3.0316968663972688 -9.1736962002280507 0 0 0 0 0.48238559308174445 -9.7352570514797918 0 -9.7352570514797918 -6.2529505607766964 0 0 0 0 -0.7396699006385461 -7.0402883339261564 0 -7.0402883339261564 -11.566784069816947 0 0 0 0 -0.98114310977962305 -3.2203347244173486 0 -3.2203347244173486 -13.673331784561924 0 0 0 0 -13.077046405258443 -9.9286964697755025 0 -9.9286964697755025 -6.3339964748197417 0 0 0 0 -14.765844087130063 -5.4711100102267451 0 -5.4711100102267451 -11.071547029681199 0 0 0 0 -37.240713121422232 -13.932665085985604 0 -13.932665085985604 -10.387874746369164 0 0 0 0 -54.344674344840314 1.0310232825514731 0 1.0310232825514731 -5.9328731800515486 0 0 0 0 -36.003571241305053 -3.5593641378320875 0 -3.5593641378320875 -6.0557590456892285 0 0 0 0 -86.398811694014512 -15.717722845125337 0 -15.717722845125337 -2.7009004764920519 0 0 0 0 -89.503500822440401 -27.149690422490067 0 -27.149690422490067 -8.8706709756694408 0 0 0 0 -61.442989984174346 -7.4318889906465415 0 -7.4318889906465415 -5.7323085041104491 0 0 0 0 -53.984473620538665 -17.877748518383171 0 -17.877748518383171 -11.568718326667977 0 0 0 0 -26.613931079706163 -6.392163520202871 0 -6.392163520202871 -20.800083568277898 0 0 0 0 -18.973809919396444 -6.5645262761906906 0 -6.5645262761906906 -14.541682018514535 0 0 0 0 -16.570292138449076 -9.9537699331667397 0 -9.9537699331667397 -12.28423448159981 0 0 0 0 -202.5217093698011 -250.14160153729586 0 -250.14160153729586 -174.37844605947106 0 0 0 0 -0.47792319666586991 0.11262240603707951 0 0.11262240603707951 -1.8140633667230013 0 0 0 0 -487.84238491656652 86.108641590778703 0 86.108641590778703 -12.227771573170372 0 0 0 0 -1.362037327897248 0.70983913064612914 0 0.70983913064612914 -0.19278134879022915 0 0 0 0 -83.617129618922263 142.88240842593521 0 142.88240842593521 -146.90771470569211 0 0 0 0 -0.34650585523759503 0.11769500884502371 0 0.11769500884502371 -0.2333890475708407 0 0 0 0 -543.41824916626501 96.810401391038567 0 96.810401391038567 -10.089044054100727 0 0 0 0 -3.5481555414000923 -0.67692644099773247 0 -0.67692644099773247 -0.28460799427173811 0 0 0 0 -3.1942910369702702 -0.18340058977186757 0 -0.18340058977186757 0.66019698187155862 0 0 0 0 -1.2782032870301521 0.013409514686509638 0 0.013409514686509638 -0.14646646576670797 0 0 0 0 -3.6333950114058098 -0.30339917948316497 0 -0.30339917948316497 0.11924856444404952 0 0 0 0 -1.0908068178860688 -0.35862750420812439 0 -0.35862750420812439 0.16619179498221631 0 0 0 0 -1.8070822882009878 0.10536033666083711 0 0.10536033666083711 0.099902141140209053 0 0 0 0 -5.3262355205588392 -0.83924020235222585 0 -0.83924020235222585 -5.8779774833114296 0 0 0 0 -219.94340288076091 -18.655042313617926 0 -18.655042313617926 -0.13356176643164411 0 0 0 0 -498.99968081763154 -100.18302664716171 0 -100.18302664716171 26.653108720631025 0 0 0 0 -196.8387328664916 -5.6317703466614155 0 -5.6317703466614155 -11.956564535202684 0 0 0 0 -1.7472776400769945 -0.13538586488833992 0 -0.13538586488833992 0.28542095386640487 0 0 0 0 -2.2203887299330987 -0.20845689394249867 0 -0.20845689394249867 0.61474680654895919 0 0 0 0 -2.3181411610275973 -1.9566744033183454 0 -1.9566744033183454 -1.7642945178589571 0 0 0 0 -2.0598158763209113 -0.6023629479033481 0 -0.6023629479033481 -0.45073829568040008 0 0 0 0 -123.19358105539686 -74.431396258117374 0 -74.431396258117374 -36.914880060931175 0 0 0 0 -0.26416323623908511 -0.042875151491578833 0 -0.042875151491578833 0.032390516259399149 0 0 0 0 -0.79352978496808646 -0.19439476070572073 0 -0.19439476070572073 -3.3305142035566651e-05 0 0 0 0 -0.46158758799447241 -0.13022655044508266 0 -0.13022655044508266 -0.00027176460325886579 0 0 0 0 -0.63656662047469581 -0.37357353611075367 0 -0.37357353611075367 -0.16381569944770924 0 0 0 0 -0.020512612168957389 0.00095619535369451114 0 0.00095619535369451114 -0.016524807645731637 0 0 0 0 -0.26540389119598728 -0.10970216725903725 0 -0.10970216725903725 -0.068424198134693415 0 0 0 0 -3.7488913997567579 -0.43988855552218009 0 -0.43988855552218009 0.32373612656664719 0 0 0 0 -0.35139039781844161 -0.34828853116779968 0 -0.34828853116779968 -0.068495183628646136 0 0 0 0 -2.3036476052438957 -5.3070966670952195 0 -5.3070966670952195 -3.679209392072444 0 0 0 0 -1.2931645287562787 -1.6570680126252004 0 -1.6570680126252004 -1.2979320483466286 0 0 0 0 -3.9111787855363218 -2.3297620861991026 0 -2.3297620861991026 3.2156226010676114 0 0 0 0 -0.33022340121533489 -0.67510155999755739 0 -0.67510155999755739 0.39581879758684124 0 0 0 0 -0.4949872344836308 -0.90301471373711983 0 -0.90301471373711983 -0.056504180344206789 0 0 0 0 -3.8841770162725879 -1.5096084331268056 0 -1.5096084331268056 -0.60310655985037798 0 0 0 0 -1.9099482517725157 -1.4025125470659781 0 -1.4025125470659781 -0.52765469465067349 0 0 0 0 -3.9391669519500283 -0.73343375305424274 0 -0.73343375305424274 -0.1260217308761824 0 0 0 0 -3.7261607034979534 -1.2917543246728265 0 -1.2917543246728265 0.26003678956760723 0 0 0 0 -3.7645257397343812 -1.1585124264932603 0 -1.1585124264932603 -0.14760497494569336 0 0 0 0 -3.9066494567305199 -0.87551159423426839 0 -0.87551159423426839 0.49034388534504814 0 0 0 0 -4.7419448888794591 -0.42159288824411512 0 -0.42159288824411512 0.71062585222166808 0 0 0 0 -22.953734657778114 -21.73890372753209 0 -21.73890372753209 8.5265819025018281 0 0 0 0 7.339266086662974 -51.757790379299422 0 -51.757790379299422 -15.002680185023479 0 0 0 0 -11.262075591263056 -7.9417423133328384 0 -7.9417423133328384 30.449110864154704 0 0 0 0 -23.491178012431192 60.816841377578044 0 60.816841377578044 6.5128732516961634 0 0 0 0 7.0344574467017082 -0.11407592370260033 0 -0.11407592370260033 -38.441416225331388 0 0 0 0 -0.48147865637417908 -0.14607463771133311 0 -0.14607463771133311 -0.027500174811076472 0 0 0 0 -2.3819988838904465 -4.6754848964064593 0 -4.6754848964064593 1.3344328126713663 0 0 0 0 6.5011324140996294 -7.4594340656458442 0 -7.4594340656458442 -4.3036420029712303 0 0 0 0 -3.4453586976478618 -3.4572459137932938 0 -3.4572459137932938 -0.31307781220898079 0 0 0 0 -3.0889873819869536 -7.9041636709201413 0 -7.9041636709201413 -0.11989478795101149 0 0 0 0 -9.2739099964383058 -7.1143258849501478 0 -7.1143258849501478 -5.306962874774328 0 0 0 0 -19.043792208463856 -2.4703697610174515 0 -2.4703697610174515 -1.4817356855232617 0 0 0 0 1.8132558851139038 -2.7550804705992107 0 -2.7550804705992107 -3.6639165102768345 0 0 0 0 -9.3363920026058622 -7.6231783181924015 0 -7.6231783181924015 4.179237857093085 0 0 0 0 0.79350355086717173 -11.112690847841634 0 -11.112690847841634 0.44873768123949276 0 0 0 0 -18.241279504924023 -6.9424010689107547 0 -6.9424010689107547 4.5174656404527127 0 0 0 0 -48.840279841459051 4.4794730196595722 0 4.4794730196595722 6.4093070240144385 0 0 0 0 13.129720961986095 -13.040209574899425 0 -13.040209574899425 -11.498233241815939 0 0 0 0 -18.255121142876305 6.2274678137756041 0 6.2274678137756041 -8.2799401595845552 0 0 0 0 0.086524537001748669 -0.13981067842123451 0 -0.13981067842123451 -0.049550151241643081 0 0 0 0 -24.897340007952153 -8.3590923478394252 0 -8.3590923478394252 -7.8788724858504864 0 0 0 0 -19.969561686517409 -17.530185960564154 0 -17.530185960564154 1.1788729745656683 0 0 0 0 -27.94623839079577 -9.1128022049006034 0 -9.1128022049006034 0.68094109034343808 0 0 0 0 -3.6483219324727543 -20.55763926670484 0 -20.55763926670484 -19.873902087135548 0 0 0 0 -35.243164460394837 -19.729836231679165 0 -19.729836231679165 -1.3265054048553679 0 0 0 0 1.9619205416538534 0.15132311572265777 0 0.15132311572265777 -9.0513753101794805 0 0 0 0 -11.490592366588317 -10.458364578133249 0 -10.458364578133249 -5.4957486990431335 0 0 0 0 -0.092268152933684178 -6.3836002187483807 0 -6.3836002187483807 0.35394945464320671 0 0 0 0 -3.5778764955466613 -4.9338228749941209 0 -4.9338228749941209 -0.19886629244652809 0 0 0 0 2.4299046325450036 -2.5946793543834596 0 -2.5946793543834596 -1.9339066015206612 0 0 0 0 -2.737340403113194 -0.9970381028804951 0 -0.9970381028804951 -2.4259477293233616 0 0 0 0 -13.819002962579361 -11.366730611858989 0 -11.366730611858989 -12.126866261943407 0 0 0 0 0.0020809873335778661 0.011717961901624108 0 0.011717961901624108 0.01175700271425611 0 0 0 0 -1.9663740621269881 2.8327794040916032 0 2.8327794040916032 -0.0025541134812190991 0 0 0 0 -0.5500097676194855 -6.766109905452347 0 -6.766109905452347 -2.3200805651649201 0 0 0 0 -28.117640801852758 -2.4375581839007996 0 -2.4375581839007996 3.9227356917676488 0 0 0 0 -27.903161223559437 -0.11745745987239808 0 -0.11745745987239808 -11.016552698054912 0 0 0 0 -8.381203963869666 6.928035652951932 0 6.928035652951932 7.7297175613760167 0 0 0 0 0.15537810324501322 0.10647650665122121 0 0.10647650665122121 -0.091131012935251221 0 0 0 0 -25.584646749099193 -6.5410445379887836 0 -6.5410445379887836 -4.3465117689915189 0 0 0 0 -43.901649904526494 1.2810381162550906 0 1.2810381162550906 -10.02891359603889 0 0 0 0 -43.586586526344036 3.3357633543400844 0 3.3357633543400844 2.761981078569816 0 0 0 0 -47.711115385096491 -6.2285074231566355 0 -6.2285074231566355 -0.02197677517732765 0 0 0 0 -73.158660776589386 3.4071404675749193 0 3.4071404675749193 2.3412058447089379 0 0 0 0 -75.100353379137232 15.495708030662609 0 15.495708030662609 -10.865270563747421 0 0 0 0 -73.859738272738468 -4.8351018586911465 0 -4.8351018586911465 -14.709114363625051 0 0 0 0 -68.955297011945731 5.5489886578032568 0 5.5489886578032568 1.5696805043991162 0 0 0 0 -76.396751255248091 6.8007129427264914 0 6.8007129427264914 5.0486346053061624 0 0 0 0 -76.56614550498125 3.8647210925721822 0 3.8647210925721822 5.2852785101205342 0 0 0 0 -44.275359331870277 2.9792763711744144 0 2.9792763711744144 -5.7809702962398077 0 0 0 0 -45.594031617582004 -1.8262425410181322 0 -1.8262425410181322 0.68119343184110903 0 0 0 0 -11.999771999224322 3.4160586621187008 0 3.4160586621187008 -5.1153783657107681 0 0 0 0 -45.515819367794393 -0.068708656501563325 0 -0.068708656501563325 5.688098847758539 0 0 0 0 -14.894277327905002 14.848544762629331 0 14.848544762629331 5.6281567084628215 0 0 0 0 -44.038552179699764 2.6697978520174708 0 2.6697978520174708 -0.51462389249346074 0 0 0 0 -72.066751153797668 17.265607240421687 0 17.265607240421687 8.0508623122255472 0 0 0 0 -45.242033115337108 7.8191018903190184 0 7.8191018903190184 -1.798050277490951 0 0 0 0 -39.701376359058486 18.875874649913499 0 18.875874649913499 -4.0297144596682415 0 0 0 0 -83.107614318116248 12.407776022741899 0 12.407776022741899 9.6280581070505349 0 0 0 0 3.3783748014793673 -4.4267497999578609 0 -4.4267497999578609 -8.4801732508053931 0 0 0 0 -32.326154069680342 -4.6086820024156623 0 -4.6086820024156623 7.9270466810663649 0 0 0 0 -24.708030523379421 15.178331873407899 0 15.178331873407899 -6.3513054769767336 0 0 0 0 -5.31848869766295 -2.3810387801475343 0 -2.3810387801475343 -0.77101559044444279 0 0 0 0 -41.927865859383019 4.1608125849228941 0 4.1608125849228941 -2.4881404922312811 0 0 0 0 -28.082889505845742 21.932231529828186 0 21.932231529828186 -20.48502479409148 0 0 0 0 -6.5548134009159185 2.8680944570131999 0 2.8680944570131999 -0.43330429889579136 0 0 0 0 1.1098464382730526 -9.6226005474953809 0 -9.6226005474953809 18.979648003249849 0 0 0 0 -22.913712476345609 5.3607402166033467 0 5.3607402166033467 40.242151940659937 0 0 0 0 80.44994052029142 -62.129950858279408 0 -62.129950858279408 44.064664364181823 0 0 0 0 -30.404222269280581 17.668533051671801 0 17.668533051671801 21.039088629807566 0 0 0 0 0.34798173169969004 0.36670063218947035 0 0.36670063218947035 0.39642986987057016 0 0 0 0 0.85347437165000883 -26.875515123069199 0 -26.875515123069199 80.726613317898241 0 0 0 0 -15.091540190978776 -6.6665818210515226 0 -6.6665818210515226 6.6745055258832622 0 0 0 0 -1.8347730338060746 0.50850969771947163 0 0.50850969771947163 1.8113178036906405 0 0 0 0 34.978704569695765 -39.106108717573548 0 -39.106108717573548 18.860663370135285 0 0 0 0 -25.058148923395493 -52.559996051986388 0 -52.559996051986388 18.038434067322221 0 0 0 0 13.308134232818247 -33.370163191327627 0 -33.370163191327627 19.981848388734193 0 0 0 0 11.402001126940377 -26.328121478613454 0 -26.328121478613454 27.939152951126985 0 0 0 0 -4.4327000572848192 -37.302055621403952 0 -37.302055621403952 41.500912368022981 0 0 0 0 1.7143661183072254 -28.926182481103652 0 -28.926182481103652 43.70658352165124 0 0 0 0 10.731784541423622 -33.697292121905122 0 -33.697292121905122 9.9623645306250168 0 0 0 0 -3.9825435815237142 -56.144809039681661 0 -56.144809039681661 96.691319902467058 0 0 0 0 53.254456119897441 -122.88134685907352 0 -122.88134685907352 97.647017857876051 0 0 0 0 6.5864691395709087 -32.356278952045685 0 -32.356278952045685 -16.7229823904147 0 0 0 0 -26.495271669027716 82.704406812675117 0 82.704406812675117 -8.5601675414486635 0 0 0 0 -0.45919839541824459 -0.15300715267531118 0 -0.15300715267531118 0.19925837451123218 0 0 0 0 -88.449739528190548 -17.566803216391591 0 -17.566803216391591 44.284120429797895 0 0 0 0 -6.9221769350676254 -2.0902789926718128 0 -2.0902789926718128 0.15682941531736816 0 0 0 0 -19.230888085319748 -28.975802319911338 0 -28.975802319911338 31.331970425247533 0 0 0 0 14.350813122913678 -18.93389743667251 0 -18.93389743667251 21.245284883412069 0 0 0 0 -11.902364645451598 -5.77549887013123 0 -5.77549887013123 40.551417663958375 0 0 0 0 -8.2763090266671497 -5.8656557725622491 0 -5.8656557725622491 -1.1605201887618364 0 0 0 0 -16.972068272765682 1.6788572638744483 0 1.6788572638744483 5.0282614655491216 0 0 0 0 -1.7143451139352894 -0.27708465229462931 0 -0.27708465229462931 0.094199306889607426 0 0 0 0 -9.7671682492236869 6.2044188143420911 0 6.2044188143420911 17.948790722466015 0 0 0 0 -7.2795569181569064 -2.9312042611273537 0 -2.9312042611273537 -0.020546451801886412 0 0 0 0 -1.4809762411667258 0.099315122227508823 0 0.099315122227508823 0.66142118766207503 0 0 0 0 -12.244827327368512 -9.918989257757687 0 -9.918989257757687 7.9795304592572052 0 0 0 0 -7.7083192053578387 -2.9175661550781911 0 -2.9175661550781911 2.623132696957498 0 0 0 0 -22.280918512804419 18.705085370182132 0 18.705085370182132 3.6125494568149179 0 0 0 0 -1.397104635770269 -0.33900975595035909 0 -0.33900975595035909 0.71483615623905994 0 0 0 0 -32.676957119565486 5.4171593562684279 0 5.4171593562684279 16.136011434645894 0 0 0 0 -16.695560673488217 -5.0555075958518501 0 -5.0555075958518501 19.691148229949476 0 0 0 0 2.0344299528915144 -4.3028099654250909 0 -4.3028099654250909 -2.4602657610183769 0 0 0 0 -0.62595250930376523 -1.1585819993411537 0 -1.1585819993411537 -0.34918371930064601 0 0 0 0 -4.4760420095573465 -3.0689886807090261 0 -3.0689886807090261 0.46078298919736671 0 0 0 0 -6.755826846684613 10.344696276315879 0 10.344696276315879 1.3716203663099122 0 0 0 0 -5.4657857875954505 15.595839458330232 0 15.595839458330232 -7.1903192084998295 0 0 0 0 -52.516076724956292 30.450870610594745 0 30.450870610594745 74.866581558483063 0 0 0 0 -126.65615833927768 -8.0356483099792655 0 -8.0356483099792655 91.175195815192339 0 0 0 0 38.867955343871017 16.131547833467366 0 16.131547833467366 8.9595814059661052 0 0 0 0 15.969682090976676 -82.772416582297154 0 -82.772416582297154 103.3305772208081 0 0 0 0 5.7709275076194899 -8.6335749976867362 0 -8.6335749976867362 72.303797463710367 0 0 0 0 83.101182512804371 -51.328058267605897 0 -51.328058267605897 43.853853690813878 0 0 0 0 -2.2600598505905509 -28.291998285726258 0 -28.291998285726258 23.512715550041321 0 0 0 0 -14.665105284406309 -46.819554223837685 0 -46.819554223837685 65.3809724099535 0 0 0 0 30.752354235537496 -42.157711113506465 0 -42.157711113506465 16.135642100248333 0 0 0 0 -15.572631013563296 -42.464599687129095 0 -42.464599687129095 22.766504413485634 0 0 0 0 -19.203235918066866 -19.75896083444032 0 -19.75896083444032 -8.6162445225379543 0 0 0 0 2.5104662590201769 -17.61669515458458 0 -17.61669515458458 -7.9662683742946498 0 0 0 0 -167.06582671922206 -45.63044918852524 0 -45.63044918852524 25.888051517584401 0 0 0 0 -68.001408204967447 -21.490804139396268 0 -21.490804139396268 -7.2412241119879504 0 0 0 0 -68.648824272209822 -27.708937708799112 0 -27.708937708799112 1.0872522821771611 0 0 0 0 -79.623115674226938 14.570550097656977 0 14.570550097656977 36.676080595801182 0 0 0 0 -67.509168994674837 -34.68505302115264 0 -34.68505302115264 33.819400388195334 0 0 0 0 -47.522905515461389 -27.517236815674323 0 -27.517236815674323 81.365394140733201 0 0 0 0 -44.768504857054722 -21.206573412853057 0 -21.206573412853057 21.31672459761154 0 0 0 0 -330.69230710618831 30.181475008150024 0 30.181475008150024 95.673577265849019 0 0 0 0 -318.80797943019388 -75.426975009686771 0 -75.426975009686771 49.335085384682841 0 0 0 0 -183.78131463815771 6.6598157024088707 0 6.6598157024088707 70.438627785228235 0 0 0 0 -379.46130161551628 -1.3491003913768154 0 -1.3491003913768154 125.5151720912673 0 0 0 0 -500.17065470840498 -83.230890816522546 0 -83.230890816522546 110.97164767344871 0 0 0 0 -337.26072574813043 1.5845433330572831 0 1.5845433330572831 125.19263219571243 0 0 0 0 -499.86293107386973 101.25696922073385 0 101.25696922073385 151.31342999281856 0 0 0 0 -349.77848521559281 111.26079441388256 0 111.26079441388256 109.58301582089231 0 0 0 0 -282.80277219686286 178.78368152844621 0 178.78368152844621 25.177596325994593 0 0 0 0 -126.20758892093181 58.901776045757998 0 58.901776045757998 36.127920512596148 0 0 0 0 -225.28965580287331 68.196893037152009 0 68.196893037152009 65.164575534322495 0 0 0 0 -2.0923628028225352 0.25787567275692957 0 0.25787567275692957 1.2826734794296484 0 0 0 0 -169.32028540600004 100.67901869064852 0 100.67901869064852 -12.880889321657321 0 0 0 0 6.3536570545875293 -87.099968528911859 0 -87.099968528911859 57.597686041197932 0 0 0 0 -34.08817066861593 28.978996541568257 0 28.978996541568257 8.0591141648587623 0 0 0 0 58.680392331681105 0.058226761387276227 0 0.058226761387276227 -81.622046774316928 0 0 0 0 -488.1066828991834 71.108200677021514 0 71.108200677021514 -180.73861441330394 0 0 0 0 -530.05015671116143 198.31474838080902 0 198.31474838080902 83.080169849890169 0 0 0 0 -357.47466167893072 276.11545742590715 0 276.11545742590715 -82.660332367581745 0 0 0 0 -499.49332351486919 187.22857057766572 0 187.22857057766572 -127.46020700818076 0 0 0 0 -154.99565362227622 122.05901868949584 0 122.05901868949584 11.8193809186794 0 0 0 0 -497.07182403302431 -70.792384483654459 0 -70.792384483654459 60.26925911783853 0 0 0 0 -13.517287251389462 -8.3019042986505305 0 -8.3019042986505305 -6.2435111897108726 0 0 0 0 -58.593360864020724 65.236307457483719 0 65.236307457483719 -66.414693784555979 0 0 0 0 -1.4663451617932708 -0.75256024448919767 0 -0.75256024448919767 -0.9591448295006022 0 0 0 0 -49.024382272211369 -116.81396327952152 0 -116.81396327952152 -135.11730970888854 0 0 0 0 15.617207630672056 29.0742018858233 0 29.0742018858233 -31.271236958921122 0 0 0 0 -460.97989887777112 -163.48199013249416 0 -163.48199013249416 -59.63737931235886 0 0 0 0 -1.4722575533695377 -0.32064485764612916 0 -0.32064485764612916 -0.43258662148493021 0 0 0 0 -498.95078037291933 -96.61878685880508 0 -96.61878685880508 -132.79464386893201 0 0 0 0 -373.29615951332016 -257.97605240590588 0 -257.97605240590588 -109.27818179974575 0 0 0 0 -556.68639340865775 -102.93854463747178 0 -102.93854463747178 30.123895573402891 0 0 0 0 -393.77791589439767 -115.35413196970964 0 -115.35413196970964 30.085895921545283 0 0 0 0 -393.86036916122413 -142.44115659258173 0 -142.44115659258173 12.117328540035729 0 0 0 0 -173.02936338095606 -144.64046799626931 0 -144.64046799626931 -71.38765716604162 0 0 0 0 -159.09794641866097 -70.285269563425402 0 -70.285269563425402 -33.487807370471842 0 0 0 0 -164.86288774997593 -102.62716397896038 0 -102.62716397896038 -50.838515266220618 0 0 0 0 -241.54917060886874 -57.977892975222957 0 -57.977892975222957 36.264841263500415 0 0 0 0 -76.812525957635444 -89.763706881755184 0 -89.763706881755184 -100.19224792640642 0 0 0 0 5.6940713861222321 -19.170789905357708 0 -19.170789905357708 -106.96158922384802 0 0 0 0 -16.164255055946342 24.348683659930487 0 24.348683659930487 7.57317009746248 0 0 0 0 -4.265979155587047 -2.7684181021275265 0 -2.7684181021275265 -61.170876085354962 0 0 0 0 -40.587119377383715 -12.570180405136634 0 -12.570180405136634 -39.145082660957613 0 0 0 0 -125.88311001835882 -33.978648588447463 0 -33.978648588447463 -5.2900598853563281 0 0 0 0 -36.359021265128831 -37.231842632757925 0 -37.231842632757925 -65.535395513009078 0 0 0 0 -15.095673639857068 -14.787760557490399 0 -14.787760557490399 0.17407804637704771 0 0 0 0 -16.751128301062636 -22.812161309731049 0 -22.812161309731049 -37.230752756302572 0 0 0 0 -28.163209042998005 -10.019311774643041 0 -10.019311774643041 -16.468726798120727 0 0 0 0 3.2768432554184983 -8.8844203398376962 0 -8.8844203398376962 -28.1242027188161 0 0 0 0 -0.94708650686334295 -4.284288117856903 0 -4.284288117856903 -48.217472965207975 0 0 0 0 2.0791148413968585 9.6009053896584131 0 9.6009053896584131 -10.973974291585364 0 0 0 0 -5.3630336223141057 16.769019570719934 0 16.769019570719934 -13.914217616168685 0 0 0 0 -3.8171875537209417 16.821829977969116 0 16.821829977969116 29.356233243370013 0 0 0 0 1.0926343586597795 15.852174760103509 0 15.852174760103509 7.9881727785932526 0 0 0 0 9.9791919640338165 26.230173165941778 0 26.230173165941778 6.3864343441478013 0 0 0 0 14.468157301800602 20.547319265050248 0 20.547319265050248 2.0491940527413135 0 0 0 0 8.6162985122591635 10.395650493313269 0 10.395650493313269 -11.23737384905894 0 0 0 0 -2.9132232944176906 -1.3657471959225456 0 -1.3657471959225456 -0.47221606214291623 0 0 0 0 0.89886067497991462 -3.6703330479219574 0 -3.6703330479219574 13.172343529231057 0 0 0 0 -28.396448977073305 30.792357821635221 0 30.792357821635221 91.020105463350376 0 0 0 0 -15.832956066362385 0.19200385380338503 0 0.19200385380338503 4.2822103452153897 0 0 0 0 -7.2237228597059584 -5.569056639221003 0 -5.569056639221003 -3.9882530091133646 0 0 0 0 -3.4271736883739123 0.11847020729958047 0 0.11847020729958047 -0.68349519077859011 0 0 0 0 -3.7096112387465503 -1.6550636458042298 0 -1.6550636458042298 -1.5560535691940598 0 0 0 0 -0.99734791456554461 -2.3629256887792929 0 -2.3629256887792929 -0.13931153404179586 0 0 0 0 -12.517539760290674 -11.598193587573633 0 -11.598193587573633 -3.4933631989873675 0 0 0 0 -6.5013956078770825 -3.9804867956143291 0 -3.9804867956143291 -1.8616184919656975 0 0 0 0 -2.8716543475195984 -1.2392217331899111 0 -1.2392217331899111 -0.24610796699609194 0 0 0 0 -11.20932325620015 -7.5817787030223371 0 -7.5817787030223371 0.43611209966138631 0 0 0 0 22.764218968368368 -3.5215089178623202 0 -3.5215089178623202 -25.19804735327574 0 0 0 0 14.713400119781909 -3.5263879177987008 0 -3.5263879177987008 -4.1627893513457366 0 0 0 0 -1.8064567061272285 -0.60906348201084093 0 -0.60906348201084093 -0.042354708709056929 0 0 0 0 -12.736128182619723 -3.2362832625092324 0 -3.2362832625092324 -7.1249660750702333 0 0 0 0 12.880353719850973 -10.726743176181117 0 -10.726743176181117 -13.707203267376826 0 0 0 0 -14.375179175563972 0.81005912310502026 0 0.81005912310502026 -10.913414431222918 0 0 0 0 -15.188540940764142 -0.88114321013290464 0 -0.88114321013290464 -9.2320887364767259 0 0 0 0 -5.2150344001765916 -21.0166030769185 0 -21.0166030769185 -15.900716450134723 0 0 0 0 -11.222658913107352 -5.0732224985233358 0 -5.0732224985233358 -18.24462154656544 0 0 0 0 -0.5518601325982786 -0.44720490189659778 0 -0.44720490189659778 -0.10399218753765266 0 0 0 0 -26.842577913945206 -34.884539071448273 0 -34.884539071448273 -14.056794545102889 0 0 0 0 -2.8639487152777292 -19.912568980067533 0 -19.912568980067533 -68.352887512759935 0 0 0 0 -11.803556749797281 17.128502242806121 0 17.128502242806121 -15.648269358985289 0 0 0 0 -12.398244543339388 7.4668154150655255 0 7.4668154150655255 -4.948182919332794 0 0 0 0 -29.261530997207956 15.50494645428023 0 15.50494645428023 -6.7620662758111507 0 0 0 0 -45.136466483502772 -24.878989354704601 0 -24.878989354704601 -12.796537159812146 0 0 0 0 2.9474789160831278 8.3844215205318733 0 8.3844215205318733 6.8392364882820402 0 0 0 0 5.506744037842509 20.814455532663857 0 20.814455532663857 -9.3089799002500513 0 0 0 0 2.4126540319230116 11.934799549709794 0 11.934799549709794 -15.566672319633881 0 0 0 0 2.2505038135132054 11.70234922267278 0 11.70234922267278 -4.2832240186641002 0 0 0 0 3.1293064491947007 10.390694820055458 0 10.390694820055458 -14.317733449238347 0 0 0 0 7.4435634759520326 -7.6772420130311971 0 -7.6772420130311971 1.0662966287387228 0 0 0 0 3.5731953771028202 -5.0992985041482974 0 -5.0992985041482974 2.2601715313160895 0 0 0 0 4.5324202623755809 -14.672168110820071 0 -14.672168110820071 28.637617248575303 0 0 0 0 10.636525829106176 -18.974950942443357 0 -18.974950942443357 22.802102129914314 0 0 0 0 0.08636937326809857 8.0157311706420273 0 8.0157311706420273 15.019629160340273 0 0 0 0 14.396866086807677 -4.4887909492963161 0 -4.4887909492963161 4.5221489797865502 0 0 0 0 6.2227508000787566 4.233149249896222 0 4.233149249896222 3.7410153849368726 0 0 0 0 -2.5957201304008777 12.706942084357109 0 12.706942084357109 -3.1351318738910123 0 0 0 0 -8.9284520332998909 -9.2229602169274933 0 -9.2229602169274933 3.5691844196741727 0 0 0 0 -4.63407752004332 -17.305975801606465 0 -17.305975801606465 23.312692105319883 0 0 0 0 39.230810312701578 2.7385295764084461 0 2.7385295764084461 30.639846744034465 0 0 0 0 -31.536865174242848 -46.035953729038724 0 -46.035953729038724 76.158469914636655 0 0 0 0 27.019234022728597 -51.0655260159485 0 -51.0655260159485 47.720515102172776 0 0 0 0 20.58931427277912 -12.012096649922469 0 -12.012096649922469 -17.88396054025975 0 0 0 0 -31.751940033118444 -9.8041101205664631 0 -9.8041101205664631 21.9491688787746 0 0 0 0 -1.3065086496850924 -34.209227833786429 0 -34.209227833786429 -23.2342254133697 0 0 0 0 -30.336182870149969 0.92879006840793465 0 0.92879006840793465 -1.4824120681799258 0 0 0 0 -6.1187647512042531 -32.506509468625723 0 -32.506509468625723 -23.82808560870177 0 0 0 0 -1.4795951862999885 0.1023507645263777 0 0.1023507645263777 1.7161977133177087 0 0 0 0 -8.7364024823818909 -36.712276128935741 0 -36.712276128935741 -29.72286864441071 0 0 0 0 -0.89454024170117918 -6.3312676363549372 0 -6.3312676363549372 -5.0689445198503904 0 0 0 0 -12.337567853841392 25.985667183817895 0 25.985667183817895 -30.935448077483578 0 0 0 0 -0.60218534196589246 -0.3538108398017954 0 -0.3538108398017954 2.5536636617265951 0 0 0 0 -24.670413855837523 -23.428933792806088 0 -23.428933792806088 -10.464721133226675 0 0 0 0 -7.537519350835737 4.5028636012929795 0 4.5028636012929795 -4.5011921522609555 0 0 0 0 -14.877405288536465 -13.025475632504758 0 -13.025475632504758 -4.3720927543766805 0 0 0 0 -1.2550875670258392 -4.4930255918646651 0 -4.4930255918646651 -5.6528642902037269 0 0 0 0 1.0172202815629134 -10.579380899816087 0 -10.579380899816087 -5.8307675431250061 0 0 0 0 -41.782892775605433 -10.861903101705607 0 -10.861903101705607 0.71788007562750522 0 0 0 0 -25.31730720775704 -2.340436223310796 0 -2.340436223310796 -4.4351129222491465 0 0 0 0 -13.118518922363364 -2.1190177030326822 0 -2.1190177030326822 -2.2206097279266146 0 0 0 0 -33.601513932253511 -9.349185286783495 0 -9.349185286783495 2.9644433376139574 0 0 0 0 -16.558167536570181 -13.439237163403263 0 -13.439237163403263 9.6226174963805988 0 0 0 0 -9.0687497450926458 1.9899960921445938 0 1.9899960921445938 1.8960136336201003 0 0 0 0 -7.6101095082130996 -7.963494347520097 0 -7.963494347520097 4.4729468005808846 0 0 0 0 -7.6546873367320885 -4.2387128710429547 0 -4.2387128710429547 -1.3702192517879148 0 0 0 0 -0.37795058058327413 -19.186738754476405 0 -19.186738754476405 5.3188727643657785 0 0 0 0 -15.149161334968085 -7.6595249897964663 0 -7.6595249897964663 4.9639414633106185 0 0 0 0 -10.398147922582211 -4.8748586325765473 0 -4.8748586325765473 1.4714446928819029 0 0 0 0 1.1547338068012323 -12.952996760703954 0 -12.952996760703954 0.60914338829960002 0 0 0 0 -8.1316734133373352 -5.0756385391035153 0 -5.0756385391035153 -1.3684603261684098 0 0 0 0 -11.222071253874674 -7.5413751226306687 0 -7.5413751226306687 2.9011784143314401 0 0 0 0 -7.4505323091998434 -6.6854021615345394 0 -6.6854021615345394 2.4912152134093595 0 0 0 0 -10.111525093099772 -5.3557753894877038 0 -5.3557753894877038 3.3305395083339633 0 0 0 0 -2.3118131665263988 -1.4709798385346637 0 -1.4709798385346637 -0.093214220667686143 0 0 0 0 -10.554456207787666 -6.0916459616071563 0 -6.0916459616071563 2.7305063834723455 0 0 0 0 -8.6118040484925586 -7.3741553973287495 0 -7.3741553973287495 -5.1133239812032372 0 0 0 0 -12.165430976737582 -14.643504537646475 0 -14.643504537646475 5.7282846470463937 0 0 0 0 -6.0311772322520483 -9.6920233887058203 0 -9.6920233887058203 -4.6968704015644107 0 0 0 0 -7.3615469151550883 -6.7814188454598519 0 -6.7814188454598519 -4.717607453885627 0 0 0 0 -1.0124934610776108 -6.7426244705888649 0 -6.7426244705888649 -0.99862601437953202 0 0 0 0 -1.9590718575760455 -2.7049493849071062 0 -2.7049493849071062 3.013372608473893 0 0 0 0 -11.522198066253623 -4.6573297337952226 0 -4.6573297337952226 12.566682643139757 0 0 0 0 -26.427692904111609 -13.638069914826929 0 -13.638069914826929 14.987739506948628 0 0 0 0 -5.8621722761181445 -13.01203702155351 0 -13.01203702155351 3.3510312746445834 0 0 0 0 0.54767118119070801 -21.65284915088688 0 -21.65284915088688 -7.6811634473106096 0 0 0 0 -14.414731834323902 -25.721907508572826 0 -25.721907508572826 -14.924467486589748 0 0 0 0 -10.186307716844567 -7.0165822499107833 0 -7.0165822499107833 -1.7697635092306996 0 0 0 0 -6.7878686775390591 -6.0623465422734721 0 -6.0623465422734721 -4.7036231363295222 0 0 0 0 3.438552677399457 -15.432697699491968 0 -15.432697699491968 -2.1538186050961485 0 0 0 0 -1.9765659705191361 -1.176753689347283 0 -1.176753689347283 1.5071188013035475 0 0 0 0 -2.0674308438537992 -10.269717687617959 0 -10.269717687617959 5.739599553053381 0 0 0 0 -3.9343809854035499 -6.1239075823485294 0 -6.1239075823485294 -1.8616279621183551 0 0 0 0 -10.94239208934232 -9.4739927511023296 0 -9.4739927511023296 -6.1052209861066444 0 0 0 0 -8.4821134693552267 -7.4019849408615315 0 -7.4019849408615315 -5.6095198101256756 0 0 0 0 -7.3552178688114509 -8.1550712319259038 0 -8.1550712319259038 -5.680279910319654 0 0 0 0 0.056772318344236794 0.070529811465601 0 0.070529811465601 0.34117597316230336 0 0 0 0 -10.035461868989529 -0.37428210584903421 0 -0.37428210584903421 18.737316164806131 0 0 0 0 -12.3059075932224 -12.332390690980876 0 -12.332390690980876 12.965574190012866 0 0 0 0 -10.581126341634445 -6.4500930615698024 0 -6.4500930615698024 -4.8121289428918459 0 0 0 0 -16.774743755210693 -12.285327251733879 0 -12.285327251733879 -1.0803343429333694 0 0 0 0 -0.82514617571801452 0.50661508689249679 0 0.50661508689249679 0.99272162048033019 0 0 0 0 -159.42103776908607 38.203953418191347 0 38.203953418191347 -6.7721560091218151 0 0 0 0 -14.170477833830773 -5.86600772057961 0 -5.86600772057961 -3.8366109538829107 0 0 0 0 -499.22994769596789 -167.74956884764188 0 -167.74956884764188 1.0823612401089513 0 0 0 0 -1.0362008633751518 -0.0062678387148427106 0 -0.0062678387148427106 0.10510693672988441 0 0 0 0 -500.26546010775928 -21.547046699679427 0 -21.547046699679427 85.205956495781834 0 0 0 0 -258.21587850381366 -129.72835419648521 0 -129.72835419648521 3.0174187808670023 0 0 0 0 -498.84631869182704 122.61113414469794 0 122.61113414469794 69.602172715881366 0 0 0 0 -251.72772079840252 37.860307510981571 0 37.860307510981571 77.829057148910891 0 0 0 0 -248.64721735628336 18.291765535780332 0 18.291765535780332 24.989997868650626 0 0 0 0 -8.9400792957649173 -30.861929367370053 0 -30.861929367370053 -50.877038312822762 0 0 0 0 -175.07139082997219 184.62530078431203 0 184.62530078431203 -101.50905263776744 0 0 0 0 -1.4814839003177802 0.6035634344767109 0 0.6035634344767109 -0.16207713084248918 0 0 0 0 -10.124922324319414 6.5810730150487586 0 6.5810730150487586 13.044410214246255 0 0 0 0 6.5140915066531306 6.892833585907141 0 6.892833585907141 5.6637619065338924 0 0 0 0 -0.9182028250568024 1.0811205883093358 0 1.0811205883093358 -0.85454515952457533 0 0 0 0 11.685160627041114 15.894862273484023 0 15.894862273484023 8.1527268946208551 0 0 0 0 -72.836199041373675 28.388161466696168 0 28.388161466696168 -7.5424081142168262 0 0 0 0 -0.51008513005309553 0.4433954843570902 0 0.4433954843570902 -0.30282171122959206 0 0 0 0 -20.116568451212515 2.7399485132486063 0 2.7399485132486063 13.639044907216274 0 0 0 0 -8.7109578795070775 -5.8557328565337627 0 -5.8557328565337627 -4.8183852736412973 0 0 0 0 1.1516577657621383 13.619003224335643 0 13.619003224335643 14.560625020068613 0 0 0 0 -10.013227697363618 -4.8025762352197034 0 -4.8025762352197034 4.1947153908511154 0 0 0 0 -6.950195411547611 -0.27929876449442759 0 -0.27929876449442759 5.790324819799153 0 0 0 0 -3.0417791987988494 -1.6969195293386932 0 -1.6969195293386932 0.33087568871985695 0 0 0 0 -6.7690400856349697 -0.057537221517378612 0 -0.057537221517378612 6.0451827433852827 0 0 0 0 -5.4604417398386431 -2.7351608121834374 0 -2.7351608121834374 1.7647894324129254 0 0 0 0 2.536163892134482 1.649953201812262 0 1.649953201812262 3.5750295810313446 0 0 0 0 -9.2044202163581303 -0.09214545752843506 0 -0.09214545752843506 7.036763635117552 0 0 0 0 -6.4153807841612434 0.5223917634437214 0 0.5223917634437214 5.6540208118081523 0 0 0 0 -6.6264271917516453 2.0736977465431039 0 2.0736977465431039 8.7291084102950265 0 0 0 0 -2.043940334875515 4.0483890914743768 0 4.0483890914743768 5.1265190944947108 0 0 0 0 -3.7528336463365122 1.9521748964896233 0 1.9521748964896233 1.9985166917860511 0 0 0 0 -3.6216508366360358 3.0192838084710445 0 3.0192838084710445 4.4672743689133938 0 0 0 0 -0.49623403992700332 3.3515752921347257 0 3.3515752921347257 1.0350808309241586 0 0 0 0 -6.7203953151383757 0.21695300067111134 0 0.21695300067111134 5.3647163875220656 0 0 0 0 -7.1226741401969775 2.6649716088059563 0 2.6649716088059563 4.4963990663794675 0 0 0 0 -5.9407416137964901 1.5488207808974721 0 1.5488207808974721 1.1545900617591371 0 0 0 0 -5.9051745805081737 0.28051115469145316 0 0.28051115469145316 -0.25465148920250158 0 0 0 0 -6.0311676033071535 1.5588201397990815 0 1.5588201397990815 2.1042977615552445 0 0 0 0 -2.0777674031508013 2.7255282139594819 0 2.7255282139594819 0.79918374450011243 0 0 0 0 -1.9670599782184581 2.1870679078266733 0 2.1870679078266733 0.7331520254575139 0 0 0 0 -1.5879311740438524 1.330897019255179 0 1.330897019255179 -1.0794808683857902 0 0 0 0 -0.24770210694987327 2.2000316630455927 0 2.2000316630455927 2.456469577196458 0 0 0 0 -1.8660980054355889 1.0440410493374372 0 1.0440410493374372 -0.42847661655264702 0 0 0 0 6.4348416635220929 46.581633143609423 0 46.581633143609423 52.645716392029286 0 0 0 0 8.5835928774104104 15.886280101551392 0 15.886280101551392 43.791911241656521 0 0 0 0 -13.825602880686347 -6.8965117627717625 0 -6.8965117627717625 11.994159711379996 0 0 0 0 -2.626389049457778 0.99738424262042269 0 0.99738424262042269 -0.15953983094230245 0 0 0 0 -2.7829046800552533 3.4460849342904081 0 3.4460849342904081 7.6498140155810663 0 0 0 0 -3.0459427837033104 -0.021530430086858843 0 -0.021530430086858843 1.8387035937797445 0 0 0 0 13.549734339314455 25.457713677488186 0 25.457713677488186 3.9471087922366337 0 0 0 0 0.64421449490518512 -0.26428184417345513 0 -0.26428184417345513 -0.10114289242117414 0 0 0 0 -1.238408767493496 1.240013301157834 0 1.240013301157834 -1.1100231674655907 0 0 0 0 0.20505006902203604 5.1689951481258731 0 5.1689951481258731 3.6159339232754633 0 0 0 0 13.898316220425841 -0.62656384480971639 0 -0.62656384480971639 -3.0933793109491887 0 0 0 0 -2.0569852969410931 4.1300969679126656 0 4.1300969679126656 4.8944171505615941 0 0 0 0 -80.447659542356632 41.872724365929734 0 41.872724365929734 -6.2719645016545087 0 0 0 0 -50.80956302589766 11.124864013198433 0 11.124864013198433 4.4874073989311967 0 0 0 0 6.5466579668209306 -13.914331448999135 0 -13.914331448999135 -12.802831333260507 0 0 0 0 -23.036134186029813 16.89552370874366 0 16.89552370874366 -23.65018020825616 0 0 0 0 17.191861629269624 -5.365912560468125 0 -5.365912560468125 -19.086582709614774 0 0 0 0 0.22137966636319106 -0.094289942825003692 0 -0.094289942825003692 0.020090285066059754 0 0 0 0 -35.33915214200897 -57.902508810068525 0 -57.902508810068525 14.353370790938129 0 0 0 0 63.745007432497005 -8.4032634323352084 0 -8.4032634323352084 -21.266813345343735 0 0 0 0 42.906615562562365 51.500928505186323 0 51.500928505186323 11.768816010777755 0 0 0 0 3.3537090839236043 11.119697401063689 0 11.119697401063689 6.4786937160079106 0 0 0 0 -148.32959067350748 -30.262751744599342 0 -30.262751744599342 25.571695694946413 0 0 0 0 -41.949846209754469 -15.779925792813856 0 -15.779925792813856 -3.9175924942137499 0 0 0 0 -38.955446720054169 -22.838767671007304 0 -22.838767671007304 -14.562562389438426 0 0 0 0 -152.32570025495511 -5.2750514316213817 0 -5.2750514316213817 1.289767266675085 0 0 0 0 -159.11520722529167 -30.895386297726105 0 -30.895386297726105 28.33238245032436 0 0 0 0 -185.49231316639271 -14.817330341490077 0 -14.817330341490077 16.665763710121382 0 0 0 0 -254.78782989471802 17.257207199214704 0 17.257207199214704 35.186069140022212 0 0 0 0 -245.58311766155384 54.762290834802755 0 54.762290834802755 -33.988587871488136 0 0 0 0 -265.8709980119379 -53.49357525128184 0 -53.49357525128184 -12.165966696005739 0 0 0 0 -250.31762298446301 0.51836748549524714 0 0.51836748549524714 -11.278577001064036 0 0 0 0 -233.85758861336944 31.062468329556538 0 31.062468329556538 3.1273785424214395 0 0 0 0 -224.15546098014966 -30.700255444825025 0 -30.700255444825025 11.692030783493818 0 0 0 0 -229.06754262358663 -21.305393211704626 0 -21.305393211704626 -73.368412698019739 0 0 0 0 -232.00962351132148 -8.8772215734826041 0 -8.8772215734826041 6.6518892328632688 0 0 0 0 -51.444538782841846 53.124065154141448 0 53.124065154141448 -64.719194423506252 0 0 0 0 -1.2103888034069428 0.34710990569055777 0 0.34710990569055777 -0.12038283539178508 0 0 0 0 -194.82002458671559 20.603320569260106 0 20.603320569260106 22.37050342931958 0 0 0 0 -294.69397248186215 -27.032407466216029 0 -27.032407466216029 4.7249770660606885 0 0 0 0 -266.85992019908008 71.633403869775307 0 71.633403869775307 16.693568380460263 0 0 0 0 -76.316406461843144 48.742509095244657 0 48.742509095244657 -5.1859761928917862 0 0 0 0 -33.685941178126996 -40.625268325943644 0 -40.625268325943644 63.775093202213768 0 0 0 0 -44.69624385595489 -33.151009872675417 0 -33.151009872675417 63.258581530672316 0 0 0 0 -122.48154285953569 -46.165658118224705 0 -46.165658118224705 -32.990823943970085 0 0 0 0 -93.484784407098687 -10.560765247415979 0 -10.560765247415979 -9.8712819933956553 0 0 0 0 -1.9887815325468878 0.64075422786460123 0 0.64075422786460123 1.1560954818774143 0 0 0 0 -48.077755600414093 -35.010915998817502 0 -35.010915998817502 -22.180502228906022 0 0 0 0 -153.01106712508772 -22.0249056378901 0 -22.0249056378901 9.6841402057518593 0 0 0 0 -92.267200593178131 -8.5790146887936309 0 -8.5790146887936309 1.5877221867602955 0 0 0 0 -91.78237559406989 -42.140018277943284 0 -42.140018277943284 -9.9471279559646408 0 0 0 0 -114.8209541700453 -16.98528124008358 0 -16.98528124008358 6.8350157246494874 0 0 0 0 -85.330171472156053 12.050700818000628 0 12.050700818000628 14.022413590104787 0 0 0 0 -193.03282553659665 20.210470684254261 0 20.210470684254261 13.689662696790977 0 0 0 0 -149.67385672907221 -3.8334651275696174 0 -3.8334651275696174 17.524942041954496 0 0 0 0 -117.58985277636202 3.8552517409580958 0 3.8552517409580958 -4.6102046494890061 0 0 0 0 -187.1862825228709 9.1557028258996667 0 9.1557028258996667 13.968986326457859 0 0 0 0 -243.63038470379252 -7.6017005610679291 0 -7.6017005610679291 24.005165143845538 0 0 0 0 -185.14349908172881 -7.2055599316113472 0 -7.2055599316113472 20.382050790759045 0 0 0 0 -119.4810399077387 -8.0419990446318934 0 -8.0419990446318934 -13.005793320764184 0 0 0 0 -176.60194786285592 27.807209507938822 0 27.807209507938822 -7.4053881000711499 0 0 0 0 -114.74182176487648 3.5202863682094261 0 3.5202863682094261 9.0546690124064639 0 0 0 0 -138.19968913476077 -8.4027500999499196 0 -8.4027500999499196 15.831904347952815 0 0 0 0 -48.348999945746982 -18.353027585376111 0 -18.353027585376111 0.26464735304051068 0 0 0 0 -66.552655633053291 -8.9898758189712282 0 -8.9898758189712282 0.34350654285358928 0 0 0 0 -80.705865429939877 -18.396308772248119 0 -18.396308772248119 -4.3121021376524702 0 0 0 0 -66.616961546164134 -8.3481606403064532 0 -8.3481606403064532 -5.7243203998845615 0 0 0 0 -111.45530442881955 -12.55777283386028 0 -12.55777283386028 10.201723672200728 0 0 0 0 -78.713336695062026 -1.0145668112084536 0 -1.0145668112084536 6.5389806512751818 0 0 0 0 -44.878279966670561 0.1413761896374659 0 0.1413761896374659 0.69396838773582203 0 0 0 0 -61.622529972888515 -3.0659236195711799 0 -3.0659236195711799 -0.9311821368740425 0 0 0 0 -72.921828247746816 -12.935672493472254 0 -12.935672493472254 3.455048333555979 0 0 0 0 -65.702228543643287 -4.5862707746316005 0 -4.5862707746316005 8.7021292734697795 0 0 0 0 -70.706070010768599 6.0026395254787843 0 6.0026395254787843 10.19133112980154 0 0 0 0 -38.849269469538285 7.3411740259288401 0 7.3411740259288401 2.9766313866526275 0 0 0 0 -106.55639274049099 4.3257928568412112 0 4.3257928568412112 15.12842821308115 0 0 0 0 -95.67041707604767 -8.7806746153285928 0 -8.7806746153285928 11.455069028312195 0 0 0 0 -98.618568493535832 -1.6645120484866993 0 -1.6645120484866993 12.806829094468156 0 0 0 0 -98.625570366315245 3.9676976927021537 0 3.9676976927021537 14.980538875675848 0 0 0 0 -13.503938702218875 14.423978213770837 0 14.423978213770837 -1.0990327798844532 0 0 0 0 -62.570147521822946 11.617548871129657 0 11.617548871129657 6.7203444923001427 0 0 0 0 -61.254915510873616 1.3959817278481239 0 1.3959817278481239 10.630166483899131 0 0 0 0 -127.42068511137768 0.80721615363349741 0 0.80721615363349741 21.299950873143274 0 0 0 0 -110.63671672804321 0.173829156206736 0 0.173829156206736 15.514424106591036 0 0 0 0 -125.15579599568809 -7.9571239331027357 0 -7.9571239331027357 15.344710000946236 0 0 0 0 -122.7454994180157 4.4703839563917747 0 4.4703839563917747 -19.655733062111153 0 0 0 0 -126.75510197192853 0.028986161916932929 0 0.028986161916932929 18.878750031463383 0 0 0 0 -130.51565138561091 -10.896964278067301 0 -10.896964278067301 9.4382451834566439 0 0 0 0 -107.80040062346598 -12.404207036627248 0 -12.404207036627248 3.2689111036624965 0 0 0 0 -46.344943788180899 -9.6893841094948527 0 -9.6893841094948527 -15.213941367161226 0 0 0 0 -47.017369939498167 -7.6414545363428914 0 -7.6414545363428914 -2.0701999757817191 0 0 0 0 -44.555589257314978 -8.5102732993072223 0 -8.5102732993072223 -6.2260622479815311 0 0 0 0 -48.489139786639498 8.8400206147981777 0 8.8400206147981777 -9.7793693968568505 0 0 0 0 -104.29826607155019 47.338802301294066 0 47.338802301294066 -5.5064578489090934 0 0 0 0 -34.03373436041511 -0.40564700773188633 0 -0.40564700773188633 -7.0998916271568291 0 0 0 0 -33.930136501638799 0.017694596454520095 0 0.017694596454520095 -5.7521526661006703 0 0 0 0 21.615024404697579 29.587907323877047 0 29.587907323877047 -7.7480004646702696 0 0 0 0 -7.0277567894254389 -4.9377473073380429 0 -4.9377473073380429 -2.2825878574089558 0 0 0 0 -1.1996663319150684 -3.2936098527109721 0 -3.2936098527109721 -8.3933448647649413 0 0 0 0 -7.9447746713703964 -0.65126769197875944 0 -0.65126769197875944 -3.191621255547787 0 0 0 0 -6.0839434309164062 -1.2272234259893224 0 -1.2272234259893224 -9.5097264074639867 0 0 0 0 -10.146767962856757 -1.5774506464536273 0 -1.5774506464536273 -10.190333540000395 0 0 0 0 2.9410704016790987 2.5864508770634558 0 2.5864508770634558 -7.4000172641991036 0 0 0 0 1.7325313855417335 6.3118970125607206 0 6.3118970125607206 -10.770100737854218 0 0 0 0 -6.1365445681694837 -6.8487532578769077 0 -6.8487532578769077 -11.624607510577135 0 0 0 0 -4.9438644114670751 -11.918409853620815 0 -11.918409853620815 -18.093606542942766 0 0 0 0 5.1968756057699466 1.8538023440281819 0 1.8538023440281819 -5.1935963304773622 0 0 0 0 10.858355569840569 34.777342997876403 0 34.777342997876403 34.595912713861537 0 0 0 0 24.845977676610346 11.454626709239591 0 11.454626709239591 -10.416156796673569 0 0 0 0 27.86084444934545 3.0066491706121461 0 3.0066491706121461 -38.430552166875316 0 0 0 0 -0.29100346592469606 0.27837920592669896 0 0.27837920592669896 -0.3995256803338032 0 0 0 0 0.47600671448162757 -23.447502699712913 0 -23.447502699712913 -24.088841664508436 0 0 0 0 27.753626680032539 -1.5144914356630466 0 -1.5144914356630466 -24.595704338833141 0 0 0 0 -1.8843176002657742 9.9829202221333695 0 9.9829202221333695 -1.8973448018722365 0 0 0 0 44.991108588861607 33.152321149275792 0 33.152321149275792 -18.566700967560223 0 0 0 0 -6.1896738802526805 7.4817821570175269 0 7.4817821570175269 -0.85400018014710799 0 0 0 0 -69.318110727801468 7.6900669800034507 0 7.6900669800034507 10.771397259289131 0 0 0 0 -42.175393582317611 25.860933225663715 0 25.860933225663715 22.073434311202277 0 0 0 0 -53.747156859877578 52.66823476336549 0 52.66823476336549 -25.550369477448271 0 0 0 0 -0.85038468898684982 -10.3207384565615 0 -10.3207384565615 -84.741353891522181 0 0 0 0 -0.159610977898069 0.19297424826846132 0 0.19297424826846132 -0.15362482521457754 0 0 0 0 -100.98659516311454 37.992865087205246 0 37.992865087205246 -5.1840724200919226 0 0 0 0 -168.3525217995757 16.461878837333302 0 16.461878837333302 -12.064526683249142 0 0 0 0 -57.435611360523353 54.925882933334528 0 54.925882933334528 -92.190108604249502 0 0 0 0 -55.564053623695145 35.818650599192395 0 35.818650599192395 63.758983118688477 0 0 0 0 -127.14620179400208 -45.941814076360274 0 -45.941814076360274 -18.456372552452621 0 0 0 0 -154.88685091369371 16.77840267383489 0 16.77840267383489 -12.911812116475318 0 0 0 0 -113.03438995500164 -47.381762513717774 0 -47.381762513717774 -19.610155293181322 0 0 0 0 -90.45594424997762 -20.854030995693989 0 -20.854030995693989 -17.758415600705895 0 0 0 0 49.224014313658699 33.391694392082215 0 33.391694392082215 -90.163163534656832 0 0 0 0 -31.29074800775561 -145.9387122613881 0 -145.9387122613881 -137.94722286112992 0 0 0 0 -109.61343815275359 15.988606000745641 0 15.988606000745641 -88.405481796238348 0 0 0 0 -1.0726207499467151 0.6213197955659453 0 0.6213197955659453 -0.3053577497536657 0 0 0 0 -38.77749057458368 -1.4784284423246064 0 -1.4784284423246064 -9.8173419728511817 0 0 0 0 -55.94522787023925 18.232950637901894 0 18.232950637901894 -8.7105663047010182 0 0 0 0 -2.940034685472277 -3.3305624654782608 0 -3.3305624654782608 -1.9861761644529532 0 0 0 0 -1.9992739068370433 -1.1619644467317567 0 -1.1619644467317567 0.033859749006108331 0 0 0 0 -93.475097949900373 6.6065410244011673 0 6.6065410244011673 12.093893580090722 0 0 0 0 -181.02885643695117 -2.2162253749065428 0 -2.2162253749065428 5.8425422830884166 0 0 0 0 -95.385880140624067 10.890290827171285 0 10.890290827171285 2.4903746995261429 0 0 0 0 -274.5543634048463 -89.858736438194043 0 -89.858736438194043 -30.748222301967914 0 0 0 0 -257.28546486514279 63.210927306388037 0 63.210927306388037 -20.734207547294911 0 0 0 0 -1.1373840944806588 -1.0177148847937634 0 -1.0177148847937634 -1.1080806216715138 0 0 0 0 -71.504632787558876 47.314537478127342 0 47.314537478127342 -21.446935634055563 0 0 0 0 -33.173867282288484 -25.363944483441387 0 -25.363944483441387 13.063561379316866 0 0 0 0 -1.2006645511919487 -16.769984959253691 0 -16.769984959253691 7.1284217241463352 0 0 0 0 -9.5511160133655721 -41.942576356006938 0 -41.942576356006938 -31.558159167515498 0 0 0 0 -151.99518370692567 -112.74293594407771 0 -112.74293594407771 10.544618158620779 0 0 0 0 -38.606432123344803 -126.11537892930671 0 -126.11537892930671 -131.77414396918235 0 0 0 0 -138.26624260425081 111.51763370044813 0 111.51763370044813 17.470254354927647 0 0 0 0 -116.10272995368359 -95.321202570659352 0 -95.321202570659352 5.4741404308249457 0 0 0 0 -52.327121971728957 -62.714080033376433 0 -62.714080033376433 -19.985535783007435 0 0 0 0 -114.53705365053975 -82.666485470925636 0 -82.666485470925636 5.8474714602451492 0 0 0 0 -88.771087313456519 -101.30080347547016 0 -101.30080347547016 -49.306906021564686 0 0 0 0 -88.339769283044006 -62.171177450181176 0 -62.171177450181176 -31.791959430435007 0 0 0 0 -172.73532888019719 -73.212866041275902 0 -73.212866041275902 -31.264827813059696 0 0 0 0 -2.2575591584158943 1.2825562068065484 0 1.2825562068065484 -0.25013730716681626 0 0 0 0 -76.083661951161957 -24.138614937673722 0 -24.138614937673722 15.185184017928236 0 0 0 0 -119.21361329015417 30.482079383647488 0 30.482079383647488 -1.9074938393662251 0 0 0 0 0.048375516759534776 -0.0039352525522389215 0 -0.0039352525522389215 -0.15680358173310083 0 0 0 0 -66.474946853402798 -36.132595541324918 0 -36.132595541324918 -14.554447374520805 0 0 0 0 -111.69414637361479 -36.055736228763749 0 -36.055736228763749 -4.6074013621982886 0 0 0 0 -19.023941880293933 -78.261837636343898 0 -78.261837636343898 19.059357672344504 0 0 0 0 -38.431434464874656 -20.44316495691379 0 -20.44316495691379 -21.316480457923262 0 0 0 0 -73.170288500636161 25.569764497451843 0 25.569764497451843 -11.23372215636914 0 0 0 0 -34.859410088669392 9.5393265913646701 0 9.5393265913646701 8.6931229119348927 0 0 0 0 -30.376584154453667 2.8644521088333477 0 2.8644521088333477 -0.95280954610268509 0 0 0 0 -36.376517619565675 12.694954645866375 0 12.694954645866375 6.1110493793678415 0 0 0 0 -23.103294060808821 12.162394365509613 0 12.162394365509613 5.7277416327874562 0 0 0 0 -113.88771674086712 -64.251957088102827 0 -64.251957088102827 -10.102856158063332 0 0 0 0 -119.35169026103995 -109.50180837566336 0 -109.50180837566336 -78.461138102921268 0 0 0 0 -34.044241208385756 -10.155073734278773 0 -10.155073734278773 -0.9219506145914238 0 0 0 0 -2.0268419780901894 0.84667488919076028 0 0.84667488919076028 0.22330544693696375 0 0 0 0 -40.949110244160693 -11.631658236089606 0 -11.631658236089606 15.564382273841147 0 0 0 0 -21.496731112205453 -11.809533935106401 0 -11.809533935106401 -2.1449570501104631 0 0 0 0 -1.0226636535697473 0.22535307895092949 0 0.22535307895092949 0.3910600863440683 0 0 0 0 -16.601513588026592 0.63259311660740991 0 0.63259311660740991 18.742492945362073 0 0 0 0 -47.690609373115876 -8.8040520550748624 0 -8.8040520550748624 16.300197479343296 0 0 0 0 -18.061692857630987 -19.802269774423053 0 -19.802269774423053 13.432734671394883 0 0 0 0 -16.456052233568585 -0.58950609239136043 0 -0.58950609239136043 20.147838861927767 0 0 0 0 -20.771617481077556 3.8017830875398886 0 3.8017830875398886 40.353836547811625 0 0 0 0 -24.874075424873809 -7.480507395320501 0 -7.480507395320501 32.992577129076608 0 0 0 0 -17.163481084062369 -28.451780226050687 0 -28.451780226050687 83.209493940186348 0 0 0 0 -35.79420570869388 12.950734435383765 0 12.950734435383765 52.735859655461354 0 0 0 0 -34.005190168261379 1.9807006739979443 0 1.9807006739979443 21.802818011301952 0 0 0 0 -25.232347519471659 2.8098540597268311 0 2.8098540597268311 21.756080868748526 0 0 0 0 -28.608662675881078 5.4297507398003688 0 5.4297507398003688 30.325454456659372 0 0 0 0 -26.294742644251528 -1.5867814644873306 0 -1.5867814644873306 37.06658863042901 0 0 0 0 -28.70960970604574 3.2505718238760437 0 3.2505718238760437 28.96245994647461 0 0 0 0 -23.615046752467606 -0.2440155676847553 0 -0.2440155676847553 31.955972822272315 0 0 0 0 -27.72049213793639 4.1708478176465178 0 4.1708478176465178 29.60020209743152 0 0 0 0 -16.252795284928652 9.0235332461174949 0 9.0235332461174949 24.220094958882555 0 0 0 0 -26.957335402040371 6.3030978656874481 0 6.3030978656874481 30.921615639347692 0 0 0 0 -22.563291932892753 0.64074450952102779 0 0.64074450952102779 17.210201983352135 0 0 0 0 -16.073240864942818 9.371287544944451 0 9.371287544944451 -5.2490949141033525 0 0 0 0 -11.69959469630885 -0.43195386356183008 0 -0.43195386356183008 16.473645107666584 0 0 0 0 -14.765920517580525 -22.607224448390866 0 -22.607224448390866 55.195690166126262 0 0 0 0 -87.726300742387593 82.113921993443284 0 82.113921993443284 -0.39732670284251981 0 0 0 0 0.11851734131739633 0.13454844617493933 0 0.13454844617493933 -0.04230471572086536 0 0 0 0 -41.064462190720405 -0.89624907912315166 0 -0.89624907912315166 13.043422382753761 0 0 0 0 -63.551132363045326 34.919887524167734 0 34.919887524167734 54.735770528470056 0 0 0 0 24.885721175347499 50.977794397943399 0 50.977794397943399 -24.466582510165495 0 0 0 0 1.752502438831133 1.6699271919562655 0 1.6699271919562655 -0.1628111256131799 0 0 0 0 -11.451725105767292 4.2513920613424734 0 4.2513920613424734 6.1063343316144847 0 0 0 0 -12.285944181641753 8.9961233522661246 0 8.9961233522661246 11.146454255439096 0 0 0 0 22.302106823221038 0.97302668881093268 0 0.97302668881093268 2.702992035898319 0 0 0 0 -12.994906105567679 2.6226084795547138 0 2.6226084795547138 4.938423433045358 0 0 0 0 -20.537426151753607 4.6999126099810837 0 4.6999126099810837 4.5223483631464205 0 0 0 0 -9.1602122486901472 7.3990463635979804 0 7.3990463635979804 2.3704277981339201 0 0 0 0 -6.5092771289159828 32.978221708954379 0 32.978221708954379 27.557476908492731 0 0 0 0 -8.6591034700149976 8.7176973173700958 0 8.7176973173700958 0.6724699421592959 0 0 0 0 -13.866840402472501 5.0992891785082888 0 5.0992891785082888 -1.9614203384550764 0 0 0 0 -14.125014146579133 12.490337485460685 0 12.490337485460685 12.468095917419646 0 0 0 0 -10.451732126673463 2.6151737629226215 0 2.6151737629226215 2.9589685955343255 0 0 0 0 -11.84824186560536 9.9430927373266513 0 9.9430927373266513 -5.0699778303087442 0 0 0 0 -15.318169724931067 10.685583883786876 0 10.685583883786876 0.31678917561725939 0 0 0 0 -15.374090768625138 4.7092007510041185 0 4.7092007510041185 -4.0002953956870897 0 0 0 0 -52.887181679699552 13.26638536163432 0 13.26638536163432 1.0775543677677888 0 0 0 0 -4.7977210483554096 4.8310302163062193 0 4.8310302163062193 1.05271501153846 0 0 0 0 12.052882364294419 7.9915998750830113 0 7.9915998750830113 -2.6431862256808927 0 0 0 0 2.2972167425486987 8.9409144525463944 0 8.9409144525463944 3.9099556371866129 0 0 0 0 -4.6927809292162905 8.444551980942947 0 8.444551980942947 -1.0536761220368898 0 0 0 0 14.765939204116876 9.0503795134804932 0 9.0503795134804932 -9.1650931538201803 0 0 0 0 12.840477492602076 3.8813506915284961 0 3.8813506915284961 0.14444141179967573 0 0 0 0 15.469188334558567 5.1352448359939444 0 5.1352448359939444 -5.60545439943985 0 0 0 0 4.0025294517035945 36.203392826667937 0 36.203392826667937 49.568350213904409 0 0 0 0 -1.6208359277606448 2.324675209617638 0 2.324675209617638 0.63351583355776775 0 0 0 0 8.1544366019552399 12.435689554362511 0 12.435689554362511 3.6198109499190991 0 0 0 0 -346.2402278997788 -95.841674372960156 0 -95.841674372960156 303.97009553473629 0 0 0 0 11.545501685681756 4.2243418323416222 0 4.2243418323416222 1.0203341375301989 0 0 0 0 -5.435201824430715 7.1881793229682192 0 7.1881793229682192 0.72980908808582345 0 0 0 0 -372.37518022007134 272.02282390774053 0 272.02282390774053 -208.33230984498823 0 0 0 0 -2.2828941017392381 11.098561557639005 0 11.098561557639005 0.62090654591152283 0 0 0 0 -0.51425857309034839 0.098869266715040816 0 0.098869266715040816 0.32805525651053147 0 0 0 0 14.753541117719578 33.152629342558214 0 33.152629342558214 16.563098179636881 0 0 0 0 -11.492062481429457 34.76732996305401 0 34.76732996305401 17.653511581117073 0 0 0 0 -7.4061286601199754 14.547425703960528 0 14.547425703960528 5.5302106957503838 0 0 0 0 -39.655876306673235 26.056873328110214 0 26.056873328110214 17.704561102235971 0 0 0 0 -63.452638510432735 10.727971449544384 0 10.727971449544384 25.591877623333971 0 0 0 0 -0.15382024018079576 0.040407539067366827 0 0.040407539067366827 0.15294730719059579 0 0 0 0 -29.223857216842589 52.770981500946618 0 52.770981500946618 -31.977425102011807 0 0 0 0 -56.809686858584428 2.9738494356737988 0 2.9738494356737988 13.015628914160061 0 0 0 0 -30.359559193296263 65.112613760997363 0 65.112613760997363 38.721027834773395 0 0 0 0 14.302217066537196 -4.0700699979133219 0 -4.0700699979133219 24.06449133438673 0 0 0 0 -500.02552771878709 202.28054181724266 0 202.28054181724266 -16.430038493106064 0 0 0 0 -267.26698680170875 165.8990912437061 0 165.8990912437061 -81.673262260152796 0 0 0 0 -327.76630551216942 174.60271556429421 0 174.60271556429421 -81.315829509133479 0 0 0 0 -5.5669236039319792 -3.5875538749761144 0 -3.5875538749761144 -1.6045282572400961 0 0 0 0 -332.43590288753683 195.99708935610192 0 195.99708935610192 -94.468418299513047 0 0 0 0 -499.4229055399619 297.41549251086974 0 297.41549251086974 -153.91324437265013 0 0 0 0 -2.9212715322765064 -1.4682269646823691 0 -1.4682269646823691 -0.85089751304091688 0 0 0 0 -282.38445068072906 302.57988530136208 0 302.57988530136208 -329.20287670304907 0 0 0 0 -282.33989874514737 -227.33244396906898 0 -227.33244396906898 -183.47187000882982 0 0 0 0 -1.2523469353001424 -0.42561914365801634 0 -0.42561914365801634 -0.35447078317660363 0 0 0 0 -498.91430125591432 -0.039730404596454966 0 -0.039730404596454966 -0.21981958746886288 0 0 0 0 -0.24520424886885195 0.17228013137734166 0 0.17228013137734166 -0.40153817642886025 0 0 0 0 -15.288332469892339 -5.3090899632860449 0 -5.3090899632860449 2.0117697589010106 0 0 0 0 -14.94754361290552 -0.66190431911384451 0 -0.66190431911384451 -0.47302705659603816 0 0 0 0 -16.579725295200205 1.8950778008619622 0 1.8950778008619622 -0.68956790764926268 0 0 0 0 -12.313216275620107 3.0149973310764606 0 3.0149973310764606 4.658269216572009 0 0 0 0 -5.0367900313694918 -11.29536210838832 0 -11.29536210838832 2.8243134975414108 0 0 0 0 -12.111176971175155 -5.2768336881894129 0 -5.2768336881894129 -2.2099514287385773 0 0 0 0 -19.432709030411388 -7.6007199785868806 0 -7.6007199785868806 -2.9262469529254531 0 0 0 0 -15.510824884039266 -13.971068792747047 0 -13.971068792747047 -9.6054477485685084 0 0 0 0 -23.14598800846079 -8.550820520313664 0 -8.550820520313664 6.4131381166023402 0 0 0 0 -29.109670534884572 9.1017491351758508 0 9.1017491351758508 -5.0193630428185259 0 0 0 0 -42.972714770579842 28.170710648759155 0 28.170710648759155 -20.537861160354169 0 0 0 0 -45.196404160233214 4.5851961858157324 0 4.5851961858157324 55.447182154231882 0 0 0 0 -11.752170209136239 -12.622182610943071 0 -12.622182610943071 -11.413938499421306 0 0 0 0 -0.18438604211703336 -0.37217231075586632 0 -0.37217231075586632 0.80839178810978707 0 0 0 0 21.969531765305874 46.696258402835156 0 46.696258402835156 41.051936344052365 0 0 0 0 0.038942263091485074 -13.072210597174646 0 -13.072210597174646 13.156394216714659 0 0 0 0 -11.479002411204419 -13.717420465881958 0 -13.717420465881958 -11.97748722030417 0 0 0 0 -12.688085894808864 -10.294064895219918 0 -10.294064895219918 -4.9093997386152637 0 0 0 0 -8.5165379172067333 -11.613987416328598 0 -11.613987416328598 -11.702847736526273 0 0 0 0 -8.4666336443342516 -12.041209323567713 0 -12.041209323567713 -4.4043146119608423 0 0 0 0 -10.856748005738154 -9.0515297457754613 0 -9.0515297457754613 6.3796128443939324 0 0 0 0 -11.168816996595524 -5.6753868380614989 0 -5.6753868380614989 5.6994580041439633 0 0 0 0 -7.6779629352322445 -6.5368409678288799 0 -6.5368409678288799 0.69959233477723615 0 0 0 0 -10.64213669540959 -11.713020896097618 0 -11.713020896097618 -5.1105950477842157 0 0 0 0 -9.7742481050198649 -11.661256729849413 0 -11.661256729849413 -5.1171137760266561 0 0 0 0 -8.6059111605782164 -7.5401050492644046 0 -7.5401050492644046 1.2257684647383371 0 0 0 0 -4.3617205258105969 -5.7245605820133534 0 -5.7245605820133534 1.9031272119149065 0 0 0 0 -3.9788344583027424 -10.318186689643774 0 -10.318186689643774 -0.13739216706875368 0 0 0 0 -7.2437312841716448 -10.81919277295467 0 -10.81919277295467 -0.14475810432122671 0 0 0 0 -6.8229703376550574 -3.8338048975418548 0 -3.8338048975418548 -0.42901454563465991 0 0 0 0 0.24558861697915546 -2.9105044231224166 0 -2.9105044231224166 2.1809242875315085 0 0 0 0 -8.5018791506299749 5.9730362530745253 0 5.9730362530745253 17.484965804487217 0 0 0 0 -16.449198925867222 -6.8891358091307353 0 -6.8891358091307353 -5.4045938210298345 0 0 0 0 -13.259399141679751 -17.29328414823587 0 -17.29328414823587 17.635593881001792 0 0 0 0 -5.3110565403985674 29.179282574771577 0 29.179282574771577 31.141073515589596 0 0 0 0 0.5485341114619402 -1.0384878784808436 0 -1.0384878784808436 1.720874946659344 0 0 0 0 -32.253881553275278 -33.288874257880934 0 -33.288874257880934 -29.709068228397541 0 0 0 0 -44.090839386873995 -5.5186713307070931 0 -5.5186713307070931 22.268335103788559 0 0 0 0 -74.834479974399073 -37.187904772732566 0 -37.187904772732566 5.8281631822375743 0 0 0 0 -122.25718236399734 -47.872946227665579 0 -47.872946227665579 1.427182844234494 0 0 0 0 -65.466393638843101 -23.286109265570985 0 -23.286109265570985 -15.095742408594106 0 0 0 0 -106.10352483126144 -78.193307151454974 0 -78.193307151454974 -3.313646853663613 0 0 0 0 21.971489579302215 -22.6236987742069 0 -22.6236987742069 -15.173654713292763 0 0 0 0 -103.11531559185096 -160.46148387872859 0 -160.46148387872859 -74.779651845417106 0 0 0 0 -630.41641748692291 -225.55276712245188 0 -225.55276712245188 -118.27180665690389 0 0 0 0 -5.6768367431946309 -1.0521060316090534 0 -1.0521060316090534 -0.17989783809408788 0 0 0 0 -487.82477129757956 -142.37956245220607 0 -142.37956245220607 50.080155304649907 0 0 0 0 -107.97614533305205 -72.229583224263024 0 -72.229583224263024 -18.121906884064629 0 0 0 0 -84.834111933512759 -23.304042279784966 0 -23.304042279784966 75.606850594585921 0 0 0 0 -92.383605179235587 8.6911362781011263 0 8.6911362781011263 -17.32123853945177 0 0 0 0 -9.7265127429367837 -8.960119864247158 0 -8.960119864247158 -7.1340951971052391 0 0 0 0 162.47527040658952 59.460786571535436 0 59.460786571535436 -26.625257968714322 0 0 0 0 -520.57827132364571 603.67935846687487 0 603.67935846687487 311.11505186303475 0 0 0 0 -10.788600687983489 -45.92873970533276 0 -45.92873970533276 82.425304617050926 0 0 0 0 87.60761224521957 -49.725220566344149 0 -49.725220566344149 42.098687259316932 0 0 0 0 -17.283697236555781 -61.280932405734916 0 -61.280932405734916 47.022595523951622 0 0 0 0 20.028569134438385 -99.630145894399902 0 -99.630145894399902 62.967151375837915 0 0 0 0 10.547991462543564 -27.335633261126397 0 -27.335633261126397 31.307567770233391 0 0 0 0 -8.8075488327865656 -7.3443241520127138 0 -7.3443241520127138 -5.0268958264642247 0 0 0 0 -23.79544191463674 21.337635665267555 0 21.337635665267555 -33.899782337062902 0 0 0 0 -11.891589930105511 5.1409290770325242 0 5.1409290770325242 -19.408939460942804 0 0 0 0 -3.2489341015434547 -11.815369615309123 0 -11.815369615309123 -17.81946123690318 0 0 0 0 -67.633888829332591 -18.75183169903184 0 -18.75183169903184 -11.501467113571834 0 0 0 0 -22.912647574108632 2.2336858144445841 0 2.2336858144445841 42.393894299199125 0 0 0 0 23.101990169660894 -14.836577473958585 0 -14.836577473958585 -34.047383701537001 0 0 0 0 -209.18720087434713 66.591450411376101 0 66.591450411376101 -12.116919613617561 0 0 0 0 -7.4927703506990255 -5.4983960705950716 0 -5.4983960705950716 -2.9916019548871668 0 0 0 0 -291.22752030780748 47.689035556529575 0 47.689035556529575 57.780868002814628 0 0 0 0 -136.2039923526404 61.683989437881806 0 61.683989437881806 -11.78736921363695 0 0 0 0 -76.466098366360256 -32.599430751237136 0 -32.599430751237136 25.23845694337956 0 0 0 0 -132.78936138800327 9.1467020582203133 0 9.1467020582203133 44.085188616725048 0 0 0 0 -142.24558987757041 -37.664715157417959 0 -37.664715157417959 57.844677553732595 0 0 0 0 -125.51245318024394 -16.539888268787394 0 -16.539888268787394 62.572832808127231 0 0 0 0 -323.12522487307297 -1.5868708338562953 0 -1.5868708338562953 98.191244885466887 0 0 0 0 -286.14024053699472 -16.90954926264282 0 -16.90954926264282 90.638288229719194 0 0 0 0 -146.15268994130997 -6.679301231242377 0 -6.679301231242377 59.952776366531964 0 0 0 0 -253.79276869580917 16.285268743113065 0 16.285268743113065 77.1864856683585 0 0 0 0 -396.93594769764468 30.757593013107332 0 30.757593013107332 109.94787599150166 0 0 0 0 -499.92169884740724 3.7943937856719154 0 3.7943937856719154 151.02370075774581 0 0 0 0 -394.97309069137827 43.404751193389039 0 43.404751193389039 131.69549359752847 0 0 0 0 -499.89835512518403 68.69535454553376 0 68.69535454553376 125.83897789784213 0 0 0 0 -388.97747840913757 108.7249547503453 0 108.7249547503453 53.745779626398232 0 0 0 0 -295.87338851337927 35.89282727436143 0 35.89282727436143 77.086924574645806 0 0 0 0 -370.36172069565782 104.7712718386307 0 104.7712718386307 51.067626956990267 0 0 0 0 -411.5705981341423 -101.35100264794335 0 -101.35100264794335 -38.521721269494719 0 0 0 0 -404.72854241719733 -171.73545687340868 0 -171.73545687340868 -44.421629834112601 0 0 0 0 -499.94516572559246 -117.82430465827611 0 -117.82430465827611 54.713931852146246 0 0 0 0 -409.62457738585908 -73.958619229482025 0 -73.958619229482025 75.238424188911864 0 0 0 0 -415.50347967936614 -5.6593288182668573 0 -5.6593288182668573 143.59154879145976 0 0 0 0 -499.96238313901841 -55.683831962001776 0 -55.683831962001776 126.66963979710931 0 0 0 0 -384.89437852884362 -56.121777525042639 0 -56.121777525042639 92.179537407579829 0 0 0 0 -389.28604972613175 -42.488157798163854 0 -42.488157798163854 91.777456960273057 0 0 0 0 -212.26527808785886 -31.221341621715496 0 -31.221341621715496 44.956911072253121 0 0 0 0 -313.76898474184145 -102.66225086671948 0 -102.66225086671948 12.881617879730356 0 0 0 0 -245.5833555167244 -62.119863495240963 0 -62.119863495240963 48.707159415718849 0 0 0 0 -184.41268889478579 -8.4880187856421685 0 -8.4880187856421685 65.148936870007589 0 0 0 0 -111.04791736555444 -60.585712503419984 0 -60.585712503419984 31.273445257676656 0 0 0 0 -112.84048682905814 -23.119509946444282 0 -23.119509946444282 31.131768919275828 0 0 0 0 -176.96696416246778 -73.346524633187101 0 -73.346524633187101 0.94551579164118493 0 0 0 0 -127.22632041250017 -42.095427700544235 0 -42.095427700544235 -16.320717641310694 0 0 0 0 -211.96350595464173 -105.06954711595458 0 -105.06954711595458 -55.932348288789264 0 0 0 0 -108.58383856919772 -59.173729934090744 0 -59.173729934090744 -84.907037510666299 0 0 0 0 -228.41504283267113 -82.004746234715071 0 -82.004746234715071 -6.3994791345761186 0 0 0 0 -134.74850962403957 -161.51087995158031 0 -161.51087995158031 -205.37082107623974 0 0 0 0 -140.74322929828008 -70.850858831908511 0 -70.850858831908511 -106.97086352328478 0 0 0 0 -101.01841949093705 -77.679658913117891 0 -77.679658913117891 -121.71527171332377 0 0 0 0 -28.890545287812529 -33.522907643625729 0 -33.522907643625729 -121.56706388409506 0 0 0 0 -20.021567184114247 -41.980553946325472 0 -41.980553946325472 -122.91268479727593 0 0 0 0 -57.94741422959487 -55.406293078901996 0 -55.406293078901996 -119.53702036785666 0 0 0 0 -36.335215363307725 -27.375679726469031 0 -27.375679726469031 -87.017697035096717 0 0 0 0 -12.786046237524568 2.2153067504358201 0 2.2153067504358201 0.098140703286646813 0 0 0 0 -15.355581816680569 -23.110222024027394 0 -23.110222024027394 -119.37583661412562 0 0 0 0 -23.487492808791046 26.809269767310951 0 26.809269767310951 25.998176627050839 0 0 0 0 6.0602926512326984 17.234526832830397 0 17.234526832830397 13.760502702973554 0 0 0 0 32.099512269757724 -54.775630012146152 0 -54.775630012146152 -47.007499631733296 0 0 0 0 -41.764644817546468 -10.897374953545153 0 -10.897374953545153 -72.722879570790155 0 0 0 0 -14.880600456679531 -60.086391523710041 0 -60.086391523710041 -40.268771282887599 0 0 0 0 -40.953520864963593 -26.009357677261864 0 -26.009357677261864 -42.911742375586584 0 0 0 0 -48.330733046702335 -46.984615563481029 0 -46.984615563481029 -84.152209636463255 0 0 0 0 -61.165156182992177 -34.446097821000393 0 -34.446097821000393 -72.544816383428184 0 0 0 0 -102.81965094353382 -67.928629826713504 0 -67.928629826713504 -46.382907271846932 0 0 0 0 -24.792908401536806 -61.225901324724177 0 -61.225901324724177 -44.476885247019219 0 0 0 0 -63.632399596249797 -28.917772950783871 0 -28.917772950783871 -9.3774402559603232 0 0 0 0 -68.113431380555994 -65.521458200773708 0 -65.521458200773708 -7.2999352606703454 0 0 0 0 -37.572497669615586 -29.438674610832436 0 -29.438674610832436 32.400690570230154 0 0 0 0 -12.363955761735724 -69.855390444321628 0 -69.855390444321628 28.621493635889635 0 0 0 0 -80.278570474466505 -25.414563735324691 0 -25.414563735324691 60.325881338245445 0 0 0 0 112.4243464735855 -97.048463871938225 0 -97.048463871938225 30.748587681488743 0 0 0 0 45.552192938792359 -107.16679259603286 0 -107.16679259603286 61.515298778270676 0 0 0 0 6.0389452959270784 -45.078306731118232 0 -45.078306731118232 57.595944147165909 0 0 0 0 32.825957318703331 -49.378814994539553 0 -49.378814994539553 32.870012615464546 0 0 0 0 15.491039228755653 -74.543573350584751 0 -74.543573350584751 -3.4110370621635298 0 0 0 0 -13.681232741605527 -39.580071461001538 0 -39.580071461001538 -2.9361490135599979 0 0 0 0 25.624361414483019 -88.555459648334434 0 -88.555459648334434 -28.072993516824166 0 0 0 0 119.16221451317301 -91.222672202841594 0 -91.222672202841594 -50.466360016524177 0 0 0 0 98.568599455034018 -43.33744724127186 0 -43.33744724127186 -0.25061538103201997 0 0 0 0 -183.29917700456463 165.33008879201964 0 165.33008879201964 -15.736926203803876 0 0 0 0 90.067251679099172 -141.68046122174519 0 -141.68046122174519 75.249115678417979 0 0 0 0 37.466284284750373 -80.261467297423195 0 -80.261467297423195 101.02750689540926 0 0 0 0 -8.5624979174486775 -7.3358992451366243 0 -7.3358992451366243 -5.2751337654613009 0 0 0 0 -9.295240533962442 128.04590898970039 0 128.04590898970039 -171.17877085361533 0 0 0 0 -164.36363172944766 -85.829941266780111 0 -85.829941266780111 137.29790770733916 0 0 0 0 -3.2498091453011693 -2.3700503657258354 0 -2.3700503657258354 -1.66948451072949 0 0 0 0 -419.55843609972635 281.73881719928767 0 281.73881719928767 -32.921131830258972 0 0 0 0 112.22039886880702 -108.22215099968835 0 -108.22215099968835 -79.406809360735878 0 0 0 0 88.127054501184375 -152.89268744219862 0 -152.89268744219862 -75.318803219126991 0 0 0 0 85.050683779672454 -146.62904352117943 0 -146.62904352117943 -29.944956937130371 0 0 0 0 -28.259185050037672 -68.684986284789318 0 -68.684986284789318 -24.884539276217083 0 0 0 0 65.320836040296854 -120.19173685917849 0 -120.19173685917849 -61.974997362795236 0 0 0 0 68.217047853372605 -103.84256874202788 0 -103.84256874202788 -37.235632368985989 0 0 0 0 18.883487555363899 -107.42908721427503 0 -107.42908721427503 1.1819596138379325 0 0 0 0 -16.271833891051724 3.0841836863636107 0 3.0841836863636107 0.018292737592048525 0 0 0 0 -19.000315177025129 8.8720311494593602 0 8.8720311494593602 32.952036446936859 0 0 0 0 -19.827435541440423 -1.9572682223505353 0 -1.9572682223505353 26.925133123749418 0 0 0 0 -11.922780495054383 -1.6326938031250222 0 -1.6326938031250222 19.580178387655565 0 0 0 0 -9.5036917053286061 6.0076826501830851 0 6.0076826501830851 20.187549636319659 0 0 0 0 -17.368715732725605 -5.0424331384918446 0 -5.0424331384918446 4.1317189936073646 0 0 0 0 -23.22772275939451 -4.0823716105513483 0 -4.0823716105513483 9.573131610235464 0 0 0 0 -19.496088304065552 -6.6298234819115294 0 -6.6298234819115294 6.3526986922889819 0 0 0 0 -13.606231960548001 -4.8563044723799464 0 -4.8563044723799464 6.2410909114518063 0 0 0 0 -16.16540165630704 1.3026212424794039 0 1.3026212424794039 12.363940258882508 0 0 0 0 -18.731023545337735 -1.6153966495216991 0 -1.6153966495216991 16.976272041933129 0 0 0 0 -16.444471738645341 5.6678092671069251 0 5.6678092671069251 17.654944534374863 0 0 0 0 -21.056485319335422 -1.2240284281331242 0 -1.2240284281331242 13.330659101496281 0 0 0 0 -16.984879288953515 6.3572541382054126 0 6.3572541382054126 5.9214705351336647 0 0 0 0 -19.89610939018479 3.8676677536971624 0 3.8676677536971624 8.1692507488037336 0 0 0 0 -26.237828638961361 0.43782551398234215 0 0.43782551398234215 6.3207162662967562 0 0 0 0 -25.54904830052886 12.249419960596622 0 12.249419960596622 2.8471635479727411 0 0 0 0 -36.457683100755482 10.851108048424962 0 10.851108048424962 3.9661526383989099 0 0 0 0 -32.656919504571306 4.3957905812687841 0 4.3957905812687841 4.1722054688997332 0 0 0 0 -32.839688527836216 3.4966053978286098 0 3.4966053978286098 2.7417852141455796 0 0 0 0 -26.336186030076419 -7.5954729439722826 0 -7.5954729439722826 0.35299447313849441 0 0 0 0 -28.744209432837238 -8.4673768475429654 0 -8.4673768475429654 2.5398256717274421 0 0 0 0 -25.208654699675321 -5.8277109471081303 0 -5.8277109471081303 4.1415534705975769 0 0 0 0 -18.733919869131967 -11.235592072022044 0 -11.235592072022044 0.66081116078584046 0 0 0 0 -18.588784692650734 -16.543898333570525 0 -16.543898333570525 -3.1125820418905619 0 0 0 0 -28.680601789748607 -11.422525451319018 0 -11.422525451319018 0.66781538780734806 0 0 0 0 -30.879757654853904 -17.394722402953434 0 -17.394722402953434 -2.770186150414844 0 0 0 0 -26.818401744990283 -4.228464853919462 0 -4.228464853919462 -20.454373569086073 0 0 0 0 0.0054211615917789668 -0.0012840436986868431 0 -0.0012840436986868431 -0.12248871658675617 0 0 0 0 -39.741869476695655 -8.6277422418929284 0 -8.6277422418929284 -6.8796627647756594 0 0 0 0 -39.736706975479251 -6.4871824369074176 0 -6.4871824369074176 0.55502723555587163 0 0 0 0 -58.637928427129623 -10.933929222775149 0 -10.933929222775149 -6.4430234243008471 0 0 0 0 -36.169967350829097 62.213471608768508 0 62.213471608768508 4.0986599420253214 0 0 0 0 -25.41172816452098 -7.2209926283615076 0 -7.2209926283615076 -57.872607679954747 0 0 0 0 -15.710279271460536 55.494816120541472 0 55.494816120541472 -36.907608558056168 0 0 0 0 -31.806599262883424 -21.953308720756503 0 -21.953308720756503 -91.305815938729296 0 0 0 0 -71.435951650508059 -33.37204530558617 0 -33.37204530558617 -43.644430381961257 0 0 0 0 -79.602133658417273 6.7230755582384862 0 6.7230755582384862 0.62560926109458137 0 0 0 0 -34.974252703496944 10.420514475005735 0 10.420514475005735 -7.9824373817893726 0 0 0 0 -52.70718060071377 7.1879959748027673 0 7.1879959748027673 2.553062029415571 0 0 0 0 -26.05922460332377 12.45357153497676 0 12.45357153497676 -3.2439136035609124 0 0 0 0 -36.30088507412313 12.427228625264313 0 12.427228625264313 -1.4410503738390696 0 0 0 0 -30.479497637199358 -60.955443196644929 0 -60.955443196644929 -44.860650032764951 0 0 0 0 -5.7972705089879994 12.362348126638018 0 12.362348126638018 -14.379415337938122 0 0 0 0 -0.94183935638388161 0.19795957853441595 0 0.19795957853441595 -0.092885363043606811 0 0 0 0 -29.867535573289956 22.077300218289466 0 22.077300218289466 -4.2536527331681935 0 0 0 0 -1.4736779245313514 -4.1145367263913464 0 -4.1145367263913464 -1.3240076079550551 0 0 0 0 -3.6564554614425617 -2.0723419226928206 0 -2.0723419226928206 4.9326730978909001 0 0 0 0 58.577271111491328 6.6419522802923172 0 6.6419522802923172 -22.787054268621709 0 0 0 0 0.033417316435113198 0.18741409222585176 0 0.18741409222585176 -0.20581720720384142 0 0 0 0 -8.3884663497655048 6.8400233250347924 0 6.8400233250347924 -8.9849515387237631 0 0 0 0 -32.287221629385243 4.165957504665954 0 4.165957504665954 1.3174395599024464 0 0 0 0 -18.63829487923455 1.3444608166979322 0 1.3444608166979322 0.26373702078922179 0 0 0 0 -34.219625296593335 9.6724984730332721 0 9.6724984730332721 4.5568615655743656 0 0 0 0 -55.603570354068708 2.8644603140305378 0 2.8644603140305378 12.031201156858685 0 0 0 0 -34.46124673770332 19.638576376438778 0 19.638576376438778 13.952393719785505 0 0 0 0 0.003760437565790628 0.0099890936872601005 0 0.0099890936872601005 -0.12747554537181316 0 0 0 0 27.152936720139522 23.674173299956379 0 23.674173299956379 26.095513253626279 0 0 0 0 10.105441775315143 -0.19109988848745729 0 -0.19109988848745729 24.038442315656141 0 0 0 0 -100.00829366227981 -87.58382537967401 0 -87.58382537967401 -137.88660802205362 0 0 0 0 0.62788517027570379 0.35607846358144002 0 0.35607846358144002 56.785739207322081 0 0 0 0 -9.4127012660879164 1.3934861681955777 0 1.3934861681955777 0.12317091640078848 0 0 0 0 24.337737825834267 -25.270931811313105 0 -25.270931811313105 -40.101695717819382 0 0 0 0 5.433029277451169 -23.886331277594806 0 -23.886331277594806 40.158291545780443 0 0 0 0 14.130802877584756 -24.165024334912225 0 -24.165024334912225 3.6093784552677555 0 0 0 0 4.2810506310825645 -1.3292807696015139 0 -1.3292807696015139 12.779810590030898 0 0 0 0 63.080957090837359 46.761979001984514 0 46.761979001984514 -15.421330281655422 0 0 0 0 15.969783684759591 -3.3071462540961889 0 -3.3071462540961889 5.0269283439832364 0 0 0 0 -1.0108740826093374 0.22119439831109422 0 0.22119439831109422 0.22308285853382309 0 0 0 0 -82.253847859662756 47.294150966080736 0 47.294150966080736 -5.7639320755493131 0 0 0 0 4.6097563264201966 -2.1151752618637354 0 -2.1151752618637354 -48.817296592620437 0 0 0 0 -126.80066803637999 39.413768098780025 0 39.413768098780025 -23.921025659778465 0 0 0 0 -144.56847550196028 -4.8827617398184415 0 -4.8827617398184415 -4.3675033266581096 0 0 0 0 -478.27274145538848 98.086191159726326 0 98.086191159726326 54.124034205082125 0 0 0 0 -139.69783931638111 -72.094024888522142 0 -72.094024888522142 -33.156192125447561 0 0 0 0 -348.70127240125578 -1.2678205663904052 0 -1.2678205663904052 27.547717389908449 0 0 0 0 -348.62539135778405 -79.539015198509233 0 -79.539015198509233 32.284630811441325 0 0 0 0 -500.09655532044314 -115.97685154895522 0 -115.97685154895522 80.630374756983727 0 0 0 0 -587.29083618146547 -124.56520868978757 0 -124.56520868978757 70.800272205259461 0 0 0 0 -499.95260311524191 -93.383172690971705 0 -93.383172690971705 -271.55019146474439 0 0 0 0 -563.71135086082813 -54.416889948103204 0 -54.416889948103204 -245.10180480394618 0 0 0 0 -3.8713559215040219 0.37333043545004763 0 0.37333043545004763 -0.10419848634381845 0 0 0 0 -139.16137863418521 134.13135756548354 0 134.13135756548354 3.2546911447868823 0 0 0 0 -463.00178585565004 -335.83281142421254 0 -335.83281142421254 -295.89572592487394 0 0 0 0 -609.3226176400093 -109.65980026994384 0 -109.65980026994384 -129.46406398808628 0 0 0 0 -500.03600448028158 -130.17392678979766 0 -130.17392678979766 -160.5723328444237 0 0 0 0 -568.593427997459 -165.51533607822017 0 -165.51533607822017 -64.222482378671941 0 0 0 0 -11.107371695401184 -1.7640817401432587 0 -1.7640817401432587 3.8985942859035951 0 0 0 0 -6.2384732844802784 0.060729485464577238 0 0.060729485464577238 -1.141208592110585 0 0 0 0 -6.8624982717620284 0.65686009280003077 0 0.65686009280003077 3.5009404919049576 0 0 0 0 -4.2647707821423797 2.2665555604049548 0 2.2665555604049548 2.5707082394926597 0 0 0 0 -2.9342930253633313 0.60706673912136466 0 0.60706673912136466 9.7135489040460925 0 0 0 0 -12.465617325199883 0.31061905343411511 0 0.31061905343411511 5.4414944932968297 0 0 0 0 -4.6049375973868596 0.65567179271972442 0 0.65567179271972442 0.71299685843944394 0 0 0 0 -3.2757827026185851 0.83281590377673975 0 0.83281590377673975 7.9609385112614994 0 0 0 0 -6.7724830969031018 1.1543282006155238 0 1.1543282006155238 9.0266098965886812 0 0 0 0 -4.876002017580868 1.35060036263613 0 1.35060036263613 1.8427770397328485 0 0 0 0 -2.8128013842051587 -2.2131465967685813 0 -2.2131465967685813 1.9037683209438683 0 0 0 0 -7.632037727427047 -0.28951135025101848 0 -0.28951135025101848 7.2506272235182792 0 0 0 0 -4.7882981263155937 -1.9396501762177285 0 -1.9396501762177285 1.5475314914761658 0 0 0 0 -3.5696832420622613 0.65616911494438934 0 0.65616911494438934 2.3281000807567125 0 0 0 0 -7.8339457297356603 2.6894545379730488 0 2.6894545379730488 5.0145955111336136 0 0 0 0 -8.4162342349580967 -0.94725772443058531 0 -0.94725772443058531 1.7138220957845647 0 0 0 0 -3.344493275857801 0.55085580683099655 0 0.55085580683099655 1.4060294105983391 0 0 0 0 -5.9057052933214322 2.1568986847620284 0 2.1568986847620284 0.57433242411497076 0 0 0 0 -5.1361935906295262 1.5858627658629965 0 1.5858627658629965 -0.091672503715314158 0 0 0 0 -6.0347420973971566 1.7419963487119503 0 1.7419963487119503 0.65952749566967839 0 0 0 0 -6.3293127322508553 -0.12548817721399397 0 -0.12548817721399397 0.083706653033297274 0 0 0 0 -42.847795356517508 -45.30846722965606 0 -45.30846722965606 -4.8764569289554771 0 0 0 0 -3.4370427911906063 5.3325820745371697 0 5.3325820745371697 3.1513215324421608 0 0 0 0 -3.4048878435392318 2.750850210464348 0 2.750850210464348 -0.95499450873345126 0 0 0 0 -9.9399978093856589 2.0160127100912426 0 2.0160127100912426 6.464431341609874 0 0 0 0 -0.72567239376396486 1.5541352291474939 0 1.5541352291474939 -0.7985575328496749 0 0 0 0 -9.880196621759751 -19.768079793331481 0 -19.768079793331481 -14.449175731515489 0 0 0 0 -5.0285063034739164 4.5262975625815258 0 4.5262975625815258 -2.023563962201441 0 0 0 0 -3.1332285564558333 14.663110808562287 0 14.663110808562287 -2.6104335152480189 0 0 0 0 -73.569016822709273 62.201442201377063 0 62.201442201377063 11.810759765757666 0 0 0 0 -5.6539077236489703 1.4505821139409107 0 1.4505821139409107 0.42335809127817242 0 0 0 0 -5.2448682674511318 6.6341880259324206 0 6.6341880259324206 3.7356032020913688 0 0 0 0 -5.2224241541755072 3.8996640785056176 0 3.8996640785056176 0.29902462795150009 0 0 0 0 -0.69005431530033179 0.5626491978448187 0 0.5626491978448187 0.88049146795897393 0 0 0 0 -4.3621636395605492 10.111935932817005 0 10.111935932817005 -12.761609055980557 0 0 0 0 17.056572331385951 -12.753151572451998 0 -12.753151572451998 11.692376664051608 0 0 0 0 -5.65134028453474 15.58886045533103 0 15.58886045533103 7.2080811149548936 0 0 0 0 -4.845343358259953 4.3222694846974861 0 4.3222694846974861 -1.3370488990053215 0 0 0 0 -14.334175979300539 19.012168450858326 0 19.012168450858326 -7.7185583835093894 0 0 0 0 3.1668717373586901 9.2127051920366512 0 9.2127051920366512 -3.0150938644559631 0 0 0 0 -9.6602626923140633 -25.254605078104305 0 -25.254605078104305 20.662210462314306 0 0 0 0 -43.799279768543556 -5.9516518354374739 0 -5.9516518354374739 23.882995159023267 0 0 0 0 -6.8839876704410017 -12.548576499495994 0 -12.548576499495994 15.959917017076123 0 0 0 0 -40.266857807493949 13.474325725847805 0 13.474325725847805 13.728136146384713 0 0 0 0 -14.870239520056657 0.3549248186900229 0 0.3549248186900229 11.812374139302335 0 0 0 0 -20.281070965836079 3.2647860992469759 0 3.2647860992469759 11.64404885622767 0 0 0 0 -23.87471742399498 -3.8272945804041001 0 -3.8272945804041001 13.916745718517404 0 0 0 0 -2.1357477720978295 14.983419135206134 0 14.983419135206134 5.9106212883075386 0 0 0 0 -15.181461375883089 -1.4647234131196001 0 -1.4647234131196001 10.945514446703044 0 0 0 0 -2.5290643959689798 2.6584946693189782 0 2.6584946693189782 -1.9715664171940499 0 0 0 0 -11.049949385019545 -4.8644637726349629 0 -4.8644637726349629 12.505013773357334 0 0 0 0 3.4957084018979003 8.825089788777813 0 8.825089788777813 4.9297948006662295 0 0 0 0 -11.000568179295609 5.86768660599762 0 5.86768660599762 -0.3396240174444653 0 0 0 0 -61.875646591703116 -16.621850228792027 0 -16.621850228792027 22.115600522740124 0 0 0 0 -15.356980450465926 9.8717917909353901 0 9.8717917909353901 14.880226543440131 0 0 0 0 -15.484101002279203 0.32295039652711921 0 0.32295039652711921 7.1184729634680934 0 0 0 0 -9.0981171122015105 0.4305950865781174 0 0.4305950865781174 3.7134536339056625 0 0 0 0 -21.285124421381624 11.437352612892482 0 11.437352612892482 37.262000651313201 0 0 0 0 -15.34082000422833 2.9100941156153519 0 2.9100941156153519 4.321262634664194 0 0 0 0 -8.0766582954851351 -0.96609078490343681 0 -0.96609078490343681 3.3479149520659441 0 0 0 0 -9.0058369761977701 -0.22323806608517316 0 -0.22323806608517316 8.8578767006575276 0 0 0 0 -6.3594252543439325 0.94202832581322582 0 0.94202832581322582 3.0112060309890012 0 0 0 0 -1.7999993776024308 3.0195244819366263 0 3.0195244819366263 1.3040014991872124 0 0 0 0 -13.608209944865393 2.5205872180764857 0 2.5205872180764857 9.2991966092692451 0 0 0 0 -10.660666557740328 0.79612805692106736 0 0.79612805692106736 2.7127721782004053 0 0 0 0 -7.5440110704075778 2.266084865314582 0 2.266084865314582 9.1001220880939968 0 0 0 0 -6.2040852755614058 -0.62658388003631793 0 -0.62658388003631793 2.355430763507091 0 0 0 0 -6.0188434397593937 0.97627762803752205 0 0.97627762803752205 4.7776186517098722 0 0 0 0 -17.025277847774742 -3.7169897286502138 0 -3.7169897286502138 2.4804497141205184 0 0 0 0 -30.107478439817442 -8.2581313539208168 0 -8.2581313539208168 24.218870774994684 0 0 0 0 -25.98513889892638 -7.4329518603376528 0 -7.4329518603376528 24.324781122732247 0 0 0 0 -25.567151118913898 -5.3079970024564318 0 -5.3079970024564318 31.934299471254917 0 0 0 0 -21.611644956252906 -5.6008940718792033 0 -5.6008940718792033 -0.43684181473346084 0 0 0 0 -22.569805430632186 -1.6182993898939912 0 -1.6182993898939912 29.305412882310748 0 0 0 0 -18.264348244530993 -6.8287409165366171 0 -6.8287409165366171 33.86408310383672 0 0 0 0 35.610662184337798 13.810239266977703 0 13.810239266977703 -55.077096838733382 0 0 0 0 -1.9812069869791031 1.3805215444059558 0 1.3805215444059558 0.44338733665046226 0 0 0 0 -8.4418359013911868 -37.531784823008394 0 -37.531784823008394 13.454436963653961 0 0 0 0 -9.5475406270674767 -0.44525139408855996 0 -0.44525139408855996 0.66712358621037249 0 0 0 0 -4.7185189098881288 -4.1708228229036575 0 -4.1708228229036575 -0.064517876204312763 0 0 0 0 -14.947790910903677 -3.7761828757577121 0 -3.7761828757577121 9.9048217732782078 0 0 0 0 -10.218152536041998 -4.2995151903200508 0 -4.2995151903200508 8.8362125543432057 0 0 0 0 -14.238858993908508 -3.554895195047731 0 -3.554895195047731 -0.61202584011358008 0 0 0 0 -160.01388943000347 -49.953604990443637 0 -49.953604990443637 200.56355674518136 0 0 0 0 -60.01649013799215 -49.348088203392194 0 -49.348088203392194 -65.536434762631984 0 0 0 0 -13.592155191459824 45.145941814913044 0 45.145941814913044 95.521222517498927 0 0 0 0 -18.611373599519609 -5.5386171217364648 0 -5.5386171217364648 -1.5041004387794643 0 0 0 0 -44.297337750864244 -117.27109596698324 0 -117.27109596698324 102.65422552597727 0 0 0 0 -25.351607621556923 -13.409064121062613 0 -13.409064121062613 62.007097184224676 0 0 0 0 100.78935140276462 -118.4633711637232 0 -118.4633711637232 -102.06144216778955 0 0 0 0 23.460785216194381 45.197121463784512 0 45.197121463784512 32.247330961930672 0 0 0 0 -15.090062771327146 2.3142015721094449 0 2.3142015721094449 -0.11372602960753503 0 0 0 0 86.356424478346526 -77.83056844894304 0 -77.83056844894304 12.974647119022279 0 0 0 0 -0.18421726490137047 -0.10538478939859308 0 -0.10538478939859308 -0.11657196528389135 0 0 0 0 45.585327344023881 15.470080653110244 0 15.470080653110244 -192.27655107984947 0 0 0 0 -58.143789503965309 -8.3314242323940562 0 -8.3314242323940562 64.782290458720183 0 0 0 0 155.28966083410523 -16.469014163611106 0 -16.469014163611106 -45.345950002657332 0 0 0 0 -464.27707272455757 -123.67971603367035 0 -123.67971603367035 23.663858022797058 0 0 0 0 -16.73623071484144 -176.07386731536445 0 -176.07386731536445 -76.226415119029184 0 0 0 0 153.92448029370826 -72.646117856558931 0 -72.646117856558931 -101.30218767668323 0 0 0 0 -127.97054350313374 -17.352804923570375 0 -17.352804923570375 -56.545732244251539 0 0 0 0 -325.97382979588519 217.86649541834782 0 217.86649541834782 30.525150315605757 0 0 0 0 -55.93844742793226 -156.38765607537343 0 -156.38765607537343 -75.402291580796827 0 0 0 0 40.910222672307782 72.647167938180132 0 72.647167938180132 18.096590570195488 0 0 0 0 -17.931134409788111 4.1576025365416669 0 4.1576025365416669 -0.24642199546355253 0 0 0 0 -7.8353748453428125 8.9678998661148626 0 8.9678998661148626 32.382487501387857 0 0 0 0 -6.8930106462283902 -45.377497202778386 0 -45.377497202778386 -48.163997506856319 0 0 0 0 -168.16802891469104 -106.97867317607856 0 -106.97867317607856 10.520184468143043 0 0 0 0 -1.7993897846827878 -0.11892182416900399 0 -0.11892182416900399 0.013882634335185329 0 0 0 0 -59.142911549819701 39.994140046308075 0 39.994140046308075 -11.235685766409176 0 0 0 0 -48.030000455617937 -19.631119863230424 0 -19.631119863230424 -15.697248866318482 0 0 0 0 -225.90462610105885 -47.870814630866107 0 -47.870814630866107 -14.109491638748295 0 0 0 0 170.00804500363756 48.731501655931766 0 48.731501655931766 -190.21334533596871 0 0 0 0 17.561104332965897 -33.419283546145834 0 -33.419283546145834 -46.252084430818996 0 0 0 0 -77.398504127481715 -183.68185697529282 0 -183.68185697529282 -197.13557225478326 0 0 0 0 183.08061599862583 -79.840183879652372 0 -79.840183879652372 -331.78197685554096 0 0 0 0 -111.41951352137539 36.850272398095058 0 36.850272398095058 -8.3117944645781563 0 0 0 0 -91.00246969301952 41.602575521377616 0 41.602575521377616 -11.365565856338094 0 0 0 0 -54.365029035198518 48.796385179805327 0 48.796385179805327 4.2639383305136107 0 0 0 0 -50.933708600394766 44.348919406164327 0 44.348919406164327 -22.139911948537701 0 0 0 0 -69.118965094960686 -28.74944236774968 0 -28.74944236774968 -2.0158487928858904 0 0 0 0 5.7261182040779772 16.55664079754392 0 16.55664079754392 24.825977238510234 0 0 0 0 -0.3299995969069236 0.48290514018262987 0 0.48290514018262987 -0.63916945763519706 0 0 0 0 -38.928325041155631 59.812204103826332 0 59.812204103826332 -7.3664156327909041 0 0 0 0 -4.374961792233762 25.161257781650818 0 25.161257781650818 -8.4025675197790406 0 0 0 0 -21.889758698108949 -3.5131480243015289 0 -3.5131480243015289 36.695713818225727 0 0 0 0 -55.649231300284214 -10.455101135289453 0 -10.455101135289453 9.4734873032369933 0 0 0 0 -40.422873333344569 -29.324209275055921 0 -29.324209275055921 24.707169554479151 0 0 0 0 18.631768662667696 7.4072217868053087 0 7.4072217868053087 15.324850602226434 0 0 0 0 0.10430537885918056 -5.3799278392009455 0 -5.3799278392009455 8.6206089732217492 0 0 0 0 -21.96159471329625 -4.8798071937309828 0 -4.8798071937309828 14.307518564857446 0 0 0 0 -16.420456076734013 -8.6316275195552521 0 -8.6316275195552521 12.760626984512243 0 0 0 0 -7.3398382148232031 0.69990889309218574 0 0.69990889309218574 11.992945675653743 0 0 0 0 -12.219150760203775 4.0916482562740839 0 4.0916482562740839 30.414313875616585 0 0 0 0 -9.7550981771644274 2.7454384299137473 0 2.7454384299137473 25.982189493565556 0 0 0 0 -0.37522757734956791 -0.85594636023538961 0 -0.85594636023538961 0.34941315475325829 0 0 0 0 -5.1958527297819552 0.21296626064177904 0 0.21296626064177904 0.20737245433187912 0 0 0 0 -0.41142087182049636 3.1586429860423095 0 3.1586429860423095 3.1267759522693268 0 0 0 0 7.8154175087236126 -22.767681535006659 0 -22.767681535006659 9.1620112976278136 0 0 0 0 -4.8690251266062319 -10.276232980524412 0 -10.276232980524412 -6.9432683763009777 0 0 0 0 -29.147672658266231 10.108775367911448 0 10.108775367911448 36.314210967681106 0 0 0 0 -30.942789718532822 36.109429668258144 0 36.109429668258144 -13.134581724636405 0 0 0 0 13.329542391306404 -3.9916182277154348 0 -3.9916182277154348 8.7191789520347811 0 0 0 0 -79.763343200130294 29.485686030354827 0 29.485686030354827 16.460922788584185 0 0 0 0 -61.489231842250319 60.0808384757878 0 60.0808384757878 -4.4833457163795174 0 0 0 0 -0.13087400271365368 -25.552928554737434 0 -25.552928554737434 7.0835668653080575 0 0 0 0 -12.204003881770063 10.122824551760999 0 10.122824551760999 -10.417544559735461 0 0 0 0 -88.616463007891241 -5.4219374522511714 0 -5.4219374522511714 16.487686929790698 0 0 0 0 -2.0788501945548887 6.629182446258028 0 6.629182446258028 -18.737789853894697 0 0 0 0 -39.415338032520594 47.577436199580006 0 47.577436199580006 -42.260734809558755 0 0 0 0 33.796122082669854 -8.5664978202927387 0 -8.5664978202927387 -69.721999986800483 0 0 0 0 -38.927961073806557 -30.39019203835069 0 -30.39019203835069 15.014762054312996 0 0 0 0 -12.806484200973955 15.820789215941318 0 15.820789215941318 -13.904229358633188 0 0 0 0 -36.397277649049329 19.917247943534562 0 19.917247943534562 7.2575362757174844 0 0 0 0 -8.7256483755303975 6.8216646839416342 0 6.8216646839416342 0.91369655481059908 0 0 0 0 -5.442459558454857 4.3556748113121557 0 4.3556748113121557 -5.3036006747859687 0 0 0 0 -0.92873336016820929 -3.0353048846131259 0 -3.0353048846131259 -1.5356558073718816 0 0 0 0 -4.2264602652420535 1.4550872257013197 0 1.4550872257013197 -0.72689392668439723 0 0 0 0 -13.339533468015816 4.1246056388545185 0 4.1246056388545185 2.0645101340263494 0 0 0 0 -9.530414276322972 2.6140742321402968 0 2.6140742321402968 0.48821775727151362 0 0 0 0 -8.0518745409979857 1.6164031163065893 0 1.6164031163065893 0.7948155124157964 0 0 0 0 -13.383704497379313 1.4571927455346909 0 1.4571927455346909 0.899168069903304 0 0 0 0 -11.754999254100198 -0.51940556675702965 0 -0.51940556675702965 -3.4481163016196206 0 0 0 0 -10.862973200343049 -2.5772999582492275 0 -2.5772999582492275 14.44443164802928 0 0 0 0 -3.1725323122096643 0.20262186151956696 0 0.20262186151956696 0.28189106799448904 0 0 0 0 -9.8508102218145268 -1.9098008579779844 0 -1.9098008579779844 -8.937224626251691 0 0 0 0 -12.099535278394114 3.2329754036701388 0 3.2329754036701388 2.7027998248602785 0 0 0 0 -2.4447038911037304 -0.011710164800525114 0 -0.011710164800525114 0.53131863813263935 0 0 0 0 -4.0735894368663139 -13.970091114388595 0 -13.970091114388595 6.7064094064126039 0 0 0 0 -8.4331785129711765 3.2108111800836614 0 3.2108111800836614 0.52954975293025663 0 0 0 0 -15.836928340466784 8.5414854956245279 0 8.5414854956245279 6.7937187722035333 0 0 0 0 -0.071222579788961404 0.20053763557161375 0 0.20053763557161375 -0.01659974696196187 0 0 0 0 -19.588013986051919 -5.2210716494705594 0 -5.2210716494705594 -3.3284992270411635 0 0 0 0 -13.74179934998881 -8.0997268403399971 0 -8.0997268403399971 2.3970807670119427 0 0 0 0 -13.992709961742491 -8.9141080611179007 0 -8.9141080611179007 0.35516803324486546 0 0 0 0 -15.422715084791037 -4.1176324567325935 0 -4.1176324567325935 11.358640633604637 0 0 0 0 -12.031743995281545 -3.8835717217810384 0 -3.8835717217810384 0.54258169647198429 0 0 0 0 -14.62310763688447 -3.0329728793299751 0 -3.0329728793299751 13.72274374674133 0 0 0 0 -11.102284342068401 -10.273314022250304 0 -10.273314022250304 -7.4532324005214434 0 0 0 0 -1.4738032330313471 0.27253110008083548 0 0.27253110008083548 -0.080924445878497231 0 0 0 0 -0.20803395397812352 -0.088943041558114722 0 -0.088943041558114722 0.26094050115445866 0 0 0 0 -56.974787674898494 -26.765856916617452 0 -26.765856916617452 -8.3761167709852202 0 0 0 0 -14.264042728932736 4.4167665290265745 0 4.4167665290265745 14.698594308953375 0 0 0 0 -9.3880749468152089 2.9773624513752566 0 2.9773624513752566 -3.5286746117702705 0 0 0 0 -12.883044204715816 1.4757308206769437 0 1.4757308206769437 -3.5674119506237503 0 0 0 0 -40.852743339686626 4.9832785837844327 0 4.9832785837844327 -19.703098879655272 0 0 0 0 -0.32332706739880035 0.75279426356808998 0 0.75279426356808998 -1.1422143996291059 0 0 0 0 1.0350941527457391 0.89149338003917711 0 0.89149338003917711 -0.87399857787812452 0 0 0 0 -38.539669480952398 24.82485978150271 0 24.82485978150271 -4.497104730287333 0 0 0 0 -46.638550091728803 -5.3764518413282758 0 -5.3764518413282758 15.908612523383454 0 0 0 0 -42.362381608239275 -17.988678138988632 0 -17.988678138988632 -13.564888291831039 0 0 0 0 -13.846300203007104 -12.553413775727151 0 -12.553413775727151 -3.3731251557735789 0 0 0 0 -13.893643584809638 -12.417769187633183 0 -12.417769187633183 -3.1165587473196865 0 0 0 0 0.014711919290608 0.087075575783600589 0 0.087075575783600589 -0.23631068364025493 0 0 0 0 0.66352335127783135 -1.6574819953174256 0 -1.6574819953174256 -1.9102890141178364 0 0 0 0 -18.895764681008018 -11.555089974993024 0 -11.555089974993024 0.10699699363084392 0 0 0 0 -14.94791886359468 -6.0158569994896425 0 -6.0158569994896425 -6.4757867224416259 0 0 0 0 -2.3668845013245039 0.42543004372034399 0 0.42543004372034399 -2.129187541172076 0 0 0 0 2.9066062288748071 4.6659450044806476 0 4.6659450044806476 -3.7266541438339456 0 0 0 0 -17.218689733525935 5.4948972328837726 0 5.4948972328837726 -2.5035129395654394 0 0 0 0 -2.6391323684816768 4.4922573971133808 0 4.4922573971133808 0.0437392680393347 0 0 0 0 -2.7892960038067987 -0.61354587256162674 0 -0.61354587256162674 -0.16909570077113356 0 0 0 0 -17.454738222965261 0.040951211981962388 0 0.040951211981962388 1.7395026824360684 0 0 0 0 -27.862281273815711 -6.2140234418756677 0 -6.2140234418756677 -1.9609470762172805 0 0 0 0 -26.446323294479498 -13.577158188615954 0 -13.577158188615954 16.043851820762939 0 0 0 0 -8.3345093604993679 1.4382063138756207 0 1.4382063138756207 -1.8351279497899213 0 0 0 0 -0.96511169369009409 0.72055666783180605 0 0.72055666783180605 -1.2202852386355736 0 0 0 0 -7.5852106844253573 2.6422110466670619 0 2.6422110466670619 0.49073134866629331 0 0 0 0 3.0229912906327172 4.2270491951385463 0 4.2270491951385463 -2.2119226717086633 0 0 0 0 -18.415415535325963 -3.70282180967925 0 -3.70282180967925 -1.3436404624735587 0 0 0 0 -2.8043584092081102 1.4577500836984258 0 1.4577500836984258 -1.6548245490152445 0 0 0 0 0.2767979982502311 -6.6241323805755741 0 -6.6241323805755741 5.1627887725239621 0 0 0 0 31.295671726397359 -15.100679027130496 0 -15.100679027130496 7.4477174191043432 0 0 0 0 -10.92316287523181 -1.3664408870373634 0 -1.3664408870373634 -3.5890640337217974 0 0 0 0 -6.5101622354289068 0.67279986413209314 0 0.67279986413209314 0.2744292797854968 0 0 0 0 -3.1702763689522104 0.00062032727602101545 0 0.00062032727602101545 0.13426599954734073 0 0 0 0 -3.4210999512982636 -0.067838555452023552 0 -0.067838555452023552 0.8091039172092972 0 0 0 0 -37.108194145086145 1.9842784777162663 0 1.9842784777162663 9.0416067307979517 0 0 0 0 -15.5453272256741 -5.5442080965995899 0 -5.5442080965995899 0.72080104065639716 0 0 0 0 -10.750905294350112 0.69985518411618308 0 0.69985518411618308 -0.73891476530446321 0 0 0 0 -17.892432061174986 -2.3565747515999647 0 -2.3565747515999647 -28.661313848453801 0 0 0 0 2.182994635697014 8.0239446880888181 0 8.0239446880888181 -2.304719828895486 0 0 0 0 -49.179820509236379 3.8875238879770677 0 3.8875238879770677 36.465943353391594 0 0 0 0 -11.976038563501788 10.705008741572669 0 10.705008741572669 -1.3509120251317199 0 0 0 0 -6.052207363692105 7.813190260153533 0 7.813190260153533 -2.7032127160161963 0 0 0 0 -12.20840171376949 6.2111350721636427 0 6.2111350721636427 -1.2202050699395386 0 0 0 0 -8.8814312692320527 10.029536611824483 0 10.029536611824483 -1.9867965817167601 0 0 0 0 -2.587078701358223 6.1635222273922352 0 6.1635222273922352 -2.4700758020709372 0 0 0 0 -12.655467949180093 18.368166180069011 0 18.368166180069011 -16.047763901907274 0 0 0 0 -83.084486745312461 -40.692173667662246 0 -40.692173667662246 16.662495944644661 0 0 0 0 -30.488789476173224 -10.951310756646365 0 -10.951310756646365 -6.2738099461785168 0 0 0 0 0.33973763879259167 0.70145389560567395 0 0.70145389560567395 -0.57027618120590384 0 0 0 0 -46.87723336934323 51.498020468951722 0 51.498020468951722 -2.3861794153234115 0 0 0 0 -14.665651774759084 -1.1081996854418499 0 -1.1081996854418499 -0.57585611127171887 0 0 0 0 -18.248263675757698 0.35749395960266384 0 0.35749395960266384 0.30352835155220248 0 0 0 0 -16.798099995887355 6.331166535821751 0 6.331166535821751 0.12455439375185051 0 0 0 0 -2.3494736533061769 4.7553229473967917 0 4.7553229473967917 -5.4196973655646161 0 0 0 0 -14.654781823138364 8.7996934866699803 0 8.7996934866699803 -1.748127279283608 0 0 0 0 0.21334745642166331 -0.41907356435319887 0 -0.41907356435319887 -0.35633240531965926 0 0 0 0 -14.482530102298369 7.7301383366578875 0 7.7301383366578875 -2.2319373731817223 0 0 0 0 -13.832087818486798 7.5498460700801502 0 7.5498460700801502 -4.0792108113143968 0 0 0 0 -19.936770736282142 -1.0979420124427861 0 -1.0979420124427861 2.6716395834771447 0 0 0 0 -1.6009974891034924 0.35915270236346064 0 0.35915270236346064 0.018386424992008266 0 0 0 0 -6.8043260105724812 1.0115942785836625 0 1.0115942785836625 -2.4622840171595044 0 0 0 0 -3.3629193838706568 2.3058521239017793 0 2.3058521239017793 0.15576995097838298 0 0 0 0 -6.8554480671091369 -1.4661127960757199 0 -1.4661127960757199 -2.340328982020992 0 0 0 0 -15.823947424885318 0.61735795358011103 0 0.61735795358011103 -1.0958346385302775 0 0 0 0 -11.036089072614232 6.6962336504161044 0 6.6962336504161044 -3.702669678173379 0 0 0 0 -12.657531369686751 -1.4785929164149572 0 -1.4785929164149572 1.4850946921992545 0 0 0 0 -6.4893009464479974 -0.42337325158451478 0 -0.42337325158451478 -0.93065284473595966 0 0 0 0 -3.3676798394352163 2.5012097706353886 0 2.5012097706353886 -0.10692652530251534 0 0 0 0 -6.0813981566820985 0.4183790269836436 0 0.4183790269836436 -0.73583741744863573 0 0 0 0 -7.5588198783643747 2.8644672025557156 0 2.8644672025557156 -2.4018557086700412 0 0 0 0 -7.4725196351650993 2.0340953888866125 0 2.0340953888866125 -0.98517413133845366 0 0 0 0 -7.4365801315261706 -0.71759888653508597 0 -0.71759888653508597 -1.664992749674326 0 0 0 0 -4.0023419599483532 2.8705247405569025 0 2.8705247405569025 -0.78468410025379853 0 0 0 0 -3.5424770264539802 -0.58162639742914735 0 -0.58162639742914735 1.4205529180286476 0 0 0 0 0.41665913514577824 0.36358029983544782 0 0.36358029983544782 -0.33380676372325979 0 0 0 0 -6.0579999726917322 -0.28686233104401992 0 -0.28686233104401992 1.7619142248801154 0 0 0 0 -6.1419501866535029 2.0793020930649107 0 2.0793020930649107 -0.019648982671640169 0 0 0 0 -5.611101923531578 1.6635600057586544 0 1.6635600057586544 0.28894017532411453 0 0 0 0 -5.3296453945640678 2.435396140298991 0 2.435396140298991 2.2202670321292644 0 0 0 0 -2.0020125117101855 0.066953850298424378 0 0.066953850298424378 -0.1766134797627219 0 0 0 0 0.01004471781683236 -0.20321670624045651 0 -0.20321670624045651 -0.074045727052289845 0 0 0 0 -28.177354039980855 -31.459682550222283 0 -31.459682550222283 16.159526298956706 0 0 0 0 -44.912031065006431 -3.0106001883663112 0 -3.0106001883663112 -11.596496263277345 0 0 0 0 -6.587123508455079 1.367201253228302 0 1.367201253228302 0.094855773999640292 0 0 0 0 -5.9359051309138522 1.9914785264514308 0 1.9914785264514308 -0.099872687321465037 0 0 0 0 -43.627557191506867 -8.665973884994159 0 -8.665973884994159 -10.26128756725052 0 0 0 0 -3.4600529683377452 2.6264812345353565 0 2.6264812345353565 -0.38226285645666613 0 0 0 0 -46.406759830029841 -10.861370120211973 0 -10.861370120211973 -2.6332861022683574 0 0 0 0 -30.505601850196172 16.311904908458942 0 16.311904908458942 -6.9310133229068924 0 0 0 0 -23.604261287547615 1.1337010599510791 0 1.1337010599510791 2.4647006827198652 0 0 0 0 -20.289495903703028 -1.5037234271873672 0 -1.5037234271873672 0.34538844168480409 0 0 0 0 -21.540495515697785 -3.0127448785725335 0 -3.0127448785725335 1.2494621179187106 0 0 0 0 -29.593670738216588 4.1179198201378995 0 4.1179198201378995 1.2554136214418463 0 0 0 0 -3.6152394811092563 3.2495627875915147 0 3.2495627875915147 0.7959709207348169 0 0 0 0 -3.819182039210653 3.8478428164880905 0 3.8478428164880905 -0.10070350926352889 0 0 0 0 -8.1303701992374044 3.3778775877664771 0 3.3778775877664771 0.86171422041968526 0 0 0 0 -9.5928439374538357 -0.014516151377875985 0 -0.014516151377875985 0.30438659643932908 0 0 0 0 -4.177147884394774 3.2420251282486916 0 3.2420251282486916 0.4484358768727712 0 0 0 0 -12.211317845183657 1.0576212553355617 0 1.0576212553355617 -0.088553068437363436 0 0 0 0 -35.452756230888554 0.782482889013977 0 0.782482889013977 6.6783241289875548 0 0 0 0 60.807814073021291 -61.395754837914183 0 -61.395754837914183 18.700519592555338 0 0 0 0 -0.9577914775020524 0.62638542654598339 0 0.62638542654598339 -0.058966134441957863 0 0 0 0 22.053985469206964 28.688972868839642 0 28.688972868839642 11.799653866103426 0 0 0 0 -15.918352597176067 -5.7070484020887555 0 -5.7070484020887555 -1.2192383346215365 0 0 0 0 -9.1306889025690907 -2.5925224099116235 0 -2.5925224099116235 -2.526555032916491 0 0 0 0 -4.0030990572049632 -0.97211471875129973 0 -0.97211471875129973 -1.3343485700639377 0 0 0 0 -5.2099518595241534 -0.33021916821229524 0 -0.33021916821229524 -1.4921383924061047 0 0 0 0 -4.4431783543540178 -2.2146786808983308 0 -2.2146786808983308 -0.36845926367584525 0 0 0 0 -1.2282288240603521 20.534884552986455 0 20.534884552986455 3.0708482496026122 0 0 0 0 -5.020151621713751 -1.6787915997323779 0 -1.6787915997323779 -0.64741686542686239 0 0 0 0 -1.7049730501333435 0.25845484385996009 0 0.25845484385996009 0.11917092231641524 0 0 0 0 -45.897258711213908 53.007861787327442 0 53.007861787327442 10.797860702767121 0 0 0 0 -13.511715392916358 -2.1364093729268347 0 -2.1364093729268347 4.9342312423717658 0 0 0 0 -3.3413262091317222 -0.86856667057215986 0 -0.86856667057215986 -0.31525870257143729 0 0 0 0 -9.3434245428652503 0.4279227071846492 0 0.4279227071846492 0.81991409906157742 0 0 0 0 -4.9265444468206248 -0.59934027596653872 0 -0.59934027596653872 -0.1442372422655156 0 0 0 0 -1.441970152652857 1.0364656368503891 0 1.0364656368503891 -0.83358078142750491 0 0 0 0 -3.6378331868290843 -0.34606224314782708 0 -0.34606224314782708 -0.78800723087562119 0 0 0 0 -2.6494694519174118 1.2792188688465558 0 1.2792188688465558 -10.083949488825226 0 0 0 0 -1.7264094886636485 1.0330544769051073 0 1.0330544769051073 -5.8926081854480117 0 0 0 0 -0.44177385116388201 0.76055040095815951 0 0.76055040095815951 -0.037790354672777027 0 0 0 0 0.44253582271699088 5.4198896088758772 0 5.4198896088758772 -1.9677259583295381 0 0 0 0 6.9556846031330224 22.863477496610507 0 22.863477496610507 8.6747890141095354 0 0 0 0 -5.56999687638654 2.1822187794867887 0 2.1822187794867887 23.640231019190963 0 0 0 0 5.7072443196830136 5.6967580798091149 0 5.6967580798091149 3.9097466702071415 0 0 0 0 -49.030571069590678 -8.6146901131138236 0 -8.6146901131138236 6.6525537686682839 0 0 0 0 6.3747692627471579 9.6285991586102231 0 9.6285991586102231 -0.967266557178732 0 0 0 0 -3.5895545303254384 3.1101207926555312 0 3.1101207926555312 -1.4064305640755856 0 0 0 0 6.860713118485819 -6.1139434809553812 0 -6.1139434809553812 -44.698842027336298 0 0 0 0 -22.211275744451086 -5.175633943830519 0 -5.175633943830519 -20.363499093289192 0 0 0 0 -60.916723655001533 -37.246298196502892 0 -37.246298196502892 -7.4093354916475249 0 0 0 0 -24.519047311162012 5.1914676378795122 0 5.1914676378795122 26.402783834311776 0 0 0 0 -15.878940584198972 -2.8125528331258636 0 -2.8125528331258636 -18.595962163859781 0 0 0 0 -28.057175274111614 -0.61972183704392592 0 -0.61972183704392592 0.67655594801857433 0 0 0 0 -25.567889838944211 8.0571365987008789 0 8.0571365987008789 -1.9980965754597264 0 0 0 0 -37.494879198929084 24.134518889794947 0 24.134518889794947 23.390275037261006 0 0 0 0 -0.69613572329868489 1.0920613756781608 0 1.0920613756781608 -1.0583555157068298 0 0 0 0 41.296180840841316 35.70211019462738 0 35.70211019462738 -1.2639649454133064 0 0 0 0 30.652903010043701 -16.247010356733711 0 -16.247010356733711 -19.240683056200055 0 0 0 0 -29.951460260862405 -12.87820033474685 0 -12.87820033474685 18.877430483223293 0 0 0 0 -47.961123739258255 7.4403902586836352 0 7.4403902586836352 -3.5635347590775837 0 0 0 0 68.893988389941114 32.363468883576822 0 32.363468883576822 -36.40902919441146 0 0 0 0 -0.27501523596001842 0.41546387521340034 0 0.41546387521340034 -0.58496526228647383 0 0 0 0 68.00455347432495 39.513740559246379 0 39.513740559246379 -24.482500022888644 0 0 0 0 -14.510047255239442 30.369077076430813 0 30.369077076430813 -9.4098905150016208 0 0 0 0 80.455103933737519 46.27815676495652 0 46.27815676495652 -34.377953325406224 0 0 0 0 93.711658416587852 -7.9462997398799189 0 -7.9462997398799189 -1.6285589597224543 0 0 0 0 -74.813867842278341 -26.309637842222855 0 -26.309637842222855 -58.11868881436169 0 0 0 0 -66.833361575630008 -41.369482875995367 0 -41.369482875995367 -31.863277670254547 0 0 0 0 -13.012230872087457 20.903348510684737 0 20.903348510684737 -21.872106785703636 0 0 0 0 -67.555343954922137 16.633355191032706 0 16.633355191032706 1.6483032321671089 0 0 0 0 -172.00948531177528 1.6244911671282125 0 1.6244911671282125 23.24830612960227 0 0 0 0 64.519226785143587 34.092436862749693 0 34.092436862749693 -131.97602778961846 0 0 0 0 -170.51905830766918 -90.093522875650365 0 -90.093522875650365 -9.6369413024925734 0 0 0 0 -0.24442941089570613 0.78052130608148929 0 0.78052130608148929 -2.0823091276744519 0 0 0 0 56.744344331051252 73.532224914401183 0 73.532224914401183 -59.876282025718638 0 0 0 0 -63.757702274556777 7.0749272348685963 0 7.0749272348685963 37.856796704491671 0 0 0 0 -18.893805555910603 -29.629398413728268 0 -29.629398413728268 -21.951186688596522 0 0 0 0 -0.12727030484972879 1.4444539759105011 0 1.4444539759105011 -1.2996740133582199 0 0 0 0 -3.7258311965138091 4.4736387846186147 0 4.4736387846186147 2.1347528586222779 0 0 0 0 -11.973848099222607 -0.44246328205398555 0 -0.44246328205398555 8.4753449570707744 0 0 0 0 -8.6494475171423346 6.7350772200894085 0 6.7350772200894085 21.02075692637186 0 0 0 0 2.8070497955545761 1.9379947403814413 0 1.9379947403814413 3.1186612107740075 0 0 0 0 -2.0390990128471458 -6.1432806398604498 0 -6.1432806398604498 11.492954343637848 0 0 0 0 -4.5848916286324766 -3.3071009499233384 0 -3.3071009499233384 13.638884169604353 0 0 0 0 31.450804339694514 -4.1172772401173461 0 -4.1172772401173461 5.5203529654202157 0 0 0 0 11.382617198491516 23.296703606848894 0 23.296703606848894 28.144331032027139 0 0 0 0 -0.51561327103023391 3.4366027479407619 0 3.4366027479407619 -3.8550188232332001 0 0 0 0 -99.34449957486504 -52.327640176582008 0 -52.327640176582008 -46.721985635866986 0 0 0 0 1.8960923717482192 1.3648366441172728 0 1.3648366441172728 -2.1392640496310937 0 0 0 0 -50.436240568076812 -31.763841570888236 0 -31.763841570888236 -54.271411432856894 0 0 0 0 -88.91026547414458 -50.40570714786719 0 -50.40570714786719 -16.794615986120334 0 0 0 0 -100.80083275777361 -35.448726227245743 0 -35.448726227245743 -22.940651620593144 0 0 0 0 -1.7917987461892091 3.1847115210031127 0 3.1847115210031127 -4.2700995172981582 0 0 0 0 15.08810854839885 44.860835444098143 0 44.860835444098143 33.061939673468302 0 0 0 0 -52.330311005049225 4.0547368202460348 0 4.0547368202460348 -0.27455755817868521 0 0 0 0 -57.648815350884433 6.5825454150170231 0 6.5825454150170231 3.0168056959420255 0 0 0 0 -54.043929923432188 2.4372633202315228 0 2.4372633202315228 2.8106368221680214 0 0 0 0 -48.262495198648821 -4.217975945782797 0 -4.217975945782797 3.8260270894876385 0 0 0 0 -45.95391184512664 -1.6627814225944348 0 -1.6627814225944348 3.2379445273256238 0 0 0 0 -37.099284654091662 -7.5687067982188978 0 -7.5687067982188978 2.7749954036635245 0 0 0 0 -47.26715050222856 0.45457843661793618 0 0.45457843661793618 1.0154891948194518 0 0 0 0 -48.924519865310685 -0.45157407760734714 0 -0.45157407760734714 1.6680731734206802 0 0 0 0 -51.146039952966703 3.4242284484602123 0 3.4242284484602123 -0.42868113633949179 0 0 0 0 -54.961847160152502 0.17149684723278824 0 0.17149684723278824 2.4496765526106401 0 0 0 0 -45.412560221346212 2.5728149074049043 0 2.5728149074049043 -3.0084273579416276 0 0 0 0 -60.203010467700551 -8.2612495129103536 0 -8.2612495129103536 -7.5039112672376973 0 0 0 0 -47.041922872990654 7.3311648473431887 0 7.3311648473431887 -4.7054172305573729 0 0 0 0 -54.483027294944804 3.415298173763631 0 3.415298173763631 -1.8270241564927119 0 0 0 0 -54.474340062070951 3.2487175541212991 0 3.2487175541212991 1.1128353720666837 0 0 0 0 -85.568786665297921 -64.31187460724891 0 -64.31187460724891 61.024417923665226 0 0 0 0 -53.775138194050669 40.488174691484915 0 40.488174691484915 9.5601472835201662 0 0 0 0 -39.111456904382067 5.5184256213723302 0 5.5184256213723302 -6.3173951778335322 0 0 0 0 -102.03563998198524 3.3648082284632324 0 3.3648082284632324 11.591255922842265 0 0 0 0 -69.54482783028925 -3.469816644455932 0 -3.469816644455932 1.8850039700025718 0 0 0 0 -68.26251066273278 10.602931484595704 0 10.602931484595704 -1.3193299529064006 0 0 0 0 -53.135225861317849 7.9825749070678285 0 7.9825749070678285 -2.2526707460907573 0 0 0 0 -55.463699426746643 9.831925695741063 0 9.831925695741063 3.1025944004613848 0 0 0 0 -61.075377303975529 7.8054416453793465 0 7.8054416453793465 3.4376240360971906 0 0 0 0 -35.899361128208511 -0.11093525101500745 0 -0.11093525101500745 -0.31701903762791517 0 0 0 0 -63.129359519166428 -2.5998760139159458 0 -2.5998760139159458 1.0895281525592111 0 0 0 0 -59.066144168446044 9.465460948224063 0 9.465460948224063 3.5139384944245649 0 0 0 0 -57.64779084867132 5.7106841991239889 0 5.7106841991239889 3.6257683033634738 0 0 0 0 -68.248796138032048 0.77084788910474344 0 0.77084788910474344 -1.1089951010716845 0 0 0 0 -59.250893498013511 7.2406128690236642 0 7.2406128690236642 -1.723757689331137 0 0 0 0 -53.505601894399547 2.1021766411642631 0 2.1021766411642631 -18.045764469344249 0 0 0 0 -66.773610948976057 7.5314316314195366 0 7.5314316314195366 3.7857299199907004 0 0 0 0 -54.900522271019327 4.3051122158385624 0 4.3051122158385624 4.1525751549568213 0 0 0 0 -60.037719970034232 -0.30708985057322025 0 -0.30708985057322025 4.73296167563484 0 0 0 0 -50.748871152118056 -6.5245360494542624 0 -6.5245360494542624 3.3647381263258467 0 0 0 0 -50.433777951755474 -3.8844503020735601 0 -3.8844503020735601 4.8465512138438953 0 0 0 0 -67.414849097498518 -4.2147975806965405 0 -4.2147975806965405 6.9218606175537616 0 0 0 0 -101.60140144961906 2.8236956407224056 0 2.8236956407224056 5.2290211210436155 0 0 0 0 -53.135105527008363 -9.6252676425462482 0 -9.6252676425462482 4.6029918086343287 0 0 0 0 -56.159234165216731 16.530668171985042 0 16.530668171985042 -32.868624829708551 0 0 0 0 -41.595046912651014 0.1669881941265885 0 0.1669881941265885 -42.162555933465455 0 0 0 0 -36.334419304474068 -18.458208200304284 0 -18.458208200304284 -14.279488963208479 0 0 0 0 -81.588283950801269 -34.215529635148812 0 -34.215529635148812 -8.8469354532176112 0 0 0 0 -26.869597342923498 -51.060387871818193 0 -51.060387871818193 -5.4221944004272018 0 0 0 0 -135.09053554868933 -68.67094780363874 0 -68.67094780363874 8.031841664284741 0 0 0 0 -0.34034870106705206 0.40249900991765308 0 0.40249900991765308 -0.57107044393864381 0 0 0 0 -108.25982540008999 -12.860127947046323 0 -12.860127947046323 -4.7610664980510364 0 0 0 0 -3.0057475760104353 -15.467600666039402 0 -15.467600666039402 -35.889727500341735 0 0 0 0 -59.645456935504626 14.008148229896619 0 14.008148229896619 -0.64435897729532599 0 0 0 0 -34.334663672125544 15.114178223902982 0 15.114178223902982 -3.4765682062400174 0 0 0 0 -95.204638919492027 0.0023263636558112921 0 0.0023263636558112921 7.2787441397906036 0 0 0 0 -60.143745898017642 8.2792539515314161 0 8.2792539515314161 3.6888385541243451 0 0 0 0 -154.86168886477208 28.305315569135473 0 28.305315569135473 9.3361654833433576 0 0 0 0 -63.246196052345113 17.801784924324352 0 17.801784924324352 9.9729256480125059 0 0 0 0 -6.3935944540335186 18.695863311643336 0 18.695863311643336 -18.169413208675223 0 0 0 0 -61.740665444996466 52.025335489931109 0 52.025335489931109 -48.431019018785662 0 0 0 0 -0.83659757969824788 -0.43861632367477643 0 -0.43861632367477643 0.024586814720494843 0 0 0 0 5.9754306918971452 0.64785704613501593 0 0.64785704613501593 -8.9221893102662762 0 0 0 0 -8.9877065619848509 -31.181915020266615 0 -31.181915020266615 -15.916775104476756 0 0 0 0 -1.8560438583772374 -0.5217429523787791 0 -0.5217429523787791 -0.13549677250930836 0 0 0 0 -63.702872944248156 -73.070302523764326 0 -73.070302523764326 -44.571366727732652 0 0 0 0 -168.73411320334071 -40.825734806383593 0 -40.825734806383593 40.005367622545464 0 0 0 0 -108.18106656279542 -18.617295389130163 0 -18.617295389130163 48.005651755282543 0 0 0 0 -120.89761041229758 -39.378934648517657 0 -39.378934648517657 22.810357897043104 0 0 0 0 -86.656215885577694 -59.815426199930243 0 -59.815426199930243 -13.539668430286838 0 0 0 0 -40.824378832177899 -24.987937113536759 0 -24.987937113536759 0.46513789157060614 0 0 0 0 -41.411906870484472 -22.142670559296192 0 -22.142670559296192 -8.0397642521111266 0 0 0 0 -63.386390196598768 -21.1629222412638 0 -21.1629222412638 1.8229812699109971 0 0 0 0 -43.938997289681538 3.539846951427478 0 3.539846951427478 -1.9696450114979598 0 0 0 0 6.4975222936718637 57.536923196689258 0 57.536923196689258 -94.413705899842967 0 0 0 0 -0.75299956807124513 1.0497362631532621 0 1.0497362631532621 -1.1135198925374818 0 0 0 0 -41.630049307938407 -4.352255228731849 0 -4.352255228731849 -1.4409219518997816 0 0 0 0 -19.201831758859726 14.923779406055104 0 14.923779406055104 6.2304917798323913 0 0 0 0 -43.07838385116338 -0.418842637542582 0 -0.418842637542582 9.0166315504161503 0 0 0 0 -37.232625911366085 -1.4783750957950019 0 -1.4783750957950019 -10.519021184587928 0 0 0 0 -36.627744560727479 -4.9537252414899626 0 -4.9537252414899626 -0.46129011208745396 0 0 0 0 -22.026887009089478 19.239430699022591 0 19.239430699022591 -2.1872066728899426 0 0 0 0 -36.390894966403323 -10.636178252879901 0 -10.636178252879901 -3.0256653719013684 0 0 0 0 -5.2348631855282477 2.3523937774458936 0 2.3523937774458936 0.0012148176664688037 0 0 0 0 -7.7217020582766054 4.6377920747223698 0 4.6377920747223698 1.2729772556125454 0 0 0 0 -8.2959985006474426 2.390063123604989 0 2.390063123604989 2.1327386434709297 0 0 0 0 -7.6499923759379271 0.074822027664936286 0 0.074822027664936286 -1.7987108136699135 0 0 0 0 -7.7237684328272849 1.8220001122135123 0 1.8220001122135123 1.0172719215956931 0 0 0 0 -6.4315818244256775 2.1000103330759208 0 2.1000103330759208 0.34267520391680328 0 0 0 0 -0.69699105400563011 -0.61876202783913037 0 -0.61876202783913037 -1.4676533083165824 0 0 0 0 -3.4668696513272153 5.0125687735155111 0 5.0125687735155111 2.4261188600395371 0 0 0 0 -8.4471343238378722 0.23979107268513644 0 0.23979107268513644 -0.53750627826218533 0 0 0 0 -4.2207378206455326 -1.0730307640426044 0 -1.0730307640426044 0.085157342989772289 0 0 0 0 -9.210093146220288 0.039168259788823434 0 0.039168259788823434 -0.81768444791123329 0 0 0 0 -8.9017356834474413 -1.0100045476666537 0 -1.0100045476666537 -1.2460239386703051 0 0 0 0 -2.3102756455451816 0.30342556899930762 0 0.30342556899930762 0.16399701752072815 0 0 0 0 -1.7574287306069891 -4.2735450181398846 0 -4.2735450181398846 1.8123334416832222 0 0 0 0 -7.8776444372942933 -1.2380212504967858 0 -1.2380212504967858 -1.9537271236748666 0 0 0 0 -8.7983648215276489 -2.8557173950086581 0 -2.8557173950086581 -0.4884557604150781 0 0 0 0 -16.336745026671451 -1.5965138830295018 0 -1.5965138830295018 13.770755150472382 0 0 0 0 -0.88503959356153517 -0.92421863136155302 0 -0.92421863136155302 -2.2364329611175888 0 0 0 0 -29.919300953182756 -18.205217545261632 0 -18.205217545261632 16.381019375153755 0 0 0 0 19.348120370076231 4.9418144359063589 0 4.9418144359063589 -19.489378409746678 0 0 0 0 -30.422921561718795 -35.958974880608082 0 -35.958974880608082 -49.0748705374438 0 0 0 0 -40.199202667027748 27.3093114583736 0 27.3093114583736 -31.301614935608512 0 0 0 0 -21.075920557218069 -7.9283885616623593 0 -7.9283885616623593 -5.3610466460291946 0 0 0 0 -2.2981851638209463 2.8527763907542258 0 2.8527763907542258 1.8266497662355081 0 0 0 0 -3.1061804673427105 3.1119266706650706 0 3.1119266706650706 3.1937459633996781 0 0 0 0 -3.1605643165194124 3.2671300339180789 0 3.2671300339180789 4.7263810081830115 0 0 0 0 -5.2678834913895116 4.0433271341397585 0 4.0433271341397585 4.0768696387717682 0 0 0 0 -4.9319604471007477 1.4717564976699045 0 1.4717564976699045 1.9146835491658583 0 0 0 0 -0.5858844475242222 5.8972543850131842 0 5.8972543850131842 4.8029826250217411 0 0 0 0 -4.5589807649789975 2.9800390573013269 0 2.9800390573013269 -0.53553264462046912 0 0 0 0 -7.9935091088843819 9.3605635043422275 0 9.3605635043422275 5.5579988427850822 0 0 0 0 -6.1496967377248133 1.8529893689993973 0 1.8529893689993973 0.58678801712142725 0 0 0 0 -5.3460001589755848 5.3633943976070668 0 5.3633943976070668 3.1210536152345867 0 0 0 0 -5.0067528519266489 7.0109579479106969 0 7.0109579479106969 2.0197325870918803 0 0 0 0 -7.4417261876442353 8.4154831602776312 0 8.4154831602776312 1.3715290909520945 0 0 0 0 -4.1003698172089074 3.2726162602286895 0 3.2726162602286895 -0.66614977999851077 0 0 0 0 -5.8653177673950267 8.4025174588899745 0 8.4025174588899745 2.9856559490592645 0 0 0 0 -0.97070942712540997 0.33309589586483668 0 0.33309589586483668 0.26613897305084588 0 0 0 0 -3.9789249081263733 4.5841678696488657 0 4.5841678696488657 1.9317536249220666 0 0 0 0 -1.9633124960760142 6.1159440408998762 0 6.1159440408998762 0.55260764100034976 0 0 0 0 -0.29854813961082982 5.5360402980121535 0 5.5360402980121535 0.56824538955447679 0 0 0 0 -20.922562619985456 1.8377255137446582 0 1.8377255137446582 4.1983509809736006 0 0 0 0 -11.312174053573926 4.9235236451532387 0 4.9235236451532387 -2.0447883306244421 0 0 0 0 -7.9146850990873645 2.7344345663778142 0 2.7344345663778142 3.2031182575740331 0 0 0 0 -10.372663648095113 1.1962888860812058 0 1.1962888860812058 2.4694595690330061 0 0 0 0 -12.156876476463367 5.5187936072632056 0 5.5187936072632056 3.3996913073697215 0 0 0 0 -4.4849645853114453 4.4637065621471947 0 4.4637065621471947 3.0314126552996186 0 0 0 0 -11.01843669128084 1.6619431869962682 0 1.6619431869962682 1.983423169906473 0 0 0 0 -8.0243623014307559 -0.084495443257708303 0 -0.084495443257708303 2.4294368256607868 0 0 0 0 -2.7551871046280141 -0.5985049046620059 0 -0.5985049046620059 2.2508171390207545 0 0 0 0 -9.9226197478590166 -0.40292964135858256 0 -0.40292964135858256 0.99082708364085192 0 0 0 0 -6.9817630768629897 -2.4295166810957198 0 -2.4295166810957198 1.4922341444125777 0 0 0 0 -7.9281400519959426 1.4285070258113457 0 1.4285070258113457 1.021488205522088 0 0 0 0 -10.299456685138466 -1.1519335660586876 0 -1.1519335660586876 1.3357246156147866 0 0 0 0 -11.35588526150093 -1.2737830654324398 0 -1.2737830654324398 2.3194669698737016 0 0 0 0 -6.5450235451107934 -1.2331126844278888 0 -1.2331126844278888 -0.016344936181749148 0 0 0 0 -13.558969900964996 0.028716510041292054 0 0.028716510041292054 -0.39060599217418712 0 0 0 0 -13.828508788128829 1.8610052207610863 0 1.8610052207610863 -0.73356957110627263 0 0 0 0 -13.238363811038653 1.1831995865525187 0 1.1831995865525187 -0.0044325685123567382 0 0 0 0 -1.5653016852416066 0.80311370876887445 0 0.80311370876887445 -0.0080869027914385327 0 0 0 0 -12.719528650921575 1.7703403695592215 0 1.7703403695592215 0.54805740380788848 0 0 0 0 -14.054256181271739 5.037265211621957 0 5.037265211621957 2.1128904055044373 0 0 0 0 -7.8643885426810058 1.3250489271513866 0 1.3250489271513866 1.9834659919784243 0 0 0 0 -8.1508330965734785 -1.8425284382519749 0 -1.8425284382519749 1.3393678154279769 0 0 0 0 -8.620928826258023 2.0643696212664508 0 2.0643696212664508 -2.6336637798162883 0 0 0 0 -8.7804270627317464 2.0603099169037735 0 2.0603099169037735 1.5036082795594079 0 0 0 0 -1.7020464805218842 -0.17462014886349309 0 -0.17462014886349309 0.13141154814555556 0 0 0 0 -10.937012823572331 -0.41999542505124055 0 -0.41999542505124055 1.8452453997676912 0 0 0 0 -3.7864702471924829 4.3576347169169196 0 4.3576347169169196 4.9346197281154218 0 0 0 0 -7.1008851556171066 0.77244578761303728 0 0.77244578761303728 2.3034627517997137 0 0 0 0 -1.6823606581592685 3.734591914437317 0 3.734591914437317 2.086599358807689 0 0 0 0 -2.4056340858659162 2.4547893397259664 0 2.4547893397259664 2.2632298899919352 0 0 0 0 -8.0744540861036249 1.8111305441051564 0 1.8111305441051564 1.9728920253045588 0 0 0 0 -6.0890477679441926 0.76145347382964168 0 0.76145347382964168 3.6594515006591926 0 0 0 0 -6.2854249870642889 4.5972081688389288 0 4.5972081688389288 5.2933407751584554 0 0 0 0 -11.904520652650262 0.31065301032538173 0 0.31065301032538173 -0.40017635178822175 0 0 0 0 -1.4286728953848069 6.3130078730535359 0 6.3130078730535359 4.3587734991591249 0 0 0 0 -3.1124045271503746 7.540464233972898 0 7.540464233972898 7.9821845093831314 0 0 0 0 -2.1649865313980854 5.3382530538604094 0 5.3382530538604094 0.60500013324684687 0 0 0 0 -3.7891665329716488 4.2850954100386218 0 4.2850954100386218 4.4504255738967604 0 0 0 0 -9.9091340802633567 1.1447693211796377 0 1.1447693211796377 -3.4660271471204851 0 0 0 0 -4.2217899358372044 1.7294144465268979 0 1.7294144465268979 0.15843959865845214 0 0 0 0 -14.895712308260954 0.57270180514939284 0 0.57270180514939284 -1.233405952511248 0 0 0 0 -8.2657414646450462 2.2043971659382811 0 2.2043971659382811 2.9686866590026844 0 0 0 0 -9.4855040302554698 -3.2000867770261721 0 -3.2000867770261721 -3.4697721083466604 0 0 0 0 -9.2644992888103843 -0.24422101694415232 0 -0.24422101694415232 -1.0822802555831004 0 0 0 0 -15.500859270001285 -1.3919279421926944 0 -1.3919279421926944 0.39449423233236303 0 0 0 0 -3.5899991761274501 1.2775287895218361 0 1.2775287895218361 -0.13972692208333193 0 0 0 0 -9.0457488223861127 1.6359813214322445 0 1.6359813214322445 0.22442930548186291 0 0 0 0 -148.87118115861995 47.473117865490167 0 47.473117865490167 5.5285458198777633 0 0 0 0 25.034558813928015 6.755887810784202 0 6.755887810784202 -0.38537982078696587 0 0 0 0 -13.127265675976787 -0.044239274498295345 0 -0.044239274498295345 1.8139268239439161 0 0 0 0 -9.7658956811179092 1.0953276710805662 0 1.0953276710805662 0.75488691701475896 0 0 0 0 -10.91135827795182 2.9613702664840673 0 2.9613702664840673 3.0441655686711329 0 0 0 0 -7.4101032512855909 -9.648430544324583 0 -9.648430544324583 13.037649662224112 0 0 0 0 13.38300898138823 -12.725757960701458 0 -12.725757960701458 4.4478281061719827 0 0 0 0 -9.8881141830636352 1.1056083888528292 0 1.1056083888528292 0.50158411338065889 0 0 0 0 -1.7996304152772247 0.73809834487992854 0 0.73809834487992854 0.59410672145652477 0 0 0 0 -19.593455096671732 1.0472402314276223 0 1.0472402314276223 1.6880062301679573 0 0 0 0 -22.817994109679603 5.029508361084936 0 5.029508361084936 -1.9358452472315548 0 0 0 0 -15.714342911838685 2.6947020638258437 0 2.6947020638258437 1.1283551425978544 0 0 0 0 -10.64936855969961 -2.1408101131650028 0 -2.1408101131650028 -0.3159323254562878 0 0 0 0 -14.410177691292802 -1.2732865781049441 0 -1.2732865781049441 0.48825333092190704 0 0 0 0 -17.037512977348797 -4.1280776455862451 0 -4.1280776455862451 -1.5075070734674227 0 0 0 0 -11.948757417387242 -2.4038692501624155 0 -2.4038692501624155 -5.0794781878103095 0 0 0 0 -10.618968071061545 0.98333062282790706 0 0.98333062282790706 -1.7037030985688943 0 0 0 0 -12.099265447975995 -0.24132056460416607 0 -0.24132056460416607 -2.6634284506124004 0 0 0 0 -16.056129034686137 0.06339052248142707 0 0.06339052248142707 2.4823209139919982 0 0 0 0 -2.3554175714423082 -3.9899672214647861 0 -3.9899672214647861 0.40017587992522241 0 0 0 0 -15.063077440017992 -1.6813069641710285 0 -1.6813069641710285 9.1967361947470181 0 0 0 0 -25.68506375902507 -0.79474099026265321 0 -0.79474099026265321 -2.5122791877138297 0 0 0 0 -0.76133682999495367 -0.90668804706116379 0 -0.90668804706116379 0.48457420581537503 0 0 0 0 -4.4991965685178457 -8.7395679685779442 0 -8.7395679685779442 -0.79635690357304156 0 0 0 0 -0.81031132232768088 -4.1687018812792456 0 -4.1687018812792456 0.9166495238466843 0 0 0 0 -6.853267433805172 -6.4781813638903998 0 -6.4781813638903998 0.97108225781039437 0 0 0 0 -28.90158523955256 3.8884378285069943 0 3.8884378285069943 -25.091407335604799 0 0 0 0 -1.0554908470708142 -5.4189898322771342 0 -5.4189898322771342 -0.039166232989273908 0 0 0 0 -3.6394368963758552 -6.032399007649019 0 -6.032399007649019 -0.028262063927031456 0 0 0 0 3.9167356744792414 -8.1107824492623877 0 -8.1107824492623877 -1.597962752650119 0 0 0 0 -2.3913800688649616 -6.7263124453489525 0 -6.7263124453489525 2.6178355976871899 0 0 0 0 -2.238004736412222 -4.8901839551725743 0 -4.8901839551725743 -2.3368789952210136 0 0 0 0 5.7637197537947031 3.1236174666211411 0 3.1236174666211411 -0.92193050911737373 0 0 0 0 -0.65604592808615525 -0.63693479446602641 0 -0.63693479446602641 -0.5963028634388805 0 0 0 0 -84.138384649735599 57.471371746575642 0 57.471371746575642 -1.982695313683962 0 0 0 0 -111.0962919570743 24.887408914295406 0 24.887408914295406 45.85089852672445 0 0 0 0 -35.578849269884813 26.620742549265742 0 26.620742549265742 -34.889377657656496 0 0 0 0 -30.459078350893833 8.8508733684689105 0 8.8508733684689105 -21.091565653523276 0 0 0 0 -36.265327873559727 11.32815899666457 0 11.32815899666457 -11.568960988754952 0 0 0 0 -18.46833980616293 6.106700282177826 0 6.106700282177826 -14.431251187986959 0 0 0 0 -30.16119754784927 2.6370292137321485 0 2.6370292137321485 -1.9895973726502234 0 0 0 0 -47.812521523072064 18.346692934880593 0 18.346692934880593 -6.9237276753723336 0 0 0 0 -11.458768502719067 -0.15791108880671345 0 -0.15791108880671345 -7.7961223579479793 0 0 0 0 -30.354097523882047 3.42490938410333 0 3.42490938410333 4.4627489012727892 0 0 0 0 -18.193579304924242 -5.0277328777387993 0 -5.0277328777387993 -4.8688958902499735 0 0 0 0 -2.0283493119000013 -9.8352650234900239 0 -9.8352650234900239 -2.9350458402095683 0 0 0 0 2.7732487786306592 5.26197314969545 0 5.26197314969545 -2.2997532181616975 0 0 0 0 72.109445010084073 22.418129060473689 0 22.418129060473689 1.2175594055216834 0 0 0 0 -20.309500473569642 -8.5311625019107851 0 -8.5311625019107851 12.296291741891309 0 0 0 0 -57.070500854959619 -119.22637115945065 0 -119.22637115945065 38.395937226143815 0 0 0 0 -3.5417273067250448 -0.49469062023843957 0 -0.49469062023843957 0.18310318905456668 0 0 0 0 -40.874316046216677 -10.623522204334261 0 -10.623522204334261 3.2946674868070431 0 0 0 0 -41.585781632234102 -6.4986076931549519 0 -6.4986076931549519 1.2885615320696502 0 0 0 0 -0.2522370339029294 -12.705874984725682 0 -12.705874984725682 -21.060157807858019 0 0 0 0 0.76968045919628203 -0.67495518542670907 0 -0.67495518542670907 -0.82081235461999258 0 0 0 0 -31.512821793689227 7.6152441430101874 0 7.6152441430101874 9.9581867990818864 0 0 0 0 -29.332263475174159 4.0120069855134375 0 4.0120069855134375 -29.279160657162265 0 0 0 0 -2.0173762039671246 -6.1227353463014556 0 -6.1227353463014556 -2.4025742860207444 0 0 0 0 -6.197015039733742 4.6670958223851358 0 4.6670958223851358 -0.76918946562955171 0 0 0 0 -10.753795504477239 -1.1330505309420005 0 -1.1330505309420005 4.3447002556150665 0 0 0 0 -6.4925739318905471 1.5099796565248198 0 1.5099796565248198 -0.72098232061671297 0 0 0 0 0.83274506132829629 0.67745048706217403 0 0.67745048706217403 -3.7400800852147995 0 0 0 0 -11.57424491998745 1.1696903727315657 0 1.1696903727315657 -0.37838427991482604 0 0 0 0 -7.66262518061626 -0.72571043910443223 0 -0.72571043910443223 -3.0455773304088325 0 0 0 0 -6.5384424292240055 1.5555683711950223 0 1.5555683711950223 -0.65688309407778434 0 0 0 0 -2.8817880821994777 -3.3155374974932101 0 -3.3155374974932101 -0.65847914449318523 0 0 0 0 -49.313354550469541 -34.388812534105625 0 -34.388812534105625 10.899538387239318 0 0 0 0 -0.13368827269622008 0.20874359383374363 0 0.20874359383374363 -0.025917835726514404 0 0 0 0 0.34037126104749404 5.566379829485868 0 5.566379829485868 -2.1230772644871649 0 0 0 0 -7.9328760352203744 -7.220733160708221 0 -7.220733160708221 -19.147998044573455 0 0 0 0 -11.01569939471085 -4.2366593978404126 0 -4.2366593978404126 2.3560185883704889 0 0 0 0 -1.3474652450779403 0.35607003928428815 0 0.35607003928428815 -0.26369251279246875 0 0 0 0 -31.904674796194154 -22.045425309892906 0 -22.045425309892906 -6.2311861885948474 0 0 0 0 -8.0219836924491119 1.7807380555910868 0 1.7807380555910868 0.75752841362431411 0 0 0 0 -31.720476689959668 -9.4846201255496645 0 -9.4846201255496645 2.2057891009332025 0 0 0 0 -30.980645094918145 -9.2541631162183648 0 -9.2541631162183648 2.2814778175505523 0 0 0 0 -30.651865195968639 -6.2358315817161269 0 -6.2358315817161269 1.6083625020052068 0 0 0 0 -13.285772673334691 -13.569834951672668 0 -13.569834951672668 -2.3027311628867437 0 0 0 0 -0.53777565832328944 -6.1366650449486908 0 -6.1366650449486908 -1.4907776929254237 0 0 0 0 -33.514711381787492 -15.100795567888611 0 -15.100795567888611 4.5112681063129969 0 0 0 0 -38.449645959958616 -5.7624134631645916 0 -5.7624134631645916 2.2704991535591148 0 0 0 0 -30.648799951311048 -6.3159124289555848 0 -6.3159124289555848 -1.2983408105712897 0 0 0 0 -29.639790590859775 -8.0101916078444901 0 -8.0101916078444901 -1.3970724064599622 0 0 0 0 -30.348889902958945 -8.7419891270234871 0 -8.7419891270234871 -1.8240889764433632 0 0 0 0 -29.131367383438374 -10.826726009759341 0 -10.826726009759341 -2.4561794225264748 0 0 0 0 -26.997078992253137 -11.027224526659467 0 -11.027224526659467 -4.6343621969356263 0 0 0 0 -26.592832903967064 -14.371710631503788 0 -14.371710631503788 -3.6268046424293061 0 0 0 0 -19.412722535482317 -10.54890707182858 0 -10.54890707182858 -4.7786382161955316 0 0 0 0 -23.43035096017411 -15.429045938225272 0 -15.429045938225272 -1.2473516211784954 0 0 0 0 -16.306244882789542 -12.356713052502982 0 -12.356713052502982 -4.8788439978609404 0 0 0 0 -18.806869703032135 -10.336411387160638 0 -10.336411387160638 1.1428579703463129 0 0 0 0 -15.960517725209684 -12.244227868484245 0 -12.244227868484245 -3.9657832281435503 0 0 0 0 -30.449096790251133 -13.415810587311853 0 -13.415810587311853 -2.2898632530952909 0 0 0 0 -51.577767636261342 -24.420558892060399 0 -24.420558892060399 -3.6021778879214708 0 0 0 0 1.9263900099251288 -5.2723269736726905 0 -5.2723269736726905 -1.5827914502823837 0 0 0 0 -25.641279139416156 -18.749651866291046 0 -18.749651866291046 -8.2177495237883704 0 0 0 0 -27.380545835796511 -7.4461947061447518 0 -7.4461947061447518 -6.3400968892131004 0 0 0 0 -24.343665235555818 -11.96354333500949 0 -11.96354333500949 -10.772556705757097 0 0 0 0 -54.010496917522687 -9.1341804947996934 0 -9.1341804947996934 4.128967149456912 0 0 0 0 -32.755304060782237 -11.454721452439117 0 -11.454721452439117 0.12787320830761928 0 0 0 0 -2.599287771162516 -6.1764483518817404 0 -6.1764483518817404 0.012390147640570337 0 0 0 0 -2.232153529078289 -5.0071681254659453 0 -5.0071681254659453 -1.8836887273287175 0 0 0 0 -10.536502212985852 -0.63343385464474977 0 -0.63343385464474977 -0.27362054222089682 0 0 0 0 -20.874104159820035 -11.780518542126856 0 -11.780518542126856 -6.588647214374646 0 0 0 0 -24.085658577666891 -9.2309095443290516 0 -9.2309095443290516 -8.4470604682051089 0 0 0 0 -23.294057934921966 -9.1938998717902223 0 -9.1938998717902223 0.29185919495239432 0 0 0 0 -26.834903906547424 -11.32318845585894 0 -11.32318845585894 1.2670854687221436 0 0 0 0 -25.943478070583978 -7.8297348401044928 0 -7.8297348401044928 1.5600526998709228 0 0 0 0 -8.2414254168406842 -7.2257812971203066 0 -7.2257812971203066 -0.28868139696305661 0 0 0 0 -17.091177265381248 -7.0692225914569917 0 -7.0692225914569917 9.7261949805792938 0 0 0 0 -14.63170930294131 -6.0555952378032893 0 -6.0555952378032893 -0.94642576777752208 0 0 0 0 -21.862197652403665 -11.405521135105516 0 -11.405521135105516 4.6299069212234372 0 0 0 0 -11.03736403492735 -4.0717798656435207 0 -4.0717798656435207 0.5839482358667567 0 0 0 0 -15.292285114236378 -4.3017525732927258 0 -4.3017525732927258 1.6133744711049633 0 0 0 0 -17.302599297483539 -11.361370408580342 0 -11.361370408580342 4.2523865555432963 0 0 0 0 -10.954688855909584 -5.3293834435540477 0 -5.3293834435540477 -1.0277045563320382 0 0 0 0 -10.367153073457757 -5.9009956190998309 0 -5.9009956190998309 5.4969126341976562 0 0 0 0 -14.784256340514617 -11.145444700729755 0 -11.145444700729755 -2.3925849617061772 0 0 0 0 -21.063895515716375 -5.9672959112548707 0 -5.9672959112548707 0.59525892929326729 0 0 0 0 -21.333748775606182 -5.4705775750505836 0 -5.4705775750505836 0.0022219998820673936 0 0 0 0 12.090744822286069 19.319248010246497 0 19.319248010246497 13.983728727210291 0 0 0 0 -152.76943177706562 -29.001554882750497 0 -29.001554882750497 111.72916344432167 0 0 0 0 -13.842987901464186 -7.1272713830528502 0 -7.1272713830528502 -2.3005504207837726 0 0 0 0 143.99269118239317 -82.754037809233068 0 -82.754037809233068 31.343589493181753 0 0 0 0 117.87991011716076 -136.00439512812568 0 -136.00439512812568 -76.740162095942651 0 0 0 0 -0.093191941048267779 -3.4695524929309927 0 -3.4695524929309927 -0.70148277234222911 0 0 0 0 -11.85012623085413 13.02753016073126 0 13.02753016073126 -215.55199889141477 0 0 0 0 -21.253318305207358 4.6977944275261052 0 4.6977944275261052 68.223184354856357 0 0 0 0 -226.38835542105153 -136.46402961757803 0 -136.46402961757803 -52.459054369759997 0 0 0 0 85.08839477665606 -73.167284661387157 0 -73.167284661387157 89.349717630637087 0 0 0 0 100.54761654614776 51.906980292872277 0 51.906980292872277 -26.048749405599665 0 0 0 0 21.208202567306216 -22.979202789971964 0 -22.979202789971964 -9.8685569740978281 0 0 0 0 24.885825794011907 13.10355828238221 0 13.10355828238221 -0.87376842969251811 0 0 0 0 -50.724942267825099 41.25370887209624 0 41.25370887209624 -1.677188567795497 0 0 0 0 -53.300726259077237 17.069249202433099 0 17.069249202433099 31.040459658607233 0 0 0 0 22.501978492824492 -57.811367969890057 0 -57.811367969890057 -9.869203578158249 0 0 0 0 -2.3403338677586873 -0.24665658357678844 0 -0.24665658357678844 -0.27000270594406528 0 0 0 0 -63.26080139982696 9.6722850198631818 0 9.6722850198631818 9.4648546318889473 0 0 0 0 47.034544948535768 -10.870608295359375 0 -10.870608295359375 -6.4523192285191726 0 0 0 0 44.509821309892232 -32.256965442236691 0 -32.256965442236691 -11.156221467811974 0 0 0 0 19.754445973000657 -22.230941013287065 0 -22.230941013287065 -9.2122161943298124 0 0 0 0 4.2855418565268337 -45.912911186776455 0 -45.912911186776455 -14.507816126146054 0 0 0 0 -7.5348844180618668 -13.64713799243591 0 -13.64713799243591 -1.982447942417652 0 0 0 0 -19.610880787152666 -12.36365635408086 0 -12.36365635408086 1.9797657759810932 0 0 0 0 -32.092198742658638 -55.034961672944448 0 -55.034961672944448 -51.110172037642769 0 0 0 0 -12.277961022838099 -39.475394607870271 0 -39.475394607870271 6.7642795037838823 0 0 0 0 -27.794622080321233 -20.692194110372554 0 -20.692194110372554 32.838907352227977 0 0 0 0 -6.0099556333652515 -27.67656465030376 0 -27.67656465030376 -30.855516915923999 0 0 0 0 -6.0030095135566626 -5.1578107160449349 0 -5.1578107160449349 1.2106687955972575 0 0 0 0 -14.989681727029165 -15.384508675589871 0 -15.384508675589871 4.590929785535991 0 0 0 0 -31.683429957910334 -10.644443396990866 0 -10.644443396990866 4.7178371455452179 0 0 0 0 -27.141091019420855 -8.8475231320342118 0 -8.8475231320342118 1.1305047690864285 0 0 0 0 -31.155455646356131 -14.33320513097317 0 -14.33320513097317 13.676523358957326 0 0 0 0 -13.388591278987768 -4.4380334287686889 0 -4.4380334287686889 0.21541069922850234 0 0 0 0 -7.1442714331952377 -10.602667798535375 0 -10.602667798535375 -0.50977733786982204 0 0 0 0 -14.700388295097582 -9.3289074877481255 0 -9.3289074877481255 0.70229439153024487 0 0 0 0 -10.140338328166763 -0.96571228213167615 0 -0.96571228213167615 1.0687401445904925 0 0 0 0 -6.8359498737154354 -0.053116740236418991 0 -0.053116740236418991 2.1816256825939035 0 0 0 0 -7.3168950933666395 1.0186595855676295 0 1.0186595855676295 0.27236543580410122 0 0 0 0 -7.4429681756080868 4.0301070471213549 0 4.0301070471213549 2.9021697731391214 0 0 0 0 -7.9291058145172428 -0.10172866344032627 0 -0.10172866344032627 1.8966407739701481 0 0 0 0 -4.5449265920067852 -0.63897840484366952 0 -0.63897840484366952 0.098330215886783368 0 0 0 0 -8.1166739099846481 -0.72855521279562829 0 -0.72855521279562829 -0.20954720930185289 0 0 0 0 -6.7210943179827431 -0.18171295803730914 0 -0.18171295803730914 0.66544127431036348 0 0 0 0 -8.8196648949625835 0.58103957464763867 0 0.58103957464763867 0.48824558462424411 0 0 0 0 -19.006140193123429 -3.6577710719145671 0 -3.6577710719145671 -0.81190523639429557 0 0 0 0 -13.985410871311615 -2.7077284359095302 0 -2.7077284359095302 5.8024494222825496 0 0 0 0 -8.0863188802723016 -2.5636958605317659 0 -2.5636958605317659 -4.8672961461575142 0 0 0 0 -14.112973255098041 3.0586076853160193 0 3.0586076853160193 6.1667840771496003 0 0 0 0 -2.9275822254385275 0.17064411610908792 0 0.17064411610908792 6.7766422092124685 0 0 0 0 -0.33089821770336592 0.8726411009877344 0 0.8726411009877344 -0.32536395739024893 0 0 0 0 -2.7461791057630762 8.827296826556676 0 8.827296826556676 -5.2084927058444919 0 0 0 0 -1.4688607895177839 -0.49934028841958744 0 -0.49934028841958744 0.018313354571740881 0 0 0 0 4.0933826954192227 4.7842951111532557 0 4.7842951111532557 -11.873034198470577 0 0 0 0 -50.842892071302231 -10.754946478715055 0 -10.754946478715055 -1.3953371787743549 0 0 0 0 -0.12641316080215503 -1.473586916235905 0 -1.473586916235905 -0.02620239507802502 0 0 0 0 2.5055176793221108 -2.5761332246320308 0 -2.5761332246320308 5.663037861914745 0 0 0 0 -6.2055058134601069 -6.4508578506701539 0 -6.4508578506701539 4.8914105315561933 0 0 0 0 -20.816792460380384 1.2544825901775312 0 1.2544825901775312 12.284500230751974 0 0 0 0 -8.0941656083123235 7.1886963975861704 0 7.1886963975861704 -1.1904020817416949 0 0 0 0 -10.463858500094773 2.9296628402215905 0 2.9296628402215905 -1.9564689114175189 0 0 0 0 -9.5254395399788336 9.6369965983444672 0 9.6369965983444672 -0.73159097938832929 0 0 0 0 -7.8582533395165228 0.74237575354391083 0 0.74237575354391083 -1.617622381541878 0 0 0 0 -1.5907342540670619 1.4736140878050303 0 1.4736140878050303 0.65605387413239757 0 0 0 0 -10.210578085174348 9.3746453930608595 0 9.3746453930608595 -7.3956118156968387 0 0 0 0 -4.9041872382506995 -0.031985555122330922 0 -0.031985555122330922 0.33733111768480928 0 0 0 0 -16.427058653112908 9.0963653934566082 0 9.0963653934566082 -0.68815036234167337 0 0 0 0 -15.743804767903839 7.4799060452172341 0 7.4799060452172341 -23.386121417245249 0 0 0 0 -20.008498575498095 0.47550324677779843 0 0.47550324677779843 0.87258619894357892 0 0 0 0 -30.910718521998206 3.208630705368364 0 3.208630705368364 18.511446904419017 0 0 0 0 -32.593982039688854 22.76992606644626 0 22.76992606644626 8.9148516065883996 0 0 0 0 -32.786665698447905 26.467249290054724 0 26.467249290054724 -16.377963189726927 0 0 0 0 -43.205675235703893 42.428207616985446 0 42.428207616985446 42.716703017301825 0 0 0 0 -7.4648858307573391 30.385941187684239 0 30.385941187684239 -9.2302142828953038 0 0 0 0 -19.210412255783012 -21.714285507890509 0 -21.714285507890509 35.004076464688211 0 0 0 0 -30.296357702170781 4.8779646440120814 0 4.8779646440120814 -9.4995275624173701 0 0 0 0 -33.891620844537101 0.019817366127881542 0 0.019817366127881542 6.9480569649093695 0 0 0 0 -33.295581309506815 1.5842945936010437 0 1.5842945936010437 8.3763771616438589 0 0 0 0 -2.3612718305216385 -1.7314384327495884 0 -1.7314384327495884 -1.9863080977993821 0 0 0 0 -55.5788781205041 11.854152325976003 0 11.854152325976003 1.0900131599541965 0 0 0 0 -6.2637357458288534 12.339363442193644 0 12.339363442193644 -8.0500024128259611 0 0 0 0 -3.202064743407675 -4.6071266790262655 0 -4.6071266790262655 1.1097673101194232 0 0 0 0 -33.485562345026437 -14.879227974789956 0 -14.879227974789956 -1.1145080513761059 0 0 0 0 -2.3436891386032581 -5.047239290387024 0 -5.047239290387024 0.27005087124723737 0 0 0 0 -32.988349067347826 -9.7409052082075505 0 -9.7409052082075505 -3.3755345342583496 0 0 0 0 -21.355624992914045 -13.528876121633061 0 -13.528876121633061 -2.6335908521474494 0 0 0 0 -25.572020120634079 -11.813693717695514 0 -11.813693717695514 -3.2465041302934878 0 0 0 0 -31.188899404655331 -15.33088092652315 0 -15.33088092652315 -1.6517457464983636 0 0 0 0 -13.552735465232249 -5.1512261328899553 0 -5.1512261328899553 -1.0382511983088158 0 0 0 0 -16.478117395227716 -3.6308310852379222 0 -3.6308310852379222 1.1965775877326248 0 0 0 0 -15.699060115435451 -1.9115345515626716 0 -1.9115345515626716 -1.288852483567883 0 0 0 0 -8.0814398910388263 -3.4631234587332074 0 -3.4631234587332074 3.1337660454419165 0 0 0 0 -43.850151733102393 0.93301400589575678 0 0.93301400589575678 74.339302538262018 0 0 0 0 -15.137182653021227 32.479067704245608 0 32.479067704245608 90.97054407125961 0 0 0 0 -6.4945033857946903 0.076038033210060973 0 0.076038033210060973 2.3674589801122718 0 0 0 0 -53.170412950203172 -7.0749185216654951 0 -7.0749185216654951 78.024287722145232 0 0 0 0 -35.63788259807734 -5.5517934124617341 0 -5.5517934124617341 17.11377689404253 0 0 0 0 -7.0302134127523459 -94.066453874591502 0 -94.066453874591502 75.679823484825192 0 0 0 0 -46.274099629463308 5.8680156005525532 0 5.8680156005525532 68.763068066057258 0 0 0 0 -34.209825498128339 -15.261484672946835 0 -15.261484672946835 -3.7643028317705669 0 0 0 0 -54.489504250974278 95.20904226091352 0 95.20904226091352 -179.83846765193812 0 0 0 0 -2.2241515765902378 -0.65442048010149279 0 -0.65442048010149279 -0.086232189992238251 0 0 0 0 -51.148032752003928 0.74749263175590386 0 0.74749263175590386 -15.684706637237923 0 0 0 0 -100.63964693733033 136.91695876690198 0 136.91695876690198 -122.49508923621215 0 0 0 0 -94.860168855564552 40.586327677274767 0 40.586327677274767 20.373472804781585 0 0 0 0 -27.575869575130127 25.952263728794605 0 25.952263728794605 -106.56774367032176 0 0 0 0 -266.09087372820068 79.377179892439926 0 79.377179892439926 25.196368700836842 0 0 0 0 -130.54405041369682 -98.007742393483568 0 -98.007742393483568 -3.7893136954117423 0 0 0 0 -217.3446367022043 66.584305431604662 0 66.584305431604662 21.512554997266307 0 0 0 0 -89.141878352724234 -24.019699496332748 0 -24.019699496332748 25.29132419967641 0 0 0 0 -74.937655613197421 5.5922474764221306 0 5.5922474764221306 25.00804998622209 0 0 0 0 -57.627369791891397 -45.967240998981197 0 -45.967240998981197 18.723500331126075 0 0 0 0 -35.895178636206765 -24.653179713854001 0 -24.653179713854001 12.290649885925404 0 0 0 0 -42.098929527198379 -17.089880847285826 0 -17.089880847285826 38.830496893887357 0 0 0 0 -45.19111093646643 -26.219385522563584 0 -26.219385522563584 23.563887926321058 0 0 0 0 -27.560804169657786 -30.158471715257633 0 -30.158471715257633 21.579376116916478 0 0 0 0 -30.960165517155474 -20.553233285675901 0 -20.553233285675901 36.564513869817091 0 0 0 0 3.9838098726795579 -8.773724883659952 0 -8.773724883659952 35.212848527495908 0 0 0 0 0.23235178441264992 0.12047012590545858 0 0.12047012590545858 0.23451600109375081 0 0 0 0 -26.368127920577535 -24.32431403301689 0 -24.32431403301689 41.851611129331786 0 0 0 0 8.5661084290859435 5.3956209692159973 0 5.3956209692159973 -1.6183799218154036 0 0 0 0 -28.047191066263622 41.443505110796195 0 41.443505110796195 -12.963608472673343 0 0 0 0 -0.46676083405453639 -0.74364052886975851 0 -0.74364052886975851 0.29704366189231535 0 0 0 0 -67.356022265867068 25.60562595502779 0 25.60562595502779 -9.5808858501547434 0 0 0 0 -28.534104347490256 56.669152193792812 0 56.669152193792812 -117.89133422026316 0 0 0 0 -3.383323474885465 0.19002345712797641 0 0.19002345712797641 0.55044425472610192 0 0 0 0 -18.337913460567506 36.74991185372528 0 36.74991185372528 -39.56104801610104 0 0 0 0 -3.9307555035002615 -0.92661321122914764 0 -0.92661321122914764 0.51143145383783062 0 0 0 0 -4.5402115523938846 0.2551083488885979 0 0.2551083488885979 2.9055359053418215 0 0 0 0 -2.6002759767325898 -0.73735259845545098 0 -0.73735259845545098 0.67393369256015689 0 0 0 0 -3.6824986410110156 0.070077849351968702 0 0.070077849351968702 0.47994445150247445 0 0 0 0 -4.823036116679873 -0.77532864058287032 0 -0.77532864058287032 2.3974742012508159 0 0 0 0 -6.2794615706841341 15.252267962521813 0 15.252267962521813 67.181616262048692 0 0 0 0 -21.653691129580693 -5.3592914606275599 0 -5.3592914606275599 52.911473102332081 0 0 0 0 -7.7597395354650871 -9.2561520236158117 0 -9.2561520236158117 33.654074643435933 0 0 0 0 -2.5185541305016983 -0.58546397683014817 0 -0.58546397683014817 1.1035624986527663 0 0 0 0 -7.3312984614331071 24.747213535745573 0 24.747213535745573 67.042520080614736 0 0 0 0 2.2094186707399786 14.664755701908433 0 14.664755701908433 50.247684057312881 0 0 0 0 -1.5432613379834947 1.5710033405111972 0 1.5710033405111972 2.603229575614705 0 0 0 0 -5.9592805337251775 -1.1204156458394436 0 -1.1204156458394436 4.5152716437074787 0 0 0 0 -59.278087095031879 -44.204541036894319 0 -44.204541036894319 -21.841280063468226 0 0 0 0 -55.338853684554124 -27.618428559239163 0 -27.618428559239163 29.179833934860881 0 0 0 0 -97.31904929762095 -9.1036078857574161 0 -9.1036078857574161 15.967636966208905 0 0 0 0 -29.405837335369142 -5.4100678598667287 0 -5.4100678598667287 10.151854460046138 0 0 0 0 -33.694207179456498 0.19265280040974631 0 0.19265280040974631 41.124767293776642 0 0 0 0 -22.109285507370714 -5.5139016757885457 0 -5.5139016757885457 43.523047706642842 0 0 0 0 -33.373326689437818 25.51821752835491 0 25.51821752835491 65.883175799303899 0 0 0 0 -30.727477827411349 -27.941300825109579 0 -27.941300825109579 18.980018815204971 0 0 0 0 -39.502650444524988 -25.988439769931119 0 -25.988439769931119 32.656458319750868 0 0 0 0 -51.011003688476194 -37.611741615080248 0 -37.611741615080248 6.1011176775200084 0 0 0 0 -40.089239726799065 -23.959937178772826 0 -23.959937178772826 17.297593679345709 0 0 0 0 -43.899293286014654 -15.650081505576921 0 -15.650081505576921 1.1625077199488345 0 0 0 0 -37.034421629572535 -34.466447493535377 0 -34.466447493535377 -13.024273848044643 0 0 0 0 -42.198663700455654 -32.82324235797897 0 -32.82324235797897 2.8108405340526943 0 0 0 0 -38.082835430157502 -35.997454162008019 0 -35.997454162008019 -8.0238678214213337 0 0 0 0 -39.557630658144888 -37.727913978655756 0 -37.727913978655756 6.2889903021534792 0 0 0 0 -41.223662677248285 -37.347290626701351 0 -37.347290626701351 18.474402172853161 0 0 0 0 -32.95748852689394 -26.990330478443184 0 -26.990330478443184 14.804454860495866 0 0 0 0 -47.103145457195751 -29.36923262151987 0 -29.36923262151987 8.2644164734252854 0 0 0 0 -48.740131773462053 -26.101507435392193 0 -26.101507435392193 25.394600436487991 0 0 0 0 -54.540011271459662 -14.685136343682558 0 -14.685136343682558 7.8329220656939924 0 0 0 0 -39.918981468327729 -26.054540565485198 0 -26.054540565485198 -6.0442731456880665 0 0 0 0 -38.906633669388611 -30.17003134420753 0 -30.17003134420753 8.2957508740354982 0 0 0 0 -29.252578142342827 -25.213829772332332 0 -25.213829772332332 -6.9635136014539398 0 0 0 0 -32.785096058620184 -31.517946863130859 0 -31.517946863130859 -15.923966623712744 0 0 0 0 -24.080051309631017 -28.14065082568527 0 -28.14065082568527 -18.130220149180673 0 0 0 0 -22.487522137390442 -25.177066585846973 0 -25.177066585846973 -16.929971013010345 0 0 0 0 -22.012127143999351 -25.010665358119894 0 -25.010665358119894 -23.306730826684998 0 0 0 0 -34.343218894804522 -33.124704119850549 0 -33.124704119850549 -23.468909815209472 0 0 0 0 -31.077018347552439 -32.523263351164815 0 -32.523263351164815 -18.623897200240776 0 0 0 0 -32.760305250023521 -28.406350571845245 0 -28.406350571845245 -24.200244825135599 0 0 0 0 -35.743353780911775 -26.095246873237571 0 -26.095246873237571 -25.406738446340682 0 0 0 0 -43.036015039033373 -31.847624070426832 0 -31.847624070426832 -21.722876087199481 0 0 0 0 -38.657145201405001 -35.910691851000252 0 -35.910691851000252 -16.537823314871495 0 0 0 0 -33.600770253498013 -30.505777759971259 0 -30.505777759971259 -10.989201754976307 0 0 0 0 -39.522208347398646 -28.982808967193073 0 -28.982808967193073 -22.976526615522857 0 0 0 0 -55.180028851258612 -35.827216011563166 0 -35.827216011563166 -18.669675836218232 0 0 0 0 -44.907199266772295 -35.117454334022625 0 -35.117454334022625 -29.917826002460572 0 0 0 0 -50.552957074789447 -30.479681639724632 0 -30.479681639724632 -12.531341552437263 0 0 0 0 -50.479102554209021 -19.975724491504963 0 -19.975724491504963 -31.348808869255038 0 0 0 0 -74.894489213984343 -24.78522703978993 0 -24.78522703978993 -18.966804144693114 0 0 0 0 -150.53558091126979 -34.72455208836169 0 -34.72455208836169 -0.64088990899998111 0 0 0 0 -77.841703379670435 -14.46165857631923 0 -14.46165857631923 -19.510854436985483 0 0 0 0 -111.53648459482247 -39.071348308228778 0 -39.071348308228778 -1.7087353483070729 0 0 0 0 -119.93266653727187 -23.915467402600086 0 -23.915467402600086 -7.7737403502183327 0 0 0 0 -59.201672591387364 -6.2759272197364417 0 -6.2759272197364417 -51.413143913492945 0 0 0 0 -129.98394133621878 3.678460697690662 0 3.678460697690662 -22.054450423854782 0 0 0 0 -13.001814743961859 -6.4103319220591288 0 -6.4103319220591288 -4.4447736487991847 0 0 0 0 -4.5031859032652024 -5.6316470088159729 0 -5.6316470088159729 -2.9358173838365893 0 0 0 0 -17.971383205494021 -12.794509914382161 0 -12.794509914382161 -4.4517760312521659 0 0 0 0 -10.638622304531561 -3.0270651116747 0 -3.0270651116747 2.4720572461737524 0 0 0 0 -4.1900388117592229 2.7811883679888751 0 2.7811883679888751 7.3509006205662217 0 0 0 0 6.3163300038231682 -1.5226251858612301 0 -1.5226251858612301 -2.5504643895859545 0 0 0 0 -14.8994283151589 -4.1837570028994868 0 -4.1837570028994868 -0.34286477770626789 0 0 0 0 -17.902391693345383 -3.7758167757273005 0 -3.7758167757273005 1.2976285388770825 0 0 0 0 -24.623656532290624 -9.9148923936386382 0 -9.9148923936386382 13.895596441123416 0 0 0 0 -42.671319460052473 5.1359986810310829 0 5.1359986810310829 86.897067782918782 0 0 0 0 -13.336904629755736 -1.4520060883171482 0 -1.4520060883171482 -12.972154916738702 0 0 0 0 -2.428732939675541 -6.976734594012485 0 -6.976734594012485 0.827260585801459 0 0 0 0 -10.966186309648037 129.26607769263296 0 129.26607769263296 129.04379414079017 0 0 0 0 -170.66956840041166 -76.57214604478736 0 -76.57214604478736 65.910553594325847 0 0 0 0 -49.123716287533171 -92.985125441652372 0 -92.985125441652372 -24.788421339154411 0 0 0 0 -63.773588685631694 -49.481575915533881 0 -49.481575915533881 12.681102669030565 0 0 0 0 -16.46592221040919 -57.734515687967814 0 -57.734515687967814 13.227894173086497 0 0 0 0 -15.570807517554044 -24.576572578441336 0 -24.576572578441336 -9.3387888832517092 0 0 0 0 -8.6857927580858814 -43.840865098026882 0 -43.840865098026882 -4.9565949461862147 0 0 0 0 -16.620933942056581 -41.168682078808388 0 -41.168682078808388 0.98614892606667581 0 0 0 0 -25.862736010138178 -15.299795247354609 0 -15.299795247354609 11.659189259088407 0 0 0 0 -35.004001462366432 -35.967778827135817 0 -35.967778827135817 8.584803794391064 0 0 0 0 -35.947619370863322 -2.9803360374667704 0 -2.9803360374667704 14.728276747486461 0 0 0 0 -8.0641912401497393 -16.911092104460351 0 -16.911092104460351 -1.839966497838077 0 0 0 0 -35.497682796687513 -1.0666823605009199 0 -1.0666823605009199 0.20571283275057795 0 0 0 0 -28.715590890300518 -16.635150276106117 0 -16.635150276106117 -1.8429341574918103 0 0 0 0 -34.663816455213237 -19.434443106183558 0 -19.434443106183558 -6.5271333755852865 0 0 0 0 -34.899399549281952 -17.282445755742316 0 -17.282445755742316 7.097124968888977 0 0 0 0 -32.696420631225465 -20.741154986832576 0 -20.741154986832576 -6.0171288111009744 0 0 0 0 -16.538515591856594 -15.8046061004911 0 -15.8046061004911 -14.260216182346596 0 0 0 0 -26.039267882873901 -29.793088042156029 0 -29.793088042156029 -21.985152449345581 0 0 0 0 -25.072631414097486 -28.072528408666528 0 -28.072528408666528 -6.2215695399370929 0 0 0 0 -7.8198401221707172 -2.023512304871236 0 -2.023512304871236 2.5050040096929678 0 0 0 0 -10.429341437518815 -2.3541247257519444 0 -2.3541247257519444 2.5458210805579142 0 0 0 0 -1.3110915290860454 -1.3909201052184494 0 -1.3909201052184494 0.042861664048538035 0 0 0 0 -30.607595945432422 -21.325098326749764 0 -21.325098326749764 -18.095080836742255 0 0 0 0 -21.325812285385837 -24.988274954112114 0 -24.988274954112114 -18.038077971703778 0 0 0 0 -26.511265680482666 -19.780842314481461 0 -19.780842314481461 -3.6525452628042103 0 0 0 0 -25.176387382820394 -27.078287882844506 0 -27.078287882844506 -15.083400240375909 0 0 0 0 -15.872719158283871 -8.7296595467467455 0 -8.7296595467467455 -3.4574736945179438 0 0 0 0 -18.911584283774573 -16.061342729421085 0 -16.061342729421085 -12.20139496915985 0 0 0 0 -15.385741772429355 -17.334247930025612 0 -17.334247930025612 -12.871458363396187 0 0 0 0 -8.1901077791080752 -4.1149920409496161 0 -4.1149920409496161 1.05784542984361 0 0 0 0 -8.4769743146571273 -2.2743965641259933 0 -2.2743965641259933 2.010349777407896 0 0 0 0 -1.011582387828031 -1.9016781564995462 0 -1.9016781564995462 0.99542579253290731 0 0 0 0 -3.500525248188751 -2.5827822508062468 0 -2.5827822508062468 1.4402956721256146 0 0 0 0 -1.6140730688084659 -3.6298105691911928 0 -3.6298105691911928 0.045501467849021537 0 0 0 0 -6.9915741249714074 -2.7994161683016969 0 -2.7994161683016969 1.064344460945108 0 0 0 0 -5.3801960372193207 -3.2844718502266232 0 -3.2844718502266232 1.0979435508290294 0 0 0 0 -1.2648522455859088 -2.2043160426605155 0 -2.2043160426605155 1.2792988209488683 0 0 0 0 -4.8157089182478785 -2.9781378792726976 0 -2.9781378792726976 3.2985610163972297 0 0 0 0 -4.6115563972407472 -2.2546389656848334 0 -2.2546389656848334 0.29427244047792556 0 0 0 0 -11.727048458931677 -5.3616137516328308 0 -5.3616137516328308 2.6368517722473683 0 0 0 0 -8.5239712588113434 -0.97314674686680647 0 -0.97314674686680647 0.14829396620514501 0 0 0 0 -7.7066599202535144 -2.6145697847409792 0 -2.6145697847409792 1.3778482289419856 0 0 0 0 -4.9612755849830137 -2.4121695439899611 0 -2.4121695439899611 -0.71501590007153482 0 0 0 0 -22.492959143124608 -8.1966767735364101 0 -8.1966767735364101 1.3178285030525103 0 0 0 0 -16.020021407506647 5.8718767992335472 0 5.8718767992335472 -1.1083882431047876 0 0 0 0 -22.436597991436429 1.3007573580342022 0 1.3007573580342022 4.2523090415076936 0 0 0 0 -9.4789117976961279 0.79282130947730423 0 0.79282130947730423 0.30286889276865736 0 0 0 0 -15.834528068418877 1.6921110947049556 0 1.6921110947049556 1.5025377663167347 0 0 0 0 -9.8453014245842496 -0.60021195601913746 0 -0.60021195601913746 0.19030557075675958 0 0 0 0 -19.119539241364691 -12.135306541410188 0 -12.135306541410188 -3.767085851720033 0 0 0 0 -31.387681839762081 -19.489976250637937 0 -19.489976250637937 -18.773191461807983 0 0 0 0 -11.528854183650566 3.6702116285862543 0 3.6702116285862543 5.9310207860318922 0 0 0 0 0.36833059098631438 1.496410375170429 0 1.496410375170429 0.5601817050780149 0 0 0 0 3.1556321566276893 12.644210031268713 0 12.644210031268713 -2.7098902442814392 0 0 0 0 -46.129072733641806 -6.6803807516614597 0 -6.6803807516614597 0.25677075564260576 0 0 0 0 -2.9617636905803693 -0.75299568988344845 0 -0.75299568988344845 0.084686199217276936 0 0 0 0 -51.567845188078536 -26.799153154402916 0 -26.799153154402916 19.96912350768298 0 0 0 0 -10.606435044937584 2.8117763024763267 0 2.8117763024763267 3.7615077869152209 0 0 0 0 -7.8641292693364448 -2.3217936857259076 0 -2.3217936857259076 0.36110350356580057 0 0 0 0 -17.73712824364884 -8.0064347661277449 0 -8.0064347661277449 1.1628569394873955 0 0 0 0 -2.1091594955603945 -0.50201877820168139 0 -0.50201877820168139 0.13865914828084414 0 0 0 0 -7.8182783102738789 3.4682879835024352 0 3.4682879835024352 -1.0052883738551941 0 0 0 0 -15.594577277687677 0.61079422205494893 0 0.61079422205494893 0.42409216258204196 0 0 0 0 -12.537581285040687 1.9338142722411362 0 1.9338142722411362 0.48227455389053375 0 0 0 0 -14.049456416970315 4.6193695898734433 0 4.6193695898734433 -1.1498746982011312 0 0 0 0 -12.109917083460459 -1.7366783907718144 0 -1.7366783907718144 3.2156993965761558 0 0 0 0 -15.630641839783436 -0.068254516245534802 0 -0.068254516245534802 3.6890127477468013 0 0 0 0 -16.863317112280129 -0.24417373360748229 0 -0.24417373360748229 3.9349276226701306 0 0 0 0 -15.572002017426712 -0.13198821429119789 0 -0.13198821429119789 3.7562756854978261 0 0 0 0 -13.156386754412324 -2.6185097372753035 0 -2.6185097372753035 3.370952324492464 0 0 0 0 -16.080903200336252 -1.4131068485684182 0 -1.4131068485684182 3.3464463352504623 0 0 0 0 -18.490498949551693 -2.4861475659333792 0 -2.4861475659333792 6.7818461748913705 0 0 0 0 -49.198343830547856 1.158625276005921 0 1.158625276005921 6.6459822231329326 0 0 0 0 -13.151070098310319 0.22170016117201019 0 0.22170016117201019 2.5708604228024745 0 0 0 0 -45.057725753016712 1.5472952299605822 0 1.5472952299605822 8.5461962279774184 0 0 0 0 -6.3256880409890073 -24.304953059255354 0 -24.304953059255354 -5.3295296724700165 0 0 0 0 -14.365290090599046 10.209775192296547 0 10.209775192296547 1.6621824460731887 0 0 0 0 -3.1744345288031717 -1.9177920634557264 0 -1.9177920634557264 0.25956966956350525 0 0 0 0 -15.750609281351899 6.955430612865257 0 6.955430612865257 -0.86439389202223538 0 0 0 0 -23.107728447525005 1.780689003717157 0 1.780689003717157 4.9280349496909253 0 0 0 0 -10.321503429962036 -0.63854377825427378 0 -0.63854377825427378 2.834699554651479 0 0 0 0 -12.549386608177429 2.9250618712333107 0 2.9250618712333107 -0.25183174232188321 0 0 0 0 -16.008947103599894 2.369874643798596 0 2.369874643798596 1.5690686843379353 0 0 0 0 -8.5015242845793182 5.1219014425414571 0 5.1219014425414571 -0.63215028391483941 0 0 0 0 -10.71470016832518 2.8821433736761151 0 2.8821433736761151 6.9994038369023315 0 0 0 0 -13.915273644164188 -7.0480439939008193 0 -7.0480439939008193 -6.2073220978763857 0 0 0 0 -19.386820674489172 -0.9619835243011039 0 -0.9619835243011039 7.0184380060684362 0 0 0 0 -9.1311769510406222 0.80209032178220374 0 0.80209032178220374 1.2718504810901594 0 0 0 0 -9.9371453724361096 -0.043974212894858145 0 -0.043974212894858145 1.0968568907534693 0 0 0 0 -18.574551277817193 -0.47757292808137208 0 -0.47757292808137208 0.33528991543266784 0 0 0 0 -14.979168233665511 -3.5048688390565017 0 -3.5048688390565017 -5.1013498651708318 0 0 0 0 -11.83543081872449 -8.5821207666917871 0 -8.5821207666917871 4.7931051664003235 0 0 0 0 -17.157864532555323 6.4381993298776479 0 6.4381993298776479 1.5980634663184503 0 0 0 0 -2.4744426212264248 -0.34531167573539978 0 -0.34531167573539978 0.6334959262094646 0 0 0 0 -10.96302104816297 1.7959678760344444 0 1.7959678760344444 0.9628472927701317 0 0 0 0 -20.226407888878839 1.1756469677579844 0 1.1756469677579844 6.1600975264955196 0 0 0 0 -7.9414734447691444 -4.4408942312857107 0 -4.4408942312857107 -4.2430967431006366 0 0 0 0 -20.231781103727201 -8.1028627354436438 0 -8.1028627354436438 4.7877070775125503 0 0 0 0 -18.761478099102419 -3.4562127373967897 0 -3.4562127373967897 2.4320846914233698 0 0 0 0 -9.7105649800860192 -4.4387590058296382 0 -4.4387590058296382 2.3636950084897705 0 0 0 0 -18.863034054958916 4.2720969647401148 0 4.2720969647401148 1.7129214621181745 0 0 0 0 -1.5693192179087418 7.7950577573348028 0 7.7950577573348028 -0.071257504998925469 0 0 0 0 -6.4277313873160615 4.2101171970151725 0 4.2101171970151725 1.5264307095787304 0 0 0 0 -11.965159845826747 5.07231391283824 0 5.07231391283824 1.308681244219315 0 0 0 0 -2.4762713262957732 1.8636728052511273 0 1.8636728052511273 -0.22798697732241635 0 0 0 0 -7.1109980744398928 1.8417499410284917 0 1.8417499410284917 3.5328913084042419 0 0 0 0 -3.9238209085442577 1.3362826129335872 0 1.3362826129335872 5.6674856820752666 0 0 0 0 -29.237322120586668 0.8112138843727621 0 0.8112138843727621 -2.7353346749537195 0 0 0 0 -2.6007425309453538 4.7937782940620082 0 4.7937782940620082 9.8171716420848156 0 0 0 0 -7.6994741936778155 11.052486621725052 0 11.052486621725052 18.712013232055483 0 0 0 0 -4.637528012056972 1.3557685710517986 0 1.3557685710517986 0.4544643547385272 0 0 0 0 0.82103745478525525 7.4068074633424885 0 7.4068074633424885 4.3176228394940495 0 0 0 0 -9.7579733499160284 5.9956233119504532 0 5.9956233119504532 24.434859056193432 0 0 0 0 0.47179404721646279 2.3443028380157784 0 2.3443028380157784 -7.0756913304231261 0 0 0 0 -3.2843057921933116 0.35260303543034677 0 0.35260303543034677 -0.084118909906691575 0 0 0 0 -44.497648087557536 -24.042500929337052 0 -24.042500929337052 13.537573865482159 0 0 0 0 -11.65705159710933 -18.464608891024625 0 -18.464608891024625 4.4562439143610391 0 0 0 0 3.5963527549702121 2.2544469225750845 0 2.2544469225750845 -10.495372211331869 0 0 0 0 -1.2234993762707909 0.11836158808300004 0 0.11836158808300004 -0.0070745088170016679 0 0 0 0 -31.077768880401891 32.890736702046013 0 32.890736702046013 -34.518103032412682 0 0 0 0 -4.9984749842496967 0.27552115410867373 0 0.27552115410867373 7.2378141840048329 0 0 0 0 1.5983297766438156 1.4968603044253275 0 1.4968603044253275 -1.0283834711878534 0 0 0 0 25.782690487792934 3.7874356271886995 0 3.7874356271886995 -15.877430656669048 0 0 0 0 16.410829696991641 25.72502025778445 0 25.72502025778445 9.9872234920213927 0 0 0 0 -52.076974179978606 -20.810602350669683 0 -20.810602350669683 18.65585281349081 0 0 0 0 -66.188969240419738 82.458838106821474 0 82.458838106821474 -28.481901922856196 0 0 0 0 -6.8193561607876845 7.5550667383821875 0 7.5550667383821875 -1.10846199318995 0 0 0 0 -91.393893441847467 39.03835004355858 0 39.03835004355858 3.3677975603868617 0 0 0 0 -106.91844443860646 -67.260346085614515 0 -67.260346085614515 41.315955939701269 0 0 0 0 46.822563777144751 32.279899763539959 0 32.279899763539959 -11.745249053047075 0 0 0 0 -2.3105920216385698 18.663418004583338 0 18.663418004583338 10.167288333264196 0 0 0 0 13.623105476522596 5.0509060141003488 0 5.0509060141003488 4.3699694809204175 0 0 0 0 -6.1028574906083044 7.7443551063897349 0 7.7443551063897349 -1.7252450114893119 0 0 0 0 -46.504441531949851 7.8362913356269246 0 7.8362913356269246 16.93945355384551 0 0 0 0 -47.988891942140071 -0.25202875237179967 0 -0.25202875237179967 11.133347206783583 0 0 0 0 -58.333471182988433 3.1505682324126383 0 3.1505682324126383 15.399766239547034 0 0 0 0 -44.804752459471274 -11.255813282816121 0 -11.255813282816121 -7.127771124424271 0 0 0 0 9.6005839165190991 29.452862409195177 0 29.452862409195177 -7.4837646647533802 0 0 0 0 8.9302537708285854 25.531433811562252 0 25.531433811562252 -28.934224547177337 0 0 0 0 -3.8013432163486414 3.7731504787349479 0 3.7731504787349479 -1.9288298816038605 0 0 0 0 -34.025205252135493 18.19887890787254 0 18.19887890787254 -7.1744758298825104 0 0 0 0 -38.637656555520152 9.7462991338659322 0 9.7462991338659322 19.240162604555621 0 0 0 0 -27.764162244197905 4.8750525096409092 0 4.8750525096409092 4.1192049603333771 0 0 0 0 -27.580679993810918 2.8488555467351944 0 2.8488555467351944 4.3636017870855994 0 0 0 0 -8.5851522397156685 5.308847539349606 0 5.308847539349606 -0.33915078260925124 0 0 0 0 -2.8116155590291907 5.6841761781283182 0 5.6841761781283182 -1.05961049883717 0 0 0 0 19.672374842666613 0.68719771160203891 0 0.68719771160203891 -5.9215202269870133 0 0 0 0 -65.464533190924158 26.773501931232659 0 26.773501931232659 19.711628590888722 0 0 0 0 -28.225291615015522 28.117134903909118 0 28.117134903909118 -4.2141110457878312 0 0 0 0 3.5464437033497234 -0.90457544007335855 0 -0.90457544007335855 -10.525669822638974 0 0 0 0 0.5161391728888578 0.96156008578606844 0 0.96156008578606844 -0.019146463787684365 0 0 0 0 -0.059512730817004922 13.885558201210642 0 13.885558201210642 -2.5758761439759041 0 0 0 0 -21.785486425349518 -7.3349660404761039 0 -7.3349660404761039 -1.2134771770363386 0 0 0 0 -51.054674544946465 2.7222414098972649 0 2.7222414098972649 13.501377463000722 0 0 0 0 -12.535356548679829 36.021476932283157 0 36.021476932283157 3.0225741579186103 0 0 0 0 -2.8517655498733534 -0.36070514915933538 0 -0.36070514915933538 0.89460534040089001 0 0 0 0 -9.9397550495038711 3.2414517024138885 0 3.2414517024138885 -0.53287562610565886 0 0 0 0 -16.730409569958283 13.164920626475009 0 13.164920626475009 -40.269884905419758 0 0 0 0 6.244736022212237 13.218815942733499 0 13.218815942733499 -0.48842090569587526 0 0 0 0 -120.13309938126986 26.62135865618302 0 26.62135865618302 54.968609726088289 0 0 0 0 -154.77161789694401 134.68995042767256 0 134.68995042767256 -23.602055590877967 0 0 0 0 -15.613929510622128 6.7451375284236148 0 6.7451375284236148 1.744344426301994 0 0 0 0 -2.0131051558437321 3.3485778676757718 0 3.3485778676757718 -12.126537642604944 0 0 0 0 -71.808725048138285 18.861782305853396 0 18.861782305853396 13.403466663006611 0 0 0 0 0.37105987307040778 -0.36909027717888421 0 -0.36909027717888421 3.298404774009839 0 0 0 0 1.4224912673707877 -0.70673781071457142 0 -0.70673781071457142 -20.066672384375181 0 0 0 0 -0.03704492148073868 0.22451116054078213 0 0.22451116054078213 -0.42743741902354815 0 0 0 0 -41.606038137178075 12.013825796280969 0 12.013825796280969 -13.408693675713039 0 0 0 0 -71.873744102575074 18.120694478765927 0 18.120694478765927 6.3385755896588307 0 0 0 0 -11.974054412627083 31.870523740169915 0 31.870523740169915 -34.531127689844794 0 0 0 0 -27.87207394875395 36.748994932210735 0 36.748994932210735 13.286033941738424 0 0 0 0 38.967572012434175 -6.5628447422369049 0 -6.5628447422369049 -162.4033960260374 0 0 0 0 -3.0147149694572626 1.1670592514622078 0 1.1670592514622078 -0.56308347255077196 0 0 0 0 194.80227729010949 -163.56263760586717 0 -163.56263760586717 -73.821255781464856 0 0 0 0 79.794814544545261 108.83812431339328 0 108.83812431339328 -71.267632937268559 0 0 0 0 -12.842163210396393 9.9820289532549964 0 9.9820289532549964 7.6005731516633546 0 0 0 0 -11.979153006319393 4.211053765485758 0 4.211053765485758 0.65074159004632293 0 0 0 0 -51.05376464498022 18.710473850050505 0 18.710473850050505 103.89745256666271 0 0 0 0 -12.688269955249426 4.4303681907878207 0 4.4303681907878207 3.1450769940708279 0 0 0 0 -13.856363943782526 17.179299265639145 0 17.179299265639145 12.305748351228861 0 0 0 0 -100.11892462139099 88.053085106478818 0 88.053085106478818 83.139436422142353 0 0 0 0 -16.823343032726108 3.9473016514439467 0 3.9473016514439467 -0.2047128937510001 0 0 0 0 -14.714415765024214 7.0884242195566989 0 7.0884242195566989 1.9574652488530875 0 0 0 0 57.452791274359697 101.08438631026934 0 101.08438631026934 245.19366498463705 0 0 0 0 24.922875253901111 -0.53532626644854986 0 -0.53532626644854986 -83.052654273001963 0 0 0 0 26.751809442082504 15.107999136440412 0 15.107999136440412 34.436902146923785 0 0 0 0 46.268243205609224 -9.4027758109584738 0 -9.4027758109584738 -36.540727559219476 0 0 0 0 42.624804140161814 -7.9573458023828039 0 -7.9573458023828039 3.5443573525404872 0 0 0 0 -5.3972481899227205 25.515731210143144 0 25.515731210143144 14.087996463376953 0 0 0 0 1.3227818524367123 2.7603217618445028 0 2.7603217618445028 -1.0738107181325869 0 0 0 0 -3.5369912837250013 6.8843782905253192 0 6.8843782905253192 2.1441912609418523 0 0 0 0 -16.19277026053522 9.8034024851441579 0 9.8034024851441579 -1.2623479656226899 0 0 0 0 -21.621699361432547 15.216490335257436 0 15.216490335257436 8.5308383550068285 0 0 0 0 -7.0012077502597094 8.6006789352539386 0 8.6006789352539386 7.3876975771453317 0 0 0 0 -15.67183651192455 8.1755194174718557 0 8.1755194174718557 -0.81775376574188807 0 0 0 0 -25.035335313335281 30.42784500407361 0 30.42784500407361 24.108005583629417 0 0 0 0 2.0978221346031205 10.132403282956716 0 10.132403282956716 -6.4406323083603638 0 0 0 0 -9.5494731542310696 3.713188918095863 0 3.713188918095863 0.24831629478782125 0 0 0 0 -0.12217198696984433 1.9517176396218816 0 1.9517176396218816 0.42597297721158434 0 0 0 0 -37.825862439704906 63.222498495782588 0 63.222498495782588 24.66516873237515 0 0 0 0 -1.7227025832289655 14.245867890554337 0 14.245867890554337 -7.9169420237872714 0 0 0 0 -89.612580604336131 -177.06029063169848 0 -177.06029063169848 23.916006118862242 0 0 0 0 6.4629420708624821 -30.590465395360297 0 -30.590465395360297 47.55472103252896 0 0 0 0 58.52631103713793 274.39034758891341 0 274.39034758891341 463.16628501734203 0 0 0 0 -1.5526038745263637 0.2659684350843623 0 0.2659684350843623 1.6213741084725681 0 0 0 0 211.32187790681564 91.702189160319904 0 91.702189160319904 -186.94405783524007 0 0 0 0 112.37753763834371 64.155655795160101 0 64.155655795160101 -187.04506176523682 0 0 0 0 -8.1050109181278458 11.589562540317274 0 11.589562540317274 -0.86226733767614405 0 0 0 0 -5.4707657872597792 8.1983730619630535 0 8.1983730619630535 -15.853409529887131 0 0 0 0 -68.077881237859856 -3.8933388826939677 0 -3.8933388826939677 5.4286721350028984 0 0 0 0 0.082254017175577232 0.086044413566372491 0 0.086044413566372491 0.18384518387002591 0 0 0 0 -45.410551203369323 28.050597153451463 0 28.050597153451463 -25.664103003257424 0 0 0 0 -62.230715879303716 -4.3430684201503027 0 -4.3430684201503027 3.2054352426147261 0 0 0 0 -36.554624329929538 9.3239394257839194 0 9.3239394257839194 -2.2523042845538157 0 0 0 0 -31.439648748886043 -18.126798578275199 0 -18.126798578275199 5.505693476776969 0 0 0 0 -26.021929546207048 -34.542472167817209 0 -34.542472167817209 2.1905749648703932 0 0 0 0 -63.287060801799271 -12.659868183673211 0 -12.659868183673211 9.8870290661781155 0 0 0 0 22.168403229413343 6.4819383771796311 0 6.4819383771796311 -9.0793504001886731 0 0 0 0 -87.961192605470387 -1.1519101473621163 0 -1.1519101473621163 15.330469117315261 0 0 0 0 -91.083270226097738 -3.1775562993360609 0 -3.1775562993360609 16.094686925338692 0 0 0 0 -67.573794829740109 -22.776566363845035 0 -22.776566363845035 7.2913098783083115 0 0 0 0 -67.137557169731735 -6.780334115188225 0 -6.780334115188225 16.429304100948684 0 0 0 0 -72.600263989083487 1.1647810343160927 0 1.1647810343160927 10.191442947470023 0 0 0 0 -60.48257707252651 -5.4254156061624599 0 -5.4254156061624599 1.0178174248064806 0 0 0 0 -58.317084394150925 0.69091398541760896 0 0.69091398541760896 9.9220808640773157 0 0 0 0 -61.523419518422088 -8.7416679094268375 0 -8.7416679094268375 7.4693171955051412 0 0 0 0 -54.582005161717461 -0.61925614214800362 0 -0.61925614214800362 2.0056197967135176 0 0 0 0 -51.545231422031975 1.6239665776765833 0 1.6239665776765833 2.9636265500472518 0 0 0 0 -50.424799445830331 3.9475623331750853 0 3.9475623331750853 1.6421514578555616 0 0 0 0 -37.085329336934592 4.8737849040544461 0 4.8737849040544461 1.4092021804564183 0 0 0 0 -21.632672400528691 -2.6067454710289439 0 -2.6067454710289439 -4.171726145817729 0 0 0 0 -37.848799439013419 -1.3217342429189785 0 -1.3217342429189785 0.35117304393438076 0 0 0 0 -37.0023112388144 -1.7794881657818564 0 -1.7794881657818564 -3.5834222503164028 0 0 0 0 -13.838718732414236 1.4500716897072152 0 1.4500716897072152 -4.8607238990286987 0 0 0 0 -35.887111050084059 4.2782292995393618 0 4.2782292995393618 -4.6400837821020104 0 0 0 0 -13.985041307137408 3.2872131258386688 0 3.2872131258386688 -1.8839673362442682 0 0 0 0 -59.090168942516812 12.405792403433622 0 12.405792403433622 6.9302898197038303 0 0 0 0 -39.773365175962681 22.748421289008434 0 22.748421289008434 -4.4696384389540071 0 0 0 0 -59.412215853368252 15.19092690084085 0 15.19092690084085 7.9942623975340439 0 0 0 0 -97.873745205710293 25.847096130997443 0 25.847096130997443 11.216764102323395 0 0 0 0 -2.3798678518492533 -0.64716465448305982 0 -0.64716465448305982 -0.072889705588958575 0 0 0 0 115.27473196910432 -32.216800520941661 0 -32.216800520941661 -222.22059728496299 0 0 0 0 -138.7819150883879 31.827447235272757 0 31.827447235272757 6.1049781626645085 0 0 0 0 -63.840363790519405 43.669556764713889 0 43.669556764713889 -3.0748227660238854 0 0 0 0 -50.119831093970788 40.456142520914455 0 40.456142520914455 0.59454874064635987 0 0 0 0 16.159572621791995 19.829066260092304 0 19.829066260092304 -19.555912515353384 0 0 0 0 -43.921581944545323 19.644137991464731 0 19.644137991464731 -4.0163983816988775 0 0 0 0 -7.4312548857084302 -0.17220439810302768 0 -0.17220439810302768 -0.026231189109916286 0 0 0 0 -14.822642979654574 -2.9924812237163962 0 -2.9924812237163962 32.84794283753979 0 0 0 0 0.76345430656056124 -15.776454032681272 0 -15.776454032681272 2.2407283124876187 0 0 0 0 -67.020902142949126 -44.36064219181317 0 -44.36064219181317 107.28616822596061 0 0 0 0 -15.913640029723247 -1.6647988487431404 0 -1.6647988487431404 1.3182271735968698 0 0 0 0 5.8714423077603897 -17.824917357863399 0 -17.824917357863399 -68.010344545302814 0 0 0 0 45.005774737448519 107.89179536982462 0 107.89179536982462 -20.034565591182854 0 0 0 0 88.237854704393612 -2.8294237894365892 0 -2.8294237894365892 -198.44545452760829 0 0 0 0 -0.80965203511675554 -2.9723803893959939 0 -2.9723803893959939 -5.9488844125664855 0 0 0 0 -21.611805574381947 5.9491648716995087 0 5.9491648716995087 7.6841345936745711 0 0 0 0 -254.20716462081873 23.863325052085315 0 23.863325052085315 254.7924760663638 0 0 0 0 -12.513711666711918 -1.3360004986071039 0 -1.3360004986071039 1.2188342889280459 0 0 0 0 -15.425955089652007 -3.4620011835723972 0 -3.4620011835723972 -0.92244576131861322 0 0 0 0 217.85273070908715 -3.4156756636893988 0 -3.4156756636893988 -83.077107699755516 0 0 0 0 -11.802199061827123 0.19458602585590512 0 0.19458602585590512 0.51291084068838 0 0 0 0 -13.236615166064439 -36.98526939335818 0 -36.98526939335818 -9.9507802567584349 0 0 0 0 -14.462397222333042 3.3793453833460845 0 3.3793453833460845 0.5896956013410648 0 0 0 0 -15.825605877757461 3.3895783714023673 0 3.3895783714023673 2.1461522144285268 0 0 0 0 -6.51816177420028 6.1027643353013445 0 6.1027643353013445 -0.22740881752633868 0 0 0 0 -62.80031269731262 -22.625879034222407 0 -22.625879034222407 -0.030320947114660157 0 0 0 0 -0.58127337159191939 -0.37176348727610087 0 -0.37176348727610087 0.15509015781460533 0 0 0 0 85.172543585431413 135.9786672908881 0 135.9786672908881 -1.8317641719356743 0 0 0 0 -2.6495762507279075 -1.3086281708073386 0 -1.3086281708073386 -0.38401784737587463 0 0 0 0 83.958069285297825 -2.8596746129214807 0 -2.8596746129214807 -134.22228876608347 0 0 0 0 -68.845208924674807 45.797220464746374 0 45.797220464746374 50.544378545646282 0 0 0 0 116.94809693199022 -20.00589433491939 0 -20.00589433491939 -126.0494171825153 0 0 0 0 -88.219973510447744 -13.753487701173981 0 -13.753487701173981 0.44113935997620501 0 0 0 0 -96.267393860776792 -23.518944286262013 0 -23.518944286262013 7.8093826151208532 0 0 0 0 -133.08080218774194 4.5612169539156184 0 4.5612169539156184 17.033116021289743 0 0 0 0 -217.78935147650009 -36.785882159066887 0 -36.785882159066887 -3.0273951275330546 0 0 0 0 -75.560963867552346 -18.626916570935464 0 -18.626916570935464 -22.892812515280184 0 0 0 0 -101.12896396125689 -32.904017255973486 0 -32.904017255973486 -5.5005605904325421 0 0 0 0 -137.15421041494847 -195.52582120474051 0 -195.52582120474051 -235.56770622303884 0 0 0 0 -442.82975716298824 -141.14614762414908 0 -141.14614762414908 -11.226432172817795 0 0 0 0 -137.83570864239846 -114.15884554523791 0 -114.15884554523791 -391.13812143643554 0 0 0 0 34.142804549552238 20.438041242865893 0 20.438041242865893 -79.731195723925566 0 0 0 0 -40.815783558760359 87.045898006326809 0 87.045898006326809 -137.98860637820007 0 0 0 0 
</DataArray>
<DataArray type="Float64" Name="cross_section_updated" format="ascii">
1 1 1 1 1 1 1 1 1 1 1 1 1 1 1 0.0099214306424071936 1 1 1 1 1 1 1 1 0.0099518098634186255 1 1 1 1 0.0098717369182637175 1 1 1 1 1 0.010070214088254219 1 1 1 1 1 1 0.0081006137381120658 1 1 1 1 1 0.010396694164534641 1 1 1 1 1 1 1 1 0.0079958970293253634 1 1 0.010109176378670199 1 1 1 1 1 0.0098368862019152931 1 1 0.0089189786509704782 0.010001526866372436 1 1 0.0094408932724110543 1 0.0095300852702817664 1 1 1 1 1 1 0.0097662169677888173 1 1 1 1 1 1 1 1 1 0.009332795195110221 1 1 1 1 1 1 1 1 1 1 0.0094212088161716671 1 1 0.0099998816352955856 1 1 1 0.0093617745795038457 1 1 1 1 1 1 1 1 1 1 1 0.009444959538719563 1 1 0.01000247426357047 1 0.0099918743054372983 1 1 1 0.0095161791163356109 1 1 0.0099551111615507823 1 0.0099717761610211078 1 1 1 0.0099837934955702198 1 1 1 0.0099567489697705239 1 1 1 0.010234637761573981 1 0.010004046238955684 0.0096760004811750119 1 1 1 0.00990515464610911 0.010085861598029204 1 1 1 1 1 1 1 1 1 1 1 1 1 1 1 1 1 1 1 1 1 1 1 1 1 1 1 1 1 1 1 1 1 1 1 1 1 0.0096022668599084864 1 1 1 1 1 1 1 1 1 1 1 1 1 1 1 1 1 1 1 1 1 1 1 1 1 1 1 1 1 1 0.0097174986505016263 1 1 1 1 1 1 1 1 0.0093291853214422221 0.0098783555006242713 1 1 1 1 1 0.009392711745996523 1 1 1 1 1 1 1 1 1 1 1 1 0.010012748121454836 1 1 1 1 0.010034673637152219 1 1 0.01005906714447766 0.0093139204331643445 1 0.00951679794138428 1 1 1 0.0099599024093616362 1 0.0097718762441361805 1 1 1 1 0.0085596109544612831 1 1 1 1 0.010011338455139625 1 1 1 1 1 1 1 1 1 1 1 1 1 1 1 1 1 1 1 1 1 1 1 1 1 1 1 1 1 1 1 0.0098687448048544388 1 1 1 1 1 1 1 1 1 1 1 1 1 1 1 1 1 1 1 1 0.0099437374155200327 1 1 1 1 1 1 1 0.0098815062348744463 1 1 0.009682460009907792 1 1 1 1 1 1 0.010024522213692637 1 1 1 1 1 1 1 1 1 1 1 1 1 1 1 0.0099564470571054491 1 1 1 1 0.009988580349656254 1 1 0.010120177433147675 1 0.0097430477585851959 1 1 1 1 1 1 1 0.0097871625132448809 1 1 1 1 0.0099997851261563603 1 1 1 1 1 1 1 1 1 1 1 1 0.0083109270328284388 1 1 1 1 1 1 1 1 1 1 1 1 1 1 1 1 1 1 1 1 1 1 1 1 1 1 1 1 1 1 1 1 0.0099567231625484927 1 1 0.0099209228185386834 1 1 1 1 1 1 1 1 0.0099580557247910557 1 1 1 1 1 1 1 1 1 1 0.010055322799927111 1 1 1 0.010086940020570461 0.0099153191622447685 1 1 1 0.0099928500551591595 1 1 1 1 1 1 1 1 1 1 0.0097607490412455304 1 1 0.0095174377647388245 1 1 0.0096031436391133661 1 1 1 1 1 1 1 1 1 1 1 1 0.0098918675269242789 1 1 1 1 1 1 0.0097748967922023991 1 1 0.010173014453224306 1 1 1 1 1 1 0.0097683132458506999 1 1 1 1 0.009902071730282562 0.0094889125011494747 1 1 1 0.010000034163776683 1 0.0098281088090422224 1 1 1 1 1 1 1 0.010054309258998112 1 1 1 1 1 1 1 1 1 1 1 1 1 1 1 0.0097354933486005907 0.010264175101802185 1 1 1 1 1 1 1 1 1 1 1 0.0098469394623953987 1 1 1 1 1 1 1 1 1 1 1 1 1 1 1 1 1 1 1 1 1 1 0.0098739050158462502 1 0.0099835037967409765 1 1 1 0.0099488976265118458 1 1 1 1 1 1 0.01000049687981629 1 1 1 1 1 1 1 1 1 1 1 1 1 1 1 1 1 1 1 1 1 1 1 1 1 1 1 1 1 1 1 1 1 1 1 1 0.0099583886821477847 1 1 0.0096779559081304894 1 1 1 1 1 1 1 1 0.010000166561263317 1 1 1 1 1 1 1 1 1 1 1 1 1 1 1 1 1 1 1 1 1 0.0095853859235875589 1 1 0.0095721971305716379 1 1 1 0.010086809758422991 1 1 0.0099032068803986528 1 1 1 1 0.0099011184744093421 1 0.0098942470422666261 1 1 1 1 0.010091780666276251 1 1 1 1 0.0097349102595196586 0.01008555181021599 1 1 1 0.010003820043988851 1 0.0099982338049906944 1 1 1 1 1 1 1 1 1 0.0099427644096573495 0.010035244799546192 1 0.0099697489464855467 1 1 1 1 1 1 1 1 1 1 1 1 1 1 1 1 1 1 1 1 1 1 1 0.0098748655316892309 1 1 0.010005280008606673 1 1 1 1 1 1 1 1 1 1 0.0094801890243942123 1 1 1 1 1 1 0.010150705532283729 1 1 1 0.0099501612644542232 1 1 1 1 1 1 1 1 1 1 1 1 1 1 1 1 0.010002133533467404 1 1 0.010102019709738556 1 1 1 0.0096168805370050701 1 1 0.010034174305387269 0.0096391156604841363 1 1 1 1 1 0.0098958683217876073 1 1 1 1 1 1 1 1 0.010005993812196301 1 1 1 1 1 1 1 1 0.0099846091201654438 1 0.010008011754518188 1 1 1 0.010000235402206939 1 0.0097432484313594581 1 1 1 1 1 0.010127357718246938 1 0.0099097689472555026 1 1 1 1 1 0.010229618307992508 1 1 0.0095392912426728663 1 1 1 1 0.0099117787500105775 0.00970743694550265 1 1 1 0.0099999120000901828 1 1 1 1 0.0099994509319800626 1 1 0.0094562978385526551 1 1 1 1 1 1 1 1 1 1 1 1 1 1 0.0090184161397922763 1 1 1 1 0.0096717859652694499 1 1 1 0.0099989235844839524 1 0.0099722432971541368 0.0096156545791781789 1 1 1 1 1 1 1 0.0095439698654353634 0.010006605141043567 1 1 1 1 0.0099958827049271975 1 0.0099799559492056485 1 1 0.0098544834943069121 1 1 0.010072262851341759 1 1 1 1 1 1 1 1 1 0.0098505394188937688 0.0099481228190748394 1 1 1 0.0088483080535669278 0.0086736005445284675 1 1 1 1 0.008494568819059356 1 0.010003470397251394 1 1 0.0099326974092707725 1 1 1 1 0.0099873732200219736 1 1 1 1 0.0094592467333126408 0.009924452319481308 1 1 1 1 1 1 1 0.0099571025520004582 0.0087253485621119151 1 1 0.0084623886678533173 1 1 1 1 1 1 1 0.009863713911368012 1 1 0.0094452145226470146 1 1 0.0099932192154612298 0.0097921337432232206 1 1 1 1 0.0099335453616921227 1 1 1 1 1 0.0099058841871886329 1 1 1 1 1 1 1 1 1 1 1 1 1 1 1 1 0.0082991663303292901 1 1 1 1 0.0097244480593057046 1 0.010005950191088381 1 0.0095752786147983576 1 1 1 1 1 0.0099957847905940683 1 1 1 1 1 1 1 0.0097935787734933066 1 1 1 1 1 1 1 1 1 1 1 1 0.0090567722933337126 1 0.009896365628248846 1 1 0.0081897501766425799 1 1 1 1 1 1 0.010261823938040234 1 0.0081520301941109246 1 1 1 1 1 1 0.0099853347805922109 1 1 1 0.010076726080228318 1 1 1 1 1 0.010166073657808562 1 1 1 0.010060434205600032 1 0.01000012389643783 0.009486540335322452 1 1 0.0099696767243594216 1 1 1 1 1 1 1 0.0098507118195158699 1 0.010066027320649399 1 1 1 1 1 1 1 1 1 0.0093738506747384556 1 1 0.010123662853141105 0.0098848683668250822 1 1 1 1 1 0.01014885194991429 1 0.0090979855861509102 1 1 1 1 0.009777022859134064 1 0.010155158036355463 1 0.010273661841386996 1 1 1 1 1 1 1 1 1 1 1 0.0097989406077591164 1 1 1 1 1 1 0.0099599447894352967 1 1 1 1 1 1 1 1 0.009799339393281023 1 1 0.010460043084931153 1 0.01000158014467494 1 1 1 1 0.010108044046715121 1 1 1 1 1 1 1 1 1 1 1 1 0.0096449558658935671 0.010174769562660071 1 1 1 0.010197793189472526 0.01013556481697196 1 0.009557279980268632 0.0093651256429079285 0.0093040068461234891 0.0096450906818176807 1 1 1 1 1 1 0.0093258953652412338 1 1 1 1 1 1 1 1 1 1 0.0094688673069855019 0.0099999266875156392 1 1 1 1 1 1 1 1 1 1 1 1 1 1 1 1 0.010229193464120394 1 0.010032679735000109 1 1 1 1 1 0.0099961833574492374 1 0.010068263944198519 1 1 1 1 1 1 0.01010216701686802 1 1 1 1 1 1 1 1 1 1 1 1 1 1 1 1 1 1 1 1 1 0.010124307056740302 1 1 1 1 1 1 1 1 1 1 0.010141811584428761 1 1 0.009635093693177478 1 1 1 1 1 1 1 0.0093192231452636758 0.010221239001939211 0.0096038537546467816 1 1 0.0099897030591127051 1 1 1 1 1 1 1 1 1 1 1 1 1 1 1 1 1 0.0095330424699395719 1 1 0.0099837147498755587 1 1 1 1 0.009327160725142147 0.010011792113947241 0.01033140276080899 0.010157955617042387 1 0.0095375197072725369 1 0.0093404455756946388 1 1 1 1 1 1 1 1 0.010060330483406979 1 1 0.010083160083948892 1 1 1 1 1 1 1 0.010015703819719623 1 1 1 0.010101397610239688 1 0.010046447159370184 1 1 1 1 0.0095932246779738099 1 1 0.0098704208669445851 1 1 1 1 1 1 1 1 1 1 1 1 1 1 1 1 1 1 1 1 1 1 0.0099268885970162854 1 1 1 0.010021979103219161 1 1 1 1 1 1 1 0.010129436583327128 1 1 1 0.0098432330889652586 1 1 1 1 1 1 1 1 1 0.009942016586284224 1 1 1 1 1 0.010126547421112499 1 1 1 0.0098752202099650771 0.0099519300405237574 1 1 1 1 1 1 1 0.0099573185477065257 1 1 1 1 0.0099498317630322495 1 1 0.0098421891561795184 1 1 1 1 1 1 0.0097396095124024206 1 1 1 1 1 1 1 1 1 1 1 1 1 1 1 1 1 1 1 1 1 1 1 1 1 1 1 1 1 1 1 0.0097303808617076777 1 1 1 1 1 1 1 0.0098873857973382495 1 0.0098155865376076228 1 1 1 0.0098831287424525262 1 1 1 1 1 0.010081761259473803 1 1 1 1 1 1 1 1 1 1 1 1 1 1 1 1 1 1 1 1 1 1 0.010449715350777997 1 1 1 0.010088839983032252 1 1 1 0.0099461391905578157 1 1 1 1 1 1 1 1 1 0.0096686748947334145 1 1 1 1 1 1 0.009042034287517672 1 1 0.0098886277160538747 1 1 1 1 1 1 1 1 1 0.0098991119593020063 1 1 1 1 1 1 1 1 1 1 0.0098495275437327206 1 1 1 1 1 1 1 1 1 1 1 1 1 1 0.010027474667401535 1 1 0.0096648773639947377 1 1 1 1 1 0.009763617371276883 1 1 1 1 1 1 1 1 1 0.0099102940571058184 1 1 1 1 1 1 1 0.00966072782740535 1 1 1 0.0096082270817906927 1 1 1 1 1 1 1 1 1 1 1 1 1 1 1 1 1 1 1 1 1 1 1 1 1 1 1 0.0099667151485964087 1 1 1 1 1 1 1 1 1 1 1 1 1 1 1 1 1 1 1 0.010005085297106699 1 1 1 1 1 1 1 1 1 1 1 1 1 1 1 1 1 1 1 1 0.0099889556640444348 1 1 1 1 1 1 1 1 0.010008277886280816 1 1 1 1 1 1 1 1 1 1 0.0098218949433367085 1 0.0095950393055035596 1 1 1 1 0.0095229764754175342 1 1 1 1 1 1 1 1 1 1 1 1 1 1 1 1 1 1 1 1 1 1 1 1 1 1 1 0.0099920209109411653 1 1 0.010041021809106343 1 1 1 1 1 1 0.0098044764294734753 1 1 1 0.0094116497931260087 1 1 1 1 1 0.010013563501055714 1 1 1 0.010040719977417092 1 1 1 1 0.010020731933335386 1 1 1 1 1 0.0100059450151554 1 1 1 1 1 1 1 1 1 1 0.01005388008153758 1 0.010064971423194541 1 1 0.01007220161897858 1 0.0099947182937190071 1 1 1 1 1 1 0.0099978502034466666 1 1 1 1 1 1 1 1 0.0094808337177181116 1 1 1 0.010025868789951755 1 0.0099827056140523902 1 1 1 1 1 1 1 1 1 1 0.010049542552659916 1 1 1 1 1 1 1 1 1 1 1 1 1 1 1 1 1 1 1 1 1 1 1 1 1 1 1 1 1 1 1 1 1 1 1 1 1 1 1 1 1 1 1 1 1 1 1 1 1 1 1 1 1 1 1 1 1 1 1 1 0.0099373334312375453 1 1 1 1 1 1 1 0.010001812384620676 1 1 1 0.010002732591067072 1 0.0099779196814920035 1 1 1 1 1 1 1 1 1 0.0099849192521486198 1 1 1 1 1 1 1 1 1 1 1 1 1 1 1 1 1 1 1 1 1 1 1 1 1 1 1 1 1 1 1 1 1 1 1 1 1 1 1 1 1 1 1 1 1 1 1 1 1 1 1 1 1 1 1 1 0.0099598953743898089 1 1 1 1 1 1 1 1 1 1 1 1 1 0.0099076114979386939 1 1 1 1 1 1 1 1 1 1 1 1 1 1 0.0099921209907409044 1 1 1 1 1 0.0099542087615739957 1 1 1 1 1 1 1 1 1 1 1 1 1 1 1 1 1 1 1 1 1 1 1 1 1 1 1 1 0.0098866352800426986 1 0.0099817088651653774 1 1 1 1 1 0.0097163723287765572 1 1 0.0095681279902241744 1 1 1 1 1 1 1 1 1 1 1 1 1 0.0094040487221777845 1 1 1 1 1 0.0095839397607131813 1 1 1 1 1 1 1 1 1 1 1 1 1 1 1 1 1 1 1 1 0.0099877927632944143 1 1 1 1 1 0.0099635088099892469 1 1 1 1 1 1 0.0099911980393825456 1 1 1 1 1 1 1 1 1 1 1 1 1 1 1 0.0099293342675080432 1 1 0.0099371815409977689 1 1 1 1 1 1 1 1 1 1 1 1 1 1 1 1 1 1 1 1 1 0.0098781818971137095 1 1 1 0.0099663759571302774 1 1 1 1 1 1 1 1 1 1 1 1 1 1 1 1 1 1 1 1 1 1 1 1 1 1 1 1 1 1 1 1 1 1 1 1 0.0095422704562696144 1 1 1 0.010077060900611038 0.0095974098818446419 1 0.0099413780248157786 1 1 1 1 1 1 1 1 1 1 1 1 1 1 0.0095393352803222475 1 1 1 1 1 1 1 1 1 1 1 1 1 1 1 1 1 1 1 1 1 1 1 1 1 1 0.0095218354361100883 1 1 1 1 1 1 1 1 1 1 1 0.0095483673228080046 1 1 1 0.010092641304098158 1 1 1 1 1 0.0099726644576832498 1 1 1 1 1 1 1 0.0099570595343457333 1 1 1 1 1 1 1 1 1 1 0.0099477161235488852 1 1 1 1 1 1 1 1 1 0.0099927772202132639 1 1 1 1 1 1 1 1 1 1 1 1 1 1 1 0.0099794822625098728 1 1 1 0.0099883738565697527 1 0.009374536035067365 1 1 0.010029183516595807 0.0099306232687150602 1 1 1 1 1 0.010007458101409451 1 1 1 1 1 1 1 1 0.0095894081125800692 0.010163372350311005 0.0094409944252087895 1 1 1 0.01032450440085737 1 1 0.0096911223321602038 0.0093401219480281003 1 1 1 1 1 1 1 1 1 1 1 1 1 1 1 1 1 1 1 1 1 1 1 1 1 1 1 1 1 1 1 1 1 1 1 1 1 1 1 1 1 1 1 1 1 1 1 1 1 1 1 1 1 1 0.0092812414623801073 1 1 1 1 0.0099904267107417538 1 1 1 1 1 0.0099970939959226537 1 1 1 1 1 1 1 1 1 1 1 1 0.0091684680428078917 1 1 1 1 0.0091618915009762797 1 1 1 1 1 1 1 1 1 1 1 1 1 1 1 1 1 1 1 1 1 1 1 1 1 1 0.0094007747967969728 1 0.0097345820101021243 1 1 1 1 1 1 1 1 1 1 0.0098557011626151346 1 1 1 0.0097042706269172899 1 1 1 1 1 1 0.010113126940159275 1 1 1 1 1 1 0.0098759814783050386 1 1 1 1 1 0.009715608251956661 0.0099801837538468045 0.0098494527207345136 0.0097601698955025549 1 1 1 1 1 1 1 1 1 1 1 1 1 1 1 1 1 1 1 0.0099793446312223914 1 0.010173768194541665 1 1 1 1 1 1 1 0.0094901143641839963 1 1 1 1 1 0.010086172822620672 1 1 1 0.010070593639476251 1 1 0.0098009945854009312 0.0098637187143564408 1 0.010092229657371219 0.0097943064831927142 0.0098657621270098975 1 1 1 1 1 1 1 1 0.0098464088472125441 1 1 0.0098222385353798364 0.0099844077475445756 0.00983618584560687 1 1 1 0.01000836131996102 0.0099999962879002528 1 1 0.010058810874298073 1 1 1 0.0099875399702749335 1 1 1 0.010000743889924134 1 1 1 1 1 1 1 1 1 1 1 1 0.010001449880088015 1 1 1 1 1 1 1 1 1 1 0.0097941152785131248 1 1 1 1 1 1 1 0.0098150764274791535 1 1 1 0.010003220555088916 1 1 1 1 1 1 1 0.0099151914827459702 1 1 1 1 1 1 1 1 1 1 1 1 1 1 1 1 1 1 1 1 1 1 0.0093424990652285315 1 1 1 1 1 1 1 1 1 1 1 1 1 1 1 1 1 1 1 1 1 1 1 0.0098256361553433307 1 1 0.0094798560684536161 1 1 1 1 1 1 1 1 1 1 1 1 1 1 1 1 1 1 1 1 1 1 1 1 1 0.0098043462944884165 1 1 1 1 1 1 1 1 1 1 1 1 1 0.009881646945086241 1 1 1 1 1 1 1 1 1 1 1 1 1 0.0096002630333937716 1 1 0.0097203265061367432 1 1 1 1 1 1 1 1 0.0095372217184876637 1 1 1 0.0099994931812413083 1 1 1 1 1 1 1 0.0099370861016130595 1 0.0097258331793160686 1 0.0098202460291620212 1 1 0.0098945236929144052 1 0.0096840420395409334 1 1 1 1 1 0.0099890876874820823 1 0.0095355957827324075 1 1 1 0.0099778915878119684 1 1 1 1 1 1 1 1 1 1 1 1 0.0099701147696465847 1 1 1 1 0.0099005391399390151 1 1 0.0099422115013687081 1 1 1 1 1 1 1 0.0099592617078377368 1 1 1 0.010000111938026673 1 1 1 1 0.0099955396546446765 1 1 0.0099985672017113697 1 1 0.0099890085988031604 1 0.0099984909999423638 1 1 1 1 1 1 1 1 1 0.01000526400252473 1 1 1 1 0.0098057310251704177 0.010015274997900017 1 1 1 1 1 1 1 1 0.009958170576393156 1 0.0099855578910960155 1 1 1 0.0098453800863599894 0.01005592641124339 1 1 1 1 1 1 1 0.01001450292358521 1 1 1 1 1 0.010017700554536497 1 1 1 0.0099437647716522377 1 1 1 1 1 1 1 0.0099955774031953073 1 1 1 1 1 1 1 1 1 1 1 1 0.0098485338940107817 1 1 0.0099956259201274753 1 1 1 1 1 1 1 1 1 1 0.010032932542064783 1 1 1 1 1 1 1 1 1 1 1 1 0.010015208501539429 1 1 1 1 1 1 1 1 1 1 1 1 1 1 1 0.0098161675905901122 1 1 1 0.0099113984682315699 1 1 1 1 1 1 1 1 1 1 1 1 1 1 1 0.0094518138389455067 1 0.0097648372495741931 1 1 1 1 1 1 1 1 1 1 1 1 1 0.0097975934223900225 1 1 1 1 1 1 1 1 1 1 1 1 1 1 1 1 1 1 1 1 1 1 1 1 1 1 1 1 1 1 1 1 1 1 1 1 1 1 1 1 1 1 1 1 1 1 0.0099986373638549318 1 1 1 1 1 0.0099693222918671165 1 1 1 1 1 1 1 1 1 1 1 1 1 1 1 1 1 0.0099742765981588218 1 1 1 1 1 1 1 1 1 1 1 1 1 1 1 1 1 1 1 1 1 1 1 1 1 1 1 1 1 1 1 1 1 0.0099450578713299476 1 1 1 0.0099499486774751594 1 1 1 1 1 1 1 1 1 1 1 0.0098636537797186126 1 1 1 1 1 1 0.010039855581896252 1 1 1 1 1 0.0098791984505519209 1 1 1 1 1 1 1 1 1 1 1 0.0099557409173592279 1 1 1 1 0.0099298203007811559 1 1 0.0096718552884972487 1 1 1 1 0.010001793413070685 0.010029914786331641 0.009919425535571031 0.0097591692160935856 1 1 0.0099043510013633075 0.0099157163835927944 1 0.0098613632431943342 0.0097436859011051091 1 1 1 1 1 1 1 1 1 1 0.010019925758946941 1 1 1 1 1 1 1 1 1 1 1 1 1 1 1 1 0.0094602647478953285 1 0.0092912478392535025 1 1 0.010079841458096433 1 1 1 0.010162521858073939 1 1 1 0.010053316727235218 1 1 1 1 1 1 1 1 1 1 0.0098349549764966682 1 1 1 1 1 1 1 1 1 1 0.010009714395273485 1 1 1 1 1 1 0.0099119524160341966 1 1 1 1 1 1 1 1 1 1 1 1 1 1 0.0097804423432826994 1 1 1 1 0.0096002789222359095 1 1 1 1 1 0.0095346408190300942 1 1 1 1 1 1 1 1 1 1 1 1 1 1 1 1 1 1 1 1 1 1 1 1 1 1 1 1 1 1 1 1 1 1 1 1 1 1 1 1 1 1 1 1 1 1 1 1 1 1 1 1 1 1 1 1 1 1 1 1 1 1 1 1 1 1 1 1 1 1 1 1 1 1 1 1 1 1 0.0099411582676785116 1 1 1 1 1 1 1 1 1 1 1 1 1 1 1 1 1 0.010030894170248697 1 1 1 1 1 1 1 0.010009322923570717 1 1 1 1 0.01007588716086596 1 1 1 1 1 1 1 1 1 1 0.010028227626624312 1 1 1 0.0099983867578412444 1 0.0099937267435662256 1 1 1 1 1 0.010027365178087944 1 1 0.0098663520814580019 0.0098627373555178616 1 1 1 1 1 1 1 0.009888062317136171 1 1 1 1 1 1 1 1 1 1 1 1 0.0093050620984413412 1 1 1 1 0.009299394572846998 1 1 1 1 1 1 1 1 0.010002488534673126 0.0094249737770472162 1 1 1 1 1 1 1 1 1 1 1 1 1 0.009952003776079521 1 0.0098756692308484342 1 1 0.010030514560208249 1 1 0.010008298338622636 1 1 1 1 1 1 1 0.0098852625923666077 1 1 1 0.0097562465498316781 1 1 1 1 1 0.0099404766039119102 1 1 1 1 1 1 0.0098115716421478903 1 1 1 1 1 1 1 1 1 1 0.010077015805593486 1 1 1 1 1 1 1 1 1 1 1 1 1 0.0099834319559137727 1 1 1 1 1 1 1 1 1 1 1 1 0.010265026069296194 1 1 1 1 0.0096498726235644365 1 1 1 0.0091191283688399662 0.01045019082057717 1 1 1 1 1 1 1 0.010005247849830652 0.0093720755097056081 1 1 1 1 1 0.0099008639413327697 1 1 1 1 1 1 1 0.0092185815764097203 1 1 0.0087967401780406247 1 1 1 1 1 0.0099980236448996892 1 1 1 1 1 1 1 0.0089063880703804683 1 1 1 1 0.0091313189950492542 1 1 1 1 1 1 1 1 1 1 1 1 1 1 1 1 1 0.0099691300554517158 1 1 1 1 1 1 1 0.009985698099537945 1 1 1 1 1 1 1 1 1 1 1 1 1 1 1 1 1 1 0.009975963683677834 1 1 1 1 1 1 1 1 1 1 0.0099452859755449485 1 1 1 1 1 1 1 1 1 1 1 1 1 1 1 1 1 1 1 1 1 1 1 1 1 0.0098309593193197202 1 1 1 1 1 1 1 0.009472808654341771 1 1 1 1 1 0.0099332471756059578 1 0.0097260291074922449 0.0098451496313374381 1 1 1 1 1 1 1 1 1 1 1 1 1 1 1 1 0.0097615444389029995 1 1 1 0.0097285346072585391 1 1 1 1 1 0.0095944839038339218 1 1 1 1 1 1 1 1 1 1 1 0.0099976795985888094 1 1 0.0099866544954246208 1 1 1 1 1 1 1 1 1 1 1 1 1 1 1 1 1 1 1 1 1 1 1 1 1 1 1 1 1 1 1 1 1 1 1 1 0.0098769070947060215 1 0.0099724077968520834 1 1 1 0.0098450253366740119 1 1 1 1 1 1 1 1 1 1 1 1 1 0.0098590177472491543 1 1 1 0.0099342014040932642 1 1 1 1 1 1 1 1 1 1 1 1 1 1 1 1 1 1 1 1 1 1 1 1 1 1 0.0099033675767154668 1 1 1 0.0098966123692143908 1 1 1 1 1 1 1 1 1 1 1 1 0.010008172697819581 1 1 1 0.0099955222582329382 1 1 1 1 1 0.0099527653398306364 1 1 1 1 1 1 1 1 1 1 1 1 1 1 1 1 1 1 1 1 1 0.0099699929790928593 1 1 1 1 1 1 1 1 1 1 1 1 1 1 1 1 0.010028681226293627 1 0.010028666295656021 1 1 1 1 1 1 1 1 1 1 1 1 1 1 1 1 1 1 1 0.010038822394224921 1 1 0.0096619635227080218 1 1 1 1 1 1 0.010094070111946404 1 1 1 1 1 1 1 1 1 1 1 1 1 0.0099970679046995636 1 0.010006416676256836 0.0096945673769071594 1 1 1 1 0.009881999811172569 1 1 1 1 1 1 1 1 1 1 1 1 1 1 1 1 1 1 1 1 1 1 1 1 0.009546614390356754 1 1 1 1 1 1 1 1 1 1 1 1 0.0089584588603138678 1 1 1 1 0.0088123940899382022 1 0.0099584833249357022 1 1 1 1 1 0.010115154270712462 1 1 1 1 1 1 1 1 1 1 1 0.009465216750994352 0.010042379952340247 0.0095611330685054542 1 1 0.010001870710155139 0.010007967581657244 1 1 1 1 1 0.0099905838172131139 1 1 0.010055633767684029 1 1 1 1 1 1 1 0.0099699993574041048 1 1 1 1 1 1 1 1 1 1 1 1 1 1 0.010157644985006485 1 1 1 1 1 1 1 1 1 0.0097084619427107565 1 1 0.0099010743039225722 1 1 0.0099970044096114406 1 0.0099009385572438498 1 1 0.0096779083898022381 1 0.0099620545579907072 1 0.009955806601602845 1 1 1 0.0096211861865519339 1 0.0098288433401135002 1 0.0096776138698319459 0.0097905943872514823 0.010132146344754022 1 1 1 0.010097801711139377 1 1 0.0095575094341067684 0.0098193960823427223 0.010115005793328941 1 1 1 0.0097303098357760832 1 1 1 0.009807932955163556 0.0097024537184833698 1 1 1 0.009740780387231673 0.0099049790538034421 0.0099987608946186038 1 1 1 1 1 1 1 1 1 1 1 0.009998321853671787 1 1 1 1 1 1 0.0099796437166620247 1 1 0.009540719076426887 1 1 1 1 1 1 1 1 1 1 1 1 1 1 0.010000593693135848 1 1 0.0098902759750899225 0.0099966118319716538 1 0.010089884016773068 1 0.0095942042587642221 1 1 1 1 1 1 1 1 1 0.0099587500148657811 1 1 1 1 1 0.0099969525744041717 1 1 1 1 1 1 1 1 1 1 1 1 0.0099955393241933227 1 1 1 1 0.0099468288337658528 0.0097221926539769812 1 1 1 1 0.0099487749230511759 0.0098653023386016184 1 0.0099263280329628459 0.0099580729919525064 1 1 1 1 1 1 1 1 1 1 1 0.0095829064026431363 0.0099719455867989474 1 1 1 1 1 1 1 1 1 1 1 1 1 1 1 1 1 1 1 1 1 1 1 1 0.0099925896611644371 1 1 1 1 1 0.0099908399467839703 1 0.0099743393172233609 1 1 1 1 1 1 1 1 1 1 1 0.0098320983183888353 1 1 1 0.0098640725388437125 1 1 1 1 1 1 1 1 1 1 1 1 1 1 1 1 1 1 1 1 1 1 0.0099534302969427613 1 1 1 0.010002422771704468 1 1 1 1 1 1 1 1 1 1 1 1 1 1 1 1 1 1 1 1 1 1 1 1 1 1 1 1 1 1 1 1 1 1 1 1 1 1 1 1 1 1 1 1 1 1 0.0094442542577988838 1 1 0.0095730069202391542 1 1 1 0.0099438076516933996 1 1 1 1 1 1 1 1 1 1 1 1 1 1 1 1 1 1 1 1 1 1 1 1 1 1 0.0091815244714628114 0.0093260403561332382 1 0.0096053129486695296 1 1 0.01000077898795124 0.01006864163002401 1 1 0.0094988568643155011 0.010127047126918552 1 1 1 1 1 1 0.010004925828498788 1 1 1 1 1 1 1 0.0099922248726297194 1 0.0096805219017379839 1 0.0090020423969340187 1 1 1 1 0.010036924666925183 1 1 1 1 1 0.0095418546085414488 1 1 1 1 1 1 1 1 1 1 1 1 0.0099426473024916209 0.0091966134484792531 0.0098844358387565109 1 1 1 0.010022761018521514 1 1 1 1 1 1 1 0.0099750157876173067 1 0.0099691726250326317 1 0.0097071923328490503 1 0.0099978715031778312 1 1 1 0.0099112210587242993 0.010000296670240886 1 1 1 1 1 1 1 1 1 1 0.0091234044640331122 1 0.0099357915739478938 1 1 1 1 1 0.0099558449698783479 1 0.0098799122497481486 1 1 1 1 1 1 1 1 1 0.0099975969952881411 0.0095533274634615074 1 1 0.0097836832834832452 1 0.0099999749655007575 0.0098357713706531732 1 1 1 1 0.0096032771949417003 0.0090977320145805337 1 1 1 0.0099386439590358148 1 1 0.0097879938705454292 1 1 1 1 0.0095657179784651748 1 1 1 1 0.00999726145593797 1 0.0091782130632363009 1 1 1 1 1 1 1 1 0.010068485003120209 1 1 0.0092093104953634847 1 1 0.0099431683108140347 1 1 1 1 0.0095807789659743438 1 0.0097140167472533762 1 0.0095852773706759063 0.0094691274845664156 1 0.010063878721920057 1 0.0095905721384686241 0.0095881935542766923 1 1 0.0099985403395192012 0.0099984086330111403 0.0097630410193372836 0.0099968742439494156 0.0097237632893460678 1 1 1 1 1 1 1 1 1 1 1 1 1 1 1 1 1 1 0.0096660365738307046 1 1 1 0.0099998006582553752 0.0099802835393847048 1 1 1 1 1 1 0.0096949438633160794 1 1 1 0.0099906073588185255 0.0095550056473829286 1 1 1 1 1 0.0098135205201867748 1 0.0099285015097684472 1 0.0096546738241940037 0.009600989624641636 1 1 1 1 1 0.0099828440585454023 1 0.0096079577177228988 1 0.010081196822412096 1 1 0.0099915565939413861 1 1 1 0.0099956128390234732 1 1 0.009560146491498377 0.0095294506906647737 1 0.0097308747841528143 1 0.0098097992295196872 1 1 1 0.010032041689066998 0.0099946837992536657 1 0.0099982483660865928 0.0099824277845051296 1 1 1 1 1 1 1 1 1 0.0093968356805980389 1 0.0095346130469136543 1 1 1 0.0093950405094466102 1 1 0.0094129964815884998 0.0094567525347493513 1 0.010017525942129219 1 1 1 1 1 0.0099886432724058619 0.0093538902062782255 1 1 0.010064560188508345 1 1 1 1 1 1 1 1 0.0095361431096176712 1 1 1 1 1 0.009592140248817084 1 0.0096684470275621107 0.0096003009495720382 1 1 1 1 0.0094901442276951013 1 0.0098591910446112901 1 0.0099639553190517087 1 0.0093569903997238607 1 1 1 1 1 1 0.0097945408957705472 1 1 1 1 1 1 1 1 1 1 1 1 1 1 0.010363162554827875 1 0.0094080496624120921 1 1 0.010105920632218187 1 1 1 1 1 1 1 1 0.009831258680728306 1 0.0099129146024831589 1 1 1 0.0097969200298649271 1 1 1 1 1 0.0097697390905736141 1 1 1 1 0.0098315263149572774 1 0.0099626283042215345 1 0.0099496315423339178 1 1 1 0.0098869115061008712 1 1 1 0.0093609190824621193 1 0.0098643477556383304 1 0.0096647536651745542 1 0.0096502613044614823 1 0.0099939399684071013 1 1 1 1 1 1 1 1 1 1 1 1 1 1 1 1 1 1 1 1 1 1 1 0.009722845790234318 1 1 1 1 1 1 1 1 1 1 1 1 1 1 1 1 1 1 1 1 1 1 1 1 1 1 1 1 1 1 1 1 1 1 1 1 0.010044972616001659 0.010175361395765421 1 1 1 1 1 1 0.0099269804443775297 1 1 0.0099413152525574776 1 0.0098386400405277349 1 0.0097726828854630601 1 1 1 0.0098862606190434146 1 1 0.010071067031892349 1 1 0.009695460477814874 1 1 0.009995448490517634 1 1 1 1 1 1 1 1 1 1 1 1 1 1 1 1 1 1 1 1 1 0.010002091463200084 1 1 1 1 1 1 1 0.0098554731889406357 1 0.0098383712142128855 1 1 1 1 1 1 1 1 1 1 1 1 1 1 0.0099240562929507649 1 1 1 1 1 1 1 1 1 1 1 1 0.010048588005876935 1 1 1 1 1 1 0.010148830357101346 1 0.010258239325118938 0.0097230272324828181 1 1 1 1 1 1 1 1 0.0099459785632029368 1 1 1 1 1 1 1 1 1 0.0099943036112109251 1 1 1 1 1 1 1 1 1 1 1 1 1 1 1 0.010027275388398676 1 1 1 0.010259525145580012 1 1 1 1 1 1 1 1 1 1 1 1 1 1 1 1 0.010308633288082097 1 0.010087417859284844 1 1 1 0.010347988842301894 1 1 0.010161409855609031 1 1 1 1 1 1 1 1 1 1 1 1 1 1 1 1 1 1 1 0.009922625787093315 1 1 0.0098007372947042284 1 1 1 1 1 1 1 1 1 1 1 1 1 1 1 1 1 1 1 1 1 1 1 1 1 1 1 1 1 1 1 1 1 1 1 1 1 1 1 1 1 1 1 1 1 1 1 0.010031452035077605 1 1 1 1 1 1 1 1 1 1 1 1 0.0098775193700303202 1 1 1 1 1 1 0.0099965699806936377 1 1 0.010012934624363661 0.0094232484910442352 1 0.010166069026194357 0.0096422517995768103 0.0094935813510177592 1 1 1 1 1 0.01023235592821696 1 1 0.0098180124931332782 0.0098928003460088225 1 1 0.010317936268694749 1 0.010089324597366851 0.010069791903726104 0.010001372712342183 1 1 0.0098100239487972588 1 1 1 1 0.010350091531794415 1 1 1 1 1 0.0099999304685967384 1 1 1 1 1 1 0.0099992127510006405 1 0.0098384574537292782 1 0.010001420215577168 1 1 1 1 1 1 1 1 0.0099440378686239742 1 1 1 1 1 1 1 1 1 1 0.010106674670834693 1 1 0.010012993819284546 1 1 1 1 1 1 1 1 1 1 1 0.01006213480262714 1 1 1 1 1 1 1 1 0.010104756159321906 0.0099998436489751111 1 1 0.010111884625655949 1 1 1 1 0.0096226485327693921 1 1 0.0093486584071810243 1 1 1 0.0092829574851429533 1 0.009720293417006972 0.0099253227279615767 1 1 1 0.0094972165834450034 1 0.010007384720030767 0.010000832830701233 1 0.0097757151722149549 1 1 0.0099309252973019176 0.0099984839912822913 1 1 0.0099627911341753882 1 1 1 0.0099302525597838708 0.0097913373499663742 1 1 1 1 0.0093857719637283534 1 1 1 1 0.0098836740495222824 1 0.0094589386566387781 0.0095675011086349265 1 0.0096599283528374241 0.0098456282223869495 1 1 1 1 1 1 1 1 0.0093199654163470293 1 1 1 1 1 1 1 0.0099634338944242055 0.0093931016374652863 1 1 0.010015479247569972 1 1 1 0.010190094715131664 1 0.010098319910136872 1 0.010083477316495396 0.010000592385627456 1 0.01007002339197032 1 1 0.0098131182922810752 1 0.0096662313656542421 1 1 0.010047516745190468 0.0097312813138621824 1 1 1 1 1 0.0091326163373456858 1 1 1 1 0.0095582273521962312 0.009787772714271635 1 1 1 1 1 0.0099063969175243443 1 1 0.0099703735122663728 1 1 1 1 1 1 1 0.0097004621313934898 1 1 1 0.009890587311310808 1 1 1 1 1 0.0096382704055548527 1 1 1 0.0095022554379021688 1 0.0094754484998088827 1 1 1 1 1 0.0094617705200185937 1 1 1 1 1 1 1 1 0.0097934042898434326 1 1 1 1 1 1 1 1 1 0.010000978019020505 1 1 1 1 1 1 1 1 1 0.010032741061157535 0.0092825786493236986 1 1 1 1 1 1 0.0098533336600822117 1 0.0098800439085093873 1 1 1 0.0099878832449924078 0.0090740520331150619 1 1 0.0093922002955492342 1 1 1 1 1 1 1 1 1 1 1 1 1 1 1 1 1 1 1 1 1 1 1 1 1 1 1 1 1 1 1 1 1 1 0.010039649573847764 1 1 0.010098701321077874 1 1 1 0.010019435070571913 1 1 1 0.010018029787272665 1 1 1 1 1 1 0.010048622195224672 0.009852269240537689 1 1 1 1 1 1 0.010029163636837344 1 1 1 1 1 1 1 1 1 1 1 0.010121859731241089 1 1 1 0.0099174407523130222 1 1 1 1 1 1 1 1 1 1 1 0.010369205562519747 1 1 1 1 1 0.010611828480613143 1 0.0087283206962837593 1 1 1 0.010008481602743423 1 1 0.0096157899916058526 0.0092593160347228809 1 0.0090360647231505324 1 1 1 1 1 0.010000840744587467 1 1 1 1 1 1 1 1 1 0.0097848428793732706 1 1 1 0.0098716267109479634 1 1 1 1 1 1 0.0091215301025403817 1 1 1 0.0099559927889289242 1 1 1 1 1 1 1 1 1 1 0.008808135746763944 1 1 0.0086311130853480821 1 0.0099991961028966098 0.0089208130996049125 1 1 0.0081195709372175635 1 0.0098340823325234281 0.0091782662241184903 0.0095424207121484472 1 1 1 1 1 1 1 0.0088684692598067581 0.0088693053921466199 1 1 1 0.0083805225791940257 1 1 0.01000076470907452 1 1 1 1 1 1 1 1 1 0.0084077941101623806 1 0.0098586245630359129 1 0.0083854098469774655 1 1 1 1 1 1 1 1 1 0.010318078543185892 1 1 1 1 0.010147379125572507 1 1 1 1 1 1 1 1 1 1 0.0093921825770573106 1 1 1 1 0.010035706746098673 1 1 1 1 1 1 1 1 1 1 1 1 0.010176994704946802 0.010012834111443989 0.009990251123154709 1 1 1 1 1 1 1 0.0097593764307644954 1 1 0.0098444677469449841 1 0.0098005694011763407 1 1 1 1 1 0.0099998215463689994 0.010287312630299725 1 1 1 1 1 1 1 1 1 0.0099427994050938877 1 1 0.010061685087784428 0.010037667414008924 1 1 1 1 0.010115305850253347 1 0.010143576811499961 1 1 1 1 0.0098177179260855157 1 1 1 0.0099006574911513923 1 1 1 1 1 1 1 1 1 1 1 1 1 1 1 1 1 1 1 1 1 1 1 1 1 1 0.0098002629580122604 0.009654885719691142 1 1 1 1 0.0099932170500358942 1 0.009977129892061001 0.010261343954009863 1 0.0089255255962007191 1 1 1 1 1 1 1 1 1 1 0.0089543112284087706 1 1 1 1 1 1 1 0.010013794440136571 1 1 1 0.010004298847801249 1 1 1 1 0.0099997378419504259 1 1 1 1 1 1 0.0099204833096542457 1 1 1 1 1 1 0.010012186853150574 0.0097428409299219285 1 0.00975430007879881 1 0.0099059873160274679 1 1 1 1 1 1 0.0088198119289276348 1 1 1 1 1 0.0087348585567044688 1 1 1 1 1 1 0.0083413736399690352 1 1 1 1 1 1 1 0.0088829277643715718 1 1 1 0.00856563499864396 1 1 1 0.0099555422562101325 1 1 1 0.0098985762398795928 0.0098727047977235811 1 0.0098873750589177165 1 1 1 1 1 1 1 1 1 1 1 1 1 1 1 1 1 1 1 1 1 1 0.0086181435078381465 0.009999288794191187 1 0.0086591770801723537 1 1 1 1 0.008706011324955772 1 1 0.0098421378806865453 1 1 0.0099769550332770348 1 1 1 1 0.0086610879225889198 1 1 0.0088714933148959785 0.010187179810102 1 1 1 1 0.0099797115772291417 1 1 1 1 1 1 1 1 1 1 1 1 1 1 0.0089166968107514729 1 1 1 1 0.0091280819369304808 1 1 1 0.0093880745783815351 1 1 1 1 0.0093687687883817743 1 0.0097084514649450962 1 0.0093317066299111184 1 0.0095312898256971462 1 1 0.0093803198661031126 1 1 1 1 1 1 0.0095421691266663229 0.0094402606002638063 1 1 0.0095205605923535108 1 1 1 1 0.0093512354733284904 1 1 1 1 1 1 1 1 1 1 1 0.010066894861867721 1 1 1 1 0.0099523466076232546 0.0095098874055168526 0.0095458791746443131 1 1 0.0096861179080442034 0.0099848959334816467 1 1 0.009350022695462111 0.0090962771059375294 1 1 1 1 1 0.0090532620714815232 1 1 1 1 1 0.0095994863991400274 0.010001044546489781 1 0.010014268344556949 1 1 1 1 1 1 1 1 1 1 0.0093048456437926415 1 1 1 1 1 1 1 1 1 1 1 1 1 1 1 1 1 1 1 1 1 1 1 1 1 1 0.0097604147764633227 1 1 1 0.0099445077328937145 1 1 0.0099132923050264839 1 1 1 1 1 1 1 1 1 1 1 0.010035071921882967 1 1 1 1 1 1 1 1 1 1 1 1 1 1 1 1 1 1 1 1 0.010128695128106994 0.009916688854260329 1 1 1 1 0.0099701749838224871 1 1 0.0088629557157418742 1 0.010228864946720807 1 1 1 1 1 0.0090820287255900835 1 0.009221264222509162 1 1 1 0.0094232192182255922 0.0095622279699533672 1 1 1 1 0.0084002425528313628 0.0099194168360047016 1 1 1 1 1 1 1 1 1 1 1 0.0087490961134023271 0.0093635046286735402 0.0099906187922887552 1 1 1 0.0080194861016943553 1 0.0095738027987888382 1 1 0.0098699910746685524 1 1 1 1 0.0086544429327278551 1 1 1 0.0099832455468362846 1 0.0087541259188543934 1 0.0087584941770927297 1 1 1 0.0099528565281114326 0.010228123203628703 0.0096854853300993651 0.0090062398900199805 1 1 0.0097035189088893487 1 1 0.0089112586778644261 1 1 0.010020319692443803 0.0091527745895867377 1 1 0.0099316222252131808 1 1 0.0095617254742318709 1 1 1 0.0099825560493275629 1 1 1 1 1 1 1 1 1 1 1 1 1 1 1 1 1 1 1 1 1 1 1 1 1 1 1 0.010006175147100952 1 1 1 1 1 0.0091866939040692788 1 1 0.0093905156992156597 1 1 1 1 1 1 1 1 0.0097574837222239794 1 1 1 1 1 1 1 1 1 1 1 1 0.0099784428701840192 1 1 1 1 1 1 0.0099904261283237754 1 0.0098922117428232679 1 1 1 1 1 0.0099949511379555933 1 1 1 1 1 0.0099878354955237093 1 1 0.010000948073632023 1 1 1 0.0099853763663342414 1 1 1 0.0099708288993683621 1 1 1 1 1 1 1 1 0.0099854525330341209 1 1 1 1 1 1 1 1 1 0.008947178336611291 1 1 1 1 1 1 1 1 0.0090547105840671077 1 1 0.0089847570372809642 1 1 1 1 1 1 1 1 1 1 1 1 1 1 1 0.0099422876505190546 1 1 0.0099194704274815915 1 1 0.0098140225445726322 1 1 0.0099734952532832474 1 0.0093469867284085833 1 1 1 1 1 1 1 1 1 1 1 0.0098035754846594915 1 1 0.010090597756818975 1 1 1 1 0.0088329763923724759 1 1 0.0091493629804282467 1 1 1 0.0099434402085543938 1 1 1 0.0096825982224900253 1 0.010000583242486361 0.0093502238301699323 1 1 1 0.0098956748556870196 1 1 1 1 0.0093865301369044987 1 1 1 1 1 0.0098248307547724768 1 1 0.0093225967486647993 0.010165735526719257 0.0093797786395810444 1 1 1 1 1 1 1 0.0099857711830141256 1 0.009966479234586486 1 1 0.009957916153498678 1 1 1 1 1 0.0092773419128594058 1 1 0.0099271210833991909 1 0.0090302083257486915 0.0090733414160527465 1 1 1 1 1 0.0093407953087159719 1 1 1 1 1 1 1 0.0094669578648479673 1 1 0.0097757386278724684 1 1 0.0097184734567113459 1 0.0099870770097282239 1 1 1 1 1 1 0.0098223437777907509 1 0.0089663683117909392 1 1 1 1 1 1 1 1 1 1 1 1 1 1 0.009980675666369232 0.0098464764561330218 1 1 0.009728085944102554 1 1 1 0.0099818482610459641 1 1 1 1 1 1 1 1 1 1 0.0090136294001875363 1 1 0.0099083051912019909 1 1 1 1 1 1 1 1 0.009163321283715907 1 1 1 1 1 1 1 1 1 1 1 1 1 1 1 1 1 1 1 1 1 1 1 1 0.0099672256131721551 1 0.009903186790383562 1 1 1 1 1 1 0.0097613611299197413 1 1 0.0093617372465753732 1 1 1 1 1 0.0096325505637826301 1 1 1 1 0.0095889458631299527 0.0099955679265807864 1 0.0094475000345929268 1 1 1 1 1 1 0.0099927589851804138 0.0086950790358882955 1 1 1 1 1 1 0.0097759111300047222 1 1 1 0.0095896949326612965 1 1 1 1 1 1 1 0.0095082606948259062 1 1 1 1 1 0.0099809406962981639 1 1 1 1 1 1 0.0096284484850672255 1 1 1 1 0.009986918810186405 0.0093093616242960042 1 1 1 1 1 1 1 1 0.0099994034498742061 1 0.0098054952305717674 1 1 0.009471840263002896 1 0.0093735203957917793 1 0.0099992866568663075 1 0.0096466241605441365 1 1 1 0.0091769858445207887 1 1 1 1 1 1 0.0096401540485440886 1 1 1 1 0.009575135631859126 1 0.0095114605980878824 1 1 0.010009757576232873 1 1 1 1 1 1 1 1 1 1 0.010010693963162639 1 1 1 1 1 0.0096198289268555909 1 1 0.0097952452469123596 1 1 1 1 1 1 0.009732254518188722 1 1 1 1 1 1 1 1 1 1 1 1 1 1 0.0099198308356543037 1 1 1 1 1 1 0.0097708581974593443 1 1 1 1 0.010019631604997354 1 1 1 1 1 1 1 0.0094189053122776603 1 1 1 1 0.0091217207298438224 1 1 1 1 1 1 1 1 1 1 1 1 1 1 1 1 1 1 1 1 1 0.0090078490230826244 1 1 1 1 1 0.009914040114858122 1 1 1 1 1 1 1 1 1 1 1 1 1 1 1 1 1 1 1 1 1 1 1 1 1 1 1 1 0.009530690906636349 0.0098822069298567169 1 1 1 1 0.0096007612408332277 1 0.0097437028653077351 1 1 1 1 1 1 1 1 1 1 1 1 1 1 1 1 1 1 1 1 1 1 1 1 1 1 1 1 1 0.0096274036353270875 1 1 1 0.0091288617561840583 1 1 1 1 1 1 1 1 1 1 1 1 1 1 1 1 1 1 1 0.0099242574891602719 1 1 1 1 1 1 1 1 1 1 1 1 1 1 1 1 1 1 1 1 1 1 1 1 1 1 1 1 1 1 1 1 1 1 1 1 1 0.0099731286913700683 1 1 1 1 1 1 1 1 0.0099832647592941713 1 1 1 1 1 1 1 1 1 0.0095479829201297849 0.0099900561330800424 1 1 1 1 1 1 1 1 1 1 1 0.010017554421577059 1 1 1 1 1 1 0.010116616313828585 1 1 1 1 1 1 1 1 1 1 1 1 1 1 1 0.0098489181309870787 1 0.0091951079893008349 1 0.0095958731624402362 0.0093849370393556675 1 0.010253144622021849 1 1 1 1 0.010005949967824692 1 1 1 1 1 1 1 1 1 1 1 1 1 0.010027641767251922 1 1 1 1 0.0099800311550536768 1 1 1 1 1 1 1 1 1 1 1 1 1 1 1 1 1 1 1 1 1 1 1 0.0094372452426675114 1 1 0.0094064638823163522 1 1 1 1 1 1 1 1 1 1 1 1 1 1 1 1 1 1 1 1 1 1 0.0094587224248513357 1 0.0099983821881890686 0.0099966947990224406 1 1 1 1 1 1 1 1 0.0096292014571540182 1 0.0095131741950733525 1 1 1 1 1 1 0.0098677507693315358 1 1 1 0.0097833408172076711 1 1 1 1 0.0096306604321511717 0.0097807547513211884 1 1 1 1 1 1 1 1 1 1 1 1 1 0.0099882398624266521 1 1 1 1 1 0.0099562643952862094 1 1 0.0099263088261791772 1 1 1 1 1 1 0.009819590001546398 1 1 1 1 1 1 1 1 1 1 1 1 0.0097918038157991088 1 1 1 1 1 1 1 0.009977086521033636 1 1 1 1 1 1 1 1 1 1 0.0094602568794892178 1 0.0094863180412895608 1 1 1 0.009857171121526476 0.0099273082426726313 1 1 0.0095625063128403701 1 0.0094557185493384585 0.0096481938494276248 1 1 1 1 1 0.0099930952751961927 1 0.0099820185227877372 1 1 1 1 1 1 1 1 1 1 1 1 1 1 1 0.0099529918440678985 1 1 1 0.0099195943862612785 1 1 0.0094393266757953377 1 0.010000425095130137 1 0.0096071506875686895 1 1 0.009911047571423701 0.0095405911504291372 1 1 1 1 1 1 0.010014868321274441 1 1 0.0099844712779340906 1 1 1 1 1 0.010047626321998239 1 1 0.0097670293100478763 1 0.010030956771526075 1 0.0099282995788222486 1 1 1 0.01003685508132961 1 0.010005105533084506 0.0092317520912444072 1 1 0.0098281197142067213 1 1 0.0095914028462472517 1 1 1 0.0099778252915658418 1 1 1 1 1 1 0.009954966748252296 1 1 0.0095838427921576715 0.0097787995543878702 1 0.0095860234332410862 1 1 0.0098071561910356864 1 1 1 1 1 0.0099396740615284168 1 1 1 1 1 1 0.0097538278958387639 1 1 0.0099965591268271065 1 0.0096868588706384255 0.0098718085956098645 1 1 1 1 1 0.0098873964384837733 1 1 1 1 1 1 1 1 0.0094501564376948503 1 0.0095714985447503207 1 1 1 0.0090440799497373062 1 1 0.0096941499822986599 1 1 1 1 0.0096069562608285843 1 1 1 1 1 1 1 1 1 0.0099049526400481896 1 1 1 1 1 0.009749873075509341 1 1 1 1 0.0099855203779034007 1 1 1 1 1 0.0099811902813393191 1 1 1 1 0.0099943614692650333 1 1 1 1 1 1 1 1 1 1 1 1 1 0.010001102424372514 1 1 1 0.0099843327838693291 1 0.010003010606593466 1 1 0.009971255368482923 1 1 1 0.0099939341516831464 1 1 1 1 1 0.0099871315128269387 1 1 1 1 1 1 1 1 1 1 1 1 1 0.0099317437396329745 0.0095890186654645614 1 1 1 1 1 0.010011714612271001 1 0.0098446785196189043 1 1 0.009991428680618468 1 0.0099107190195850542 1 1 0.0093318313295258741 1 1 1 1 0.0096572585262479811 0.010028984452798116 0.0096483397251574746 1 1 1 0.0099146513005183689 1 0.009557315681496566 1 1 1 1 0.0095397347142003909 0.0094969864634740914 1 1 1 0.0099915394679819178 1 1 1 1 1 1 1 1 1 1 0.0099282603356824969 1 0.0098351477748924963 1 1 1 1 1 1 1 1 1 1 1 1 1 1 1 1 0.010040379724566218 1 1 1 1 1 1 0.0098326332839298609 0.0098971089012280643 1 1 0.010148667055418132 1 1 1 1 1 1 0.010040484305487023 1 1 1 1 1 1 1 1 1 1 1 1 0.0097848352156006749 1 1 1 1 1 1 1 1 1 1 1 0.0099378270256458533 1 1 1 1 1 1 1 1 1 1 0.0098560452753076611 1 1 1 0.0098627259825555223 1 1 1 1 1 1 1 1 0.0096686244680643033 1 1 0.0098746334916100832 1 1 1 1 1 0.0099407531321034099 1 1 1 1 1 0.0099089982171387397 1 0.0098356445017058654 1 1 1 1 1 1 1 1 1 1 1 1 1 1 1 1 1 1 1 1 1 1 1 1 1 1 1 1 1 1 1 1 1 1 1 1 1 1 1 1 1 1 1 1 1 1 1 0.0099994163401556958 1 1 1 1 1 1 0.010013369444016174 1 1 1 1 1 1 1 1 1 1 1 1 1 1 1 0.010043873377875131 1 0.0099362077104651093 1 1 1 1 1 1 1 1 1 1 1 1 1 0.0097156141779228961 1 1 1 1 0.009704771862922932 1 1 1 1 1 1 1 1 1 1 1 1 0.0099015919696312672 0.0099989899099520319 1 1 1 1 1 1 1 1 1 1 1 1 1 1 1 1 1 1 1 1 1 1 1 1 1 1 1 1 1 1 1 1 1 1 1 1 1 0.0098947323674190325 1 1 1 1 1 1 1 1 1 1 1 1 1 1 1 1 1 1 0.010006079245880603 1 0.0099994905386165244 0.010000280996717306 0.009936182218127516 1 1 1 0.0099997730807828145 1 1 0.009999798438244719 0.0099012042709148828 1 1 1 0.0099551021628103246 1 1 1 1 1 1 0.0099686122606943584 1 1 1 1 1 1 1 1 1 0.0099222561067367852 0.0099330383741773227 1 1 1 0.0099282764913262312 1 1 0.0098379085615750289 1 1 0.0098978586063935142 1 1 0.0099886987971492171 1 1 1 0.0097703535468844395 1 0.0099967744229970401 1 0.0098809313402509376 1 1 0.0098938056181370991 1 1 1 0.0098048760869253182 1 1 1 0.0099494274064713568 0.0098439076709709045 1 1 1 1 1 1 1 1 1 0.0099078352308752671 1 0.0097883280187211989 1 1 1 0.00993076622569216 1 0.0099614903317581868 1 1 1 0.0099565786860043477 1 0.0099999047405647905 0.0098194039888882013 1 1 1 1 1 1 0.0099265439423721694 0.0098758691296933626 1 1 0.0099269217132500684 0.009946846361987104 1 1 1 0.009964976298941091 1 1 0.0099545477058550873 1 1 0.0099212852222259947 1 1 1 1 0.0098567650726806393 1 0.0099352368235156134 1 0.0099102922372265 1 1 1 0.0099232281579417145 1 0.0098804953794230186 1 1 1 1 0.0099592921291744036 0.010000999306512947 1 0.0099211459683403724 1 1 1 1 0.010033995832071037 1 1 1 0.010011035475992022 0.0099734536507457092 0.0099070897234858277 0.0099714792255314842 0.0098986067354899666 1 1 0.010023405034140911 1 1 0.0098418252730522356 0.0099155440450099611 0.010013482020259722 1 1 0.010004370969410849 0.0099548725919954492 0.0099237108426308493 1 1 0.009977619261821993 1 1 0.0099474401050810186 0.0099603746307270757 1 0.0098020882823935396 1 0.0098831041954529665 0.0099057031451774465 1 1 1 1 0.0099300613548355347 0.0098940493295095709 1 1 1 0.0099341595034593937 1 0.0099497482020353845 1 1 1 1 1 1 0.0099828017641653329 1 1 1 1 0.0099937787916099391 1 1 0.0098696719177320206 1 0.0098662758023886892 1 0.0098565589753077179 1 0.0099490660587767815 1 1 0.010001383354189316 1 1 1 1 1 1 1 1 1 1 1 0.0097419501148870574 1 1 1 0.0099997864549329057 0.0098463200801363095 1 0.0099965967562856937 1 1 1 1 0.0098669215931313069 1 1 1 0.009999737647947279 1 0.010033309462651652 1 1 1 1 0.0099858247654892127 0.0099101676688307452 1 1 1 1 0.0099990078901764541 1 1 0.0099621248403135281 0.0099545414739911058 1 1 0.0099428427697306494 0.009917375416260709 1 1 0.0099730031146391066 1 1 1 0.0096830749525318015 0.009840661179476351 1 1 1 1 0.0098383699959059961 1 0.0099431981901065003 1 0.0097829430474655997 1 0.0097575198297489042 1 0.0097010358850316263 1 1 0.0096333707576849135 0.0099899234135025199 1 1 0.0099404149997108244 1 1 0.0098372287479191987 1 0.009810328700136527 0.0098805791881364236 1 1 0.0097193557948439847 1 1 0.0099510655171886533 1 0.0099582387550411974 1 0.0098560540228355351 1 0.0099206654342972201 1 1 0.0098508988870929445 1 1 1 1 1 0.0098984431908965206 0.0097455053363153573 1 1 1 1 1 1 1 1 1 1 1 1 1 1 0.0099920428968564845 1 0.0099600628145438217 1 1 0.0099999256277535677 1 1 1 1 0.010042363419911167 1 1 0.0099990831265569374 1 0.0095706452587669306 1 1 1 1 1 1 1 1 1 1 0.0094729303658333333 1 1 1 1 1 1 1 1 1 1 1 1 1 1 1 0.0099970080337659657 0.0099670093758852264 1 1 1 0.0099343050631861794 0.0099266719038692448 1 1 1 1 0.0099648263253012681 1 1 1 1 1 0.01000321385854698 1 1 1 1 1 0.0099967600790455899 1 1 1 1 1 1 1 1 1 1 1 1 1 1 0.0099623284152890318 1 1 0.009990138278349563 0.0099693002102215263 1 0.0099903434206389911 1 1 0.009965816570747927 1 1 0.0099793526590205208 1 1 1 1 1 1 0.0099994948997418412 1 1 0.0099972362499312004 1 0.0099995231907474939 1 1 1 1 1 1 1 1 1 1 1 1 1 0.0099826331899192308 1 1 1 0.0099449288595986601 1 1 0.010011877292753081 1 1 0.010037880337025951 1 1 1 0.009689351294606784 1 0.010001589822870582 1 1 0.0099003535860891622 1 1 0.0098863512007533322 1 0.009572542002695061 1 1 0.0096706701114437181 1 1 1 1 0.009749910684013598 1 1 1 1 0.0095461003280647456 1 1 1 0.0096839269193008861 1 1 1 1 1 0.010024711731657327 1 1 1 1 1 1 1 1 0.0099434712050514122 1 1 1 1 1 1 1 1 1 1 0.0098439414410826272 1 0.010070642708140821 1 1 1 0.0097655929283421324 1 1 1 1 1 1 1 1 1 1 1 1 1 1 1 1 1 1 1 1 1 1 1 1 1 1 1 1 1 1 1 1 1 1 1 1 1 0.010007133684580638 1 1 1 0.0094314700447823887 1 1 1 1 1 1 1 1 1 1 1 1 1 1 1 1 0.0097579853854225553 1 1 1 1 0.0095923417788684774 1 1 1 1 1 1 1 1 1 1 1 1 1 1 1 1 0.0099203529928841468 1 1 1 1 1 1 1 1 1 1 1 1 1 1 1 1 1 1 1 1 1 1 1 1 1 1 1 1 1 1 0.0097020011222554766 1 0.010045032372882125 1 1 1 0.010016735779425325 1 1 1 1 1 1 1 1 1 1 1 1 1 1 1 1 1 1 1 1 1 1 0.010058392359446427 1 1 1 0.010004843752190304 1 1 1 1 0.0099629859126776736 1 1 1 1 1 1 0.0098885192360871586 1 1 1 1 1 1 1 1 0.0097207436893832627 1 1 1 1 1 1 0.0099996229821295406 1 1 0.010032456293546623 0.0095882453607778629 1 1 1 0.009908222571195063 0.010011239934126668 1 1 0.010075441620390197 1 0.0099654220952844937 1 0.0098304397343826587 0.010000058824680648 1 1 1 1 0.0099995175212822703 1 0.01006914102848454 1 1 1 1 0.0099298048754848569 1 1 0.0098378927690193664 1 0.0097386688756580832 1 1 1 0.0097946004367014342 0.010128620606868848 0.010160780508024042 1 0.0099994559757030123 1 0.010008190603285099 1 0.0097950993692501771 1 0.01003034109930314 0.010075667722677409 1 0.0098624687489681055 0.0098826900078731114 1 1 1 0.0099786985268856439 1 0.010076223382404425 1 1 1 1 1 0.0098051092747174946 1 0.0099697268180283204 1 1 1 1 1 0.009991080890000557 1 0.0098479645796643936 1 0.0098277533429323057 1 1 1 1 1 0.010036471681391551 1 1 0.010025046529150329 1 1 1 1 0.010015158937881978 1 1 1 1 0.0099998753448190952 1 0.010045084505744916 1 1 0.010032933022804946 1 1 1 0.0099979994948995333 1 1 1 1 1 1 1 1 1 1 1 1 1 1 1 1 1 1 1 0.0098560399835321694 1 1 1 0.01002749084903198 1 1 1 0.0099940308357458277 1 1 1 1 0.010106092780981069 1 1 1 1 1 1 1 1 1 1 1 1 1 1 1 1 1 1 1 1 1 1 1 1 1 1 1 1 0.0094508859104422104 1 1 1 1 1 1 1 1 1 1 1 1 1 0.0094320722687962193 1 1 1 1 1 1 1 1 1 0.0099913868185753877 1 0.009211002580763003 1 1 1 1 0.0092753271421400843 1 1 1 1 1 1 0.0099489861904687085 1 1 1 1 0.0098510111331263847 0.010044111358637245 1 0.010272393265696499 1 0.010089084664064473 1 1 1 1 0.010084981682751591 1 1 0.01001689236981307 0.0097556961212850353 1 1 1 1 1 0.0099690387561467298 0.0098888355814373517 1 1 0.010020719574790345 1 0.009737743429399752 1 0.0096870232533884174 0.010085069139227505 1 1 1 1 1 0.0099996617313987783 1 0.010058618691143597 1 0.0097317944016327811 0.0098782628650731525 1 1 0.01009719051702547 0.01018636064526072 1 0.01000309012988519 1 0.01014446930847521 1 1 1 0.010164836179908305 1 1 1 0.0097520533669245082 1 1 0.0096986817107186114 0.010111190516228694 0.0098932415470586368 0.010007066215038177 1 0.0096677491922291109 1 1 1 1 0.0097265221295071945 0.010001883556546673 1 1 0.0096704495448060104 1 1 0.0096143982347512633 1 1 0.010173194747829335 1 1 1 1 1 1 1 0.0098602365121173326 1 1 1 1 0.010161134201941469 0.0099918263460892914 1 0.0096885832862493131 0.0096897460441966263 1 1 1 1 0.010137519882554159 1 1 0.010054004562066191 1 0.0096784176335223508 1 1 1 0.0097780976892344329 0.010218672384654692 0.0101677335568633 0.0098930318052403207 1 1 0.0094206668243396324 1 1 1 1 0.010082019289377705 1 1 1 1 0.010005091880438789 0.010000346894450254 1 1 0.0097268038804055289 1 1 1 1 1 1 1 1 0.010000449117127615 1 0.010077539641842581 1 0.0099826178852962712 1 1 1 1 1 1 1 1 1 1 1 0.0099472374522601541 1 1 1 1 0.0098217864919644352 1 1 0.0095682528344382522 1 1 1 1 0.010259664441248754 1 1 1 0.010220716025511705 1 0.0098470613342772611 1 1 0.0094635210375397898 1 1 1 1 1 1 1 1 1 1 1 1 1 0.0093034937424177414 1 0.0099935871020679079 1 1 1 1 1 1 1 1 1 1 1 1 1 1 1 1 1 1 1 1 1 0.0092893346150546528 0.0099750949426729088 1 1 1 1 0.0099989315933065055 1 1 1 1 1 1 1 0.009940252251552574 1 1 1 1 0.0099178213945856318 1 1 1 1 1 0.0099084219122882143 1 1 1 1 1 1 1 1 1 1 1 1 1 1 1 1 1 0.0099538145857179447 1 1 1 1 1 1 1 1 1 1 1 1 1 1 1 0.0099561035083234675 1 1 1 1 1 1 1 0.0099811943387316023 1 0.0091693771765788482 1 1 1 1 1 1 0.0099931466592907813 1 1 0.010002053843112261 1 0.010046391442666091 1 1 1 1 1 1 1 1 1 0.0098110644005314582 1 1 1 1 1 0.0096186282173426584 1 1 1 1 1 1 1 1 1 1 1 0.010016901869245748 1 1 1 0.0099601435642772754 1 1 0.010061576744224015 1 1 1 0.009861311743455399 1 0.0099918503381150204 1 1 0.010017475697772026 1 0.0098300726594472629 1 1 1 1 0.0099470857239606428 1 1 1 1 1 0.0094378884889142044 1 1 0.0098726987220359927 0.0098120357665843691 1 1 1 0.0096482988749026725 1 0.0099394853111608224 0.0093750458661575366 1 1 1 0.010023274824853334 1 1 1 1 1 1 1 1 1 1 1 0.010030909081326542 1 1 1 1 1 1 1 1 1 1 1 1 1 1 1 1 1 1 1 1 1 1 1 0.010012623122219013 1 1 0.010124843570373592 1 0.0099384345024064978 1 1 0.010025295786996374 0.0091874461282036232 1 0.0098971630624804761 1 1 1 0.0095269257288530945 1 1 1 1 0.0099784554449072107 1 1 1 1 1 0.010112623968068096 0.0097195819383939924 0.0099993106872073578 1 1 0.0099311397967936591 1 1 1 1 1 1 1 1 0.010001294342713058 1 1 1 1 1 1 0.0099459603604885021 1 0.0095265120003001896 1 1 1 1 0.0099843957813033901 0.0097700115935249795 1 1 1 1 1 1 0.010032733439119387 1 0.0099729447222054752 1 1 1 0.010008208163482158 1 1 1 0.0099798538150392864 1 1 0.0098082779517139999 1 1 0.009933474233319823 1 1 1 0.0099996031795271372 1 1 0.0099966141923544007 1 1 1 0.010047376512390141 1 1 1 1 1 1 1 1 1 1 1 1 0.0099201674662172841 1 1 1 1 1 1 0.0099684751420926476 1 1 1 1 0.010011516253159512 1 1 1 1 0.010057968995181289 1 0.00999946065351358 1 1 0.0095852938178132979 1 1 1 1 1 1 1 1 1 1 1 0.0096276279332521801 1 1 1 1 1 1 1 1 1 1 1 1 1 1 1 1 1 1 1 1 1 1 1 1 0.0096897211970084739 1 1 1 1 1 1 1 1 1 1 1 1 0.0098640603130932883 1 1 1 1 1 1 1 1 1 1 1 1 1 1 1 1 1 1 1 1 1 1 1 1 1 1 1 1 1 1 1 1 1 1 1 1 1 1 1 1 0.0097757526977510553 1 1 1 1 1 0.0099334384410298942 1 1 1 1 1 1 1 1 1 1 1 1 1 1 1 1 1 1 1 1 1 1 1 1 1 1 1 1 1 1 1 1 1 1 0.0099919954164172393 1 1 1 1 1 0.0097139647891994439 0.0097717571499956607 1 1 1 1 1 0.0099928065398892166 1 1 1 1 0.0099939052413866528 1 1 1 1 1 1 1 1 1 0.0099894207322436188 1 1 1 1 1 1 1 1 1 1 1 1 1 1 1 1 1 1 1 1 0.0098303379882480925 1 0.0099585099071939267 1 1 0.0097603163507337647 0.00992056072590701 1 0.0099796102141004612 0.009859097801614463 1 1 1 1 0.0099247612235220141 0.0098690502494986655 1 0.0098880696114051377 1 0.0099957693290943801 1 1 1 0.0099980231730950921 0.0099926455409019618 1 0.010002572069038058 1 1 1 1 0.010026009224669372 1 0.0098267807437510193 1 1 1 1 0.0096508257365289403 1 1 1 1 1 0.0099495127507245075 1 1 0.0096758667501063017 1 1 1 1 1 1 1 1 1 1 0.0099881217851341166 1 1 1 1 1 1 1 1 1 1 1 1 0.0099994326621202986 1 1 1 1 1 0.010003302216836943 1 1 1 1 1 1 1 1 1 1 1 1 1 1 1 1 1 1 1 1 1 1 1 0.0093698103209583945 1 1 1 1 1 1 1 0.010060752754637968 1 1 0.010176161374596508 1 1 1 1 1 1 1 1 1 1 1 0.0099663774641892203 1 0.0092866065236676988 1 1 1 1 1 0.0099758142944448586 1 0.0091860362532597776 0.010041305638811641 1 1 1 0.0099146900824258078 1 1 1 0.0098486895421103088 0.0097540224452116586 1 1 1 1 1 1 1 1 1 1 1 1 1 1 1 1 1 1 1 1 1 1 1 1 1 1 1 1 1 1 1 1 0.0099565220045278111 1 1 1 1 1 1 1 1 1 1 1 1 0.0098016679999509363 1 1 1 0.0098492630985778026 1 1 1 1 1 1 1 1 1 1 1 1 1 1 1 1 1 1 1 1 1 1 1 1 1 1 1 1 0.0096929860031622888 1 1 1 1 0.0096641892373130426 0.009563058764275819 0.0099993797164160091 1 0.0091663734876098781 0.01001118559716258 1 1 1 0.0098126068340176915 1 1 1 1 1 1 0.0099395456401250859 1 1 1 1 1 1 1 1 1 1 1 1 1 1 1 1 1 1 1 1 1 1 1 1 1 1 1 1 1 0.010033544928496263 1 1 1 0.010163598772360142 1 1 1 1 1 1 1 1 1 1 1 1 0.0091009025896218385 1 1 1 1 0.0089917895638023208 1 1 1 0.010045953105624082 1 1 1 1 0.0087094423999698363 1 0.010367212363414105 1 1 1 1 1 1 0.0088127570243842802 1 0.010155630568058975 1 1 1 1 1 0.010015810191489369 1 1 1 1 0.0099997732935961942 1 1 1 0.0099775814280621041 1 1 1 1 1 1 1 0.0098330915988786641 1 1 0.0098238340740114585 1 1 0.0099285599547910136 1 1 1 1 1 1 1 1 1 1 1 1 1 1 1 1 1 1 1 1 1 1 1 0.0097668051492226481 1 0.0097585159124150764 1 1 1 0.0097022110757454295 1 0.010079013294572142 1 0.010070108428309736 0.009783745562044031 1 1 1 1 1 1 1 1 0.01002555707861965 1 1 1 1 1 1 1 1 1 1 1 1 1 1 1 1 1 1 1 0.0098690152774413443 1 1 1 1 1 1 1 1 0.0099268076331678681 1 1 1 1 1 1 1 1 1 1 1 1 1 1 1 1 1 1 1 1 1 1 1 1 1 1 1 1 1 1 1 1 1 1 1 1 1 1 1 1 1 1 1 1 1 1 1 1 1 1 1 1 1 1 1 1 1 1 1 1 1 1 1 0.0099429070713040035 1 1 1 1 0.0092947137818595576 1 1 1 1 0.0099668988288144859 1 1 1 1 1 1 1 1 1 1 1 0.0098727761716633361 1 1 0.0094178702726494257 0.01000136100482768 1 1 1 1 1 0.0097861691023047332 1 1 1 1 1 1 1 1 1 1 1 1 1 0.0097561736690487157 1 1 0.0099919856804241113 1 1 1 1 1 1 1 1 1 1 1 1 0.0098359040797972152 1 1 0.0099525065824118374 1 1 1 1 1 1 1 1 1 1 1 1 1 1 1 1 1 1 1 1 1 1 0.010015218826710644 1 1 1 0.0099156444411367863 0.010036451793707254 1 1 1 1 0.0095284583570445121 1 1 0.0084251302015031608 1 0.0093328970957512088 1 1 1 1 0.0096682594294246783 1 1 0.0088628279149689897 1 1 1 1 0.010034105660382266 1 1 1 0.0094615500964416923 1 0.010594639271394687 0.0099794592060492623 1 1 1 1 1 0.010007204507134757 1 1 1 1 1 1 1 0.0093254083538483329 1 1 0.0096862006313341402 1 1 0.0099769614895442674 1 0.0099831519377651581 1 1 1 1 1 1 1 1 1 1 1 1 1 0.010060549875297767 1 1 1 1 1 1 1 1 1 1 1 1 1 1 1 0.00922946545562928 0.010394566254669028 1 1 1 1 0.010207350752247112 1 1 1 1 1 1 1 1 1 0.0094176008897902466 1 1 1 1 0.0083002822161628072 1 1 1 1 1 1 1 0.0086213601704500965 1 1 1 1 1 1 1 0.0089769344811900572 1 1 1 1 1 1 1 1 1 1 1 1 1 1 1 1 1 1 1 1 1 1 1 1 1 1 1 1 1 1 1 1 1 1 1 1 1 1 1 1 1 1 1 0.0087401795932477589 1 1 1 1 1 1 1 1 1 1 1 1 1 1 1 1 1 1 1 1 1 1 1 1 1 1 1 1 0.0086174759839294148 1 1 0.0095356888661632215 1 1 1 1 1 1 1 1 0.008377491448874879 1 1 1 1 1 1 1 1 1 1 1 1 1 1 1 1 1 1 1 1 1 1 1 1 1 1 1 0.0099916486156192731 1 1 1 1 1 1 1 1 1 1 1 1 1 1 1 0.0099026243981359726 1 1 1 1 0.0099701712404954394 1 1 1 1 1 1 0.0099881449100052179 1 1 1 1 0.0090892058772680286 1 1 1 1 1 1 0.0099936657667465453 1 1 1 1 1 1 1 1 1 1 1 1 0.0096368346514441715 1 1 1 1 1 1 1 0.0093096543387805961 0.0096919292314543437 1 0.010248199306352549 0.0095338394255970217 1 1 0.0095938786043636582 1 1 0.0097697269061272456 0.010095483304305555 1 1 0.010028382981800485 1 0.0094621882569540725 1 1 1 1 0.0095713109438275001 1 0.0099889706347286999 1 0.0091927224920769698 1 1 0.0094427075355837109 1 0.0096557200047093453 0.0099251919576960959 1 1 1 0.009249335023079848 1 1 1 1 1 1 1 1 1 1 1 0.0095589258663570462 1 1 0.0086437891210180955 1 1 1 0.010144615871149261 1 0.0085262748308828056 0.010229754406046796 1 1 0.0099990852339044839 1 0.009072155916249932 1 0.0095574248168951489 1 0.008802065134640151 1 1 1 0.0077018706703428927 1 1 1 0.0098668200203624913 1 0.0090697009475536761 0.0098696875214383372 1 1 0.0084905389311279514 1 1 1 0.0079756439341595008 1 1 1 1 0.0085303926520199514 1 0.0099776643055363781 1 1 1 1 1 1 1 1 1 1 0.0081574568729630807 1 1 1 0.0098219610598146295 1 1 1 1 1 1 1 1 1 1 1 1 1 0.0099011517164169453 1 1 1 1 1 1 1 1 1 1 1 1 0.010037981351999996 0.0094797283434241691 1 1 1 1 1 1 1 1 1 1 1 1 1 1 1 1 1 1 1 1 1 1 1 0.0092467002672939249 1 1 1 0.010014620346512184 1 1 0.01003199901130461 1 0.0090818627688878297 1 0.0099830754495222815 1 1 1 1 1 1 1 0.0099902595758872004 0.010027572236038319 1 1 1 1 1 0.0098559945946881753 0.0099918802880786858 1 1 1 1 1 0.0099758414771812659 1 1 1 0.0097664087449565312 1 1 0.009978823360602752 0.009995707709509527 1 1 1 1 0.0098739277339489877 0.0092070110565782258 1 1 0.0097860369078363128 1 1 1 0.0094511271446165099 0.0099952803548220229 0.0099978128294884814 1 1 0.0091004727786610905 1 1 1 1 1 1 1 1 1 1 1 0.0099531778943741309 1 1 1 1 1 1 0.0099470530317445436 1 1 1 0.0099951763140433223 1 0.0096899917712078114 1 1 1 1 1 0.0096537078616166262 1 1 1 1 1 1 1 1 1 1 1 0.0099496309872056498 0.0099908746392379944 1 1 1 1 1 0.0096203076539289282 1 1 1 1 1 1 1 0.0096019505805368197 1 1 0.009687179972155395 1 1 1 0.0098882121974229013 1 1 1 1 1 1 1 1 0.0098982234252003049 1 1 0.0096427755100417286 1 0.0095074900265364488 0.0098202413201847801 1 1 1 0.0099942668539997372 1 1 1 1 1 1 0.009501191376167225 1 1 1 1 1 1 1 1 0.0098132749907479597 1 1 1 1 1 0.0099142787307855054 1 1 1 1 1 1 1 1 1 1 1 0.0097772690479455918 1 1 1 0.0098606886555490554 1 1 1 1 1 1 1 1 0.0096011733242149424 1 0.0099957232050612507 1 1 1 0.0093551817373738813 1 1 1 1 1 1 1 1 1 1 1 1 1 1 1 1 1 1 1 1 1 1 1 1 1 1 1 1 1 1 1 1 1 1 1 1 1 1 1 1 1 1 1 1 1 1 0.0099174806708231811 1 1 1 1 1 1 1 1 1 1 0.010004809255568573 1 1 0.0097999444248222291 1 1 1 1 1 1 1 1 1 1 0.0098186971735042174 1 1 1 1 1 1 1 0.0094436839557144932 1 1 1 1 0.0094055410272918319 0.0098444624181365254 1 1 0.0098692148632967876 1 1 0.010001513688937643 1 1 0.0090330813544177487 1 0.009763365291337955 1 1 1 1 1 0.0099960198023790296 1 1 1 0.0097424219305099567 1 0.0093883875946646454 1 0.009576636212270534 1 1 1 0.0093921233922302245 1 0.0099940287938990128 1 1 1 1 1 1 1 1 1 1 1 0.010109096138340254 1 1 0.0094015874601952199 1 1 0.0093407503568761728 1 1 1 0.010023184165481581 1 1 0.0094070868206807459 1 1 0.009366684314708813 0.01000038794825399 1 1 1 1 0.0099662771744140222 0.0093907564076728296 0.010221492121700428 1 1 1 1 1 1 1 0.0098673002797288363 1 0.0093777190853233279 1 1 1 0.0098741281511348176 0.0091031031890688834 1 1 1 0.0090824867639465925 1 1 1 1 0.010078121266117858 1 1 1 1 1 1 1 1 1 1 0.0098844133136483988 1 1 0.0099994184181553727 1 0.0099330876411767056 1 1 1 1 1 1 1 1 0.0098753747403408417 1 1 1 1 1 1 1 1 1 1 1 1 1 1 1 1 0.010010481156096481 1 1 1 0.010016668594766399 1 1 0.0096689153465582683 1 1 1 1 1 1 1 1 1 0.0099768832765142739 1 1 1 0.0099167504764882033 1 1 1 1 1 1 0.0097602034858364876 1 1 1 1 1 1 1 1 1 1 1 1 1 1 1 0.0099974903362911906 1 1 1 1 1 0.0099079473377676631 1 1 1 1 1 1 1 1 1 0.0083684471527027821 1 1 0.0090517502966805143 1 0.0087496789030110239 1 1 0.0079497984193604154 1 1 1 0.0086007554812711183 1 1 0.010020833377015054 1 1 1 1 1 1 1 1 1 1 0.0098646352873813029 1 1 1 1 1 0.0095957443599601813 1 1 1 1 1 1 1 1 1 1 0.0087024518871165607 0.0097876793842435438 1 1 1 0.0094941562208465426 1 1 0.0098832276418002272 0.0097281026842563952 0.0094228939335358371 0.0091145980492436177 1 1 1 1 1 0.0099973992734495552 1 0.0099902457320197816 1 1 0.010001607167104399 1 0.010670522939186269 1 1 0.00916935853659759 1 1 0.010000092476311369 1 0.0095838432322919633 1 1 0.0080814750365808905 1 1 1 1 1 1 1 1 1 0.0096160493292384002 1 1 1 1 0.010396441293952018 1 1 1 1 0.0088815930058638113 0.0082810326852807009 0.0096849061830881281 1 1 1 0.010014870297740371 1 1 1 1 1 1 0.0097625816238540875 1 1 1 1 1 1 1 1 1 1 1 1 1 1 1 1 0.010027496943023916 1 1 1 0.0099963584225169558 1 1 0.0097325158936682754 1 0.0096847043481856528 1 0.0098000617790264567 0.0096476376881353913 1 1 1 1 0.0098029316606035762 1 1 1 1 1 1 1 1 1 1 1 1 1 1 1 1 1 1 1 1 1 1 1 1 1 1 1 1 1 1 1 1 1 1 1 1 1 1 1 1 1 1 1 1 1 1 1 1 1 1 1 1 0.0096218079126862716 1 0.0093127008380876914 1 1 1 0.0084075396373685558 1 1 1 0.010016640386091761 1 1 1 1 1 1 1 1 1 1 1 1 1 1 1 1 1 1 1 1 1 1 0.009980608769933199 1 1 1 1 1 1 1 1 1 0.010070150219424211 1 1 1 1 0.010093738918355572 1 1 1 1 1 1 1 1 1 1 1 1 1 1 0.0087771089116975391 0.0099922068693034331 1 1 0.0099748429454544554 1 0.0096993715084223789 1 1 0.0099937184102634712 1 1 1 1 1 1 1 1 1 1 1 1 0.0088763121502241187 1 1 1 0.0099828744784391139 1 1 1 1 1 1 1 1 1 0.0091692765363636172 0.00938999108766299 1 1 1 1 0.0099916420229873397 0.0089389564233644785 1 1 1 1 1 1 1 0.0094774795777753419 1 1 0.0098104485510018963 1 1 1 1 0.0095072348873606796 1 1 1 0.0096683796698937164 1 1 1 0.0098769094785586108 1 1 0.0099523436991617587 1 1 1 1 0.009258261375985578 1 1 1 1 1 0.009203333463197988 1 1 1 1 1 1 1 1 1 1 1 0.0091763480534468797 0.0095218854396423771 1 1 1 1 0.0099796424698305793 1 1 1 1 0.009994348779859932 0.0089213521913088477 1 1 1 1 0.0089547543504837051 1 1 1 1 0.0099549614073948436 1 1 1 1 1 0.0096649681529084007 1 1 1 1 1 0.0092720202288010169 1 1 0.0082684998606429548 0.0092685639782347125 1 1 1 1 1 1 0.009915152105457653 1 0.0084467431051037534 1 1 0.00807591453636455 1 1 0.0093452737124923076 0.010133040137001387 1 1 1 1 1 0.01003048148322391 1 1 1 1 1 0.010015749696812092 1 1 1 1 1 1 1 1 1 1 1 1 1 1 1 1 1 1 1 1 1 1 1 1 1 1 1 1 1 0.0097680989012923526 1 1 1 1 1 1 0.0092597884932882624 1 1 1 0.0085246596259144717 1 1 1 1 1 1 0.0088414220697324696 1 1 0.009224886375079986 1 0.0092345767190626406 0.0083556428774135202 1 1 0.0099765072160223518 1 0.0099372961497960592 1 1 1 1 1 1 1 1 1 1 1 1 1 1 
</DataArray>
</CellData>
</Piece>
</UnstructuredGrid>
</VTKFile>
