<?xml version="1.0"?>
<VTKFile type="UnstructuredGrid" version="0.1" byte_order="LittleEndian">
<UnstructuredGrid>
<Piece NumberOfPoints="31624" NumberOfCells="11135">
<Points>
<DataArray type="Float64" NumberOfComponents="3" format="ascii">
-0.5 -0.5 0 -0.46834794209927227 -0.49999999999999589 0 -0.46124839104438359 -0.47184821050858811 0 -0.5 -0.5 0 -0.46124839104438359 -0.47184821050858811 0 -0.47839538733203513 -0.45255283270950541 0 -0.5 -0.5 0 -0.47839538733203513 -0.45255283270950541 0 -0.5 -0.41634212646358221 0 -0.46834794209927227 -0.49999999999999589 0 -0.46124839104438359 -0.47184821050858811 0 -0.44466742395999448 -0.48198680820889928 0 -0.46834794209927227 -0.49999999999999589 0 -0.46124839104438359 -0.47184821050858811 0 -0.46124839104438359 -0.47184821050858811 0 -0.44628875665670842 -0.47038924120915709 0 -0.44466742395999448 -0.48198680820889928 0 -0.44628875665670842 -0.47038924120915709 0 -0.43892127773234768 -0.47158291606607761 0 -0.44466742395999448 -0.48198680820889928 0 -0.43892127773234768 -0.47158291606607761 0 -0.44466742395999448 -0.48198680820889928 0 -0.43342607321533239 -0.47830139088408252 0 -0.46834794209927227 -0.49999999999999589 0 -0.44466742395999448 -0.48198680820889928 0 -0.44557145593351588 -0.5 0 -0.44466742395999448 -0.48198680820889928 0 -0.44557145593351588 -0.5 0 -0.43312653844205001 -0.48877620252737142 0 -0.45414883998949879 -0.44369642101717899 0 -0.44207952812631218 -0.432473967552786 0 -0.43250920223850797 -0.44459246166653249 0 -0.44261594655068542 -0.45676344110113321 0 -0.45414883998949879 -0.44369642101717899 0 -0.43250920223850797 -0.44459246166653249 0 -0.44261594655068542 -0.45676344110113321 0 -0.45414883998949879 -0.44369642101717899 0 -0.46124839104438359 -0.47184821050858811 0 -0.44628875665670842 -0.47038924120915709 0 -0.44261594655068542 -0.45676344110113321 0 -0.46124839104438359 -0.47184821050858811 0 -0.44261594655068542 -0.45676344110113321 0 -0.45414883998949879 -0.44369642101717899 0 -0.43892127773234768 -0.47158291606607761 0 -0.44261594655068542 -0.45676344110113321 0 -0.43108305311186512 -0.46983046118508132 0 -0.44628875665670842 -0.47038924120915709 0 -0.43892127773234768 -0.47158291606607761 0 -0.44261594655068542 -0.45676344110113321 0 -0.46124839104438359 -0.47184821050858811 0 -0.45414883998949879 -0.44369642101717899 0 -0.46124839104438359 -0.47184821050858811 0 -0.45414883998949879 -0.44369642101717899 0 -0.47839538733203513 -0.45255283270950541 0 -0.45414883998949879 -0.44369642101717899 0 -0.47839538733203513 -0.45255283270950541 0 -0.46659513334101282 -0.42959449888831008 0 -0.47839538733203513 -0.45255283270950541 0 -0.47904142669251998 -0.41549257675943518 0 -0.46659513334101282 -0.42959449888831008 0 -0.47839538733203513 -0.45255283270950541 0 -0.5 -0.41634212646358221 0 -0.47904142669251998 -0.41549257675943518 0 -0.47904142669251998 -0.41549257675943518 0 -0.46659513334101282 -0.42959449888831008 0 -0.4639294593242288 -0.41565431460942798 0 -0.47904142669251998 -0.41549257675943518 0 -0.46659513334101282 -0.42959449888831008 0 -0.5 -0.41634212646358221 0 -0.47584609506668107 -0.38593418207312258 0 -0.5 -0.35529098361714978 0 -0.5 -0.41634212646358221 0 -0.47904142669251998 -0.41549257675943518 0 -0.47584609506668107 -0.38593418207312258 0 -0.47904142669251998 -0.41549257675943518 0 -0.47584609506668107 -0.38593418207312258 0 -0.46149109699047758 -0.40017815141067298 0 -0.47584609506668107 -0.38593418207312258 0 -0.46149109699047758 -0.40017815141067298 0 -0.45074151240797522 -0.3756336192004277 0 -0.46149109699047758 -0.40017815141067298 0 -0.44123240233692018 -0.39247898051103708 0 -0.44769062116320701 -0.41808770076410873 0 -0.44123240233692018 -0.39247898051103708 0 -0.44769062116320701 -0.41808770076410873 0 -0.44123240233692018 -0.39247898051103708 0 -0.44769062116320701 -0.41808770076410873 0 -0.43964347597476211 -0.40650582484303971 0 -0.44123240233692018 -0.39247898051103708 0 -0.43964347597476211 -0.40650582484303971 0 -0.43536150049179362 -0.39411646262943512 0 -0.46149109699047758 -0.40017815141067298 0 -0.44123240233692018 -0.39247898051103708 0 -0.45074151240797522 -0.3756336192004277 0 -0.44123240233692018 -0.39247898051103708 0 -0.43477418351063268 -0.3668702602579656 0 -0.44123240233692018 -0.39247898051103708 0 -0.45074151240797522 -0.3756336192004277 0 -0.43477418351063268 -0.3668702602579656 0 -0.45414883998949879 -0.44369642101717899 0 -0.46659513334101282 -0.42959449888831008 0 -0.44769062116320701 -0.41808770076410873 0 -0.45414883998949879 -0.44369642101717899 0 -0.46659513334101282 -0.42959449888831008 0 -0.47904142669251998 -0.41549257675943518 0 -0.46149109699047758 -0.40017815141067298 0 -0.4639294593242288 -0.41565431460942798 0 -0.46149109699047758 -0.40017815141067298 0 -0.4639294593242288 -0.41565431460942798 0 -0.44769062116320701 -0.41808770076410873 0 -0.46659513334101282 -0.42959449888831008 0 -0.4639294593242288 -0.41565431460942798 0 -0.44769062116320701 -0.41808770076410873 0 -0.44769062116320701 -0.41808770076410873 0 -0.43964347597476211 -0.40650582484303971 0 -0.43393535136515082 -0.41935446214798378 0 -0.45414883998949879 -0.44369642101717899 0 -0.44769062116320701 -0.41808770076410873 0 -0.45414883998949879 -0.44369642101717899 0 -0.44769062116320701 -0.41808770076410873 0 -0.44207952812631218 -0.432473967552786 0 -0.44769062116320701 -0.41808770076410873 0 -0.44207952812631218 -0.432473967552786 0 -0.43393535136515082 -0.41935446214798378 0 -0.44207952812631218 -0.432473967552786 0 -0.43393535136515082 -0.41935446214798378 0 -0.43250920223850797 -0.44459246166653249 0 -0.42412664681236972 -0.43106778611608709 0 -0.43393535136515082 -0.41935446214798378 0 -0.43250920223850797 -0.44459246166653249 0 -0.43393535136515082 -0.41935446214798378 0 -0.43250920223850797 -0.44459246166653249 0 -0.42412664681236972 -0.43106778611608709 0 -0.43393535136515082 -0.41935446214798378 0 -0.42008671343925569 -0.41855599904193003 0 -0.43393535136515082 -0.41935446214798378 0 -0.43536150049179362 -0.39411646262943512 0 -0.43964347597476211 -0.40650582484303971 0 -0.43393535136515082 -0.41935446214798378 0 -0.43536150049179362 -0.39411646262943512 0 -0.43393535136515082 -0.41935446214798378 0 -0.43536150049179362 -0.39411646262943512 0 -0.42626955791746191 -0.40565109843997899 0 -0.43393535136515082 -0.41935446214798378 0 -0.42508002019755892 -0.41325296613256979 0 -0.42626955791746191 -0.40565109843997899 0 -0.42508002019755892 -0.41325296613256979 0 -0.42002845806836719 -0.40945030490038659 0 -0.42626955791746191 -0.40565109843997899 0 -0.43393535136515082 -0.41935446214798378 0 -0.42508002019755892 -0.41325296613256979 0 -0.42008671343925569 -0.41855599904193003 0 -0.41147163652562352 -0.40866186470119309 0 -0.40779623314709063 -0.42137645569011012 0 -0.40908829863366558 -0.4052806678827936 0 -0.42508002019755892 -0.41325296613256979 0 -0.42008671343925569 -0.41855599904193003 0 -0.42002845806836719 -0.40945030490038659 0 -0.42002845806836719 -0.40945030490038659 0 -0.41147163652562352 -0.40866186470119309 0 -0.41902932537311932 -0.40193604567557389 0 -0.42008671343925569 -0.41855599904193003 0 -0.42002845806836719 -0.40945030490038659 0 -0.41147163652562352 -0.40866186470119309 0 -0.41147163652562352 -0.40866186470119309 0 -0.40908829863366558 -0.4052806678827936 0 -0.42008671343925569 -0.41855599904193003 0 -0.41147163652562352 -0.40866186470119309 0 -0.40779623314709063 -0.42137645569011012 0 -0.40779623314709063 -0.42137645569011012 0 -0.41297188089832498 -0.43545492467774649 0 -0.41624536857426031 -0.42661379138146838 0 -0.42412664681236972 -0.43106778611608709 0 -0.41297188089832498 -0.43545492467774649 0 -0.41624536857426031 -0.42661379138146838 0 -0.42412664681236972 -0.43106778611608709 0 -0.41297188089832498 -0.43545492467774649 0 -0.42220851422656008 -0.4423996471945334 0 -0.42008671343925569 -0.41855599904193003 0 -0.40779623314709063 -0.42137645569011012 0 -0.41624536857426031 -0.42661379138146838 0 -0.42412664681236972 -0.43106778611608709 0 -0.42008671343925569 -0.41855599904193003 0 -0.41624536857426031 -0.42661379138146838 0 -0.42193124107214958 -0.38607546407037979 0 -0.43477418351063268 -0.3668702602579656 0 -0.42193124107214958 -0.38607546407037979 0 -0.43536150049179362 -0.39411646262943512 0 -0.43477418351063268 -0.3668702602579656 0 -0.44123240233692018 -0.39247898051103708 0 -0.43536150049179362 -0.39411646262943512 0 -0.43477418351063268 -0.3668702602579656 0 -0.42193124107214958 -0.38607546407037979 0 -0.42620712211460382 -0.3967458478015739 0 -0.41902932537311932 -0.40193604567557389 0 -0.42193124107214958 -0.38607546407037979 0 -0.42620712211460382 -0.3967458478015739 0 -0.43536150049179362 -0.39411646262943512 0 -0.42620712211460382 -0.3967458478015739 0 -0.43536150049179362 -0.39411646262943512 0 -0.42626955791746191 -0.40565109843997899 0 -0.42620712211460382 -0.3967458478015739 0 -0.42626955791746191 -0.40565109843997899 0 -0.41902932537311932 -0.40193604567557389 0 -0.42193124107214958 -0.38607546407037979 0 -0.40908829863366558 -0.4052806678827936 0 -0.42193124107214958 -0.38607546407037979 0 -0.41902932537311932 -0.40193604567557389 0 -0.40908829863366558 -0.4052806678827936 0 -0.42193124107214958 -0.38607546407037979 0 -0.40908829863366558 -0.4052806678827936 0 -0.39718637242806842 -0.38839562814295331 0 -0.42002845806836719 -0.40945030490038659 0 -0.42626955791746191 -0.40565109843997899 0 -0.41902932537311932 -0.40193604567557389 0 -0.41147163652562352 -0.40866186470119309 0 -0.41902932537311932 -0.40193604567557389 0 -0.40908829863366558 -0.4052806678827936 0 -0.42193124107214958 -0.38607546407037979 0 -0.39718637242806842 -0.38839562814295331 0 -0.40906888710737838 -0.3705341383817366 0 -0.39718637242806842 -0.38839562814295331 0 -0.38528444622247171 -0.37151058840311257 0 -0.39718637242806842 -0.38839562814295331 0 -0.39691291535847278 -0.37525147130316039 0 -0.38528444622247171 -0.37151058840311257 0 -0.39718637242806842 -0.38839562814295331 0 -0.39691291535847278 -0.37525147130316039 0 -0.40906888710737838 -0.3705341383817366 0 -0.40908829863366558 -0.4052806678827936 0 -0.39718637242806842 -0.38839562814295331 0 -0.40908829863366558 -0.4052806678827936 0 -0.39718637242806842 -0.38839562814295331 0 -0.38612187629009692 -0.40625223972103419 0 -0.39718637242806842 -0.38839562814295331 0 -0.37625170319943779 -0.39381119497715922 0 -0.38612187629009692 -0.40625223972103419 0 -0.37625170319943779 -0.39381119497715922 0 -0.38612187629009692 -0.40625223972103419 0 -0.36938048100259863 -0.40396662569772351 0 -0.39718637242806842 -0.38839562814295331 0 -0.38528444622247171 -0.37151058840311257 0 -0.37148004781187433 -0.37828133255875063 0 -0.39718637242806842 -0.38839562814295331 0 -0.37625170319943779 -0.39381119497715922 0 -0.37148004781187433 -0.37828133255875063 0 -0.41297188089832498 -0.43545492467774649 0 -0.3953376264182798 -0.42584328145201128 0 -0.39976423091442281 -0.44415433962138812 0 -0.40779623314709063 -0.42137645569011012 0 -0.41297188089832498 -0.43545492467774649 0 -0.3953376264182798 -0.42584328145201128 0 -0.40779623314709063 -0.42137645569011012 0 -0.40908829863366558 -0.4052806678827936 0 -0.3953376264182798 -0.42584328145201128 0 -0.40908829863366558 -0.4052806678827936 0 -0.3953376264182798 -0.42584328145201128 0 -0.38612187629009692 -0.40625223972103419 0 -0.40908829863366558 -0.4052806678827936 0 -0.3953376264182798 -0.42584328145201128 0 -0.3953376264182798 -0.42584328145201128 0 -0.38612187629009692 -0.40625223972103419 0 -0.37382735791506971 -0.41824141352769789 0 -0.38612187629009692 -0.40625223972103419 0 -0.37382735791506971 -0.41824141352769789 0 -0.36938048100259863 -0.40396662569772351 0 -0.3953376264182798 -0.42584328145201128 0 -0.38158695420289268 -0.44640589502122813 0 -0.37382735791506971 -0.41824141352769789 0 -0.3953376264182798 -0.42584328145201128 0 -0.38158695420289268 -0.44640589502122813 0 -0.38158695420289268 -0.44640589502122813 0 -0.39976423091442281 -0.44415433962138812 0 -0.39016422392410077 -0.4607372548190426 0 -0.3953376264182798 -0.42584328145201128 0 -0.38158695420289268 -0.44640589502122813 0 -0.39976423091442281 -0.44415433962138812 0 -0.39976423091442281 -0.44415433962138812 0 -0.40473522497550179 -0.45537377579979332 0 -0.39016422392410077 -0.4607372548190426 0 -0.40387444790054461 -0.46663645252866892 0 -0.40473522497550179 -0.45537377579979332 0 -0.39016422392410077 -0.4607372548190426 0 -0.40387444790054461 -0.46663645252866892 0 -0.39016422392410077 -0.4607372548190426 0 -0.39374694286666762 -0.47294970122571311 0 -0.39016422392410077 -0.4607372548190426 0 -0.3824612657474562 -0.47394859737146561 0 -0.36783628198750418 -0.46696850859044392 0 -0.38158695420289268 -0.44640589502122813 0 -0.39016422392410077 -0.4607372548190426 0 -0.36783628198750418 -0.46696850859044392 0 -0.3824612657474562 -0.47394859737146561 0 -0.38801974024713248 -0.48560326792690739 0 -0.37253913971187469 -0.48348425429521991 0 -0.3824612657474562 -0.47394859737146561 0 -0.38801974024713248 -0.48560326792690739 0 -0.39374694286666762 -0.47294970122571311 0 -0.39016422392410077 -0.4607372548190426 0 -0.3824612657474562 -0.47394859737146561 0 -0.39374694286666762 -0.47294970122571311 0 -0.3772419974362467 -0.49999999999999539 0 -0.38801974024713248 -0.48560326792690739 0 -0.40001848360200298 -0.5 0 -0.3772419974362467 -0.49999999999999539 0 -0.38801974024713248 -0.48560326792690739 0 -0.37253913971187469 -0.48348425429521991 0 -0.38801974024713248 -0.48560326792690739 0 -0.40001848360200298 -0.5 0 -0.40326605163044899 -0.47995992114249142 0 -0.38801974024713248 -0.48560326792690739 0 -0.39374694286666762 -0.47294970122571311 0 -0.40326605163044899 -0.47995992114249142 0 -0.40387444790054461 -0.46663645252866892 0 -0.39374694286666762 -0.47294970122571311 0 -0.40326605163044899 -0.47995992114249142 0 -0.40387444790054461 -0.46663645252866892 0 -0.40326605163044899 -0.47995992114249142 0 -0.41645439023154901 -0.46985304274522338 0 -0.40326605163044899 -0.47995992114249142 0 -0.4182494923323275 -0.48437116576579953 0 -0.41645439023154901 -0.46985304274522338 0 -0.40001848360200298 -0.5 0 -0.40326605163044899 -0.47995992114249142 0 -0.4182494923323275 -0.48437116576579953 0 -0.40001848360200298 -0.5 0 -0.4182494923323275 -0.48437116576579953 0 -0.42279496976775938 -0.5 0 -0.4182494923323275 -0.48437116576579953 0 -0.42279496976775938 -0.5 0 -0.43312653844205001 -0.48877620252737142 0 -0.44557145593351588 -0.5 0 -0.42279496976775938 -0.5 0 -0.43312653844205001 -0.48877620252737142 0 -0.4182494923323275 -0.48437116576579953 0 -0.41645439023154901 -0.46985304274522338 0 -0.43108305311186512 -0.46983046118508132 0 -0.4182494923323275 -0.48437116576579953 0 -0.43312653844205001 -0.48877620252737142 0 -0.43342607321533239 -0.47830139088408252 0 -0.4182494923323275 -0.48437116576579953 0 -0.43108305311186512 -0.46983046118508132 0 -0.4182494923323275 -0.48437116576579953 0 -0.43342607321533239 -0.47830139088408252 0 -0.43108305311186512 -0.46983046118508132 0 -0.44466742395999448 -0.48198680820889928 0 -0.43312653844205001 -0.48877620252737142 0 -0.43342607321533239 -0.47830139088408252 0 -0.43342607321533239 -0.47830139088408252 0 -0.43108305311186512 -0.46983046118508132 0 -0.43362474374665988 -0.47245037871038809 0 -0.43892127773234768 -0.47158291606607761 0 -0.43342607321533239 -0.47830139088408252 0 -0.43362474374665988 -0.47245037871038809 0 -0.43892127773234768 -0.47158291606607761 0 -0.43108305311186512 -0.46983046118508132 0 -0.43362474374665988 -0.47245037871038809 0 -0.44261594655068542 -0.45676344110113321 0 -0.43108305311186512 -0.46983046118508132 0 -0.44261594655068542 -0.45676344110113321 0 -0.43108305311186512 -0.46983046118508132 0 -0.43250920223850797 -0.44459246166653249 0 -0.43108305311186512 -0.46983046118508132 0 -0.42287189243353968 -0.45670717065242461 0 -0.43250920223850797 -0.44459246166653249 0 -0.43108305311186512 -0.46983046118508132 0 -0.43250920223850797 -0.44459246166653249 0 -0.41645439023154901 -0.46985304274522338 0 -0.43108305311186512 -0.46983046118508132 0 -0.42287189243353968 -0.45670717065242461 0 -0.42412664681236972 -0.43106778611608709 0 -0.43250920223850797 -0.44459246166653249 0 -0.42220851422656008 -0.4423996471945334 0 -0.42287189243353968 -0.45670717065242461 0 -0.43250920223850797 -0.44459246166653249 0 -0.42220851422656008 -0.4423996471945334 0 -0.42287189243353968 -0.45670717065242461 0 -0.42220851422656008 -0.4423996471945334 0 -0.41466808528763771 -0.44848545394804951 0 -0.41297188089832498 -0.43545492467774649 0 -0.42220851422656008 -0.4423996471945334 0 -0.41466808528763771 -0.44848545394804951 0 -0.41297188089832498 -0.43545492467774649 0 -0.39976423091442281 -0.44415433962138812 0 -0.41466808528763771 -0.44848545394804951 0 -0.39976423091442281 -0.44415433962138812 0 -0.40473522497550179 -0.45537377579979332 0 -0.41466808528763771 -0.44848545394804951 0 -0.40473522497550179 -0.45537377579979332 0 -0.41466808528763771 -0.44848545394804951 0 -0.41252080816575448 -0.45941117913483198 0 -0.40387444790054461 -0.46663645252866892 0 -0.40473522497550179 -0.45537377579979332 0 -0.41252080816575448 -0.45941117913483198 0 -0.40387444790054461 -0.46663645252866892 0 -0.41645439023154901 -0.46985304274522338 0 -0.41252080816575448 -0.45941117913483198 0 -0.41645439023154901 -0.46985304274522338 0 -0.42287189243353968 -0.45670717065242461 0 -0.41252080816575448 -0.45941117913483198 0 -0.42287189243353968 -0.45670717065242461 0 -0.41466808528763771 -0.44848545394804951 0 -0.41252080816575448 -0.45941117913483198 0 -0.49999999999999573 -0.27822076126760481 0 -0.4818222042776229 -0.2929627210645519 0 -0.5 -0.35529098361714978 0 -0.44401585412563632 -0.25504528077001382 0 -0.45668839803492373 -0.27072226018884998 0 -0.44569972632370303 -0.28448946357824562 0 -0.44401585412563632 -0.25504528077001382 0 -0.44569972632370303 -0.28448946357824562 0 -0.43112113570260402 -0.27030841062425259 0 -0.44401585412563632 -0.25504528077001382 0 -0.44569972632370303 -0.28448946357824562 0 -0.46869863656081162 -0.27165730741770738 0 -0.45668839803492373 -0.27072226018884998 0 -0.4616124238329064 -0.28652126563977293 0 -0.45668839803492373 -0.27072226018884998 0 -0.4616124238329064 -0.28652126563977293 0 -0.44569972632370303 -0.28448946357824562 0 -0.46869863656081162 -0.27165730741770738 0 -0.45668839803492373 -0.27072226018884998 0 -0.46341534933156142 -0.25589798353851029 0 -0.44401585412563632 -0.25504528077001382 0 -0.45668839803492373 -0.27072226018884998 0 -0.46341534933156142 -0.25589798353851029 0 -0.46869863656081162 -0.27165730741770738 0 -0.48557913910227413 -0.27048348995848981 0 -0.48077732730919293 -0.24978515595674461 0 -0.46869863656081162 -0.27165730741770738 0 -0.46341534933156142 -0.25589798353851029 0 -0.48077732730919293 -0.24978515595674461 0 -0.50000000000000355 -0.26187718495422752 0 -0.48973231596818317 -0.2395841734584927 0 -0.48077732730919293 -0.24978515595674461 0 -0.50000000000000355 -0.26187718495422752 0 -0.48077732730919293 -0.24978515595674461 0 -0.50000000000000355 -0.26187718495422752 0 -0.48557913910227413 -0.27048348995848981 0 -0.48077732730919293 -0.24978515595674461 0 -0.50000000000000355 -0.26187718495422752 0 -0.48557913910227413 -0.27048348995848981 0 -0.49999999999999573 -0.27822076126760481 0 -0.48557913910227413 -0.27048348995848981 0 -0.49999999999999573 -0.27822076126760481 0 -0.4818222042776229 -0.2929627210645519 0 -0.46869863656081162 -0.27165730741770738 0 -0.48557913910227413 -0.27048348995848981 0 -0.4818222042776229 -0.2929627210645519 0 -0.46869863656081162 -0.27165730741770738 0 -0.4818222042776229 -0.2929627210645519 0 -0.4616124238329064 -0.28652126563977293 0 -0.4818222042776229 -0.2929627210645519 0 -0.46364440855525169 -0.30770468086150121 0 -0.46670759513688309 -0.32915269698584249 0 -0.49999999999999573 -0.27822076126760481 0 -0.4818222042776229 -0.2929627210645519 0 -0.4818222042776229 -0.2929627210645519 0 -0.46364440855525169 -0.30770468086150121 0 -0.46364440855525169 -0.30770468086150121 0 -0.45863852615593859 -0.302285087963168 0 -0.44546661283288069 -0.3224466406584503 0 -0.4818222042776229 -0.2929627210645519 0 -0.46364440855525169 -0.30770468086150121 0 -0.45863852615593859 -0.302285087963168 0 -0.45863852615593859 -0.302285087963168 0 -0.4616124238329064 -0.28652126563977293 0 -0.45106476559234587 -0.29364327425958742 0 -0.4818222042776229 -0.2929627210645519 0 -0.45863852615593859 -0.302285087963168 0 -0.4616124238329064 -0.28652126563977293 0 -0.4616124238329064 -0.28652126563977293 0 -0.45106476559234587 -0.29364327425958742 0 -0.44569972632370303 -0.28448946357824562 0 -0.44569972632370303 -0.28448946357824562 0 -0.43830838605683581 -0.30127727985716313 0 -0.42968005226495681 -0.2862097205304579 0 -0.45106476559234587 -0.29364327425958742 0 -0.44569972632370303 -0.28448946357824562 0 -0.43830838605683581 -0.30127727985716313 0 -0.45863852615593859 -0.302285087963168 0 -0.43830838605683581 -0.30127727985716313 0 -0.45863852615593859 -0.302285087963168 0 -0.43830838605683581 -0.30127727985716313 0 -0.44546661283288069 -0.3224466406584503 0 -0.45863852615593859 -0.302285087963168 0 -0.45106476559234587 -0.29364327425958742 0 -0.43830838605683581 -0.30127727985716313 0 -0.44546661283288069 -0.3224466406584503 0 -0.46670759513688309 -0.32915269698584249 0 -0.44550981084642899 -0.34384352072593471 0 -0.44546661283288069 -0.3224466406584503 0 -0.44550981084642899 -0.34384352072593471 0 -0.42728881711051359 -0.33718860045540427 0 -0.46670759513688309 -0.32915269698584249 0 -0.46380253430911411 -0.35266763498746728 0 -0.44550981084642899 -0.34384352072593471 0 -0.46364440855525169 -0.30770468086150121 0 -0.44546661283288069 -0.3224466406584503 0 -0.46364440855525169 -0.30770468086150121 0 -0.44546661283288069 -0.3224466406584503 0 -0.46670759513688309 -0.32915269698584249 0 -0.4818222042776229 -0.2929627210645519 0 -0.46670759513688309 -0.32915269698584249 0 -0.5 -0.35529098361714978 0 -0.47584609506668107 -0.38593418207312258 0 -0.5 -0.35529098361714978 0 -0.46380253430911411 -0.35266763498746728 0 -0.46670759513688309 -0.32915269698584249 0 -0.5 -0.35529098361714978 0 -0.46380253430911411 -0.35266763498746728 0 -0.45074151240797522 -0.3756336192004277 0 -0.46380253430911411 -0.35266763498746728 0 -0.44673177439340078 -0.35662955124879581 0 -0.47584609506668107 -0.38593418207312258 0 -0.45074151240797522 -0.3756336192004277 0 -0.46380253430911411 -0.35266763498746728 0 -0.46380253430911411 -0.35266763498746728 0 -0.44673177439340078 -0.35662955124879581 0 -0.44550981084642899 -0.34384352072593471 0 -0.44550981084642899 -0.34384352072593471 0 -0.43966068306957162 -0.3546205782572161 0 -0.4310315003105748 -0.35202943035668449 0 -0.44673177439340078 -0.35662955124879581 0 -0.44550981084642899 -0.34384352072593471 0 -0.43966068306957162 -0.3546205782572161 0 -0.44673177439340078 -0.35662955124879581 0 -0.43966068306957162 -0.3546205782572161 0 -0.43477418351063268 -0.3668702602579656 0 -0.45074151240797522 -0.3756336192004277 0 -0.44673177439340078 -0.35662955124879581 0 -0.43477418351063268 -0.3668702602579656 0 -0.42193124107214958 -0.38607546407037979 0 -0.43477418351063268 -0.3668702602579656 0 -0.42156921424894722 -0.36517505321943922 0 -0.43477418351063268 -0.3668702602579656 0 -0.4310315003105748 -0.35202943035668449 0 -0.42156921424894722 -0.36517505321943922 0 -0.43477418351063268 -0.3668702602579656 0 -0.4310315003105748 -0.35202943035668449 0 -0.43966068306957162 -0.3546205782572161 0 -0.43477418351063268 -0.3668702602579656 0 -0.4310315003105748 -0.35202943035668449 0 -0.44550981084642899 -0.34384352072593471 0 -0.4310315003105748 -0.35202943035668449 0 -0.42728881711051359 -0.33718860045540427 0 -0.4310315003105748 -0.35202943035668449 0 -0.41104025924400089 -0.35036597303042971 0 -0.42728881711051359 -0.33718860045540427 0 -0.4310315003105748 -0.35202943035668449 0 -0.42728881711051359 -0.33718860045540427 0 -0.4310315003105748 -0.35202943035668449 0 -0.41104025924400089 -0.35036597303042971 0 -0.42156921424894722 -0.36517505321943922 0 -0.41104025924400089 -0.35036597303042971 0 -0.42728881711051359 -0.33718860045540427 0 -0.42193124107214958 -0.38607546407037979 0 -0.42156921424894722 -0.36517505321943922 0 -0.40906888710737838 -0.3705341383817366 0 -0.41104025924400089 -0.35036597303042971 0 -0.42156921424894722 -0.36517505321943922 0 -0.40906888710737838 -0.3705341383817366 0 -0.39691291535847278 -0.37525147130316039 0 -0.40906888710737838 -0.3705341383817366 0 -0.3947917013774922 -0.36354334560545992 0 -0.41104025924400089 -0.35036597303042971 0 -0.40906888710737838 -0.3705341383817366 0 -0.3947917013774922 -0.36354334560545992 0 -0.39691291535847278 -0.37525147130316039 0 -0.3947917013774922 -0.36354334560545992 0 -0.38528444622247171 -0.37151058840311257 0 -0.38528444622247171 -0.37151058840311257 0 -0.37338252001687527 -0.35462554866327167 0 -0.37148004781187433 -0.37828133255875063 0 -0.38528444622247171 -0.37151058840311257 0 -0.37338252001687527 -0.35462554866327167 0 -0.38528444622247171 -0.37151058840311257 0 -0.38553559864094861 -0.36046471794703022 0 -0.37338252001687527 -0.35462554866327167 0 -0.3947917013774922 -0.36354334560545992 0 -0.38528444622247171 -0.37151058840311257 0 -0.38553559864094861 -0.36046471794703022 0 -0.39154919729475368 -0.33608749812129218 0 -0.37338252001687527 -0.35462554866327167 0 -0.37693610807690431 -0.34577444833265258 0 -0.39154919729475368 -0.33608749812129218 0 -0.37338252001687527 -0.35462554866327167 0 -0.38868372694695541 -0.35217938911627628 0 -0.39154919729475368 -0.33608749812129218 0 -0.37338252001687527 -0.35462554866327167 0 -0.38553559864094861 -0.36046471794703022 0 -0.38868372694695541 -0.35217938911627628 0 -0.37338252001687527 -0.35462554866327167 0 -0.3947917013774922 -0.36354334560545992 0 -0.38553559864094861 -0.36046471794703022 0 -0.38868372694695541 -0.35217938911627628 0 -0.41104025924400089 -0.35036597303042971 0 -0.3947917013774922 -0.36354334560545992 0 -0.39848515697633879 -0.34705332950006862 0 -0.41104025924400089 -0.35036597303042971 0 -0.3947917013774922 -0.36354334560545992 0 -0.3947917013774922 -0.36354334560545992 0 -0.38868372694695541 -0.35217938911627628 0 -0.39848515697633879 -0.34705332950006862 0 -0.38868372694695541 -0.35217938911627628 0 -0.39848515697633879 -0.34705332950006862 0 -0.39154919729475368 -0.33608749812129218 0 -0.41104025924400089 -0.35036597303042971 0 -0.39848515697633879 -0.34705332950006862 0 -0.40636090001849151 -0.33309044162688439 0 -0.39848515697633879 -0.34705332950006862 0 -0.39154919729475368 -0.33608749812129218 0 -0.40636090001849151 -0.33309044162688439 0 -0.39154919729475368 -0.33608749812129218 0 -0.39258215356621301 -0.3249644290914413 0 -0.40636090001849151 -0.33309044162688439 0 -0.37693610807690431 -0.34577444833265258 0 -0.39154919729475368 -0.33608749812129218 0 -0.38111310272649951 -0.32221174966090799 0 -0.37693610807690431 -0.34577444833265258 0 -0.38111310272649951 -0.32221174966090799 0 -0.37410916532325278 -0.3344344697227995 0 -0.37693610807690431 -0.34577444833265258 0 -0.38111310272649951 -0.32221174966090799 0 -0.38111310272649951 -0.32221174966090799 0 -0.38131819988917692 -0.31065517485978472 0 -0.37323521679292881 -0.32680228525247418 0 -0.38131819988917692 -0.31065517485978472 0 -0.37323521679292881 -0.32680228525247418 0 -0.38131819988917692 -0.31065517485978472 0 -0.37323521679292881 -0.32680228525247418 0 -0.37199493553327823 -0.31515629561993708 0 -0.38111310272649951 -0.32221174966090799 0 -0.37323521679292881 -0.32680228525247418 0 -0.37410916532325278 -0.3344344697227995 0 -0.39154919729475368 -0.33608749812129218 0 -0.38111310272649951 -0.32221174966090799 0 -0.39258215356621301 -0.3249644290914413 0 -0.38111310272649951 -0.32221174966090799 0 -0.39214236019226528 -0.31273741332013888 0 -0.39258215356621301 -0.3249644290914413 0 -0.39214236019226528 -0.31273741332013888 0 -0.39258215356621301 -0.3249644290914413 0 -0.40117350205391539 -0.3181056237741306 0 -0.39258215356621301 -0.3249644290914413 0 -0.40117350205391539 -0.3181056237741306 0 -0.40636090001849151 -0.33309044162688439 0 -0.40117350205391539 -0.3181056237741306 0 -0.42263353153412542 -0.31872903610327818 0 -0.41085486280317229 -0.30914084824968041 0 -0.40117350205391539 -0.3181056237741306 0 -0.40636090001849151 -0.33309044162688439 0 -0.42263353153412542 -0.31872903610327818 0 -0.40636090001849151 -0.33309044162688439 0 -0.42728881711051359 -0.33718860045540427 0 -0.42263353153412542 -0.31872903610327818 0 -0.41104025924400089 -0.35036597303042971 0 -0.40636090001849151 -0.33309044162688439 0 -0.42728881711051359 -0.33718860045540427 0 -0.44546661283288069 -0.3224466406584503 0 -0.42728881711051359 -0.33718860045540427 0 -0.43830838605683581 -0.30127727985716313 0 -0.44546661283288069 -0.3224466406584503 0 -0.42263353153412542 -0.31872903610327818 0 -0.44546661283288069 -0.3224466406584503 0 -0.42728881711051359 -0.33718860045540427 0 -0.42263353153412542 -0.31872903610327818 0 -0.42728881711051359 -0.33718860045540427 0 -0.42263353153412542 -0.31872903610327818 0 -0.43830838605683581 -0.30127727985716313 0 -0.42263353153412542 -0.31872903610327818 0 -0.41797824595773331 -0.30026947175115298 0 -0.43830838605683581 -0.30127727985716313 0 -0.41797824595773331 -0.30026947175115298 0 -0.43830838605683581 -0.30127727985716313 0 -0.42968005226495681 -0.2862097205304579 0 -0.41797824595773331 -0.30026947175115298 0 -0.41797824595773331 -0.30026947175115298 0 -0.41152361727359249 -0.27467498745823082 0 -0.41797824595773331 -0.30026947175115298 0 -0.40163417166691379 -0.29945926137016021 0 -0.40040516702462969 -0.2857480137506907 0 -0.41797824595773331 -0.30026947175115298 0 -0.40040516702462969 -0.2857480137506907 0 -0.41152361727359249 -0.27467498745823082 0 -0.42968005226495681 -0.2862097205304579 0 -0.41797824595773331 -0.30026947175115298 0 -0.41152361727359249 -0.27467498745823082 0 -0.41797824595773331 -0.30026947175115298 0 -0.41085486280317229 -0.30914084824968041 0 -0.40163417166691379 -0.29945926137016021 0 -0.42263353153412542 -0.31872903610327818 0 -0.41797824595773331 -0.30026947175115298 0 -0.41797824595773331 -0.30026947175115298 0 -0.40163417166691379 -0.29945926137016021 0 -0.42263353153412542 -0.31872903610327818 0 -0.41797824595773331 -0.30026947175115298 0 -0.41085486280317229 -0.30914084824968041 0 -0.39214236019226528 -0.31273741332013888 0 -0.40163417166691379 -0.29945926137016021 0 -0.38529009737609471 -0.29864905098916322 0 -0.40117350205391539 -0.3181056237741306 0 -0.41085486280317229 -0.30914084824968041 0 -0.40163417166691379 -0.29945926137016021 0 -0.39214236019226528 -0.31273741332013888 0 -0.40117350205391539 -0.3181056237741306 0 -0.40163417166691379 -0.29945926137016021 0 -0.40163417166691379 -0.29945926137016021 0 -0.38529009737609471 -0.29864905098916322 0 -0.38111310272649951 -0.32221174966090799 0 -0.39214236019226528 -0.31273741332013888 0 -0.38529009737609471 -0.29864905098916322 0 -0.38111310272649951 -0.32221174966090799 0 -0.38529009737609471 -0.29864905098916322 0 -0.38131819988917692 -0.31065517485978472 0 -0.38111310272649951 -0.32221174966090799 0 -0.38529009737609471 -0.29864905098916322 0 -0.38529009737609471 -0.29864905098916322 0 -0.37318043498615883 -0.30648972405306679 0 -0.3733451042478485 -0.29805691237909188 0 -0.38529009737609471 -0.29864905098916322 0 -0.3733451042478485 -0.29805691237909188 0 -0.38529009737609471 -0.29864905098916322 0 -0.38131819988917692 -0.31065517485978472 0 -0.37318043498615883 -0.30648972405306679 0 -0.38131819988917692 -0.31065517485978472 0 -0.37318043498615883 -0.30648972405306679 0 -0.37199493553327823 -0.31515629561993708 0 -0.38529009737609471 -0.29864905098916322 0 -0.37599023997743491 -0.28771705282648358 0 -0.38973151821916657 -0.2735947069502378 0 -0.38529009737609471 -0.29864905098916322 0 -0.38973151821916657 -0.2735947069502378 0 -0.38529009737609471 -0.29864905098916322 0 -0.37599023997743491 -0.28771705282648358 0 -0.3733451042478485 -0.29805691237909188 0 -0.40163417166691379 -0.29945926137016021 0 -0.38529009737609471 -0.29864905098916322 0 -0.40040516702462969 -0.2857480137506907 0 -0.38529009737609471 -0.29864905098916322 0 -0.40040516702462969 -0.2857480137506907 0 -0.38973151821916657 -0.2735947069502378 0 -0.38973151821916657 -0.2735947069502378 0 -0.39937911055885061 -0.26200380176053262 0 -0.41152361727359249 -0.27467498745823082 0 -0.40040516702462969 -0.2857480137506907 0 -0.38973151821916657 -0.2735947069502378 0 -0.41152361727359249 -0.27467498745823082 0 -0.38973151821916657 -0.2735947069502378 0 -0.37658973850392058 -0.25863578741241072 0 -0.36821422802860237 -0.27603841187175032 0 -0.37599023997743491 -0.28771705282648358 0 -0.38973151821916657 -0.2735947069502378 0 -0.36821422802860237 -0.27603841187175032 0 -0.38973151821916657 -0.2735947069502378 0 -0.37658973850392058 -0.25863578741241072 0 -0.39417293906223849 -0.24854036291131251 0 -0.39937911055885061 -0.26200380176053262 0 -0.41152361727359249 -0.27467498745823082 0 -0.40506898858945029 -0.24908050316530889 0 -0.38973151821916657 -0.2735947069502378 0 -0.39937911055885061 -0.26200380176053262 0 -0.39417293906223849 -0.24854036291131251 0 -0.38973151821916657 -0.2735947069502378 0 -0.39417293906223849 -0.24854036291131251 0 -0.39937911055885061 -0.26200380176053262 0 -0.40506898858945029 -0.24908050316530889 0 -0.39417293906223849 -0.24854036291131251 0 -0.41152361727359249 -0.27467498745823082 0 -0.40506898858945029 -0.24908050316530889 0 -0.41152361727359249 -0.27467498745823082 0 -0.42468642852513172 -0.25112260078431481 0 -0.40506898858945029 -0.24908050316530889 0 -0.42968005226495681 -0.2862097205304579 0 -0.41152361727359249 -0.27467498745823082 0 -0.43112113570260402 -0.27030841062425259 0 -0.44569972632370303 -0.28448946357824562 0 -0.42968005226495681 -0.2862097205304579 0 -0.43112113570260402 -0.27030841062425259 0 -0.41152361727359249 -0.27467498745823082 0 -0.43112113570260402 -0.27030841062425259 0 -0.42468642852513172 -0.25112260078431481 0 -0.44401585412563632 -0.25504528077001382 0 -0.43112113570260402 -0.27030841062425259 0 -0.42468642852513172 -0.25112260078431481 0 -0.31417662199612612 -0.2555997343155551 0 -0.33093606398148351 -0.25433796163322481 0 -0.32499321163518008 -0.24223795506494611 0 -0.31417662199612612 -0.2555997343155551 0 -0.32803552703178218 -0.27093844171645881 0 -0.33093606398148351 -0.25433796163322481 0 -0.31417662199612612 -0.2555997343155551 0 -0.32803552703178218 -0.27093844171645881 0 -0.31022867817425959 -0.27032865686211238 0 -0.32803552703178218 -0.27093844171645881 0 -0.31911303463812069 -0.28073398680490391 0 -0.33177744810237503 -0.29031826652102399 0 -0.32803552703178218 -0.27093844171645881 0 -0.31911303463812069 -0.28073398680490391 0 -0.31022867817425959 -0.27032865686211238 0 -0.32803552703178218 -0.27093844171645881 0 -0.34155476366602211 -0.28063814308208901 0 -0.34396207152350022 -0.26855250241538747 0 -0.32803552703178218 -0.27093844171645881 0 -0.34155476366602211 -0.28063814308208901 0 -0.33177744810237503 -0.29031826652102399 0 -0.33093606398148351 -0.25433796163322481 0 -0.34729545866209061 -0.2528103326161848 0 -0.34396207152350022 -0.26855250241538747 0 -0.32803552703178218 -0.27093844171645881 0 -0.33093606398148351 -0.25433796163322481 0 -0.34396207152350022 -0.26855250241538747 0 -0.34729545866209061 -0.2528103326161848 0 -0.35829182426952338 -0.26364817496730453 0 -0.36271053573838469 -0.24435841446020501 0 -0.34729545866209061 -0.2528103326161848 0 -0.35829182426952338 -0.26364817496730453 0 -0.34396207152350022 -0.26855250241538747 0 -0.37658973850392058 -0.25863578741241072 0 -0.35829182426952338 -0.26364817496730453 0 -0.36271053573838469 -0.24435841446020501 0 -0.37658973850392058 -0.25863578741241072 0 -0.35829182426952338 -0.26364817496730453 0 -0.36821422802860237 -0.27603841187175032 0 -0.35829182426952338 -0.26364817496730453 0 -0.36821422802860237 -0.27603841187175032 0 -0.35399573582741489 -0.27896646452067397 0 -0.35829182426952338 -0.26364817496730453 0 -0.35399573582741489 -0.27896646452067397 0 -0.34396207152350022 -0.26855250241538747 0 -0.34155476366602211 -0.28063814308208901 0 -0.35399573582741489 -0.27896646452067397 0 -0.34396207152350022 -0.26855250241538747 0 -0.34155476366602211 -0.28063814308208901 0 -0.35399573582741489 -0.27896646452067397 0 -0.34858127546138018 -0.29267537284533801 0 -0.34858127546138018 -0.29267537284533801 0 -0.36337025201546219 -0.29224618194217439 0 -0.35569193429544221 -0.3049170609400304 0 -0.35399573582741489 -0.27896646452067397 0 -0.34858127546138018 -0.29267537284533801 0 -0.36337025201546219 -0.29224618194217439 0 -0.37599023997743491 -0.28771705282648358 0 -0.36821422802860237 -0.27603841187175032 0 -0.36337025201546219 -0.29224618194217439 0 -0.36821422802860237 -0.27603841187175032 0 -0.35399573582741489 -0.27896646452067397 0 -0.36337025201546219 -0.29224618194217439 0 -0.37599023997743491 -0.28771705282648358 0 -0.36337025201546219 -0.29224618194217439 0 -0.3733451042478485 -0.29805691237909188 0 -0.37318043498615883 -0.30648972405306679 0 -0.36590702766221173 -0.31079847427060758 0 -0.37199493553327823 -0.31515629561993708 0 -0.37318043498615883 -0.30648972405306679 0 -0.36555768524675047 -0.30259017083846951 0 -0.36590702766221173 -0.31079847427060758 0 -0.36337025201546219 -0.29224618194217439 0 -0.3733451042478485 -0.29805691237909188 0 -0.36555768524675047 -0.30259017083846951 0 -0.37318043498615883 -0.30648972405306679 0 -0.3733451042478485 -0.29805691237909188 0 -0.36555768524675047 -0.30259017083846951 0 -0.36337025201546219 -0.29224618194217439 0 -0.36555768524675047 -0.30259017083846951 0 -0.35569193429544221 -0.3049170609400304 0 -0.36590702766221173 -0.31079847427060758 0 -0.35569193429544221 -0.3049170609400304 0 -0.35759178837890038 -0.31682890825244431 0 -0.36555768524675047 -0.30259017083846951 0 -0.36590702766221173 -0.31079847427060758 0 -0.35569193429544221 -0.3049170609400304 0 -0.35569193429544221 -0.3049170609400304 0 -0.34719361740196369 -0.31379160515985788 0 -0.35759178837890038 -0.31682890825244431 0 -0.34858127546138018 -0.29267537284533801 0 -0.35569193429544221 -0.3049170609400304 0 -0.34077152488457441 -0.30356777299736137 0 -0.35569193429544221 -0.3049170609400304 0 -0.34077152488457441 -0.30356777299736137 0 -0.34719361740196369 -0.31379160515985788 0 -0.34077152488457441 -0.30356777299736137 0 -0.33628176688838968 -0.31490080861796232 0 -0.34719361740196369 -0.31379160515985788 0 -0.34077152488457441 -0.30356777299736137 0 -0.33177744810237503 -0.29031826652102399 0 -0.32605320248467928 -0.3081854985920322 0 -0.34077152488457441 -0.30356777299736137 0 -0.32605320248467928 -0.3081854985920322 0 -0.33628176688838968 -0.31490080861796232 0 -0.34155476366602211 -0.28063814308208901 0 -0.34858127546138018 -0.29267537284533801 0 -0.33177744810237503 -0.29031826652102399 0 -0.34858127546138018 -0.29267537284533801 0 -0.34077152488457441 -0.30356777299736137 0 -0.33177744810237503 -0.29031826652102399 0 -0.31911303463812069 -0.28073398680490391 0 -0.33177744810237503 -0.29031826652102399 0 -0.31452877613515251 -0.29494137631511269 0 -0.31452877613515251 -0.29494137631511269 0 -0.32605320248467928 -0.3081854985920322 0 -0.31007920404855099 -0.31065624059516839 0 -0.33177744810237503 -0.29031826652102399 0 -0.31452877613515251 -0.29494137631511269 0 -0.32605320248467928 -0.3081854985920322 0 -0.32605320248467928 -0.3081854985920322 0 -0.31730323987292891 -0.32057160494816561 0 -0.31007920404855099 -0.31065624059516839 0 -0.32753256943396558 -0.3253119171699248 0 -0.31730323987292891 -0.32057160494816561 0 -0.31533844215437962 -0.33652290441416849 0 -0.31730323987292891 -0.32057160494816561 0 -0.31533844215437962 -0.33652290441416849 0 -0.30566711175936839 -0.32610398363020948 0 -0.32605320248467928 -0.3081854985920322 0 -0.32753256943396558 -0.3253119171699248 0 -0.31730323987292891 -0.32057160494816561 0 -0.32753256943396558 -0.3253119171699248 0 -0.31533844215437962 -0.33652290441416849 0 -0.32666803000829953 -0.34180745490054798 0 -0.31533844215437962 -0.33652290441416849 0 -0.32666803000829953 -0.34180745490054798 0 -0.32040779560599308 -0.35118488158147659 0 -0.32753256943396558 -0.3253119171699248 0 -0.32666803000829953 -0.34180745490054798 0 -0.33553107352661732 -0.33314553903951832 0 -0.32666803000829953 -0.34180745490054798 0 -0.33553107352661732 -0.33314553903951832 0 -0.33854685999045492 -0.34233246329215589 0 -0.33553107352661732 -0.33314553903951832 0 -0.33854685999045492 -0.34233246329215589 0 -0.34504998796360098 -0.33262861066432731 0 -0.33553107352661732 -0.33314553903951832 0 -0.33985792023676542 -0.32364724917063559 0 -0.34504998796360098 -0.33262861066432731 0 -0.32605320248467928 -0.3081854985920322 0 -0.32753256943396558 -0.3253119171699248 0 -0.33628176688838968 -0.31490080861796232 0 -0.32753256943396558 -0.3253119171699248 0 -0.33985792023676542 -0.32364724917063559 0 -0.33628176688838968 -0.31490080861796232 0 -0.32753256943396558 -0.3253119171699248 0 -0.33553107352661732 -0.33314553903951832 0 -0.33985792023676542 -0.32364724917063559 0 -0.33985792023676542 -0.32364724917063559 0 -0.33628176688838968 -0.31490080861796232 0 -0.34719361740196369 -0.31379160515985788 0 -0.33985792023676542 -0.32364724917063559 0 -0.34719361740196369 -0.31379160515985788 0 -0.35083891652575128 -0.32425972678943071 0 -0.33985792023676542 -0.32364724917063559 0 -0.35083891652575128 -0.32425972678943071 0 -0.34504998796360098 -0.33262861066432731 0 -0.35083891652575128 -0.32425972678943071 0 -0.35759178837890038 -0.31682890825244431 0 -0.35958543605211868 -0.32617076269098699 0 -0.35083891652575128 -0.32425972678943071 0 -0.35958543605211868 -0.32617076269098699 0 -0.35357169293167501 -0.33271550464571231 0 -0.34719361740196369 -0.31379160515985788 0 -0.35083891652575128 -0.32425972678943071 0 -0.35759178837890038 -0.31682890825244431 0 -0.36590702766221173 -0.31079847427060758 0 -0.35759178837890038 -0.31682890825244431 0 -0.36633379833591462 -0.32103581966375222 0 -0.35759178837890038 -0.31682890825244431 0 -0.36633379833591462 -0.32103581966375222 0 -0.35958543605211868 -0.32617076269098699 0 -0.36633379833591462 -0.32103581966375222 0 -0.35958543605211868 -0.32617076269098699 0 -0.36551979452400529 -0.33095265289503822 0 -0.36633379833591462 -0.32103581966375222 0 -0.37323521679292881 -0.32680228525247418 0 -0.37199493553327823 -0.31515629561993708 0 -0.36633379833591462 -0.32103581966375222 0 -0.37323521679292881 -0.32680228525247418 0 -0.36551979452400529 -0.33095265289503822 0 -0.36590702766221173 -0.31079847427060758 0 -0.36633379833591462 -0.32103581966375222 0 -0.37199493553327823 -0.31515629561993708 0 -0.37323521679292881 -0.32680228525247418 0 -0.37410916532325278 -0.3344344697227995 0 -0.36515223369667932 -0.34294939564516302 0 -0.37323521679292881 -0.32680228525247418 0 -0.36551979452400529 -0.33095265289503822 0 -0.36515223369667932 -0.34294939564516302 0 -0.37323521679292881 -0.32680228525247418 0 -0.36515223369667932 -0.34294939564516302 0 -0.37693610807690431 -0.34577444833265258 0 -0.37410916532325278 -0.3344344697227995 0 -0.36515223369667932 -0.34294939564516302 0 -0.35958543605211868 -0.32617076269098699 0 -0.36551979452400529 -0.33095265289503822 0 -0.36013653295381809 -0.33203268731517582 0 -0.36551979452400529 -0.33095265289503822 0 -0.36013653295381809 -0.33203268731517582 0 -0.36186920830747349 -0.33829182902896582 0 -0.36551979452400529 -0.33095265289503822 0 -0.36186920830747349 -0.33829182902896582 0 -0.36515223369667932 -0.34294939564516302 0 -0.36186920830747349 -0.33829182902896582 0 -0.36515223369667932 -0.34294939564516302 0 -0.3538821914730213 -0.34121495837921162 0 -0.36186920830747349 -0.33829182902896582 0 -0.36515223369667932 -0.34294939564516302 0 -0.36186920830747349 -0.33829182902896582 0 -0.3538821914730213 -0.34121495837921162 0 -0.35357169293167501 -0.33271550464571231 0 -0.36013653295381809 -0.33203268731517582 0 -0.36186920830747349 -0.33829182902896582 0 -0.35357169293167501 -0.33271550464571231 0 -0.35958543605211868 -0.32617076269098699 0 -0.36013653295381809 -0.33203268731517582 0 -0.35357169293167501 -0.33271550464571231 0 -0.35083891652575128 -0.32425972678943071 0 -0.35357169293167501 -0.33271550464571231 0 -0.34504998796360098 -0.33262861066432731 0 -0.3538821914730213 -0.34121495837921162 0 -0.35357169293167501 -0.33271550464571231 0 -0.34504998796360098 -0.33262861066432731 0 -0.33854685999045492 -0.34233246329215589 0 -0.3538821914730213 -0.34121495837921162 0 -0.34504998796360098 -0.33262861066432731 0 -0.33854685999045492 -0.34233246329215589 0 -0.3538821914730213 -0.34121495837921162 0 -0.34798542010966399 -0.35128988058905569 0 -0.36515223369667932 -0.34294939564516302 0 -0.3538821914730213 -0.34121495837921162 0 -0.34798542010966399 -0.35128988058905569 0 -0.36515223369667932 -0.34294939564516302 0 -0.34798542010966399 -0.35128988058905569 0 -0.35488095830449989 -0.36346798583103751 0 -0.36515223369667932 -0.34294939564516302 0 -0.35488095830449989 -0.36346798583103751 0 -0.36515223369667932 -0.34294939564516302 0 -0.37338252001687527 -0.35462554866327167 0 -0.35488095830449989 -0.36346798583103751 0 -0.36515223369667932 -0.34294939564516302 0 -0.37338252001687527 -0.35462554866327167 0 -0.37693610807690431 -0.34577444833265258 0 -0.36515223369667932 -0.34294939564516302 0 -0.37338252001687527 -0.35462554866327167 0 -0.37338252001687527 -0.35462554866327167 0 -0.35899610146459859 -0.36930606234009261 0 -0.35488095830449989 -0.36346798583103751 0 -0.37338252001687527 -0.35462554866327167 0 -0.35899610146459859 -0.36930606234009261 0 -0.37148004781187433 -0.37828133255875063 0 -0.37338252001687527 -0.35462554866327167 0 -0.35899610146459859 -0.36930606234009261 0 -0.35899610146459859 -0.36930606234009261 0 -0.35488095830449989 -0.36346798583103751 0 -0.34460968291231969 -0.38398657601691139 0 -0.35488095830449989 -0.36346798583103751 0 -0.34460968291231969 -0.38398657601691139 0 -0.35488095830449989 -0.36346798583103751 0 -0.33960646355621488 -0.36539799759433123 0 -0.34460968291231969 -0.38398657601691139 0 -0.34798542010966399 -0.35128988058905569 0 -0.35488095830449989 -0.36346798583103751 0 -0.33960646355621488 -0.36539799759433123 0 -0.33960646355621488 -0.36539799759433123 0 -0.32570434533518422 -0.36253637479273992 0 -0.32999961841296271 -0.37699805077413051 0 -0.33960646355621488 -0.36539799759433123 0 -0.33447102730914879 -0.35240115592132071 0 -0.32570434533518422 -0.36253637479273992 0 -0.34798542010966399 -0.35128988058905569 0 -0.33960646355621488 -0.36539799759433123 0 -0.33447102730914879 -0.35240115592132071 0 -0.33854685999045492 -0.34233246329215589 0 -0.34798542010966399 -0.35128988058905569 0 -0.33447102730914879 -0.35240115592132071 0 -0.32666803000829953 -0.34180745490054798 0 -0.33854685999045492 -0.34233246329215589 0 -0.33447102730914879 -0.35240115592132071 0 -0.33447102730914879 -0.35240115592132071 0 -0.32040779560599308 -0.35118488158147659 0 -0.32570434533518422 -0.36253637479273992 0 -0.32666803000829953 -0.34180745490054798 0 -0.33447102730914879 -0.35240115592132071 0 -0.32040779560599308 -0.35118488158147659 0 -0.31533844215437962 -0.33652290441416849 0 -0.32040779560599308 -0.35118488158147659 0 -0.30857557008430209 -0.34981739528425337 0 -0.32040779560599308 -0.35118488158147659 0 -0.31327793615101829 -0.35991939760014208 0 -0.32570434533518422 -0.36253637479273992 0 -0.32040779560599308 -0.35118488158147659 0 -0.31327793615101829 -0.35991939760014208 0 -0.30857557008430209 -0.34981739528425337 0 -0.31327793615101829 -0.35991939760014208 0 -0.31574804452556943 -0.36993726483709299 0 -0.32570434533518422 -0.36253637479273992 0 -0.31574804452556943 -0.36993726483709299 0 -0.32570434533518422 -0.36253637479273992 0 -0.32999961841296271 -0.37699805077413051 0 -0.30237992599221653 -0.35949804811648328 0 -0.30067528324674042 -0.36870255364325433 0 -0.30766554220934872 -0.36570350899643028 0 -0.30237992599221653 -0.35949804811648328 0 -0.30067528324674042 -0.36870255364325433 0 -0.29517655125608572 -0.36417918792985221 0 -0.30067528324674042 -0.36870255364325433 0 -0.30900168699529962 -0.37333749405318462 0 -0.30766554220934872 -0.36570350899643028 0 -0.31574804452556943 -0.36993726483709299 0 -0.30900168699529962 -0.37333749405318462 0 -0.30766554220934872 -0.36570350899643028 0 -0.30067528324674042 -0.36870255364325433 0 -0.30900168699529962 -0.37333749405318462 0 -0.30565900356667691 -0.37998665313461111 0 -0.31327793615101829 -0.35991939760014208 0 -0.30237992599221653 -0.35949804811648328 0 -0.30766554220934872 -0.36570350899643028 0 -0.31327793615101829 -0.35991939760014208 0 -0.31574804452556943 -0.36993726483709299 0 -0.30766554220934872 -0.36570350899643028 0 -0.31327793615101829 -0.35991939760014208 0 -0.30237992599221653 -0.35949804811648328 0 -0.30857557008430209 -0.34981739528425337 0 -0.30857557008430209 -0.34981739528425337 0 -0.29870559957274467 -0.35074447013627669 0 -0.30108487477668738 -0.3411391716264856 0 -0.30237992599221653 -0.35949804811648328 0 -0.30857557008430209 -0.34981739528425337 0 -0.29870559957274467 -0.35074447013627669 0 -0.30237992599221653 -0.35949804811648328 0 -0.29870559957274467 -0.35074447013627669 0 -0.29291827895859612 -0.35694215045752831 0 -0.29870559957274467 -0.35074447013627669 0 -0.29291827895859612 -0.35694215045752831 0 -0.28976956656808311 -0.34685627678395392 0 -0.29870559957274467 -0.35074447013627669 0 -0.28976956656808311 -0.34685627678395392 0 -0.30108487477668738 -0.3411391716264856 0 -0.28976956656808311 -0.34685627678395392 0 -0.28421020045679052 -0.3546899998737405 0 -0.27706964065945522 -0.34392217182378471 0 -0.29291827895859612 -0.35694215045752831 0 -0.28976956656808311 -0.34685627678395392 0 -0.28421020045679052 -0.3546899998737405 0 -0.29291827895859612 -0.35694215045752831 0 -0.28421020045679052 -0.3546899998737405 0 -0.28718006692230291 -0.36466753424850867 0 -0.28421020045679052 -0.3546899998737405 0 -0.28718006692230291 -0.36466753424850867 0 -0.2738235663254856 -0.36110027299905573 0 -0.29291827895859612 -0.35694215045752831 0 -0.28718006692230291 -0.36466753424850867 0 -0.29517655125608572 -0.36417918792985221 0 -0.28718006692230291 -0.36466753424850867 0 -0.29517655125608572 -0.36417918792985221 0 -0.29272920116057283 -0.37108565318348641 0 -0.30237992599221653 -0.35949804811648328 0 -0.29291827895859612 -0.35694215045752831 0 -0.29517655125608572 -0.36417918792985221 0 -0.30067528324674042 -0.36870255364325433 0 -0.29517655125608572 -0.36417918792985221 0 -0.29272920116057283 -0.37108565318348641 0 -0.28718006692230291 -0.36466753424850867 0 -0.28547050819414171 -0.37430746794443231 0 -0.27898948070505281 -0.36978750493551732 0 -0.28718006692230291 -0.36466753424850867 0 -0.29272920116057283 -0.37108565318348641 0 -0.28547050819414171 -0.37430746794443231 0 -0.27898948070505281 -0.36978750493551732 0 -0.27036938484470918 -0.37178568419280422 0 -0.27749089826650492 -0.37747461974895979 0 -0.28547050819414171 -0.37430746794443231 0 -0.27898948070505281 -0.36978750493551732 0 -0.27749089826650492 -0.37747461974895979 0 -0.27898948070505281 -0.36978750493551732 0 -0.2738235663254856 -0.36110027299905573 0 -0.27036938484470918 -0.37178568419280422 0 -0.28718006692230291 -0.36466753424850867 0 -0.27898948070505281 -0.36978750493551732 0 -0.2738235663254856 -0.36110027299905573 0 -0.2738235663254856 -0.36110027299905573 0 -0.27036938484470918 -0.37178568419280422 0 -0.26072233449869148 -0.36560168224229628 0 -0.26072233449869148 -0.36560168224229628 0 -0.24671633714885899 -0.37500267670740822 0 -0.2499227142646899 -0.35235573747961701 0 -0.27036938484470918 -0.37178568419280422 0 -0.26072233449869148 -0.36560168224229628 0 -0.26109032466993221 -0.37831927443361552 0 -0.26072233449869148 -0.36560168224229628 0 -0.26109032466993221 -0.37831927443361552 0 -0.24671633714885899 -0.37500267670740822 0 -0.26389305503425409 -0.35122967127065863 0 -0.25792701942294799 -0.33316849180853908 0 -0.2499227142646899 -0.35235573747961701 0 -0.26072233449869148 -0.36560168224229628 0 -0.26389305503425409 -0.35122967127065863 0 -0.2499227142646899 -0.35235573747961701 0 -0.28421020045679052 -0.3546899998737405 0 -0.2738235663254856 -0.36110027299905573 0 -0.27706964065945522 -0.34392217182378471 0 -0.2738235663254856 -0.36110027299905573 0 -0.26389305503425409 -0.35122967127065863 0 -0.27706964065945522 -0.34392217182378471 0 -0.2738235663254856 -0.36110027299905573 0 -0.26072233449869148 -0.36560168224229628 0 -0.26389305503425409 -0.35122967127065863 0 -0.26389305503425409 -0.35122967127065863 0 -0.27706964065945522 -0.34392217182378471 0 -0.25792701942294799 -0.33316849180853908 0 -0.27706964065945522 -0.34392217182378471 0 -0.25792701942294799 -0.33316849180853908 0 -0.28206497177204121 -0.32379616284110252 0 -0.25792701942294799 -0.33316849180853908 0 -0.2499227142646899 -0.35235573747961701 0 -0.26593132458121138 -0.31398124613746348 0 -0.24627262270589559 -0.3210583192788774 0 -0.24399705722251039 -0.31175949823066318 0 -0.25792701942294799 -0.33316849180853908 0 -0.26593132458121138 -0.31398124613746348 0 -0.24627262270589559 -0.3210583192788774 0 -0.25792701942294799 -0.33316849180853908 0 -0.26593132458121138 -0.31398124613746348 0 -0.26593132458121138 -0.31398124613746348 0 -0.28206497177204121 -0.32379616284110252 0 -0.28433873130280551 -0.30672115565681801 0 -0.26593132458121138 -0.31398124613746348 0 -0.28206497177204121 -0.32379616284110252 0 -0.25792701942294799 -0.33316849180853908 0 -0.26593132458121138 -0.31398124613746348 0 -0.28206497177204121 -0.32379616284110252 0 -0.28206497177204121 -0.32379616284110252 0 -0.29556118141569682 -0.3162776362094325 0 -0.28433873130280551 -0.30672115565681801 0 -0.28206497177204121 -0.32379616284110252 0 -0.29556118141569682 -0.3162776362094325 0 -0.291869557825222 -0.33301590048582808 0 -0.27706964065945522 -0.34392217182378471 0 -0.28206497177204121 -0.32379616284110252 0 -0.291869557825222 -0.33301590048582808 0 -0.28976956656808311 -0.34685627678395392 0 -0.27706964065945522 -0.34392217182378471 0 -0.291869557825222 -0.33301590048582808 0 -0.28976956656808311 -0.34685627678395392 0 -0.291869557825222 -0.33301590048582808 0 -0.30108487477668738 -0.3411391716264856 0 -0.291869557825222 -0.33301590048582808 0 -0.30108487477668738 -0.3411391716264856 0 -0.30566711175936839 -0.32610398363020948 0 -0.31533844215437962 -0.33652290441416849 0 -0.30857557008430209 -0.34981739528425337 0 -0.30108487477668738 -0.3411391716264856 0 -0.31533844215437962 -0.33652290441416849 0 -0.30108487477668738 -0.3411391716264856 0 -0.30566711175936839 -0.32610398363020948 0 -0.29556118141569682 -0.3162776362094325 0 -0.291869557825222 -0.33301590048582808 0 -0.30566711175936839 -0.32610398363020948 0 -0.31730323987292891 -0.32057160494816561 0 -0.30566711175936839 -0.32610398363020948 0 -0.31007920404855099 -0.31065624059516839 0 -0.29556118141569682 -0.3162776362094325 0 -0.30566711175936839 -0.32610398363020948 0 -0.31007920404855099 -0.31065624059516839 0 -0.29556118141569682 -0.3162776362094325 0 -0.29984242733196259 -0.29918221431144187 0 -0.31007920404855099 -0.31065624059516839 0 -0.31452877613515251 -0.29494137631511269 0 -0.29984242733196259 -0.29918221431144187 0 -0.31007920404855099 -0.31065624059516839 0 -0.31452877613515251 -0.29494137631511269 0 -0.29984242733196259 -0.29918221431144187 0 -0.3003073402052267 -0.28057205106610628 0 -0.31911303463812069 -0.28073398680490391 0 -0.31452877613515251 -0.29494137631511269 0 -0.3003073402052267 -0.28057205106610628 0 -0.28812762314911122 -0.29193422982498451 0 -0.28021112012508781 -0.27975092385264128 0 -0.3003073402052267 -0.28057205106610628 0 -0.29984242733196259 -0.29918221431144187 0 -0.28812762314911122 -0.29193422982498451 0 -0.3003073402052267 -0.28057205106610628 0 -0.29556118141569682 -0.3162776362094325 0 -0.29984242733196259 -0.29918221431144187 0 -0.28433873130280551 -0.30672115565681801 0 -0.28812762314911122 -0.29193422982498451 0 -0.28433873130280551 -0.30672115565681801 0 -0.2730712223531469 -0.29686608499505129 0 -0.29984242733196259 -0.29918221431144187 0 -0.28812762314911122 -0.29193422982498451 0 -0.28433873130280551 -0.30672115565681801 0 -0.26593132458121138 -0.31398124613746348 0 -0.28433873130280551 -0.30672115565681801 0 -0.2730712223531469 -0.29686608499505129 0 -0.26593132458121138 -0.31398124613746348 0 -0.2730712223531469 -0.29686608499505129 0 -0.26593132458121138 -0.31398124613746348 0 -0.24227742392426271 -0.29959137744143183 0 -0.24399705722251039 -0.31175949823066318 0 -0.26593132458121138 -0.31398124613746348 0 -0.24227742392426271 -0.29959137744143183 0 -0.26593132458121138 -0.31398124613746348 0 -0.25708798134836952 -0.29160350062106721 0 -0.2730712223531469 -0.29686608499505129 0 -0.26593132458121138 -0.31398124613746348 0 -0.25708798134836952 -0.29160350062106721 0 -0.24227742392426271 -0.29959137744143183 0 -0.25708798134836952 -0.29160350062106721 0 -0.2668971583263427 -0.28225847775503499 0 -0.25513199288332411 -0.27448597803447933 0 -0.25708798134836952 -0.29160350062106721 0 -0.25513199288332411 -0.27448597803447933 0 -0.23781880050240509 -0.28157483844275699 0 -0.25708798134836952 -0.29160350062106721 0 -0.2668971583263427 -0.28225847775503499 0 -0.2730712223531469 -0.29686608499505129 0 -0.2668971583263427 -0.28225847775503499 0 -0.2730712223531469 -0.29686608499505129 0 -0.28021112012508781 -0.27975092385264128 0 -0.28812762314911122 -0.29193422982498451 0 -0.2730712223531469 -0.29686608499505129 0 -0.28021112012508781 -0.27975092385264128 0 -0.2730712223531469 -0.29686608499505129 0 -0.28021112012508781 -0.27975092385264128 0 -0.28021112012508781 -0.27975092385264128 0 -0.26917674358489457 -0.26742657108178181 0 -0.28256945792721577 -0.25911135046746431 0 -0.2668971583263427 -0.28225847775503499 0 -0.28021112012508781 -0.27975092385264128 0 -0.26917674358489457 -0.26742657108178181 0 -0.2668971583263427 -0.28225847775503499 0 -0.26917674358489457 -0.26742657108178181 0 -0.25513199288332411 -0.27448597803447933 0 -0.26917674358489457 -0.26742657108178181 0 -0.25513199288332411 -0.27448597803447933 0 -0.25959396014445452 -0.25681688998397822 0 -0.25513199288332411 -0.27448597803447933 0 -0.25959396014445452 -0.25681688998397822 0 -0.24369437200891481 -0.26294335837935368 0 -0.25959396014445452 -0.25681688998397822 0 -0.24369437200891481 -0.26294335837935368 0 -0.2483468260877667 -0.24670177710050209 0 -0.26917674358489457 -0.26742657108178181 0 -0.25959396014445452 -0.25681688998397822 0 -0.27238162931076509 -0.25178413916486292 0 -0.27238162931076509 -0.25178413916486292 0 -0.28256945792721577 -0.25911135046746431 0 -0.28332132652505332 -0.24223576790914189 0 -0.26917674358489457 -0.26742657108178181 0 -0.27238162931076509 -0.25178413916486292 0 -0.28256945792721577 -0.25911135046746431 0 -0.28256945792721577 -0.25911135046746431 0 -0.29735355455489759 -0.2495608270936247 0 -0.28332132652505332 -0.24223576790914189 0 -0.28256945792721577 -0.25911135046746431 0 -0.29666601934885511 -0.26565502907259769 0 -0.29735355455489759 -0.2495608270936247 0 -0.28021112012508781 -0.27975092385264128 0 -0.28256945792721577 -0.25911135046746431 0 -0.29666601934885511 -0.26565502907259769 0 -0.28021112012508781 -0.27975092385264128 0 -0.29666601934885511 -0.26565502907259769 0 -0.3003073402052267 -0.28057205106610628 0 -0.31911303463812069 -0.28073398680490391 0 -0.3003073402052267 -0.28057205106610628 0 -0.31022867817425959 -0.27032865686211238 0 -0.29666601934885511 -0.26565502907259769 0 -0.3003073402052267 -0.28057205106610628 0 -0.31022867817425959 -0.27032865686211238 0 -0.31417662199612612 -0.2555997343155551 0 -0.29666601934885511 -0.26565502907259769 0 -0.29735355455489759 -0.2495608270936247 0 -0.31417662199612612 -0.2555997343155551 0 -0.29666601934885511 -0.26565502907259769 0 -0.31022867817425959 -0.27032865686211238 0 -0.33113788325963978 -0.4548994411907421 0 -0.32823879398967098 -0.47744972059537077 0 -0.33113788325963978 -0.4548994411907421 0 -0.32823879398967098 -0.47744972059537077 0 -0.34751596236809618 -0.47023862832064278 0 -0.33113788325963978 -0.4548994411907421 0 -0.34751596236809618 -0.47023862832064278 0 -0.35025251630195608 -0.45477324514811901 0 -0.33113788325963978 -0.4548994411907421 0 -0.33403697252960851 -0.43234916178611338 0 -0.33113788325963978 -0.4548994411907421 0 -0.35025251630195608 -0.45477324514811901 0 -0.34506365322693971 -0.4433336599083787 0 -0.33113788325963978 -0.4548994411907421 0 -0.32462709625005037 -0.44045257055497322 0 -0.33403697252960851 -0.43234916178611338 0 -0.33113788325963978 -0.4548994411907421 0 -0.34506365322693971 -0.4433336599083787 0 -0.33403697252960851 -0.43234916178611338 0 -0.33113788325963978 -0.4548994411907421 0 -0.32462709625005037 -0.44045257055497322 0 -0.31246527538330188 -0.44820040532945382 0 -0.32462709625005037 -0.44045257055497322 0 -0.32318007789297432 -0.42679579555860631 0 -0.31246527538330188 -0.44820040532945382 0 -0.33113788325963978 -0.4548994411907421 0 -0.32823879398967098 -0.47744972059537077 0 -0.31245435207434502 -0.46629031041754782 0 -0.33113788325963978 -0.4548994411907421 0 -0.31245435207434502 -0.46629031041754782 0 -0.31246527538330188 -0.44820040532945382 0 -0.31318934017311428 -0.48563798712654649 0 -0.32823879398967098 -0.47744972059537077 0 -0.31245435207434502 -0.46629031041754782 0 -0.32533970471970242 -0.49999999999999939 0 -0.31318934017311428 -0.48563798712654649 0 -0.32823879398967098 -0.47744972059537077 0 -0.32533970471970242 -0.49999999999999939 0 -0.31318934017311428 -0.48563798712654649 0 -0.29977373220298459 -0.49999999999999589 0 -0.32533970471970242 -0.49999999999999939 0 -0.32823879398967098 -0.47744972059537077 0 -0.32533970471970242 -0.49999999999999939 0 -0.33869770967186308 -0.48993258613754181 0 -0.32823879398967098 -0.47744972059537077 0 -0.32533970471970242 -0.49999999999999939 0 -0.33869770967186308 -0.48993258613754181 0 -0.35129085107797459 -0.5 0 -0.32823879398967098 -0.47744972059537077 0 -0.34317636069185792 -0.48172672023620688 0 -0.34751596236809618 -0.47023862832064278 0 -0.33869770967186308 -0.48993258613754181 0 -0.32823879398967098 -0.47744972059537077 0 -0.34317636069185792 -0.48172672023620688 0 -0.34751596236809618 -0.47023862832064278 0 -0.35225597288292038 -0.49026714231455032 0 -0.36783628198750418 -0.46696850859044392 0 -0.34317636069185792 -0.48172672023620688 0 -0.34751596236809618 -0.47023862832064278 0 -0.35225597288292038 -0.49026714231455032 0 -0.33869770967186308 -0.48993258613754181 0 -0.35129085107797459 -0.5 0 -0.35225597288292038 -0.49026714231455032 0 -0.33869770967186308 -0.48993258613754181 0 -0.34317636069185792 -0.48172672023620688 0 -0.35225597288292038 -0.49026714231455032 0 -0.3772419974362467 -0.49999999999999539 0 -0.35129085107797459 -0.5 0 -0.35225597288292038 -0.49026714231455032 0 -0.3772419974362467 -0.49999999999999539 0 -0.35225597288292038 -0.49026714231455032 0 -0.37253913971187469 -0.48348425429521991 0 -0.3772419974362467 -0.49999999999999539 0 -0.37253913971187469 -0.48348425429521991 0 -0.35225597288292038 -0.49026714231455032 0 -0.37253913971187469 -0.48348425429521991 0 -0.36783628198750418 -0.46696850859044392 0 -0.37253913971187469 -0.48348425429521991 0 -0.36783628198750418 -0.46696850859044392 0 -0.3824612657474562 -0.47394859737146561 0 -0.37253913971187469 -0.48348425429521991 0 -0.36783628198750418 -0.46696850859044392 0 -0.35225597288292038 -0.49026714231455032 0 -0.36783628198750418 -0.46696850859044392 0 -0.38158695420289268 -0.44640589502122813 0 -0.36783628198750418 -0.46696850859044392 0 -0.36783628198750418 -0.46696850859044392 0 -0.35025251630195608 -0.45477324514811901 0 -0.35970880066759969 -0.4384259877303861 0 -0.34751596236809618 -0.47023862832064278 0 -0.36783628198750418 -0.46696850859044392 0 -0.35025251630195608 -0.45477324514811901 0 -0.35025251630195608 -0.45477324514811901 0 -0.34506365322693971 -0.4433336599083787 0 -0.35970880066759969 -0.4384259877303861 0 -0.38158695420289268 -0.44640589502122813 0 -0.36783628198750418 -0.46696850859044392 0 -0.35970880066759969 -0.4384259877303861 0 -0.36783628198750418 -0.46696850859044392 0 -0.35970880066759969 -0.4384259877303861 0 -0.35970880066759969 -0.4384259877303861 0 -0.37382735791506971 -0.41824141352769789 0 -0.35158131934769798 -0.40988346687032762 0 -0.38158695420289268 -0.44640589502122813 0 -0.35970880066759969 -0.4384259877303861 0 -0.37382735791506971 -0.41824141352769789 0 -0.37382735791506971 -0.41824141352769789 0 -0.35158131934769798 -0.40988346687032762 0 -0.36938048100259863 -0.40396662569772351 0 -0.35158131934769798 -0.40988346687032762 0 -0.34466432307663869 -0.42607646683035832 0 -0.34162397109825982 -0.41202373275099602 0 -0.35158131934769798 -0.40988346687032762 0 -0.34588228394284359 -0.40030380863995851 0 -0.34162397109825982 -0.41202373275099602 0 -0.35970880066759969 -0.4384259877303861 0 -0.35158131934769798 -0.40988346687032762 0 -0.35970880066759969 -0.4384259877303861 0 -0.35158131934769798 -0.40988346687032762 0 -0.34466432307663869 -0.42607646683035832 0 -0.34506365322693971 -0.4433336599083787 0 -0.35970880066759969 -0.4384259877303861 0 -0.34466432307663869 -0.42607646683035832 0 -0.35899610146459859 -0.36930606234009261 0 -0.37148004781187433 -0.37828133255875063 0 -0.35912014826069039 -0.39164481339239848 0 -0.37625170319943779 -0.39381119497715922 0 -0.37148004781187433 -0.37828133255875063 0 -0.35912014826069039 -0.39164481339239848 0 -0.35158131934769798 -0.40988346687032762 0 -0.36938048100259863 -0.40396662569772351 0 -0.35912014826069039 -0.39164481339239848 0 -0.37625170319943779 -0.39381119497715922 0 -0.36938048100259863 -0.40396662569772351 0 -0.35912014826069039 -0.39164481339239848 0 -0.35912014826069039 -0.39164481339239848 0 -0.34588228394284359 -0.40030380863995851 0 -0.34460968291231969 -0.38398657601691139 0 -0.35158131934769798 -0.40988346687032762 0 -0.35912014826069039 -0.39164481339239848 0 -0.34588228394284359 -0.40030380863995851 0 -0.35899610146459859 -0.36930606234009261 0 -0.35912014826069039 -0.39164481339239848 0 -0.34460968291231969 -0.38398657601691139 0 -0.35899610146459859 -0.36930606234009261 0 -0.34460968291231969 -0.38398657601691139 0 -0.34460968291231969 -0.38398657601691139 0 -0.32999961841296271 -0.37699805077413051 0 -0.32844619972935057 -0.40048048206241932 0 -0.33960646355621488 -0.36539799759433123 0 -0.34460968291231969 -0.38398657601691139 0 -0.32999961841296271 -0.37699805077413051 0 -0.34460968291231969 -0.38398657601691139 0 -0.32844619972935057 -0.40048048206241932 0 -0.34588228394284359 -0.40030380863995851 0 -0.34460968291231969 -0.38398657601691139 0 -0.3338948804026467 -0.40539118578775879 0 -0.34460968291231969 -0.38398657601691139 0 -0.3338948804026467 -0.40539118578775879 0 -0.34460968291231969 -0.38398657601691139 0 -0.3338948804026467 -0.40539118578775879 0 -0.32844619972935057 -0.40048048206241932 0 -0.34588228394284359 -0.40030380863995851 0 -0.3338948804026467 -0.40539118578775879 0 -0.34162397109825982 -0.41202373275099602 0 -0.3338948804026467 -0.40539118578775879 0 -0.32844619972935057 -0.40048048206241932 0 -0.32445096864283812 -0.41241046287917771 0 -0.32844619972935057 -0.40048048206241932 0 -0.3155765208162476 -0.38268744530453502 0 -0.31106743247622909 -0.3939672583274626 0 -0.32844619972935057 -0.40048048206241932 0 -0.31106743247622909 -0.3939672583274626 0 -0.30759447934349621 -0.40439227149721352 0 -0.32999961841296271 -0.37699805077413051 0 -0.32844619972935057 -0.40048048206241932 0 -0.3155765208162476 -0.38268744530453502 0 -0.31574804452556943 -0.36993726483709299 0 -0.30900168699529962 -0.37333749405318462 0 -0.3155765208162476 -0.38268744530453502 0 -0.31574804452556943 -0.36993726483709299 0 -0.32999961841296271 -0.37699805077413051 0 -0.3155765208162476 -0.38268744530453502 0 -0.34506365322693971 -0.4433336599083787 0 -0.34466432307663869 -0.42607646683035832 0 -0.33403697252960851 -0.43234916178611338 0 -0.33403697252960851 -0.43234916178611338 0 -0.33597122158972681 -0.42044279193594841 0 -0.32318007789297432 -0.42679579555860631 0 -0.34466432307663869 -0.42607646683035832 0 -0.33403697252960851 -0.43234916178611338 0 -0.33597122158972681 -0.42044279193594841 0 -0.34466432307663869 -0.42607646683035832 0 -0.33597122158972681 -0.42044279193594841 0 -0.34162397109825982 -0.41202373275099602 0 -0.3338948804026467 -0.40539118578775879 0 -0.32318007789297432 -0.42679579555860631 0 -0.3338948804026467 -0.40539118578775879 0 -0.33597122158972681 -0.42044279193594841 0 -0.32318007789297432 -0.42679579555860631 0 -0.3338948804026467 -0.40539118578775879 0 -0.33597122158972681 -0.42044279193594841 0 -0.34162397109825982 -0.41202373275099602 0 -0.32844619972935057 -0.40048048206241932 0 -0.32445096864283812 -0.41241046287917771 0 -0.31228271654638101 -0.41697438810792659 0 -0.32844619972935057 -0.40048048206241932 0 -0.31228271654638101 -0.41697438810792659 0 -0.32844619972935057 -0.40048048206241932 0 -0.31228271654638101 -0.41697438810792659 0 -0.30759447934349621 -0.40439227149721352 0 -0.3338948804026467 -0.40539118578775879 0 -0.32445096864283812 -0.41241046287917771 0 -0.32318007789297432 -0.42679579555860631 0 -0.32445096864283812 -0.41241046287917771 0 -0.32318007789297432 -0.42679579555860631 0 -0.31228271654638101 -0.41697438810792659 0 -0.32318007789297432 -0.42679579555860631 0 -0.31011417754272558 -0.4308636243528895 0 -0.31228271654638101 -0.41697438810792659 0 -0.32318007789297432 -0.42679579555860631 0 -0.31011417754272558 -0.4308636243528895 0 -0.31246527538330188 -0.44820040532945382 0 -0.32318007789297432 -0.42679579555860631 0 -0.31246527538330188 -0.44820040532945382 0 -0.32462709625005037 -0.44045257055497322 0 -0.33403697252960851 -0.43234916178611338 0 -0.32318007789297432 -0.42679579555860631 0 -0.31228271654638101 -0.41697438810792659 0 -0.30317788629807763 -0.41733835596701813 0 -0.29611923336341128 -0.43346829415343369 0 -0.31228271654638101 -0.41697438810792659 0 -0.29611923336341128 -0.43346829415343369 0 -0.31011417754272558 -0.4308636243528895 0 -0.31228271654638101 -0.41697438810792659 0 -0.29611923336341128 -0.43346829415343369 0 -0.30317788629807763 -0.41733835596701813 0 -0.29671870789913751 -0.41492952925301307 0 -0.29611923336341128 -0.43346829415343369 0 -0.31228271654638101 -0.41697438810792659 0 -0.30317788629807763 -0.41733835596701813 0 -0.30759447934349621 -0.40439227149721352 0 -0.30317788629807763 -0.41733835596701813 0 -0.29671870789913751 -0.41492952925301307 0 -0.30759447934349621 -0.40439227149721352 0 -0.29486882897873468 -0.41024066874776222 0 -0.29242820096279348 -0.42770039249209879 0 -0.29486882897873468 -0.41024066874776222 0 -0.28681095810633722 -0.41960559393261848 0 -0.29242820096279348 -0.42770039249209879 0 -0.29486882897873468 -0.41024066874776222 0 -0.29611923336341128 -0.43346829415343369 0 -0.29486882897873468 -0.41024066874776222 0 -0.28762829707622772 -0.4129365132778513 0 -0.28681095810633722 -0.41960559393261848 0 -0.29671870789913751 -0.41492952925301307 0 -0.29486882897873468 -0.41024066874776222 0 -0.29611923336341128 -0.43346829415343369 0 -0.29671870789913751 -0.41492952925301307 0 -0.29486882897873468 -0.41024066874776222 0 -0.29675840215818738 -0.39672307184547112 0 -0.29486882897873468 -0.41024066874776222 0 -0.28998746834484918 -0.40818976965646592 0 -0.28762829707622772 -0.4129365132778513 0 -0.29486882897873468 -0.41024066874776222 0 -0.28998746834484918 -0.40818976965646592 0 -0.29024563982462348 -0.40290232630153172 0 -0.28998746834484918 -0.40818976965646592 0 -0.28720710749981121 -0.40667957029871848 0 -0.28762829707622772 -0.4129365132778513 0 -0.28720710749981121 -0.40667957029871848 0 -0.28762829707622772 -0.4129365132778513 0 -0.28066527044107081 -0.41259003527171872 0 -0.28720710749981121 -0.40667957029871848 0 -0.28011940499286597 -0.40486302017794851 0 -0.28066527044107081 -0.41259003527171872 0 -0.28384260695869379 -0.41714444328890049 0 -0.27930600923441862 -0.42106424654986918 0 -0.28066527044107081 -0.41259003527171872 0 -0.28762829707622772 -0.4129365132778513 0 -0.28681095810633722 -0.41960559393261848 0 -0.28384260695869379 -0.41714444328890049 0 -0.28762829707622772 -0.4129365132778513 0 -0.28384260695869379 -0.41714444328890049 0 -0.28066527044107081 -0.41259003527171872 0 -0.28681095810633722 -0.41960559393261848 0 -0.28384260695869379 -0.41714444328890049 0 -0.27930600923441862 -0.42106424654986918 0 -0.29671870789913751 -0.41492952925301307 0 -0.29611923336341128 -0.43346829415343369 0 -0.29486882897873468 -0.41024066874776222 0 -0.29611923336341128 -0.43346829415343369 0 -0.29242820096279348 -0.42770039249209879 0 -0.29286783408332562 -0.43678616033580919 0 -0.29242820096279348 -0.42770039249209879 0 -0.28998757294685151 -0.44516011623643531 0 -0.28681095810633722 -0.41960559393261848 0 -0.28279180542715449 -0.42854729923922952 0 -0.27930600923441862 -0.42106424654986918 0 -0.28453196225993183 -0.43592835817799069 0 -0.29242820096279348 -0.42770039249209879 0 -0.28998757294685151 -0.44516011623643531 0 -0.28681095810633722 -0.41960559393261848 0 -0.28279180542715449 -0.42854729923922952 0 -0.29242820096279348 -0.42770039249209879 0 -0.29242820096279348 -0.42770039249209879 0 -0.28998757294685151 -0.44516011623643531 0 -0.28279180542715449 -0.42854729923922952 0 -0.28453196225993183 -0.43592835817799069 0 -0.29242820096279348 -0.42770039249209879 0 -0.29286783408332562 -0.43678616033580919 0 -0.29611923336341128 -0.43346829415343369 0 -0.29242820096279348 -0.42770039249209879 0 -0.29286783408332562 -0.43678616033580919 0 -0.29611923336341128 -0.43346829415343369 0 -0.30067528324674042 -0.36870255364325433 0 -0.29272920116057283 -0.37108565318348641 0 -0.29777205611273788 -0.38947161119550833 0 -0.30067528324674042 -0.36870255364325433 0 -0.30565900356667691 -0.37998665313461111 0 -0.29777205611273788 -0.38947161119550833 0 -0.30067528324674042 -0.36870255364325433 0 -0.29777205611273788 -0.38947161119550833 0 -0.30900168699529962 -0.37333749405318462 0 -0.3155765208162476 -0.38268744530453502 0 -0.30565900356667691 -0.37998665313461111 0 -0.3155765208162476 -0.38268744530453502 0 -0.30565900356667691 -0.37998665313461111 0 -0.30567120960180111 -0.38801836530957629 0 -0.3155765208162476 -0.38268744530453502 0 -0.30567120960180111 -0.38801836530957629 0 -0.31106743247622909 -0.3939672583274626 0 -0.30565900356667691 -0.37998665313461111 0 -0.30567120960180111 -0.38801836530957629 0 -0.29777205611273788 -0.38947161119550833 0 -0.29671870789913751 -0.41492952925301307 0 -0.30759447934349621 -0.40439227149721352 0 -0.29675840215818738 -0.39672307184547112 0 -0.30567120960180111 -0.38801836530957629 0 -0.29777205611273788 -0.38947161119550833 0 -0.30388539038584872 -0.3945302659651736 0 -0.29777205611273788 -0.38947161119550833 0 -0.29675840215818738 -0.39672307184547112 0 -0.29777205611273788 -0.38947161119550833 0 -0.30388539038584872 -0.3945302659651736 0 -0.29675840215818738 -0.39672307184547112 0 -0.30388539038584872 -0.3945302659651736 0 -0.31106743247622909 -0.3939672583274626 0 -0.30759447934349621 -0.40439227149721352 0 -0.30567120960180111 -0.38801836530957629 0 -0.30388539038584872 -0.3945302659651736 0 -0.31106743247622909 -0.3939672583274626 0 -0.30388539038584872 -0.3945302659651736 0 -0.30759447934349621 -0.40439227149721352 0 -0.29675840215818738 -0.39672307184547112 0 -0.29486882897873468 -0.41024066874776222 0 -0.29379901506965328 -0.39066316096562431 0 -0.29486882897873468 -0.41024066874776222 0 -0.29675840215818738 -0.39672307184547112 0 -0.29379901506965328 -0.39066316096562431 0 -0.29671870789913751 -0.41492952925301307 0 -0.29675840215818738 -0.39672307184547112 0 -0.29486882897873468 -0.41024066874776222 0 -0.29024563982462348 -0.40290232630153172 0 -0.29379901506965328 -0.39066316096562431 0 -0.29486882897873468 -0.41024066874776222 0 -0.29675840215818738 -0.39672307184547112 0 -0.28998746834484918 -0.40818976965646592 0 -0.28720710749981121 -0.40667957029871848 0 -0.29024563982462348 -0.40290232630153172 0 -0.28720710749981121 -0.40667957029871848 0 -0.29024563982462348 -0.40290232630153172 0 -0.28540973258487262 -0.40167441560737122 0 -0.28720710749981121 -0.40667957029871848 0 -0.28540973258487262 -0.40167441560737122 0 -0.28011940499286597 -0.40486302017794851 0 -0.28540973258487262 -0.40167441560737122 0 -0.28067105393946779 -0.40076244671033351 0 -0.28011940499286597 -0.40486302017794851 0 -0.28540973258487262 -0.40167441560737122 0 -0.2837767588961882 -0.39604655670759947 0 -0.28067105393946779 -0.40076244671033351 0 -0.29024563982462348 -0.40290232630153172 0 -0.28540973258487262 -0.40167441560737122 0 -0.28857490579015949 -0.39714435620671268 0 -0.28857490579015949 -0.39714435620671268 0 -0.2837767588961882 -0.39604655670759947 0 -0.28750800177619712 -0.39231440209505353 0 -0.28540973258487262 -0.40167441560737122 0 -0.28857490579015949 -0.39714435620671268 0 -0.2837767588961882 -0.39604655670759947 0 -0.2837767588961882 -0.39604655670759947 0 -0.28307659033515392 -0.38979264654044782 0 -0.27710629728170832 -0.39435370527936647 0 -0.2837767588961882 -0.39604655670759947 0 -0.28750800177619712 -0.39231440209505353 0 -0.28307659033515392 -0.38979264654044782 0 -0.29024563982462348 -0.40290232630153172 0 -0.28857490579015949 -0.39714435620671268 0 -0.29379901506965328 -0.39066316096562431 0 -0.28857490579015949 -0.39714435620671268 0 -0.28750800177619712 -0.39231440209505353 0 -0.29379901506965328 -0.39066316096562431 0 -0.29777205611273788 -0.38947161119550833 0 -0.29675840215818738 -0.39672307184547112 0 -0.29379901506965328 -0.39066316096562431 0 -0.29272920116057283 -0.37108565318348641 0 -0.29777205611273788 -0.38947161119550833 0 -0.29379901506965328 -0.39066316096562431 0 -0.29272920116057283 -0.37108565318348641 0 -0.29379901506965328 -0.39066316096562431 0 -0.29272920116057283 -0.37108565318348641 0 -0.29379901506965328 -0.39066316096562431 0 -0.28872553499752102 -0.38089764320267772 0 -0.29379901506965328 -0.39066316096562431 0 -0.28791387117379791 -0.38703571968461231 0 -0.28872553499752102 -0.38089764320267772 0 -0.28750800177619712 -0.39231440209505353 0 -0.29379901506965328 -0.39066316096562431 0 -0.28791387117379791 -0.38703571968461231 0 -0.28307659033515392 -0.38979264654044782 0 -0.28371507938943952 -0.38139621423523312 0 -0.27718380551594429 -0.38605841468796709 0 -0.28791387117379791 -0.38703571968461231 0 -0.28307659033515392 -0.38979264654044782 0 -0.28371507938943952 -0.38139621423523312 0 -0.28750800177619712 -0.39231440209505353 0 -0.28791387117379791 -0.38703571968461231 0 -0.28307659033515392 -0.38979264654044782 0 -0.28791387117379791 -0.38703571968461231 0 -0.28872553499752102 -0.38089764320267772 0 -0.28371507938943952 -0.38139621423523312 0 -0.28547050819414171 -0.37430746794443231 0 -0.28371507938943952 -0.38139621423523312 0 -0.27749089826650492 -0.37747461974895979 0 -0.29272920116057283 -0.37108565318348641 0 -0.28547050819414171 -0.37430746794443231 0 -0.28872553499752102 -0.38089764320267772 0 -0.28547050819414171 -0.37430746794443231 0 -0.28872553499752102 -0.38089764320267772 0 -0.28371507938943952 -0.38139621423523312 0 -0.27036938484470918 -0.37178568419280422 0 -0.27019722035294191 -0.38204339117159319 0 -0.27749089826650492 -0.37747461974895979 0 -0.27036938484470918 -0.37178568419280422 0 -0.27019722035294191 -0.38204339117159319 0 -0.26109032466993221 -0.37831927443361552 0 -0.27019722035294191 -0.38204339117159319 0 -0.27749089826650492 -0.37747461974895979 0 -0.27718380551594429 -0.38605841468796709 0 -0.28371507938943952 -0.38139621423523312 0 -0.27749089826650492 -0.37747461974895979 0 -0.27718380551594429 -0.38605841468796709 0 -0.27718380551594429 -0.38605841468796709 0 -0.27137942794812381 -0.38947446941279551 0 -0.27710629728170832 -0.39435370527936647 0 -0.28307659033515392 -0.38979264654044782 0 -0.27718380551594429 -0.38605841468796709 0 -0.27710629728170832 -0.39435370527936647 0 -0.27019722035294191 -0.38204339117159319 0 -0.27718380551594429 -0.38605841468796709 0 -0.27137942794812381 -0.38947446941279551 0 -0.27019722035294191 -0.38204339117159319 0 -0.27137942794812381 -0.38947446941279551 0 -0.26410929481557333 -0.38840864660885732 0 -0.27137942794812381 -0.38947446941279551 0 -0.26858573417443798 -0.39660450671885761 0 -0.26410929481557333 -0.38840864660885732 0 -0.27137942794812381 -0.38947446941279551 0 -0.26858573417443798 -0.39660450671885761 0 -0.27710629728170832 -0.39435370527936647 0 -0.26858573417443798 -0.39660450671885761 0 -0.27710629728170832 -0.39435370527936647 0 -0.27498169417149748 -0.40062125484018302 0 -0.2837767588961882 -0.39604655670759947 0 -0.27710629728170832 -0.39435370527936647 0 -0.28067105393946779 -0.40076244671033351 0 -0.27498169417149748 -0.40062125484018302 0 -0.28011940499286597 -0.40486302017794851 0 -0.27178157132047642 -0.40685039833936693 0 -0.27710629728170832 -0.39435370527936647 0 -0.27498169417149748 -0.40062125484018302 0 -0.28067105393946779 -0.40076244671033351 0 -0.27498169417149748 -0.40062125484018302 0 -0.28067105393946779 -0.40076244671033351 0 -0.28011940499286597 -0.40486302017794851 0 -0.26858573417443798 -0.39660450671885761 0 -0.27498169417149748 -0.40062125484018302 0 -0.27178157132047642 -0.40685039833936693 0 -0.26858573417443798 -0.39660450671885761 0 -0.26351582140537738 -0.40319538448463949 0 -0.27178157132047642 -0.40685039833936693 0 -0.26858573417443798 -0.39660450671885761 0 -0.26351582140537738 -0.40319538448463949 0 -0.25921437702325978 -0.39567090723372927 0 -0.26351582140537738 -0.40319538448463949 0 -0.2547681443921207 -0.40375337671297518 0 -0.25921437702325978 -0.39567090723372927 0 -0.2547681443921207 -0.40375337671297518 0 -0.25091853974432787 -0.39681899963758649 0 -0.25921437702325978 -0.39567090723372927 0 -0.2547681443921207 -0.40375337671297518 0 -0.25091853974432787 -0.39681899963758649 0 -0.24508163955823711 -0.40395286098442379 0 -0.25091853974432787 -0.39681899963758649 0 -0.25921437702325978 -0.39567090723372927 0 -0.25442737635881779 -0.3870735656787338 0 -0.26858573417443798 -0.39660450671885761 0 -0.25921437702325978 -0.39567090723372927 0 -0.26410929481557333 -0.38840864660885732 0 -0.25921437702325978 -0.39567090723372927 0 -0.26410929481557333 -0.38840864660885732 0 -0.25442737635881779 -0.3870735656787338 0 -0.26410929481557333 -0.38840864660885732 0 -0.25442737635881779 -0.3870735656787338 0 -0.26109032466993221 -0.37831927443361552 0 -0.27019722035294191 -0.38204339117159319 0 -0.26410929481557333 -0.38840864660885732 0 -0.26109032466993221 -0.37831927443361552 0 -0.25442737635881779 -0.3870735656787338 0 -0.26109032466993221 -0.37831927443361552 0 -0.24671633714885899 -0.37500267670740822 0 -0.26624381152484439 -0.4269770169926706 0 -0.2754619929608812 -0.42692674076378101 0 -0.27213368236379298 -0.41738736062777732 0 -0.26624381152484439 -0.4269770169926706 0 -0.27531913182206408 -0.43576153383787791 0 -0.26053124584029708 -0.44231639314783422 0 -0.26624381152484439 -0.4269770169926706 0 -0.27531913182206408 -0.43576153383787791 0 -0.2754619929608812 -0.42692674076378101 0 -0.28279180542715449 -0.42854729923922952 0 -0.27531913182206408 -0.43576153383787791 0 -0.2754619929608812 -0.42692674076378101 0 -0.28279180542715449 -0.42854729923922952 0 -0.28453196225993183 -0.43592835817799069 0 -0.27531913182206408 -0.43576153383787791 0 -0.28279180542715449 -0.42854729923922952 0 -0.2754619929608812 -0.42692674076378101 0 -0.27930600923441862 -0.42106424654986918 0 -0.27930600923441862 -0.42106424654986918 0 -0.28066527044107081 -0.41259003527171872 0 -0.27213368236379298 -0.41738736062777732 0 -0.2754619929608812 -0.42692674076378101 0 -0.27930600923441862 -0.42106424654986918 0 -0.27213368236379298 -0.41738736062777732 0 -0.28066527044107081 -0.41259003527171872 0 -0.27178157132047642 -0.40685039833936693 0 -0.27213368236379298 -0.41738736062777732 0 -0.28011940499286597 -0.40486302017794851 0 -0.28066527044107081 -0.41259003527171872 0 -0.27178157132047642 -0.40685039833936693 0 -0.27178157132047642 -0.40685039833936693 0 -0.27213368236379298 -0.41738736062777732 0 -0.26152036912886722 -0.4132872757744101 0 -0.26624381152484439 -0.4269770169926706 0 -0.27213368236379298 -0.41738736062777732 0 -0.26152036912886722 -0.4132872757744101 0 -0.26351582140537738 -0.40319538448463949 0 -0.2547681443921207 -0.40375337671297518 0 -0.26152036912886722 -0.4132872757744101 0 -0.26351582140537738 -0.40319538448463949 0 -0.27178157132047642 -0.40685039833936693 0 -0.26152036912886722 -0.4132872757744101 0 -0.2547681443921207 -0.40375337671297518 0 -0.26152036912886722 -0.4132872757744101 0 -0.24855152321588861 -0.41314653328822099 0 -0.26152036912886722 -0.4132872757744101 0 -0.25238978005455143 -0.42583818585533728 0 -0.24855152321588861 -0.41314653328822099 0 -0.25238978005455143 -0.42583818585533728 0 -0.26053124584029708 -0.44231639314783422 0 -0.2371366477423584 -0.43900347742452078 0 -0.26624381152484439 -0.4269770169926706 0 -0.25238978005455143 -0.42583818585533728 0 -0.26053124584029708 -0.44231639314783422 0 -0.26624381152484439 -0.4269770169926706 0 -0.26152036912886722 -0.4132872757744101 0 -0.25238978005455143 -0.42583818585533728 0 -0.25113986275768713 -0.45887945861160639 0 -0.26660912428219152 -0.4626580791158646 0 -0.25691150275338992 -0.48378273650344272 0 -0.26053124584029708 -0.44231639314783422 0 -0.25113986275768713 -0.45887945861160639 0 -0.26660912428219152 -0.4626580791158646 0 -0.26660912428219152 -0.4626580791158646 0 -0.28212680477551177 -0.4615477092220851 0 -0.27869742437592648 -0.48096851638232452 0 -0.26660912428219152 -0.4626580791158646 0 -0.27553711272279968 -0.44972067536728338 0 -0.28212680477551177 -0.4615477092220851 0 -0.27553711272279968 -0.44972067536728338 0 -0.28575792424986368 -0.45225273535987459 0 -0.28212680477551177 -0.4615477092220851 0 -0.26053124584029708 -0.44231639314783422 0 -0.26660912428219152 -0.4626580791158646 0 -0.27553711272279968 -0.44972067536728338 0 -0.27531913182206408 -0.43576153383787791 0 -0.26053124584029708 -0.44231639314783422 0 -0.27553711272279968 -0.44972067536728338 0 -0.27553711272279968 -0.44972067536728338 0 -0.28219627946834702 -0.44287729737636528 0 -0.28575792424986368 -0.45225273535987459 0 -0.27531913182206408 -0.43576153383787791 0 -0.27553711272279968 -0.44972067536728338 0 -0.28219627946834702 -0.44287729737636528 0 -0.28453196225993183 -0.43592835817799069 0 -0.27531913182206408 -0.43576153383787791 0 -0.28219627946834702 -0.44287729737636528 0 -0.29286783408332562 -0.43678616033580919 0 -0.29611923336341128 -0.43346829415343369 0 -0.29536419425065102 -0.45564514690511559 0 -0.29611923336341128 -0.43346829415343369 0 -0.29536419425065102 -0.45564514690511559 0 -0.29734994244789809 -0.45564484403342392 0 -0.29286783408332562 -0.43678616033580919 0 -0.28998757294685151 -0.44516011623643531 0 -0.29536419425065102 -0.45564514690511559 0 -0.29611923336341128 -0.43346829415343369 0 -0.29734994244789809 -0.45564484403342392 0 -0.29611923336341128 -0.43346829415343369 0 -0.29536419425065102 -0.45564514690511559 0 -0.28453196225993183 -0.43592835817799069 0 -0.28219627946834702 -0.44287729737636528 0 -0.28998757294685151 -0.44516011623643531 0 -0.28998757294685151 -0.44516011623643531 0 -0.28575792424986368 -0.45225273535987459 0 -0.29536419425065102 -0.45564514690511559 0 -0.28219627946834702 -0.44287729737636528 0 -0.28998757294685151 -0.44516011623643531 0 -0.28575792424986368 -0.45225273535987459 0 -0.29536419425065102 -0.45564514690511559 0 -0.29734994244789809 -0.45564484403342392 0 -0.29462640298825399 -0.4778225734525563 0 -0.29536419425065102 -0.45564514690511559 0 -0.29462640298825399 -0.4778225734525563 0 -0.28212680477551177 -0.4615477092220851 0 -0.29536419425065102 -0.45564514690511559 0 -0.29462640298825399 -0.4778225734525563 0 -0.28575792424986368 -0.45225273535987459 0 -0.28212680477551177 -0.4615477092220851 0 -0.29536419425065102 -0.45564514690511559 0 -0.29734994244789809 -0.45564484403342392 0 -0.29856183732544139 -0.47782242201670988 0 -0.29734994244789809 -0.45564484403342392 0 -0.31245435207434502 -0.46629031041754782 0 -0.31246527538330188 -0.44820040532945382 0 -0.29734994244789809 -0.45564484403342392 0 -0.31245435207434502 -0.46629031041754782 0 -0.29856183732544139 -0.47782242201670988 0 -0.29611923336341128 -0.43346829415343369 0 -0.29734994244789809 -0.45564484403342392 0 -0.31246527538330188 -0.44820040532945382 0 -0.31011417754272558 -0.4308636243528895 0 -0.29611923336341128 -0.43346829415343369 0 -0.31246527538330188 -0.44820040532945382 0 -0.29977373220298459 -0.49999999999999589 0 -0.29856183732544139 -0.47782242201670988 0 -0.29388861172585717 -0.49999999999999689 0 -0.29977373220298459 -0.49999999999999589 0 -0.29856183732544139 -0.47782242201670988 0 -0.31318934017311428 -0.48563798712654649 0 -0.29977373220298459 -0.49999999999999589 0 -0.29856183732544139 -0.47782242201670988 0 -0.31318934017311428 -0.48563798712654649 0 -0.31245435207434502 -0.46629031041754782 0 -0.29856183732544139 -0.47782242201670988 0 -0.28212680477551177 -0.4615477092220851 0 -0.29462640298825399 -0.4778225734525563 0 -0.27869742437592648 -0.48096851638232452 0 -0.29734994244789809 -0.45564484403342392 0 -0.29856183732544139 -0.47782242201670988 0 -0.29462640298825399 -0.4778225734525563 0 -0.29462640298825399 -0.4778225734525563 0 -0.29388861172585717 -0.49999999999999689 0 -0.27869742437592648 -0.48096851638232452 0 -0.29856183732544139 -0.47782242201670988 0 -0.29462640298825399 -0.4778225734525563 0 -0.29388861172585717 -0.49999999999999689 0 -0.29462640298825399 -0.4778225734525563 0 -0.29388861172585717 -0.49999999999999689 0 -0.29388861172585717 -0.49999999999999689 0 -0.27802209973035558 -0.50000000000000067 0 -0.27869742437592648 -0.48096851638232452 0 -0.27802209973035558 -0.50000000000000067 0 -0.25691150275338992 -0.48378273650344272 0 -0.27802209973035558 -0.50000000000000067 0 -0.27869742437592648 -0.48096851638232452 0 -0.25691150275338992 -0.48378273650344272 0 -0.26660912428219152 -0.4626580791158646 0 -0.27869742437592648 -0.48096851638232452 0 -0.25691150275338992 -0.48378273650344272 0 -0.25691150275338992 -0.48378273650344272 0 -0.25615307957660011 -0.5 0 -0.24559778108811681 -0.49189136825172092 0 -0.27802209973035558 -0.50000000000000067 0 -0.25691150275338992 -0.48378273650344272 0 -0.25615307957660011 -0.5 0 -0.23504248259963301 -0.48378273650344222 0 -0.23428405942284439 -0.49999999999999839 0 -0.25691150275338992 -0.48378273650344272 0 -0.24559778108811681 -0.49189136825172092 0 -0.23504248259963301 -0.48378273650344222 0 -0.24559778108811681 -0.49189136825172092 0 -0.23504248259963301 -0.48378273650344222 0 -0.23428405942284439 -0.49999999999999839 0 -0.25615307957660011 -0.5 0 -0.24559778108811681 -0.49189136825172092 0 -0.23428405942284439 -0.49999999999999839 0 -0.23504248259963301 -0.48378273650344222 0 -0.2358009057764231 -0.46756547300688611 0 -0.25113986275768713 -0.45887945861160639 0 -0.25691150275338992 -0.48378273650344272 0 -0.2358009057764231 -0.46756547300688611 0 -0.25691150275338992 -0.48378273650344272 0 -0.2358009057764231 -0.46756547300688611 0 -0.25691150275338992 -0.48378273650344272 0 -0.23504248259963301 -0.48378273650344222 0 -0.2358009057764231 -0.46756547300688611 0 -0.23504248259963301 -0.48378273650344222 0 -0.2252635384610796 -0.4731266426555385 0 -0.22247633572965661 -0.48707065654359349 0 -0.23504248259963301 -0.48378273650344222 0 -0.2252635384610796 -0.4731266426555385 0 -0.2358009057764231 -0.46756547300688611 0 -0.2252635384610796 -0.4731266426555385 0 -0.22247633572965661 -0.48707065654359349 0 -0.21286163189349641 -0.47767140782621897 0 -0.23428405942284439 -0.49999999999999839 0 -0.22247633572965661 -0.48707065654359349 0 -0.20484588527586681 -0.5 0 -0.23504248259963301 -0.48378273650344222 0 -0.23428405942284439 -0.49999999999999839 0 -0.22247633572965661 -0.48707065654359349 0 -0.26053124584029708 -0.44231639314783422 0 -0.25113986275768713 -0.45887945861160639 0 -0.2371366477423584 -0.43900347742452078 0 -0.2371366477423584 -0.43900347742452078 0 -0.2358009057764231 -0.46756547300688611 0 -0.25113986275768713 -0.45887945861160639 0 -0.2371366477423584 -0.43900347742452078 0 -0.2358009057764231 -0.46756547300688611 0 -0.2371366477423584 -0.43900347742452078 0 -0.2358009057764231 -0.46756547300688611 0 -0.22877292312242459 -0.46216654247576178 0 -0.2252635384610796 -0.4731266426555385 0 -0.2358009057764231 -0.46756547300688611 0 -0.22877292312242459 -0.46216654247576178 0 -0.2358009057764231 -0.46756547300688611 0 -0.22877292312242459 -0.46216654247576178 0 -0.2252635384610796 -0.4731266426555385 0 -0.22877292312242459 -0.46216654247576178 0 -0.2166269516448453 -0.46050303957732852 0 -0.22480527398661329 -0.45223818608418997 0 -0.2166845734368249 -0.44727968485914887 0 -0.2166269516448453 -0.46050303957732852 0 -0.22877292312242459 -0.46216654247576178 0 -0.22480527398661329 -0.45223818608418997 0 -0.2166269516448453 -0.46050303957732852 0 -0.2371366477423584 -0.43900347742452078 0 -0.2166845734368249 -0.44727968485914887 0 -0.22146276262783171 -0.43584388769949067 0 -0.2371366477423584 -0.43900347742452078 0 -0.22877292312242459 -0.46216654247576178 0 -0.22480527398661329 -0.45223818608418997 0 -0.2371366477423584 -0.43900347742452078 0 -0.22480527398661329 -0.45223818608418997 0 -0.2166845734368249 -0.44727968485914887 0 -0.2166845734368249 -0.44727968485914887 0 -0.20516439995776761 -0.44691166783190289 0 -0.20866912247198999 -0.43427388730110672 0 -0.2166845734368249 -0.44727968485914887 0 -0.20866912247198999 -0.43427388730110672 0 -0.22146276262783171 -0.43584388769949067 0 -0.2166845734368249 -0.44727968485914887 0 -0.20516439995776761 -0.44691166783190289 0 -0.20297214423161711 -0.45964964654368939 0 -0.2166269516448453 -0.46050303957732852 0 -0.20297214423161711 -0.45964964654368939 0 -0.21286163189349641 -0.47767140782621897 0 -0.2166845734368249 -0.44727968485914887 0 -0.2166269516448453 -0.46050303957732852 0 -0.20297214423161711 -0.45964964654368939 0 -0.20297214423161711 -0.45964964654368939 0 -0.19233175969063851 -0.44644345262366669 0 -0.180308219052532 -0.46214111538457803 0 -0.20297214423161711 -0.45964964654368939 0 -0.19618581383735659 -0.47661664271410231 0 -0.180308219052532 -0.46214111538457803 0 -0.20516439995776761 -0.44691166783190289 0 -0.19233175969063851 -0.44644345262366669 0 -0.20866912247198999 -0.43427388730110672 0 -0.20516439995776761 -0.44691166783190289 0 -0.20297214423161711 -0.45964964654368939 0 -0.19233175969063851 -0.44644345262366669 0 -0.20484588527586681 -0.5 0 -0.21286163189349641 -0.47767140782621897 0 -0.19618581383735659 -0.47661664271410231 0 -0.22247633572965661 -0.48707065654359349 0 -0.20484588527586681 -0.5 0 -0.21286163189349641 -0.47767140782621897 0 -0.2252635384610796 -0.4731266426555385 0 -0.2166269516448453 -0.46050303957732852 0 -0.21286163189349641 -0.47767140782621897 0 -0.20297214423161711 -0.45964964654368939 0 -0.21286163189349641 -0.47767140782621897 0 -0.19618581383735659 -0.47661664271410231 0 -0.20484588527586681 -0.5 0 -0.19618581383735659 -0.47661664271410231 0 -0.18141207529635481 -0.48374663395529899 0 -0.1754077111288892 -0.5 0 -0.16313887801722191 -0.48107055769228951 0 -0.18141207529635481 -0.48374663395529899 0 -0.20484588527586681 -0.5 0 -0.1754077111288892 -0.5 0 -0.18141207529635481 -0.48374663395529899 0 -0.1754077111288892 -0.5 0 -0.16313887801722191 -0.48107055769228951 0 -0.14596953698191151 -0.50000000000000067 0 -0.16313887801722191 -0.48107055769228951 0 -0.180308219052532 -0.46214111538457803 0 -0.16313887801722191 -0.48107055769228951 0 -0.180308219052532 -0.46214111538457803 0 -0.16046716602174749 -0.46653046155267158 0 -0.16313887801722191 -0.48107055769228951 0 -0.16046716602174749 -0.46653046155267158 0 -0.1493502013458973 -0.47960305076409282 0 -0.16313887801722191 -0.48107055769228951 0 -0.18141207529635481 -0.48374663395529899 0 -0.180308219052532 -0.46214111538457803 0 -0.19618581383735659 -0.47661664271410231 0 -0.18141207529635481 -0.48374663395529899 0 -0.180308219052532 -0.46214111538457803 0 -0.19233175969063851 -0.44644345262366669 0 -0.180308219052532 -0.46214111538457803 0 -0.16633669618649269 -0.44778774508833091 0 -0.19233175969063851 -0.44644345262366669 0 -0.16633669618649269 -0.44778774508833091 0 -0.18929805962503929 -0.42848571740707858 0 -0.16633669618649269 -0.44778774508833091 0 -0.18929805962503929 -0.42848571740707858 0 -0.16633669618649269 -0.44778774508833091 0 -0.15065685457348449 -0.43683814347593142 0 -0.16785277623241299 -0.43310496712312979 0 -0.16633669618649269 -0.44778774508833091 0 -0.16046716602174749 -0.46653046155267158 0 -0.14337533274794659 -0.46708977276958391 0 -0.180308219052532 -0.46214111538457803 0 -0.16633669618649269 -0.44778774508833091 0 -0.16046716602174749 -0.46653046155267158 0 -0.16633669618649269 -0.44778774508833091 0 -0.14522564351033701 -0.45415486454232029 0 -0.14337533274794659 -0.46708977276958391 0 -0.16633669618649269 -0.44778774508833091 0 -0.14337533274794659 -0.46708977276958391 0 -0.14522564351033701 -0.45415486454232029 0 -0.14337533274794659 -0.46708977276958391 0 -0.1334346851647113 -0.45551116210643039 0 -0.14522564351033701 -0.45415486454232029 0 -0.15065685457348449 -0.43683814347593142 0 -0.14522564351033701 -0.45415486454232029 0 -0.13707645915362471 -0.4431299527894913 0 -0.15065685457348449 -0.43683814347593142 0 -0.16633669618649269 -0.44778774508833091 0 -0.14522564351033701 -0.45415486454232029 0 -0.15065685457348449 -0.43683814347593142 0 -0.14522564351033701 -0.45415486454232029 0 -0.13707645915362471 -0.4431299527894913 0 -0.1334346851647113 -0.45551116210643039 0 -0.1271442566298451 -0.44596628899092861 0 -0.1334346851647113 -0.45551116210643039 0 -0.120968343029728 -0.45462115421979032 0 -0.13707645915362471 -0.4431299527894913 0 -0.1271442566298451 -0.44596628899092861 0 -0.1334346851647113 -0.45551116210643039 0 -0.1271442566298451 -0.44596628899092861 0 -0.1286505554066244 -0.43652862388743607 0 -0.122395437252204 -0.43980370574357808 0 -0.13707645915362471 -0.4431299527894913 0 -0.1271442566298451 -0.44596628899092861 0 -0.1286505554066244 -0.43652862388743607 0 -0.14337533274794659 -0.46708977276958391 0 -0.1334346851647113 -0.45551116210643039 0 -0.12629935107648191 -0.46812041530357129 0 -0.1334346851647113 -0.45551116210643039 0 -0.12629935107648191 -0.46812041530357129 0 -0.120968343029728 -0.45462115421979032 0 -0.12629935107648191 -0.46812041530357129 0 -0.13627033042206579 -0.48420719645537519 0 -0.1239596724013798 -0.48203658885458761 0 -0.14337533274794659 -0.46708977276958391 0 -0.12629935107648191 -0.46812041530357129 0 -0.13627033042206579 -0.48420719645537519 0 -0.13627033042206579 -0.48420719645537519 0 -0.1239596724013798 -0.48203658885458761 0 -0.1210211889508961 -0.5 0 -0.13627033042206579 -0.48420719645537519 0 -0.14596953698191151 -0.50000000000000067 0 -0.1210211889508961 -0.5 0 -0.16313887801722191 -0.48107055769228951 0 -0.14596953698191151 -0.50000000000000067 0 -0.16313887801722191 -0.48107055769228951 0 -0.14596953698191151 -0.50000000000000067 0 -0.1493502013458973 -0.47960305076409282 0 -0.13627033042206579 -0.48420719645537519 0 -0.14596953698191151 -0.50000000000000067 0 -0.1493502013458973 -0.47960305076409282 0 -0.16046716602174749 -0.46653046155267158 0 -0.14337533274794659 -0.46708977276958391 0 -0.1493502013458973 -0.47960305076409282 0 -0.14337533274794659 -0.46708977276958391 0 -0.13627033042206579 -0.48420719645537519 0 -0.1493502013458973 -0.47960305076409282 0 -0.14872833990636619 -0.40040071331519461 0 -0.14508838474640481 -0.38911943664951187 0 -0.16458396097748459 -0.39243334792371809 0 -0.14872833990636619 -0.40040071331519461 0 -0.15354685890108899 -0.40508439079549158 0 -0.16458396097748459 -0.39243334792371809 0 -0.14872833990636619 -0.40040071331519461 0 -0.14508838474640481 -0.38911943664951187 0 -0.1385708053801766 -0.40146574734158641 0 -0.14872833990636619 -0.40040071331519461 0 -0.1385708053801766 -0.40146574734158641 0 -0.14451205684648771 -0.40885892084004127 0 -0.14872833990636619 -0.40040071331519461 0 -0.15354685890108899 -0.40508439079549158 0 -0.14451205684648771 -0.40885892084004127 0 -0.15321505093502541 -0.37787944056700662 0 -0.14508838474640481 -0.38911943664951187 0 -0.1351051062916532 -0.37998381608038578 0 -0.15321505093502541 -0.37787944056700662 0 -0.14508838474640481 -0.38911943664951187 0 -0.16458396097748459 -0.39243334792371809 0 -0.14508838474640481 -0.38911943664951187 0 -0.1351051062916532 -0.37998381608038578 0 -0.13009349872902409 -0.39396436485078351 0 -0.1351051062916532 -0.37998381608038578 0 -0.1216493057553388 -0.36805364158635689 0 -0.1226431281372921 -0.38341950810688952 0 -0.1351051062916532 -0.37998381608038578 0 -0.13009349872902409 -0.39396436485078351 0 -0.1226431281372921 -0.38341950810688952 0 -0.14508838474640481 -0.38911943664951187 0 -0.13009349872902409 -0.39396436485078351 0 -0.1385708053801766 -0.40146574734158641 0 -0.1385708053801766 -0.40146574734158641 0 -0.1314041218031485 -0.40266995078240631 0 -0.13501333007481511 -0.41226517030697929 0 -0.13009349872902409 -0.39396436485078351 0 -0.1385708053801766 -0.40146574734158641 0 -0.1314041218031485 -0.40266995078240631 0 -0.1314041218031485 -0.40266995078240631 0 -0.13501333007481511 -0.41226517030697929 0 -0.12434083125225311 -0.40208234895582401 0 -0.13009349872902409 -0.39396436485078351 0 -0.1314041218031485 -0.40266995078240631 0 -0.12434083125225311 -0.40208234895582401 0 -0.13031013140721839 -0.41384368270944971 0 -0.13501333007481511 -0.41226517030697929 0 -0.1560880656366328 -0.41952142240954271 0 -0.13031013140721839 -0.41384368270944971 0 -0.13501333007481511 -0.41226517030697929 0 -0.1136635822756115 -0.40588575951094952 0 -0.13031013140721839 -0.41384368270944971 0 -0.12588779620812371 -0.42207359555134011 0 -0.1192454834063897 -0.41997597996162739 0 -0.13031013140721839 -0.41384368270944971 0 -0.12588779620812371 -0.42207359555134011 0 -0.13215908754788969 -0.42425378121130652 0 -0.13031013140721839 -0.41384368270944971 0 -0.13215908754788969 -0.42425378121130652 0 -0.14148777244203231 -0.42445227316360379 0 -0.1385708053801766 -0.40146574734158641 0 -0.13501333007481511 -0.41226517030697929 0 -0.14451205684648771 -0.40885892084004127 0 -0.1286505554066244 -0.43652862388743607 0 -0.12710503907706461 -0.4283853283328618 0 -0.1360046986050098 -0.43251402629927732 0 -0.1286505554066244 -0.43652862388743607 0 -0.12710503907706461 -0.4283853283328618 0 -0.1208509852946628 -0.4336781170756715 0 -0.12710503907706461 -0.4283853283328618 0 -0.13215908754788969 -0.42425378121130652 0 -0.1360046986050098 -0.43251402629927732 0 -0.12710503907706461 -0.4283853283328618 0 -0.12588779620812371 -0.42207359555134011 0 -0.13215908754788969 -0.42425378121130652 0 -0.13215908754788969 -0.42425378121130652 0 -0.1360046986050098 -0.43251402629927732 0 -0.14148777244203231 -0.42445227316360379 0 -0.13707645915362471 -0.4431299527894913 0 -0.1286505554066244 -0.43652862388743607 0 -0.1360046986050098 -0.43251402629927732 0 -0.14148777244203231 -0.42445227316360379 0 -0.15065685457348449 -0.43683814347593142 0 -0.1560880656366328 -0.41952142240954271 0 -0.15065685457348449 -0.43683814347593142 0 -0.1560880656366328 -0.41952142240954271 0 -0.15992368525428169 -0.42851741329607279 0 -0.15065685457348449 -0.43683814347593142 0 -0.1560880656366328 -0.41952142240954271 0 -0.1360046986050098 -0.43251402629927732 0 -0.14148777244203231 -0.42445227316360379 0 -0.15065685457348449 -0.43683814347593142 0 -0.13707645915362471 -0.4431299527894913 0 -0.1360046986050098 -0.43251402629927732 0 -0.15065685457348449 -0.43683814347593142 0 -0.13031013140721839 -0.41384368270944971 0 -0.1560880656366328 -0.41952142240954271 0 -0.13501333007481511 -0.41226517030697929 0 -0.14451205684648771 -0.40885892084004127 0 -0.1560880656366328 -0.41952142240954271 0 -0.13501333007481511 -0.41226517030697929 0 -0.1560880656366328 -0.41952142240954271 0 -0.13031013140721839 -0.41384368270944971 0 -0.14148777244203231 -0.42445227316360379 0 -0.1560880656366328 -0.41952142240954271 0 -0.15354685890108899 -0.40508439079549158 0 -0.14451205684648771 -0.40885892084004127 0 -0.1560880656366328 -0.41952142240954271 0 -0.1560880656366328 -0.41952142240954271 0 -0.16283241228036191 -0.42115034822754732 0 -0.1721453781168488 -0.40895883530702531 0 -0.1560880656366328 -0.41952142240954271 0 -0.1721453781168488 -0.40895883530702531 0 -0.16458396097748459 -0.39243334792371809 0 -0.1560880656366328 -0.41952142240954271 0 -0.16283241228036191 -0.42115034822754732 0 -0.16283241228036191 -0.42115034822754732 0 -0.17283056874952879 -0.42356514925504463 0 -0.1721453781168488 -0.40895883530702531 0 -0.15065685457348449 -0.43683814347593142 0 -0.15992368525428169 -0.42851741329607279 0 -0.16785277623241299 -0.43310496712312979 0 -0.1560880656366328 -0.41952142240954271 0 -0.16283241228036191 -0.42115034822754732 0 -0.15992368525428169 -0.42851741329607279 0 -0.16283241228036191 -0.42115034822754732 0 -0.15992368525428169 -0.42851741329607279 0 -0.16586808447670751 -0.42655041974888358 0 -0.16283241228036191 -0.42115034822754732 0 -0.17283056874952879 -0.42356514925504463 0 -0.15992368525428169 -0.42851741329607279 0 -0.16586808447670751 -0.42655041974888358 0 -0.16785277623241299 -0.43310496712312979 0 -0.16283241228036191 -0.42115034822754732 0 -0.16586808447670751 -0.42655041974888358 0 -0.17283056874952879 -0.42356514925504463 0 -0.16586808447670751 -0.42655041974888358 0 -0.16785277623241299 -0.43310496712312979 0 -0.17283056874952879 -0.42356514925504463 0 -0.16633669618649269 -0.44778774508833091 0 -0.16785277623241299 -0.43310496712312979 0 -0.18929805962503929 -0.42848571740707858 0 -0.16785277623241299 -0.43310496712312979 0 -0.17283056874952879 -0.42356514925504463 0 -0.18929805962503929 -0.42848571740707858 0 -0.17283056874952879 -0.42356514925504463 0 -0.18929805962503929 -0.42848571740707858 0 -0.17283056874952879 -0.42356514925504463 0 -0.18498409700630131 -0.41544378133201532 0 -0.18929805962503929 -0.42848571740707858 0 -0.1721453781168488 -0.40895883530702531 0 -0.18498409700630131 -0.41544378133201532 0 -0.18844897983385309 -0.39856715215960098 0 -0.17283056874952879 -0.42356514925504463 0 -0.1721453781168488 -0.40895883530702531 0 -0.18498409700630131 -0.41544378133201532 0 -0.16458396097748459 -0.39243334792371809 0 -0.18335101669183779 -0.3812057525156472 0 -0.18844897983385309 -0.39856715215960098 0 -0.1721453781168488 -0.40895883530702531 0 -0.16458396097748459 -0.39243334792371809 0 -0.18844897983385309 -0.39856715215960098 0 -0.1560880656366328 -0.41952142240954271 0 -0.16458396097748459 -0.39243334792371809 0 -0.15354685890108899 -0.40508439079549158 0 -0.1560880656366328 -0.41952142240954271 0 -0.16458396097748459 -0.39243334792371809 0 -0.15321505093502541 -0.37787944056700662 0 -0.16458396097748459 -0.39243334792371809 0 -0.17280484408095151 -0.36622211474442351 0 -0.16458396097748459 -0.39243334792371809 0 -0.17280484408095151 -0.36622211474442351 0 -0.16458396097748459 -0.39243334792371809 0 -0.18335101669183779 -0.3812057525156472 0 -0.17280484408095151 -0.36622211474442351 0 -0.18335101669183779 -0.3812057525156472 0 -0.20123823672103289 -0.38014331815247282 0 -0.18844897983385309 -0.39856715215960098 0 -0.18844897983385309 -0.39856715215960098 0 -0.2046199785867906 -0.39847230417263529 0 -0.20219749870623621 -0.41764205253132708 0 -0.20123823672103289 -0.38014331815247282 0 -0.18844897983385309 -0.39856715215960098 0 -0.2046199785867906 -0.39847230417263529 0 -0.2046199785867906 -0.39847230417263529 0 -0.21611823988539741 -0.38921061036419941 0 -0.21509693778743361 -0.40679838765557641 0 -0.20123823672103289 -0.38014331815247282 0 -0.21611823988539741 -0.38921061036419941 0 -0.217226406021896 -0.37045194409949239 0 -0.20123823672103289 -0.38014331815247282 0 -0.2046199785867906 -0.39847230417263529 0 -0.21611823988539741 -0.38921061036419941 0 -0.18929805962503929 -0.42848571740707858 0 -0.20866912247198999 -0.43427388730110672 0 -0.19233175969063851 -0.44644345262366669 0 -0.18929805962503929 -0.42848571740707858 0 -0.20866912247198999 -0.43427388730110672 0 -0.18929805962503929 -0.42848571740707858 0 -0.20219749870623621 -0.41764205253132708 0 -0.20866912247198999 -0.43427388730110672 0 -0.18929805962503929 -0.42848571740707858 0 -0.20219749870623621 -0.41764205253132708 0 -0.18498409700630131 -0.41544378133201532 0 -0.18844897983385309 -0.39856715215960098 0 -0.20219749870623621 -0.41764205253132708 0 -0.18498409700630131 -0.41544378133201532 0 -0.18929805962503929 -0.42848571740707858 0 -0.20219749870623621 -0.41764205253132708 0 -0.20219749870623621 -0.41764205253132708 0 -0.21509693778743361 -0.40679838765557641 0 -0.22315888221391511 -0.42365845614488601 0 -0.2046199785867906 -0.39847230417263529 0 -0.20219749870623621 -0.41764205253132708 0 -0.21509693778743361 -0.40679838765557641 0 -0.20219749870623621 -0.41764205253132708 0 -0.21509693778743361 -0.40679838765557641 0 -0.20219749870623621 -0.41764205253132708 0 -0.20866912247198999 -0.43427388730110672 0 -0.22315888221391511 -0.42365845614488601 0 -0.20866912247198999 -0.43427388730110672 0 -0.22146276262783171 -0.43584388769949067 0 -0.22315888221391511 -0.42365845614488601 0 -0.2371366477423584 -0.43900347742452078 0 -0.22315888221391511 -0.42365845614488601 0 -0.23935540481235409 -0.42250621193358961 0 -0.2371366477423584 -0.43900347742452078 0 -0.22146276262783171 -0.43584388769949067 0 -0.22315888221391511 -0.42365845614488601 0 -0.21509693778743361 -0.40679838765557641 0 -0.22315888221391511 -0.42365845614488601 0 -0.23554019083505731 -0.41088440695498318 0 -0.22315888221391511 -0.42365845614488601 0 -0.23554019083505731 -0.41088440695498318 0 -0.23935540481235409 -0.42250621193358961 0 -0.2547681443921207 -0.40375337671297518 0 -0.24855152321588861 -0.41314653328822099 0 -0.24508163955823711 -0.40395286098442379 0 -0.23554019083505731 -0.41088440695498318 0 -0.24855152321588861 -0.41314653328822099 0 -0.24508163955823711 -0.40395286098442379 0 -0.25238978005455143 -0.42583818585533728 0 -0.24855152321588861 -0.41314653328822099 0 -0.23935540481235409 -0.42250621193358961 0 -0.23554019083505731 -0.41088440695498318 0 -0.24855152321588861 -0.41314653328822099 0 -0.23935540481235409 -0.42250621193358961 0 -0.25238978005455143 -0.42583818585533728 0 -0.2371366477423584 -0.43900347742452078 0 -0.23935540481235409 -0.42250621193358961 0 -0.21611823988539741 -0.38921061036419941 0 -0.22981893220967731 -0.38178779448398642 0 -0.22750377061148369 -0.39765802623714042 0 -0.21611823988539741 -0.38921061036419941 0 -0.22981893220967731 -0.38178779448398642 0 -0.217226406021896 -0.37045194409949239 0 -0.22981893220967731 -0.38178779448398642 0 -0.22750377061148369 -0.39765802623714042 0 -0.24110116138920401 -0.39364428757807041 0 -0.21611823988539741 -0.38921061036419941 0 -0.21509693778743361 -0.40679838765557641 0 -0.22750377061148369 -0.39765802623714042 0 -0.21509693778743361 -0.40679838765557641 0 -0.23554019083505731 -0.41088440695498318 0 -0.22750377061148369 -0.39765802623714042 0 -0.23554019083505731 -0.41088440695498318 0 -0.24110116138920401 -0.39364428757807041 0 -0.24508163955823711 -0.40395286098442379 0 -0.23554019083505731 -0.41088440695498318 0 -0.22750377061148369 -0.39765802623714042 0 -0.24110116138920401 -0.39364428757807041 0 -0.25091853974432787 -0.39681899963758649 0 -0.25442737635881779 -0.3870735656787338 0 -0.24110116138920401 -0.39364428757807041 0 -0.25091853974432787 -0.39681899963758649 0 -0.24110116138920401 -0.39364428757807041 0 -0.24508163955823711 -0.40395286098442379 0 -0.22981893220967731 -0.38178779448398642 0 -0.24110116138920401 -0.39364428757807041 0 -0.24671633714885899 -0.37500267670740822 0 -0.25442737635881779 -0.3870735656787338 0 -0.24110116138920401 -0.39364428757807041 0 -0.24671633714885899 -0.37500267670740822 0 -0.24671633714885899 -0.37500267670740822 0 -0.23225193856360821 -0.36180630090734539 0 -0.2499227142646899 -0.35235573747961701 0 -0.22981893220967731 -0.38178779448398642 0 -0.24671633714885899 -0.37500267670740822 0 -0.23225193856360821 -0.36180630090734539 0 -0.22981893220967731 -0.38178779448398642 0 -0.23225193856360821 -0.36180630090734539 0 -0.217226406021896 -0.37045194409949239 0 -0.23225193856360821 -0.36180630090734539 0 -0.217226406021896 -0.37045194409949239 0 -0.21571535310111661 -0.34890674183915099 0 -0.23225193856360821 -0.36180630090734539 0 -0.23767629342545649 -0.34543668832237179 0 -0.21571535310111661 -0.34890674183915099 0 -0.23225193856360821 -0.36180630090734539 0 -0.23767629342545649 -0.34543668832237179 0 -0.2499227142646899 -0.35235573747961701 0 -0.25792701942294799 -0.33316849180853908 0 -0.23767629342545649 -0.34543668832237179 0 -0.2499227142646899 -0.35235573747961701 0 -0.25792701942294799 -0.33316849180853908 0 -0.23767629342545649 -0.34543668832237179 0 -0.23256444177491989 -0.33094616957720657 0 -0.25792701942294799 -0.33316849180853908 0 -0.24627262270589559 -0.3210583192788774 0 -0.23256444177491989 -0.33094616957720657 0 -0.24627262270589559 -0.3210583192788774 0 -0.23456795261945829 -0.31766601376298231 0 -0.23256444177491989 -0.33094616957720657 0 -0.24627262270589559 -0.3210583192788774 0 -0.23456795261945829 -0.31766601376298231 0 -0.24399705722251039 -0.31175949823066318 0 -0.2235643709466853 -0.3205747298078489 0 -0.23256444177491989 -0.33094616957720657 0 -0.21462916989388439 -0.33080282301282782 0 -0.2235643709466853 -0.3205747298078489 0 -0.20535327809577511 -0.31703162380887151 0 -0.23093596228172411 -0.3065005345325611 0 -0.23456795261945829 -0.31766601376298231 0 -0.2235643709466853 -0.3205747298078489 0 -0.23093596228172411 -0.3065005345325611 0 -0.23456795261945829 -0.31766601376298231 0 -0.2235643709466853 -0.3205747298078489 0 -0.23256444177491989 -0.33094616957720657 0 -0.23256444177491989 -0.33094616957720657 0 -0.21462916989388439 -0.33080282301282782 0 -0.21571535310111661 -0.34890674183915099 0 -0.23767629342545649 -0.34543668832237179 0 -0.23256444177491989 -0.33094616957720657 0 -0.21571535310111661 -0.34890674183915099 0 -0.21462916989388439 -0.33080282301282782 0 -0.19704710960370089 -0.33352164021142039 0 -0.21571535310111661 -0.34890674183915099 0 -0.21462916989388439 -0.33080282301282782 0 -0.20535327809577511 -0.31703162380887151 0 -0.19704710960370089 -0.33352164021142039 0 -0.2235643709466853 -0.3205747298078489 0 -0.21462916989388439 -0.33080282301282782 0 -0.20535327809577511 -0.31703162380887151 0 -0.20535327809577511 -0.31703162380887151 0 -0.19704710960370089 -0.33352164021142039 0 -0.179770593909826 -0.32756271308518181 0 -0.20535327809577511 -0.31703162380887151 0 -0.179770593909826 -0.32756271308518181 0 -0.20535327809577511 -0.31703162380887151 0 -0.1867374130007903 -0.30452120294841267 0 -0.179770593909826 -0.32756271308518181 0 -0.19704710960370089 -0.33352164021142039 0 -0.19333814233855501 -0.3582673578751267 0 -0.18102572718441851 -0.34001088156512888 0 -0.19704710960370089 -0.33352164021142039 0 -0.19333814233855501 -0.3582673578751267 0 -0.21571535310111661 -0.34890674183915099 0 -0.18335101669183779 -0.3812057525156472 0 -0.20123823672103289 -0.38014331815247282 0 -0.19333814233855501 -0.3582673578751267 0 -0.20123823672103289 -0.38014331815247282 0 -0.19333814233855501 -0.3582673578751267 0 -0.217226406021896 -0.37045194409949239 0 -0.19333814233855501 -0.3582673578751267 0 -0.217226406021896 -0.37045194409949239 0 -0.21571535310111661 -0.34890674183915099 0 -0.2249129292632864 -0.26513074351846949 0 -0.234398189469262 -0.25214845472677339 0 -0.21978578570267129 -0.24479074222682279 0 -0.2249129292632864 -0.26513074351846949 0 -0.24369437200891481 -0.26294335837935368 0 -0.234398189469262 -0.25214845472677339 0 -0.2249129292632864 -0.26513074351846949 0 -0.21277857210478801 -0.25724972204334928 0 -0.21978578570267129 -0.24479074222682279 0 -0.24369437200891481 -0.26294335837935368 0 -0.234398189469262 -0.25214845472677339 0 -0.2483468260877667 -0.24670177710050209 0 -0.2249129292632864 -0.26513074351846949 0 -0.24369437200891481 -0.26294335837935368 0 -0.23781880050240509 -0.28157483844275699 0 -0.25513199288332411 -0.27448597803447933 0 -0.24369437200891481 -0.26294335837935368 0 -0.23781880050240509 -0.28157483844275699 0 -0.2249129292632864 -0.26513074351846949 0 -0.23781880050240509 -0.28157483844275699 0 -0.2186235232673136 -0.2852015087454009 0 -0.23781880050240509 -0.28157483844275699 0 -0.24227742392426271 -0.29959137744143183 0 -0.2186235232673136 -0.2852015087454009 0 -0.24227742392426271 -0.29959137744143183 0 -0.2186235232673136 -0.2852015087454009 0 -0.25708798134836952 -0.29160350062106721 0 -0.23781880050240509 -0.28157483844275699 0 -0.24227742392426271 -0.29959137744143183 0 -0.23456795261945829 -0.31766601376298231 0 -0.24399705722251039 -0.31175949823066318 0 -0.23093596228172411 -0.3065005345325611 0 -0.24227742392426271 -0.29959137744143183 0 -0.24399705722251039 -0.31175949823066318 0 -0.23093596228172411 -0.3065005345325611 0 -0.24227742392426271 -0.29959137744143183 0 -0.23093596228172411 -0.3065005345325611 0 -0.2186235232673136 -0.2852015087454009 0 -0.23093596228172411 -0.3065005345325611 0 -0.2139098406754662 -0.30096465562103542 0 -0.2186235232673136 -0.2852015087454009 0 -0.20535327809577511 -0.31703162380887151 0 -0.2139098406754662 -0.30096465562103542 0 -0.1998890726099633 -0.29111635835828098 0 -0.20535327809577511 -0.31703162380887151 0 -0.23093596228172411 -0.3065005345325611 0 -0.2139098406754662 -0.30096465562103542 0 -0.20535327809577511 -0.31703162380887151 0 -0.23093596228172411 -0.3065005345325611 0 -0.20535327809577511 -0.31703162380887151 0 -0.1998890726099633 -0.29111635835828098 0 -0.1867374130007903 -0.30452120294841267 0 -0.1998890726099633 -0.29111635835828098 0 -0.1949696226103643 -0.27081164004936992 0 -0.18617063966443559 -0.28434103840972619 0 -0.1998890726099633 -0.29111635835828098 0 -0.18617063966443559 -0.28434103840972619 0 -0.1867374130007903 -0.30452120294841267 0 -0.1998890726099633 -0.29111635835828098 0 -0.2186235232673136 -0.2852015087454009 0 -0.1949696226103643 -0.27081164004936992 0 -0.2139098406754662 -0.30096465562103542 0 -0.1998890726099633 -0.29111635835828098 0 -0.2186235232673136 -0.2852015087454009 0 -0.2186235232673136 -0.2852015087454009 0 -0.1949696226103643 -0.27081164004936992 0 -0.2186235232673136 -0.2852015087454009 0 -0.2112926499809118 -0.26763186227899838 0 -0.1949696226103643 -0.27081164004936992 0 -0.2249129292632864 -0.26513074351846949 0 -0.2186235232673136 -0.2852015087454009 0 -0.2112926499809118 -0.26763186227899838 0 -0.2112926499809118 -0.26763186227899838 0 -0.1949696226103643 -0.27081164004936992 0 -0.2022508905064806 -0.26073370432659382 0 -0.2022508905064806 -0.26073370432659382 0 -0.1788047671982789 -0.25746564027792762 0 -0.1919820056061752 -0.24866694914454751 0 -0.2022508905064806 -0.26073370432659382 0 -0.1788047671982789 -0.25746564027792762 0 -0.1949696226103643 -0.27081164004936992 0 -0.2022508905064806 -0.26073370432659382 0 -0.1787311889223008 -0.25952123097563079 0 -0.2022508905064806 -0.26073370432659382 0 -0.20565060507058999 -0.2479615578658618 0 -0.1919820056061752 -0.24866694914454751 0 -0.2022508905064806 -0.26073370432659382 0 -0.21277857210478801 -0.25724972204334928 0 -0.20565060507058999 -0.2479615578658618 0 -0.2112926499809118 -0.26763186227899838 0 -0.2022508905064806 -0.26073370432659382 0 -0.21277857210478801 -0.25724972204334928 0 -0.2249129292632864 -0.26513074351846949 0 -0.2112926499809118 -0.26763186227899838 0 -0.21277857210478801 -0.25724972204334928 0 -0.21277857210478801 -0.25724972204334928 0 -0.20565060507058999 -0.2479615578658618 0 -0.21978578570267129 -0.24479074222682279 0 -0.16555693033609031 -0.25561907576051202 0 -0.1483751555864386 -0.25322417492281102 0 -0.16555693033609031 -0.25561907576051202 0 -0.1483751555864386 -0.25322417492281102 0 -0.15845336225840409 -0.24859694491914161 0 -0.16555693033609031 -0.25561907576051202 0 -0.16677071226738061 -0.25365681120774819 0 -0.15845336225840409 -0.24859694491914161 0 -0.16677071226738061 -0.25365681120774819 0 -0.15845336225840409 -0.24859694491914161 0 -0.17131572195341579 -0.2564217713533376 0 -0.16555693033609031 -0.25561907576051202 0 -0.17244510792259371 -0.26538286052072479 0 -0.16555693033609031 -0.25561907576051202 0 -0.17244510792259371 -0.26538286052072479 0 -0.16655454190856689 -0.26952093780149139 0 -0.17131572195341579 -0.2564217713533376 0 -0.16677071226738061 -0.25365681120774819 0 -0.17131572195341579 -0.2564217713533376 0 -0.16677071226738061 -0.25365681120774819 0 -0.17444109585231091 -0.2412564603483803 0 -0.17131572195341579 -0.2564217713533376 0 -0.16555693033609031 -0.25561907576051202 0 -0.17131572195341579 -0.2564217713533376 0 -0.16555693033609031 -0.25561907576051202 0 -0.16677071226738061 -0.25365681120774819 0 -0.16555693033609031 -0.25561907576051202 0 -0.16677071226738061 -0.25365681120774819 0 -0.2022508905064806 -0.26073370432659382 0 -0.1788047671982789 -0.25746564027792762 0 -0.1787311889223008 -0.25952123097563079 0 -0.1949696226103643 -0.27081164004936992 0 -0.17131572195341579 -0.2564217713533376 0 -0.18069048994711359 -0.26915991169565728 0 -0.1949696226103643 -0.27081164004936992 0 -0.17131572195341579 -0.2564217713533376 0 -0.1787311889223008 -0.25952123097563079 0 -0.17131572195341579 -0.2564217713533376 0 -0.1788047671982789 -0.25746564027792762 0 -0.17444109585231091 -0.2412564603483803 0 -0.1949696226103643 -0.27081164004936992 0 -0.17131572195341579 -0.2564217713533376 0 -0.17131572195341579 -0.2564217713533376 0 -0.1788047671982789 -0.25746564027792762 0 -0.17131572195341579 -0.2564217713533376 0 -0.1788047671982789 -0.25746564027792762 0 -0.1787311889223008 -0.25952123097563079 0 -0.17131572195341579 -0.2564217713533376 0 -0.17244510792259371 -0.26538286052072479 0 -0.18069048994711359 -0.26915991169565728 0 -0.1788047671982789 -0.25746564027792762 0 -0.1787311889223008 -0.25952123097563079 0 -0.17244510792259371 -0.26538286052072479 0 -0.18069048994711359 -0.26915991169565728 0 -0.17508300659927609 -0.28054465255992389 0 -0.1949696226103643 -0.27081164004936992 0 -0.18069048994711359 -0.26915991169565728 0 -0.18617063966443559 -0.28434103840972619 0 -0.18069048994711359 -0.26915991169565728 0 -0.17508300659927609 -0.28054465255992389 0 -0.18617063966443559 -0.28434103840972619 0 -0.16555693033609031 -0.25561907576051202 0 -0.15294487971856069 -0.27600838888703011 0 -0.17508300659927609 -0.28054465255992389 0 -0.16655454190856689 -0.26952093780149139 0 -0.15294487971856069 -0.27600838888703011 0 -0.17508300659927609 -0.28054465255992389 0 -0.1624576465082106 -0.28640402103727719 0 -0.15294487971856069 -0.27600838888703011 0 -0.16555693033609031 -0.25561907576051202 0 -0.16655454190856689 -0.26952093780149139 0 -0.15294487971856069 -0.27600838888703011 0 -0.17508300659927609 -0.28054465255992389 0 -0.15294487971856069 -0.27600838888703011 0 -0.17244510792259371 -0.26538286052072479 0 -0.17508300659927609 -0.28054465255992389 0 -0.16655454190856689 -0.26952093780149139 0 -0.1624576465082106 -0.28640402103727719 0 -0.1612920494038346 -0.30195190961163809 0 -0.1497962277106572 -0.29081339194827138 0 -0.1624576465082106 -0.28640402103727719 0 -0.17437717083932949 -0.29428980521607168 0 -0.1612920494038346 -0.30195190961163809 0 -0.17508300659927609 -0.28054465255992389 0 -0.1624576465082106 -0.28640402103727719 0 -0.17437717083932949 -0.29428980521607168 0 -0.17508300659927609 -0.28054465255992389 0 -0.18617063966443559 -0.28434103840972619 0 -0.17437717083932949 -0.29428980521607168 0 -0.18617063966443559 -0.28434103840972619 0 -0.17437717083932949 -0.29428980521607168 0 -0.1867374130007903 -0.30452120294841267 0 -0.17437717083932949 -0.29428980521607168 0 -0.1867374130007903 -0.30452120294841267 0 -0.17232349386785589 -0.30980823188335188 0 -0.17232349386785589 -0.30980823188335188 0 -0.1612920494038346 -0.30195190961163809 0 -0.16105020430837941 -0.31924672814491728 0 -0.1612920494038346 -0.30195190961163809 0 -0.1466247412903332 -0.30429304124932338 0 -0.16105020430837941 -0.31924672814491728 0 -0.17437717083932949 -0.29428980521607168 0 -0.17232349386785589 -0.30980823188335188 0 -0.1612920494038346 -0.30195190961163809 0 -0.1612920494038346 -0.30195190961163809 0 -0.1466247412903332 -0.30429304124932338 0 -0.1497962277106572 -0.29081339194827138 0 -0.12810749051203341 -0.30647622405821667 0 -0.13514212453672511 -0.29482263686292137 0 -0.1179537143652763 -0.29258218609846842 0 -0.1466247412903332 -0.30429304124932338 0 -0.12810749051203341 -0.30647622405821667 0 -0.14153083199836469 -0.31844482065653001 0 -0.1466247412903332 -0.30429304124932338 0 -0.12810749051203341 -0.30647622405821667 0 -0.13514212453672511 -0.29482263686292137 0 -0.13514212453672511 -0.29482263686292137 0 -0.12957604585634469 -0.28386838998949399 0 -0.1179537143652763 -0.29258218609846842 0 -0.13514212453672511 -0.29482263686292137 0 -0.1179537143652763 -0.29258218609846842 0 -0.13514212453672511 -0.29482263686292137 0 -0.12957604585634469 -0.28386838998949399 0 -0.14165376500057661 -0.28160886421773917 0 -0.14165376500057661 -0.28160886421773917 0 -0.1497962277106572 -0.29081339194827138 0 -0.14870752354462541 -0.28218443559448259 0 -0.13514212453672511 -0.29482263686292137 0 -0.14165376500057661 -0.28160886421773917 0 -0.1497962277106572 -0.29081339194827138 0 -0.1466247412903332 -0.30429304124932338 0 -0.13514212453672511 -0.29482263686292137 0 -0.1497962277106572 -0.29081339194827138 0 -0.1624576465082106 -0.28640402103727719 0 -0.15322781583488301 -0.28232662856583168 0 -0.15294487971856069 -0.27600838888703011 0 -0.1497962277106572 -0.29081339194827138 0 -0.15322781583488301 -0.28232662856583168 0 -0.14870752354462541 -0.28218443559448259 0 -0.1624576465082106 -0.28640402103727719 0 -0.1497962277106572 -0.29081339194827138 0 -0.15322781583488301 -0.28232662856583168 0 -0.15294487971856069 -0.27600838888703011 0 -0.13420930821660171 -0.27216933362941298 0 -0.14660214400164659 -0.26355963996941417 0 -0.14165376500057661 -0.28160886421773917 0 -0.15294487971856069 -0.27600838888703011 0 -0.13420930821660171 -0.27216933362941298 0 -0.15294487971856069 -0.27600838888703011 0 -0.13420930821660171 -0.27216933362941298 0 -0.15322781583488301 -0.28232662856583168 0 -0.14870752354462541 -0.28218443559448259 0 -0.15294487971856069 -0.27600838888703011 0 -0.14165376500057661 -0.28160886421773917 0 -0.14870752354462541 -0.28218443559448259 0 -0.15294487971856069 -0.27600838888703011 0 -0.12957604585634469 -0.28386838998949399 0 -0.13420930821660171 -0.27216933362941298 0 -0.11803180414177911 -0.27967295107608459 0 -0.12957604585634469 -0.28386838998949399 0 -0.14165376500057661 -0.28160886421773917 0 -0.13420930821660171 -0.27216933362941298 0 -0.13420930821660171 -0.27216933362941298 0 -0.13192444615054111 -0.26077722664730452 0 -0.1154737367146428 -0.26833027837179618 0 -0.13420930821660171 -0.27216933362941298 0 -0.13192444615054111 -0.26077722664730452 0 -0.14660214400164659 -0.26355963996941417 0 -0.13192444615054111 -0.26077722664730452 0 -0.1483751555864386 -0.25322417492281102 0 -0.1483751555864386 -0.25322417492281102 0 -0.12299439152227851 -0.24968644881451429 0 -0.13192444615054111 -0.26077722664730452 0 -0.13019383987934591 -0.25527922225530869 0 -0.1483751555864386 -0.25322417492281102 0 -0.13019383987934591 -0.25527922225530869 0 -0.1483751555864386 -0.25322417492281102 0 -0.12299439152227851 -0.24968644881451429 0 -0.13192444615054111 -0.26077722664730452 0 -0.13019383987934591 -0.25527922225530869 0 -0.12327246693702661 -0.25860308091611311 0 -0.13019383987934591 -0.25527922225530869 0 -0.1238297159623879 -0.25421046074079778 0 -0.12299439152227851 -0.24968644881451429 0 -0.13019383987934591 -0.25527922225530869 0 -0.1238297159623879 -0.25421046074079778 0 -0.12327246693702661 -0.25860308091611311 0 -0.16555693033609031 -0.25561907576051202 0 -0.1483751555864386 -0.25322417492281102 0 -0.14660214400164659 -0.26355963996941417 0 -0.13192444615054111 -0.26077722664730452 0 -0.1483751555864386 -0.25322417492281102 0 -0.14660214400164659 -0.26355963996941417 0 -0.16555693033609031 -0.25561907576051202 0 -0.15294487971856069 -0.27600838888703011 0 -0.14660214400164659 -0.26355963996941417 0 -0.1483751555864386 -0.25322417492281102 0 -0.15845336225840409 -0.24859694491914161 0 -0.1641278598919699 -0.35149132152700951 0 -0.17280484408095151 -0.36622211474442351 0 -0.14849295857863279 -0.36163848743699351 0 -0.15321505093502541 -0.37787944056700662 0 -0.17280484408095151 -0.36622211474442351 0 -0.14849295857863279 -0.36163848743699351 0 -0.18335101669183779 -0.3812057525156472 0 -0.19333814233855501 -0.3582673578751267 0 -0.17280484408095151 -0.36622211474442351 0 -0.19333814233855501 -0.3582673578751267 0 -0.17280484408095151 -0.36622211474442351 0 -0.18102572718441851 -0.34001088156512888 0 -0.1641278598919699 -0.35149132152700951 0 -0.17280484408095151 -0.36622211474442351 0 -0.18102572718441851 -0.34001088156512888 0 -0.17280484408095151 -0.36622211474442351 0 -0.18102572718441851 -0.34001088156512888 0 -0.19704710960370089 -0.33352164021142039 0 -0.18102572718441851 -0.34001088156512888 0 -0.179770593909826 -0.32756271308518181 0 -0.1867374130007903 -0.30452120294841267 0 -0.17232349386785589 -0.30980823188335188 0 -0.179770593909826 -0.32756271308518181 0 -0.17232349386785589 -0.30980823188335188 0 -0.179770593909826 -0.32756271308518181 0 -0.16105020430837941 -0.31924672814491728 0 -0.179770593909826 -0.32756271308518181 0 -0.154187909723877 -0.33809380236149222 0 -0.1641278598919699 -0.35149132152700951 0 -0.18102572718441851 -0.34001088156512888 0 -0.154187909723877 -0.33809380236149222 0 -0.18102572718441851 -0.34001088156512888 0 -0.179770593909826 -0.32756271308518181 0 -0.154187909723877 -0.33809380236149222 0 -0.179770593909826 -0.32756271308518181 0 -0.16105020430837941 -0.31924672814491728 0 -0.154187909723877 -0.33809380236149222 0 -0.154187909723877 -0.33809380236149222 0 -0.12860522553792769 -0.34862489163780258 0 -0.154187909723877 -0.33809380236149222 0 -0.14153083199836469 -0.31844482065653001 0 -0.13460838587011539 -0.33164345574372001 0 -0.1466247412903332 -0.30429304124932338 0 -0.16105020430837941 -0.31924672814491728 0 -0.14153083199836469 -0.31844482065653001 0 -0.16105020430837941 -0.31924672814491728 0 -0.154187909723877 -0.33809380236149222 0 -0.14153083199836469 -0.31844482065653001 0 -0.14153083199836469 -0.31844482065653001 0 -0.13460838587011539 -0.33164345574372001 0 -0.11781007259933279 -0.32164305590152492 0 -0.12810749051203341 -0.30647622405821667 0 -0.14153083199836469 -0.31844482065653001 0 -0.11781007259933279 -0.32164305590152492 0 -0.13460838587011539 -0.33164345574372001 0 -0.12860522553792769 -0.34862489163780258 0 -0.11781007259933279 -0.32164305590152492 0 -0.154187909723877 -0.33809380236149222 0 -0.13460838587011539 -0.33164345574372001 0 -0.12860522553792769 -0.34862489163780258 0 -0.1641278598919699 -0.35149132152700951 0 -0.154187909723877 -0.33809380236149222 0 -0.14849295857863279 -0.36163848743699351 0 -0.154187909723877 -0.33809380236149222 0 -0.12860522553792769 -0.34862489163780258 0 -0.14849295857863279 -0.36163848743699351 0 -0.15321505093502541 -0.37787944056700662 0 -0.1351051062916532 -0.37998381608038578 0 -0.14849295857863279 -0.36163848743699351 0 -0.12860522553792769 -0.34862489163780258 0 -0.14849295857863279 -0.36163848743699351 0 -0.1216493057553388 -0.36805364158635689 0 -0.1351051062916532 -0.37998381608038578 0 -0.14849295857863279 -0.36163848743699351 0 -0.1216493057553388 -0.36805364158635689 0 -0.1216493057553388 -0.36805364158635689 0 -0.10302254135197859 -0.35915598091411288 0 -0.1100341500844285 -0.38127356203782381 0 -0.10302254135197859 -0.35915598091411288 0 -0.1100341500844285 -0.38127356203782381 0 -0.094417510917414016 -0.38317459984341867 0 -0.10302254135197859 -0.35915598091411288 0 -0.1037270401820601 -0.33523978344281019 0 -0.087321653022158968 -0.33873010444274149 0 -0.12860522553792769 -0.34862489163780258 0 -0.10302254135197859 -0.35915598091411288 0 -0.1037270401820601 -0.33523978344281019 0 -0.12860522553792769 -0.34862489163780258 0 -0.1216493057553388 -0.36805364158635689 0 -0.10302254135197859 -0.35915598091411288 0 -0.12860522553792769 -0.34862489163780258 0 -0.10302254135197859 -0.35915598091411288 0 -0.12860522553792769 -0.34862489163780258 0 -0.11781007259933279 -0.32164305590152492 0 -0.1037270401820601 -0.33523978344281019 0 -0.11781007259933279 -0.32164305590152492 0 -0.10178294649758821 -0.31877447658633179 0 -0.10958345828216839 -0.3070716035805322 0 -0.11781007259933279 -0.32164305590152492 0 -0.10178294649758821 -0.31877447658633179 0 -0.1037270401820601 -0.33523978344281019 0 -0.10178294649758821 -0.31877447658633179 0 -0.1037270401820601 -0.33523978344281019 0 -0.084941006218310744 -0.32316471489318871 0 -0.1037270401820601 -0.33523978344281019 0 -0.087321653022158968 -0.33873010444274149 0 -0.084941006218310744 -0.32316471489318871 0 -0.087321653022158968 -0.33873010444274149 0 -0.084941006218310744 -0.32316471489318871 0 -0.071690417376959026 -0.33230148012328958 0 -0.087321653022158968 -0.33873010444274149 0 -0.071690417376959026 -0.33230148012328958 0 -0.077387585693331942 -0.35305291340557382 0 -0.10178294649758821 -0.31877447658633179 0 -0.084941006218310744 -0.32316471489318871 0 -0.092853155206069252 -0.3067532251136032 0 -0.084941006218310744 -0.32316471489318871 0 -0.092853155206069252 -0.3067532251136032 0 -0.084941006218310744 -0.32316471489318871 0 -0.092853155206069252 -0.3067532251136032 0 -0.071598766257318619 -0.31170468267346391 0 -0.084941006218310744 -0.32316471489318871 0 -0.071690417376959026 -0.33230148012328958 0 -0.071598766257318619 -0.31170468267346391 0 -0.071690417376959026 -0.33230148012328958 0 -0.071598766257318619 -0.31170468267346391 0 -0.053852765752708788 -0.32370909014396038 0 -0.071690417376959026 -0.33230148012328958 0 -0.077387585693331942 -0.35305291340557382 0 -0.059988781294164219 -0.34443049784195479 0 -0.077387585693331942 -0.35305291340557382 0 -0.062864246052430808 -0.37092917749799231 0 -0.059988781294164219 -0.34443049784195479 0 -0.077387585693331942 -0.35305291340557382 0 -0.062864246052430808 -0.37092917749799231 0 -0.080538891866247464 -0.37347976891145163 0 -0.10302254135197859 -0.35915598091411288 0 -0.077387585693331942 -0.35305291340557382 0 -0.080538891866247464 -0.37347976891145163 0 -0.10302254135197859 -0.35915598091411288 0 -0.080538891866247464 -0.37347976891145163 0 -0.094417510917414016 -0.38317459984341867 0 -0.10302254135197859 -0.35915598091411288 0 -0.087321653022158968 -0.33873010444274149 0 -0.077387585693331942 -0.35305291340557382 0 -0.1117455546609591 -0.26756634667571277 0 -0.08575059305818214 -0.26223978943659809 0 -0.099781053319634105 -0.2598618641048262 0 -0.1117455546609591 -0.26756634667571277 0 -0.08575059305818214 -0.26223978943659809 0 -0.099781053319634105 -0.2598618641048262 0 -0.089537996638064749 -0.25029171891982521 0 -0.1010034765090346 -0.24844173791520191 0 -0.099781053319634105 -0.2598618641048262 0 -0.1075847568092468 -0.26024848169510079 0 -0.1117455546609591 -0.26756634667571277 0 -0.099781053319634105 -0.2598618641048262 0 -0.1075847568092468 -0.26024848169510079 0 -0.1060513725854416 -0.25487129971591821 0 -0.1060513725854416 -0.25487129971591821 0 -0.1114590930870898 -0.25660878757765132 0 -0.1102891706316249 -0.24875416485820759 0 -0.1075847568092468 -0.26024848169510079 0 -0.1060513725854416 -0.25487129971591821 0 -0.1114590930870898 -0.25660878757765132 0 -0.099781053319634105 -0.2598618641048262 0 -0.1060513725854416 -0.25487129971591821 0 -0.1010034765090346 -0.24844173791520191 0 -0.1060513725854416 -0.25487129971591821 0 -0.1102891706316249 -0.24875416485820759 0 -0.1010034765090346 -0.24844173791520191 0 -0.13192444615054111 -0.26077722664730452 0 -0.1154737367146428 -0.26833027837179618 0 -0.13192444615054111 -0.26077722664730452 0 -0.12327246693702661 -0.25860308091611311 0 -0.1154737367146428 -0.26833027837179618 0 -0.1114590930870898 -0.25660878757765132 0 -0.1200835581443566 -0.25027154356196418 0 -0.1102891706316249 -0.24875416485820759 0 -0.1200835581443566 -0.25027154356196418 0 -0.1195754369593158 -0.25606711719023728 0 -0.1117455546609591 -0.26756634667571277 0 -0.1114590930870898 -0.25660878757765132 0 -0.1200835581443566 -0.25027154356196418 0 -0.1117455546609591 -0.26756634667571277 0 -0.1200835581443566 -0.25027154356196418 0 -0.1117455546609591 -0.26756634667571277 0 -0.1200835581443566 -0.25027154356196418 0 -0.1195754369593158 -0.25606711719023728 0 -0.1220310933209116 -0.25242727473769822 0 -0.1195754369593158 -0.25606711719023728 0 -0.1238297159623879 -0.25421046074079778 0 -0.1220310933209116 -0.25242727473769822 0 -0.1195754369593158 -0.25606711719023728 0 -0.1238297159623879 -0.25421046074079778 0 -0.12327246693702661 -0.25860308091611311 0 -0.1238297159623879 -0.25421046074079778 0 -0.1220310933209116 -0.25242727473769822 0 -0.12299439152227851 -0.24968644881451429 0 -0.1200835581443566 -0.25027154356196418 0 -0.1220310933209116 -0.25242727473769822 0 -0.12299439152227851 -0.24968644881451429 0 -0.12327246693702661 -0.25860308091611311 0 -0.1175167988179861 -0.26264170578846452 0 -0.1154737367146428 -0.26833027837179618 0 -0.1195754369593158 -0.25606711719023728 0 -0.12327246693702661 -0.25860308091611311 0 -0.1175167988179861 -0.26264170578846452 0 -0.1195754369593158 -0.25606711719023728 0 -0.1175167988179861 -0.26264170578846452 0 -0.1117455546609591 -0.26756634667571277 0 -0.1075847568092468 -0.26024848169510079 0 -0.1114590930870898 -0.25660878757765132 0 -0.1117455546609591 -0.26756634667571277 0 -0.1117455546609591 -0.26756634667571277 0 -0.110212715503982 -0.27074578303332031 0 -0.1154737367146428 -0.26833027837179618 0 -0.13420930821660171 -0.27216933362941298 0 -0.1154737367146428 -0.26833027837179618 0 -0.110212715503982 -0.27074578303332031 0 -0.1154737367146428 -0.26833027837179618 0 -0.11803180414177911 -0.27967295107608459 0 -0.13420930821660171 -0.27216933362941298 0 -0.1154737367146428 -0.26833027837179618 0 -0.11803180414177911 -0.27967295107608459 0 -0.110212715503982 -0.27074578303332031 0 -0.11803180414177911 -0.27967295107608459 0 -0.1007653041938272 -0.29034173533401741 0 -0.1117455546609591 -0.26756634667571277 0 -0.110212715503982 -0.27074578303332031 0 -0.110212715503982 -0.27074578303332031 0 -0.1154737367146428 -0.26833027837179618 0 -0.1175167988179861 -0.26264170578846452 0 -0.1117455546609591 -0.26756634667571277 0 -0.1154737367146428 -0.26833027837179618 0 -0.1117455546609591 -0.26756634667571277 0 -0.1154737367146428 -0.26833027837179618 0 -0.110212715503982 -0.27074578303332031 0 -0.092546781188284188 -0.27885678372711481 0 -0.08575059305818214 -0.26223978943659809 0 -0.110212715503982 -0.27074578303332031 0 -0.1007653041938272 -0.29034173533401741 0 -0.092546781188284188 -0.27885678372711481 0 -0.1117455546609591 -0.26756634667571277 0 -0.110212715503982 -0.27074578303332031 0 -0.08575059305818214 -0.26223978943659809 0 -0.110212715503982 -0.27074578303332031 0 -0.092546781188284188 -0.27885678372711481 0 -0.110212715503982 -0.27074578303332031 0 -0.1007653041938272 -0.29034173533401741 0 -0.1007653041938272 -0.29034173533401741 0 -0.1179537143652763 -0.29258218609846842 0 -0.1007653041938272 -0.29034173533401741 0 -0.1179537143652763 -0.29258218609846842 0 -0.10958345828216839 -0.3070716035805322 0 -0.11803180414177911 -0.27967295107608459 0 -0.1007653041938272 -0.29034173533401741 0 -0.1179537143652763 -0.29258218609846842 0 -0.12957604585634469 -0.28386838998949399 0 -0.11803180414177911 -0.27967295107608459 0 -0.1179537143652763 -0.29258218609846842 0 -0.12810749051203341 -0.30647622405821667 0 -0.11781007259933279 -0.32164305590152492 0 -0.10958345828216839 -0.3070716035805322 0 -0.12810749051203341 -0.30647622405821667 0 -0.1179537143652763 -0.29258218609846842 0 -0.10958345828216839 -0.3070716035805322 0 -0.10178294649758821 -0.31877447658633179 0 -0.10958345828216839 -0.3070716035805322 0 -0.092853155206069252 -0.3067532251136032 0 -0.1007653041938272 -0.29034173533401741 0 -0.10958345828216839 -0.3070716035805322 0 -0.092853155206069252 -0.3067532251136032 0 -0.1007653041938272 -0.29034173533401741 0 -0.092853155206069252 -0.3067532251136032 0 -0.092853155206069252 -0.3067532251136032 0 -0.071598766257318619 -0.31170468267346391 0 -0.074880846872585838 -0.28696778442090809 0 -0.071598766257318619 -0.31170468267346391 0 -0.074880846872585838 -0.28696778442090809 0 -0.052182607203894019 -0.29738927894311229 0 -0.068945024282875828 -0.28438608064580562 0 -0.074880846872585838 -0.28696778442090809 0 -0.058267589014556358 -0.28480230280295638 0 -0.074880846872585838 -0.28696778442090809 0 -0.052182607203894019 -0.29738927894311229 0 -0.074880846872585838 -0.28696778442090809 0 -0.058267589014556358 -0.28480230280295638 0 -0.068945024282875828 -0.28438608064580562 0 -0.074880846872585838 -0.28696778442090809 0 -0.077152034188336951 -0.27664369750822521 0 -0.1007653041938272 -0.29034173533401741 0 -0.074880846872585838 -0.28696778442090809 0 -0.092546781188284188 -0.27885678372711481 0 -0.1007653041938272 -0.29034173533401741 0 -0.074880846872585838 -0.28696778442090809 0 -0.074880846872585838 -0.28696778442090809 0 -0.092546781188284188 -0.27885678372711481 0 -0.1007653041938272 -0.29034173533401741 0 -0.092853155206069252 -0.3067532251136032 0 -0.074880846872585838 -0.28696778442090809 0 -0.074880846872585838 -0.28696778442090809 0 -0.092546781188284188 -0.27885678372711481 0 -0.077152034188336951 -0.27664369750822521 0 -0.092546781188284188 -0.27885678372711481 0 -0.077152034188336951 -0.27664369750822521 0 -0.08575059305818214 -0.26223978943659809 0 -0.068945024282875828 -0.28438608064580562 0 -0.059755631455404988 -0.25691323219748369 0 -0.068945024282875828 -0.28438608064580562 0 -0.059755631455404988 -0.25691323219748369 0 -0.058821847608694473 -0.2729761895946865 0 -0.068945024282875828 -0.28438608064580562 0 -0.077152034188336951 -0.27664369750822521 0 -0.070935487071933992 -0.26844698657982841 0 -0.068945024282875828 -0.28438608064580562 0 -0.070935487071933992 -0.26844698657982841 0 -0.059755631455404988 -0.25691323219748369 0 -0.077152034188336951 -0.27664369750822521 0 -0.070935487071933992 -0.26844698657982841 0 -0.08575059305818214 -0.26223978943659809 0 -0.07637393942701047 -0.25111169802867211 0 -0.059755631455404988 -0.25691323219748369 0 -0.064649991064126097 -0.2424395968593327 0 -0.08575059305818214 -0.26223978943659809 0 -0.059755631455404988 -0.25691323219748369 0 -0.070935487071933992 -0.26844698657982841 0 -0.08575059305818214 -0.26223978943659809 0 -0.059755631455404988 -0.25691323219748369 0 -0.07637393942701047 -0.25111169802867211 0 -0.08575059305818214 -0.26223978943659809 0 -0.059755631455404988 -0.25691323219748369 0 -0.07637393942701047 -0.25111169802867211 0 -0.08575059305818214 -0.26223978943659809 0 -0.089537996638064749 -0.25029171891982521 0 -0.099781053319634105 -0.2598618641048262 0 -0.08575059305818214 -0.26223978943659809 0 -0.089537996638064749 -0.25029171891982521 0 -0.033925471559598207 -0.25988288336286081 0 -0.045650034501603522 -0.25307332536883509 0 -0.037194096020048667 -0.24615814040950751 0 -0.033925471559598207 -0.25988288336286081 0 -0.024170965573579461 -0.24951732615867561 0 -0.037194096020048667 -0.24615814040950751 0 -0.033925471559598207 -0.25988288336286081 0 -0.045165931987348577 -0.26224039109951952 0 -0.045650034501603522 -0.25307332536883509 0 -0.033925471559598207 -0.25988288336286081 0 -0.045165931987348577 -0.26224039109951952 0 -0.043418703961020953 -0.27187406747314202 0 -0.045650034501603522 -0.25307332536883509 0 -0.054574268323191143 -0.25585153309893799 0 -0.050923734615293752 -0.26023130727472171 0 -0.059755631455404988 -0.25691323219748369 0 -0.05479545082470301 -0.26379638539080907 0 -0.058821847608694473 -0.2729761895946865 0 -0.054574268323191143 -0.25585153309893799 0 -0.059755631455404988 -0.25691323219748369 0 -0.054574268323191143 -0.25585153309893799 0 -0.059755631455404988 -0.25691323219748369 0 -0.05479545082470301 -0.26379638539080907 0 -0.05479545082470301 -0.26379638539080907 0 -0.050923734615293752 -0.26023130727472171 0 -0.049950315466297732 -0.26585525532344928 0 -0.054574268323191143 -0.25585153309893799 0 -0.05479545082470301 -0.26379638539080907 0 -0.050923734615293752 -0.26023130727472171 0 -0.045165931987348577 -0.26224039109951952 0 -0.045650034501603522 -0.25307332536883509 0 -0.050923734615293752 -0.26023130727472171 0 -0.045165931987348577 -0.26224039109951952 0 -0.050923734615293752 -0.26023130727472171 0 -0.049950315466297732 -0.26585525532344928 0 -0.049950315466297732 -0.26585525532344928 0 -0.054046059015549749 -0.27076746433209609 0 -0.043418703961020953 -0.27187406747314202 0 -0.054046059015549749 -0.27076746433209609 0 -0.051241706151269689 -0.27661136907757727 0 -0.043418703961020953 -0.27187406747314202 0 -0.05479545082470301 -0.26379638539080907 0 -0.049950315466297732 -0.26585525532344928 0 -0.054046059015549749 -0.27076746433209609 0 -0.05479545082470301 -0.26379638539080907 0 -0.054046059015549749 -0.27076746433209609 0 -0.058821847608694473 -0.2729761895946865 0 -0.058821847608694473 -0.2729761895946865 0 -0.051241706151269689 -0.27661136907757727 0 -0.058267589014556358 -0.28480230280295638 0 -0.068945024282875828 -0.28438608064580562 0 -0.058821847608694473 -0.2729761895946865 0 -0.058267589014556358 -0.28480230280295638 0 -0.054046059015549749 -0.27076746433209609 0 -0.058821847608694473 -0.2729761895946865 0 -0.051241706151269689 -0.27661136907757727 0 -0.051241706151269689 -0.27661136907757727 0 -0.043418703961020953 -0.27187406747314202 0 -0.041654331156526898 -0.28263682118500522 0 -0.045165931987348577 -0.26224039109951952 0 -0.049950315466297732 -0.26585525532344928 0 -0.043418703961020953 -0.27187406747314202 0 -0.033925471559598207 -0.25988288336286081 0 -0.043418703961020953 -0.27187406747314202 0 -0.0281947683262209 -0.27488666795593769 0 -0.043418703961020953 -0.27187406747314202 0 -0.041654331156526898 -0.28263682118500522 0 -0.0281947683262209 -0.27488666795593769 0 -0.041654331156526898 -0.28263682118500522 0 -0.052182607203894019 -0.29738927894311229 0 -0.029160911972020229 -0.29129466554884542 0 -0.041654331156526898 -0.28263682118500522 0 -0.029160911972020229 -0.29129466554884542 0 -0.0281947683262209 -0.27488666795593769 0 -0.074880846872585838 -0.28696778442090809 0 -0.058267589014556358 -0.28480230280295638 0 -0.052182607203894019 -0.29738927894311229 0 -0.051241706151269689 -0.27661136907757727 0 -0.041654331156526898 -0.28263682118500522 0 -0.058267589014556358 -0.28480230280295638 0 -0.041654331156526898 -0.28263682118500522 0 -0.058267589014556358 -0.28480230280295638 0 -0.041654331156526898 -0.28263682118500522 0 -0.058267589014556358 -0.28480230280295638 0 -0.052182607203894019 -0.29738927894311229 0 -0.071598766257318619 -0.31170468267346391 0 -0.052182607203894019 -0.29738927894311229 0 -0.053852765752708788 -0.32370909014396038 0 -0.052182607203894019 -0.29738927894311229 0 -0.029484367535202009 -0.30781077346531599 0 -0.029160911972020229 -0.29129466554884542 0 -0.052182607203894019 -0.29738927894311229 0 -0.029484367535202009 -0.30781077346531599 0 -0.053852765752708788 -0.32370909014396038 0 -0.052182607203894019 -0.29738927894311229 0 -0.029484367535202009 -0.30781077346531599 0 -0.029484367535202009 -0.30781077346531599 0 -0.01335061878545442 -0.30013944469227732 0 -0.0067861278665100116 -0.31823226798751969 0 -0.029484367535202009 -0.30781077346531599 0 -0.01335061878545442 -0.30013944469227732 0 -0.029160911972020229 -0.29129466554884542 0 -0.01335061878545442 -0.30013944469227732 0 -0.0067861278665100116 -0.31823226798751969 0 0.0064242334297343467 -0.29596416480486287 0 -0.01335061878545442 -0.30013944469227732 0 -0.0096051494108007045 -0.28267180051718732 0 0.0064242334297343467 -0.29596416480486287 0 -0.01335061878545442 -0.30013944469227732 0 -0.0096051494108007045 -0.28267180051718732 0 -0.029160911972020229 -0.29129466554884542 0 -0.0096051494108007045 -0.28267180051718732 0 -0.029160911972020229 -0.29129466554884542 0 -0.0281947683262209 -0.27488666795593769 0 -0.0096051494108007045 -0.28267180051718732 0 -0.0281947683262209 -0.27488666795593769 0 -0.011198362974849069 -0.26002926692598732 0 -0.0096051494108007045 -0.28267180051718732 0 -0.011198362974849069 -0.26002926692598732 0 0.0083501829783922451 -0.27651919851405921 0 -0.011198362974849069 -0.26002926692598732 0 -0.0022516370053341471 -0.23545927786715129 0 0.01233219874044964 -0.25796139629811699 0 -0.033925471559598207 -0.25988288336286081 0 -0.011198362974849069 -0.26002926692598732 0 -0.024170965573579461 -0.24951732615867561 0 -0.033925471559598207 -0.25988288336286081 0 -0.0281947683262209 -0.27488666795593769 0 -0.011198362974849069 -0.26002926692598732 0 -0.032247257311874007 -0.35818776151130111 0 -0.051208705006446142 -0.35821773304279758 0 -0.03232527746627762 -0.33473361205785163 0 -0.032247257311874007 -0.35818776151130111 0 -0.051208705006446142 -0.35821773304279758 0 -0.038195030947134667 -0.3805858198552603 0 -0.051208705006446142 -0.35821773304279758 0 -0.038195030947134667 -0.3805858198552603 0 -0.062864246052430808 -0.37092917749799231 0 -0.051208705006446142 -0.35821773304279758 0 -0.038195030947134667 -0.3805858198552603 0 -0.059988781294164219 -0.34443049784195479 0 -0.051208705006446142 -0.35821773304279758 0 -0.03232527746627762 -0.33473361205785163 0 -0.062864246052430808 -0.37092917749799231 0 -0.059988781294164219 -0.34443049784195479 0 -0.051208705006446142 -0.35821773304279758 0 -0.059988781294164219 -0.34443049784195479 0 -0.053852765752708788 -0.32370909014396038 0 -0.03232527746627762 -0.33473361205785163 0 -0.071690417376959026 -0.33230148012328958 0 -0.059988781294164219 -0.34443049784195479 0 -0.053852765752708788 -0.32370909014396038 0 -0.029484367535202009 -0.30781077346531599 0 -0.053852765752708788 -0.32370909014396038 0 -0.03232527746627762 -0.33473361205785163 0 -0.03232527746627762 -0.33473361205785163 0 -0.0067154017777816969 -0.33441449113079758 0 -0.01553153923158963 -0.34948248451740149 0 -0.029484367535202009 -0.30781077346531599 0 -0.0067861278665100116 -0.31823226798751969 0 -0.029484367535202009 -0.30781077346531599 0 -0.03232527746627762 -0.33473361205785163 0 -0.0067861278665100116 -0.31823226798751969 0 -0.03232527746627762 -0.33473361205785163 0 -0.0067861278665100116 -0.31823226798751969 0 -0.0067154017777816969 -0.33441449113079758 0 -0.0067861278665100116 -0.31823226798751969 0 -0.0067154017777816969 -0.33441449113079758 0 0.009450680032491901 -0.33514053998728371 0 -0.0067154017777816969 -0.33441449113079758 0 -0.0015223315641915371 -0.34974098354736799 0 0.001547595890080177 -0.34062457432859128 0 -0.0015223315641915371 -0.34974098354736799 0 -0.01553153923158963 -0.34948248451740149 0 -0.0028135983845018649 -0.3602934208782837 0 -0.01553153923158963 -0.34948248451740149 0 -0.01607113328231928 -0.36444314667335143 0 -0.0028135983845018649 -0.3602934208782837 0 -0.0067154017777816969 -0.33441449113079758 0 -0.0015223315641915371 -0.34974098354736799 0 -0.01553153923158963 -0.34948248451740149 0 -0.032247257311874007 -0.35818776151130111 0 -0.03232527746627762 -0.33473361205785163 0 -0.01553153923158963 -0.34948248451740149 0 -0.032247257311874007 -0.35818776151130111 0 -0.01553153923158963 -0.34948248451740149 0 -0.01607113328231928 -0.36444314667335143 0 -0.032247257311874007 -0.35818776151130111 0 -0.01607113328231928 -0.36444314667335143 0 -0.038195030947134667 -0.3805858198552603 0 -0.01607113328231928 -0.36444314667335143 0 -0.0033357649270666289 -0.36992112802659999 0 -0.011201836655199859 -0.38375699468889612 0 -0.01607113328231928 -0.36444314667335143 0 -0.0028135983845018649 -0.3602934208782837 0 -0.0033357649270666289 -0.36992112802659999 0 -0.011201836655199859 -0.38375699468889612 0 0.0037804335083421962 -0.38963603693425308 0 0.0044794117490076267 -0.37804111952204511 0 -0.0033357649270666289 -0.36992112802659999 0 -0.011201836655199859 -0.38375699468889612 0 0.0044794117490076267 -0.37804111952204511 0 -0.011201836655199859 -0.38375699468889612 0 -0.0062166918575127291 -0.40030365906373799 0 -0.02518135688782314 -0.40295390666772313 0 -0.011201836655199859 -0.38375699468889612 0 -0.0062166918575127291 -0.40030365906373799 0 0.0037804335083421962 -0.38963603693425308 0 -0.011201836655199859 -0.38375699468889612 0 -0.02518135688782314 -0.40295390666772313 0 -0.038195030947134667 -0.3805858198552603 0 -0.01607113328231928 -0.36444314667335143 0 -0.011201836655199859 -0.38375699468889612 0 -0.038195030947134667 -0.3805858198552603 0 -0.02518135688782314 -0.40295390666772313 0 -0.038195030947134667 -0.3805858198552603 0 -0.02518135688782314 -0.40295390666772313 0 -0.038195030947134667 -0.3805858198552603 0 -0.047575046006752643 -0.40341458672500502 0 -0.038195030947134667 -0.3805858198552603 0 -0.047575046006752643 -0.40341458672500502 0 -0.06470246178541339 -0.38963121766116582 0 -0.047575046006752643 -0.40341458672500502 0 -0.06470246178541339 -0.38963121766116582 0 -0.064033204448350159 -0.40792732798015952 0 -0.062864246052430808 -0.37092917749799231 0 -0.038195030947134667 -0.3805858198552603 0 -0.06470246178541339 -0.38963121766116582 0 -0.049175303256925498 -0.42798142649656379 0 -0.059081053699328138 -0.43346108113793558 0 -0.051802223290213938 -0.4187753707550752 0 -0.049175303256925498 -0.42798142649656379 0 -0.059081053699328138 -0.43346108113793558 0 -0.046648946329487337 -0.4395613627963188 0 -0.059081053699328138 -0.43346108113793558 0 -0.064033204448350159 -0.40792732798015952 0 -0.059081053699328138 -0.43346108113793558 0 -0.051802223290213938 -0.4187753707550752 0 -0.064033204448350159 -0.40792732798015952 0 -0.047575046006752643 -0.40341458672500502 0 -0.051802223290213938 -0.4187753707550752 0 -0.064033204448350159 -0.40792732798015952 0 -0.02518135688782314 -0.40295390666772313 0 -0.047575046006752643 -0.40341458672500502 0 -0.03916898970867258 -0.42012789129692552 0 -0.047575046006752643 -0.40341458672500502 0 -0.051802223290213938 -0.4187753707550752 0 -0.03916898970867258 -0.42012789129692552 0 -0.03916898970867258 -0.42012789129692552 0 -0.035293062420194601 -0.4342881633313409 0 -0.02642320371975811 -0.42468956006573771 0 -0.049175303256925498 -0.42798142649656379 0 -0.03916898970867258 -0.42012789129692552 0 -0.046648946329487337 -0.4395613627963188 0 -0.03916898970867258 -0.42012789129692552 0 -0.035293062420194601 -0.4342881633313409 0 -0.046648946329487337 -0.4395613627963188 0 -0.03916898970867258 -0.42012789129692552 0 -0.046648946329487337 -0.4395613627963188 0 -0.049175303256925498 -0.42798142649656379 0 -0.051802223290213938 -0.4187753707550752 0 -0.03916898970867258 -0.42012789129692552 0 -0.02642320371975811 -0.42468956006573771 0 -0.021100569542598601 -0.43536288099148351 0 -0.026924380954839469 -0.43786950677017927 0 -0.035293062420194601 -0.4342881633313409 0 -0.02642320371975811 -0.42468956006573771 0 -0.026924380954839469 -0.43786950677017927 0 -0.02642320371975811 -0.42468956006573771 0 -0.021100569542598601 -0.43536288099148351 0 -0.012167682828512241 -0.42532199348018618 0 -0.02518135688782314 -0.40295390666772313 0 -0.012167682828512241 -0.42532199348018618 0 -0.02518135688782314 -0.40295390666772313 0 -0.03916898970867258 -0.42012789129692552 0 -0.02642320371975811 -0.42468956006573771 0 -0.02518135688782314 -0.40295390666772313 0 -0.02642320371975811 -0.42468956006573771 0 -0.012167682828512241 -0.42532199348018618 0 -0.0062166918575127291 -0.40030365906373799 0 -0.001240350368216776 -0.41636033696578151 0 -0.012167682828512241 -0.42532199348018618 0 -0.0062166918575127291 -0.40030365906373799 0 -0.001240350368216776 -0.41636033696578151 0 0.0039723761283745511 -0.40959269182397551 0 -0.0062166918575127291 -0.40030365906373799 0 -0.02518135688782314 -0.40295390666772313 0 -0.012167682828512241 -0.42532199348018618 0 -0.0062166918575127291 -0.40030365906373799 0 -0.012167682828512241 -0.42532199348018618 0 -0.00847544082220952 -0.43166827119954321 0 -0.003588703389994073 -0.42857839893847371 0 0.00096222214801448651 -0.44501303615862597 0 -0.00847544082220952 -0.43166827119954321 0 -0.012167682828512241 -0.42532199348018618 0 -0.0096419780424979624 -0.43889344112204648 0 -0.00847544082220952 -0.43166827119954321 0 -0.012167682828512241 -0.42532199348018618 0 -0.003588703389994073 -0.42857839893847371 0 -0.00847544082220952 -0.43166827119954321 0 -0.012167682828512241 -0.42532199348018618 0 -0.001240350368216776 -0.41636033696578151 0 -0.012167682828512241 -0.42532199348018618 0 -0.003588703389994073 -0.42857839893847371 0 -0.001240350368216776 -0.41636033696578151 0 -0.003588703389994073 -0.42857839893847371 0 0.0029090937296297561 -0.42498108175462468 0 -0.012167682828512241 -0.42532199348018618 0 -0.018887010667284571 -0.45357046364983061 0 -0.00847544082220952 -0.43166827119954321 0 -0.0096419780424979624 -0.43889344112204648 0 0.00096222214801448651 -0.44501303615862597 0 -0.0096419780424979624 -0.43889344112204648 0 -0.018887010667284571 -0.45357046364983061 0 0.00096222214801448651 -0.44501303615862597 0 -0.012167682828512241 -0.42532199348018618 0 -0.0096419780424979624 -0.43889344112204648 0 -0.018887010667284571 -0.45357046364983061 0 -0.01296115568987463 -0.46862901941050711 0 0.00096222214801448651 -0.44501303615862597 0 0.0075172732684439404 -0.46129266557249721 0 -0.01296115568987463 -0.46862901941050711 0 0.00096222214801448651 -0.44501303615862597 0 -0.01296115568987463 -0.46862901941050711 0 -0.018887010667284571 -0.45357046364983061 0 0.00096222214801448651 -0.44501303615862597 0 -0.018887010667284571 -0.45357046364983061 0 -0.025606338506055971 -0.48181893381947521 0 -0.018887010667284571 -0.45357046364983061 0 -0.029247168404879429 -0.45971372865164439 0 -0.025606338506055971 -0.48181893381947521 0 -0.01296115568987463 -0.46862901941050711 0 -0.018887010667284571 -0.45357046364983061 0 -0.025606338506055971 -0.48181893381947521 0 -0.018887010667284571 -0.45357046364983061 0 -0.029247168404879429 -0.45971372865164439 0 -0.029340619450048309 -0.44804591916194042 0 -0.021100569542598601 -0.43536288099148351 0 -0.012167682828512241 -0.42532199348018618 0 -0.018887010667284571 -0.45357046364983061 0 -0.018887010667284571 -0.45357046364983061 0 -0.029340619450048309 -0.44804591916194042 0 -0.026924380954839469 -0.43786950677017927 0 -0.021100569542598601 -0.43536288099148351 0 -0.018887010667284571 -0.45357046364983061 0 -0.026924380954839469 -0.43786950677017927 0 -0.029340619450048309 -0.44804591916194042 0 -0.026924380954839469 -0.43786950677017927 0 -0.03294519342348274 -0.44090645175369442 0 -0.010595794118598669 -0.48553800860270452 0 -0.024135614195470501 -0.50000000000000089 0 0.0035359825922742778 -0.5 0 -0.010595794118598669 -0.48553800860270452 0 0.0061881552061334782 -0.47724208978353999 0 0.0035359825922742778 -0.5 0 -0.01296115568987463 -0.46862901941050711 0 -0.010595794118598669 -0.48553800860270452 0 0.0061881552061334782 -0.47724208978353999 0 -0.029247168404879429 -0.45971372865164439 0 -0.025606338506055971 -0.48181893381947521 0 -0.032179162532159682 -0.47171110887565898 0 -0.01296115568987463 -0.46862901941050711 0 -0.010595794118598669 -0.48553800860270452 0 -0.025606338506055971 -0.48181893381947521 0 -0.024135614195470501 -0.50000000000000089 0 -0.032179162532159682 -0.47171110887565898 0 -0.010595794118598669 -0.48553800860270452 0 -0.025606338506055971 -0.48181893381947521 0 -0.024135614195470501 -0.50000000000000089 0 -0.025606338506055971 -0.48181893381947521 0 -0.024135614195470501 -0.50000000000000089 0 -0.032179162532159682 -0.47171110887565898 0 -0.046176144857849953 -0.500000000000002 0 -0.038654125050586782 -0.48561124030436892 0 -0.050152523904078213 -0.47949741714785699 0 -0.024135614195470501 -0.50000000000000089 0 -0.046176144857849953 -0.500000000000002 0 -0.038654125050586782 -0.48561124030436892 0 -0.024135614195470501 -0.50000000000000089 0 -0.038654125050586782 -0.48561124030436892 0 -0.032179162532159682 -0.47171110887565898 0 -0.038654125050586782 -0.48561124030436892 0 -0.041385808480044001 -0.47614878715026521 0 -0.050152523904078213 -0.47949741714785699 0 -0.038654125050586782 -0.48561124030436892 0 -0.032179162532159682 -0.47171110887565898 0 -0.041385808480044001 -0.47614878715026521 0 -0.032179162532159682 -0.47171110887565898 0 -0.041385808480044001 -0.47614878715026521 0 -0.044557422433351347 -0.46777538227317589 0 -0.041385808480044001 -0.47614878715026521 0 -0.050152523904078213 -0.47949741714785699 0 -0.044557422433351347 -0.46777538227317589 0 -0.050152523904078213 -0.47949741714785699 0 -0.054128902950304231 -0.45899483429571142 0 -0.050152523904078213 -0.47949741714785699 0 -0.044557422433351347 -0.46777538227317589 0 -0.054128902950304231 -0.45899483429571142 0 -0.060493581168670048 -0.47553073136432261 0 -0.050152523904078213 -0.47949741714785699 0 -0.054128902950304231 -0.45899483429571142 0 -0.060493581168670048 -0.47553073136432261 0 -0.050152523904078213 -0.47949741714785699 0 -0.057827101196006703 -0.48604724037565061 0 -0.060493581168670048 -0.47553073136432261 0 -0.057827101196006703 -0.48604724037565061 0 -0.066858259387038016 -0.49206662843293297 0 -0.046176144857849953 -0.500000000000002 0 -0.050152523904078213 -0.47949741714785699 0 -0.057827101196006703 -0.48604724037565061 0 -0.046176144857849953 -0.500000000000002 0 -0.057827101196006703 -0.48604724037565061 0 -0.066858259387038016 -0.49206662843293297 0 -0.046176144857849953 -0.500000000000002 0 -0.050152523904078213 -0.47949741714785699 0 -0.046176144857849953 -0.500000000000002 0 -0.071124492888865354 -0.5 0 -0.066858259387038016 -0.49206662843293297 0 -0.046648946329487337 -0.4395613627963188 0 -0.040222710868848599 -0.44342221775131702 0 -0.043547429022830243 -0.45629298119843648 0 -0.029247168404879429 -0.45971372865164439 0 -0.029340619450048309 -0.44804591916194042 0 -0.040222710868848599 -0.44342221775131702 0 -0.035293062420194601 -0.4342881633313409 0 -0.046648946329487337 -0.4395613627963188 0 -0.040222710868848599 -0.44342221775131702 0 -0.035293062420194601 -0.4342881633313409 0 -0.026924380954839469 -0.43786950677017927 0 -0.03294519342348274 -0.44090645175369442 0 -0.035293062420194601 -0.4342881633313409 0 -0.040222710868848599 -0.44342221775131702 0 -0.03294519342348274 -0.44090645175369442 0 -0.029340619450048309 -0.44804591916194042 0 -0.040222710868848599 -0.44342221775131702 0 -0.03294519342348274 -0.44090645175369442 0 -0.029247168404879429 -0.45971372865164439 0 -0.032179162532159682 -0.47171110887565898 0 -0.040222710868848599 -0.44342221775131702 0 -0.032179162532159682 -0.47171110887565898 0 -0.040222710868848599 -0.44342221775131702 0 -0.043547429022830243 -0.45629298119843648 0 -0.032179162532159682 -0.47171110887565898 0 -0.040222710868848599 -0.44342221775131702 0 -0.032179162532159682 -0.47171110887565898 0 -0.044557422433351347 -0.46777538227317589 0 -0.043547429022830243 -0.45629298119843648 0 -0.060493581168670048 -0.47553073136432261 0 -0.054128902950304231 -0.45899483429571142 0 -0.060493581168670048 -0.47553073136432261 0 -0.054128902950304231 -0.45899483429571142 0 -0.065032570829358066 -0.46573233473260378 0 -0.044557422433351347 -0.46777538227317589 0 -0.043547429022830243 -0.45629298119843648 0 -0.054128902950304231 -0.45899483429571142 0 -0.059081053699328138 -0.43346108113793558 0 -0.046648946329487337 -0.4395613627963188 0 -0.054128902950304231 -0.45899483429571142 0 -0.059081053699328138 -0.43346108113793558 0 -0.054128902950304231 -0.45899483429571142 0 -0.066310321737219721 -0.44537606709482119 0 -0.046648946329487337 -0.4395613627963188 0 -0.043547429022830243 -0.45629298119843648 0 -0.054128902950304231 -0.45899483429571142 0 -0.046648946329487337 -0.4395613627963188 0 -0.054128902950304231 -0.45899483429571142 0 -0.059081053699328138 -0.43346108113793558 0 -0.054128902950304231 -0.45899483429571142 0 -0.059081053699328138 -0.43346108113793558 0 -0.066310321737219721 -0.44537606709482119 0 -0.075535818143584371 -0.43549093892865898 0 -0.076568165015752698 -0.44817953209817851 0 -0.066310321737219721 -0.44537606709482119 0 -0.075535818143584371 -0.43549093892865898 0 -0.076568165015752698 -0.44817953209817851 0 -0.082252794175092112 -0.44191598633777213 0 -0.075535818143584371 -0.43549093892865898 0 -0.076568165015752698 -0.44817953209817851 0 -0.066310321737219721 -0.44537606709482119 0 -0.068579112789432184 -0.45674317292275363 0 -0.054128902950304231 -0.45899483429571142 0 -0.068579112789432184 -0.45674317292275363 0 -0.065032570829358066 -0.46573233473260378 0 -0.054128902950304231 -0.45899483429571142 0 -0.066310321737219721 -0.44537606709482119 0 -0.068579112789432184 -0.45674317292275363 0 -0.068579112789432184 -0.45674317292275363 0 -0.065032570829358066 -0.46573233473260378 0 -0.073280894425862372 -0.46483941346706331 0 -0.065032570829358066 -0.46573233473260378 0 -0.073280894425862372 -0.46483941346706331 0 -0.069205089369513126 -0.47217935542277989 0 -0.076568165015752698 -0.44817953209817851 0 -0.068579112789432184 -0.45674317292275363 0 -0.078703260406235917 -0.45679883430010998 0 -0.068579112789432184 -0.45674317292275363 0 -0.073280894425862372 -0.46483941346706331 0 -0.078703260406235917 -0.45679883430010998 0 -0.073280894425862372 -0.46483941346706331 0 -0.078703260406235917 -0.45679883430010998 0 -0.086919132327261783 -0.46110910735707428 0 -0.078703260406235917 -0.45679883430010998 0 -0.086919132327261783 -0.46110910735707428 0 -0.08902328667390573 -0.44800258894385758 0 -0.073280894425862372 -0.46483941346706331 0 -0.086919132327261783 -0.46110910735707428 0 -0.077466072172757069 -0.47250787811941769 0 -0.086919132327261783 -0.46110910735707428 0 -0.086255850330182904 -0.47525702682212839 0 -0.099285401748321012 -0.4685726677646227 0 -0.086919132327261783 -0.46110910735707428 0 -0.08902328667390573 -0.44800258894385758 0 -0.099629336054976564 -0.4556163852308544 0 -0.08902328667390573 -0.44800258894385758 0 -0.098099720432939991 -0.43728256451959452 0 -0.087883906867125675 -0.43599088538039288 0 -0.08902328667390573 -0.44800258894385758 0 -0.082252794175092112 -0.44191598633777213 0 -0.087883906867125675 -0.43599088538039288 0 -0.082252794175092112 -0.44191598633777213 0 -0.075535818143584371 -0.43549093892865898 0 -0.087883906867125675 -0.43599088538039288 0 -0.076568165015752698 -0.44817953209817851 0 -0.08902328667390573 -0.44800258894385758 0 -0.082252794175092112 -0.44191598633777213 0 -0.076568165015752698 -0.44817953209817851 0 -0.078703260406235917 -0.45679883430010998 0 -0.08902328667390573 -0.44800258894385758 0 -0.071124492888865354 -0.5 0 -0.066858259387038016 -0.49206662843293297 0 -0.081544890964114908 -0.48928256202185288 0 -0.066858259387038016 -0.49206662843293297 0 -0.072271015724478249 -0.48049042171662892 0 -0.081544890964114908 -0.48928256202185288 0 -0.060493581168670048 -0.47553073136432261 0 -0.066858259387038016 -0.49206662843293297 0 -0.060493581168670048 -0.47553073136432261 0 -0.066858259387038016 -0.49206662843293297 0 -0.072271015724478249 -0.48049042171662892 0 -0.060493581168670048 -0.47553073136432261 0 -0.065032570829358066 -0.46573233473260378 0 -0.069205089369513126 -0.47217935542277989 0 -0.060493581168670048 -0.47553073136432261 0 -0.072271015724478249 -0.48049042171662892 0 -0.069205089369513126 -0.47217935542277989 0 -0.072271015724478249 -0.48049042171662892 0 -0.069205089369513126 -0.47217935542277989 0 -0.077466072172757069 -0.47250787811941769 0 -0.073280894425862372 -0.46483941346706331 0 -0.069205089369513126 -0.47217935542277989 0 -0.077466072172757069 -0.47250787811941769 0 -0.086255850330182904 -0.47525702682212839 0 -0.081544890964114908 -0.48928256202185288 0 -0.099404665344911852 -0.48482183337800128 0 -0.072271015724478249 -0.48049042171662892 0 -0.077466072172757069 -0.47250787811941769 0 -0.086255850330182904 -0.47525702682212839 0 -0.086919132327261783 -0.46110910735707428 0 -0.077466072172757069 -0.47250787811941769 0 -0.086255850330182904 -0.47525702682212839 0 -0.072271015724478249 -0.48049042171662892 0 -0.086255850330182904 -0.47525702682212839 0 -0.081544890964114908 -0.48928256202185288 0 -0.081544890964114908 -0.48928256202185288 0 -0.096072840919880775 -0.5 0 -0.099404665344911852 -0.48482183337800128 0 -0.071124492888865354 -0.5 0 -0.081544890964114908 -0.48928256202185288 0 -0.096072840919880775 -0.5 0 -0.096072840919880775 -0.5 0 -0.099404665344911852 -0.48482183337800128 0 -0.1210211889508961 -0.5 0 -0.086255850330182904 -0.47525702682212839 0 -0.099404665344911852 -0.48482183337800128 0 -0.099285401748321012 -0.4685726677646227 0 -0.099404665344911852 -0.48482183337800128 0 -0.1122478191560755 -0.47581874365940358 0 -0.099285401748321012 -0.4685726677646227 0 -0.12629935107648191 -0.46812041530357129 0 -0.1122478191560755 -0.47581874365940358 0 -0.1239596724013798 -0.48203658885458761 0 -0.099404665344911852 -0.48482183337800128 0 -0.1122478191560755 -0.47581874365940358 0 -0.1210211889508961 -0.5 0 -0.1122478191560755 -0.47581874365940358 0 -0.1239596724013798 -0.48203658885458761 0 -0.1210211889508961 -0.5 0 -0.1020079300888409 -0.44598776708359722 0 -0.099629336054976564 -0.4556163852308544 0 -0.10966799031424621 -0.45186593385096901 0 -0.1020079300888409 -0.44598776708359722 0 -0.10966799031424621 -0.45186593385096901 0 -0.10977399923197791 -0.4445480435502987 0 -0.1020079300888409 -0.44598776708359722 0 -0.1071407274518112 -0.43758829681090988 0 -0.098099720432939991 -0.43728256451959452 0 -0.1020079300888409 -0.44598776708359722 0 -0.1071407274518112 -0.43758829681090988 0 -0.10977399923197791 -0.4445480435502987 0 -0.08902328667390573 -0.44800258894385758 0 -0.1020079300888409 -0.44598776708359722 0 -0.098099720432939991 -0.43728256451959452 0 -0.08902328667390573 -0.44800258894385758 0 -0.1020079300888409 -0.44598776708359722 0 -0.099629336054976564 -0.4556163852308544 0 -0.086919132327261783 -0.46110910735707428 0 -0.099629336054976564 -0.4556163852308544 0 -0.099285401748321012 -0.4685726677646227 0 -0.099629336054976564 -0.4556163852308544 0 -0.099285401748321012 -0.4685726677646227 0 -0.1113660798922773 -0.46167528116607709 0 -0.1122478191560755 -0.47581874365940358 0 -0.099285401748321012 -0.4685726677646227 0 -0.1113660798922773 -0.46167528116607709 0 -0.099629336054976564 -0.4556163852308544 0 -0.1113660798922773 -0.46167528116607709 0 -0.10966799031424621 -0.45186593385096901 0 -0.1113660798922773 -0.46167528116607709 0 -0.120968343029728 -0.45462115421979032 0 -0.10966799031424621 -0.45186593385096901 0 -0.12629935107648191 -0.46812041530357129 0 -0.1122478191560755 -0.47581874365940358 0 -0.1113660798922773 -0.46167528116607709 0 -0.12629935107648191 -0.46812041530357129 0 -0.1113660798922773 -0.46167528116607709 0 -0.120968343029728 -0.45462115421979032 0 -0.1271442566298451 -0.44596628899092861 0 -0.120968343029728 -0.45462115421979032 0 -0.1173522046920252 -0.44629227682695788 0 -0.120968343029728 -0.45462115421979032 0 -0.1173522046920252 -0.44629227682695788 0 -0.10966799031424621 -0.45186593385096901 0 -0.1173522046920252 -0.44629227682695788 0 -0.10966799031424621 -0.45186593385096901 0 -0.10977399923197791 -0.4445480435502987 0 -0.1071407274518112 -0.43758829681090988 0 -0.10977399923197791 -0.4445480435502987 0 -0.11486146859235161 -0.43897036279024992 0 -0.1173522046920252 -0.44629227682695788 0 -0.10977399923197791 -0.4445480435502987 0 -0.11486146859235161 -0.43897036279024992 0 -0.1271442566298451 -0.44596628899092861 0 -0.1173522046920252 -0.44629227682695788 0 -0.122395437252204 -0.43980370574357808 0 -0.1173522046920252 -0.44629227682695788 0 -0.11486146859235161 -0.43897036279024992 0 -0.122395437252204 -0.43980370574357808 0 -0.1208509852946628 -0.4336781170756715 0 -0.1192489907696884 -0.4265966499406052 0 -0.1128444206700436 -0.43178403175929858 0 -0.1286505554066244 -0.43652862388743607 0 -0.122395437252204 -0.43980370574357808 0 -0.1208509852946628 -0.4336781170756715 0 -0.11486146859235161 -0.43897036279024992 0 -0.122395437252204 -0.43980370574357808 0 -0.1208509852946628 -0.4336781170756715 0 -0.12710503907706461 -0.4283853283328618 0 -0.12588779620812371 -0.42207359555134011 0 -0.1192489907696884 -0.4265966499406052 0 -0.12710503907706461 -0.4283853283328618 0 -0.1208509852946628 -0.4336781170756715 0 -0.1192489907696884 -0.4265966499406052 0 -0.12588779620812371 -0.42207359555134011 0 -0.1192489907696884 -0.4265966499406052 0 -0.1192454834063897 -0.41997597996162739 0 -0.1118983379335735 -0.42423427768804911 0 -0.1128444206700436 -0.43178403175929858 0 -0.10475493162901139 -0.42985571335678391 0 -0.1192489907696884 -0.4265966499406052 0 -0.1118983379335735 -0.42423427768804911 0 -0.1192454834063897 -0.41997597996162739 0 -0.1192489907696884 -0.4265966499406052 0 -0.1118983379335735 -0.42423427768804911 0 -0.1128444206700436 -0.43178403175929858 0 -0.11486146859235161 -0.43897036279024992 0 -0.1208509852946628 -0.4336781170756715 0 -0.1128444206700436 -0.43178403175929858 0 -0.1071407274518112 -0.43758829681090988 0 -0.11486146859235161 -0.43897036279024992 0 -0.1128444206700436 -0.43178403175929858 0 -0.1071407274518112 -0.43758829681090988 0 -0.10475493162901139 -0.42985571335678391 0 -0.098099720432939991 -0.43728256451959452 0 -0.1071407274518112 -0.43758829681090988 0 -0.1128444206700436 -0.43178403175929858 0 -0.10475493162901139 -0.42985571335678391 0 -0.10475493162901139 -0.42985571335678391 0 -0.1045551403445356 -0.4223512449499498 0 -0.09605032129263863 -0.42585970419571961 0 -0.1118983379335735 -0.42423427768804911 0 -0.10475493162901139 -0.42985571335678391 0 -0.1045551403445356 -0.4223512449499498 0 -0.09605032129263863 -0.42585970419571961 0 -0.098099720432939991 -0.43728256451959452 0 -0.087883906867125675 -0.43599088538039288 0 -0.10475493162901139 -0.42985571335678391 0 -0.09605032129263863 -0.42585970419571961 0 -0.098099720432939991 -0.43728256451959452 0 -0.1011450855566455 -0.41671262166972001 0 -0.104532197177804 -0.40816594300935671 0 -0.091898823377809302 -0.41454193872280609 0 -0.1045551403445356 -0.4223512449499498 0 -0.09605032129263863 -0.42585970419571961 0 -0.1011450855566455 -0.41671262166972001 0 -0.09605032129263863 -0.42585970419571961 0 -0.1011450855566455 -0.41671262166972001 0 -0.091898823377809302 -0.41454193872280609 0 -0.1045551403445356 -0.4223512449499498 0 -0.1011450855566455 -0.41671262166972001 0 -0.1111216977032191 -0.41657258615399279 0 -0.1118983379335735 -0.42423427768804911 0 -0.1045551403445356 -0.4223512449499498 0 -0.1111216977032191 -0.41657258615399279 0 -0.1011450855566455 -0.41671262166972001 0 -0.104532197177804 -0.40816594300935671 0 -0.1111216977032191 -0.41657258615399279 0 -0.13031013140721839 -0.41384368270944971 0 -0.104532197177804 -0.40816594300935671 0 -0.13031013140721839 -0.41384368270944971 0 -0.104532197177804 -0.40816594300935671 0 -0.1111216977032191 -0.41657258615399279 0 -0.13501333007481511 -0.41226517030697929 0 -0.1136635822756115 -0.40588575951094952 0 -0.13501333007481511 -0.41226517030697929 0 -0.12434083125225311 -0.40208234895582401 0 -0.1136635822756115 -0.40588575951094952 0 -0.13031013140721839 -0.41384368270944971 0 -0.104532197177804 -0.40816594300935671 0 -0.1136635822756115 -0.40588575951094952 0 -0.13031013140721839 -0.41384368270944971 0 -0.1111216977032191 -0.41657258615399279 0 -0.1192454834063897 -0.41997597996162739 0 -0.1118983379335735 -0.42423427768804911 0 -0.1111216977032191 -0.41657258615399279 0 -0.1192454834063897 -0.41997597996162739 0 -0.12434083125225311 -0.40208234895582401 0 -0.1163335798260158 -0.39382215597909731 0 -0.1136635822756115 -0.40588575951094952 0 -0.13009349872902409 -0.39396436485078351 0 -0.12434083125225311 -0.40208234895582401 0 -0.1163335798260158 -0.39382215597909731 0 -0.1163335798260158 -0.39382215597909731 0 -0.1136635822756115 -0.40588575951094952 0 -0.10508051969915019 -0.3927941655318295 0 -0.1216493057553388 -0.36805364158635689 0 -0.1226431281372921 -0.38341950810688952 0 -0.1100341500844285 -0.38127356203782381 0 -0.13009349872902409 -0.39396436485078351 0 -0.1163335798260158 -0.39382215597909731 0 -0.1226431281372921 -0.38341950810688952 0 -0.1163335798260158 -0.39382215597909731 0 -0.1226431281372921 -0.38341950810688952 0 -0.1100341500844285 -0.38127356203782381 0 -0.1163335798260158 -0.39382215597909731 0 -0.1100341500844285 -0.38127356203782381 0 -0.10508051969915019 -0.3927941655318295 0 -0.1100341500844285 -0.38127356203782381 0 -0.094417510917414016 -0.38317459984341867 0 -0.10508051969915019 -0.3927941655318295 0 -0.094417510917414016 -0.38317459984341867 0 -0.10508051969915019 -0.3927941655318295 0 -0.092313834476407952 -0.39950634871491969 0 -0.1136635822756115 -0.40588575951094952 0 -0.092313834476407952 -0.39950634871491969 0 -0.104532197177804 -0.40816594300935671 0 -0.1136635822756115 -0.40588575951094952 0 -0.092313834476407952 -0.39950634871491969 0 -0.1136635822756115 -0.40588575951094952 0 -0.10508051969915019 -0.3927941655318295 0 -0.092313834476407952 -0.39950634871491969 0 -0.094417510917414016 -0.38317459984341867 0 -0.092313834476407952 -0.39950634871491969 0 -0.082145392398774456 -0.38965602768804392 0 -0.104532197177804 -0.40816594300935671 0 -0.092313834476407952 -0.39950634871491969 0 -0.078754262948389456 -0.40248820330926371 0 -0.104532197177804 -0.40816594300935671 0 -0.078754262948389456 -0.40248820330926371 0 -0.092313834476407952 -0.39950634871491969 0 -0.078754262948389456 -0.40248820330926371 0 -0.082145392398774456 -0.38965602768804392 0 -0.080538891866247464 -0.37347976891145163 0 -0.094417510917414016 -0.38317459984341867 0 -0.082145392398774456 -0.38965602768804392 0 -0.062864246052430808 -0.37092917749799231 0 -0.080538891866247464 -0.37347976891145163 0 -0.06470246178541339 -0.38963121766116582 0 -0.080538891866247464 -0.37347976891145163 0 -0.082145392398774456 -0.38965602768804392 0 -0.06470246178541339 -0.38963121766116582 0 -0.078754262948389456 -0.40248820330926371 0 -0.082145392398774456 -0.38965602768804392 0 -0.06470246178541339 -0.38963121766116582 0 -0.078754262948389456 -0.40248820330926371 0 -0.06470246178541339 -0.38963121766116582 0 -0.064033204448350159 -0.40792732798015952 0 -0.064033204448350159 -0.40792732798015952 0 -0.072157676118210543 -0.42310363459472422 0 -0.079943820686403405 -0.41438491289013429 0 -0.059081053699328138 -0.43346108113793558 0 -0.064033204448350159 -0.40792732798015952 0 -0.072157676118210543 -0.42310363459472422 0 -0.078754262948389456 -0.40248820330926371 0 -0.064033204448350159 -0.40792732798015952 0 -0.079943820686403405 -0.41438491289013429 0 -0.059081053699328138 -0.43346108113793558 0 -0.075535818143584371 -0.43549093892865898 0 -0.072157676118210543 -0.42310363459472422 0 -0.075535818143584371 -0.43549093892865898 0 -0.072157676118210543 -0.42310363459472422 0 -0.084052214343115078 -0.42532121820392482 0 -0.075535818143584371 -0.43549093892865898 0 -0.084052214343115078 -0.42532121820392482 0 -0.087883906867125675 -0.43599088538039288 0 -0.09605032129263863 -0.42585970419571961 0 -0.084052214343115078 -0.42532121820392482 0 -0.087883906867125675 -0.43599088538039288 0 -0.09605032129263863 -0.42585970419571961 0 -0.084052214343115078 -0.42532121820392482 0 -0.091898823377809302 -0.41454193872280609 0 -0.104532197177804 -0.40816594300935671 0 -0.078754262948389456 -0.40248820330926371 0 -0.091898823377809302 -0.41454193872280609 0 -0.078754262948389456 -0.40248820330926371 0 -0.091898823377809302 -0.41454193872280609 0 -0.079943820686403405 -0.41438491289013429 0 -0.072157676118210543 -0.42310363459472422 0 -0.084052214343115078 -0.42532121820392482 0 -0.079943820686403405 -0.41438491289013429 0 -0.084052214343115078 -0.42532121820392482 0 -0.091898823377809302 -0.41454193872280609 0 -0.079943820686403405 -0.41438491289013429 0 -0.074085798501945355 -0.081576344101759873 0 -0.07769683473781186 -0.098704246660850856 0 -0.091719877732741997 -0.09440464567378469 0 -0.074085798501945355 -0.081576344101759873 0 -0.091719877732741997 -0.09440464567378469 0 -0.098445032472609606 -0.081369899906778939 0 -0.084071437065032048 -0.065476577966459837 0 -0.098445032472609606 -0.081369899906778939 0 -0.084071437065032048 -0.065476577966459837 0 -0.074085798501945355 -0.081576344101759873 0 -0.098445032472609606 -0.081369899906778939 0 -0.084071437065032048 -0.065476577966459837 0 -0.062502398775672333 -0.066566472610548627 0 -0.074085798501945355 -0.081576344101759873 0 -0.062502398775672333 -0.066566472610548627 0 -0.074085798501945355 -0.081576344101759873 0 -0.055306955893887462 -0.083549689194957713 0 -0.074085798501945355 -0.081576344101759873 0 -0.065390596180403313 -0.090822777912275596 0 -0.055306955893887462 -0.083549689194957713 0 -0.074085798501945355 -0.081576344101759873 0 -0.065390596180403313 -0.090822777912275596 0 -0.07769683473781186 -0.098704246660850856 0 -0.065390596180403313 -0.090822777912275596 0 -0.065350321199533809 -0.10067420092090219 0 -0.07769683473781186 -0.098704246660850856 0 -0.065350321199533809 -0.10067420092090219 0 -0.07769683473781186 -0.098704246660850856 0 -0.067512828879044168 -0.1117348170332913 0 -0.067512828879044168 -0.1117348170332913 0 -0.080531236145691451 -0.11933730844748359 0 -0.067777966929164726 -0.12749705551743859 0 -0.067512828879044168 -0.1117348170332913 0 -0.054815750958622449 -0.12121993458671421 0 -0.067777966929164726 -0.12749705551743859 0 -0.07769683473781186 -0.098704246660850856 0 -0.067512828879044168 -0.1117348170332913 0 -0.080531236145691451 -0.11933730844748359 0 -0.080531236145691451 -0.11933730844748359 0 -0.093254983250060819 -0.110169785287593 0 -0.094098559536747062 -0.12988730152384939 0 -0.07769683473781186 -0.098704246660850856 0 -0.080531236145691451 -0.11933730844748359 0 -0.093254983250060819 -0.110169785287593 0 -0.07769683473781186 -0.098704246660850856 0 -0.093254983250060819 -0.110169785287593 0 -0.091719877732741997 -0.09440464567378469 0 -0.091719877732741997 -0.09440464567378469 0 -0.1102470482850666 -0.1056183188276715 0 -0.1083363911862389 -0.0901767323308722 0 -0.093254983250060819 -0.110169785287593 0 -0.091719877732741997 -0.09440464567378469 0 -0.1102470482850666 -0.1056183188276715 0 -0.093254983250060819 -0.110169785287593 0 -0.11277651521281599 -0.1234892566383398 0 -0.094098559536747062 -0.12988730152384939 0 -0.093254983250060819 -0.110169785287593 0 -0.11277651521281599 -0.1234892566383398 0 -0.1102470482850666 -0.1056183188276715 0 -0.11277651521281599 -0.1234892566383398 0 -0.12374626213362271 -0.111929850458328 0 -0.13437452860801971 -0.1239487887983642 0 -0.11277651521281599 -0.1234892566383398 0 -0.12374626213362271 -0.111929850458328 0 -0.1102470482850666 -0.1056183188276715 0 -0.12374626213362271 -0.111929850458328 0 -0.1102470482850666 -0.1056183188276715 0 -0.1236972460038322 -0.091538441889713273 0 -0.1102470482850666 -0.1056183188276715 0 -0.1236972460038322 -0.091538441889713273 0 -0.1083363911862389 -0.0901767323308722 0 -0.1236972460038322 -0.091538441889713273 0 -0.11350130534713079 -0.073332913563975421 0 -0.13058466754914791 -0.072696764781637224 0 -0.1236972460038322 -0.091538441889713273 0 -0.1083363911862389 -0.0901767323308722 0 -0.11350130534713079 -0.073332913563975421 0 -0.091719877732741997 -0.09440464567378469 0 -0.1083363911862389 -0.0901767323308722 0 -0.098445032472609606 -0.081369899906778939 0 -0.1083363911862389 -0.0901767323308722 0 -0.098445032472609606 -0.081369899906778939 0 -0.11350130534713079 -0.073332913563975421 0 -0.098884823393860302 -0.066039301776300713 0 -0.11350130534713079 -0.073332913563975421 0 -0.1085484736132991 -0.055968258314139652 0 -0.084071437065032048 -0.065476577966459837 0 -0.098445032472609606 -0.081369899906778939 0 -0.098884823393860302 -0.066039301776300713 0 -0.098445032472609606 -0.081369899906778939 0 -0.098884823393860302 -0.066039301776300713 0 -0.11350130534713079 -0.073332913563975421 0 -0.11350130534713079 -0.073332913563975421 0 -0.13058466754914791 -0.072696764781637224 0 -0.12559633262467301 -0.055414330815554858 0 -0.11449569996834261 -0.042169398212593252 0 -0.1085484736132991 -0.055968258314139652 0 -0.12559633262467301 -0.055414330815554858 0 -0.11350130534713079 -0.073332913563975421 0 -0.1085484736132991 -0.055968258314139652 0 -0.12559633262467301 -0.055414330815554858 0 -0.11449569996834261 -0.042169398212593252 0 -0.1228826187542597 -0.028283879923342189 0 -0.1066383164100458 -0.028839028527172531 0 -0.11449569996834261 -0.042169398212593252 0 -0.1228826187542597 -0.028283879923342189 0 -0.13073959040624369 -0.040407347587496832 0 -0.11449569996834261 -0.042169398212593252 0 -0.13073959040624369 -0.040407347587496832 0 -0.12559633262467301 -0.055414330815554858 0 -0.11449569996834261 -0.042169398212593252 0 -0.1066383164100458 -0.028839028527172531 0 -0.092707764324808081 -0.044557768692739551 0 -0.098884823393860302 -0.066039301776300713 0 -0.1085484736132991 -0.055968258314139652 0 -0.092707764324808081 -0.044557768692739551 0 -0.11449569996834261 -0.042169398212593252 0 -0.1085484736132991 -0.055968258314139652 0 -0.092707764324808081 -0.044557768692739551 0 -0.1101430223599959 -0.0097464949415967794 0 -0.13146021635722041 -0.015740197922043599 0 -0.12332417756614659 0.01212573047390467 0 -0.1101430223599959 -0.0097464949415967794 0 -0.1228826187542597 -0.028283879923342189 0 -0.13146021635722041 -0.015740197922043599 0 -0.1101430223599959 -0.0097464949415967794 0 -0.1228826187542597 -0.028283879923342189 0 -0.1066383164100458 -0.028839028527172531 0 -0.1101430223599959 -0.0097464949415967794 0 -0.1066383164100458 -0.028839028527172531 0 -0.094384690615410591 -0.018461186907755431 0 -0.1066383164100458 -0.028839028527172531 0 -0.094384690615410591 -0.018461186907755431 0 -0.092707764324808081 -0.044557768692739551 0 -0.1101430223599959 -0.0097464949415967794 0 -0.094384690615410591 -0.018461186907755431 0 -0.089612629523708298 -0.002578900474753773 0 -0.089612629523708298 -0.002578900474753773 0 -0.079655235590582754 -0.026081078250446661 0 -0.094384690615410591 -0.018461186907755431 0 -0.089612629523708298 -0.002578900474753773 0 -0.079655235590582754 -0.026081078250446661 0 -0.094384690615410591 -0.018461186907755431 0 -0.079655235590582754 -0.026081078250446661 0 -0.092707764324808081 -0.044557768692739551 0 -0.079655235590582754 -0.026081078250446661 0 -0.064293171325576548 -0.01105348015708171 0 -0.057751921302950933 -0.036374288284677508 0 -0.089612629523708298 -0.002578900474753773 0 -0.079655235590582754 -0.026081078250446661 0 -0.064293171325576548 -0.01105348015708171 0 -0.089612629523708298 -0.002578900474753773 0 -0.064293171325576548 -0.01105348015708171 0 -0.075867284991946005 0.0089052263810172338 0 -0.084071437065032048 -0.065476577966459837 0 -0.092707764324808081 -0.044557768692739551 0 -0.069697841657456294 -0.049583256026139153 0 -0.084071437065032048 -0.065476577966459837 0 -0.098884823393860302 -0.066039301776300713 0 -0.092707764324808081 -0.044557768692739551 0 -0.079655235590582754 -0.026081078250446661 0 -0.092707764324808081 -0.044557768692739551 0 -0.069697841657456294 -0.049583256026139153 0 -0.079655235590582754 -0.026081078250446661 0 -0.069697841657456294 -0.049583256026139153 0 -0.057751921302950933 -0.036374288284677508 0 -0.079655235590582754 -0.026081078250446661 0 -0.069697841657456294 -0.049583256026139153 0 -0.069697841657456294 -0.049583256026139153 0 -0.057751921302950933 -0.036374288284677508 0 -0.084071437065032048 -0.065476577966459837 0 -0.069697841657456294 -0.049583256026139153 0 -0.062502398775672333 -0.066566472610548627 0 -0.069697841657456294 -0.049583256026139153 0 -0.062502398775672333 -0.066566472610548627 0 -0.069697841657456294 -0.049583256026139153 0 -0.057488067872478663 -0.049253430858104463 0 -0.084071437065032048 -0.065476577966459837 0 -0.062502398775672333 -0.066566472610548627 0 -0.069697841657456294 -0.049583256026139153 0 -0.062502398775672333 -0.066566472610548627 0 -0.048807710746795463 -0.057091287033548883 0 -0.057488067872478663 -0.049253430858104463 0 -0.048807710746795463 -0.057091287033548883 0 -0.057488067872478663 -0.049253430858104463 0 -0.046598869342508412 -0.041104374816612971 0 -0.057751921302950933 -0.036374288284677508 0 -0.046598869342508412 -0.041104374816612971 0 -0.045806000948447327 -0.023165320543214251 0 -0.069697841657456294 -0.049583256026139153 0 -0.057488067872478663 -0.049253430858104463 0 -0.057751921302950933 -0.036374288284677508 0 -0.057488067872478663 -0.049253430858104463 0 -0.057751921302950933 -0.036374288284677508 0 -0.046598869342508412 -0.041104374816612971 0 -0.046598869342508412 -0.041104374816612971 0 -0.033907047959314568 -0.033381337947351257 0 -0.045806000948447327 -0.023165320543214251 0 -0.046598869342508412 -0.041104374816612971 0 -0.033907047959314568 -0.033381337947351257 0 -0.035398801071519798 -0.048288193499657482 0 -0.048807710746795463 -0.057091287033548883 0 -0.046598869342508412 -0.041104374816612971 0 -0.035398801071519798 -0.048288193499657482 0 -0.035398801071519798 -0.048288193499657482 0 -0.026069077130162769 -0.054531219747255097 0 -0.036939226902127163 -0.062931312652176524 0 -0.048807710746795463 -0.057091287033548883 0 -0.035398801071519798 -0.048288193499657482 0 -0.036939226902127163 -0.062931312652176524 0 -0.064293171325576548 -0.01105348015708171 0 -0.046732334298602442 -0.006744458449042038 0 -0.055020306791806882 0.011606654754603559 0 -0.064293171325576548 -0.01105348015708171 0 -0.045806000948447327 -0.023165320543214251 0 -0.046732334298602442 -0.006744458449042038 0 -0.064293171325576548 -0.01105348015708171 0 -0.057751921302950933 -0.036374288284677508 0 -0.045806000948447327 -0.023165320543214251 0 -0.057751921302950933 -0.036374288284677508 0 -0.045806000948447327 -0.023165320543214251 0 -0.033907047959314568 -0.033381337947351257 0 -0.045806000948447327 -0.023165320543214251 0 -0.031181786465542458 -0.016180041564069589 0 -0.045806000948447327 -0.023165320543214251 0 -0.046732334298602442 -0.006744458449042038 0 -0.031181786465542458 -0.016180041564069589 0 -0.046732334298602442 -0.006744458449042038 0 -0.031181786465542458 -0.016180041564069589 0 -0.031201037738230551 0.0036621007205455318 0 -0.031181786465542458 -0.016180041564069589 0 -0.0089960230977084721 -0.01103573319387138 0 -0.031201037738230551 0.0036621007205455318 0 -0.033907047959314568 -0.033381337947351257 0 -0.031181786465542458 -0.016180041564069589 0 -0.020448274750951439 -0.026415499971484142 0 -0.031181786465542458 -0.016180041564069589 0 -0.020448274750951439 -0.026415499971484142 0 -0.0089960230977084721 -0.01103573319387138 0 -0.020448274750951439 -0.026415499971484142 0 -0.0089960230977084721 -0.01103573319387138 0 -0.0094790806124092734 -0.03309812690331923 0 -0.0089960230977084721 -0.01103573319387138 0 -0.0094790806124092734 -0.03309812690331923 0 0.0048975611539584241 -0.02794060840334903 0 -0.026069077130162769 -0.054531219747255097 0 -0.0095309463923188946 -0.048888633496284598 0 -0.02395945393859622 -0.069836658589220182 0 -0.0095309463923188946 -0.048888633496284598 0 -0.02395945393859622 -0.069836658589220182 0 -0.026069077130162769 -0.054531219747255097 0 -0.022250228461045692 -0.040796471105595568 0 -0.0095309463923188946 -0.048888633496284598 0 -0.026069077130162769 -0.054531219747255097 0 -0.02395945393859622 -0.069836658589220182 0 -0.036939226902127163 -0.062931312652176524 0 -0.035398801071519798 -0.048288193499657482 0 -0.026069077130162769 -0.054531219747255097 0 -0.022250228461045692 -0.040796471105595568 0 -0.033907047959314568 -0.033381337947351257 0 -0.035398801071519798 -0.048288193499657482 0 -0.022250228461045692 -0.040796471105595568 0 -0.033907047959314568 -0.033381337947351257 0 -0.020448274750951439 -0.026415499971484142 0 -0.022250228461045692 -0.040796471105595568 0 -0.020448274750951439 -0.026415499971484142 0 -0.022250228461045692 -0.040796471105595568 0 -0.0094790806124092734 -0.03309812690331923 0 -0.0094790806124092734 -0.03309812690331923 0 -0.0095309463923188946 -0.048888633496284598 0 0.0048975611539584241 -0.02794060840334903 0 -0.0095309463923188946 -0.048888633496284598 0 0.0048975611539584241 -0.02794060840334903 0 -0.022250228461045692 -0.040796471105595568 0 -0.0094790806124092734 -0.03309812690331923 0 -0.0095309463923188946 -0.048888633496284598 0 -0.0095309463923188946 -0.048888633496284598 0 -0.0090160515042696371 -0.060056871246355968 0 -0.02395945393859622 -0.069836658589220182 0 -0.0095309463923188946 -0.048888633496284598 0 -0.0090160515042696371 -0.060056871246355968 0 0.0048162015510652464 -0.051653981403253703 0 -0.0090160515042696371 -0.060056871246355968 0 -0.011587357023271801 -0.077936715443332361 0 -0.02395945393859622 -0.069836658589220182 0 -0.0090160515042696371 -0.060056871246355968 0 -0.011587357023271801 -0.077936715443332361 0 0.00059150691515684006 -0.073338185880521253 0 -0.011587357023271801 -0.077936715443332361 0 -0.0033480317749526489 -0.083631419035902738 0 -0.01138852615450052 -0.094849773798394932 0 -0.01138852615450052 -0.094849773798394932 0 0.0089922491628055441 -0.088401001021362557 0 -0.0033480317749526489 -0.083631419035902738 0 -0.01138852615450052 -0.094849773798394932 0 0.0089922491628055441 -0.088401001021362557 0 -0.011587357023271801 -0.077936715443332361 0 -0.023231854058221479 -0.086126058582896237 0 -0.01138852615450052 -0.094849773798394932 0 -0.011587357023271801 -0.077936715443332361 0 -0.0033480317749526489 -0.083631419035902738 0 0.00059150691515684006 -0.073338185880521253 0 -0.023231854058221479 -0.086126058582896237 0 -0.02395945393859622 -0.069836658589220182 0 -0.038387961484873008 -0.090784683682156198 0 -0.02395945393859622 -0.069836658589220182 0 -0.038387961484873008 -0.090784683682156198 0 -0.023231854058221479 -0.086126058582896237 0 -0.038387961484873008 -0.090784683682156198 0 -0.031769301471806823 -0.1012985465754266 0 -0.011587357023271801 -0.077936715443332361 0 -0.023231854058221479 -0.086126058582896237 0 -0.02395945393859622 -0.069836658589220182 0 -0.02395945393859622 -0.069836658589220182 0 -0.036939226902127163 -0.062931312652176524 0 -0.037921657435383747 -0.07467361321573332 0 -0.048807710746795463 -0.057091287033548883 0 -0.036939226902127163 -0.062931312652176524 0 -0.049478661090304972 -0.073166903827644222 0 -0.036939226902127163 -0.062931312652176524 0 -0.037921657435383747 -0.07467361321573332 0 -0.049478661090304972 -0.073166903827644222 0 -0.038387961484873008 -0.090784683682156198 0 -0.049478661090304972 -0.073166903827644222 0 -0.02395945393859622 -0.069836658589220182 0 -0.037921657435383747 -0.07467361321573332 0 -0.038387961484873008 -0.090784683682156198 0 -0.038387961484873008 -0.090784683682156198 0 -0.04831002283188273 -0.088134216723946862 0 -0.049478661090304972 -0.073166903827644222 0 -0.037921657435383747 -0.07467361321573332 0 -0.038387961484873008 -0.090784683682156198 0 -0.049478661090304972 -0.073166903827644222 0 -0.038387961484873008 -0.090784683682156198 0 -0.04831002283188273 -0.088134216723946862 0 -0.043243840676972498 -0.097834690679629133 0 -0.04831002283188273 -0.088134216723946862 0 -0.055306955893887462 -0.083549689194957713 0 -0.049478661090304972 -0.073166903827644222 0 -0.04831002283188273 -0.088134216723946862 0 -0.055306955893887462 -0.083549689194957713 0 -0.055132695013375713 -0.095335116235347045 0 -0.065390596180403313 -0.090822777912275596 0 -0.055306955893887462 -0.083549689194957713 0 -0.055132695013375713 -0.095335116235347045 0 -0.062502398775672333 -0.066566472610548627 0 -0.055306955893887462 -0.083549689194957713 0 -0.062502398775672333 -0.066566472610548627 0 -0.048807710746795463 -0.057091287033548883 0 -0.049478661090304972 -0.073166903827644222 0 -0.062502398775672333 -0.066566472610548627 0 -0.055306955893887462 -0.083549689194957713 0 -0.049478661090304972 -0.073166903827644222 0 -0.054815750958622449 -0.12121993458671421 0 -0.052226185020874803 -0.10777140110035199 0 -0.042975603979200937 -0.1162690010508441 0 -0.067512828879044168 -0.1117348170332913 0 -0.054815750958622449 -0.12121993458671421 0 -0.052226185020874803 -0.10777140110035199 0 -0.065350321199533809 -0.10067420092090219 0 -0.067512828879044168 -0.1117348170332913 0 -0.052226185020874803 -0.10777140110035199 0 -0.065350321199533809 -0.10067420092090219 0 -0.055132695013375713 -0.095335116235347045 0 -0.052226185020874803 -0.10777140110035199 0 -0.065390596180403313 -0.090822777912275596 0 -0.065350321199533809 -0.10067420092090219 0 -0.055132695013375713 -0.095335116235347045 0 -0.04831002283188273 -0.088134216723946862 0 -0.055132695013375713 -0.095335116235347045 0 -0.043243840676972498 -0.097834690679629133 0 -0.055132695013375713 -0.095335116235347045 0 -0.052226185020874803 -0.10777140110035199 0 -0.043243840676972498 -0.097834690679629133 0 -0.052226185020874803 -0.10777140110035199 0 -0.031769301471806823 -0.1012985465754266 0 -0.052226185020874803 -0.10777140110035199 0 -0.043243840676972498 -0.097834690679629133 0 -0.031769301471806823 -0.1012985465754266 0 -0.052226185020874803 -0.10777140110035199 0 -0.031769301471806823 -0.1012985465754266 0 -0.042975603979200937 -0.1162690010508441 0 -0.038387961484873008 -0.090784683682156198 0 -0.043243840676972498 -0.097834690679629133 0 -0.038387961484873008 -0.090784683682156198 0 -0.031769301471806823 -0.1012985465754266 0 -0.038387961484873008 -0.090784683682156198 0 -0.043243840676972498 -0.097834690679629133 0 -0.031769301471806823 -0.1012985465754266 0 -0.031769301471806823 -0.1012985465754266 0 -0.042975603979200937 -0.1162690010508441 0 -0.033102693190611897 -0.1228771290668647 0 -0.054815750958622449 -0.12121993458671421 0 -0.042975603979200937 -0.1162690010508441 0 -0.042662499150644427 -0.1279125563856108 0 -0.042975603979200937 -0.1162690010508441 0 -0.033102693190611897 -0.1228771290668647 0 -0.042662499150644427 -0.1279125563856108 0 -0.031769301471806823 -0.1012985465754266 0 -0.018552202747981361 -0.1222941504521793 0 -0.031769301471806823 -0.1012985465754266 0 -0.033102693190611897 -0.1228771290668647 0 -0.018552202747981361 -0.1222941504521793 0 -0.023231854058221479 -0.086126058582896237 0 -0.031769301471806823 -0.1012985465754266 0 -0.01138852615450052 -0.094849773798394932 0 -0.031769301471806823 -0.1012985465754266 0 -0.01138852615450052 -0.094849773798394932 0 -0.031769301471806823 -0.1012985465754266 0 -0.018552202747981361 -0.1222941504521793 0 -0.01138852615450052 -0.094849773798394932 0 -0.01138852615450052 -0.094849773798394932 0 0.0018285725693265691 -0.1158453776751463 0 0.0089922491628055441 -0.088401001021362557 0 -0.018552202747981361 -0.1222941504521793 0 -0.01138852615450052 -0.094849773798394932 0 0.0018285725693265691 -0.1158453776751463 0 -0.018552202747981361 -0.1222941504521793 0 -0.01827961465405548 -0.1413526675001415 0 -0.0053351040241528189 -0.1432897543289301 0 -0.018552202747981361 -0.1222941504521793 0 -0.0053351040241528189 -0.1432897543289301 0 0.0018285725693265691 -0.1158453776751463 0 -0.0053351040241528189 -0.1432897543289301 0 0.0018285725693265691 -0.1158453776751463 0 -0.018552202747981361 -0.1222941504521793 0 -0.0053351040241528189 -0.1432897543289301 0 -0.018552202747981361 -0.1222941504521793 0 -0.03075436980735214 -0.1331723399831046 0 -0.01827961465405548 -0.1413526675001415 0 -0.03075436980735214 -0.1331723399831046 0 -0.030235058224615349 -0.14441508308584239 0 -0.01827961465405548 -0.1413526675001415 0 -0.033102693190611897 -0.1228771290668647 0 -0.018552202747981361 -0.1222941504521793 0 -0.03075436980735214 -0.1331723399831046 0 -0.02476563778962981 -0.1515908766422889 0 -0.028916892841322012 -0.15948829731533831 0 -0.037857510454729799 -0.15327031880003711 0 -0.02476563778962981 -0.1515908766422889 0 -0.030235058224615349 -0.14441508308584239 0 -0.037857510454729799 -0.15327031880003711 0 -0.02476563778962981 -0.1515908766422889 0 -0.030235058224615349 -0.14441508308584239 0 -0.01827961465405548 -0.1413526675001415 0 -0.02476563778962981 -0.1515908766422889 0 -0.01827961465405548 -0.1413526675001415 0 -0.016514312235611919 -0.1514402258515847 0 -0.02476563778962981 -0.1515908766422889 0 -0.016514312235611919 -0.1514402258515847 0 -0.019638212935777059 -0.15885756867436279 0 -0.016514312235611919 -0.1514402258515847 0 -0.01221238989625738 -0.15557817792426151 0 -0.019638212935777059 -0.15885756867436279 0 -0.0053351040241528189 -0.1432897543289301 0 -0.0041922669992184216 -0.15234980027260381 0 0.0075355300201016672 -0.16373499270402719 0 -0.016514312235611919 -0.1514402258515847 0 -0.01221238989625738 -0.15557817792426151 0 -0.01099585087998883 -0.1511336670057343 0 -0.016514312235611919 -0.1514402258515847 0 -0.01099585087998883 -0.1511336670057343 0 -0.010597965072124431 -0.14651341959730321 0 -0.01099585087998883 -0.1511336670057343 0 -0.0078380637608168047 -0.14856013101238291 0 -0.010597965072124431 -0.14651341959730321 0 -0.01099585087998883 -0.1511336670057343 0 -0.0078380637608168047 -0.14856013101238291 0 -0.0077706840870299422 -0.1519134053950601 0 -0.01099585087998883 -0.1511336670057343 0 -0.0095978925725992356 -0.15307601793908901 0 -0.0077706840870299422 -0.1519134053950601 0 -0.0095978925725992356 -0.15307601793908901 0 -0.0071701574387160374 -0.15531634884297801 0 -0.0077706840870299422 -0.1519134053950601 0 -0.01221238989625738 -0.15557817792426151 0 -0.0095978925725992356 -0.15307601793908901 0 -0.0071701574387160374 -0.15531634884297801 0 -0.01221238989625738 -0.15557817792426151 0 -0.01099585087998883 -0.1511336670057343 0 -0.0095978925725992356 -0.15307601793908901 0 -0.01827961465405548 -0.1413526675001415 0 -0.016514312235611919 -0.1514402258515847 0 -0.010597965072124431 -0.14651341959730321 0 -0.01827961465405548 -0.1413526675001415 0 -0.010597965072124431 -0.14651341959730321 0 -0.0053351040241528189 -0.1432897543289301 0 -0.0078380637608168047 -0.14856013101238291 0 -0.010597965072124431 -0.14651341959730321 0 -0.0053351040241528189 -0.1432897543289301 0 -0.0078380637608168047 -0.14856013101238291 0 -0.0053351040241528189 -0.1432897543289301 0 -0.0041922669992184216 -0.15234980027260381 0 -0.0041922669992184216 -0.15234980027260381 0 -0.0071701574387160374 -0.15531634884297801 0 -0.0034622320605035388 -0.15995017327122979 0 -0.0041922669992184216 -0.15234980027260381 0 -0.0071701574387160374 -0.15531634884297801 0 -0.0077706840870299422 -0.1519134053950601 0 -0.0078380637608168047 -0.14856013101238291 0 -0.0041922669992184216 -0.15234980027260381 0 -0.0077706840870299422 -0.1519134053950601 0 -0.0041922669992184216 -0.15234980027260381 0 -0.0034622320605035388 -0.15995017327122979 0 0.0075355300201016672 -0.16373499270402719 0 -0.0071701574387160374 -0.15531634884297801 0 -0.0034622320605035388 -0.15995017327122979 0 -0.0086881255788250449 -0.1592138141305203 0 -0.0034622320605035388 -0.15995017327122979 0 -0.00059843098376162549 -0.1664542859823821 0 -0.0077986154932478697 -0.16452359618629889 0 -0.0034622320605035388 -0.15995017327122979 0 -0.0077986154932478697 -0.16452359618629889 0 -0.0086881255788250449 -0.1592138141305203 0 -0.00059843098376162549 -0.1664542859823821 0 -0.0042276626384493404 -0.17282719865605081 0 0.0046798418731774814 -0.1740902648174221 0 -0.00059843098376162549 -0.1664542859823821 0 -0.0077986154932478697 -0.16452359618629889 0 -0.0042276626384493404 -0.17282719865605081 0 -0.0077986154932478697 -0.16452359618629889 0 -0.013375292063502291 -0.1749639759624145 0 -0.017554219497494469 -0.16651941216622199 0 -0.0077986154932478697 -0.16452359618629889 0 -0.0042276626384493404 -0.17282719865605081 0 -0.013375292063502291 -0.1749639759624145 0 -0.0077986154932478697 -0.16452359618629889 0 -0.01288217763228354 -0.1600096030255615 0 -0.017554219497494469 -0.16651941216622199 0 -0.01221238989625738 -0.15557817792426151 0 -0.01288217763228354 -0.1600096030255615 0 -0.019638212935777059 -0.15885756867436279 0 -0.01221238989625738 -0.15557817792426151 0 -0.01288217763228354 -0.1600096030255615 0 -0.0086881255788250449 -0.1592138141305203 0 -0.01221238989625738 -0.15557817792426151 0 -0.0071701574387160374 -0.15531634884297801 0 -0.0086881255788250449 -0.1592138141305203 0 -0.0077986154932478697 -0.16452359618629889 0 -0.01288217763228354 -0.1600096030255615 0 -0.0086881255788250449 -0.1592138141305203 0 -0.0096276291966440695 -0.18293031249833611 0 -0.0055764814704000994 -0.19390034300100201 0 0.002399983828949417 -0.1833954459737217 0 -0.0042276626384493404 -0.17282719865605081 0 -0.0096276291966440695 -0.18293031249833611 0 0.002399983828949417 -0.1833954459737217 0 -0.0042276626384493404 -0.17282719865605081 0 -0.013375292063502291 -0.1749639759624145 0 -0.0096276291966440695 -0.18293031249833611 0 -0.013375292063502291 -0.1749639759624145 0 -0.0096276291966440695 -0.18293031249833611 0 -0.020662692045132849 -0.1818219172109726 0 -0.020662692045132849 -0.1818219172109726 0 -0.035723976126734079 -0.1838131573128288 0 -0.01866632327336613 -0.19151758793377749 0 -0.0096276291966440695 -0.18293031249833611 0 -0.020662692045132849 -0.1818219172109726 0 -0.01866632327336613 -0.19151758793377749 0 -0.013375292063502291 -0.1749639759624145 0 -0.020662692045132849 -0.1818219172109726 0 -0.026763386705139069 -0.17494674971494659 0 -0.013375292063502291 -0.1749639759624145 0 -0.026763386705139069 -0.17494674971494659 0 -0.017554219497494469 -0.16651941216622199 0 -0.020662692045132849 -0.1818219172109726 0 -0.026763386705139069 -0.17494674971494659 0 -0.035723976126734079 -0.1838131573128288 0 -0.019638212935777059 -0.15885756867436279 0 -0.017554219497494469 -0.16651941216622199 0 -0.025689264022812412 -0.1662025032312269 0 -0.01288217763228354 -0.1600096030255615 0 -0.019638212935777059 -0.15885756867436279 0 -0.017554219497494469 -0.16651941216622199 0 -0.026763386705139069 -0.17494674971494659 0 -0.017554219497494469 -0.16651941216622199 0 -0.025689264022812412 -0.1662025032312269 0 -0.025689264022812412 -0.1662025032312269 0 -0.028916892841322012 -0.15948829731533831 0 -0.03603638492102626 -0.16759617782033279 0 -0.026763386705139069 -0.17494674971494659 0 -0.025689264022812412 -0.1662025032312269 0 -0.03603638492102626 -0.16759617782033279 0 -0.019638212935777059 -0.15885756867436279 0 -0.025689264022812412 -0.1662025032312269 0 -0.028916892841322012 -0.15948829731533831 0 -0.02476563778962981 -0.1515908766422889 0 -0.019638212935777059 -0.15885756867436279 0 -0.028916892841322012 -0.15948829731533831 0 -0.028916892841322012 -0.15948829731533831 0 -0.03603638492102626 -0.16759617782033279 0 -0.037857510454729799 -0.15327031880003711 0 -0.03603638492102626 -0.16759617782033279 0 -0.047747134968894038 -0.17543414686019901 0 -0.050852751029709077 -0.161350051637317 0 -0.03603638492102626 -0.16759617782033279 0 -0.050852751029709077 -0.161350051637317 0 -0.037857510454729799 -0.15327031880003711 0 -0.035723976126734079 -0.1838131573128288 0 -0.047747134968894038 -0.17543414686019901 0 -0.05284786563246633 -0.19386794761493639 0 -0.026763386705139069 -0.17494674971494659 0 -0.03603638492102626 -0.16759617782033279 0 -0.035723976126734079 -0.1838131573128288 0 -0.03603638492102626 -0.16759617782033279 0 -0.035723976126734079 -0.1838131573128288 0 -0.047747134968894038 -0.17543414686019901 0 -0.047747134968894038 -0.17543414686019901 0 -0.05284786563246633 -0.19386794761493639 0 -0.062593949518641903 -0.1761778253726303 0 -0.050852751029709077 -0.161350051637317 0 -0.066116709995575479 -0.15910738082248699 0 -0.062593949518641903 -0.1761778253726303 0 -0.047747134968894038 -0.17543414686019901 0 -0.050852751029709077 -0.161350051637317 0 -0.062593949518641903 -0.1761778253726303 0 -0.052773847214700811 -0.14820037936064431 0 -0.066690587532801854 -0.14229183223754571 0 -0.066116709995575479 -0.15910738082248699 0 -0.050852751029709077 -0.161350051637317 0 -0.052773847214700811 -0.14820037936064431 0 -0.066116709995575479 -0.15910738082248699 0 -0.050852751029709077 -0.161350051637317 0 -0.052773847214700811 -0.14820037936064431 0 -0.037857510454729799 -0.15327031880003711 0 -0.052773847214700811 -0.14820037936064431 0 -0.054288123020816648 -0.134566460284751 0 -0.041694150876204331 -0.14018245340798879 0 -0.052773847214700811 -0.14820037936064431 0 -0.054288123020816648 -0.134566460284751 0 -0.066690587532801854 -0.14229183223754571 0 -0.054815750958622449 -0.12121993458671421 0 -0.054288123020816648 -0.134566460284751 0 -0.067777966929164726 -0.12749705551743859 0 -0.054815750958622449 -0.12121993458671421 0 -0.054288123020816648 -0.134566460284751 0 -0.042662499150644427 -0.1279125563856108 0 -0.054288123020816648 -0.134566460284751 0 -0.041694150876204331 -0.14018245340798879 0 -0.042662499150644427 -0.1279125563856108 0 -0.033102693190611897 -0.1228771290668647 0 -0.03075436980735214 -0.1331723399831046 0 -0.042662499150644427 -0.1279125563856108 0 -0.03075436980735214 -0.1331723399831046 0 -0.030235058224615349 -0.14441508308584239 0 -0.041694150876204331 -0.14018245340798879 0 -0.03075436980735214 -0.1331723399831046 0 -0.041694150876204331 -0.14018245340798879 0 -0.042662499150644427 -0.1279125563856108 0 -0.030235058224615349 -0.14441508308584239 0 -0.041694150876204331 -0.14018245340798879 0 -0.037857510454729799 -0.15327031880003711 0 -0.052773847214700811 -0.14820037936064431 0 -0.041694150876204331 -0.14018245340798879 0 -0.037857510454729799 -0.15327031880003711 0 -0.024170965573579461 -0.24951732615867561 0 -0.0022516370053341471 -0.23545927786715129 0 -0.028283570602786991 -0.2332373991753707 0 -0.024170965573579461 -0.24951732615867561 0 -0.028283570602786991 -0.2332373991753707 0 -0.037194096020048667 -0.24615814040950751 0 -0.011198362974849069 -0.26002926692598732 0 -0.024170965573579461 -0.24951732615867561 0 -0.0022516370053341471 -0.23545927786715129 0 -0.0022516370053341471 -0.23545927786715129 0 -0.016835472751119851 -0.2129571594361869 0 0.00516441215593446 -0.22158586113786161 0 -0.0022516370053341471 -0.23545927786715129 0 -0.016835472751119851 -0.2129571594361869 0 -0.0022516370053341471 -0.23545927786715129 0 -0.028283570602786991 -0.2332373991753707 0 -0.016835472751119851 -0.2129571594361869 0 -0.028283570602786991 -0.2332373991753707 0 -0.016835472751119851 -0.2129571594361869 0 -0.03310933264011777 -0.21812008500322819 0 -0.023850492690660269 -0.21020575801998689 0 -0.016835472751119851 -0.2129571594361869 0 -0.03310933264011777 -0.21812008500322819 0 -0.023850492690660269 -0.21020575801998689 0 -0.033091977739123667 -0.20700633468291921 0 -0.03310933264011777 -0.21812008500322819 0 -0.023850492690660269 -0.21020575801998689 0 -0.02627972443892599 -0.19838515837450721 0 -0.033091977739123667 -0.20700633468291921 0 -0.023850492690660269 -0.21020575801998689 0 -0.016835472751119851 -0.2129571594361869 0 -0.02627972443892599 -0.19838515837450721 0 -0.016835472751119851 -0.2129571594361869 0 -0.014337623797781701 -0.20117778510809731 0 -0.02627972443892599 -0.19838515837450721 0 -0.016835472751119851 -0.2129571594361869 0 -0.02627972443892599 -0.19838515837450721 0 -0.023850492690660269 -0.21020575801998689 0 -0.016835472751119851 -0.2129571594361869 0 -0.016835472751119851 -0.2129571594361869 0 -0.001925340291015288 -0.20597243848106289 0 0.00516441215593446 -0.22158586113786161 0 -0.016835472751119851 -0.2129571594361869 0 0.00516441215593446 -0.22158586113786161 0 -0.016835472751119851 -0.2129571594361869 0 -0.001925340291015288 -0.20597243848106289 0 -0.014337623797781701 -0.20117778510809731 0 -0.014337623797781701 -0.20117778510809731 0 -0.0055764814704000994 -0.19390034300100201 0 -0.01866632327336613 -0.19151758793377749 0 -0.001925340291015288 -0.20597243848106289 0 -0.014337623797781701 -0.20117778510809731 0 -0.0055764814704000994 -0.19390034300100201 0 -0.001925340291015288 -0.20597243848106289 0 -0.0055764814704000994 -0.19390034300100201 0 0.0059444003428096122 -0.19443651352465419 0 -0.0096276291966440695 -0.18293031249833611 0 -0.0055764814704000994 -0.19390034300100201 0 -0.01866632327336613 -0.19151758793377749 0 -0.035723976126734079 -0.1838131573128288 0 -0.01866632327336613 -0.19151758793377749 0 -0.02627972443892599 -0.19838515837450721 0 -0.014337623797781701 -0.20117778510809731 0 -0.01866632327336613 -0.19151758793377749 0 -0.02627972443892599 -0.19838515837450721 0 -0.035723976126734079 -0.1838131573128288 0 -0.02627972443892599 -0.19838515837450721 0 -0.038484264298025407 -0.198862151944527 0 -0.05284786563246633 -0.19386794761493639 0 -0.044477777552876997 -0.21123816173744331 0 -0.035723976126734079 -0.1838131573128288 0 -0.038484264298025407 -0.198862151944527 0 -0.05284786563246633 -0.19386794761493639 0 -0.035723976126734079 -0.1838131573128288 0 -0.02627972443892599 -0.19838515837450721 0 -0.038484264298025407 -0.198862151944527 0 -0.02627972443892599 -0.19838515837450721 0 -0.038484264298025407 -0.198862151944527 0 -0.033091977739123667 -0.20700633468291921 0 -0.05284786563246633 -0.19386794761493639 0 -0.044477777552876997 -0.21123816173744331 0 -0.069600273218505163 -0.21968687177514359 0 -0.038484264298025407 -0.198862151944527 0 -0.044477777552876997 -0.21123816173744331 0 -0.033091977739123667 -0.20700633468291921 0 -0.044477777552876997 -0.21123816173744331 0 -0.033091977739123667 -0.20700633468291921 0 -0.03310933264011777 -0.21812008500322819 0 -0.044477777552876997 -0.21123816173744331 0 -0.03310933264011777 -0.21812008500322819 0 -0.052116704504140812 -0.23407569696746361 0 -0.028283570602786991 -0.2332373991753707 0 -0.03310933264011777 -0.21812008500322819 0 -0.052116704504140812 -0.23407569696746361 0 -0.044477777552876997 -0.21123816173744331 0 -0.052116704504140812 -0.23407569696746361 0 -0.069600273218505163 -0.21968687177514359 0 -0.044477777552876997 -0.21123816173744331 0 -0.052116704504140812 -0.23407569696746361 0 -0.052116704504140812 -0.23407569696746361 0 -0.064649991064126097 -0.2424395968593327 0 -0.069600273218505163 -0.21968687177514359 0 -0.045650034501603522 -0.25307332536883509 0 -0.054574268323191143 -0.25585153309893799 0 -0.052116704504140812 -0.23407569696746361 0 -0.059755631455404988 -0.25691323219748369 0 -0.052116704504140812 -0.23407569696746361 0 -0.054574268323191143 -0.25585153309893799 0 -0.059755631455404988 -0.25691323219748369 0 -0.052116704504140812 -0.23407569696746361 0 -0.059755631455404988 -0.25691323219748369 0 -0.052116704504140812 -0.23407569696746361 0 -0.064649991064126097 -0.2424395968593327 0 -0.028283570602786991 -0.2332373991753707 0 -0.052116704504140812 -0.23407569696746361 0 -0.037194096020048667 -0.24615814040950751 0 -0.045650034501603522 -0.25307332536883509 0 -0.052116704504140812 -0.23407569696746361 0 -0.037194096020048667 -0.24615814040950751 0 -0.089537996638064749 -0.25029171891982521 0 -0.080290806967230774 -0.23976608717855799 0 -0.094028110547296428 -0.2403291368550951 0 -0.080290806967230774 -0.23976608717855799 0 -0.089610963234068031 -0.22798153938087209 0 -0.094028110547296428 -0.2403291368550951 0 -0.07637393942701047 -0.25111169802867211 0 -0.089537996638064749 -0.25029171891982521 0 -0.080290806967230774 -0.23976608717855799 0 -0.07637393942701047 -0.25111169802867211 0 -0.080290806967230774 -0.23976608717855799 0 -0.064649991064126097 -0.2424395968593327 0 -0.080290806967230774 -0.23976608717855799 0 -0.064649991064126097 -0.2424395968593327 0 -0.069600273218505163 -0.21968687177514359 0 -0.080290806967230774 -0.23976608717855799 0 -0.069600273218505163 -0.21968687177514359 0 -0.089610963234068031 -0.22798153938087209 0 -0.069600273218505163 -0.21968687177514359 0 -0.089610963234068031 -0.22798153938087209 0 -0.097858581117585913 -0.21173406310836079 0 -0.074378180000065575 -0.19744974299086709 0 -0.097858581117585913 -0.21173406310836079 0 -0.069600273218505163 -0.21968687177514359 0 -0.074378180000065575 -0.19744974299086709 0 -0.097858581117585913 -0.21173406310836079 0 -0.05284786563246633 -0.19386794761493639 0 -0.069600273218505163 -0.21968687177514359 0 -0.074378180000065575 -0.19744974299086709 0 -0.05284786563246633 -0.19386794761493639 0 -0.074378180000065575 -0.19744974299086709 0 -0.062593949518641903 -0.1761778253726303 0 -0.074378180000065575 -0.19744974299086709 0 -0.092010862622215528 -0.19006372685148881 0 -0.097858581117585913 -0.21173406310836079 0 -0.092010862622215528 -0.19006372685148881 0 -0.1109027796678594 -0.19364567346150549 0 -0.097858581117585913 -0.21173406310836079 0 -0.1109027796678594 -0.19364567346150549 0 -0.12545818671210421 -0.1802449876311536 0 -0.13238880602313419 -0.20328257652291951 0 -0.1109027796678594 -0.19364567346150549 0 -0.1156222872609213 -0.20867017407966029 0 -0.13238880602313419 -0.20328257652291951 0 -0.1156222872609213 -0.20867017407966029 0 -0.1213389822351057 -0.22601838322585521 0 -0.13238880602313419 -0.20328257652291951 0 -0.1156222872609213 -0.20867017407966029 0 -0.097858581117585913 -0.21173406310836079 0 -0.1213389822351057 -0.22601838322585521 0 -0.1109027796678594 -0.19364567346150549 0 -0.1156222872609213 -0.20867017407966029 0 -0.097858581117585913 -0.21173406310836079 0 -0.097858581117585913 -0.21173406310836079 0 -0.10353472907741409 -0.23346927384328939 0 -0.1213389822351057 -0.22601838322585521 0 -0.089610963234068031 -0.22798153938087209 0 -0.097858581117585913 -0.21173406310836079 0 -0.10353472907741409 -0.23346927384328939 0 -0.089610963234068031 -0.22798153938087209 0 -0.10353472907741409 -0.23346927384328939 0 -0.094028110547296428 -0.2403291368550951 0 -0.097858581117585913 -0.21173406310836079 0 -0.1213389822351057 -0.22601838322585521 0 -0.1213389822351057 -0.22601838322585521 0 -0.1102891706316249 -0.24875416485820759 0 -0.1200835581443566 -0.25027154356196418 0 -0.1213389822351057 -0.22601838322585521 0 -0.12299439152227851 -0.24968644881451429 0 -0.1200835581443566 -0.25027154356196418 0 -0.1213389822351057 -0.22601838322585521 0 -0.1102891706316249 -0.24875416485820759 0 -0.10353472907741409 -0.23346927384328939 0 -0.1213389822351057 -0.22601838322585521 0 -0.1102891706316249 -0.24875416485820759 0 -0.10353472907741409 -0.23346927384328939 0 -0.1102891706316249 -0.24875416485820759 0 -0.1010034765090346 -0.24844173791520191 0 -0.10353472907741409 -0.23346927384328939 0 -0.094028110547296428 -0.2403291368550951 0 -0.1010034765090346 -0.24844173791520191 0 -0.089537996638064749 -0.25029171891982521 0 -0.094028110547296428 -0.2403291368550951 0 -0.1010034765090346 -0.24844173791520191 0 -0.081665794070388514 -0.15343426541369731 0 -0.093486879180356572 -0.14630688115997381 0 -0.10217753897885699 -0.167410136491286 0 -0.081665794070388514 -0.15343426541369731 0 -0.093486879180356572 -0.14630688115997381 0 -0.080590832379880087 -0.13609069786919631 0 -0.080531236145691451 -0.11933730844748359 0 -0.080590832379880087 -0.13609069786919631 0 -0.094098559536747062 -0.12988730152384939 0 -0.093486879180356572 -0.14630688115997381 0 -0.080590832379880087 -0.13609069786919631 0 -0.094098559536747062 -0.12988730152384939 0 -0.080531236145691451 -0.11933730844748359 0 -0.080590832379880087 -0.13609069786919631 0 -0.067777966929164726 -0.12749705551743859 0 -0.080590832379880087 -0.13609069786919631 0 -0.067777966929164726 -0.12749705551743859 0 -0.066690587532801854 -0.14229183223754571 0 -0.054288123020816648 -0.134566460284751 0 -0.067777966929164726 -0.12749705551743859 0 -0.066690587532801854 -0.14229183223754571 0 -0.081665794070388514 -0.15343426541369731 0 -0.080590832379880087 -0.13609069786919631 0 -0.066690587532801854 -0.14229183223754571 0 -0.081665794070388514 -0.15343426541369731 0 -0.066690587532801854 -0.14229183223754571 0 -0.066116709995575479 -0.15910738082248699 0 -0.081665794070388514 -0.15343426541369731 0 -0.066116709995575479 -0.15910738082248699 0 -0.082123330607210721 -0.1731899309130874 0 -0.066116709995575479 -0.15910738082248699 0 -0.062593949518641903 -0.1761778253726303 0 -0.082123330607210721 -0.1731899309130874 0 -0.074378180000065575 -0.19744974299086709 0 -0.062593949518641903 -0.1761778253726303 0 -0.082123330607210721 -0.1731899309130874 0 -0.074378180000065575 -0.19744974299086709 0 -0.092010862622215528 -0.19006372685148881 0 -0.082123330607210721 -0.1731899309130874 0 -0.092010862622215528 -0.19006372685148881 0 -0.082123330607210721 -0.1731899309130874 0 -0.10217753897885699 -0.167410136491286 0 -0.081665794070388514 -0.15343426541369731 0 -0.082123330607210721 -0.1731899309130874 0 -0.10217753897885699 -0.167410136491286 0 -0.092010862622215528 -0.19006372685148881 0 -0.1109027796678594 -0.19364567346150549 0 -0.10217753897885699 -0.167410136491286 0 -0.1109027796678594 -0.19364567346150549 0 -0.10217753897885699 -0.167410136491286 0 -0.12545818671210421 -0.1802449876311536 0 -0.10217753897885699 -0.167410136491286 0 -0.1288638440347919 -0.15931358579649799 0 -0.12545818671210421 -0.1802449876311536 0 -0.10217753897885699 -0.167410136491286 0 -0.10890167093591011 -0.14471200450184021 0 -0.1288638440347919 -0.15931358579649799 0 -0.10890167093591011 -0.14471200450184021 0 -0.12505063256529819 -0.13949554111926879 0 -0.1288638440347919 -0.15931358579649799 0 -0.093486879180356572 -0.14630688115997381 0 -0.10217753897885699 -0.167410136491286 0 -0.10890167093591011 -0.14471200450184021 0 -0.093486879180356572 -0.14630688115997381 0 -0.10890167093591011 -0.14471200450184021 0 -0.094098559536747062 -0.12988730152384939 0 -0.11277651521281599 -0.1234892566383398 0 -0.10890167093591011 -0.14471200450184021 0 -0.094098559536747062 -0.12988730152384939 0 -0.11277651521281599 -0.1234892566383398 0 -0.10890167093591011 -0.14471200450184021 0 -0.12505063256529819 -0.13949554111926879 0 -0.11277651521281599 -0.1234892566383398 0 -0.12505063256529819 -0.13949554111926879 0 -0.13437452860801971 -0.1239487887983642 0 -0.12505063256529819 -0.13949554111926879 0 -0.14272000011978209 -0.14401847840120061 0 -0.13437452860801971 -0.1239487887983642 0 -0.15017576859723 -0.12918542774626909 0 -0.14272000011978209 -0.14401847840120061 0 -0.16533614497992999 -0.14435068304762599 0 -0.15017576859723 -0.12918542774626909 0 -0.14272000011978209 -0.14401847840120061 0 -0.13437452860801971 -0.1239487887983642 0 -0.14272000011978209 -0.14401847840120061 0 -0.1544884535991915 -0.1578109631170482 0 -0.16533614497992999 -0.14435068304762599 0 -0.14272000011978209 -0.14401847840120061 0 -0.1288638440347919 -0.15931358579649799 0 -0.1544884535991915 -0.1578109631170482 0 -0.12505063256529819 -0.13949554111926879 0 -0.14272000011978209 -0.14401847840120061 0 -0.1288638440347919 -0.15931358579649799 0 -0.1288638440347919 -0.15931358579649799 0 -0.12545818671210421 -0.1802449876311536 0 -0.1434386298111629 -0.18054676981998391 0 -0.1434386298111629 -0.18054676981998391 0 -0.16286553274057419 -0.17706955229793439 0 -0.15664331573222101 -0.1903812831209136 0 -0.1434386298111629 -0.18054676981998391 0 -0.1544884535991915 -0.1578109631170482 0 -0.16286553274057419 -0.17706955229793439 0 -0.1288638440347919 -0.15931358579649799 0 -0.1434386298111629 -0.18054676981998391 0 -0.1544884535991915 -0.1578109631170482 0 -0.1434386298111629 -0.18054676981998391 0 -0.1544884535991915 -0.1578109631170482 0 -0.1544884535991915 -0.1578109631170482 0 -0.16911163524981351 -0.16131867374166919 0 -0.16286553274057419 -0.17706955229793439 0 -0.16911163524981351 -0.16131867374166919 0 -0.16286553274057419 -0.17706955229793439 0 -0.17312482930980269 -0.17662847075191729 0 -0.16286553274057419 -0.17706955229793439 0 -0.1704096747582142 -0.1870484722770259 0 -0.15664331573222101 -0.1903812831209136 0 -0.16286553274057419 -0.17706955229793439 0 -0.1704096747582142 -0.1870484722770259 0 -0.17312482930980269 -0.17662847075191729 0 -0.18576898581204429 -0.17890251557725881 0 -0.18196698318111401 -0.16912133386360051 0 -0.18127032061929771 -0.18858432157935651 0 -0.18196698318111401 -0.16912133386360051 0 -0.18127032061929771 -0.18858432157935651 0 -0.17312482930980269 -0.17662847075191729 0 -0.18196698318111401 -0.16912133386360051 0 -0.18127032061929771 -0.18858432157935651 0 -0.1704096747582142 -0.1870484722770259 0 -0.17312482930980269 -0.17662847075191729 0 -0.18127032061929771 -0.18858432157935651 0 -0.18576898581204429 -0.17890251557725881 0 -0.18656871762372279 -0.18491184535135269 0 -0.18127032061929771 -0.18858432157935651 0 -0.18576898581204429 -0.17890251557725881 0 -0.18196698318111401 -0.16912133386360051 0 -0.19451473362871199 -0.16276739251605979 0 -0.16911163524981351 -0.16131867374166919 0 -0.18196698318111401 -0.16912133386360051 0 -0.1817827980923882 -0.1567619125222002 0 -0.16911163524981351 -0.16131867374166919 0 -0.17312482930980269 -0.17662847075191729 0 -0.18196698318111401 -0.16912133386360051 0 -0.18196698318111401 -0.16912133386360051 0 -0.1817827980923882 -0.1567619125222002 0 -0.19451473362871199 -0.16276739251605979 0 -0.1817827980923882 -0.1567619125222002 0 -0.18717727438414189 -0.14851358184850311 0 -0.18171401193812989 -0.14944382757774721 0 -0.17538518820359461 -0.15011972083405331 0 -0.18251078707239499 -0.1423800951062324 0 -0.16533614497992999 -0.14435068304762599 0 -0.16911163524981351 -0.16131867374166919 0 -0.1817827980923882 -0.1567619125222002 0 -0.17538518820359461 -0.15011972083405331 0 -0.1817827980923882 -0.1567619125222002 0 -0.18171401193812989 -0.14944382757774721 0 -0.17538518820359461 -0.15011972083405331 0 -0.18717727438414189 -0.14851358184850311 0 -0.18251078707239499 -0.1423800951062324 0 -0.1884157596294008 -0.138318424394934 0 -0.18171401193812989 -0.14944382757774721 0 -0.17538518820359461 -0.15011972083405331 0 -0.18251078707239499 -0.1423800951062324 0 -0.18717727438414189 -0.14851358184850311 0 -0.18171401193812989 -0.14944382757774721 0 -0.18251078707239499 -0.1423800951062324 0 -0.18251078707239499 -0.1423800951062324 0 -0.17555766286729721 -0.13040894284357429 0 -0.1884157596294008 -0.138318424394934 0 -0.18251078707239499 -0.1423800951062324 0 -0.17555766286729721 -0.13040894284357429 0 -0.16533614497992999 -0.14435068304762599 0 -0.18251078707239499 -0.1423800951062324 0 -0.1884157596294008 -0.138318424394934 0 -0.17555766286729721 -0.13040894284357429 0 -0.1884157596294008 -0.138318424394934 0 -0.18546239176448359 -0.12518813494572259 0 -0.17555766286729721 -0.13040894284357429 0 -0.1884157596294008 -0.138318424394934 0 -0.17555766286729721 -0.13040894284357429 0 -0.16533614497992999 -0.14435068304762599 0 -0.16359745754718019 -0.12338248359937889 0 -0.15017576859723 -0.12918542774626909 0 -0.16533614497992999 -0.14435068304762599 0 -0.16359745754718019 -0.12338248359937889 0 -0.1544884535991915 -0.1578109631170482 0 -0.16911163524981351 -0.16131867374166919 0 -0.16533614497992999 -0.14435068304762599 0 -0.16911163524981351 -0.16131867374166919 0 -0.17538518820359461 -0.15011972083405331 0 -0.16533614497992999 -0.14435068304762599 0 -0.13989617224675471 -0.2373076640724987 0 -0.15845336225840409 -0.24859694491914161 0 -0.1483751555864386 -0.25322417492281102 0 -0.13989617224675471 -0.2373076640724987 0 -0.15845336225840409 -0.24859694491914161 0 -0.13989617224675471 -0.2373076640724987 0 -0.15166742403090669 -0.23170741275409881 0 -0.15845336225840409 -0.24859694491914161 0 -0.1213389822351057 -0.22601838322585521 0 -0.12299439152227851 -0.24968644881451429 0 -0.13989617224675471 -0.2373076640724987 0 -0.1483751555864386 -0.25322417492281102 0 -0.12299439152227851 -0.24968644881451429 0 -0.13989617224675471 -0.2373076640724987 0 -0.1213389822351057 -0.22601838322585521 0 -0.13989617224675471 -0.2373076640724987 0 -0.1213389822351057 -0.22601838322585521 0 -0.13989617224675471 -0.2373076640724987 0 -0.13620450323287431 -0.2224792989618464 0 -0.13620450323287431 -0.2224792989618464 0 -0.15166742403090669 -0.23170741275409881 0 -0.1514047154603772 -0.2209101016505669 0 -0.13989617224675471 -0.2373076640724987 0 -0.13620450323287431 -0.2224792989618464 0 -0.15166742403090669 -0.23170741275409881 0 -0.15166742403090669 -0.23170741275409881 0 -0.1514047154603772 -0.2209101016505669 0 -0.16206977806914141 -0.22060874668559829 0 -0.1514047154603772 -0.2209101016505669 0 -0.13238880602313419 -0.20328257652291951 0 -0.15812548057954409 -0.2071079727743535 0 -0.13620450323287431 -0.2224792989618464 0 -0.1514047154603772 -0.2209101016505669 0 -0.13238880602313419 -0.20328257652291951 0 -0.1213389822351057 -0.22601838322585521 0 -0.13238880602313419 -0.20328257652291951 0 -0.1213389822351057 -0.22601838322585521 0 -0.13620450323287431 -0.2224792989618464 0 -0.13238880602313419 -0.20328257652291951 0 -0.1434386298111629 -0.18054676981998391 0 -0.13238880602313419 -0.20328257652291951 0 -0.12545818671210421 -0.1802449876311536 0 -0.1434386298111629 -0.18054676981998391 0 -0.13238880602313419 -0.20328257652291951 0 -0.13238880602313419 -0.20328257652291951 0 -0.15664331573222101 -0.1903812831209136 0 -0.15812548057954409 -0.2071079727743535 0 -0.1434386298111629 -0.18054676981998391 0 -0.13238880602313419 -0.20328257652291951 0 -0.15664331573222101 -0.1903812831209136 0 -0.15664331573222101 -0.1903812831209136 0 -0.16623873905900649 -0.1965942653675147 0 -0.15812548057954409 -0.2071079727743535 0 -0.16623873905900649 -0.1965942653675147 0 -0.17072449620061739 -0.20419887195019271 0 -0.15812548057954409 -0.2071079727743535 0 -0.16623873905900649 -0.1965942653675147 0 -0.17384337773892339 -0.1968946480938405 0 -0.17072449620061739 -0.20419887195019271 0 -0.1704096747582142 -0.1870484722770259 0 -0.15664331573222101 -0.1903812831209136 0 -0.16623873905900649 -0.1965942653675147 0 -0.1704096747582142 -0.1870484722770259 0 -0.16623873905900649 -0.1965942653675147 0 -0.17384337773892339 -0.1968946480938405 0 -0.1704096747582142 -0.1870484722770259 0 -0.18127032061929771 -0.18858432157935651 0 -0.17384337773892339 -0.1968946480938405 0 -0.18127032061929771 -0.18858432157935651 0 -0.18057365805748049 -0.2080473092951125 0 -0.18127032061929771 -0.18858432157935651 0 -0.17384337773892339 -0.1968946480938405 0 -0.18057365805748049 -0.2080473092951125 0 -0.18127032061929771 -0.18858432157935651 0 -0.18057365805748049 -0.2080473092951125 0 -0.1876178909277722 -0.19827380177333931 0 -0.18127032061929771 -0.18858432157935651 0 -0.1870810421502829 -0.18931429966484389 0 -0.1876178909277722 -0.19827380177333931 0 -0.18656871762372279 -0.18491184535135269 0 -0.18127032061929771 -0.18858432157935651 0 -0.1870810421502829 -0.18931429966484389 0 -0.17384337773892339 -0.1968946480938405 0 -0.18057365805748049 -0.2080473092951125 0 -0.17072449620061739 -0.20419887195019271 0 -0.18057365805748049 -0.2080473092951125 0 -0.17000984117427431 -0.21348205228003569 0 -0.18057365805748049 -0.2080473092951125 0 -0.18024835445158419 -0.2171354682295048 0 -0.19756596068946011 -0.19930531778315189 0 -0.18057365805748049 -0.2080473092951125 0 -0.17000984117427431 -0.21348205228003569 0 -0.17072449620061739 -0.20419887195019271 0 -0.18057365805748049 -0.2080473092951125 0 -0.18024835445158419 -0.2171354682295048 0 -0.18057365805748049 -0.2080473092951125 0 -0.18024835445158419 -0.2171354682295048 0 -0.17000984117427431 -0.21348205228003569 0 -0.17000984117427431 -0.21348205228003569 0 -0.17072449620061739 -0.20419887195019271 0 -0.15812548057954409 -0.2071079727743535 0 -0.1514047154603772 -0.2209101016505669 0 -0.15812548057954409 -0.2071079727743535 0 -0.16206977806914141 -0.22060874668559829 0 -0.17000984117427431 -0.21348205228003569 0 -0.15812548057954409 -0.2071079727743535 0 -0.16206977806914141 -0.22060874668559829 0 -0.15166742403090669 -0.23170741275409881 0 -0.16206977806914141 -0.22060874668559829 0 -0.1628259978788871 -0.2370395830882791 0 -0.16206977806914141 -0.22060874668559829 0 -0.1703995987239301 -0.22727571474633049 0 -0.1628259978788871 -0.2370395830882791 0 -0.1703995987239301 -0.22727571474633049 0 -0.1701697398291302 -0.23491668400633631 0 -0.1628259978788871 -0.2370395830882791 0 -0.17000984117427431 -0.21348205228003569 0 -0.16206977806914141 -0.22060874668559829 0 -0.1703995987239301 -0.22727571474633049 0 -0.18024835445158419 -0.2171354682295048 0 -0.17968861992929169 -0.23277303328412269 0 -0.19069874449240401 -0.2149734791840815 0 -0.17968861992929169 -0.23277303328412269 0 -0.19069874449240401 -0.2149734791840815 0 -0.17968861992929169 -0.23277303328412269 0 -0.17946756871522859 -0.23894864440443631 0 -0.20083960997568079 -0.2291360503806231 0 -0.18024835445158419 -0.2171354682295048 0 -0.1703995987239301 -0.22727571474633049 0 -0.18024835445158419 -0.2171354682295048 0 -0.1703995987239301 -0.22727571474633049 0 -0.17968861992929169 -0.23277303328412269 0 -0.18024835445158419 -0.2171354682295048 0 -0.17968861992929169 -0.23277303328412269 0 -0.18024835445158419 -0.2171354682295048 0 -0.17000984117427431 -0.21348205228003569 0 -0.1703995987239301 -0.22727571474633049 0 -0.1703995987239301 -0.22727571474633049 0 -0.17968861992929169 -0.23277303328412269 0 -0.1701697398291302 -0.23491668400633631 0 -0.17968861992929169 -0.23277303328412269 0 -0.17444109585231091 -0.2412564603483803 0 -0.1701697398291302 -0.23491668400633631 0 -0.17968861992929169 -0.23277303328412269 0 -0.17444109585231091 -0.2412564603483803 0 -0.1788047671982789 -0.25746564027792762 0 -0.17444109585231091 -0.2412564603483803 0 -0.17946756871522859 -0.23894864440443631 0 -0.17968861992929169 -0.23277303328412269 0 -0.17444109585231091 -0.2412564603483803 0 -0.17946756871522859 -0.23894864440443631 0 -0.1788047671982789 -0.25746564027792762 0 -0.17946756871522859 -0.23894864440443631 0 -0.1788047671982789 -0.25746564027792762 0 -0.17946756871522859 -0.23894864440443631 0 -0.1919820056061752 -0.24866694914454751 0 -0.17444109585231091 -0.2412564603483803 0 -0.17946756871522859 -0.23894864440443631 0 -0.17968861992929169 -0.23277303328412269 0 -0.17946756871522859 -0.23894864440443631 0 -0.15166742403090669 -0.23170741275409881 0 -0.1628259978788871 -0.2370395830882791 0 -0.15845336225840409 -0.24859694491914161 0 -0.16677071226738061 -0.25365681120774819 0 -0.17444109585231091 -0.2412564603483803 0 -0.16677071226738061 -0.25365681120774819 0 -0.17444109585231091 -0.2412564603483803 0 -0.15845336225840409 -0.24859694491914161 0 -0.17444109585231091 -0.2412564603483803 0 -0.15845336225840409 -0.24859694491914161 0 -0.17444109585231091 -0.2412564603483803 0 -0.1628259978788871 -0.2370395830882791 0 -0.15845336225840409 -0.24859694491914161 0 -0.17444109585231091 -0.2412564603483803 0 -0.1701697398291302 -0.23491668400633631 0 -0.1628259978788871 -0.2370395830882791 0 -0.20887667506423541 -0.23755441023813051 0 -0.20565060507058999 -0.2479615578658618 0 -0.21978578570267129 -0.24479074222682279 0 -0.20887667506423541 -0.23755441023813051 0 -0.20565060507058999 -0.2479615578658618 0 -0.19736329288638191 -0.2404535224067198 0 -0.17946756871522859 -0.23894864440443631 0 -0.1919820056061752 -0.24866694914454751 0 -0.19736329288638191 -0.2404535224067198 0 -0.17946756871522859 -0.23894864440443631 0 -0.19736329288638191 -0.2404535224067198 0 -0.20083960997568079 -0.2291360503806231 0 -0.20565060507058999 -0.2479615578658618 0 -0.1919820056061752 -0.24866694914454751 0 -0.19736329288638191 -0.2404535224067198 0 -0.20887667506423541 -0.23755441023813051 0 -0.19736329288638191 -0.2404535224067198 0 -0.20083960997568079 -0.2291360503806231 0 -0.17946756871522859 -0.23894864440443631 0 -0.20083960997568079 -0.2291360503806231 0 -0.20083960997568079 -0.2291360503806231 0 -0.2064042364648746 -0.2132313983189458 0 -0.19069874449240401 -0.2149734791840815 0 -0.17968861992929169 -0.23277303328412269 0 -0.20083960997568079 -0.2291360503806231 0 -0.19069874449240401 -0.2149734791840815 0 -0.20083960997568079 -0.2291360503806231 0 -0.2222116512361326 -0.2193234563568088 0 -0.20083960997568079 -0.2291360503806231 0 -0.2064042364648746 -0.2132313983189458 0 -0.2222116512361326 -0.2193234563568088 0 -0.20887667506423541 -0.23755441023813051 0 -0.2222116512361326 -0.2193234563568088 0 -0.21978578570267129 -0.24479074222682279 0 -0.20887667506423541 -0.23755441023813051 0 -0.20083960997568079 -0.2291360503806231 0 -0.2222116512361326 -0.2193234563568088 0 -0.2064042364648746 -0.2132313983189458 0 -0.21429923961852251 -0.2013705982940702 0 -0.2222116512361326 -0.2193234563568088 0 -0.2064042364648746 -0.2132313983189458 0 -0.2017088690555156 -0.19717392508404 0 -0.21429923961852251 -0.2013705982940702 0 -0.19069874449240401 -0.2149734791840815 0 -0.2017088690555156 -0.19717392508404 0 -0.19756596068946011 -0.19930531778315189 0 -0.19069874449240401 -0.2149734791840815 0 -0.2017088690555156 -0.19717392508404 0 -0.18024835445158419 -0.2171354682295048 0 -0.19756596068946011 -0.19930531778315189 0 -0.2064042364648746 -0.2132313983189458 0 -0.19069874449240401 -0.2149734791840815 0 -0.2017088690555156 -0.19717392508404 0 -0.18057365805748049 -0.2080473092951125 0 -0.19756596068946011 -0.19930531778315189 0 -0.18024835445158419 -0.2171354682295048 0 -0.19069874449240401 -0.2149734791840815 0 -0.19756596068946011 -0.19930531778315189 0 -0.18057365805748049 -0.2080473092951125 0 -0.19756596068946011 -0.19930531778315189 0 -0.1876178909277722 -0.19827380177333931 0 -0.2017088690555156 -0.19717392508404 0 -0.19756596068946011 -0.19930531778315189 0 -0.2053441781789237 -0.19129689062892871 0 -0.2017088690555156 -0.19717392508404 0 -0.19756596068946011 -0.19930531778315189 0 -0.19756596068946011 -0.19930531778315189 0 -0.1876178909277722 -0.19827380177333931 0 -0.19091689050611549 -0.19449932602587111 0 -0.19756596068946011 -0.19930531778315189 0 -0.19091689050611549 -0.19449932602587111 0 -0.1952834904471093 -0.19282287314090599 0 -0.1870810421502829 -0.18931429966484389 0 -0.1876178909277722 -0.19827380177333931 0 -0.19091689050611549 -0.19449932602587111 0 -0.1870810421502829 -0.18931429966484389 0 -0.1952834904471093 -0.19282287314090599 0 -0.19505258936467831 -0.1837955151479406 0 -0.1952834904471093 -0.19282287314090599 0 -0.19505258936467831 -0.1837955151479406 0 -0.1870810421502829 -0.18931429966484389 0 -0.19091689050611549 -0.19449932602587111 0 -0.1952834904471093 -0.19282287314090599 0 -0.19756596068946011 -0.19930531778315189 0 -0.2053441781789237 -0.19129689062892871 0 -0.1952834904471093 -0.19282287314090599 0 -0.2053441781789237 -0.19129689062892871 0 -0.19505258936467831 -0.1837955151479406 0 -0.19756596068946011 -0.19930531778315189 0 -0.1952834904471093 -0.19282287314090599 0 -0.2053441781789237 -0.19129689062892871 0 -0.2017088690555156 -0.19717392508404 0 -0.2053441781789237 -0.19129689062892871 0 -0.2182052821928667 -0.18868705271907341 0 -0.2017088690555156 -0.19717392508404 0 -0.21429923961852251 -0.2013705982940702 0 -0.2182052821928667 -0.18868705271907341 0 -0.2017088690555156 -0.19717392508404 0 -0.2182052821928667 -0.18868705271907341 0 -0.2017088690555156 -0.19717392508404 0 -0.2053441781789237 -0.19129689062892871 0 -0.227875077305594 -0.19842900771046379 0 -0.23961132633301141 -0.19201141292091359 0 -0.23470169533021759 -0.1802001803541067 0 -0.2182052821928667 -0.18868705271907341 0 -0.227875077305594 -0.19842900771046379 0 -0.23470169533021759 -0.1802001803541067 0 -0.21429923961852251 -0.2013705982940702 0 -0.2182052821928667 -0.18868705271907341 0 -0.227875077305594 -0.19842900771046379 0 -0.23961132633301141 -0.19201141292091359 0 -0.23822126912281311 -0.2089813456178102 0 -0.25366509967595402 -0.1948527909645893 0 -0.227875077305594 -0.19842900771046379 0 -0.23961132633301141 -0.19201141292091359 0 -0.23822126912281311 -0.2089813456178102 0 -0.23961132633301141 -0.19201141292091359 0 -0.24859954248683089 -0.18143928639920409 0 -0.25366509967595402 -0.1948527909645893 0 -0.23822126912281311 -0.2089813456178102 0 -0.25317274192714162 -0.21441552365493749 0 -0.25366509967595402 -0.1948527909645893 0 -0.23822126912281311 -0.2089813456178102 0 -0.23992074575463701 -0.2228500697442464 0 -0.25317274192714162 -0.21441552365493749 0 -0.227875077305594 -0.19842900771046379 0 -0.23822126912281311 -0.2089813456178102 0 -0.2222116512361326 -0.2193234563568088 0 -0.23822126912281311 -0.2089813456178102 0 -0.2222116512361326 -0.2193234563568088 0 -0.23992074575463701 -0.2228500697442464 0 -0.21429923961852251 -0.2013705982940702 0 -0.227875077305594 -0.19842900771046379 0 -0.2222116512361326 -0.2193234563568088 0 -0.2222116512361326 -0.2193234563568088 0 -0.23422236826404921 -0.2366043332488959 0 -0.21978578570267129 -0.24479074222682279 0 -0.2222116512361326 -0.2193234563568088 0 -0.23992074575463701 -0.2228500697442464 0 -0.23422236826404921 -0.2366043332488959 0 -0.23992074575463701 -0.2228500697442464 0 -0.23422236826404921 -0.2366043332488959 0 -0.25106874030253501 -0.2324917081722214 0 -0.23992074575463701 -0.2228500697442464 0 -0.25106874030253501 -0.2324917081722214 0 -0.25317274192714162 -0.21441552365493749 0 -0.2483468260877667 -0.24670177710050209 0 -0.23422236826404921 -0.2366043332488959 0 -0.25106874030253501 -0.2324917081722214 0 -0.234398189469262 -0.25214845472677339 0 -0.2483468260877667 -0.24670177710050209 0 -0.23422236826404921 -0.2366043332488959 0 -0.234398189469262 -0.25214845472677339 0 -0.23422236826404921 -0.2366043332488959 0 -0.21978578570267129 -0.24479074222682279 0 -0.20954272037304411 -0.15131438400932151 0 -0.2162979725539029 -0.14595545493736001 0 -0.20402921032502239 -0.13533937231246729 0 -0.2162979725539029 -0.14595545493736001 0 -0.20402921032502239 -0.13533937231246729 0 -0.20954272037304411 -0.15131438400932151 0 -0.19986270195139019 -0.1589935247353923 0 -0.20954272037304411 -0.15131438400932151 0 -0.224416398568661 -0.1604637227851754 0 -0.20954272037304411 -0.15131438400932151 0 -0.2162979725539029 -0.14595545493736001 0 -0.20954272037304411 -0.15131438400932151 0 -0.2162979725539029 -0.14595545493736001 0 -0.2228088737724328 -0.15158929672261581 0 -0.2162979725539029 -0.14595545493736001 0 -0.20402921032502239 -0.13533937231246729 0 -0.2194331806492634 -0.14346830014890111 0 -0.2162979725539029 -0.14595545493736001 0 -0.2194331806492634 -0.14346830014890111 0 -0.2194331806492634 -0.14346830014890111 0 -0.2244625779739384 -0.1290549203194136 0 -0.21087190621796381 -0.12287220986863651 0 -0.2194331806492634 -0.14346830014890111 0 -0.21087190621796381 -0.12287220986863651 0 -0.20402921032502239 -0.13533937231246729 0 -0.2194331806492634 -0.14346830014890111 0 -0.21087190621796381 -0.12287220986863651 0 -0.20402921032502239 -0.13533937231246729 0 -0.19379474461712609 -0.13461854847336949 0 -0.19397687789274501 -0.14173926988417901 0 -0.20402921032502239 -0.13533937231246729 0 -0.19379474461712609 -0.13461854847336949 0 -0.21087190621796381 -0.12287220986863651 0 -0.19379474461712609 -0.13461854847336949 0 -0.21087190621796381 -0.12287220986863651 0 -0.18546239176448359 -0.12518813494572259 0 -0.19379474461712609 -0.13461854847336949 0 -0.1884157596294008 -0.138318424394934 0 -0.19379474461712609 -0.13461854847336949 0 -0.19397687789274501 -0.14173926988417901 0 -0.19379474461712609 -0.13461854847336949 0 -0.1884157596294008 -0.138318424394934 0 -0.19397687789274501 -0.14173926988417901 0 -0.19379474461712609 -0.13461854847336949 0 -0.1884157596294008 -0.138318424394934 0 -0.1884157596294008 -0.138318424394934 0 -0.19397687789274501 -0.14173926988417901 0 -0.19397687789274501 -0.14173926988417901 0 -0.19451473362871199 -0.16276739251605979 0 -0.18717727438414189 -0.14851358184850311 0 -0.19397687789274501 -0.14173926988417901 0 -0.19451473362871199 -0.16276739251605979 0 -0.20954272037304411 -0.15131438400932151 0 -0.19397687789274501 -0.14173926988417901 0 -0.19986270195139019 -0.1589935247353923 0 -0.19397687789274501 -0.14173926988417901 0 -0.19451473362871199 -0.16276739251605979 0 -0.19986270195139019 -0.1589935247353923 0 -0.20954272037304411 -0.15131438400932151 0 -0.20402921032502239 -0.13533937231246729 0 -0.19397687789274501 -0.14173926988417901 0 -0.18717727438414189 -0.14851358184850311 0 -0.1884157596294008 -0.138318424394934 0 -0.19397687789274501 -0.14173926988417901 0 -0.20954272037304411 -0.15131438400932151 0 -0.19397687789274501 -0.14173926988417901 0 -0.1817827980923882 -0.1567619125222002 0 -0.18717727438414189 -0.14851358184850311 0 -0.19451473362871199 -0.16276739251605979 0 -0.19451473362871199 -0.16276739251605979 0 -0.2030087920064004 -0.16738612023977251 0 -0.19505258936467831 -0.1837955151479406 0 -0.19451473362871199 -0.16276739251605979 0 -0.2030087920064004 -0.16738612023977251 0 -0.19986270195139019 -0.1589935247353923 0 -0.2030087920064004 -0.16738612023977251 0 -0.19505258936467831 -0.1837955151479406 0 -0.20811013810539569 -0.17475563921407741 0 -0.2053441781789237 -0.19129689062892871 0 -0.19505258936467831 -0.1837955151479406 0 -0.20811013810539569 -0.17475563921407741 0 -0.19451473362871199 -0.16276739251605979 0 -0.19505258936467831 -0.1837955151479406 0 -0.18576898581204429 -0.17890251557725881 0 -0.19451473362871199 -0.16276739251605979 0 -0.19505258936467831 -0.1837955151479406 0 -0.1870810421502829 -0.18931429966484389 0 -0.19505258936467831 -0.1837955151479406 0 -0.18656871762372279 -0.18491184535135269 0 -0.1870810421502829 -0.18931429966484389 0 -0.19505258936467831 -0.1837955151479406 0 -0.18576898581204429 -0.17890251557725881 0 -0.18656871762372279 -0.18491184535135269 0 -0.19505258936467831 -0.1837955151479406 0 -0.19505258936467831 -0.1837955151479406 0 -0.20811013810539569 -0.17475563921407741 0 -0.2053441781789237 -0.19129689062892871 0 -0.20811013810539569 -0.17475563921407741 0 -0.22116768684611479 -0.16571576328021659 0 -0.2053441781789237 -0.19129689062892871 0 -0.22116768684611479 -0.16571576328021659 0 -0.2053441781789237 -0.19129689062892871 0 -0.226061199187025 -0.1699667139116221 0 -0.22116768684611479 -0.16571576328021659 0 -0.2053441781789237 -0.19129689062892871 0 -0.226061199187025 -0.1699667139116221 0 -0.2053441781789237 -0.19129689062892871 0 -0.2182052821928667 -0.18868705271907341 0 -0.226061199187025 -0.1699667139116221 0 -0.2030087920064004 -0.16738612023977251 0 -0.19986270195139019 -0.1589935247353923 0 -0.21101807297516759 -0.16310485904399291 0 -0.20954272037304411 -0.15131438400932151 0 -0.19986270195139019 -0.1589935247353923 0 -0.21101807297516759 -0.16310485904399291 0 -0.2030087920064004 -0.16738612023977251 0 -0.20811013810539569 -0.17475563921407741 0 -0.21101807297516759 -0.16310485904399291 0 -0.20811013810539569 -0.17475563921407741 0 -0.22116768684611479 -0.16571576328021659 0 -0.20811013810539569 -0.17475563921407741 0 -0.21101807297516759 -0.16310485904399291 0 -0.22116768684611479 -0.16571576328021659 0 -0.20954272037304411 -0.15131438400932151 0 -0.21101807297516759 -0.16310485904399291 0 -0.224416398568661 -0.1604637227851754 0 -0.2267131836226195 -0.16187655855300151 0 -0.23470169533021759 -0.1802001803541067 0 -0.21101807297516759 -0.16310485904399291 0 -0.224416398568661 -0.1604637227851754 0 -0.22116768684611479 -0.16571576328021659 0 -0.22566122364418539 -0.15845127223114719 0 -0.224416398568661 -0.1604637227851754 0 -0.2228088737724328 -0.15158929672261581 0 -0.226061199187025 -0.1699667139116221 0 -0.2267131836226195 -0.16187655855300151 0 -0.23470169533021759 -0.1802001803541067 0 -0.22566122364418539 -0.15845127223114719 0 -0.224416398568661 -0.1604637227851754 0 -0.22566122364418539 -0.15845127223114719 0 -0.2274315495883959 -0.15558926896878281 0 -0.22116768684611479 -0.16571576328021659 0 -0.2267131836226195 -0.16187655855300151 0 -0.224416398568661 -0.1604637227851754 0 -0.22116768684611479 -0.16571576328021659 0 -0.224416398568661 -0.1604637227851754 0 -0.22116768684611479 -0.16571576328021659 0 -0.2267131836226195 -0.16187655855300151 0 -0.22566122364418539 -0.15845127223114719 0 -0.2267131836226195 -0.16187655855300151 0 -0.22566122364418539 -0.15845127223114719 0 -0.224416398568661 -0.1604637227851754 0 -0.2267131836226195 -0.16187655855300151 0 -0.224416398568661 -0.1604637227851754 0 -0.2267131836226195 -0.16187655855300151 0 -0.226061199187025 -0.1699667139116221 0 -0.22116768684611479 -0.16571576328021659 0 -0.2267131836226195 -0.16187655855300151 0 -0.22566122364418539 -0.15845127223114719 0 -0.23114876993867059 -0.15880575630770649 0 -0.2267131836226195 -0.16187655855300151 0 -0.22566122364418539 -0.15845127223114719 0 -0.23114876993867059 -0.15880575630770649 0 -0.2274315495883959 -0.15558926896878281 0 -0.23114876993867059 -0.15880575630770649 0 -0.2274315495883959 -0.15558926896878281 0 -0.23114876993867059 -0.15880575630770649 0 -0.2267131836226195 -0.16187655855300151 0 -0.2182052821928667 -0.18868705271907341 0 -0.23470169533021759 -0.1802001803541067 0 -0.2182052821928667 -0.18868705271907341 0 -0.226061199187025 -0.1699667139116221 0 -0.23470169533021759 -0.1802001803541067 0 -0.23961132633301141 -0.19201141292091359 0 -0.23470169533021759 -0.1802001803541067 0 -0.23961132633301141 -0.19201141292091359 0 -0.23470169533021759 -0.1802001803541067 0 -0.24859954248683089 -0.18143928639920409 0 -0.23470169533021759 -0.1802001803541067 0 -0.24797942554236649 -0.17336921651556181 0 -0.23470169533021759 -0.1802001803541067 0 -0.24797942554236649 -0.17336921651556181 0 -0.24859954248683089 -0.18143928639920409 0 -0.24797942554236649 -0.17336921651556181 0 -0.24859954248683089 -0.18143928639920409 0 -0.25039736844854388 -0.17644555942502901 0 -0.24797942554236649 -0.17336921651556181 0 -0.25039736844854388 -0.17644555942502901 0 -0.23114876993867059 -0.15880575630770649 0 -0.24797942554236649 -0.17336921651556181 0 -0.23114876993867059 -0.15880575630770649 0 -0.248532515222471 -0.16028806219974051 0 -0.2494567402559198 -0.1528904046332156 0 -0.23114876993867059 -0.15880575630770649 0 -0.24797942554236649 -0.17336921651556181 0 -0.248532515222471 -0.16028806219974051 0 -0.2267131836226195 -0.16187655855300151 0 -0.24797942554236649 -0.17336921651556181 0 -0.2267131836226195 -0.16187655855300151 0 -0.23470169533021759 -0.1802001803541067 0 -0.24797942554236649 -0.17336921651556181 0 -0.23114876993867059 -0.15880575630770649 0 -0.2267131836226195 -0.16187655855300151 0 -0.24797942554236649 -0.17336921651556181 0 -0.2274315495883959 -0.15558926896878281 0 -0.24286157697291319 -0.13064426443032429 0 -0.23114876993867059 -0.15880575630770649 0 -0.2494567402559198 -0.1528904046332156 0 -0.25355617736538799 -0.14329287658126119 0 -0.23114876993867059 -0.15880575630770649 0 -0.25355617736538799 -0.14329287658126119 0 -0.23114876993867059 -0.15880575630770649 0 -0.2274315495883959 -0.15558926896878281 0 -0.25355617736538799 -0.14329287658126119 0 -0.2274315495883959 -0.15558926896878281 0 -0.24286157697291319 -0.13064426443032429 0 -0.25355617736538799 -0.14329287658126119 0 -0.2194331806492634 -0.14346830014890111 0 -0.2228088737724328 -0.15158929672261581 0 -0.24286157697291319 -0.13064426443032429 0 -0.2274315495883959 -0.15558926896878281 0 -0.2228088737724328 -0.15158929672261581 0 -0.24286157697291319 -0.13064426443032429 0 -0.2162979725539029 -0.14595545493736001 0 -0.2194331806492634 -0.14346830014890111 0 -0.2228088737724328 -0.15158929672261581 0 -0.2194331806492634 -0.14346830014890111 0 -0.2228088737724328 -0.15158929672261581 0 -0.20954272037304411 -0.15131438400932151 0 -0.224416398568661 -0.1604637227851754 0 -0.2228088737724328 -0.15158929672261581 0 -0.2162979725539029 -0.14595545493736001 0 -0.2228088737724328 -0.15158929672261581 0 -0.22566122364418539 -0.15845127223114719 0 -0.2274315495883959 -0.15558926896878281 0 -0.2228088737724328 -0.15158929672261581 0 -0.22566122364418539 -0.15845127223114719 0 -0.2228088737724328 -0.15158929672261581 0 -0.2274315495883959 -0.15558926896878281 0 -0.2228088737724328 -0.15158929672261581 0 -0.2194331806492634 -0.14346830014890111 0 -0.2398220812961375 -0.1272938229426385 0 -0.24286157697291319 -0.13064426443032429 0 -0.2194331806492634 -0.14346830014890111 0 -0.2244625779739384 -0.1290549203194136 0 -0.2398220812961375 -0.1272938229426385 0 -0.2194331806492634 -0.14346830014890111 0 -0.2398220812961375 -0.1272938229426385 0 -0.2244625779739384 -0.1290549203194136 0 -0.2398220812961375 -0.1272938229426385 0 -0.23278640641095821 -0.119538386009705 0 -0.2398220812961375 -0.1272938229426385 0 -0.24286157697291319 -0.13064426443032429 0 -0.24286157697291319 -0.13064426443032429 0 -0.2561520241318701 -0.14529434795947191 0 -0.244042885142947 -0.1287344986905469 0 -0.24286157697291319 -0.13064426443032429 0 -0.25723802464344048 -0.1318703987773184 0 -0.2398220812961375 -0.1272938229426385 0 -0.244042885142947 -0.1287344986905469 0 -0.25133096567543273 -0.12503417873500211 0 -0.2398220812961375 -0.1272938229426385 0 -0.244042885142947 -0.1287344986905469 0 -0.24286157697291319 -0.13064426443032429 0 -0.244042885142947 -0.1287344986905469 0 -0.24286157697291319 -0.13064426443032429 0 -0.2398220812961375 -0.1272938229426385 0 -0.25280495125304681 -0.1169945361970291 0 -0.25133096567543273 -0.12503417873500211 0 -0.2398220812961375 -0.1272938229426385 0 -0.25280495125304681 -0.1169945361970291 0 -0.2398220812961375 -0.1272938229426385 0 -0.24172308667225439 -0.1154077905854007 0 -0.25280495125304681 -0.1169945361970291 0 -0.24172308667225439 -0.1154077905854007 0 -0.24927704965079389 -0.10811927048862451 0 -0.2323137651122254 -0.10812366202596981 0 -0.2398220812961375 -0.1272938229426385 0 -0.24172308667225439 -0.1154077905854007 0 -0.23278640641095821 -0.119538386009705 0 -0.2398220812961375 -0.1272938229426385 0 -0.23278640641095821 -0.119538386009705 0 -0.24172308667225439 -0.1154077905854007 0 -0.2323137651122254 -0.10812366202596981 0 -0.23278640641095821 -0.119538386009705 0 -0.24172308667225439 -0.1154077905854007 0 -0.24927704965079389 -0.10811927048862451 0 -0.25280495125304681 -0.1169945361970291 0 -0.24927704965079389 -0.10811927048862451 0 -0.2323137651122254 -0.10812366202596981 0 -0.25375562400648699 -0.093375114183303284 0 -0.2323137651122254 -0.10812366202596981 0 -0.23834795727657129 -0.08272724145437689 0 -0.25375562400648699 -0.093375114183303284 0 -0.2323137651122254 -0.10812366202596981 0 -0.25375562400648699 -0.093375114183303284 0 -0.2244625779739384 -0.1290549203194136 0 -0.23278640641095821 -0.119538386009705 0 -0.21087190621796381 -0.12287220986863651 0 -0.2323137651122254 -0.10812366202596981 0 -0.21087190621796381 -0.12287220986863651 0 -0.2323137651122254 -0.10812366202596981 0 -0.23278640641095821 -0.119538386009705 0 -0.21087190621796381 -0.12287220986863651 0 -0.23834795727657129 -0.08272724145437689 0 -0.2310511482814015 -0.061242204551110929 0 -0.25286892980714532 -0.069080915611492183 0 -0.23834795727657129 -0.08272724145437689 0 -0.25286892980714532 -0.069080915611492183 0 -0.25375562400648699 -0.093375114183303284 0 -0.2323137651122254 -0.10812366202596981 0 -0.23834795727657129 -0.08272724145437689 0 -0.21900970357834751 -0.083280827786513689 0 -0.23834795727657129 -0.08272724145437689 0 -0.21900970357834751 -0.083280827786513689 0 -0.2310511482814015 -0.061242204551110929 0 -0.21900970357834751 -0.083280827786513689 0 -0.21080025626669971 -0.062268983347459693 0 -0.2310511482814015 -0.061242204551110929 0 -0.21900970357834751 -0.083280827786513689 0 -0.19235488008581661 -0.078325297490098506 0 -0.21080025626669971 -0.062268983347459693 0 -0.21900970357834751 -0.083280827786513689 0 -0.19235488008581661 -0.078325297490098506 0 -0.20161339315188981 -0.1005987536793676 0 -0.19235488008581661 -0.078325297490098506 0 -0.19307481235147211 -0.106471922981734 0 -0.1786744009573894 -0.086342272341572907 0 -0.19235488008581661 -0.078325297490098506 0 -0.20161339315188981 -0.1005987536793676 0 -0.19235488008581661 -0.078325297490098506 0 -0.19307481235147211 -0.106471922981734 0 -0.19235488008581661 -0.078325297490098506 0 -0.19159363184306061 -0.048563373740798957 0 -0.21080025626669971 -0.062268983347459693 0 -0.19235488008581661 -0.078325297490098506 0 -0.19159363184306061 -0.048563373740798957 0 -0.2323137651122254 -0.10812366202596981 0 -0.21087190621796381 -0.12287220986863651 0 -0.20161339315188981 -0.1005987536793676 0 -0.21087190621796381 -0.12287220986863651 0 -0.20161339315188981 -0.1005987536793676 0 -0.2323137651122254 -0.10812366202596981 0 -0.21900970357834751 -0.083280827786513689 0 -0.20161339315188981 -0.1005987536793676 0 -0.19235488008581661 -0.078325297490098506 0 -0.20161339315188981 -0.1005987536793676 0 -0.19307481235147211 -0.106471922981734 0 -0.19379474461712609 -0.13461854847336949 0 -0.19307481235147211 -0.106471922981734 0 -0.19379474461712609 -0.13461854847336949 0 -0.21087190621796381 -0.12287220986863651 0 -0.19307481235147211 -0.106471922981734 0 -0.21087190621796381 -0.12287220986863651 0 -0.20161339315188981 -0.1005987536793676 0 -0.19307481235147211 -0.106471922981734 0 -0.18546239176448359 -0.12518813494572259 0 -0.19379474461712609 -0.13461854847336949 0 -0.19307481235147211 -0.106471922981734 0 -0.18546239176448359 -0.12518813494572259 0 -0.19307481235147211 -0.106471922981734 0 -0.17646897935712219 -0.1161228360350017 0 -0.18546239176448359 -0.12518813494572259 0 -0.17555766286729721 -0.13040894284357429 0 -0.17646897935712219 -0.1161228360350017 0 -0.16359745754718019 -0.12338248359937889 0 -0.1637735145926921 -0.10745689698454219 0 -0.14969402744536539 -0.1140795351587596 0 -0.17555766286729721 -0.13040894284357429 0 -0.17646897935712219 -0.1161228360350017 0 -0.16359745754718019 -0.12338248359937889 0 -0.17646897935712219 -0.1161228360350017 0 -0.16359745754718019 -0.12338248359937889 0 -0.1637735145926921 -0.10745689698454219 0 -0.1637735145926921 -0.10745689698454219 0 -0.16527366322048531 -0.09270087423411176 0 -0.15131826916585059 -0.098243797589406712 0 -0.1637735145926921 -0.10745689698454219 0 -0.17545307409583219 -0.10181896051539251 0 -0.16527366322048531 -0.09270087423411176 0 -0.19307481235147211 -0.106471922981734 0 -0.17646897935712219 -0.1161228360350017 0 -0.17545307409583219 -0.10181896051539251 0 -0.19307481235147211 -0.106471922981734 0 -0.17545307409583219 -0.10181896051539251 0 -0.1786744009573894 -0.086342272341572907 0 -0.17646897935712219 -0.1161228360350017 0 -0.1637735145926921 -0.10745689698454219 0 -0.17545307409583219 -0.10181896051539251 0 -0.19235488008581661 -0.078325297490098506 0 -0.1786744009573894 -0.086342272341572907 0 -0.17996124905398619 -0.07155743140511292 0 -0.17545307409583219 -0.10181896051539251 0 -0.1786744009573894 -0.086342272341572907 0 -0.16527366322048531 -0.09270087423411176 0 -0.1786744009573894 -0.086342272341572907 0 -0.17996124905398619 -0.07155743140511292 0 -0.16732257058684799 -0.069367230213746647 0 -0.19235488008581661 -0.078325297490098506 0 -0.18149314458588961 -0.052194925575033677 0 -0.1786744009573894 -0.086342272341572907 0 -0.16732257058684799 -0.069367230213746647 0 -0.17996124905398619 -0.07155743140511292 0 -0.16732257058684799 -0.069367230213746647 0 -0.18149314458588961 -0.052194925575033677 0 -0.19235488008581661 -0.078325297490098506 0 -0.17996124905398619 -0.07155743140511292 0 -0.18149314458588961 -0.052194925575033677 0 -0.16732257058684799 -0.069367230213746647 0 -0.14731846231001211 -0.070520794653119168 0 -0.15597074021630661 -0.052392188085920353 0 -0.16732257058684799 -0.069367230213746647 0 -0.16527366322048531 -0.09270087423411176 0 -0.15363142221900791 -0.083974900720187484 0 -0.1786744009573894 -0.086342272341572907 0 -0.16732257058684799 -0.069367230213746647 0 -0.16527366322048531 -0.09270087423411176 0 -0.16527366322048531 -0.09270087423411176 0 -0.15363142221900791 -0.083974900720187484 0 -0.15131826916585059 -0.098243797589406712 0 -0.15363142221900791 -0.083974900720187484 0 -0.14731846231001211 -0.070520794653119168 0 -0.13889028885676721 -0.086763365866160735 0 -0.15363142221900791 -0.083974900720187484 0 -0.13889028885676721 -0.086763365866160735 0 -0.15131826916585059 -0.098243797589406712 0 -0.16732257058684799 -0.069367230213746647 0 -0.15363142221900791 -0.083974900720187484 0 -0.14731846231001211 -0.070520794653119168 0 -0.14731846231001211 -0.070520794653119168 0 -0.13058466754914791 -0.072696764781637224 0 -0.13889028885676721 -0.086763365866160735 0 -0.14731846231001211 -0.070520794653119168 0 -0.13058466754914791 -0.072696764781637224 0 -0.13924484101693299 -0.058484521346367932 0 -0.1236972460038322 -0.091538441889713273 0 -0.13058466754914791 -0.072696764781637224 0 -0.13889028885676721 -0.086763365866160735 0 -0.1236972460038322 -0.091538441889713273 0 -0.13889028885676721 -0.086763365866160735 0 -0.13664669866078591 -0.10448721257267859 0 -0.12374626213362271 -0.111929850458328 0 -0.1236972460038322 -0.091538441889713273 0 -0.13664669866078591 -0.10448721257267859 0 -0.12374626213362271 -0.111929850458328 0 -0.13664669866078591 -0.10448721257267859 0 -0.13437452860801971 -0.1239487887983642 0 -0.13664669866078591 -0.10448721257267859 0 -0.13437452860801971 -0.1239487887983642 0 -0.14969402744536539 -0.1140795351587596 0 -0.15017576859723 -0.12918542774626909 0 -0.13437452860801971 -0.1239487887983642 0 -0.14969402744536539 -0.1140795351587596 0 -0.15017576859723 -0.12918542774626909 0 -0.16359745754718019 -0.12338248359937889 0 -0.14969402744536539 -0.1140795351587596 0 -0.1637735145926921 -0.10745689698454219 0 -0.14969402744536539 -0.1140795351587596 0 -0.15131826916585059 -0.098243797589406712 0 -0.13889028885676721 -0.086763365866160735 0 -0.13664669866078591 -0.10448721257267859 0 -0.15131826916585059 -0.098243797589406712 0 -0.13664669866078591 -0.10448721257267859 0 -0.14969402744536539 -0.1140795351587596 0 -0.15131826916585059 -0.098243797589406712 0 -0.1523031397181169 -0.01778593827869248 0 -0.13146021635722041 -0.015740197922043599 0 -0.14461890984576531 -0.035417145958093997 0 -0.1523031397181169 -0.01778593827869248 0 -0.14461890984576531 -0.035417145958093997 0 -0.17063140908596311 -0.026064553659968719 0 -0.1523031397181169 -0.01778593827869248 0 -0.16027982176568631 -0.00116145906776613 0 -0.14131752195370059 0.001569289130654902 0 -0.1523031397181169 -0.01778593827869248 0 -0.13146021635722041 -0.015740197922043599 0 -0.14131752195370059 0.001569289130654902 0 -0.13146021635722041 -0.015740197922043599 0 -0.14131752195370059 0.001569289130654902 0 -0.12332417756614659 0.01212573047390467 0 -0.1228826187542597 -0.028283879923342189 0 -0.13146021635722041 -0.015740197922043599 0 -0.14461890984576531 -0.035417145958093997 0 -0.13146021635722041 -0.015740197922043599 0 -0.14461890984576531 -0.035417145958093997 0 -0.1228826187542597 -0.028283879923342189 0 -0.13073959040624369 -0.040407347587496832 0 -0.14461890984576531 -0.035417145958093997 0 -0.13073959040624369 -0.040407347587496832 0 -0.13987651297059581 -0.047179842554106073 0 -0.14461890984576531 -0.035417145958093997 0 -0.13073959040624369 -0.040407347587496832 0 -0.14461890984576531 -0.035417145958093997 0 -0.13058466754914791 -0.072696764781637224 0 -0.12559633262467301 -0.055414330815554858 0 -0.13924484101693299 -0.058484521346367932 0 -0.13073959040624369 -0.040407347587496832 0 -0.12559633262467301 -0.055414330815554858 0 -0.13987651297059581 -0.047179842554106073 0 -0.12559633262467301 -0.055414330815554858 0 -0.13987651297059581 -0.047179842554106073 0 -0.13924484101693299 -0.058484521346367932 0 -0.14731846231001211 -0.070520794653119168 0 -0.13924484101693299 -0.058484521346367932 0 -0.15597074021630661 -0.052392188085920353 0 -0.13987651297059581 -0.047179842554106073 0 -0.13924484101693299 -0.058484521346367932 0 -0.15597074021630661 -0.052392188085920353 0 -0.13987651297059581 -0.047179842554106073 0 -0.15597074021630661 -0.052392188085920353 0 -0.14461890984576531 -0.035417145958093997 0 -0.15597074021630661 -0.052392188085920353 0 -0.14461890984576531 -0.035417145958093997 0 -0.15597074021630661 -0.052392188085920353 0 -0.14461890984576531 -0.035417145958093997 0 -0.17063140908596311 -0.026064553659968719 0 -0.15597074021630661 -0.052392188085920353 0 -0.18149314458588961 -0.052194925575033677 0 -0.17063140908596311 -0.026064553659968719 0 -0.16732257058684799 -0.069367230213746647 0 -0.15597074021630661 -0.052392188085920353 0 -0.18149314458588961 -0.052194925575033677 0 -0.16732257058684799 -0.069367230213746647 0 -0.15597074021630661 -0.052392188085920353 0 -0.18149314458588961 -0.052194925575033677 0 -0.17063140908596311 -0.026064553659968719 0 -0.18149314458588961 -0.052194925575033677 0 -0.17063140908596311 -0.026064553659968719 0 -0.19159363184306061 -0.048563373740798957 0 -0.17063140908596311 -0.026064553659968719 0 -0.19083238360030419 -0.01880144999149955 0 -0.17063140908596311 -0.026064553659968719 0 -0.17740468971305831 -0.0094075288373980069 0 -0.19083238360030419 -0.01880144999149955 0 -0.17063140908596311 -0.026064553659968719 0 -0.19083238360030419 -0.01880144999149955 0 -0.19159363184306061 -0.048563373740798957 0 -0.14461890984576531 -0.035417145958093997 0 -0.17063140908596311 -0.026064553659968719 0 -0.17063140908596311 -0.026064553659968719 0 -0.16027982176568631 -0.00116145906776613 0 -0.17740468971305831 -0.0094075288373980069 0 -0.1523031397181169 -0.01778593827869248 0 -0.17063140908596311 -0.026064553659968719 0 -0.16027982176568631 -0.00116145906776613 0 -0.17063140908596311 -0.026064553659968719 0 -0.16027982176568631 -0.00116145906776613 0 -0.16027982176568631 -0.00116145906776613 0 -0.17740468971305831 -0.0094075288373980069 0 -0.1901437370436016 0.0081220227465518963 0 -0.17740468971305831 -0.0094075288373980069 0 -0.19083238360030419 -0.01880144999149955 0 -0.1901437370436016 0.0081220227465518963 0 -0.19083238360030419 -0.01880144999149955 0 -0.20988707629803419 -0.011950483057401861 0 -0.19083238360030419 -0.01880144999149955 0 -0.1901437370436016 0.0081220227465518963 0 -0.20447405146865369 0.0015694416137433901 0 -0.19083238360030419 -0.01880144999149955 0 -0.1901437370436016 0.0081220227465518963 0 -0.19083238360030419 -0.01880144999149955 0 -0.20988707629803419 -0.011950483057401861 0 -0.20447405146865369 0.0015694416137433901 0 -0.19083238360030419 -0.01880144999149955 0 -0.20654206781325091 -0.028061570099416479 0 -0.20988707629803419 -0.011950483057401861 0 -0.20654206781325091 -0.028061570099416479 0 -0.21999191754487099 -0.039933213168776377 0 -0.22040532977998559 -0.021059330538605651 0 -0.20654206781325091 -0.028061570099416479 0 -0.20988707629803419 -0.011950483057401861 0 -0.22040532977998559 -0.021059330538605651 0 -0.20988707629803419 -0.011950483057401861 0 -0.20447405146865369 0.0015694416137433901 0 -0.2212337546737895 0.008973270288563498 0 -0.19235488008581661 -0.078325297490098506 0 -0.18149314458588961 -0.052194925575033677 0 -0.19159363184306061 -0.048563373740798957 0 -0.19083238360030419 -0.01880144999149955 0 -0.19159363184306061 -0.048563373740798957 0 -0.19083238360030419 -0.01880144999149955 0 -0.20654206781325091 -0.028061570099416479 0 -0.19159363184306061 -0.048563373740798957 0 -0.20654206781325091 -0.028061570099416479 0 -0.19159363184306061 -0.048563373740798957 0 -0.21999191754487099 -0.039933213168776377 0 -0.19159363184306061 -0.048563373740798957 0 -0.21080025626669971 -0.062268983347459693 0 -0.21999191754487099 -0.039933213168776377 0 -0.2310511482814015 -0.061242204551110929 0 -0.21999191754487099 -0.039933213168776377 0 -0.24718038159089789 -0.042889499401326601 0 -0.21080025626669971 -0.062268983347459693 0 -0.2310511482814015 -0.061242204551110929 0 -0.21999191754487099 -0.039933213168776377 0 -0.21999191754487099 -0.039933213168776377 0 -0.24718038159089789 -0.042889499401326601 0 -0.23851398810622079 -0.020888352744531061 0 -0.2310511482814015 -0.061242204551110929 0 -0.24718038159089789 -0.042889499401326601 0 -0.25286892980714532 -0.069080915611492183 0 -0.20988707629803419 -0.011950483057401861 0 -0.2289417689957631 -0.0050995161233011316 0 -0.22040532977998559 -0.021059330538605651 0 -0.20988707629803419 -0.011950483057401861 0 -0.2289417689957631 -0.0050995161233011316 0 -0.2212337546737895 0.008973270288563498 0 -0.20988707629803419 -0.011950483057401861 0 -0.2289417689957631 -0.0050995161233011316 0 -0.2289417689957631 -0.0050995161233011316 0 -0.22040532977998559 -0.021059330538605651 0 -0.23851398810622079 -0.020888352744531061 0 -0.21999191754487099 -0.039933213168776377 0 -0.22040532977998559 -0.021059330538605651 0 -0.23851398810622079 -0.020888352744531061 0 -0.24718038159089789 -0.042889499401326601 0 -0.23851398810622079 -0.020888352744531061 0 -0.25161887970381169 -0.026555602016597249 0 -0.23851398810622079 -0.020888352744531061 0 -0.24995590060037429 -0.012374967383483291 0 -0.25161887970381169 -0.026555602016597249 0 -0.23851398810622079 -0.020888352744531061 0 -0.24995590060037429 -0.012374967383483291 0 -0.2479964616934921 0.001751450810798965 0 -0.2289417689957631 -0.0050995161233011316 0 -0.23851398810622079 -0.020888352744531061 0 -0.2479964616934921 0.001751450810798965 0 -0.2289417689957631 -0.0050995161233011316 0 -0.2479964616934921 0.001751450810798965 0 -0.23851398810622079 -0.020888352744531061 0 -0.2479964616934921 0.001751450810798965 0 -0.24995590060037429 -0.012374967383483291 0 -0.25280093984145469 -0.0047812359067542958 0 -0.26105000904448772 -0.0034130563339460351 0 -0.24995590060037429 -0.012374967383483291 0 -0.25280093984145469 -0.0047812359067542958 0 -0.2479964616934921 0.001751450810798965 0 -0.24995590060037429 -0.012374967383483291 0 -0.26105000904448772 -0.0034130563339460351 0 -0.26576583366324302 -0.028484226336176369 0 -0.25280093984145469 -0.0047812359067542958 0 -0.26105000904448772 -0.0034130563339460351 0 -0.25234564295639661 0.0033151651931428612 0 -0.26105000904448772 -0.0034130563339460351 0 -0.26576583366324302 -0.028484226336176369 0 -0.24995590060037429 -0.012374967383483291 0 -0.25161887970381169 -0.026555602016597249 0 -0.26576583366324302 -0.028484226336176369 0 -0.26105000904448772 -0.0034130563339460351 0 -0.26576583366324302 -0.028484226336176369 0 -0.28213990078279327 -0.020330057919978162 0 -0.26576583366324302 -0.028484226336176369 0 -0.28213990078279327 -0.020330057919978162 0 -0.28263457589675078 -0.041748749314530063 0 -0.26105000904448772 -0.0034130563339460351 0 -0.28213990078279327 -0.020330057919978162 0 -0.28360401817538239 0.00097631935184466052 0 -0.29359687102034132 -0.0088652826219001151 0 -0.28213990078279327 -0.020330057919978162 0 -0.28360401817538239 0.00097631935184466052 0 -0.28213990078279327 -0.020330057919978162 0 -0.29551592908947077 -0.023398446759708879 0 -0.29384224977469919 -0.036973700234540982 0 -0.29359687102034132 -0.0088652826219001151 0 -0.28213990078279327 -0.020330057919978162 0 -0.29551592908947077 -0.023398446759708879 0 -0.29551592908947077 -0.023398446759708879 0 -0.30380688173598369 -0.01138626731336888 0 -0.30469613815389102 -0.032584574158448419 0 -0.30380688173598369 -0.01138626731336888 0 -0.30469613815389102 -0.032584574158448419 0 -0.30380688173598369 -0.01138626731336888 0 -0.30469613815389102 -0.032584574158448419 0 -0.31569077912235949 -0.019775086275797861 0 -0.29551592908947077 -0.023398446759708879 0 -0.30469613815389102 -0.032584574158448419 0 -0.29551592908947077 -0.023398446759708879 0 -0.30469613815389102 -0.032584574158448419 0 -0.29384224977469919 -0.036973700234540982 0 -0.30380688173598369 -0.01138626731336888 0 -0.30291762531807659 0.0098120395317106771 0 -0.29359687102034132 -0.0088652826219001151 0 -0.30380688173598369 -0.01138626731336888 0 -0.30291762531807659 0.0098120395317106771 0 -0.30380688173598369 -0.01138626731336888 0 -0.3163223612136904 -0.0047133062924637663 0 -0.30291762531807659 0.0098120395317106771 0 -0.30380688173598369 -0.01138626731336888 0 -0.3163223612136904 -0.0047133062924637663 0 -0.31569077912235949 -0.019775086275797861 0 -0.29359687102034132 -0.0088652826219001151 0 -0.29551592908947077 -0.023398446759708879 0 -0.30380688173598369 -0.01138626731336888 0 -0.2975724881329011 -0.06323616400781347 0 -0.31940052681062298 -0.073271505383787974 0 -0.31994749336505318 -0.047845761674990078 0 -0.30555114515486298 -0.052966435223850472 0 -0.29384224977469919 -0.036973700234540982 0 -0.292515809570427 -0.050813938030729942 0 -0.30555114515486298 -0.052966435223850472 0 -0.2975724881329011 -0.06323616400781347 0 -0.31994749336505318 -0.047845761674990078 0 -0.2975724881329011 -0.06323616400781347 0 -0.31994749336505318 -0.047845761674990078 0 -0.30555114515486298 -0.052966435223850472 0 -0.292515809570427 -0.050813938030729942 0 -0.2975724881329011 -0.06323616400781347 0 -0.30555114515486298 -0.052966435223850472 0 -0.30469613815389102 -0.032584574158448419 0 -0.30469613815389102 -0.032584574158448419 0 -0.31994749336505318 -0.047845761674990078 0 -0.30555114515486298 -0.052966435223850472 0 -0.30469613815389102 -0.032584574158448419 0 -0.29384224977469919 -0.036973700234540982 0 -0.30555114515486298 -0.052966435223850472 0 -0.30469613815389102 -0.032584574158448419 0 -0.31994749336505318 -0.047845761674990078 0 -0.28213990078279327 -0.020330057919978162 0 -0.29384224977469919 -0.036973700234540982 0 -0.28263457589675078 -0.041748749314530063 0 -0.29384224977469919 -0.036973700234540982 0 -0.28263457589675078 -0.041748749314530063 0 -0.292515809570427 -0.050813938030729942 0 -0.28263457589675078 -0.041748749314530063 0 -0.292515809570427 -0.050813938030729942 0 -0.28339456941993257 -0.058901685946030263 0 -0.292515809570427 -0.050813938030729942 0 -0.28339456941993257 -0.058901685946030263 0 -0.2975724881329011 -0.06323616400781347 0 -0.28263457589675078 -0.041748749314530063 0 -0.28339456941993257 -0.058901685946030263 0 -0.27048165828199838 -0.053555396338406849 0 -0.26576583366324302 -0.028484226336176369 0 -0.28263457589675078 -0.041748749314530063 0 -0.27048165828199838 -0.053555396338406849 0 -0.26576583366324302 -0.028484226336176369 0 -0.27048165828199838 -0.053555396338406849 0 -0.24718038159089789 -0.042889499401326601 0 -0.25161887970381169 -0.026555602016597249 0 -0.26576583366324302 -0.028484226336176369 0 -0.24718038159089789 -0.042889499401326601 0 -0.26576583366324302 -0.028484226336176369 0 -0.27048165828199838 -0.053555396338406849 0 -0.24718038159089789 -0.042889499401326601 0 -0.27048165828199838 -0.053555396338406849 0 -0.25286892980714532 -0.069080915611492183 0 -0.25375562400648699 -0.093375114183303284 0 -0.27519748290074969 -0.07862656634063811 0 -0.26578782120995609 -0.1066952494514198 0 -0.25375562400648699 -0.093375114183303284 0 -0.27519748290074969 -0.07862656634063811 0 -0.25286892980714532 -0.069080915611492183 0 -0.25375562400648699 -0.093375114183303284 0 -0.27519748290074969 -0.07862656634063811 0 -0.27519748290074969 -0.07862656634063811 0 -0.28001720763493898 -0.10425011003522951 0 -0.27048165828199838 -0.053555396338406849 0 -0.25286892980714532 -0.069080915611492183 0 -0.27519748290074969 -0.07862656634063811 0 -0.28339456941993257 -0.058901685946030263 0 -0.27048165828199838 -0.053555396338406849 0 -0.27519748290074969 -0.07862656634063811 0 -0.27048165828199838 -0.053555396338406849 0 -0.27519748290074969 -0.07862656634063811 0 -0.24927704965079389 -0.10811927048862451 0 -0.25280495125304681 -0.1169945361970291 0 -0.26578782120995609 -0.1066952494514198 0 -0.26308785999280138 -0.12041780650020829 0 -0.25280495125304681 -0.1169945361970291 0 -0.25133096567543273 -0.12503417873500211 0 -0.25280495125304681 -0.1169945361970291 0 -0.26578782120995609 -0.1066952494514198 0 -0.26308785999280138 -0.12041780650020829 0 -0.25280495125304681 -0.1169945361970291 0 -0.26578782120995609 -0.1066952494514198 0 -0.24927704965079389 -0.10811927048862451 0 -0.25375562400648699 -0.093375114183303284 0 -0.26578782120995609 -0.1066952494514198 0 -0.27519748290074969 -0.07862656634063811 0 -0.28001720763493898 -0.10425011003522951 0 -0.26578782120995609 -0.1066952494514198 0 -0.28001720763493898 -0.10425011003522951 0 -0.26578782120995609 -0.1066952494514198 0 -0.27318877727601792 -0.1159591940231159 0 -0.28001720763493898 -0.10425011003522951 0 -0.27318877727601792 -0.1159591940231159 0 -0.28493146939076602 -0.12057831041018061 0 -0.26308785999280138 -0.12041780650020829 0 -0.26578782120995609 -0.1066952494514198 0 -0.27318877727601792 -0.1159591940231159 0 -0.27318877727601792 -0.1159591940231159 0 -0.28493146939076602 -0.12057831041018061 0 -0.27211952815162699 -0.1278544937185413 0 -0.26308785999280138 -0.12041780650020829 0 -0.27318877727601792 -0.1159591940231159 0 -0.27211952815162699 -0.1278544937185413 0 -0.28001720763493898 -0.10425011003522951 0 -0.28493146939076602 -0.12057831041018061 0 -0.29070005717534841 -0.1088646648341406 0 -0.28493146939076602 -0.12057831041018061 0 -0.29070005717534841 -0.1088646648341406 0 -0.3022482884458414 -0.1261125124430105 0 -0.29070005717534841 -0.1088646648341406 0 -0.30141991056019057 -0.1030377554698646 0 -0.28894203648890859 -0.093327457121329838 0 -0.28001720763493898 -0.10425011003522951 0 -0.29070005717534841 -0.1088646648341406 0 -0.28894203648890859 -0.093327457121329838 0 -0.30141991056019057 -0.1030377554698646 0 -0.28894203648890859 -0.093327457121329838 0 -0.30089206431760612 -0.084931924786172827 0 -0.31059843504919499 -0.099825517773343447 0 -0.30141991056019057 -0.1030377554698646 0 -0.31865119702334799 -0.1091965529202064 0 -0.31059843504919499 -0.099825517773343447 0 -0.30141991056019057 -0.1030377554698646 0 -0.30089206431760612 -0.084931924786172827 0 -0.30141991056019057 -0.1030377554698646 0 -0.31865119702334799 -0.1091965529202064 0 -0.3022482884458414 -0.1261125124430105 0 -0.31865119702334799 -0.1091965529202064 0 -0.3022482884458414 -0.1261125124430105 0 -0.29070005717534841 -0.1088646648341406 0 -0.30141991056019057 -0.1030377554698646 0 -0.3022482884458414 -0.1261125124430105 0 -0.27519748290074969 -0.07862656634063811 0 -0.30089206431760612 -0.084931924786172827 0 -0.2975724881329011 -0.06323616400781347 0 -0.28339456941993257 -0.058901685946030263 0 -0.27519748290074969 -0.07862656634063811 0 -0.2975724881329011 -0.06323616400781347 0 -0.27519748290074969 -0.07862656634063811 0 -0.2975724881329011 -0.06323616400781347 0 -0.27519748290074969 -0.07862656634063811 0 -0.28001720763493898 -0.10425011003522951 0 -0.28894203648890859 -0.093327457121329838 0 -0.27519748290074969 -0.07862656634063811 0 -0.28894203648890859 -0.093327457121329838 0 -0.30089206431760612 -0.084931924786172827 0 -0.30089206431760612 -0.084931924786172827 0 -0.31940052681062298 -0.073271505383787974 0 -0.31501746761955152 -0.090992252100627224 0 -0.31059843504919499 -0.099825517773343447 0 -0.30089206431760612 -0.084931924786172827 0 -0.31501746761955152 -0.090992252100627224 0 -0.30089206431760612 -0.084931924786172827 0 -0.2975724881329011 -0.06323616400781347 0 -0.31940052681062298 -0.073271505383787974 0 -0.31940052681062298 -0.073271505383787974 0 -0.33167147993343837 -0.0806386069629174 0 -0.33258187330511563 -0.071847539073424893 0 -0.31940052681062298 -0.073271505383787974 0 -0.31501746761955152 -0.090992252100627224 0 -0.32460777225248377 -0.089063391693113031 0 -0.31940052681062298 -0.073271505383787974 0 -0.32460777225248377 -0.089063391693113031 0 -0.33167147993343837 -0.0806386069629174 0 -0.33971912747365501 -0.083029597110440362 0 -0.34024678333177488 -0.094999967555602777 0 -0.34813783664332643 -0.078972587266705335 0 -0.32460777225248377 -0.089063391693113031 0 -0.33167147993343837 -0.0806386069629174 0 -0.33505410560085458 -0.092280593397402425 0 -0.33167147993343837 -0.0806386069629174 0 -0.33505410560085458 -0.092280593397402425 0 -0.34024678333177488 -0.094999967555602777 0 -0.33167147993343837 -0.0806386069629174 0 -0.34024678333177488 -0.094999967555602777 0 -0.33167147993343837 -0.0806386069629174 0 -0.33971912747365501 -0.083029597110440362 0 -0.34024678333177488 -0.094999967555602777 0 -0.33971912747365501 -0.083029597110440362 0 -0.33882040998608282 -0.07750722665653477 0 -0.34813783664332643 -0.078972587266705335 0 -0.33167147993343837 -0.0806386069629174 0 -0.33971912747365501 -0.083029597110440362 0 -0.33882040998608282 -0.07750722665653477 0 -0.33882040998608282 -0.07750722665653477 0 -0.33258187330511563 -0.071847539073424893 0 -0.34540924704448139 -0.073323930140787114 0 -0.34540924704448139 -0.073323930140787114 0 -0.33518383243456529 -0.052155535624345328 0 -0.34540924704448139 -0.073323930140787114 0 -0.3326783702047677 -0.060584845907888242 0 -0.33258187330511563 -0.071847539073424893 0 -0.34540924704448139 -0.073323930140787114 0 -0.3326783702047677 -0.060584845907888242 0 -0.31940052681062298 -0.073271505383787974 0 -0.33258187330511563 -0.071847539073424893 0 -0.3326783702047677 -0.060584845907888242 0 -0.33167147993343837 -0.0806386069629174 0 -0.33882040998608282 -0.07750722665653477 0 -0.33258187330511563 -0.071847539073424893 0 -0.32810237840269763 -0.1196662558818702 0 -0.31865119702334799 -0.1091965529202064 0 -0.31891090034324182 -0.12736182355918671 0 -0.31865119702334799 -0.1091965529202064 0 -0.3022482884458414 -0.1261125124430105 0 -0.31891090034324182 -0.12736182355918671 0 -0.33505410560085458 -0.092280593397402425 0 -0.31865119702334799 -0.1091965529202064 0 -0.31059843504919499 -0.099825517773343447 0 -0.31501746761955152 -0.090992252100627224 0 -0.31865119702334799 -0.1091965529202064 0 -0.31501746761955152 -0.090992252100627224 0 -0.32460777225248377 -0.089063391693113031 0 -0.31865119702334799 -0.1091965529202064 0 -0.32460777225248377 -0.089063391693113031 0 -0.33505410560085458 -0.092280593397402425 0 -0.31865119702334799 -0.1091965529202064 0 -0.32810237840269763 -0.1196662558818702 0 -0.34024678333177488 -0.094999967555602777 0 -0.32810237840269763 -0.1196662558818702 0 -0.31865119702334799 -0.1091965529202064 0 -0.34024678333177488 -0.094999967555602777 0 -0.33505410560085458 -0.092280593397402425 0 -0.31865119702334799 -0.1091965529202064 0 -0.34024678333177488 -0.094999967555602777 0 -0.32810237840269763 -0.1196662558818702 0 -0.33781140765928069 -0.1235229548137686 0 -0.3454497603817428 -0.1173098489617271 0 -0.32810237840269763 -0.1196662558818702 0 -0.34024678333177488 -0.094999967555602777 0 -0.3454497603817428 -0.1173098489617271 0 -0.34366047079634848 -0.122996848275744 0 -0.33781140765928069 -0.1235229548137686 0 -0.3454497603817428 -0.1173098489617271 0 -0.35219782940513089 -0.11501480250040361 0 -0.36319717345102709 -0.1334357887662404 0 -0.35219782940513089 -0.11501480250040361 0 -0.36207258902975498 -0.12055122510730901 0 -0.36319717345102709 -0.1334357887662404 0 -0.34731752122567672 -0.1215272453254367 0 -0.35219782940513089 -0.11501480250040361 0 -0.35176664503227961 -0.12728906372644119 0 -0.34366047079634848 -0.122996848275744 0 -0.34731752122567672 -0.1215272453254367 0 -0.34361731729155798 -0.12881944393541889 0 -0.34731752122567672 -0.1215272453254367 0 -0.3454497603817428 -0.1173098489617271 0 -0.34721310444700071 -0.11773346455288559 0 -0.34366047079634848 -0.122996848275744 0 -0.34731752122567672 -0.1215272453254367 0 -0.3454497603817428 -0.1173098489617271 0 -0.34731752122567672 -0.1215272453254367 0 -0.34721310444700071 -0.11773346455288559 0 -0.35219782940513089 -0.11501480250040361 0 -0.34721310444700071 -0.11773346455288559 0 -0.3493291349872385 -0.11021049960267019 0 -0.35219782940513089 -0.11501480250040361 0 -0.34721310444700071 -0.11773346455288559 0 -0.35219782940513089 -0.11501480250040361 0 -0.3454497603817428 -0.1173098489617271 0 -0.34721310444700071 -0.11773346455288559 0 -0.3493291349872385 -0.11021049960267019 0 -0.3454497603817428 -0.1173098489617271 0 -0.3493291349872385 -0.11021049960267019 0 -0.3493291349872385 -0.11021049960267019 0 -0.35219782940513089 -0.11501480250040361 0 -0.35219782940513089 -0.11501480250040361 0 -0.3627642780705696 -0.1092518761087734 0 -0.36207258902975498 -0.12055122510730901 0 -0.35219782940513089 -0.11501480250040361 0 -0.3627642780705696 -0.1092518761087734 0 -0.3493291349872385 -0.11021049960267019 0 -0.35219782940513089 -0.11501480250040361 0 -0.3627642780705696 -0.1092518761087734 0 -0.34024678333177488 -0.094999967555602777 0 -0.3454497603817428 -0.1173098489617271 0 -0.3493291349872385 -0.11021049960267019 0 -0.34024678333177488 -0.094999967555602777 0 -0.3493291349872385 -0.11021049960267019 0 -0.35670612205010338 -0.096710434849363258 0 -0.3493291349872385 -0.11021049960267019 0 -0.35670612205010338 -0.096710434849363258 0 -0.3627642780705696 -0.1092518761087734 0 -0.3493291349872385 -0.11021049960267019 0 -0.35670612205010338 -0.096710434849363258 0 -0.34024678333177488 -0.094999967555602777 0 -0.3493291349872385 -0.11021049960267019 0 -0.3627642780705696 -0.1092518761087734 0 -0.37983823747089002 -0.1140314496256568 0 -0.3771805720070675 -0.101389249466024 0 -0.36524200376925969 -0.097533456485385459 0 -0.36431704294929829 -0.08278226551738159 0 -0.3771805720070675 -0.101389249466024 0 -0.35670612205010338 -0.096710434849363258 0 -0.36524200376925969 -0.097533456485385459 0 -0.3627642780705696 -0.1092518761087734 0 -0.3627642780705696 -0.1092518761087734 0 -0.3771805720070675 -0.101389249466024 0 -0.36524200376925969 -0.097533456485385459 0 -0.3627642780705696 -0.1092518761087734 0 -0.3771805720070675 -0.101389249466024 0 -0.35670612205010338 -0.096710434849363258 0 -0.3627642780705696 -0.1092518761087734 0 -0.3627642780705696 -0.1092518761087734 0 -0.37403702289685531 -0.118678940056357 0 -0.37983823747089002 -0.1140314496256568 0 -0.3627642780705696 -0.1092518761087734 0 -0.37013107519229249 -0.1245024330538185 0 -0.3627642780705696 -0.1092518761087734 0 -0.37403702289685531 -0.118678940056357 0 -0.37013107519229249 -0.1245024330538185 0 -0.37403702289685531 -0.118678940056357 0 -0.37013107519229249 -0.1245024330538185 0 -0.37396262712923661 -0.12573471229752711 0 -0.3627642780705696 -0.1092518761087734 0 -0.37013107519229249 -0.1245024330538185 0 -0.36207258902975498 -0.12055122510730901 0 -0.35377205317546512 -0.067529028666190788 0 -0.36431704294929829 -0.08278226551738159 0 -0.35377205317546512 -0.067529028666190788 0 -0.35366345925254078 -0.081583463707765869 0 -0.36431704294929829 -0.08278226551738159 0 -0.35377205317546512 -0.067529028666190788 0 -0.3491004260425653 -0.077017488783080207 0 -0.35366345925254078 -0.081583463707765869 0 -0.35377205317546512 -0.067529028666190788 0 -0.34540924704448139 -0.073323930140787114 0 -0.34487610946889941 -0.062012581890525671 0 -0.35377205317546512 -0.067529028666190788 0 -0.3491004260425653 -0.077017488783080207 0 -0.35377205317546512 -0.067529028666190788 0 -0.34540924704448139 -0.073323930140787114 0 -0.3491004260425653 -0.077017488783080207 0 -0.33882040998608282 -0.07750722665653477 0 -0.34540924704448139 -0.073323930140787114 0 -0.34813783664332643 -0.078972587266705335 0 -0.3491004260425653 -0.077017488783080207 0 -0.34813783664332643 -0.078972587266705335 0 -0.34540924704448139 -0.073323930140787114 0 -0.3491004260425653 -0.077017488783080207 0 -0.34813783664332643 -0.078972587266705335 0 -0.34540924704448139 -0.073323930140787114 0 -0.34813783664332643 -0.078972587266705335 0 -0.34540924704448139 -0.073323930140787114 0 -0.3491004260425653 -0.077017488783080207 0 -0.34024678333177488 -0.094999967555602777 0 -0.34813783664332643 -0.078972587266705335 0 -0.34024678333177488 -0.094999967555602777 0 -0.35670612205010338 -0.096710434849363258 0 -0.34813783664332643 -0.078972587266705335 0 -0.35670612205010338 -0.096710434849363258 0 -0.34813783664332643 -0.078972587266705335 0 -0.35366345925254078 -0.081583463707765869 0 -0.35670612205010338 -0.096710434849363258 0 -0.34813783664332643 -0.078972587266705335 0 -0.3491004260425653 -0.077017488783080207 0 -0.34813783664332643 -0.078972587266705335 0 -0.35366345925254078 -0.081583463707765869 0 -0.3491004260425653 -0.077017488783080207 0 -0.35366345925254078 -0.081583463707765869 0 -0.35670612205010338 -0.096710434849363258 0 -0.35366345925254078 -0.081583463707765869 0 -0.36431704294929829 -0.08278226551738159 0 -0.36431704294929829 -0.08278226551738159 0 -0.3771805720070675 -0.101389249466024 0 -0.36431704294929829 -0.08278226551738159 0 -0.3821870053603057 -0.079775508001927647 0 -0.3771805720070675 -0.101389249466024 0 -0.35670612205010338 -0.096710434849363258 0 -0.36524200376925969 -0.097533456485385459 0 -0.36431704294929829 -0.08278226551738159 0 -0.35670612205010338 -0.096710434849363258 0 -0.36431704294929829 -0.08278226551738159 0 -0.36431704294929829 -0.08278226551738159 0 -0.37506547387842742 -0.063112376943205178 0 -0.35377205317546512 -0.067529028666190788 0 -0.36431704294929829 -0.08278226551738159 0 -0.37506547387842742 -0.063112376943205178 0 -0.36431704294929829 -0.08278226551738159 0 -0.37506547387842742 -0.063112376943205178 0 -0.3821870053603057 -0.079775508001927647 0 -0.35377205317546512 -0.067529028666190788 0 -0.36545064736328559 -0.043744858477626977 0 -0.37506547387842742 -0.063112376943205178 0 -0.35377205317546512 -0.067529028666190788 0 -0.36545064736328559 -0.043744858477626977 0 -0.35377205317546512 -0.067529028666190788 0 -0.34513930522108549 -0.055041833130779268 0 -0.36545064736328559 -0.043744858477626977 0 -0.35377205317546512 -0.067529028666190788 0 -0.34513930522108549 -0.055041833130779268 0 -0.34487610946889941 -0.062012581890525671 0 -0.35377205317546512 -0.067529028666190788 0 -0.34513930522108549 -0.055041833130779268 0 -0.34513930522108549 -0.055041833130779268 0 -0.35103668912041258 -0.04173717852569301 0 -0.36545064736328559 -0.043744858477626977 0 -0.34576672194315461 -0.032592046829504992 0 -0.35103668912041258 -0.04173717852569301 0 -0.3573306752504915 -0.03059540102605442 0 -0.34576672194315461 -0.032592046829504992 0 -0.35103668912041258 -0.04173717852569301 0 -0.33650655726670609 -0.042554637595367581 0 -0.34513930522108549 -0.055041833130779268 0 -0.35103668912041258 -0.04173717852569301 0 -0.33650655726670609 -0.042554637595367581 0 -0.35103668912041258 -0.04173717852569301 0 -0.36545064736328559 -0.043744858477626977 0 -0.3573306752504915 -0.03059540102605442 0 -0.36545064736328559 -0.043744858477626977 0 -0.3731545506364613 -0.02816157726383367 0 -0.3573306752504915 -0.03059540102605442 0 -0.36545064736328559 -0.043744858477626977 0 -0.3731545506364613 -0.02816157726383367 0 -0.38581390480755567 -0.043442488369028427 0 -0.36545064736328559 -0.043744858477626977 0 -0.3731545506364613 -0.02816157726383367 0 -0.3731545506364613 -0.02816157726383367 0 -0.3633269970862596 -0.014156457108189619 0 -0.3573306752504915 -0.03059540102605442 0 -0.3731545506364613 -0.02816157726383367 0 -0.3633269970862596 -0.014156457108189619 0 -0.38083309878301741 -0.01256581249675404 0 -0.3633269970862596 -0.014156457108189619 0 -0.38083309878301741 -0.01256581249675404 0 -0.36816400398299193 0.0056681537939764493 0 -0.3633269970862596 -0.014156457108189619 0 -0.3515617356953476 -0.0014948321373378769 0 -0.36816400398299193 0.0056681537939764493 0 -0.3515617356953476 -0.0014948321373378769 0 -0.34020042749406948 -0.0073900965852247494 0 -0.3396507374462937 0.0085495496487234379 0 -0.3633269970862596 -0.014156457108189619 0 -0.3515617356953476 -0.0014948321373378769 0 -0.34755367207871279 -0.01913887443340009 0 -0.3515617356953476 -0.0014948321373378769 0 -0.34755367207871279 -0.01913887443340009 0 -0.34020042749406948 -0.0073900965852247494 0 -0.3633269970862596 -0.014156457108189619 0 -0.3573306752504915 -0.03059540102605442 0 -0.34755367207871279 -0.01913887443340009 0 -0.34576672194315461 -0.032592046829504992 0 -0.3573306752504915 -0.03059540102605442 0 -0.34755367207871279 -0.01913887443340009 0 -0.34755367207871279 -0.01913887443340009 0 -0.3364060159994498 -0.028934142567009821 0 -0.33006558174626521 -0.016050427865307151 0 -0.34576672194315461 -0.032592046829504992 0 -0.34755367207871279 -0.01913887443340009 0 -0.3364060159994498 -0.028934142567009821 0 -0.3364060159994498 -0.028934142567009821 0 -0.33006558174626521 -0.016050427865307151 0 -0.32495841782464913 -0.030987141107903422 0 -0.33006558174626521 -0.016050427865307151 0 -0.34020042749406948 -0.0073900965852247494 0 -0.32841165485387902 0.00074677658014647198 0 -0.34755367207871279 -0.01913887443340009 0 -0.33006558174626521 -0.016050427865307151 0 -0.34020042749406948 -0.0073900965852247494 0 -0.33006558174626521 -0.016050427865307151 0 -0.3163223612136904 -0.0047133062924637663 0 -0.32841165485387902 0.00074677658014647198 0 -0.33006558174626521 -0.016050427865307151 0 -0.3163223612136904 -0.0047133062924637663 0 -0.31569077912235949 -0.019775086275797861 0 -0.30469613815389102 -0.032584574158448419 0 -0.32495841782464913 -0.030987141107903422 0 -0.31569077912235949 -0.019775086275797861 0 -0.33006558174626521 -0.016050427865307151 0 -0.32495841782464913 -0.030987141107903422 0 -0.31569077912235949 -0.019775086275797861 0 -0.30469613815389102 -0.032584574158448419 0 -0.32335471779868041 -0.045502139658920603 0 -0.31994749336505318 -0.047845761674990078 0 -0.30469613815389102 -0.032584574158448419 0 -0.32495841782464913 -0.030987141107903422 0 -0.32335471779868041 -0.045502139658920603 0 -0.32495841782464913 -0.030987141107903422 0 -0.32335471779868041 -0.045502139658920603 0 -0.33518383243456529 -0.052155535624345328 0 -0.32335471779868041 -0.045502139658920603 0 -0.31994749336505318 -0.047845761674990078 0 -0.31940052681062298 -0.073271505383787974 0 -0.31994749336505318 -0.047845761674990078 0 -0.3326783702047677 -0.060584845907888242 0 -0.32335471779868041 -0.045502139658920603 0 -0.31994749336505318 -0.047845761674990078 0 -0.33518383243456529 -0.052155535624345328 0 -0.31994749336505318 -0.047845761674990078 0 -0.3326783702047677 -0.060584845907888242 0 -0.34540924704448139 -0.073323930140787114 0 -0.33518383243456529 -0.052155535624345328 0 -0.3326783702047677 -0.060584845907888242 0 -0.31994749336505318 -0.047845761674990078 0 -0.33518383243456529 -0.052155535624345328 0 -0.3326783702047677 -0.060584845907888242 0 -0.34540924704448139 -0.073323930140787114 0 -0.34487610946889941 -0.062012581890525671 0 -0.33518383243456529 -0.052155535624345328 0 -0.34513930522108549 -0.055041833130779268 0 -0.34487610946889941 -0.062012581890525671 0 -0.33518383243456529 -0.052155535624345328 0 -0.34513930522108549 -0.055041833130779268 0 -0.33650655726670609 -0.042554637595367581 0 -0.34513930522108549 -0.055041833130779268 0 -0.33518383243456529 -0.052155535624345328 0 -0.33650655726670609 -0.042554637595367581 0 -0.32495841782464913 -0.030987141107903422 0 -0.33518383243456529 -0.052155535624345328 0 -0.32495841782464913 -0.030987141107903422 0 -0.33518383243456529 -0.052155535624345328 0 -0.33650655726670609 -0.042554637595367581 0 -0.34576672194315461 -0.032592046829504992 0 -0.3364060159994498 -0.028934142567009821 0 -0.33650655726670609 -0.042554637595367581 0 -0.3364060159994498 -0.028934142567009821 0 -0.32495841782464913 -0.030987141107903422 0 -0.33650655726670609 -0.042554637595367581 0 -0.31417662199612612 -0.2555997343155551 0 -0.29735355455489759 -0.2495608270936247 0 -0.31179059662622982 -0.23890118582432129 0 -0.29735355455489759 -0.2495608270936247 0 -0.31179059662622982 -0.23890118582432129 0 -0.29559730490590558 -0.2358618949726676 0 -0.30441745623266547 -0.22752752931840281 0 -0.29610576206555073 -0.2192675054032561 0 -0.29559730490590558 -0.2358618949726676 0 -0.31179059662622982 -0.23890118582432129 0 -0.30441745623266547 -0.22752752931840281 0 -0.31261898273915312 -0.22921423392787879 0 -0.31179059662622982 -0.23890118582432129 0 -0.30441745623266547 -0.22752752931840281 0 -0.29559730490590558 -0.2358618949726676 0 -0.30441745623266547 -0.22752752931840281 0 -0.30759354751214252 -0.21602605986408741 0 -0.31453151858161649 -0.22082212380587221 0 -0.30441745623266547 -0.22752752931840281 0 -0.31453151858161649 -0.22082212380587221 0 -0.31261898273915312 -0.22921423392787879 0 -0.30441745623266547 -0.22752752931840281 0 -0.29610576206555073 -0.2192675054032561 0 -0.30759354751214252 -0.21602605986408741 0 -0.28412931628838423 -0.226080133028563 0 -0.29610576206555073 -0.2192675054032561 0 -0.29559730490590558 -0.2358618949726676 0 -0.28412931628838423 -0.226080133028563 0 -0.29559730490590558 -0.2358618949726676 0 -0.28332132652505332 -0.24223576790914189 0 -0.29735355455489759 -0.2495608270936247 0 -0.29559730490590558 -0.2358618949726676 0 -0.28332132652505332 -0.24223576790914189 0 -0.27238162931076509 -0.25178413916486292 0 -0.28332132652505332 -0.24223576790914189 0 -0.26710332633738509 -0.23920591809179001 0 -0.28412931628838423 -0.226080133028563 0 -0.28332132652505332 -0.24223576790914189 0 -0.26710332633738509 -0.23920591809179001 0 -0.25959396014445452 -0.25681688998397822 0 -0.27238162931076509 -0.25178413916486292 0 -0.26710332633738509 -0.23920591809179001 0 -0.25959396014445452 -0.25681688998397822 0 -0.2483468260877667 -0.24670177710050209 0 -0.26710332633738509 -0.23920591809179001 0 -0.2483468260877667 -0.24670177710050209 0 -0.26710332633738509 -0.23920591809179001 0 -0.25106874030253501 -0.2324917081722214 0 -0.25106874030253501 -0.2324917081722214 0 -0.26780997820087671 -0.22109193076991721 0 -0.25317274192714162 -0.21441552365493749 0 -0.26710332633738509 -0.23920591809179001 0 -0.25106874030253501 -0.2324917081722214 0 -0.26780997820087671 -0.22109193076991721 0 -0.28412931628838423 -0.226080133028563 0 -0.26710332633738509 -0.23920591809179001 0 -0.26780997820087671 -0.22109193076991721 0 -0.28412931628838423 -0.226080133028563 0 -0.26780997820087671 -0.22109193076991721 0 -0.28332108918162979 -0.21015238032413719 0 -0.26780997820087671 -0.22109193076991721 0 -0.26806465516818501 -0.2042059213478544 0 -0.28332108918162979 -0.21015238032413719 0 -0.26780997820087671 -0.22109193076991721 0 -0.26806465516818501 -0.2042059213478544 0 -0.25317274192714162 -0.21441552365493749 0 -0.26806465516818501 -0.2042059213478544 0 -0.25317274192714162 -0.21441552365493749 0 -0.25366509967595402 -0.1948527909645893 0 -0.26806465516818501 -0.2042059213478544 0 -0.25366509967595402 -0.1948527909645893 0 -0.26713779662764547 -0.18994683425770989 0 -0.26806465516818501 -0.2042059213478544 0 -0.26713779662764547 -0.18994683425770989 0 -0.28212145759835772 -0.1946000304173317 0 -0.26806465516818501 -0.2042059213478544 0 -0.28212145759835772 -0.1946000304173317 0 -0.28332108918162979 -0.21015238032413719 0 -0.3033484477886505 -0.19731904965529631 0 -0.28713234268507232 -0.1794440081729827 0 -0.28212145759835772 -0.1946000304173317 0 -0.28332108918162979 -0.21015238032413719 0 -0.3033484477886505 -0.19731904965529631 0 -0.28212145759835772 -0.1946000304173317 0 -0.3033484477886505 -0.19731904965529631 0 -0.28713234268507232 -0.1794440081729827 0 -0.29610576206555073 -0.2192675054032561 0 -0.28332108918162979 -0.21015238032413719 0 -0.3033484477886505 -0.19731904965529631 0 -0.28412931628838423 -0.226080133028563 0 -0.29610576206555073 -0.2192675054032561 0 -0.28332108918162979 -0.21015238032413719 0 -0.30759354751214252 -0.21602605986408741 0 -0.3033484477886505 -0.19731904965529631 0 -0.31956455289222879 -0.2151940911376099 0 -0.29610576206555073 -0.2192675054032561 0 -0.30759354751214252 -0.21602605986408741 0 -0.3033484477886505 -0.19731904965529631 0 -0.3033484477886505 -0.19731904965529631 0 -0.31956455289222879 -0.2151940911376099 0 -0.3033484477886505 -0.19731904965529631 0 -0.30298794029856602 -0.17451950520635551 0 -0.28713234268507232 -0.1794440081729827 0 -0.30298794029856602 -0.17451950520635551 0 -0.31431134103694758 -0.1608540368834098 0 -0.31782016283822762 -0.18320654552211699 0 -0.3033484477886505 -0.19731904965529631 0 -0.30298794029856602 -0.17451950520635551 0 -0.31782016283822762 -0.18320654552211699 0 -0.30298794029856602 -0.17451950520635551 0 -0.29873293158119257 -0.1599156717709273 0 -0.31431134103694758 -0.1608540368834098 0 -0.30298794029856602 -0.17451950520635551 0 -0.29873293158119257 -0.1599156717709273 0 -0.28604718021004222 -0.16700067694061019 0 -0.28604718021004222 -0.16700067694061019 0 -0.28713234268507232 -0.1794440081729827 0 -0.27091623758149341 -0.16156896669066961 0 -0.29873293158119257 -0.1599156717709273 0 -0.28604718021004222 -0.16700067694061019 0 -0.2896356980762978 -0.1551555854962394 0 -0.28604718021004222 -0.16700067694061019 0 -0.27690836640345839 -0.1584862097250804 0 -0.2896356980762978 -0.1551555854962394 0 -0.30298794029856602 -0.17451950520635551 0 -0.28604718021004222 -0.16700067694061019 0 -0.28713234268507232 -0.1794440081729827 0 -0.28713234268507232 -0.1794440081729827 0 -0.27400814574003762 -0.17505709643466799 0 -0.27091623758149341 -0.16156896669066961 0 -0.26713779662764547 -0.18994683425770989 0 -0.28212145759835772 -0.1946000304173317 0 -0.27400814574003762 -0.17505709643466799 0 -0.28212145759835772 -0.1946000304173317 0 -0.28713234268507232 -0.1794440081729827 0 -0.27400814574003762 -0.17505709643466799 0 -0.27400814574003762 -0.17505709643466799 0 -0.26422760711508231 -0.17636840896220651 0 -0.26483199743743069 -0.16469911195986051 0 -0.26713779662764547 -0.18994683425770989 0 -0.27400814574003762 -0.17505709643466799 0 -0.26422760711508231 -0.17636840896220651 0 -0.25366509967595402 -0.1948527909645893 0 -0.26713779662764547 -0.18994683425770989 0 -0.25257170258291523 -0.17734288489297231 0 -0.26713779662764547 -0.18994683425770989 0 -0.25257170258291523 -0.17734288489297231 0 -0.24859954248683089 -0.18143928639920409 0 -0.25366509967595402 -0.1948527909645893 0 -0.25257170258291523 -0.17734288489297231 0 -0.26713779662764547 -0.18994683425770989 0 -0.26422760711508231 -0.17636840896220651 0 -0.25257170258291523 -0.17734288489297231 0 -0.26422760711508231 -0.17636840896220651 0 -0.25257170258291523 -0.17734288489297231 0 -0.26483199743743069 -0.16469911195986051 0 -0.24797942554236649 -0.17336921651556181 0 -0.25257170258291523 -0.17734288489297231 0 -0.24797942554236649 -0.17336921651556181 0 -0.25257170258291523 -0.17734288489297231 0 -0.25039736844854388 -0.17644555942502901 0 -0.24859954248683089 -0.18143928639920409 0 -0.25257170258291523 -0.17734288489297231 0 -0.24859954248683089 -0.18143928639920409 0 -0.25257170258291523 -0.17734288489297231 0 -0.25039736844854388 -0.17644555942502901 0 -0.24797942554236649 -0.17336921651556181 0 -0.25406069055586461 -0.16383914464769711 0 -0.26483199743743069 -0.16469911195986051 0 -0.24797942554236649 -0.17336921651556181 0 -0.26483199743743069 -0.16469911195986051 0 -0.24797942554236649 -0.17336921651556181 0 -0.25257170258291523 -0.17734288489297231 0 -0.26483199743743069 -0.16469911195986051 0 -0.248532515222471 -0.16028806219974051 0 -0.2494567402559198 -0.1528904046332156 0 -0.25789421462119888 -0.15677098011789831 0 -0.248532515222471 -0.16028806219974051 0 -0.25406069055586461 -0.16383914464769711 0 -0.25789421462119888 -0.15677098011789831 0 -0.24797942554236649 -0.17336921651556181 0 -0.248532515222471 -0.16028806219974051 0 -0.25406069055586461 -0.16383914464769711 0 -0.25257170258291523 -0.17734288489297231 0 -0.26483199743743069 -0.16469911195986051 0 -0.25406069055586461 -0.16383914464769711 0 -0.26483199743743069 -0.16469911195986051 0 -0.25789421462119888 -0.15677098011789831 0 -0.26483199743743069 -0.16469911195986051 0 -0.25789421462119888 -0.15677098011789831 0 -0.26944247129082788 -0.15994443148861881 0 -0.28713234268507232 -0.1794440081729827 0 -0.27091623758149341 -0.16156896669066961 0 -0.26483199743743069 -0.16469911195986051 0 -0.26944247129082788 -0.15994443148861881 0 -0.27091623758149341 -0.16156896669066961 0 -0.26483199743743069 -0.16469911195986051 0 -0.26944247129082788 -0.15994443148861881 0 -0.26483199743743069 -0.16469911195986051 0 -0.27091623758149341 -0.16156896669066961 0 -0.26944247129082788 -0.15994443148861881 0 -0.27091623758149341 -0.16156896669066961 0 -0.26944247129082788 -0.15994443148861881 0 -0.27091623758149341 -0.16156896669066961 0 -0.27690836640345839 -0.1584862097250804 0 -0.27400814574003762 -0.17505709643466799 0 -0.26483199743743069 -0.16469911195986051 0 -0.27091623758149341 -0.16156896669066961 0 -0.28604718021004222 -0.16700067694061019 0 -0.27091623758149341 -0.16156896669066961 0 -0.27690836640345839 -0.1584862097250804 0 -0.27091623758149341 -0.16156896669066961 0 -0.27690836640345839 -0.1584862097250804 0 -0.26944247129082788 -0.15994443148861881 0 -0.26958569630421081 -0.143319950067756 0 -0.28584537986833458 -0.14302847196581461 0 -0.26944247129082788 -0.15994443148861881 0 -0.27690836640345839 -0.1584862097250804 0 -0.28584537986833458 -0.14302847196581461 0 -0.26944247129082788 -0.15994443148861881 0 -0.28584537986833458 -0.14302847196581461 0 -0.25789421462119888 -0.15677098011789831 0 -0.26944247129082788 -0.15994443148861881 0 -0.2561520241318701 -0.14529434795947191 0 -0.26944247129082788 -0.15994443148861881 0 -0.2561520241318701 -0.14529434795947191 0 -0.26944247129082788 -0.15994443148861881 0 -0.26958569630421081 -0.143319950067756 0 -0.2561520241318701 -0.14529434795947191 0 -0.2494567402559198 -0.1528904046332156 0 -0.2561520241318701 -0.14529434795947191 0 -0.25355617736538799 -0.14329287658126119 0 -0.2494567402559198 -0.1528904046332156 0 -0.25789421462119888 -0.15677098011789831 0 -0.2561520241318701 -0.14529434795947191 0 -0.26308785999280138 -0.12041780650020829 0 -0.25723802464344048 -0.1318703987773184 0 -0.25133096567543273 -0.12503417873500211 0 -0.244042885142947 -0.1287344986905469 0 -0.25723802464344048 -0.1318703987773184 0 -0.25133096567543273 -0.12503417873500211 0 -0.24286157697291319 -0.13064426443032429 0 -0.2561520241318701 -0.14529434795947191 0 -0.25355617736538799 -0.14329287658126119 0 -0.24286157697291319 -0.13064426443032429 0 -0.2561520241318701 -0.14529434795947191 0 -0.25723802464344048 -0.1318703987773184 0 -0.26958569630421081 -0.143319950067756 0 -0.2561520241318701 -0.14529434795947191 0 -0.25723802464344048 -0.1318703987773184 0 -0.26308785999280138 -0.12041780650020829 0 -0.25723802464344048 -0.1318703987773184 0 -0.27211952815162699 -0.1278544937185413 0 -0.26958569630421081 -0.143319950067756 0 -0.27211952815162699 -0.1278544937185413 0 -0.28584537986833458 -0.14302847196581461 0 -0.28493146939076602 -0.12057831041018061 0 -0.27211952815162699 -0.1278544937185413 0 -0.28584537986833458 -0.14302847196581461 0 -0.26958569630421081 -0.143319950067756 0 -0.25723802464344048 -0.1318703987773184 0 -0.27211952815162699 -0.1278544937185413 0 -0.28584537986833458 -0.14302847196581461 0 -0.30064463231846128 -0.14734689707876439 0 -0.3022482884458414 -0.1261125124430105 0 -0.28584537986833458 -0.14302847196581461 0 -0.3022482884458414 -0.1261125124430105 0 -0.28493146939076602 -0.12057831041018061 0 -0.28584537986833458 -0.14302847196581461 0 -0.3022482884458414 -0.1261125124430105 0 -0.27690836640345839 -0.1584862097250804 0 -0.28584537986833458 -0.14302847196581461 0 -0.2896356980762978 -0.1551555854962394 0 -0.29873293158119257 -0.1599156717709273 0 -0.2896356980762978 -0.1551555854962394 0 -0.30064463231846128 -0.14734689707876439 0 -0.28584537986833458 -0.14302847196581461 0 -0.2896356980762978 -0.1551555854962394 0 -0.30064463231846128 -0.14734689707876439 0 -0.30064463231846128 -0.14734689707876439 0 -0.31631286990504498 -0.1404993691009091 0 -0.31431134103694758 -0.1608540368834098 0 -0.29873293158119257 -0.1599156717709273 0 -0.30064463231846128 -0.14734689707876439 0 -0.31431134103694758 -0.1608540368834098 0 -0.3022482884458414 -0.1261125124430105 0 -0.31891090034324182 -0.12736182355918671 0 -0.31631286990504498 -0.1404993691009091 0 -0.30064463231846128 -0.14734689707876439 0 -0.3022482884458414 -0.1261125124430105 0 -0.31631286990504498 -0.1404993691009091 0 -0.31891090034324182 -0.12736182355918671 0 -0.31631286990504498 -0.1404993691009091 0 -0.3311275730250185 -0.13370256006486489 0 -0.32810237840269763 -0.1196662558818702 0 -0.31891090034324182 -0.12736182355918671 0 -0.3311275730250185 -0.13370256006486489 0 -0.31631286990504498 -0.1404993691009091 0 -0.33046739245070111 -0.1520302194178888 0 -0.3311275730250185 -0.13370256006486489 0 -0.31631286990504498 -0.1404993691009091 0 -0.33046739245070111 -0.1520302194178888 0 -0.31431134103694758 -0.1608540368834098 0 -0.33046739245070111 -0.1520302194178888 0 -0.34348840719547941 -0.14316566171009371 0 -0.3311275730250185 -0.13370256006486489 0 -0.33046739245070111 -0.1520302194178888 0 -0.34348840719547941 -0.14316566171009371 0 -0.34695031863621972 -0.159672881227716 0 -0.34348840719547941 -0.14316566171009371 0 -0.3311275730250185 -0.13370256006486489 0 -0.34361731729155798 -0.12881944393541889 0 -0.32810237840269763 -0.1196662558818702 0 -0.33781140765928069 -0.1235229548137686 0 -0.3311275730250185 -0.13370256006486489 0 -0.33781140765928069 -0.1235229548137686 0 -0.3311275730250185 -0.13370256006486489 0 -0.34361731729155798 -0.12881944393541889 0 -0.34366047079634848 -0.122996848275744 0 -0.33781140765928069 -0.1235229548137686 0 -0.34361731729155798 -0.12881944393541889 0 -0.35219782940513089 -0.11501480250040361 0 -0.35176664503227961 -0.12728906372644119 0 -0.36319717345102709 -0.1334357887662404 0 -0.34361731729155798 -0.12881944393541889 0 -0.3520506502750792 -0.13658723510449561 0 -0.35176664503227961 -0.12728906372644119 0 -0.34731752122567672 -0.1215272453254367 0 -0.34361731729155798 -0.12881944393541889 0 -0.35176664503227961 -0.12728906372644119 0 -0.34348840719547941 -0.14316566171009371 0 -0.34361731729155798 -0.12881944393541889 0 -0.3520506502750792 -0.13658723510449561 0 -0.3520506502750792 -0.13658723510449561 0 -0.36319717345102709 -0.1334357887662404 0 -0.35812391636095992 -0.14802090380341551 0 -0.3520506502750792 -0.13658723510449561 0 -0.35176664503227961 -0.12728906372644119 0 -0.36319717345102709 -0.1334357887662404 0 -0.37013107519229249 -0.1245024330538185 0 -0.36207258902975498 -0.12055122510730901 0 -0.36319717345102709 -0.1334357887662404 0 -0.37013107519229249 -0.1245024330538185 0 -0.36319717345102709 -0.1334357887662404 0 -0.37749787231401322 -0.13975298999886479 0 -0.37013107519229249 -0.1245024330538185 0 -0.37749787231401322 -0.13975298999886479 0 -0.37013107519229249 -0.1245024330538185 0 -0.37396262712923661 -0.12573471229752711 0 -0.37749787231401322 -0.13975298999886479 0 -0.36319717345102709 -0.1334357887662404 0 -0.37419651749692329 -0.1518567750320772 0 -0.36319717345102709 -0.1334357887662404 0 -0.37419651749692329 -0.1518567750320772 0 -0.35812391636095992 -0.14802090380341551 0 -0.37419651749692329 -0.1518567750320772 0 -0.35812391636095992 -0.14802090380341551 0 -0.36727346032014813 -0.16184510263473481 0 -0.36319717345102709 -0.1334357887662404 0 -0.37419651749692329 -0.1518567750320772 0 -0.37749787231401322 -0.13975298999886479 0 -0.34348840719547941 -0.14316566171009371 0 -0.35812391636095992 -0.14802090380341551 0 -0.34695031863621972 -0.159672881227716 0 -0.34348840719547941 -0.14316566171009371 0 -0.3520506502750792 -0.13658723510449561 0 -0.35812391636095992 -0.14802090380341551 0 -0.36727346032014813 -0.16184510263473481 0 -0.3513704911775084 -0.1796280988023598 0 -0.35812391636095992 -0.14802090380341551 0 -0.34695031863621972 -0.159672881227716 0 -0.36727346032014813 -0.16184510263473481 0 -0.34695031863621972 -0.159672881227716 0 -0.36727346032014813 -0.16184510263473481 0 -0.3513704911775084 -0.1796280988023598 0 -0.36727346032014813 -0.16184510263473481 0 -0.3696776321477096 -0.17999745207401299 0 -0.38519586154281771 -0.17027776129791511 0 -0.36727346032014813 -0.16184510263473481 0 -0.3696776321477096 -0.17999745207401299 0 -0.3513704911775084 -0.1796280988023598 0 -0.3696776321477096 -0.17999745207401299 0 -0.3513704911775084 -0.1796280988023598 0 -0.35350524784176057 -0.1975395157807481 0 -0.33257623388039348 -0.1722415466365341 0 -0.31782016283822762 -0.18320654552211699 0 -0.33546752203486863 -0.1974110949699848 0 -0.3513704911775084 -0.1796280988023598 0 -0.33257623388039348 -0.1722415466365341 0 -0.33546752203486863 -0.1974110949699848 0 -0.34695031863621972 -0.159672881227716 0 -0.3513704911775084 -0.1796280988023598 0 -0.33257623388039348 -0.1722415466365341 0 -0.33046739245070111 -0.1520302194178888 0 -0.34695031863621972 -0.159672881227716 0 -0.33257623388039348 -0.1722415466365341 0 -0.33046739245070111 -0.1520302194178888 0 -0.33257623388039348 -0.1722415466365341 0 -0.31431134103694758 -0.1608540368834098 0 -0.33257623388039348 -0.1722415466365341 0 -0.31431134103694758 -0.1608540368834098 0 -0.31782016283822762 -0.18320654552211699 0 -0.3033484477886505 -0.19731904965529631 0 -0.31782016283822762 -0.18320654552211699 0 -0.31940316373044642 -0.19904741628721001 0 -0.31782016283822762 -0.18320654552211699 0 -0.31940316373044642 -0.19904741628721001 0 -0.33546752203486863 -0.1974110949699848 0 -0.31940316373044642 -0.19904741628721001 0 -0.31956455289222879 -0.2151940911376099 0 -0.33546752203486863 -0.1974110949699848 0 -0.3033484477886505 -0.19731904965529631 0 -0.31940316373044642 -0.19904741628721001 0 -0.31956455289222879 -0.2151940911376099 0 -0.31956455289222879 -0.2151940911376099 0 -0.33546752203486863 -0.1974110949699848 0 -0.30759354751214252 -0.21602605986408741 0 -0.31956455289222879 -0.2151940911376099 0 -0.31453151858161649 -0.22082212380587221 0 -0.31956455289222879 -0.2151940911376099 0 -0.31453151858161649 -0.22082212380587221 0 -0.31956455289222879 -0.2151940911376099 0 -0.33868919473484249 -0.21407099791807099 0 -0.33546752203486863 -0.1974110949699848 0 -0.33868919473484249 -0.21407099791807099 0 -0.33546752203486863 -0.1974110949699848 0 -0.35350524784176057 -0.1975395157807481 0 -0.3513704911775084 -0.1796280988023598 0 -0.33546752203486863 -0.1974110949699848 0 -0.3513704911775084 -0.1796280988023598 0 -0.33546752203486863 -0.1974110949699848 0 -0.35350524784176057 -0.1975395157807481 0 -0.3696776321477096 -0.17999745207401299 0 -0.35350524784176057 -0.1975395157807481 0 -0.37137665280705701 -0.2012293954453869 0 -0.35350524784176057 -0.1975395157807481 0 -0.37137665280705701 -0.2012293954453869 0 -0.36029624382322512 -0.21296972506745421 0 -0.37137665280705701 -0.2012293954453869 0 -0.36029624382322512 -0.21296972506745421 0 -0.37637949030183698 -0.22628948000103929 0 -0.33868919473484249 -0.21407099791807099 0 -0.35350524784176057 -0.1975395157807481 0 -0.36029624382322512 -0.21296972506745421 0 -0.37658973850392058 -0.25863578741241072 0 -0.36271053573838469 -0.24435841446020501 0 -0.37637949030183698 -0.22628948000103929 0 -0.33868919473484249 -0.21407099791807099 0 -0.36029624382322512 -0.21296972506745421 0 -0.35104526112142448 -0.23224631167347859 0 -0.36029624382322512 -0.21296972506745421 0 -0.35104526112142448 -0.23224631167347859 0 -0.37637949030183698 -0.22628948000103929 0 -0.35104526112142448 -0.23224631167347859 0 -0.36271053573838469 -0.24435841446020501 0 -0.37637949030183698 -0.22628948000103929 0 -0.34729545866209061 -0.2528103326161848 0 -0.35104526112142448 -0.23224631167347859 0 -0.36271053573838469 -0.24435841446020501 0 -0.34729545866209061 -0.2528103326161848 0 -0.35104526112142448 -0.23224631167347859 0 -0.33763681920221261 -0.24252883681685239 0 -0.35104526112142448 -0.23224631167347859 0 -0.33763681920221261 -0.24252883681685239 0 -0.33391410061088389 -0.23101162309642759 0 -0.33093606398148351 -0.25433796163322481 0 -0.34729545866209061 -0.2528103326161848 0 -0.33763681920221261 -0.24252883681685239 0 -0.33093606398148351 -0.25433796163322481 0 -0.33763681920221261 -0.24252883681685239 0 -0.32499321163518008 -0.24223795506494611 0 -0.33763681920221261 -0.24252883681685239 0 -0.33391410061088389 -0.23101162309642759 0 -0.32499321163518008 -0.24223795506494611 0 -0.31956455289222879 -0.2151940911376099 0 -0.33868919473484249 -0.21407099791807099 0 -0.33391410061088389 -0.23101162309642759 0 -0.33868919473484249 -0.21407099791807099 0 -0.35104526112142448 -0.23224631167347859 0 -0.33391410061088389 -0.23101162309642759 0 -0.33391410061088389 -0.23101162309642759 0 -0.31973635951610052 -0.22960609676291879 0 -0.32499321163518008 -0.24223795506494611 0 -0.31956455289222879 -0.2151940911376099 0 -0.33391410061088389 -0.23101162309642759 0 -0.31973635951610052 -0.22960609676291879 0 -0.31956455289222879 -0.2151940911376099 0 -0.33391410061088389 -0.23101162309642759 0 -0.31453151858161649 -0.22082212380587221 0 -0.31973635951610052 -0.22960609676291879 0 -0.31261898273915312 -0.22921423392787879 0 -0.31956455289222879 -0.2151940911376099 0 -0.31453151858161649 -0.22082212380587221 0 -0.31973635951610052 -0.22960609676291879 0 -0.31179059662622982 -0.23890118582432129 0 -0.31973635951610052 -0.22960609676291879 0 -0.31261898273915312 -0.22921423392787879 0 -0.31179059662622982 -0.23890118582432129 0 -0.31973635951610052 -0.22960609676291879 0 -0.32499321163518008 -0.24223795506494611 0 -0.31417662199612612 -0.2555997343155551 0 -0.31179059662622982 -0.23890118582432129 0 -0.32499321163518008 -0.24223795506494611 0 -0.44401585412563632 -0.25504528077001382 0 -0.42468642852513172 -0.25112260078431481 0 -0.44233198192756962 -0.22560109796178179 0 -0.42468642852513172 -0.25112260078431481 0 -0.42181729650382199 -0.23160895956182789 0 -0.44233198192756962 -0.22560109796178179 0 -0.42181729650382199 -0.23160895956182789 0 -0.42593499095452508 -0.21528656503981891 0 -0.44233198192756962 -0.22560109796178179 0 -0.42593499095452508 -0.21528656503981891 0 -0.44233198192756962 -0.22560109796178179 0 -0.42181729650382199 -0.23160895956182789 0 -0.41231647534259191 -0.21569760199405641 0 -0.42593499095452508 -0.21528656503981891 0 -0.42181729650382199 -0.23160895956182789 0 -0.41231647534259191 -0.21569760199405641 0 -0.42181729650382199 -0.23160895956182789 0 -0.41012880246891148 -0.22779607562245349 0 -0.41231647534259191 -0.21569760199405641 0 -0.41012880246891148 -0.22779607562245349 0 -0.39861435990530941 -0.22348601887238689 0 -0.41231647534259191 -0.21569760199405641 0 -0.42468642852513172 -0.25112260078431481 0 -0.42181729650382199 -0.23160895956182789 0 -0.40506898858945029 -0.24908050316530889 0 -0.42181729650382199 -0.23160895956182789 0 -0.41012880246891148 -0.22779607562245349 0 -0.40506898858945029 -0.24908050316530889 0 -0.40506898858945029 -0.24908050316530889 0 -0.39861435990530941 -0.22348601887238689 0 -0.39417293906223849 -0.24854036291131251 0 -0.39861435990530941 -0.22348601887238689 0 -0.40506898858945029 -0.24908050316530889 0 -0.39417293906223849 -0.24854036291131251 0 -0.39861435990530941 -0.22348601887238689 0 -0.37658973850392058 -0.25863578741241072 0 -0.39417293906223849 -0.24854036291131251 0 -0.37637949030183698 -0.22628948000103929 0 -0.39417293906223849 -0.24854036291131251 0 -0.37637949030183698 -0.22628948000103929 0 -0.39861435990530941 -0.22348601887238689 0 -0.41012880246891148 -0.22779607562245349 0 -0.40506898858945029 -0.24908050316530889 0 -0.39861435990530941 -0.22348601887238689 0 -0.39861435990530941 -0.22348601887238689 0 -0.39190511072406192 -0.19688189008515139 0 -0.40281565418136311 -0.19978624442628409 0 -0.39861435990530941 -0.22348601887238689 0 -0.39190511072406192 -0.19688189008515139 0 -0.39861435990530941 -0.22348601887238689 0 -0.40281565418136311 -0.19978624442628409 0 -0.39861435990530941 -0.22348601887238689 0 -0.40281565418136311 -0.19978624442628409 0 -0.41231647534259191 -0.21569760199405641 0 -0.37137665280705701 -0.2012293954453869 0 -0.37637949030183698 -0.22628948000103929 0 -0.39190511072406192 -0.19688189008515139 0 -0.37637949030183698 -0.22628948000103929 0 -0.39861435990530941 -0.22348601887238689 0 -0.39190511072406192 -0.19688189008515139 0 -0.3696776321477096 -0.17999745207401299 0 -0.37137665280705701 -0.2012293954453869 0 -0.39190511072406192 -0.19688189008515139 0 -0.39190511072406192 -0.19688189008515139 0 -0.40281565418136311 -0.19978624442628409 0 -0.39400575786209058 -0.1850320028620995 0 -0.40281565418136311 -0.19978624442628409 0 -0.39400575786209058 -0.1850320028620995 0 -0.40281565418136311 -0.19978624442628409 0 -0.40495647192569079 -0.18770975219865479 0 -0.40281565418136311 -0.19978624442628409 0 -0.40495647192569079 -0.18770975219865479 0 -0.39400575786209058 -0.1850320028620995 0 -0.40281565418136311 -0.19978624442628409 0 -0.40495647192569079 -0.18770975219865479 0 -0.41295484867209892 -0.19320955383990079 0 -0.41295484867209892 -0.19320955383990079 0 -0.42132153864990041 -0.19683881101154779 0 -0.42277354290912489 -0.18661146152507099 0 -0.41295484867209892 -0.19320955383990079 0 -0.42132153864990041 -0.19683881101154779 0 -0.41701303979926818 -0.20458165175545021 0 -0.40281565418136311 -0.19978624442628409 0 -0.41295484867209892 -0.19320955383990079 0 -0.41701303979926818 -0.20458165175545021 0 -0.40281565418136311 -0.19978624442628409 0 -0.41231647534259191 -0.21569760199405641 0 -0.41701303979926818 -0.20458165175545021 0 -0.40281565418136311 -0.19978624442628409 0 -0.41231647534259191 -0.21569760199405641 0 -0.41231647534259191 -0.21569760199405641 0 -0.41701303979926818 -0.20458165175545021 0 -0.42593499095452508 -0.21528656503981891 0 -0.41701303979926818 -0.20458165175545021 0 -0.42785898912165898 -0.2037736983082169 0 -0.42593499095452508 -0.21528656503981891 0 -0.42593499095452508 -0.21528656503981891 0 -0.4412287690973975 -0.20631032263734231 0 -0.44233198192756962 -0.22560109796178179 0 -0.42785898912165898 -0.2037736983082169 0 -0.42593499095452508 -0.21528656503981891 0 -0.4412287690973975 -0.20631032263734231 0 -0.42785898912165898 -0.2037736983082169 0 -0.43379660710720358 -0.19585114109692531 0 -0.4412287690973975 -0.20631032263734231 0 -0.43379660710720358 -0.19585114109692531 0 -0.42277354290912489 -0.18661146152507099 0 -0.43375101856661852 -0.18281514698615839 0 -0.42132153864990041 -0.19683881101154779 0 -0.43379660710720358 -0.19585114109692531 0 -0.42277354290912489 -0.18661146152507099 0 -0.42132153864990041 -0.19683881101154779 0 -0.42785898912165898 -0.2037736983082169 0 -0.43379660710720358 -0.19585114109692531 0 -0.42132153864990041 -0.19683881101154779 0 -0.41701303979926818 -0.20458165175545021 0 -0.42785898912165898 -0.2037736983082169 0 -0.43375101856661852 -0.18281514698615839 0 -0.43641095618616471 -0.16452540239313659 0 -0.42203041951329762 -0.170908552888903 0 -0.42277354290912489 -0.18661146152507099 0 -0.43375101856661852 -0.18281514698615839 0 -0.42203041951329762 -0.170908552888903 0 -0.43641095618616471 -0.16452540239313659 0 -0.42203041951329762 -0.170908552888903 0 -0.42979829310466372 -0.14796856446424461 0 -0.42203041951329762 -0.170908552888903 0 -0.42979829310466372 -0.14796856446424461 0 -0.42203041951329762 -0.170908552888903 0 -0.4208840511815044 -0.1543580775718752 0 -0.42979829310466372 -0.14796856446424461 0 -0.42203041951329762 -0.170908552888903 0 -0.41149789351796778 -0.16504186309256 0 -0.41325529985322729 -0.17200586070241661 0 -0.42203041951329762 -0.170908552888903 0 -0.41617501327555428 -0.16008841220354711 0 -0.41149789351796778 -0.16504186309256 0 -0.42203041951329762 -0.170908552888903 0 -0.41617501327555428 -0.16008841220354711 0 -0.4208840511815044 -0.1543580775718752 0 -0.41617501327555428 -0.16008841220354711 0 -0.41079986004928859 -0.15760525274914611 0 -0.41566284211571303 -0.15252831471525141 0 -0.41617501327555428 -0.16008841220354711 0 -0.41079986004928859 -0.15760525274914611 0 -0.41149789351796778 -0.16504186309256 0 -0.41079986004928859 -0.15760525274914611 0 -0.41149789351796778 -0.16504186309256 0 -0.40557122665528739 -0.16134988382399651 0 -0.41079986004928859 -0.15760525274914611 0 -0.40557122665528739 -0.16134988382399651 0 -0.40530383562870093 -0.15539988462514959 0 -0.41149789351796778 -0.16504186309256 0 -0.40670606143601279 -0.17202746350121281 0 -0.41325529985322729 -0.17200586070241661 0 -0.41149789351796778 -0.16504186309256 0 -0.40428822310527779 -0.16672751418595119 0 -0.40557122665528739 -0.16134988382399651 0 -0.41149789351796778 -0.16504186309256 0 -0.40670606143601279 -0.17202746350121281 0 -0.40428822310527779 -0.16672751418595119 0 -0.40670606143601279 -0.17202746350121281 0 -0.41278682494563101 -0.18004556332699059 0 -0.40330244238658491 -0.17932316298188211 0 -0.40670606143601279 -0.17202746350121281 0 -0.41325529985322729 -0.17200586070241661 0 -0.41278682494563101 -0.18004556332699059 0 -0.42277354290912489 -0.18661146152507099 0 -0.42203041951329762 -0.170908552888903 0 -0.41278682494563101 -0.18004556332699059 0 -0.42203041951329762 -0.170908552888903 0 -0.41325529985322729 -0.17200586070241661 0 -0.41278682494563101 -0.18004556332699059 0 -0.41295484867209892 -0.19320955383990079 0 -0.42277354290912489 -0.18661146152507099 0 -0.41278682494563101 -0.18004556332699059 0 -0.40495647192569079 -0.18770975219865479 0 -0.41278682494563101 -0.18004556332699059 0 -0.40330244238658491 -0.17932316298188211 0 -0.40495647192569079 -0.18770975219865479 0 -0.41295484867209892 -0.19320955383990079 0 -0.41278682494563101 -0.18004556332699059 0 -0.40495647192569079 -0.18770975219865479 0 -0.40330244238658491 -0.17932316298188211 0 -0.39400575786209058 -0.1850320028620995 0 -0.40330244238658491 -0.17932316298188211 0 -0.39400575786209058 -0.1850320028620995 0 -0.39805709576349901 -0.17180103302045291 0 -0.40670606143601279 -0.17202746350121281 0 -0.40330244238658491 -0.17932316298188211 0 -0.39805709576349901 -0.17180103302045291 0 -0.39400575786209058 -0.1850320028620995 0 -0.39244766600701508 -0.17185116245324619 0 -0.39805709576349901 -0.17180103302045291 0 -0.39190511072406192 -0.19688189008515139 0 -0.38519586154281771 -0.17027776129791511 0 -0.39190511072406192 -0.19688189008515139 0 -0.39400575786209058 -0.1850320028620995 0 -0.38519586154281771 -0.17027776129791511 0 -0.3696776321477096 -0.17999745207401299 0 -0.39190511072406192 -0.19688189008515139 0 -0.38519586154281771 -0.17027776129791511 0 -0.39400575786209058 -0.1850320028620995 0 -0.38519586154281771 -0.17027776129791511 0 -0.39400575786209058 -0.1850320028620995 0 -0.38519586154281771 -0.17027776129791511 0 -0.39244766600701508 -0.17185116245324619 0 -0.37419651749692329 -0.1518567750320772 0 -0.38519586154281771 -0.17027776129791511 0 -0.37419651749692329 -0.1518567750320772 0 -0.36727346032014813 -0.16184510263473481 0 -0.38519586154281771 -0.17027776129791511 0 -0.37419651749692329 -0.1518567750320772 0 -0.38519586154281771 -0.17027776129791511 0 -0.38134686692841319 -0.15501537564839049 0 -0.38519586154281771 -0.17027776129791511 0 -0.39005473702083959 -0.16574789349606439 0 -0.39244766600701508 -0.17185116245324619 0 -0.38519586154281771 -0.17027776129791511 0 -0.39005473702083959 -0.16574789349606439 0 -0.38134686692841319 -0.15501537564839049 0 -0.38519586154281771 -0.17027776129791511 0 -0.38134686692841319 -0.15501537564839049 0 -0.39005473702083959 -0.16574789349606439 0 -0.39567685218785231 -0.1607050404557413 0 -0.38970774341613118 -0.15204031703207971 0 -0.39567685218785231 -0.1607050404557413 0 -0.39492487784583069 -0.16639712158969841 0 -0.39960883815362158 -0.1634173274915339 0 -0.39567685218785231 -0.1607050404557413 0 -0.40065434702500741 -0.15811420354913941 0 -0.39669195995378681 -0.15458323902847329 0 -0.39492487784583069 -0.16639712158969841 0 -0.39805709576349901 -0.17180103302045291 0 -0.39960883815362158 -0.1634173274915339 0 -0.39005473702083959 -0.16574789349606439 0 -0.39244766600701508 -0.17185116245324619 0 -0.39492487784583069 -0.16639712158969841 0 -0.39005473702083959 -0.16574789349606439 0 -0.39567685218785231 -0.1607050404557413 0 -0.39492487784583069 -0.16639712158969841 0 -0.39244766600701508 -0.17185116245324619 0 -0.39492487784583069 -0.16639712158969841 0 -0.39805709576349901 -0.17180103302045291 0 -0.40670606143601279 -0.17202746350121281 0 -0.39805709576349901 -0.17180103302045291 0 -0.40428822310527779 -0.16672751418595119 0 -0.39805709576349901 -0.17180103302045291 0 -0.40428822310527779 -0.16672751418595119 0 -0.39960883815362158 -0.1634173274915339 0 -0.40065434702500741 -0.15811420354913941 0 -0.39960883815362158 -0.1634173274915339 0 -0.40557122665528739 -0.16134988382399651 0 -0.39567685218785231 -0.1607050404557413 0 -0.40065434702500741 -0.15811420354913941 0 -0.39960883815362158 -0.1634173274915339 0 -0.40428822310527779 -0.16672751418595119 0 -0.39960883815362158 -0.1634173274915339 0 -0.40557122665528739 -0.16134988382399651 0 -0.40065434702500741 -0.15811420354913941 0 -0.40557122665528739 -0.16134988382399651 0 -0.40530383562870093 -0.15539988462514959 0 -0.40065434702500741 -0.15811420354913941 0 -0.40530383562870093 -0.15539988462514959 0 -0.40126958270208241 -0.1532222432566398 0 -0.40530383562870093 -0.15539988462514959 0 -0.40466616754718743 -0.14978115232942071 0 -0.40126958270208241 -0.1532222432566398 0 -0.40126958270208241 -0.1532222432566398 0 -0.39903160335572913 -0.14823273675101609 0 -0.39669195995378681 -0.15458323902847329 0 -0.40466616754718743 -0.14978115232942071 0 -0.40126958270208241 -0.1532222432566398 0 -0.39903160335572913 -0.14823273675101609 0 -0.40065434702500741 -0.15811420354913941 0 -0.40126958270208241 -0.1532222432566398 0 -0.39669195995378681 -0.15458323902847329 0 -0.40320097794827342 -0.14346522291075089 0 -0.39903160335572913 -0.14823273675101609 0 -0.39319222715243551 -0.1406674590688437 0 -0.40466616754718743 -0.14978115232942071 0 -0.40320097794827342 -0.14346522291075089 0 -0.40938769415871601 -0.1457916879074764 0 -0.40466616754718743 -0.14978115232942071 0 -0.40320097794827342 -0.14346522291075089 0 -0.39903160335572913 -0.14823273675101609 0 -0.39903160335572913 -0.14823273675101609 0 -0.39319222715243551 -0.1406674590688437 0 -0.3931423713322526 -0.14845567199658671 0 -0.39319222715243551 -0.1406674590688437 0 -0.3931423713322526 -0.14845567199658671 0 -0.38799297189490128 -0.14260666456947391 0 -0.39567685218785231 -0.1607050404557413 0 -0.39669195995378681 -0.15458323902847329 0 -0.38970774341613118 -0.15204031703207971 0 -0.39903160335572913 -0.14823273675101609 0 -0.39669195995378681 -0.15458323902847329 0 -0.3931423713322526 -0.14845567199658671 0 -0.39669195995378681 -0.15458323902847329 0 -0.3931423713322526 -0.14845567199658671 0 -0.38970774341613118 -0.15204031703207971 0 -0.39005473702083959 -0.16574789349606439 0 -0.38970774341613118 -0.15204031703207971 0 -0.37749787231401322 -0.13975298999886479 0 -0.39005473702083959 -0.16574789349606439 0 -0.38134686692841319 -0.15501537564839049 0 -0.37749787231401322 -0.13975298999886479 0 -0.39005473702083959 -0.16574789349606439 0 -0.37749787231401322 -0.13975298999886479 0 -0.38970774341613118 -0.15204031703207971 0 -0.38799297189490128 -0.14260666456947391 0 -0.37749787231401322 -0.13975298999886479 0 -0.3931423713322526 -0.14845567199658671 0 -0.38970774341613118 -0.15204031703207971 0 -0.38799297189490128 -0.14260666456947391 0 -0.38134686692841319 -0.15501537564839049 0 -0.37749787231401322 -0.13975298999886479 0 -0.37419651749692329 -0.1518567750320772 0 -0.38134686692841319 -0.15501537564839049 0 -0.37749787231401322 -0.13975298999886479 0 -0.37396262712923661 -0.12573471229752711 0 -0.37986650309706438 -0.12995936888049811 0 -0.37749787231401322 -0.13975298999886479 0 -0.37986650309706438 -0.12995936888049811 0 -0.38642464525967662 -0.13211688475099409 0 -0.38158086768533389 -0.1222328884746057 0 -0.37396262712923661 -0.12573471229752711 0 -0.37749787231401322 -0.13975298999886479 0 -0.37396262712923661 -0.12573471229752711 0 -0.37986650309706438 -0.12995936888049811 0 -0.38158086768533389 -0.1222328884746057 0 -0.37986650309706438 -0.12995936888049811 0 -0.37749787231401322 -0.13975298999886479 0 -0.38642464525967662 -0.13211688475099409 0 -0.38799297189490128 -0.14260666456947391 0 -0.37749787231401322 -0.13975298999886479 0 -0.38642464525967662 -0.13211688475099409 0 -0.39319222715243551 -0.1406674590688437 0 -0.38799297189490128 -0.14260666456947391 0 -0.38642464525967662 -0.13211688475099409 0 -0.38642464525967662 -0.13211688475099409 0 -0.40198737586959221 -0.13727207751532489 0 -0.38925439143056317 -0.1188539252329056 0 -0.40198737586959221 -0.13727207751532489 0 -0.38925439143056317 -0.1188539252329056 0 -0.40198737586959221 -0.13727207751532489 0 -0.41033359074405651 -0.12964962005109029 0 -0.38925439143056317 -0.1188539252329056 0 -0.39319222715243551 -0.1406674590688437 0 -0.38642464525967662 -0.13211688475099409 0 -0.40198737586959221 -0.13727207751532489 0 -0.40320097794827342 -0.14346522291075089 0 -0.39319222715243551 -0.1406674590688437 0 -0.40198737586959221 -0.13727207751532489 0 -0.40320097794827342 -0.14346522291075089 0 -0.40198737586959221 -0.13727207751532489 0 -0.40778104346973792 -0.13933399879054131 0 -0.41033359074405651 -0.12964962005109029 0 -0.43220790384886631 -0.140852531752094 0 -0.41033359074405651 -0.12964962005109029 0 -0.41819438399909559 -0.1396029060175408 0 -0.43220790384886631 -0.140852531752094 0 -0.41819438399909559 -0.1396029060175408 0 -0.41296996710410638 -0.1379339397483926 0 -0.41525340887576789 -0.14308850962680719 0 -0.41033359074405651 -0.12964962005109029 0 -0.41296996710410638 -0.1379339397483926 0 -0.40778104346973792 -0.13933399879054131 0 -0.41033359074405651 -0.12964962005109029 0 -0.41819438399909559 -0.1396029060175408 0 -0.41296996710410638 -0.1379339397483926 0 -0.41296996710410638 -0.1379339397483926 0 -0.40778104346973792 -0.13933399879054131 0 -0.41525340887576789 -0.14308850962680719 0 -0.40198737586959221 -0.13727207751532489 0 -0.41033359074405651 -0.12964962005109029 0 -0.40778104346973792 -0.13933399879054131 0 -0.40320097794827342 -0.14346522291075089 0 -0.40778104346973792 -0.13933399879054131 0 -0.40938769415871601 -0.1457916879074764 0 -0.40938769415871601 -0.1457916879074764 0 -0.41009195571064527 -0.15140419782959369 0 -0.41475101944485332 -0.14760344474123141 0 -0.40938769415871601 -0.1457916879074764 0 -0.41525340887576789 -0.14308850962680719 0 -0.41475101944485332 -0.14760344474123141 0 -0.40778104346973792 -0.13933399879054131 0 -0.40938769415871601 -0.1457916879074764 0 -0.41525340887576789 -0.14308850962680719 0 -0.41079986004928859 -0.15760525274914611 0 -0.40530383562870093 -0.15539988462514959 0 -0.41009195571064527 -0.15140419782959369 0 -0.40466616754718743 -0.14978115232942071 0 -0.40938769415871601 -0.1457916879074764 0 -0.41009195571064527 -0.15140419782959369 0 -0.40530383562870093 -0.15539988462514959 0 -0.40466616754718743 -0.14978115232942071 0 -0.41009195571064527 -0.15140419782959369 0 -0.41009195571064527 -0.15140419782959369 0 -0.41566284211571303 -0.15252831471525141 0 -0.41475101944485332 -0.14760344474123141 0 -0.41079986004928859 -0.15760525274914611 0 -0.41009195571064527 -0.15140419782959369 0 -0.41566284211571303 -0.15252831471525141 0 -0.41617501327555428 -0.16008841220354711 0 -0.41566284211571303 -0.15252831471525141 0 -0.4208840511815044 -0.1543580775718752 0 -0.41566284211571303 -0.15252831471525141 0 -0.41848379906761612 -0.14856410963110461 0 -0.41475101944485332 -0.14760344474123141 0 -0.41848379906761612 -0.14856410963110461 0 -0.4208840511815044 -0.1543580775718752 0 -0.42233415298077709 -0.1476495484190147 0 -0.41566284211571303 -0.15252831471525141 0 -0.41848379906761612 -0.14856410963110461 0 -0.4208840511815044 -0.1543580775718752 0 -0.41525340887576789 -0.14308850962680719 0 -0.41709072987310292 -0.14584323329500221 0 -0.41987469210417427 -0.14411686918086561 0 -0.41819438399909559 -0.1396029060175408 0 -0.41525340887576789 -0.14308850962680719 0 -0.41987469210417427 -0.14411686918086561 0 -0.41525340887576789 -0.14308850962680719 0 -0.41475101944485332 -0.14760344474123141 0 -0.41709072987310292 -0.14584323329500221 0 -0.41848379906761612 -0.14856410963110461 0 -0.41475101944485332 -0.14760344474123141 0 -0.41709072987310292 -0.14584323329500221 0 -0.41848379906761612 -0.14856410963110461 0 -0.41709072987310292 -0.14584323329500221 0 -0.41987469210417427 -0.14411686918086561 0 -0.41987469210417427 -0.14411686918086561 0 -0.42262992944592759 -0.14324012124698299 0 -0.42233415298077709 -0.1476495484190147 0 -0.41848379906761612 -0.14856410963110461 0 -0.41987469210417427 -0.14411686918086561 0 -0.42233415298077709 -0.1476495484190147 0 -0.41987469210417427 -0.14411686918086561 0 -0.42262992944592759 -0.14324012124698299 0 -0.41819438399909559 -0.1396029060175408 0 -0.41987469210417427 -0.14411686918086561 0 -0.42262992944592759 -0.14324012124698299 0 -0.42262992944592759 -0.14324012124698299 0 -0.43220790384886631 -0.140852531752094 0 -0.42979829310466372 -0.14796856446424461 0 -0.41819438399909559 -0.1396029060175408 0 -0.42262992944592759 -0.14324012124698299 0 -0.43220790384886631 -0.140852531752094 0 -0.42262992944592759 -0.14324012124698299 0 -0.43220790384886631 -0.140852531752094 0 -0.42262992944592759 -0.14324012124698299 0 -0.42233415298077709 -0.1476495484190147 0 -0.42979829310466372 -0.14796856446424461 0 -0.42262992944592759 -0.14324012124698299 0 -0.42979829310466372 -0.14796856446424461 0 -0.4208840511815044 -0.1543580775718752 0 -0.42233415298077709 -0.1476495484190147 0 -0.42979829310466372 -0.14796856446424461 0 -0.43220790384886631 -0.140852531752094 0 -0.42979829310466372 -0.14796856446424461 0 -0.43220790384886631 -0.140852531752094 0 -0.44076215208616298 -0.1155902314279386 0 -0.41033359074405651 -0.12964962005109029 0 -0.43220790384886631 -0.140852531752094 0 -0.42645264300250563 -0.12629524516628099 0 -0.43220790384886631 -0.140852531752094 0 -0.42645264300250563 -0.12629524516628099 0 -0.44076215208616298 -0.1155902314279386 0 -0.43220790384886631 -0.140852531752094 0 -0.45802511390415412 -0.13197697002116909 0 -0.44076215208616298 -0.1155902314279386 0 -0.43220790384886631 -0.140852531752094 0 -0.45802511390415412 -0.13197697002116909 0 -0.42979829310466372 -0.14796856446424461 0 -0.45087395150718401 -0.15041233290886261 0 -0.45269286403443371 -0.16307043202826549 0 -0.42979829310466372 -0.14796856446424461 0 -0.45269286403443371 -0.16307043202826549 0 -0.43220790384886631 -0.140852531752094 0 -0.45087395150718401 -0.15041233290886261 0 -0.43220790384886631 -0.140852531752094 0 -0.45087395150718401 -0.15041233290886261 0 -0.45802511390415412 -0.13197697002116909 0 -0.43220790384886631 -0.140852531752094 0 -0.42979829310466372 -0.14796856446424461 0 -0.45087395150718401 -0.15041233290886261 0 -0.45087395150718401 -0.15041233290886261 0 -0.46461610196374359 -0.14815778747737501 0 -0.46953999916550182 -0.15997213406563079 0 -0.45087395150718401 -0.15041233290886261 0 -0.46953999916550182 -0.15997213406563079 0 -0.45087395150718401 -0.15041233290886261 0 -0.46461610196374359 -0.14815778747737501 0 -0.45802511390415412 -0.13197697002116909 0 -0.46461610196374359 -0.14815778747737501 0 -0.45802511390415412 -0.13197697002116909 0 -0.47366758325312031 -0.14157070074465811 0 -0.45802511390415412 -0.13197697002116909 0 -0.48359175959321521 -0.1238413718842989 0 -0.45802511390415412 -0.13197697002116909 0 -0.47805953040868232 -0.13382158726572321 0 -0.48359175959321521 -0.1238413718842989 0 -0.45802511390415412 -0.13197697002116909 0 -0.47805953040868232 -0.13382158726572321 0 -0.47366758325312031 -0.14157070074465811 0 -0.47805953040868232 -0.13382158726572321 0 -0.48686593485167873 -0.14276626626525721 0 -0.47366758325312031 -0.14157070074465811 0 -0.47805953040868232 -0.13382158726572321 0 -0.48814726044124462 -0.12895262741323621 0 -0.48686593485167873 -0.14276626626525721 0 -0.47805953040868232 -0.13382158726572321 0 -0.48814726044124462 -0.12895262741323621 0 -0.48359175959321521 -0.1238413718842989 0 -0.48814726044124462 -0.12895262741323621 0 -0.5 -0.14727150316749599 0 -0.50000000000000244 -0.1186200827208132 0 -0.48814726044124462 -0.12895262741323621 0 -0.48359175959321521 -0.1238413718842989 0 -0.48814726044124462 -0.12895262741323621 0 -0.5 -0.14727150316749599 0 -0.48686593485167873 -0.14276626626525721 0 -0.5 -0.14727150316749599 0 -0.48686593485167873 -0.14276626626525721 0 -0.48809542776790849 -0.16159721339083749 0 -0.48686593485167873 -0.14276626626525721 0 -0.47765862130226072 -0.15119708001532139 0 -0.48809542776790849 -0.16159721339083749 0 -0.48686593485167873 -0.14276626626525721 0 -0.47765862130226072 -0.15119708001532139 0 -0.47366758325312031 -0.14157070074465811 0 -0.46461610196374359 -0.14815778747737501 0 -0.47765862130226072 -0.15119708001532139 0 -0.47366758325312031 -0.14157070074465811 0 -0.46461610196374359 -0.14815778747737501 0 -0.47765862130226072 -0.15119708001532139 0 -0.46953999916550182 -0.15997213406563079 0 -0.46953999916550182 -0.15997213406563079 0 -0.48809542776790849 -0.16159721339083749 0 -0.47558743496420391 -0.17817229959228639 0 -0.47765862130226072 -0.15119708001532139 0 -0.46953999916550182 -0.15997213406563079 0 -0.48809542776790849 -0.16159721339083749 0 -0.5 -0.14727150316749599 0 -0.48809542776790849 -0.16159721339083749 0 -0.5 -0.1759229236141788 0 -0.47558743496420391 -0.17817229959228639 0 -0.49848200589397412 -0.1932741671563073 0 -0.5 -0.1759229236141788 0 -0.47558743496420391 -0.17817229959228639 0 -0.49848200589397412 -0.1932741671563073 0 -0.48809542776790849 -0.16159721339083749 0 -0.5 -0.1759229236141788 0 -0.47558743496420391 -0.17817229959228639 0 -0.47558743496420391 -0.17817229959228639 0 -0.46624344642866788 -0.18820899142481209 0 -0.48023475587743042 -0.19603204253898421 0 -0.47558743496420391 -0.17817229959228639 0 -0.45429616576480802 -0.18023176704117941 0 -0.46624344642866788 -0.18820899142481209 0 -0.47558743496420391 -0.17817229959228639 0 -0.45429616576480802 -0.18023176704117941 0 -0.45269286403443371 -0.16307043202826549 0 -0.47558743496420391 -0.17817229959228639 0 -0.45269286403443371 -0.16307043202826549 0 -0.46953999916550182 -0.15997213406563079 0 -0.47558743496420391 -0.17817229959228639 0 -0.45269286403443371 -0.16307043202826549 0 -0.45087395150718401 -0.15041233290886261 0 -0.46953999916550182 -0.15997213406563079 0 -0.45269286403443371 -0.16307043202826549 0 -0.43641095618616471 -0.16452540239313659 0 -0.42979829310466372 -0.14796856446424461 0 -0.45269286403443371 -0.16307043202826549 0 -0.45429616576480802 -0.18023176704117941 0 -0.45269286403443371 -0.16307043202826549 0 -0.44433682403447788 -0.1723168331484374 0 -0.43641095618616471 -0.16452540239313659 0 -0.45269286403443371 -0.16307043202826549 0 -0.44433682403447788 -0.1723168331484374 0 -0.43375101856661852 -0.18281514698615839 0 -0.45429616576480802 -0.18023176704117941 0 -0.4548554291082294 -0.1983998565267987 0 -0.43375101856661852 -0.18281514698615839 0 -0.43641095618616471 -0.16452540239313659 0 -0.44433682403447788 -0.1723168331484374 0 -0.43375101856661852 -0.18281514698615839 0 -0.45429616576480802 -0.18023176704117941 0 -0.44433682403447788 -0.1723168331484374 0 -0.43379660710720358 -0.19585114109692531 0 -0.43375101856661852 -0.18281514698615839 0 -0.4548554291082294 -0.1983998565267987 0 -0.43375101856661852 -0.18281514698615839 0 -0.4548554291082294 -0.1983998565267987 0 -0.43379660710720358 -0.19585114109692531 0 -0.4412287690973975 -0.20631032263734231 0 -0.4548554291082294 -0.1983998565267987 0 -0.4412287690973975 -0.20631032263734231 0 -0.45527082585647283 -0.2160475962085229 0 -0.4548554291082294 -0.1983998565267987 0 -0.4412287690973975 -0.20631032263734231 0 -0.44233198192756962 -0.22560109796178179 0 -0.4412287690973975 -0.20631032263734231 0 -0.45527082585647283 -0.2160475962085229 0 -0.44233198192756962 -0.22560109796178179 0 -0.4548554291082294 -0.1983998565267987 0 -0.4759598396498404 -0.2139845660674389 0 -0.45527082585647283 -0.2160475962085229 0 -0.4548554291082294 -0.1983998565267987 0 -0.4759598396498404 -0.2139845660674389 0 -0.46624344642866788 -0.18820899142481209 0 -0.4548554291082294 -0.1983998565267987 0 -0.48023475587743042 -0.19603204253898421 0 -0.45429616576480802 -0.18023176704117941 0 -0.46624344642866788 -0.18820899142481209 0 -0.4548554291082294 -0.1983998565267987 0 -0.4548554291082294 -0.1983998565267987 0 -0.48023475587743042 -0.19603204253898421 0 -0.4759598396498404 -0.2139845660674389 0 -0.48023475587743042 -0.19603204253898421 0 -0.49848200589397412 -0.1932741671563073 0 -0.5 -0.2045743440608617 0 -0.5 -0.1759229236141788 0 -0.49848200589397412 -0.1932741671563073 0 -0.5 -0.2045743440608617 0 -0.47558743496420391 -0.17817229959228639 0 -0.48023475587743042 -0.19603204253898421 0 -0.49848200589397412 -0.1932741671563073 0 -0.5 -0.2045743440608617 0 -0.4759598396498404 -0.2139845660674389 0 -0.49706425019145151 -0.2295692756080793 0 -0.48023475587743042 -0.19603204253898421 0 -0.5 -0.2045743440608617 0 -0.4759598396498404 -0.2139845660674389 0 -0.4759598396498404 -0.2139845660674389 0 -0.47958386334654152 -0.23235987428971519 0 -0.4615546546183813 -0.2376931269592632 0 -0.4759598396498404 -0.2139845660674389 0 -0.47958386334654152 -0.23235987428971519 0 -0.49706425019145151 -0.2295692756080793 0 -0.4759598396498404 -0.2139845660674389 0 -0.49706425019145151 -0.2295692756080793 0 -0.5 -0.2045743440608617 0 -0.49706425019145151 -0.2295692756080793 0 -0.5 -0.23322576450754459 0 -0.47958386334654152 -0.23235987428971519 0 -0.49706425019145151 -0.2295692756080793 0 -0.48973231596818317 -0.2395841734584927 0 -0.49706425019145151 -0.2295692756080793 0 -0.5 -0.23322576450754459 0 -0.48973231596818317 -0.2395841734584927 0 -0.50000000000000355 -0.26187718495422752 0 -0.5 -0.23322576450754459 0 -0.48973231596818317 -0.2395841734584927 0 -0.47958386334654152 -0.23235987428971519 0 -0.48077732730919293 -0.24978515595674461 0 -0.4615546546183813 -0.2376931269592632 0 -0.47958386334654152 -0.23235987428971519 0 -0.48973231596818317 -0.2395841734584927 0 -0.48077732730919293 -0.24978515595674461 0 -0.48077732730919293 -0.24978515595674461 0 -0.4615546546183813 -0.2376931269592632 0 -0.44401585412563632 -0.25504528077001382 0 -0.46341534933156142 -0.25589798353851029 0 -0.4615546546183813 -0.2376931269592632 0 -0.46341534933156142 -0.25589798353851029 0 -0.48077732730919293 -0.24978515595674461 0 -0.4615546546183813 -0.2376931269592632 0 -0.45527082585647283 -0.2160475962085229 0 -0.4759598396498404 -0.2139845660674389 0 -0.4615546546183813 -0.2376931269592632 0 -0.45527082585647283 -0.2160475962085229 0 -0.4615546546183813 -0.2376931269592632 0 -0.44233198192756962 -0.22560109796178179 0 -0.4615546546183813 -0.2376931269592632 0 -0.44233198192756962 -0.22560109796178179 0 -0.44401585412563632 -0.25504528077001382 0 -0.44233198192756962 -0.22560109796178179 0 -0.44401585412563632 -0.25504528077001382 0 -0.4615546546183813 -0.2376931269592632 0 -0.44233198192756962 -0.22560109796178179 0 -0.41159359493363062 -0.043059690689213427 0 -0.43043862325427418 -0.042779864474004878 0 -0.41159359493363062 -0.043059690689213427 0 -0.41196010540451627 -0.029919228423246898 0 -0.39711706461675039 -0.026817075861484109 0 -0.41159359493363062 -0.043059690689213427 0 -0.42411132403495699 -0.031200789905762739 0 -0.41196010540451627 -0.029919228423246898 0 -0.40693976231707413 -0.039226586712115118 0 -0.41159359493363062 -0.043059690689213427 0 -0.4100728789001748 -0.043082271510254462 0 -0.40693976231707413 -0.039226586712115118 0 -0.4100728789001748 -0.043082271510254462 0 -0.41159359493363062 -0.043059690689213427 0 -0.4100728789001748 -0.043082271510254462 0 -0.41159359493363062 -0.043059690689213427 0 -0.4100728789001748 -0.043082271510254462 0 -0.42307053125252742 -0.059077479239448158 0 -0.4100728789001748 -0.043082271510254462 0 -0.42307053125252742 -0.059077479239448158 0 -0.41159359493363062 -0.043059690689213427 0 -0.42307053125252742 -0.059077479239448158 0 -0.42959313609852567 -0.06325511098798578 0 -0.4100728789001748 -0.043082271510254462 0 -0.42307053125252742 -0.059077479239448158 0 -0.3983823617471447 -0.065653987559016636 0 -0.41159359493363062 -0.043059690689213427 0 -0.42959313609852567 -0.06325511098798578 0 -0.41159359493363062 -0.043059690689213427 0 -0.43043862325427418 -0.042779864474004878 0 -0.42959313609852567 -0.06325511098798578 0 -0.43043862325427418 -0.042779864474004878 0 -0.42959313609852567 -0.06325511098798578 0 -0.44991249590189869 -0.062814445069798483 0 -0.43043862325427418 -0.042779864474004878 0 -0.42411132403495699 -0.031200789905762739 0 -0.44029292802813852 -0.030224245303183291 0 -0.41159359493363062 -0.043059690689213427 0 -0.43043862325427418 -0.042779864474004878 0 -0.42411132403495699 -0.031200789905762739 0 -0.43174415246019221 -0.019013502176893699 0 -0.42411132403495699 -0.031200789905762739 0 -0.44029292802813852 -0.030224245303183291 0 -0.43174415246019221 -0.019013502176893699 0 -0.42384120644325313 -0.01403307884920341 0 -0.41863854012899132 -0.022208208368033371 0 -0.43174415246019221 -0.019013502176893699 0 -0.42411132403495699 -0.031200789905762739 0 -0.41863854012899132 -0.022208208368033371 0 -0.43530596058451149 -0.0087017017945707955 0 -0.42462672731104739 -0.0051878504911164114 0 -0.43780403089108239 0.0033720655422943249 0 -0.43174415246019221 -0.019013502176893699 0 -0.43530596058451149 -0.0087017017945707955 0 -0.42384120644325313 -0.01403307884920341 0 -0.43530596058451149 -0.0087017017945707955 0 -0.42384120644325313 -0.01403307884920341 0 -0.42462672731104739 -0.0051878504911164114 0 -0.42462672731104739 -0.0051878504911164114 0 -0.41596179556270541 -0.0003485385111070502 0 -0.42600405479521342 0.0054989024380500207 0 -0.41596179556270541 -0.0003485385111070502 0 -0.4160428224792872 -0.011290768521961529 0 -0.41132111192682719 -0.006531837088049627 0 -0.42462672731104739 -0.0051878504911164114 0 -0.41596179556270541 -0.0003485385111070502 0 -0.4160428224792872 -0.011290768521961529 0 -0.42384120644325313 -0.01403307884920341 0 -0.42462672731104739 -0.0051878504911164114 0 -0.4160428224792872 -0.011290768521961529 0 -0.4160428224792872 -0.011290768521961529 0 -0.40723429455236992 -0.01079063786104905 0 -0.41076457858637261 -0.01962343626710971 0 -0.4160428224792872 -0.011290768521961529 0 -0.40723429455236992 -0.01079063786104905 0 -0.41132111192682719 -0.006531837088049627 0 -0.41596179556270541 -0.0003485385111070502 0 -0.41132111192682719 -0.006531837088049627 0 -0.40561133060690729 -0.0033277243516399171 0 -0.40723429455236992 -0.01079063786104905 0 -0.41132111192682719 -0.006531837088049627 0 -0.40561133060690729 -0.0033277243516399171 0 -0.42411132403495699 -0.031200789905762739 0 -0.41863854012899132 -0.022208208368033371 0 -0.41196010540451627 -0.029919228423246898 0 -0.42384120644325313 -0.01403307884920341 0 -0.4160428224792872 -0.011290768521961529 0 -0.41863854012899132 -0.022208208368033371 0 -0.4160428224792872 -0.011290768521961529 0 -0.41863854012899132 -0.022208208368033371 0 -0.41076457858637261 -0.01962343626710971 0 -0.40723429455236992 -0.01079063786104905 0 -0.41076457858637261 -0.01962343626710971 0 -0.40414839851198792 -0.017758404193071842 0 -0.41076457858637261 -0.01962343626710971 0 -0.40447095173867281 -0.024081920629093732 0 -0.40414839851198792 -0.017758404193071842 0 -0.41863854012899132 -0.022208208368033371 0 -0.41076457858637261 -0.01962343626710971 0 -0.41196010540451627 -0.029919228423246898 0 -0.41076457858637261 -0.01962343626710971 0 -0.41196010540451627 -0.029919228423246898 0 -0.40447095173867281 -0.024081920629093732 0 -0.41196010540451627 -0.029919228423246898 0 -0.40447095173867281 -0.024081920629093732 0 -0.39711706461675039 -0.026817075861484109 0 -0.40447095173867281 -0.024081920629093732 0 -0.39981770655800852 -0.02117200724722651 0 -0.39711706461675039 -0.026817075861484109 0 -0.40447095173867281 -0.024081920629093732 0 -0.40414839851198792 -0.017758404193071842 0 -0.39981770655800852 -0.02117200724722651 0 -0.40414839851198792 -0.017758404193071842 0 -0.39921242970415682 -0.016912623189336159 0 -0.39981770655800852 -0.02117200724722651 0 -0.39921242970415682 -0.016912623189336159 0 -0.39981770655800852 -0.02117200724722651 0 -0.39707921109339611 -0.019939791676494002 0 -0.40414839851198792 -0.017758404193071842 0 -0.39921242970415682 -0.016912623189336159 0 -0.40139161130271689 -0.01248780066690402 0 -0.39981770655800852 -0.02117200724722651 0 -0.39605490795812581 -0.021918882990220781 0 -0.39711706461675039 -0.026817075861484109 0 -0.39605490795812581 -0.021918882990220781 0 -0.39150606369981389 -0.01724543915177941 0 -0.39711706461675039 -0.026817075861484109 0 -0.39981770655800852 -0.02117200724722651 0 -0.39707921109339611 -0.019939791676494002 0 -0.39605490795812581 -0.021918882990220781 0 -0.39707921109339611 -0.019939791676494002 0 -0.39605490795812581 -0.021918882990220781 0 -0.39495668344854817 -0.01924845733478673 0 -0.39921242970415682 -0.016912623189336159 0 -0.3954453481762375 -0.016554177398400479 0 -0.39739230258259411 -0.013563557953920131 0 -0.39921242970415682 -0.016912623189336159 0 -0.39707921109339611 -0.019939791676494002 0 -0.3954453481762375 -0.016554177398400479 0 -0.39707921109339611 -0.019939791676494002 0 -0.39495668344854817 -0.01924845733478673 0 -0.3954453481762375 -0.016554177398400479 0 -0.39605490795812581 -0.021918882990220781 0 -0.39495668344854817 -0.01924845733478673 0 -0.39150606369981389 -0.01724543915177941 0 -0.39495668344854817 -0.01924845733478673 0 -0.3954453481762375 -0.016554177398400479 0 -0.39150606369981389 -0.01724543915177941 0 -0.3954453481762375 -0.016554177398400479 0 -0.39150606369981389 -0.01724543915177941 0 -0.39318431243164909 -0.01310064465052628 0 -0.39137303177846272 -0.025371404107179401 0 -0.39711706461675039 -0.026817075861484109 0 -0.38814440941477141 -0.019909920448498489 0 -0.39323151483999319 -0.029868082598853051 0 -0.39711706461675039 -0.026817075861484109 0 -0.39787767698899468 -0.03470901744021114 0 -0.39137303177846272 -0.025371404107179401 0 -0.39323151483999319 -0.029868082598853051 0 -0.39711706461675039 -0.026817075861484109 0 -0.40561133060690729 -0.0033277243516399171 0 -0.39827164132335602 -0.0040174725897624101 0 -0.39875103659503908 0.0020815023364603568 0 -0.40723429455236992 -0.01079063786104905 0 -0.40561133060690729 -0.0033277243516399171 0 -0.40148561258497378 -0.0076383049307607361 0 -0.40561133060690729 -0.0033277243516399171 0 -0.40148561258497378 -0.0076383049307607361 0 -0.39827164132335602 -0.0040174725897624101 0 -0.40148561258497378 -0.0076383049307607361 0 -0.39696229937544869 -0.0095075997413988627 0 -0.39827164132335602 -0.0040174725897624101 0 -0.40148561258497378 -0.0076383049307607361 0 -0.40139161130271689 -0.01248780066690402 0 -0.39696229937544869 -0.0095075997413988627 0 -0.40723429455236992 -0.01079063786104905 0 -0.40148561258497378 -0.0076383049307607361 0 -0.40139161130271689 -0.01248780066690402 0 -0.40723429455236992 -0.01079063786104905 0 -0.40414839851198792 -0.017758404193071842 0 -0.40139161130271689 -0.01248780066690402 0 -0.40139161130271689 -0.01248780066690402 0 -0.39739230258259411 -0.013563557953920131 0 -0.39696229937544869 -0.0095075997413988627 0 -0.39921242970415682 -0.016912623189336159 0 -0.40139161130271689 -0.01248780066690402 0 -0.39739230258259411 -0.013563557953920131 0 -0.3954453481762375 -0.016554177398400479 0 -0.39739230258259411 -0.013563557953920131 0 -0.39318431243164909 -0.01310064465052628 0 -0.39739230258259411 -0.013563557953920131 0 -0.39318431243164909 -0.01310064465052628 0 -0.39696229937544869 -0.0095075997413988627 0 -0.39150606369981389 -0.01724543915177941 0 -0.39318431243164909 -0.01310064465052628 0 -0.39037900378866319 -0.01348503184706569 0 -0.39318431243164909 -0.01310064465052628 0 -0.38938004519694391 -0.010646597547908631 0 -0.39037900378866319 -0.01348503184706569 0 -0.39271453470675938 -0.0093690700042051763 0 -0.39047578891573398 -0.0065105896178811462 0 -0.38938004519694391 -0.010646597547908631 0 -0.39318431243164909 -0.01310064465052628 0 -0.39271453470675938 -0.0093690700042051763 0 -0.39696229937544869 -0.0095075997413988627 0 -0.39318431243164909 -0.01310064465052628 0 -0.39271453470675938 -0.0093690700042051763 0 -0.38938004519694391 -0.010646597547908631 0 -0.39271453470675938 -0.0093690700042051763 0 -0.39696229937544869 -0.0095075997413988627 0 -0.39429608069609168 -0.0063763473937132904 0 -0.39696229937544869 -0.0095075997413988627 0 -0.39827164132335602 -0.0040174725897624101 0 -0.39429608069609168 -0.0063763473937132904 0 -0.39827164132335602 -0.0040174725897624101 0 -0.39429608069609168 -0.0063763473937132904 0 -0.39317799748842419 -0.001920059668073722 0 -0.39429608069609168 -0.0063763473937132904 0 -0.39317799748842419 -0.001920059668073722 0 -0.39047578891573398 -0.0065105896178811462 0 -0.39271453470675938 -0.0093690700042051763 0 -0.39429608069609168 -0.0063763473937132904 0 -0.39047578891573398 -0.0065105896178811462 0 -0.39827164132335602 -0.0040174725897624101 0 -0.39317799748842419 -0.001920059668073722 0 -0.39875103659503908 0.0020815023364603568 0 -0.38264053429987122 -0.010574461033753851 0 -0.36816400398299193 0.0056681537939764493 0 -0.38639005374315832 -0.002316148754504658 0 -0.38264053429987122 -0.010574461033753851 0 -0.37962163360978141 0.0070281146825582922 0 -0.38083309878301741 -0.01256581249675404 0 -0.38264053429987122 -0.010574461033753851 0 -0.36816400398299193 0.0056681537939764493 0 -0.38639005374315832 -0.002316148754504658 0 -0.38694452818533132 -0.0081850298312412043 0 -0.38264053429987122 -0.010574461033753851 0 -0.39317799748842419 -0.001920059668073722 0 -0.38639005374315832 -0.002316148754504658 0 -0.39047578891573398 -0.0065105896178811462 0 -0.38639005374315832 -0.002316148754504658 0 -0.39047578891573398 -0.0065105896178811462 0 -0.38694452818533132 -0.0081850298312412043 0 -0.38083309878301741 -0.01256581249675404 0 -0.38264053429987122 -0.010574461033753851 0 -0.38814440941477141 -0.019909920448498489 0 -0.39150606369981389 -0.01724543915177941 0 -0.38798141424273891 -0.012500155927073681 0 -0.38264053429987122 -0.010574461033753851 0 -0.38600142422840228 -0.01054925005486085 0 -0.38798141424273891 -0.012500155927073681 0 -0.38264053429987122 -0.010574461033753851 0 -0.38600142422840228 -0.01054925005486085 0 -0.38694452818533132 -0.0081850298312412043 0 -0.38264053429987122 -0.010574461033753851 0 -0.39047578891573398 -0.0065105896178811462 0 -0.38694452818533132 -0.0081850298312412043 0 -0.38938004519694391 -0.010646597547908631 0 -0.38600142422840228 -0.01054925005486085 0 -0.38938004519694391 -0.010646597547908631 0 -0.38798141424273891 -0.012500155927073681 0 -0.38600142422840228 -0.01054925005486085 0 -0.38694452818533132 -0.0081850298312412043 0 -0.38938004519694391 -0.010646597547908631 0 -0.39150606369981389 -0.01724543915177941 0 -0.38798141424273891 -0.012500155927073681 0 -0.39037900378866319 -0.01348503184706569 0 -0.38938004519694391 -0.010646597547908631 0 -0.38798141424273891 -0.012500155927073681 0 -0.39037900378866319 -0.01348503184706569 0 -0.39150606369981389 -0.01724543915177941 0 -0.39711706461675039 -0.026817075861484109 0 -0.38264053429987122 -0.010574461033753851 0 -0.39711706461675039 -0.026817075861484109 0 -0.38264053429987122 -0.010574461033753851 0 -0.38814440941477141 -0.019909920448498489 0 -0.39711706461675039 -0.026817075861484109 0 -0.38264053429987122 -0.010574461033753851 0 -0.39323151483999319 -0.029868082598853051 0 -0.38297293864733689 -0.028051985138907259 0 -0.38699913824233562 -0.02489053751988194 0 -0.39137303177846272 -0.025371404107179401 0 -0.39323151483999319 -0.029868082598853051 0 -0.38699913824233562 -0.02489053751988194 0 -0.39137303177846272 -0.025371404107179401 0 -0.38699913824233562 -0.02489053751988194 0 -0.38814440941477141 -0.019909920448498489 0 -0.38083309878301741 -0.01256581249675404 0 -0.38297293864733689 -0.028051985138907259 0 -0.38699913824233562 -0.02489053751988194 0 -0.38083309878301741 -0.01256581249675404 0 -0.38699913824233562 -0.02489053751988194 0 -0.38814440941477141 -0.019909920448498489 0 -0.3731545506364613 -0.02816157726383367 0 -0.38083309878301741 -0.01256581249675404 0 -0.38297293864733689 -0.028051985138907259 0 -0.3731545506364613 -0.02816157726383367 0 -0.38083309878301741 -0.01256581249675404 0 -0.3731545506364613 -0.02816157726383367 0 -0.38297293864733689 -0.028051985138907259 0 -0.38581390480755567 -0.043442488369028427 0 -0.36545064736328559 -0.043744858477626977 0 -0.38581390480755567 -0.043442488369028427 0 -0.39323151483999319 -0.029868082598853051 0 -0.38581390480755567 -0.043442488369028427 0 -0.39323151483999319 -0.029868082598853051 0 -0.38297293864733689 -0.028051985138907259 0 -0.38581390480755567 -0.043442488369028427 0 -0.40693976231707413 -0.039226586712115118 0 -0.4100728789001748 -0.043082271510254462 0 -0.38581390480755567 -0.043442488369028427 0 -0.39323151483999319 -0.029868082598853051 0 -0.38581390480755567 -0.043442488369028427 0 -0.39787767698899468 -0.03470901744021114 0 -0.40693976231707413 -0.039226586712115118 0 -0.38581390480755567 -0.043442488369028427 0 -0.39787767698899468 -0.03470901744021114 0 -0.4100728789001748 -0.043082271510254462 0 -0.38581390480755567 -0.043442488369028427 0 -0.40693976231707413 -0.039226586712115118 0 -0.41159359493363062 -0.043059690689213427 0 -0.39711706461675039 -0.026817075861484109 0 -0.41159359493363062 -0.043059690689213427 0 -0.39711706461675039 -0.026817075861484109 0 -0.40693976231707413 -0.039226586712115118 0 -0.39711706461675039 -0.026817075861484109 0 -0.39787767698899468 -0.03470901744021114 0 -0.4100728789001748 -0.043082271510254462 0 -0.38581390480755567 -0.043442488369028427 0 -0.3983823617471447 -0.065653987559016636 0 -0.38581390480755567 -0.043442488369028427 0 -0.37506547387842742 -0.063112376943205178 0 -0.3983823617471447 -0.065653987559016636 0 -0.36545064736328559 -0.043744858477626977 0 -0.38581390480755567 -0.043442488369028427 0 -0.37506547387842742 -0.063112376943205178 0 -0.38581390480755567 -0.043442488369028427 0 -0.37506547387842742 -0.063112376943205178 0 -0.37506547387842742 -0.063112376943205178 0 -0.3821870053603057 -0.079775508001927647 0 -0.3983823617471447 -0.065653987559016636 0 -0.3821870053603057 -0.079775508001927647 0 -0.39654910334603 -0.090825679438425566 0 -0.3771805720070675 -0.101389249466024 0 -0.3821870053603057 -0.079775508001927647 0 -0.39654910334603 -0.090825679438425566 0 -0.3983823617471447 -0.065653987559016636 0 -0.39654910334603 -0.090825679438425566 0 -0.41591763468499188 -0.080262109410826038 0 -0.39654910334603 -0.090825679438425566 0 -0.3983823617471447 -0.065653987559016636 0 -0.41591763468499188 -0.080262109410826038 0 -0.38925439143056317 -0.1188539252329056 0 -0.3771805720070675 -0.101389249466024 0 -0.38925439143056317 -0.1188539252329056 0 -0.37983823747089002 -0.1140314496256568 0 -0.3771805720070675 -0.101389249466024 0 -0.38925439143056317 -0.1188539252329056 0 -0.38158086768533389 -0.1222328884746057 0 -0.37983823747089002 -0.1140314496256568 0 -0.38642464525967662 -0.13211688475099409 0 -0.38925439143056317 -0.1188539252329056 0 -0.38158086768533389 -0.1222328884746057 0 -0.37403702289685531 -0.118678940056357 0 -0.38158086768533389 -0.1222328884746057 0 -0.37983823747089002 -0.1140314496256568 0 -0.37403702289685531 -0.118678940056357 0 -0.37396262712923661 -0.12573471229752711 0 -0.38158086768533389 -0.1222328884746057 0 -0.38925439143056317 -0.1188539252329056 0 -0.37983823747089002 -0.1140314496256568 0 -0.38925439143056317 -0.1188539252329056 0 -0.3771805720070675 -0.101389249466024 0 -0.4006030750341586 -0.1068441720331173 0 -0.39654910334603 -0.090825679438425566 0 -0.3771805720070675 -0.101389249466024 0 -0.39654910334603 -0.090825679438425566 0 -0.3771805720070675 -0.101389249466024 0 -0.4006030750341586 -0.1068441720331173 0 -0.39654910334603 -0.090825679438425566 0 -0.4006030750341586 -0.1068441720331173 0 -0.41729621390966493 -0.1056784913250597 0 -0.41033359074405651 -0.12964962005109029 0 -0.38925439143056317 -0.1188539252329056 0 -0.4006030750341586 -0.1068441720331173 0 -0.41033359074405651 -0.12964962005109029 0 -0.38925439143056317 -0.1188539252329056 0 -0.41033359074405651 -0.12964962005109029 0 -0.4006030750341586 -0.1068441720331173 0 -0.41729621390966493 -0.1056784913250597 0 -0.41033359074405651 -0.12964962005109029 0 -0.42645264300250563 -0.12629524516628099 0 -0.41729621390966493 -0.1056784913250597 0 -0.41729621390966493 -0.1056784913250597 0 -0.43062071164816951 -0.092777812777165306 0 -0.44076215208616298 -0.1155902314279386 0 -0.42645264300250563 -0.12629524516628099 0 -0.41729621390966493 -0.1056784913250597 0 -0.44076215208616298 -0.1155902314279386 0 -0.42307053125252742 -0.059077479239448158 0 -0.3983823617471447 -0.065653987559016636 0 -0.41591763468499188 -0.080262109410826038 0 -0.39654910334603 -0.090825679438425566 0 -0.41729621390966493 -0.1056784913250597 0 -0.41591763468499188 -0.080262109410826038 0 -0.41729621390966493 -0.1056784913250597 0 -0.41591763468499188 -0.080262109410826038 0 -0.43062071164816951 -0.092777812777165306 0 -0.41591763468499188 -0.080262109410826038 0 -0.43062071164816951 -0.092777812777165306 0 -0.43606818360488042 -0.075072686968641611 0 -0.42307053125252742 -0.059077479239448158 0 -0.43606818360488042 -0.075072686968641611 0 -0.42307053125252742 -0.059077479239448158 0 -0.43606818360488042 -0.075072686968641611 0 -0.42959313609852567 -0.06325511098798578 0 -0.42307053125252742 -0.059077479239448158 0 -0.41591763468499188 -0.080262109410826038 0 -0.43606818360488042 -0.075072686968641611 0 -0.42959313609852567 -0.06325511098798578 0 -0.44991249590189869 -0.062814445069798483 0 -0.44759267726342172 -0.083450531286757168 0 -0.43606818360488042 -0.075072686968641611 0 -0.42959313609852567 -0.06325511098798578 0 -0.44759267726342172 -0.083450531286757168 0 -0.42959313609852567 -0.06325511098798578 0 -0.44759267726342172 -0.083450531286757168 0 -0.43606818360488042 -0.075072686968641611 0 -0.44906583595723287 -0.091067894697835466 0 -0.43606818360488042 -0.075072686968641611 0 -0.44906583595723287 -0.091067894697835466 0 -0.44759267726342172 -0.083450531286757168 0 -0.43062071164816951 -0.092777812777165306 0 -0.43606818360488042 -0.075072686968641611 0 -0.44906583595723287 -0.091067894697835466 0 -0.44906583595723287 -0.091067894697835466 0 -0.45065976674881392 -0.086891794632527219 0 -0.45513113252817011 -0.098531987132476545 0 -0.44906583595723287 -0.091067894697835466 0 -0.45065976674881392 -0.086891794632527219 0 -0.44759267726342172 -0.083450531286757168 0 -0.44906583595723287 -0.091067894697835466 0 -0.45065976674881392 -0.086891794632527219 0 -0.45065976674881392 -0.086891794632527219 0 -0.44759267726342172 -0.083450531286757168 0 -0.45065976674881392 -0.086891794632527219 0 -0.44759267726342172 -0.083450531286757168 0 -0.47841719546071482 -0.085435327317501933 0 -0.45065976674881392 -0.086891794632527219 0 -0.46559221842831788 -0.1036459515855286 0 -0.47841719546071482 -0.085435327317501933 0 -0.44759267726342172 -0.083450531286757168 0 -0.47020898180823711 -0.063874270113932471 0 -0.47841719546071482 -0.085435327317501933 0 -0.44991249590189869 -0.062814445069798483 0 -0.44759267726342172 -0.083450531286757168 0 -0.47020898180823711 -0.063874270113932471 0 -0.45802511390415412 -0.13197697002116909 0 -0.44076215208616298 -0.1155902314279386 0 -0.45467252750227638 -0.11272664619888249 0 -0.44076215208616298 -0.1155902314279386 0 -0.45513113252817011 -0.098531987132476545 0 -0.45467252750227638 -0.11272664619888249 0 -0.43062071164816951 -0.092777812777165306 0 -0.44906583595723287 -0.091067894697835466 0 -0.44076215208616298 -0.1155902314279386 0 -0.44906583595723287 -0.091067894697835466 0 -0.44076215208616298 -0.1155902314279386 0 -0.45513113252817011 -0.098531987132476545 0 -0.44906583595723287 -0.091067894697835466 0 -0.44076215208616298 -0.1155902314279386 0 -0.44906583595723287 -0.091067894697835466 0 -0.45513113252817011 -0.098531987132476545 0 -0.45065976674881392 -0.086891794632527219 0 -0.45513113252817011 -0.098531987132476545 0 -0.46559221842831788 -0.1036459515855286 0 -0.45065976674881392 -0.086891794632527219 0 -0.46559221842831788 -0.1036459515855286 0 -0.45513113252817011 -0.098531987132476545 0 -0.46559221842831788 -0.1036459515855286 0 -0.45467252750227638 -0.11272664619888249 0 -0.45802511390415412 -0.13197697002116909 0 -0.45467252750227638 -0.11272664619888249 0 -0.48359175959321521 -0.1238413718842989 0 -0.46559221842831788 -0.1036459515855286 0 -0.45467252750227638 -0.11272664619888249 0 -0.48359175959321521 -0.1238413718842989 0 -0.46559221842831788 -0.1036459515855286 0 -0.48359175959321521 -0.1238413718842989 0 -0.48564247012474698 -0.10464686990177791 0 -0.46559221842831788 -0.1036459515855286 0 -0.48359175959321521 -0.1238413718842989 0 -0.46559221842831788 -0.1036459515855286 0 -0.48564247012474698 -0.10464686990177791 0 -0.47841719546071482 -0.085435327317501933 0 -0.48564247012474698 -0.10464686990177791 0 -0.47841719546071482 -0.085435327317501933 0 -0.5 -0.092590908893401713 0 -0.48564247012474698 -0.10464686990177791 0 -0.50000000000000244 -0.1186200827208132 0 -0.5 -0.092590908893401713 0 -0.48359175959321521 -0.1238413718842989 0 -0.50000000000000244 -0.1186200827208132 0 -0.48814726044124462 -0.12895262741323621 0 -0.48359175959321521 -0.1238413718842989 0 -0.50000000000000244 -0.1186200827208132 0 -0.48359175959321521 -0.1238413718842989 0 -0.48564247012474698 -0.10464686990177791 0 -0.50000000000000244 -0.1186200827208132 0 -0.47020898180823711 -0.063874270113932471 0 -0.47841719546071482 -0.085435327317501933 0 -0.5 -0.066561735065990058 0 -0.47841719546071482 -0.085435327317501933 0 -0.5 -0.092590908893401713 0 -0.5 -0.066561735065990058 0 -0.5 -0.066561735065990058 0 -0.48591609704159239 -0.05268363731057657 0 -0.5 -0.040532561238578513 0 -0.47020898180823711 -0.063874270113932471 0 -0.5 -0.066561735065990058 0 -0.48591609704159239 -0.05268363731057657 0 -0.48591609704159239 -0.05268363731057657 0 -0.5 -0.040532561238578513 0 -0.47345540635813288 -0.039765982823805293 0 -0.5 -0.040532561238578513 0 -0.47345540635813288 -0.039765982823805293 0 -0.4770801895567065 -0.015711674785850421 0 -0.47020898180823711 -0.063874270113932471 0 -0.48591609704159239 -0.05268363731057657 0 -0.47345540635813288 -0.039765982823805293 0 -0.44991249590189869 -0.062814445069798483 0 -0.47020898180823711 -0.063874270113932471 0 -0.44928365157491779 -0.042500038258798341 0 -0.47020898180823711 -0.063874270113932471 0 -0.47345540635813288 -0.039765982823805293 0 -0.44928365157491779 -0.042500038258798341 0 -0.47345540635813288 -0.039765982823805293 0 -0.44928365157491779 -0.042500038258798341 0 -0.45785846170134842 -0.025737344840933599 0 -0.43043862325427418 -0.042779864474004878 0 -0.44928365157491779 -0.042500038258798341 0 -0.44928365157491779 -0.042500038258798341 0 -0.44029292802813852 -0.030224245303183291 0 -0.45785846170134842 -0.025737344840933599 0 -0.43043862325427418 -0.042779864474004878 0 -0.44928365157491779 -0.042500038258798341 0 -0.44029292802813852 -0.030224245303183291 0 -0.43043862325427418 -0.042779864474004878 0 -0.44991249590189869 -0.062814445069798483 0 -0.44928365157491779 -0.042500038258798341 0 -0.44810283000260098 -0.004530752737835513 0 -0.44640904077817273 -0.016434960485036551 0 -0.46062955391202198 -0.0097871673889277054 0 -0.43530596058451149 -0.0087017017945707955 0 -0.44810283000260098 -0.004530752737835513 0 -0.43780403089108239 0.0033720655422943249 0 -0.43174415246019221 -0.019013502176893699 0 -0.43530596058451149 -0.0087017017945707955 0 -0.44640904077817273 -0.016434960485036551 0 -0.43530596058451149 -0.0087017017945707955 0 -0.44810283000260098 -0.004530752737835513 0 -0.44640904077817273 -0.016434960485036551 0 -0.44029292802813852 -0.030224245303183291 0 -0.44640904077817273 -0.016434960485036551 0 -0.45785846170134842 -0.025737344840933599 0 -0.43174415246019221 -0.019013502176893699 0 -0.44029292802813852 -0.030224245303183291 0 -0.44640904077817273 -0.016434960485036551 0 -0.44640904077817273 -0.016434960485036551 0 -0.45785846170134842 -0.025737344840933599 0 -0.46062955391202198 -0.0097871673889277054 0 -0.45785846170134842 -0.025737344840933599 0 -0.46062955391202198 -0.0097871673889277054 0 -0.4770801895567065 -0.015711674785850421 0 -0.44810283000260098 -0.004530752737835513 0 -0.46062955391202198 -0.0097871673889277054 0 -0.45687262192910277 0.0058948170421766937 0 -0.46062955391202198 -0.0097871673889277054 0 -0.47191731279000521 0.003753952473660011 0 -0.45687262192910277 0.0058948170421766937 0 -0.4770801895567065 -0.015711674785850421 0 -0.4885400947783527 0.01092164272890302 0 -0.46062955391202198 -0.0097871673889277054 0 -0.4770801895567065 -0.015711674785850421 0 -0.47191731279000521 0.003753952473660011 0 -0.4770801895567065 -0.015711674785850421 0 -0.4885400947783527 0.01092164272890302 0 -0.47191731279000521 0.003753952473660011 0 -0.47345540635813288 -0.039765982823805293 0 -0.45785846170134842 -0.025737344840933599 0 -0.4770801895567065 -0.015711674785850421 0 -0.5 -0.040532561238578513 0 -0.4770801895567065 -0.015711674785850421 0 -0.5 -0.014503387411166861 0 -0.4770801895567065 -0.015711674785850421 0 -0.5 -0.014503387411166861 0 -0.4885400947783527 0.01092164272890302 0 -0.5 -0.014503387411166861 0 -0.4885400947783527 0.01092164272890302 0 -0.5 0.011525786416244689 0 -0.4885400947783527 0.01092164272890302 0 -0.4823714138770937 0.026721912602168468 0 -0.49999999999999928 0.037554960243656219 0 -0.4885400947783527 0.01092164272890302 0 -0.49999999999999928 0.037554960243656219 0 -0.4885400947783527 0.01092164272890302 0 -0.5 0.011525786416244689 0 -0.49999999999999928 0.037554960243656219 0 -0.4885400947783527 0.01092164272890302 0 -0.4774491328226324 0.016534449847754911 0 -0.4823714138770937 0.026721912602168468 0 -0.4774491328226324 0.016534449847754911 0 -0.4823714138770937 0.026721912602168468 0 -0.47027461231663492 0.02618846567558893 0 -0.4774491328226324 0.016534449847754911 0 -0.47027461231663492 0.02618846567558893 0 -0.46772233713135442 0.01425701903735299 0 -0.4774491328226324 0.016534449847754911 0 -0.47191731279000521 0.003753952473660011 0 -0.46772233713135442 0.01425701903735299 0 -0.4885400947783527 0.01092164272890302 0 -0.4774491328226324 0.016534449847754911 0 -0.47191731279000521 0.003753952473660011 0 -0.48738181605445569 0.051227318237591211 0 -0.47656822927391917 0.066812641838423781 0 -0.5 0.065813397240782501 0 -0.48738181605445569 0.051227318237591211 0 -0.49999999999999928 0.037554960243656219 0 -0.5 0.065813397240782501 0 -0.4823714138770937 0.026721912602168468 0 -0.48738181605445569 0.051227318237591211 0 -0.49999999999999928 0.037554960243656219 0 -0.4823714138770937 0.026721912602168468 0 -0.48738181605445569 0.051227318237591211 0 -0.47352056371469459 0.041191314923354767 0 -0.4823714138770937 0.026721912602168468 0 -0.47027461231663492 0.02618846567558893 0 -0.47352056371469459 0.041191314923354767 0 -0.48738181605445569 0.051227318237591211 0 -0.47352056371469459 0.041191314923354767 0 -0.47656822927391917 0.066812641838423781 0 -0.47352056371469459 0.041191314923354767 0 -0.46190778652063458 0.0582670711889621 0 -0.47656822927391917 0.066812641838423781 0 -0.47352056371469459 0.041191314923354767 0 -0.47656822927391917 0.066812641838423781 0 -0.47352056371469459 0.041191314923354767 0 -0.46190778652063458 0.0582670711889621 0 -0.45902333987905602 0.047078213129615881 0 -0.45408281082256291 0.057220284521394008 0 -0.46190778652063458 0.0582670711889621 0 -0.45902333987905602 0.047078213129615881 0 -0.45408281082256291 0.057220284521394008 0 -0.45902333987905602 0.047078213129615881 0 -0.45077654029588038 0.048145776359934098 0 -0.45902333987905602 0.047078213129615881 0 -0.45334026759383578 0.042093259774638472 0 -0.45077654029588038 0.048145776359934098 0 -0.45902333987905602 0.047078213129615881 0 -0.45334026759383578 0.042093259774638472 0 -0.46080018979463899 0.035473788684290658 0 -0.47352056371469459 0.041191314923354767 0 -0.45902333987905602 0.047078213129615881 0 -0.46080018979463899 0.035473788684290658 0 -0.47027461231663492 0.02618846567558893 0 -0.47352056371469459 0.041191314923354767 0 -0.46080018979463899 0.035473788684290658 0 -0.45334026759383578 0.042093259774638472 0 -0.46080018979463899 0.035473788684290658 0 -0.45101035034859899 0.033652327973832163 0 -0.45101035034859899 0.033652327973832163 0 -0.44161699174843128 0.034586415682231642 0 -0.44595989351205029 0.042135550252441062 0 -0.44595989351205029 0.042135550252441062 0 -0.44187836618318699 0.050825300364081193 0 -0.43713684490236809 0.043510221359928859 0 -0.44161699174843128 0.034586415682231642 0 -0.44595989351205029 0.042135550252441062 0 -0.43713684490236809 0.043510221359928859 0 -0.45334026759383578 0.042093259774638472 0 -0.45101035034859899 0.033652327973832163 0 -0.44595989351205029 0.042135550252441062 0 -0.45334026759383578 0.042093259774638472 0 -0.44595989351205029 0.042135550252441062 0 -0.45077654029588038 0.048145776359934098 0 -0.46190778652063458 0.0582670711889621 0 -0.43916454451844977 0.063155047234118106 0 -0.45408281082256291 0.057220284521394008 0 -0.46190778652063458 0.0582670711889621 0 -0.43916454451844977 0.063155047234118106 0 -0.45408281082256291 0.057220284521394008 0 -0.43111284597390093 0.061126089810909993 0 -0.45408281082256291 0.057220284521394008 0 -0.44187836618318699 0.050825300364081193 0 -0.43111284597390093 0.061126089810909993 0 -0.45408281082256291 0.057220284521394008 0 -0.43111284597390093 0.061126089810909993 0 -0.43916454451844977 0.063155047234118106 0 -0.45408281082256291 0.057220284521394008 0 -0.45077654029588038 0.048145776359934098 0 -0.44187836618318699 0.050825300364081193 0 -0.44595989351205029 0.042135550252441062 0 -0.45077654029588038 0.048145776359934098 0 -0.44187836618318699 0.050825300364081193 0 -0.45687262192910277 0.0058948170421766937 0 -0.46772233713135442 0.01425701903735299 0 -0.45763200491501371 0.022639150628713769 0 -0.45687262192910277 0.0058948170421766937 0 -0.45763200491501371 0.022639150628713769 0 -0.44531353509300231 0.014926696809476451 0 -0.47191731279000521 0.003753952473660011 0 -0.45687262192910277 0.0058948170421766937 0 -0.46772233713135442 0.01425701903735299 0 -0.47027461231663492 0.02618846567558893 0 -0.46772233713135442 0.01425701903735299 0 -0.45763200491501371 0.022639150628713769 0 -0.47027461231663492 0.02618846567558893 0 -0.46080018979463899 0.035473788684290658 0 -0.45763200491501371 0.022639150628713769 0 -0.46080018979463899 0.035473788684290658 0 -0.45101035034859899 0.033652327973832163 0 -0.45763200491501371 0.022639150628713769 0 -0.45763200491501371 0.022639150628713769 0 -0.44686355510248937 0.025221282770570289 0 -0.44531353509300231 0.014926696809476451 0 -0.45101035034859899 0.033652327973832163 0 -0.45763200491501371 0.022639150628713769 0 -0.44686355510248937 0.025221282770570289 0 -0.45101035034859899 0.033652327973832163 0 -0.44161699174843128 0.034586415682231642 0 -0.44686355510248937 0.025221282770570289 0 -0.44161699174843128 0.034586415682231642 0 -0.44686355510248937 0.025221282770570289 0 -0.43548848105758031 0.02800068849127034 0 -0.44686355510248937 0.025221282770570289 0 -0.43899687484449962 0.02006029801029937 0 -0.43548848105758031 0.02800068849127034 0 -0.43899687484449962 0.02006029801029937 0 -0.44531353509300231 0.014926696809476451 0 -0.43371212287582578 0.012372566862804279 0 -0.44686355510248937 0.025221282770570289 0 -0.43899687484449962 0.02006029801029937 0 -0.44531353509300231 0.014926696809476451 0 -0.44810283000260098 -0.004530752737835513 0 -0.45687262192910277 0.0058948170421766937 0 -0.43780403089108239 0.0033720655422943249 0 -0.45687262192910277 0.0058948170421766937 0 -0.44531353509300231 0.014926696809476451 0 -0.43780403089108239 0.0033720655422943249 0 -0.44531353509300231 0.014926696809476451 0 -0.43780403089108239 0.0033720655422943249 0 -0.43371212287582578 0.012372566862804279 0 -0.43780403089108239 0.0033720655422943249 0 -0.43371212287582578 0.012372566862804279 0 -0.42600405479521342 0.0054989024380500207 0 -0.42468656157016638 0.01366963769872814 0 -0.42600405479521342 0.0054989024380500207 0 -0.41923309056045338 0.0091155335266968444 0 -0.43371212287582578 0.012372566862804279 0 -0.42468656157016638 0.01366963769872814 0 -0.43038451234815689 0.020615741242956152 0 -0.43371212287582578 0.012372566862804279 0 -0.42468656157016638 0.01366963769872814 0 -0.42600405479521342 0.0054989024380500207 0 -0.42462672731104739 -0.0051878504911164114 0 -0.43780403089108239 0.0033720655422943249 0 -0.42600405479521342 0.0054989024380500207 0 -0.41596179556270541 -0.0003485385111070502 0 -0.42600405479521342 0.0054989024380500207 0 -0.41923309056045338 0.0091155335266968444 0 -0.41596179556270541 -0.0003485385111070502 0 -0.41923309056045338 0.0091155335266968444 0 -0.41214740316642229 0.0088139062112615324 0 -0.42468656157016638 0.01366963769872814 0 -0.41923309056045338 0.0091155335266968444 0 -0.41694051806189042 0.016443290269711839 0 -0.41923309056045338 0.0091155335266968444 0 -0.41214740316642229 0.0088139062112615324 0 -0.41694051806189042 0.016443290269711839 0 -0.41214740316642229 0.0088139062112615324 0 -0.40928641323794479 0.01760998583578554 0 -0.41694051806189042 0.016443290269711839 0 -0.41214740316642229 0.0088139062112615324 0 -0.40928641323794479 0.01760998583578554 0 -0.40578264528933078 0.011332908116714859 0 -0.41214740316642229 0.0088139062112615324 0 -0.40622345707147101 0.004272367355377147 0 -0.40578264528933078 0.011332908116714859 0 -0.41596179556270541 -0.0003485385111070502 0 -0.40561133060690729 -0.0033277243516399171 0 -0.40622345707147101 0.004272367355377147 0 -0.41596179556270541 -0.0003485385111070502 0 -0.41214740316642229 0.0088139062112615324 0 -0.40622345707147101 0.004272367355377147 0 -0.41379313179058491 0.024346688245985661 0 -0.41012823011237309 0.032480582024674388 0 -0.40490087231845417 0.026201348753373079 0 -0.41379313179058491 0.024346688245985661 0 -0.40928641323794479 0.01760998583578554 0 -0.40490087231845417 0.026201348753373079 0 -0.41379313179058491 0.024346688245985661 0 -0.40928641323794479 0.01760998583578554 0 -0.41694051806189042 0.016443290269711839 0 -0.42468656157016638 0.01366963769872814 0 -0.41694051806189042 0.016443290269711839 0 -0.42187642833997502 0.022637920637620951 0 -0.41379313179058491 0.024346688245985661 0 -0.41694051806189042 0.016443290269711839 0 -0.42187642833997502 0.022637920637620951 0 -0.41379313179058491 0.024346688245985661 0 -0.41856995655480872 0.03103562760632916 0 -0.42187642833997502 0.022637920637620951 0 -0.41379313179058491 0.024346688245985661 0 -0.41856995655480872 0.03103562760632916 0 -0.41012823011237309 0.032480582024674388 0 -0.42716838779453092 0.02901292597042553 0 -0.42187642833997502 0.022637920637620951 0 -0.43038451234815689 0.020615741242956152 0 -0.41856995655480872 0.03103562760632916 0 -0.42716838779453092 0.02901292597042553 0 -0.42187642833997502 0.022637920637620951 0 -0.42468656157016638 0.01366963769872814 0 -0.42187642833997502 0.022637920637620951 0 -0.43038451234815689 0.020615741242956152 0 -0.43899687484449962 0.02006029801029937 0 -0.43038451234815689 0.020615741242956152 0 -0.43548848105758031 0.02800068849127034 0 -0.43899687484449962 0.02006029801029937 0 -0.43371212287582578 0.012372566862804279 0 -0.43038451234815689 0.020615741242956152 0 -0.42716838779453092 0.02901292597042553 0 -0.43038451234815689 0.020615741242956152 0 -0.43548848105758031 0.02800068849127034 0 -0.42716838779453092 0.02901292597042553 0 -0.43548848105758031 0.02800068849127034 0 -0.43248781091414551 0.035854270796335568 0 -0.44161699174843128 0.034586415682231642 0 -0.43548848105758031 0.02800068849127034 0 -0.43248781091414551 0.035854270796335568 0 -0.44161699174843128 0.034586415682231642 0 -0.43248781091414551 0.035854270796335568 0 -0.43713684490236809 0.043510221359928859 0 -0.43248781091414551 0.035854270796335568 0 -0.43713684490236809 0.043510221359928859 0 -0.42875952166534431 0.044523715076574308 0 -0.43713684490236809 0.043510221359928859 0 -0.42875952166534431 0.044523715076574308 0 -0.43252046190234023 0.051759802230409463 0 -0.42875952166534431 0.044523715076574308 0 -0.42368325912357341 0.037519703088939482 0 -0.42012542708368072 0.046222581469542653 0 -0.43248781091414551 0.035854270796335568 0 -0.42875952166534431 0.044523715076574308 0 -0.42368325912357341 0.037519703088939482 0 -0.41856995655480872 0.03103562760632916 0 -0.42716838779453092 0.02901292597042553 0 -0.42368325912357341 0.037519703088939482 0 -0.42716838779453092 0.02901292597042553 0 -0.43248781091414551 0.035854270796335568 0 -0.42368325912357341 0.037519703088939482 0 -0.44187836618318699 0.050825300364081193 0 -0.43713684490236809 0.043510221359928859 0 -0.43252046190234023 0.051759802230409463 0 -0.44187836618318699 0.050825300364081193 0 -0.43111284597390093 0.061126089810909993 0 -0.43252046190234023 0.051759802230409463 0 -0.42875952166534431 0.044523715076574308 0 -0.42405477145598441 0.054744371036713202 0 -0.42012542708368072 0.046222581469542653 0 -0.42875952166534431 0.044523715076574308 0 -0.43252046190234023 0.051759802230409463 0 -0.42405477145598441 0.054744371036713202 0 -0.43111284597390093 0.061126089810909993 0 -0.43252046190234023 0.051759802230409463 0 -0.42405477145598441 0.054744371036713202 0 -0.43111284597390093 0.061126089810909993 0 -0.42405477145598441 0.054744371036713202 0 -0.40814288112523889 0.065031895100425979 0 -0.42405477145598441 0.054744371036713202 0 -0.41571501428256669 0.053746065041691389 0 -0.40814288112523889 0.065031895100425979 0 -0.41571501428256669 0.053746065041691389 0 -0.41170626009764622 0.047222957260682798 0 -0.42012542708368072 0.046222581469542653 0 -0.42405477145598441 0.054744371036713202 0 -0.41571501428256669 0.053746065041691389 0 -0.42012542708368072 0.046222581469542653 0 -0.41571501428256669 0.053746065041691389 0 -0.41170626009764622 0.047222957260682798 0 -0.40822689663888773 0.055147683491348673 0 -0.41170626009764622 0.047222957260682798 0 -0.40822689663888773 0.055147683491348673 0 -0.40264506938065042 0.049934086616577833 0 -0.41571501428256669 0.053746065041691389 0 -0.40822689663888773 0.055147683491348673 0 -0.40814288112523889 0.065031895100425979 0 -0.41856995655480872 0.03103562760632916 0 -0.42368325912357341 0.037519703088939482 0 -0.41545309756050508 0.038527274970514877 0 -0.41856995655480872 0.03103562760632916 0 -0.41545309756050508 0.038527274970514877 0 -0.41012823011237309 0.032480582024674388 0 -0.41170626009764622 0.047222957260682798 0 -0.41545309756050508 0.038527274970514877 0 -0.42012542708368072 0.046222581469542653 0 -0.42368325912357341 0.037519703088939482 0 -0.41545309756050508 0.038527274970514877 0 -0.42012542708368072 0.046222581469542653 0 -0.41170626009764622 0.047222957260682798 0 -0.41545309756050508 0.038527274970514877 0 -0.40638265735124129 0.040604302834755288 0 -0.41170626009764622 0.047222957260682798 0 -0.40638265735124129 0.040604302834755288 0 -0.40264506938065042 0.049934086616577833 0 -0.41545309756050508 0.038527274970514877 0 -0.40638265735124129 0.040604302834755288 0 -0.41012823011237309 0.032480582024674388 0 -0.40638265735124129 0.040604302834755288 0 -0.41012823011237309 0.032480582024674388 0 -0.40043619707242822 0.033199738991198817 0 -0.40638265735124129 0.040604302834755288 0 -0.40043619707242822 0.033199738991198817 0 -0.39636596082422398 0.042082391350369619 0 -0.40638265735124129 0.040604302834755288 0 -0.39636596082422398 0.042082391350369619 0 -0.40264506938065042 0.049934086616577833 0 -0.39636596082422398 0.042082391350369619 0 -0.39388301231642109 0.053196159841426068 0 -0.38698110740016961 0.043178244939545932 0 -0.40043619707242822 0.033199738991198817 0 -0.39636596082422398 0.042082391350369619 0 -0.38829600691482757 0.032676203566900007 0 -0.40171716529496321 0.056918094685959278 0 -0.39568796701361791 0.061280648380017851 0 -0.40814288112523889 0.065031895100425979 0 -0.40822689663888773 0.055147683491348673 0 -0.40171716529496321 0.056918094685959278 0 -0.40814288112523889 0.065031895100425979 0 -0.40171716529496321 0.056918094685959278 0 -0.40264506938065042 0.049934086616577833 0 -0.39388301231642109 0.053196159841426068 0 -0.40822689663888773 0.055147683491348673 0 -0.40171716529496321 0.056918094685959278 0 -0.40264506938065042 0.049934086616577833 0 -0.39636596082422398 0.042082391350369619 0 -0.40264506938065042 0.049934086616577833 0 -0.39388301231642109 0.053196159841426068 0 -0.40171716529496321 0.056918094685959278 0 -0.39388301231642109 0.053196159841426068 0 -0.39568796701361791 0.061280648380017851 0 -0.39388301231642109 0.053196159841426068 0 -0.39568796701361791 0.061280648380017851 0 -0.38775628700136738 0.059582395490402063 0 -0.39388301231642109 0.053196159841426068 0 -0.38775628700136738 0.059582395490402063 0 -0.38334084238733962 0.054131784700467818 0 -0.38775628700136738 0.059582395490402063 0 -0.38334084238733962 0.054131784700467818 0 -0.38069669701288139 0.060365684140156577 0 -0.39388301231642109 0.053196159841426068 0 -0.38334084238733962 0.054131784700467818 0 -0.38698110740016961 0.043178244939545932 0 -0.38334084238733962 0.054131784700467818 0 -0.37535096121134331 0.055065439952669173 0 -0.37513243858445372 0.046652380892278911 0 -0.38334084238733962 0.054131784700467818 0 -0.38698110740016961 0.043178244939545932 0 -0.37513243858445372 0.046652380892278911 0 -0.37535096121134331 0.055065439952669173 0 -0.38069669701288139 0.060365684140156577 0 -0.37221443001157078 0.061861291939602693 0 -0.38334084238733962 0.054131784700467818 0 -0.37535096121134331 0.055065439952669173 0 -0.38069669701288139 0.060365684140156577 0 -0.38829600691482757 0.032676203566900007 0 -0.38698110740016961 0.043178244939545932 0 -0.37554717599428261 0.03436746997365428 0 -0.39636596082422398 0.042082391350369619 0 -0.38829600691482757 0.032676203566900007 0 -0.38698110740016961 0.043178244939545932 0 -0.38698110740016961 0.043178244939545932 0 -0.37513243858445372 0.046652380892278911 0 -0.37554717599428261 0.03436746997365428 0 -0.38829600691482757 0.032676203566900007 0 -0.37554717599428261 0.03436746997365428 0 -0.38302011899774141 0.022659407623516651 0 -0.37554717599428261 0.03436746997365428 0 -0.38302011899774141 0.022659407623516651 0 -0.37000877116417769 0.019164673627885691 0 -0.38302011899774141 0.022659407623516651 0 -0.37962163360978141 0.0070281146825582922 0 -0.37000877116417769 0.019164673627885691 0 -0.38829600691482757 0.032676203566900007 0 -0.38302011899774141 0.022659407623516651 0 -0.39472757749714482 0.025589177901215249 0 -0.38302011899774141 0.022659407623516651 0 -0.39118184407847051 0.014998617414397231 0 -0.39472757749714482 0.025589177901215249 0 -0.38302011899774141 0.022659407623516651 0 -0.37962163360978141 0.0070281146825582922 0 -0.39118184407847051 0.014998617414397231 0 -0.38264053429987122 -0.010574461033753851 0 -0.37962163360978141 0.0070281146825582922 0 -0.36816400398299193 0.0056681537939764493 0 -0.38639005374315832 -0.002316148754504658 0 -0.37962163360978141 0.0070281146825582922 0 -0.39105304560234372 0.0054629980289381784 0 -0.39317799748842419 -0.001920059668073722 0 -0.38639005374315832 -0.002316148754504658 0 -0.39105304560234372 0.0054629980289381784 0 -0.37962163360978141 0.0070281146825582922 0 -0.39118184407847051 0.014998617414397231 0 -0.39105304560234372 0.0054629980289381784 0 -0.39118184407847051 0.014998617414397231 0 -0.39894664485338688 0.0099617632329498766 0 -0.40215390880098623 0.018521773417666299 0 -0.39118184407847051 0.014998617414397231 0 -0.39105304560234372 0.0054629980289381784 0 -0.39894664485338688 0.0099617632329498766 0 -0.39105304560234372 0.0054629980289381784 0 -0.39875103659503908 0.0020815023364603568 0 -0.39894664485338688 0.0099617632329498766 0 -0.39317799748842419 -0.001920059668073722 0 -0.39105304560234372 0.0054629980289381784 0 -0.39875103659503908 0.0020815023364603568 0 -0.39875103659503908 0.0020815023364603568 0 -0.40622345707147101 0.004272367355377147 0 -0.39894664485338688 0.0099617632329498766 0 -0.40561133060690729 -0.0033277243516399171 0 -0.39875103659503908 0.0020815023364603568 0 -0.40622345707147101 0.004272367355377147 0 -0.39894664485338688 0.0099617632329498766 0 -0.40578264528933078 0.011332908116714859 0 -0.40215390880098623 0.018521773417666299 0 -0.40622345707147101 0.004272367355377147 0 -0.39894664485338688 0.0099617632329498766 0 -0.40578264528933078 0.011332908116714859 0 -0.40928641323794479 0.01760998583578554 0 -0.40215390880098623 0.018521773417666299 0 -0.40490087231845417 0.026201348753373079 0 -0.40215390880098623 0.018521773417666299 0 -0.40490087231845417 0.026201348753373079 0 -0.39472757749714482 0.025589177901215249 0 -0.40928641323794479 0.01760998583578554 0 -0.40578264528933078 0.011332908116714859 0 -0.40215390880098623 0.018521773417666299 0 -0.40043619707242822 0.033199738991198817 0 -0.40490087231845417 0.026201348753373079 0 -0.39472757749714482 0.025589177901215249 0 -0.41012823011237309 0.032480582024674388 0 -0.40043619707242822 0.033199738991198817 0 -0.40490087231845417 0.026201348753373079 0 -0.40043619707242822 0.033199738991198817 0 -0.38829600691482757 0.032676203566900007 0 -0.39472757749714482 0.025589177901215249 0 -0.39118184407847051 0.014998617414397231 0 -0.40215390880098623 0.018521773417666299 0 -0.39472757749714482 0.025589177901215249 0 -0.40025231186625132 0.11130361377406391 0 -0.3845783915596801 0.10915494494096591 0 -0.39334630749388089 0.090589174808954259 0 -0.39334630749388089 0.090589174808954259 0 -0.41575779647586669 0.10335937424832251 0 -0.40025231186625132 0.11130361377406391 0 -0.39334630749388089 0.090589174808954259 0 -0.41575779647586669 0.10335937424832251 0 -0.40025231186625132 0.11130361377406391 0 -0.38869727230111362 0.1240378486016399 0 -0.41394929812887737 0.1298652090183029 0 -0.40025231186625132 0.11130361377406391 0 -0.38869727230111362 0.1240378486016399 0 -0.3845783915596801 0.10915494494096591 0 -0.38869727230111362 0.1240378486016399 0 -0.3845783915596801 0.10915494494096591 0 -0.37415242258487802 0.11756488204243069 0 -0.3845783915596801 0.10915494494096591 0 -0.36854655565954142 0.1010336040288158 0 -0.37415242258487802 0.11756488204243069 0 -0.3845783915596801 0.10915494494096591 0 -0.39334630749388089 0.090589174808954259 0 -0.36854655565954142 0.1010336040288158 0 -0.39334630749388089 0.090589174808954259 0 -0.37093481851189508 0.077818975369586069 0 -0.39334630749388089 0.090589174808954259 0 -0.37093481851189508 0.077818975369586069 0 -0.37005017994723077 0.087897290851935581 0 -0.39334630749388089 0.090589174808954259 0 -0.37005017994723077 0.087897290851935581 0 -0.36854655565954142 0.1010336040288158 0 -0.39367806051408 0.072930999324430146 0 -0.39334630749388089 0.090589174808954259 0 -0.37093481851189508 0.077818975369586069 0 -0.38517291627657702 0.068937700389941958 0 -0.37221443001157078 0.061861291939602693 0 -0.36899102151055901 0.066400584855085862 0 -0.38517291627657702 0.068937700389941958 0 -0.39367806051408 0.072930999324430146 0 -0.37093481851189508 0.077818975369586069 0 -0.39367806051408 0.072930999324430146 0 -0.37093481851189508 0.077818975369586069 0 -0.38069669701288139 0.060365684140156577 0 -0.38517291627657702 0.068937700389941958 0 -0.37221443001157078 0.061861291939602693 0 -0.38775628700136738 0.059582395490402063 0 -0.38069669701288139 0.060365684140156577 0 -0.38517291627657702 0.068937700389941958 0 -0.39568796701361791 0.061280648380017851 0 -0.38775628700136738 0.059582395490402063 0 -0.38517291627657702 0.068937700389941958 0 -0.38517291627657702 0.068937700389941958 0 -0.39367806051408 0.072930999324430146 0 -0.40814288112523889 0.065031895100425979 0 -0.39568796701361791 0.061280648380017851 0 -0.38517291627657702 0.068937700389941958 0 -0.40814288112523889 0.065031895100425979 0 -0.38517291627657702 0.068937700389941958 0 -0.40814288112523889 0.065031895100425979 0 -0.39367806051408 0.072930999324430146 0 -0.4077615477551027 0.082961651982566401 0 -0.41642130251626502 0.068043023279274112 0 -0.39367806051408 0.072930999324430146 0 -0.40814288112523889 0.065031895100425979 0 -0.41642130251626502 0.068043023279274112 0 -0.39367806051408 0.072930999324430146 0 -0.41642130251626502 0.068043023279274112 0 -0.39334630749388089 0.090589174808954259 0 -0.4077615477551027 0.082961651982566401 0 -0.41575779647586669 0.10335937424832251 0 -0.39367806051408 0.072930999324430146 0 -0.39334630749388089 0.090589174808954259 0 -0.4077615477551027 0.082961651982566401 0 -0.4077615477551027 0.082961651982566401 0 -0.41987596759613399 0.080968341213765532 0 -0.41575779647586669 0.10335937424832251 0 -0.43111284597390093 0.061126089810909993 0 -0.40814288112523889 0.065031895100425979 0 -0.43111284597390093 0.061126089810909993 0 -0.40814288112523889 0.065031895100425979 0 -0.41642130251626502 0.068043023279274112 0 -0.4077615477551027 0.082961651982566401 0 -0.41987596759613399 0.080968341213765532 0 -0.41642130251626502 0.068043023279274112 0 -0.43111284597390093 0.061126089810909993 0 -0.41642130251626502 0.068043023279274112 0 -0.43916454451844977 0.063155047234118106 0 -0.41642130251626502 0.068043023279274112 0 -0.42974214240816477 0.074436076707211515 0 -0.43916454451844977 0.063155047234118106 0 -0.42974214240816477 0.074436076707211515 0 -0.43916454451844977 0.063155047234118106 0 -0.44233268441367862 0.079164592253895424 0 -0.41642130251626502 0.068043023279274112 0 -0.43916454451844977 0.063155047234118106 0 -0.41987596759613399 0.080968341213765532 0 -0.41642130251626502 0.068043023279274112 0 -0.42974214240816477 0.074436076707211515 0 -0.41987596759613399 0.080968341213765532 0 -0.43206623638188851 0.085482313679347596 0 -0.41575779647586669 0.10335937424832251 0 -0.41987596759613399 0.080968341213765532 0 -0.42974214240816477 0.074436076707211515 0 -0.43206623638188851 0.085482313679347596 0 -0.42974214240816477 0.074436076707211515 0 -0.43206623638188851 0.085482313679347596 0 -0.44233268441367862 0.079164592253895424 0 -0.43206623638188851 0.085482313679347596 0 -0.41575779647586669 0.10335937424832251 0 -0.44497568614042488 0.097805805903839513 0 -0.41575779647586669 0.10335937424832251 0 -0.43816928545785239 0.1161295736876907 0 -0.44497568614042488 0.097805805903839513 0 -0.40025231186625132 0.11130361377406391 0 -0.41575779647586669 0.10335937424832251 0 -0.41394929812887737 0.1298652090183029 0 -0.41575779647586669 0.10335937424832251 0 -0.43816928545785239 0.1161295736876907 0 -0.41575779647586669 0.10335937424832251 0 -0.43816928545785239 0.1161295736876907 0 -0.41394929812887737 0.1298652090183029 0 -0.43816928545785239 0.1161295736876907 0 -0.46186538245561309 0.106012906435205 0 -0.45446097674775848 0.1239163363139147 0 -0.43816928545785239 0.1161295736876907 0 -0.45446097674775848 0.1239163363139147 0 -0.4394157643603171 0.1344580108076813 0 -0.43816928545785239 0.1161295736876907 0 -0.44497568614042488 0.097805805903839513 0 -0.46186538245561309 0.106012906435205 0 -0.44497568614042488 0.097805805903839513 0 -0.46186538245561309 0.106012906435205 0 -0.45550384620744899 0.083859828369495015 0 -0.46186538245561309 0.106012906435205 0 -0.45446097674775848 0.1239163363139147 0 -0.47034016687607477 0.13251309140822479 0 -0.43916454451844977 0.063155047234118106 0 -0.4525436508256947 0.07024848162936087 0 -0.44233268441367862 0.079164592253895424 0 -0.46190778652063458 0.0582670711889621 0 -0.43916454451844977 0.063155047234118106 0 -0.4525436508256947 0.07024848162936087 0 -0.4525436508256947 0.07024848162936087 0 -0.44233268441367862 0.079164592253895424 0 -0.45550384620744899 0.083859828369495015 0 -0.43206623638188851 0.085482313679347596 0 -0.44497568614042488 0.097805805903839513 0 -0.44233268441367862 0.079164592253895424 0 -0.44497568614042488 0.097805805903839513 0 -0.44233268441367862 0.079164592253895424 0 -0.45550384620744899 0.083859828369495015 0 -0.46186538245561309 0.106012906435205 0 -0.46834773180260569 0.083727035965528537 0 -0.45550384620744899 0.083859828369495015 0 -0.46834773180260569 0.083727035965528537 0 -0.45550384620744899 0.083859828369495015 0 -0.46412493254420689 0.071136720458742836 0 -0.4525436508256947 0.07024848162936087 0 -0.45550384620744899 0.083859828369495015 0 -0.46412493254420689 0.071136720458742836 0 -0.46190778652063458 0.0582670711889621 0 -0.46412493254420689 0.071136720458742836 0 -0.47656822927391917 0.066812641838423781 0 -0.46190778652063458 0.0582670711889621 0 -0.4525436508256947 0.07024848162936087 0 -0.46412493254420689 0.071136720458742836 0 -0.46834773180260569 0.083727035965528537 0 -0.46412493254420689 0.071136720458742836 0 -0.47656822927391917 0.066812641838423781 0 -0.46834773180260569 0.083727035965528537 0 -0.47656822927391917 0.066812641838423781 0 -0.47961589483314371 0.092433968753492787 0 -0.47656822927391917 0.066812641838423781 0 -0.47961589483314371 0.092433968753492787 0 -0.48904603102676569 0.079782960517651963 0 -0.47656822927391917 0.066812641838423781 0 -0.47961589483314371 0.092433968753492787 0 -0.48904603102676569 0.079782960517651963 0 -0.5 0.065813397240782501 0 -0.5 0.094071834237908769 0 -0.47961589483314371 0.092433968753492787 0 -0.48904603102676569 0.079782960517651963 0 -0.5 0.094071834237908769 0 -0.47656822927391917 0.066812641838423781 0 -0.48904603102676569 0.079782960517651963 0 -0.5 0.065813397240782501 0 -0.46186538245561309 0.106012906435205 0 -0.48266356039236818 0.11805529566856179 0 -0.47034016687607477 0.13251309140822479 0 -0.47961589483314371 0.092433968753492787 0 -0.48266356039236818 0.11805529566856179 0 -0.48891875976679983 0.1043193136879642 0 -0.46186538245561309 0.106012906435205 0 -0.47961589483314371 0.092433968753492787 0 -0.48266356039236818 0.11805529566856179 0 -0.46186538245561309 0.106012906435205 0 -0.46834773180260569 0.083727035965528537 0 -0.47961589483314371 0.092433968753492787 0 -0.47961589483314371 0.092433968753492787 0 -0.48266356039236818 0.11805529566856179 0 -0.48891875976679983 0.1043193136879642 0 -0.5 0.094071834237908769 0 -0.5 0.122330271235035 0 -0.47961589483314371 0.092433968753492787 0 -0.48891875976679983 0.1043193136879642 0 -0.5 0.094071834237908769 0 -0.48266356039236818 0.11805529566856179 0 -0.48891875976679983 0.1043193136879642 0 -0.5 0.122330271235035 0 -0.48266356039236818 0.11805529566856179 0 -0.5 0.122330271235035 0 -0.49182597928301808 0.1428920417927993 0 -0.48266356039236818 0.11805529566856179 0 -0.48571122595158989 0.1436766225836312 0 -0.49182597928301808 0.1428920417927993 0 -0.5 0.122330271235035 0 -0.49182597928301808 0.1428920417927993 0 -0.5 0.15058870823216131 0 -0.48266356039236818 0.11805529566856179 0 -0.48571122595158989 0.1436766225836312 0 -0.48266356039236818 0.11805529566856179 0 -0.47034016687607477 0.13251309140822479 0 -0.48571122595158989 0.1436766225836312 0 -0.48571122595158989 0.1436766225836312 0 -0.45828540161450249 0.14719561571079681 0 -0.47034016687607477 0.13251309140822479 0 -0.48571122595158989 0.1436766225836312 0 -0.45828540161450249 0.14719561571079681 0 -0.48571122595158989 0.1436766225836312 0 -0.47112431468600802 0.16355828748508319 0 -0.45828540161450249 0.14719561571079681 0 -0.48571122595158989 0.1436766225836312 0 -0.5 0.15058870823216131 0 -0.48913157935370771 0.17243108759223669 0 -0.48571122595158989 0.1436766225836312 0 -0.49182597928301808 0.1428920417927993 0 -0.48571122595158989 0.1436766225836312 0 -0.49182597928301808 0.1428920417927993 0 -0.5 0.15058870823216131 0 -0.5 0.15058870823216131 0 -0.5 0.17884714522928749 0 -0.48913157935370771 0.17243108759223669 0 -0.48571122595158989 0.1436766225836312 0 -0.48913157935370771 0.17243108759223669 0 -0.5 0.17884714522928749 0 -0.48913157935370771 0.17243108759223669 0 -0.48777472966426438 0.18714276881326181 0 -0.48913157935370771 0.17243108759223669 0 -0.48777472966426438 0.18714276881326181 0 -0.47721383916040733 0.17875033277146199 0 -0.47721383916040733 0.17875033277146199 0 -0.46156891822808321 0.18233139046808911 0 -0.48200507988482683 0.20074371535574281 0 -0.47721383916040733 0.17875033277146199 0 -0.47112431468600802 0.16355828748508319 0 -0.46156891822808321 0.18233139046808911 0 -0.48571122595158989 0.1436766225836312 0 -0.48913157935370771 0.17243108759223669 0 -0.47112431468600802 0.16355828748508319 0 -0.48913157935370771 0.17243108759223669 0 -0.47721383916040733 0.17875033277146199 0 -0.47112431468600802 0.16355828748508319 0 -0.47112431468600802 0.16355828748508319 0 -0.44734131969638569 0.16639378703204841 0 -0.45828540161450249 0.14719561571079681 0 -0.47112431468600802 0.16355828748508319 0 -0.46156891822808321 0.18233139046808911 0 -0.44734131969638569 0.16639378703204841 0 -0.46156891822808321 0.18233139046808911 0 -0.43830303843998503 0.18667729312404549 0 -0.44734131969638569 0.16639378703204841 0 -0.4394157643603171 0.1344580108076813 0 -0.45828540161450249 0.14719561571079681 0 -0.43085957727741508 0.15071460883796239 0 -0.45828540161450249 0.14719561571079681 0 -0.43085957727741508 0.15071460883796239 0 -0.44734131969638569 0.16639378703204841 0 -0.45828540161450249 0.14719561571079681 0 -0.43085957727741508 0.15071460883796239 0 -0.45446097674775848 0.1239163363139147 0 -0.4394157643603171 0.1344580108076813 0 -0.45828540161450249 0.14719561571079681 0 -0.45446097674775848 0.1239163363139147 0 -0.47034016687607477 0.13251309140822479 0 -0.45828540161450249 0.14719561571079681 0 -0.48249667464115348 0.22438412783395659 0 -0.46569919087746431 0.23679285379309789 0 -0.47796070139457819 0.25332514117943361 0 -0.5 0.23536401922354011 0 -0.48249667464115348 0.22438412783395659 0 -0.47796070139457819 0.25332514117943361 0 -0.5 0.23536401922354011 0 -0.48249667464115348 0.22438412783395659 0 -0.5 0.20710558222641379 0 -0.48249667464115348 0.22438412783395659 0 -0.46697498512268187 0.21848659629882419 0 -0.46569919087746431 0.23679285379309789 0 -0.48249667464115348 0.22438412783395659 0 -0.48200507988482683 0.20074371535574281 0 -0.46697498512268187 0.21848659629882419 0 -0.48249667464115348 0.22438412783395659 0 -0.5 0.20710558222641379 0 -0.48200507988482683 0.20074371535574281 0 -0.48777472966426438 0.18714276881326181 0 -0.5 0.20710558222641379 0 -0.48200507988482683 0.20074371535574281 0 -0.5 0.17884714522928749 0 -0.48777472966426438 0.18714276881326181 0 -0.5 0.20710558222641379 0 -0.48777472966426438 0.18714276881326181 0 -0.47721383916040733 0.17875033277146199 0 -0.48200507988482683 0.20074371535574281 0 -0.46156891822808321 0.18233139046808911 0 -0.48200507988482683 0.20074371535574281 0 -0.45331210153767398 0.20559053154826901 0 -0.43830303843998503 0.18667729312404549 0 -0.45331210153767398 0.20559053154826901 0 -0.42461912319052131 0.21043734774079509 0 -0.46156891822808321 0.18233139046808911 0 -0.43830303843998503 0.18667729312404549 0 -0.45331210153767398 0.20559053154826901 0 -0.45331210153767398 0.20559053154826901 0 -0.42461912319052131 0.21043734774079509 0 -0.45331210153767398 0.20559053154826901 0 -0.45063631918537489 0.22500157487959699 0 -0.42461912319052131 0.21043734774079509 0 -0.46697498512268187 0.21848659629882419 0 -0.45331210153767398 0.20559053154826901 0 -0.45063631918537489 0.22500157487959699 0 -0.48200507988482683 0.20074371535574281 0 -0.45331210153767398 0.20559053154826901 0 -0.48200507988482683 0.20074371535574281 0 -0.46697498512268187 0.21848659629882419 0 -0.45331210153767398 0.20559053154826901 0 -0.46697498512268187 0.21848659629882419 0 -0.45063631918537489 0.22500157487959699 0 -0.46569919087746431 0.23679285379309789 0 -0.45063631918537489 0.22500157487959699 0 -0.44727390015106799 0.24734178314887889 0 -0.43356811520471727 0.23272126849599559 0 -0.44727390015106799 0.24734178314887889 0 -0.46569919087746431 0.23679285379309789 0 -0.47796070139457819 0.25332514117943361 0 -0.45063631918537489 0.22500157487959699 0 -0.44727390015106799 0.24734178314887889 0 -0.46569919087746431 0.23679285379309789 0 -0.40903431346496538 0.24711338688654449 0 -0.41871265829025589 0.2312150129217217 0 -0.40811526902464901 0.23119766489894761 0 -0.40903431346496538 0.24711338688654449 0 -0.42586458440754649 0.24499996518788711 0 -0.41871265829025589 0.2312150129217217 0 -0.44727390015106799 0.24734178314887889 0 -0.42586458440754649 0.24499996518788711 0 -0.43356811520471727 0.23272126849599559 0 -0.42586458440754649 0.24499996518788711 0 -0.43356811520471727 0.23272126849599559 0 -0.41871265829025589 0.2312150129217217 0 -0.45063631918537489 0.22500157487959699 0 -0.43356811520471727 0.23272126849599559 0 -0.42461912319052131 0.21043734774079509 0 -0.43356811520471727 0.23272126849599559 0 -0.41871265829025589 0.2312150129217217 0 -0.42461912319052131 0.21043734774079509 0 -0.41871265829025589 0.2312150129217217 0 -0.41151416895847692 0.22152556669140969 0 -0.42461912319052131 0.21043734774079509 0 -0.41871265829025589 0.2312150129217217 0 -0.40811526902464901 0.23119766489894761 0 -0.41151416895847692 0.22152556669140969 0 -0.40811526902464901 0.23119766489894761 0 -0.41151416895847692 0.22152556669140969 0 -0.40185811768412338 0.22291132482137499 0 -0.41151416895847692 0.22152556669140969 0 -0.42461912319052131 0.21043734774079509 0 -0.39592614484336841 0.21528416393332131 0 -0.42461912319052131 0.21043734774079509 0 -0.40841208473475898 0.20184637069287151 0 -0.39592614484336841 0.21528416393332131 0 -0.42461912319052131 0.21043734774079509 0 -0.39592614484336841 0.21528416393332131 0 -0.43830303843998503 0.18667729312404549 0 -0.42461912319052131 0.21043734774079509 0 -0.41805767584044529 0.18752521631672439 0 -0.41805767584044529 0.18752521631672439 0 -0.40841208473475898 0.20184637069287151 0 -0.39606772083063002 0.19067519972933031 0 -0.42461912319052131 0.21043734774079509 0 -0.41805767584044529 0.18752521631672439 0 -0.40841208473475898 0.20184637069287151 0 -0.40841208473475898 0.20184637069287151 0 -0.39621948337484397 0.20295956712824631 0 -0.39606772083063002 0.19067519972933031 0 -0.39621948337484397 0.20295956712824631 0 -0.39606772083063002 0.19067519972933031 0 -0.3851640527503265 0.2028019153646764 0 -0.39606772083063002 0.19067519972933031 0 -0.37928350059450672 0.1892501103418483 0 -0.3851640527503265 0.2028019153646764 0 -0.37928350059450672 0.1892501103418483 0 -0.3851640527503265 0.2028019153646764 0 -0.3692944717392127 0.1953932319429714 0 -0.3851640527503265 0.2028019153646764 0 -0.3756970399759576 0.21791881407640229 0 -0.3692944717392127 0.1953932319429714 0 -0.3851640527503265 0.2028019153646764 0 -0.3756970399759576 0.21791881407640229 0 -0.39592614484336841 0.21528416393332131 0 -0.3756970399759576 0.21791881407640229 0 -0.39592614484336841 0.21528416393332131 0 -0.40185811768412338 0.22291132482137499 0 -0.39621948337484397 0.20295956712824631 0 -0.3851640527503265 0.2028019153646764 0 -0.39592614484336841 0.21528416393332131 0 -0.40841208473475898 0.20184637069287151 0 -0.39621948337484397 0.20295956712824631 0 -0.39592614484336841 0.21528416393332131 0 -0.41151416895847692 0.22152556669140969 0 -0.39592614484336841 0.21528416393332131 0 -0.40185811768412338 0.22291132482137499 0 -0.40811526902464901 0.23119766489894761 0 -0.40185811768412338 0.22291132482137499 0 -0.39844172687568541 0.23833781985762811 0 -0.40185811768412338 0.22291132482137499 0 -0.38631979205465228 0.23194602373914591 0 -0.39844172687568541 0.23833781985762811 0 -0.3756970399759576 0.21791881407640229 0 -0.40185811768412338 0.22291132482137499 0 -0.3756970399759576 0.21791881407640229 0 -0.40185811768412338 0.22291132482137499 0 -0.38631979205465228 0.23194602373914591 0 -0.3756970399759576 0.21791881407640229 0 -0.38631979205465228 0.23194602373914591 0 -0.36977947705148911 0.2333428532847126 0 -0.38631979205465228 0.23194602373914591 0 -0.38379799893057909 0.24650838869412239 0 -0.39844172687568541 0.23833781985762811 0 -0.38631979205465228 0.23194602373914591 0 -0.38379799893057909 0.24650838869412239 0 -0.36977947705148911 0.2333428532847126 0 -0.38379799893057909 0.24650838869412239 0 -0.39844172687568541 0.23833781985762811 0 -0.39670237511777262 0.25870318207235887 0 -0.40903431346496538 0.24711338688654449 0 -0.39844172687568541 0.23833781985762811 0 -0.39670237511777262 0.25870318207235887 0 -0.40903431346496538 0.24711338688654449 0 -0.40811526902464901 0.23119766489894761 0 -0.39844172687568541 0.23833781985762811 0 -0.41394929812887737 0.1298652090183029 0 -0.43085957727741508 0.15071460883796239 0 -0.40343375294032768 0.154233601965128 0 -0.43085957727741508 0.15071460883796239 0 -0.40343375294032768 0.154233601965128 0 -0.4394157643603171 0.1344580108076813 0 -0.41394929812887737 0.1298652090183029 0 -0.43085957727741508 0.15071460883796239 0 -0.43816928545785239 0.1161295736876907 0 -0.4394157643603171 0.1344580108076813 0 -0.41394929812887737 0.1298652090183029 0 -0.44734131969638569 0.16639378703204841 0 -0.43085957727741508 0.15071460883796239 0 -0.42410471356461887 0.17002056354010869 0 -0.43830303843998503 0.18667729312404549 0 -0.44734131969638569 0.16639378703204841 0 -0.42410471356461887 0.17002056354010869 0 -0.43830303843998503 0.18667729312404549 0 -0.41805767584044529 0.18752521631672439 0 -0.42410471356461887 0.17002056354010869 0 -0.41805767584044529 0.18752521631672439 0 -0.42410471356461887 0.17002056354010869 0 -0.40663291719315481 0.1745788739647437 0 -0.41805767584044529 0.18752521631672439 0 -0.39606772083063002 0.19067519972933031 0 -0.40663291719315481 0.1745788739647437 0 -0.43085957727741508 0.15071460883796239 0 -0.42410471356461887 0.17002056354010869 0 -0.40343375294032768 0.154233601965128 0 -0.42410471356461887 0.17002056354010869 0 -0.40663291719315481 0.1745788739647437 0 -0.40343375294032768 0.154233601965128 0 -0.40663291719315481 0.1745788739647437 0 -0.39111453361214599 0.16468469248270609 0 -0.40343375294032768 0.154233601965128 0 -0.40663291719315481 0.1745788739647437 0 -0.39111453361214599 0.16468469248270609 0 -0.37907847636516478 0.1741172364561443 0 -0.40663291719315481 0.1745788739647437 0 -0.37907847636516478 0.1741172364561443 0 -0.39606772083063002 0.19067519972933031 0 -0.40663291719315481 0.1745788739647437 0 -0.37907847636516478 0.1741172364561443 0 -0.39606772083063002 0.19067519972933031 0 -0.37928350059450672 0.1892501103418483 0 -0.37907847636516478 0.1741172364561443 0 -0.37928350059450672 0.1892501103418483 0 -0.37907847636516478 0.1741172364561443 0 -0.36681278128719907 0.18326296821611909 0 -0.39111453361214599 0.16468469248270609 0 -0.37600792860324039 0.15775259509229361 0 -0.40343375294032768 0.154233601965128 0 -0.39111453361214599 0.16468469248270609 0 -0.37907847636516478 0.1741172364561443 0 -0.37600792860324039 0.15775259509229361 0 -0.37600792860324039 0.15775259509229361 0 -0.40343375294032768 0.154233601965128 0 -0.37600792860324039 0.15775259509229361 0 -0.38805748559255071 0.14302947930374421 0 -0.40343375294032768 0.154233601965128 0 -0.37600792860324039 0.15775259509229361 0 -0.38805748559255071 0.14302947930374421 0 -0.37397773792926731 0.13493586287057369 0 -0.41394929812887737 0.1298652090183029 0 -0.38805748559255071 0.14302947930374421 0 -0.40343375294032768 0.154233601965128 0 -0.38869727230111362 0.1240378486016399 0 -0.41394929812887737 0.1298652090183029 0 -0.38805748559255071 0.14302947930374421 0 -0.38869727230111362 0.1240378486016399 0 -0.38805748559255071 0.14302947930374421 0 -0.37397773792926731 0.13493586287057369 0 -0.38869727230111362 0.1240378486016399 0 -0.37397773792926731 0.13493586287057369 0 -0.37415242258487802 0.11756488204243069 0 -0.37397773792926731 0.13493586287057369 0 -0.35865853401946252 0.1403273295354856 0 -0.35496215547478782 0.1186621497701582 0 -0.35865853401946252 0.1403273295354856 0 -0.33451305398194608 0.13132551882225579 0 -0.35496215547478782 0.1186621497701582 0 -0.35865853401946252 0.1403273295354856 0 -0.35496215547478782 0.1186621497701582 0 -0.35865853401946252 0.1403273295354856 0 -0.33451305398194608 0.13132551882225579 0 -0.340754108058753 0.14770443525165211 0 -0.35865853401946252 0.1403273295354856 0 -0.34858210426615299 0.16127158821945919 0 -0.340754108058753 0.14770443525165211 0 -0.37600792860324039 0.15775259509229361 0 -0.35865853401946252 0.1403273295354856 0 -0.34858210426615299 0.16127158821945919 0 -0.37600792860324039 0.15775259509229361 0 -0.37397773792926731 0.13493586287057369 0 -0.35865853401946252 0.1403273295354856 0 -0.37600792860324039 0.15775259509229361 0 -0.34858210426615299 0.16127158821945919 0 -0.37907847636516478 0.1741172364561443 0 -0.37600792860324039 0.15775259509229361 0 -0.35152403553717482 0.1736555989475449 0 -0.37907847636516478 0.1741172364561443 0 -0.36681278128719907 0.18326296821611909 0 -0.35152403553717482 0.1736555989475449 0 -0.37907847636516478 0.1741172364561443 0 -0.35152403553717482 0.1736555989475449 0 -0.36681278128719907 0.18326296821611909 0 -0.35427512092043528 0.18683000867167279 0 -0.35152403553717482 0.1736555989475449 0 -0.35427512092043528 0.18683000867167279 0 -0.35152403553717482 0.1736555989475449 0 -0.3388396942572155 0.18624780450716741 0 -0.35152403553717482 0.1736555989475449 0 -0.34858210426615299 0.16127158821945919 0 -0.33561352642139808 0.16097851270920721 0 -0.37600792860324039 0.15775259509229361 0 -0.35152403553717482 0.1736555989475449 0 -0.34858210426615299 0.16127158821945919 0 -0.35152403553717482 0.1736555989475449 0 -0.33561352642139808 0.16097851270920721 0 -0.3239695947091849 0.1731939614389455 0 -0.34858210426615299 0.16127158821945919 0 -0.33561352642139808 0.16097851270920721 0 -0.340754108058753 0.14770443525165211 0 -0.35152403553717482 0.1736555989475449 0 -0.3388396942572155 0.18624780450716741 0 -0.3239695947091849 0.1731939614389455 0 -0.35152403553717482 0.1736555989475449 0 -0.3239695947091849 0.1731939614389455 0 -0.3388396942572155 0.18624780450716741 0 -0.3239695947091849 0.1731939614389455 0 -0.32367223963440428 0.19056387701270119 0 -0.3239695947091849 0.1731939614389455 0 -0.32367223963440428 0.19056387701270119 0 -0.31001181929703819 0.18388161013166979 0 -0.3239695947091849 0.1731939614389455 0 -0.32367223963440428 0.19056387701270119 0 -0.33561352642139808 0.16097851270920721 0 -0.3239695947091849 0.1731939614389455 0 -0.32439006552450927 0.14863227346758701 0 -0.3239695947091849 0.1731939614389455 0 -0.32439006552450927 0.14863227346758701 0 -0.31032112339418938 0.1599488094136961 0 -0.3239695947091849 0.1731939614389455 0 -0.32439006552450927 0.14863227346758701 0 -0.32439006552450927 0.14863227346758701 0 -0.31126205310505822 0.14700864849631221 0 -0.31032112339418938 0.1599488094136961 0 -0.32439006552450927 0.14863227346758701 0 -0.31738936349282371 0.13629496765227031 0 -0.31126205310505822 0.14700864849631221 0 -0.32439006552450927 0.14863227346758701 0 -0.31738936349282371 0.13629496765227031 0 -0.33451305398194608 0.13132551882225579 0 -0.31738936349282371 0.13629496765227031 0 -0.31960969299681008 0.12504159845959281 0 -0.33451305398194608 0.13132551882225579 0 -0.31738936349282371 0.13629496765227031 0 -0.31960969299681008 0.12504159845959281 0 -0.30869212196180978 0.12731106783944571 0 -0.33561352642139808 0.16097851270920721 0 -0.32439006552450927 0.14863227346758701 0 -0.340754108058753 0.14770443525165211 0 -0.32439006552450927 0.14863227346758701 0 -0.33451305398194608 0.13132551882225579 0 -0.340754108058753 0.14770443525165211 0 -0.35444629378037229 0.23971076081483711 0 -0.36977947705148911 0.2333428532847126 0 -0.36900824068294868 0.25067681521255369 0 -0.38379799893057909 0.24650838869412239 0 -0.36977947705148911 0.2333428532847126 0 -0.36900824068294868 0.25067681521255369 0 -0.3756970399759576 0.21791881407640229 0 -0.36977947705148911 0.2333428532847126 0 -0.3495359622677916 0.21292630333142959 0 -0.35444629378037229 0.23971076081483711 0 -0.36977947705148911 0.2333428532847126 0 -0.3495359622677916 0.21292630333142959 0 -0.35444629378037229 0.23971076081483711 0 -0.3495359622677916 0.21292630333142959 0 -0.33976720082437301 0.23180485841266241 0 -0.3495359622677916 0.21292630333142959 0 -0.35887813954210113 0.20177407748126541 0 -0.34558810280710822 0.19580202938385069 0 -0.3756970399759576 0.21791881407640229 0 -0.3495359622677916 0.21292630333142959 0 -0.3756970399759576 0.21791881407640229 0 -0.3495359622677916 0.21292630333142959 0 -0.35887813954210113 0.20177407748126541 0 -0.3756970399759576 0.21791881407640229 0 -0.3692944717392127 0.1953932319429714 0 -0.35887813954210113 0.20177407748126541 0 -0.37928350059450672 0.1892501103418483 0 -0.36681278128719907 0.18326296821611909 0 -0.3692944717392127 0.1953932319429714 0 -0.36681278128719907 0.18326296821611909 0 -0.35427512092043528 0.18683000867167279 0 -0.3692944717392127 0.1953932319429714 0 -0.35427512092043528 0.18683000867167279 0 -0.3692944717392127 0.1953932319429714 0 -0.35887813954210113 0.20177407748126541 0 -0.35427512092043528 0.18683000867167279 0 -0.35887813954210113 0.20177407748126541 0 -0.34558810280710822 0.19580202938385069 0 -0.35427512092043528 0.18683000867167279 0 -0.3388396942572155 0.18624780450716741 0 -0.34558810280710822 0.19580202938385069 0 -0.3495359622677916 0.21292630333142959 0 -0.34558810280710822 0.19580202938385069 0 -0.33426624045241882 0.19861974139395491 0 -0.3388396942572155 0.18624780450716741 0 -0.34558810280710822 0.19580202938385069 0 -0.33426624045241882 0.19861974139395491 0 -0.3388396942572155 0.18624780450716741 0 -0.33426624045241882 0.19861974139395491 0 -0.32367223963440428 0.19056387701270119 0 -0.32367223963440428 0.19056387701270119 0 -0.31600794556639161 0.20652790547081271 0 -0.30969384339403833 0.19566354885112319 0 -0.32367223963440428 0.19056387701270119 0 -0.3233748845596256 0.20793379258645711 0 -0.31600794556639161 0.20652790547081271 0 -0.32367223963440428 0.19056387701270119 0 -0.3233748845596256 0.20793379258645711 0 -0.33426624045241882 0.19861974139395491 0 -0.32367223963440428 0.19056387701270119 0 -0.3233748845596256 0.20793379258645711 0 -0.32367223963440428 0.19056387701270119 0 -0.30969384339403833 0.19566354885112319 0 -0.31001181929703819 0.18388161013166979 0 -0.3233748845596256 0.20793379258645711 0 -0.32306354135764642 0.2261208207945366 0 -0.3233748845596256 0.20793379258645711 0 -0.31790933771355961 0.21656904906512381 0 -0.32306354135764642 0.2261208207945366 0 -0.3233748845596256 0.20793379258645711 0 -0.31600794556639161 0.20652790547081271 0 -0.31790933771355961 0.21656904906512381 0 -0.3233748845596256 0.20793379258645711 0 -0.31600794556639161 0.20652790547081271 0 -0.31600794556639161 0.20652790547081271 0 -0.31790933771355961 0.21656904906512381 0 -0.30840763724241183 0.22033170038241129 0 -0.3495359622677916 0.21292630333142959 0 -0.3233748845596256 0.20793379258645711 0 -0.32306354135764642 0.2261208207945366 0 -0.3495359622677916 0.21292630333142959 0 -0.33426624045241882 0.19861974139395491 0 -0.3233748845596256 0.20793379258645711 0 -0.3495359622677916 0.21292630333142959 0 -0.3233748845596256 0.20793379258645711 0 -0.3495359622677916 0.21292630333142959 0 -0.33976720082437301 0.23180485841266241 0 -0.32306354135764642 0.2261208207945366 0 -0.32306354135764642 0.2261208207945366 0 -0.31272196361514459 0.2411208714275736 0 -0.30840763724241183 0.22033170038241129 0 -0.31790933771355961 0.21656904906512381 0 -0.32306354135764642 0.2261208207945366 0 -0.30840763724241183 0.22033170038241129 0 -0.32306354135764642 0.2261208207945366 0 -0.31272196361514459 0.2411208714275736 0 -0.33202300589168171 0.24846154870984599 0 -0.35444629378037229 0.23971076081483711 0 -0.33976720082437301 0.23180485841266241 0 -0.33202300589168171 0.24846154870984599 0 -0.33976720082437301 0.23180485841266241 0 -0.32306354135764642 0.2261208207945366 0 -0.33202300589168171 0.24846154870984599 0 -0.2820648556851344 0.24475616044829701 0 -0.2935406847295729 0.23334178849997059 0 -0.30001096413420081 0.25400905032456172 0 -0.31272196361514459 0.2411208714275736 0 -0.2935406847295729 0.23334178849997059 0 -0.30001096413420081 0.25400905032456172 0 -0.31272196361514459 0.2411208714275736 0 -0.30840763724241183 0.22033170038241129 0 -0.2935406847295729 0.23334178849997059 0 -0.30840763724241183 0.22033170038241129 0 -0.2935406847295729 0.23334178849997059 0 -0.29438827281895408 0.21313678122071619 0 -0.2935406847295729 0.23334178849997059 0 -0.29438827281895408 0.21313678122071619 0 -0.27519693843672199 0.22489879306703259 0 -0.2935406847295729 0.23334178849997059 0 -0.29438827281895408 0.21313678122071619 0 -0.2820648556851344 0.24475616044829701 0 -0.2935406847295729 0.23334178849997059 0 -0.27519693843672199 0.22489879306703259 0 -0.29438827281895408 0.21313678122071619 0 -0.2952358609083352 0.1929317739414618 0 -0.27599455566222503 0.20539046092792279 0 -0.29438827281895408 0.21313678122071619 0 -0.27599455566222503 0.20539046092792279 0 -0.27519693843672199 0.22489879306703259 0 -0.30840763724241183 0.22033170038241129 0 -0.29438827281895408 0.21313678122071619 0 -0.30474671198602621 0.20571834197330499 0 -0.29438827281895408 0.21313678122071619 0 -0.30474671198602621 0.20571834197330499 0 -0.2952358609083352 0.1929317739414618 0 -0.31600794556639161 0.20652790547081271 0 -0.30840763724241183 0.22033170038241129 0 -0.30474671198602621 0.20571834197330499 0 -0.30474671198602621 0.20571834197330499 0 -0.30969384339403833 0.19566354885112319 0 -0.2952358609083352 0.1929317739414618 0 -0.31600794556639161 0.20652790547081271 0 -0.30474671198602621 0.20571834197330499 0 -0.30969384339403833 0.19566354885112319 0 -0.30969384339403833 0.19566354885112319 0 -0.2952358609083352 0.1929317739414618 0 -0.31001181929703819 0.18388161013166979 0 -0.2952358609083352 0.1929317739414618 0 -0.27355737770104638 0.1928220794907555 0 -0.27599455566222503 0.20539046092792279 0 -0.2952358609083352 0.1929317739414618 0 -0.27355737770104638 0.1928220794907555 0 -0.28032322635636098 0.18363160928098071 0 -0.29438827281895408 0.21313678122071619 0 -0.2952358609083352 0.1929317739414618 0 -0.27355737770104638 0.1928220794907555 0 -0.26215529763350881 0.19730899300989149 0 -0.27599455566222503 0.20539046092792279 0 -0.26215529763350881 0.19730899300989149 0 -0.26095363900987939 0.18395274514435969 0 -0.24579479033373661 0.1931074787104361 0 -0.26215529763350881 0.19730899300989149 0 -0.25447612546065629 0.21127220077598349 0 -0.24579479033373661 0.1931074787104361 0 -0.27355737770104638 0.1928220794907555 0 -0.26215529763350881 0.19730899300989149 0 -0.26095363900987939 0.18395274514435969 0 -0.26215529763350881 0.19730899300989149 0 -0.25447612546065629 0.21127220077598349 0 -0.27599455566222503 0.20539046092792279 0 -0.25447612546065629 0.21127220077598349 0 -0.27599455566222503 0.20539046092792279 0 -0.27519693843672199 0.22489879306703259 0 -0.27519693843672199 0.22489879306703259 0 -0.25828402274854528 0.22932601424169691 0 -0.26721173472484988 0.23997202347216651 0 -0.25447612546065629 0.21127220077598349 0 -0.27519693843672199 0.22489879306703259 0 -0.25828402274854528 0.22932601424169691 0 -0.25447612546065629 0.21127220077598349 0 -0.25828402274854528 0.22932601424169691 0 -0.24249599570668121 0.22914751995652369 0 -0.25828402274854528 0.22932601424169691 0 -0.25184776955068922 0.24631017592718801 0 -0.26721173472484988 0.23997202347216651 0 -0.25184776955068922 0.24631017592718801 0 -0.26721173472484988 0.23997202347216651 0 -0.26848796233705841 0.25512828882703059 0 -0.25828402274854528 0.22932601424169691 0 -0.25184776955068922 0.24631017592718801 0 -0.24249599570668121 0.22914751995652369 0 -0.2820648556851344 0.24475616044829701 0 -0.26721173472484988 0.23997202347216651 0 -0.26848796233705841 0.25512828882703059 0 -0.2820648556851344 0.24475616044829701 0 -0.27519693843672199 0.22489879306703259 0 -0.26721173472484988 0.23997202347216651 0 -0.28663922767552491 0.13349468086710969 0 -0.2971542582244302 0.14720056060586201 0 -0.2768382965776901 0.1448445870032681 0 -0.2971542582244302 0.14720056060586201 0 -0.28437356675262287 0.15750915004379029 0 -0.2768382965776901 0.1448445870032681 0 -0.28663922767552491 0.13349468086710969 0 -0.2971542582244302 0.14720056060586201 0 -0.29822506745114541 0.1216743545495165 0 -0.28663922767552491 0.13349468086710969 0 -0.27455345514873231 0.12921348976981481 0 -0.28424638461474572 0.1201356541097367 0 -0.28663922767552491 0.13349468086710969 0 -0.28424638461474572 0.1201356541097367 0 -0.29822506745114541 0.1216743545495165 0 -0.2971542582244302 0.14720056060586201 0 -0.29822506745114541 0.1216743545495165 0 -0.30045019035311699 0.1269869288396982 0 -0.2971542582244302 0.14720056060586201 0 -0.29822506745114541 0.1216743545495165 0 -0.30045019035311699 0.1269869288396982 0 -0.30699107405215392 0.13709510277316231 0 -0.2971542582244302 0.14720056060586201 0 -0.30045019035311699 0.1269869288396982 0 -0.30869212196180978 0.12731106783944571 0 -0.29822506745114541 0.1216743545495165 0 -0.30045019035311699 0.1269869288396982 0 -0.30869212196180978 0.12731106783944571 0 -0.30699107405215392 0.13709510277316231 0 -0.31738936349282371 0.13629496765227031 0 -0.30699107405215392 0.13709510277316231 0 -0.31126205310505822 0.14700864849631221 0 -0.31738936349282371 0.13629496765227031 0 -0.30869212196180978 0.12731106783944571 0 -0.30699107405215392 0.13709510277316231 0 -0.30699107405215392 0.13709510277316231 0 -0.31126205310505822 0.14700864849631221 0 -0.2971542582244302 0.14720056060586201 0 -0.31126205310505822 0.14700864849631221 0 -0.2971542582244302 0.14720056060586201 0 -0.31032112339418938 0.1599488094136961 0 -0.3239695947091849 0.1731939614389455 0 -0.31032112339418938 0.1599488094136961 0 -0.29608344899771638 0.1727267666622074 0 -0.2971542582244302 0.14720056060586201 0 -0.31032112339418938 0.1599488094136961 0 -0.29608344899771638 0.1727267666622074 0 -0.3239695947091849 0.1731939614389455 0 -0.31001181929703819 0.18388161013166979 0 -0.29608344899771638 0.1727267666622074 0 -0.3239695947091849 0.1731939614389455 0 -0.29608344899771638 0.1727267666622074 0 -0.2952358609083352 0.1929317739414618 0 -0.31001181929703819 0.18388161013166979 0 -0.29608344899771638 0.1727267666622074 0 -0.2952358609083352 0.1929317739414618 0 -0.29608344899771638 0.1727267666622074 0 -0.2952358609083352 0.1929317739414618 0 -0.29608344899771638 0.1727267666622074 0 -0.28850967040437048 0.17955729945455759 0 -0.29608344899771638 0.1727267666622074 0 -0.29075677512268938 0.17263752542258121 0 -0.29608344899771638 0.1727267666622074 0 -0.29075677512268938 0.17263752542258121 0 -0.28850967040437048 0.17955729945455759 0 -0.29075677512268938 0.17263752542258121 0 -0.28195066252385043 0.17477753090213269 0 -0.28850967040437048 0.17955729945455759 0 -0.28195066252385043 0.17477753090213269 0 -0.28850967040437048 0.17955729945455759 0 -0.28032322635636098 0.18363160928098071 0 -0.2952358609083352 0.1929317739414618 0 -0.28850967040437048 0.17955729945455759 0 -0.28032322635636098 0.18363160928098071 0 -0.2971542582244302 0.14720056060586201 0 -0.29608344899771638 0.1727267666622074 0 -0.2971542582244302 0.14720056060586201 0 -0.29608344899771638 0.1727267666622074 0 -0.28437356675262287 0.15750915004379029 0 -0.29608344899771638 0.1727267666622074 0 -0.29075677512268938 0.17263752542258121 0 -0.28471832423860077 0.1662745252515222 0 -0.29075677512268938 0.17263752542258121 0 -0.28195066252385043 0.17477753090213269 0 -0.28471832423860077 0.1662745252515222 0 -0.29608344899771638 0.1727267666622074 0 -0.28471832423860077 0.1662745252515222 0 -0.28437356675262287 0.15750915004379029 0 -0.28471832423860077 0.1662745252515222 0 -0.28437356675262287 0.15750915004379029 0 -0.27381815966043671 0.15937925120072119 0 -0.28471832423860077 0.1662745252515222 0 -0.27381815966043671 0.15937925120072119 0 -0.27508700445971751 0.16942669319306489 0 -0.28195066252385043 0.17477753090213269 0 -0.28471832423860077 0.1662745252515222 0 -0.27508700445971751 0.16942669319306489 0 -0.27381815966043671 0.15937925120072119 0 -0.27508700445971751 0.16942669319306489 0 -0.26313645523417323 0.16785195129424901 0 -0.27381815966043671 0.15937925120072119 0 -0.26313645523417323 0.16785195129424901 0 -0.26136150597467128 0.15237147540920459 0 -0.27355737770104638 0.1928220794907555 0 -0.28032322635636098 0.18363160928098071 0 -0.2725013942141713 0.17874376821759039 0 -0.28195066252385043 0.17477753090213269 0 -0.28032322635636098 0.18363160928098071 0 -0.2725013942141713 0.17874376821759039 0 -0.28195066252385043 0.17477753090213269 0 -0.27508700445971751 0.16942669319306489 0 -0.2725013942141713 0.17874376821759039 0 -0.27508700445971751 0.16942669319306489 0 -0.2725013942141713 0.17874376821759039 0 -0.26313645523417323 0.16785195129424901 0 -0.27355737770104638 0.1928220794907555 0 -0.2725013942141713 0.17874376821759039 0 -0.26095363900987939 0.18395274514435969 0 -0.26095363900987939 0.18395274514435969 0 -0.26313645523417323 0.16785195129424901 0 -0.247977347910708 0.17381395201700811 0 -0.26095363900987939 0.18395274514435969 0 -0.247977347910708 0.17381395201700811 0 -0.24579479033373661 0.1931074787104361 0 -0.2725013942141713 0.17874376821759039 0 -0.26095363900987939 0.18395274514435969 0 -0.26313645523417323 0.16785195129424901 0 -0.26313645523417323 0.16785195129424901 0 -0.24762251711130989 0.15780097984971159 0 -0.247977347910708 0.17381395201700811 0 -0.26313645523417323 0.16785195129424901 0 -0.26136150597467128 0.15237147540920459 0 -0.24762251711130989 0.15780097984971159 0 -0.25067899134314953 0.14316715857932191 0 -0.26136150597467128 0.15237147540920459 0 -0.26148743284687792 0.13482927731898689 0 -0.25067899134314953 0.14316715857932191 0 -0.26136150597467128 0.15237147540920459 0 -0.24762251711130989 0.15780097984971159 0 -0.27381815966043671 0.15937925120072119 0 -0.26136150597467128 0.15237147540920459 0 -0.2768382965776901 0.1448445870032681 0 -0.26136150597467128 0.15237147540920459 0 -0.2768382965776901 0.1448445870032681 0 -0.26148743284687792 0.13482927731898689 0 -0.28437356675262287 0.15750915004379029 0 -0.27381815966043671 0.15937925120072119 0 -0.2768382965776901 0.1448445870032681 0 -0.28663922767552491 0.13349468086710969 0 -0.2768382965776901 0.1448445870032681 0 -0.27455345514873231 0.12921348976981481 0 -0.2768382965776901 0.1448445870032681 0 -0.27455345514873231 0.12921348976981481 0 -0.26148743284687792 0.13482927731898689 0 -0.25067899134314953 0.14316715857932191 0 -0.26148743284687792 0.13482927731898689 0 -0.24928655479220371 0.12736228417046699 0 -0.26148743284687792 0.13482927731898689 0 -0.26737156958793112 0.1092756748281086 0 -0.24928655479220371 0.12736228417046699 0 -0.26737156958793112 0.1092756748281086 0 -0.24928655479220371 0.12736228417046699 0 -0.25221335592051047 0.1122038124009291 0 -0.26737156958793112 0.1092756748281086 0 -0.24928655479220371 0.12736228417046699 0 -0.25221335592051047 0.1122038124009291 0 -0.26737156958793112 0.1092756748281086 0 -0.26949780520767208 0.093316708129240242 0 -0.25221335592051047 0.1122038124009291 0 -0.26949780520767208 0.093316708129240242 0 -0.24266985285847051 0.09430305010786505 0 -0.26737156958793112 0.1092756748281086 0 -0.28545658438365817 0.091189065485749718 0 -0.26949780520767208 0.093316708129240242 0 -0.26737156958793112 0.1092756748281086 0 -0.28545658438365817 0.091189065485749718 0 -0.26737156958793112 0.1092756748281086 0 -0.28424638461474572 0.1201356541097367 0 -0.29184082591740179 0.1064317100176331 0 -0.27455345514873231 0.12921348976981481 0 -0.26148743284687792 0.13482927731898689 0 -0.26737156958793112 0.1092756748281086 0 -0.27455345514873231 0.12921348976981481 0 -0.26737156958793112 0.1092756748281086 0 -0.28424638461474572 0.1201356541097367 0 -0.29184082591740179 0.1064317100176331 0 -0.29822506745114541 0.1216743545495165 0 -0.28424638461474572 0.1201356541097367 0 -0.29184082591740179 0.1064317100176331 0 -0.29822506745114541 0.1216743545495165 0 -0.26737156958793112 0.1092756748281086 0 -0.29184082591740179 0.1064317100176331 0 -0.28545658438365817 0.091189065485749718 0 -0.29184082591740179 0.1064317100176331 0 -0.29917205520467471 0.099099834339564985 0 -0.29822506745114541 0.1216743545495165 0 -0.29184082591740179 0.1064317100176331 0 -0.28545658438365817 0.091189065485749718 0 -0.29184082591740179 0.1064317100176331 0 -0.29917205520467471 0.099099834339564985 0 -0.28545658438365817 0.091189065485749718 0 -0.29917205520467471 0.099099834339564985 0 -0.3153567736276453 0.10269482917387029 0 -0.3127667348206174 0.08697553401587689 0 -0.29917205520467471 0.099099834339564985 0 -0.31159122660440319 0.1162730880362603 0 -0.3153567736276453 0.10269482917387029 0 -0.29917205520467471 0.099099834339564985 0 -0.31159122660440319 0.1162730880362603 0 -0.29822506745114541 0.1216743545495165 0 -0.29917205520467471 0.099099834339564985 0 -0.29822506745114541 0.1216743545495165 0 -0.30869212196180978 0.12731106783944571 0 -0.31159122660440319 0.1162730880362603 0 -0.29822506745114541 0.1216743545495165 0 -0.30045019035311699 0.1269869288396982 0 -0.29822506745114541 0.1216743545495165 0 -0.30011904295821001 0.07652531412961372 0 -0.30862959795619088 0.068014008760301087 0 -0.30136333652160779 0.046863547027204452 0 -0.30011904295821001 0.07652531412961372 0 -0.30862959795619088 0.068014008760301087 0 -0.3127667348206174 0.08697553401587689 0 -0.30011904295821001 0.07652531412961372 0 -0.30862959795619088 0.068014008760301087 0 -0.29917205520467471 0.099099834339564985 0 -0.30011904295821001 0.07652531412961372 0 -0.29917205520467471 0.099099834339564985 0 -0.30011904295821001 0.07652531412961372 0 -0.3127667348206174 0.08697553401587689 0 -0.29917205520467471 0.099099834339564985 0 -0.30011904295821001 0.07652531412961372 0 -0.28545658438365817 0.091189065485749718 0 -0.30011904295821001 0.07652531412961372 0 -0.28545658438365817 0.091189065485749718 0 -0.27560967654396462 0.067679159861843835 0 -0.30011904295821001 0.07652531412961372 0 -0.28545658438365817 0.091189065485749718 0 -0.30011904295821001 0.07652531412961372 0 -0.27560967654396462 0.067679159861843835 0 -0.28848650653278768 0.057271353444525941 0 -0.27560967654396462 0.067679159861843835 0 -0.25913976470121758 0.080991104984854567 0 -0.27560967654396462 0.067679159861843835 0 -0.25913976470121758 0.080991104984854567 0 -0.26213006566801228 0.063151471761448794 0 -0.27560967654396462 0.067679159861843835 0 -0.26949780520767208 0.093316708129240242 0 -0.25913976470121758 0.080991104984854567 0 -0.28545658438365817 0.091189065485749718 0 -0.27560967654396462 0.067679159861843835 0 -0.28545658438365817 0.091189065485749718 0 -0.27560967654396462 0.067679159861843835 0 -0.26949780520767208 0.093316708129240242 0 -0.25913976470121758 0.080991104984854567 0 -0.24266985285847051 0.09430305010786505 0 -0.26949780520767208 0.093316708129240242 0 -0.25913976470121758 0.080991104984854567 0 -0.24266985285847051 0.09430305010786505 0 -0.25913976470121758 0.080991104984854567 0 -0.26213006566801228 0.063151471761448794 0 -0.24813832050515441 0.06523053509607378 0 -0.26213006566801228 0.063151471761448794 0 -0.25894163756212202 0.050385818540284767 0 -0.24813832050515441 0.06523053509607378 0 -0.2536067881518359 0.03615802008428208 0 -0.24813832050515441 0.06523053509607378 0 -0.25894163756212202 0.050385818540284767 0 -0.2536067881518359 0.03615802008428208 0 -0.24813832050515441 0.06523053509607378 0 -0.26213006566801228 0.063151471761448794 0 -0.25894163756212202 0.050385818540284767 0 -0.26882092902760418 0.051470740324188087 0 -0.26203218151123858 0.035262320786534587 0 -0.26882092902760418 0.051470740324188087 0 -0.25894163756212202 0.050385818540284767 0 -0.26203218151123858 0.035262320786534587 0 -0.26882092902760418 0.051470740324188087 0 -0.2536067881518359 0.03615802008428208 0 -0.26203218151123858 0.035262320786534587 0 -0.25894163756212202 0.050385818540284767 0 -0.2536067881518359 0.03615802008428208 0 -0.26203218151123858 0.035262320786534587 0 -0.26203218151123858 0.035262320786534587 0 -0.26882092902760418 0.051470740324188087 0 -0.28203027520570251 0.033136333581656158 0 -0.26882092902760418 0.051470740324188087 0 -0.28203027520570251 0.033136333581656158 0 -0.28864510263739879 0.044297882186454487 0 -0.26203218151123858 0.035262320786534587 0 -0.28203027520570251 0.033136333581656158 0 -0.27560967654396462 0.067679159861843835 0 -0.26213006566801228 0.063151471761448794 0 -0.26882092902760418 0.051470740324188087 0 -0.27560967654396462 0.067679159861843835 0 -0.26882092902760418 0.051470740324188087 0 -0.27560967654396462 0.067679159861843835 0 -0.26882092902760418 0.051470740324188087 0 -0.28848650653278768 0.057271353444525941 0 -0.26105000904448772 -0.0034130563339460351 0 -0.25633418442573502 0.021658113668284851 0 -0.2753534564772171 0.013581806102525389 0 -0.26105000904448772 -0.0034130563339460351 0 -0.25633418442573502 0.021658113668284851 0 -0.25633418442573502 0.021658113668284851 0 -0.2479964616934921 0.001751450810798965 0 -0.26105000904448772 -0.0034130563339460351 0 -0.25234564295639661 0.0033151651931428612 0 -0.25633418442573502 0.021658113668284851 0 -0.25234564295639661 0.0033151651931428612 0 -0.25633418442573502 0.021658113668284851 0 -0.2479964616934921 0.001751450810798965 0 -0.25280093984145469 -0.0047812359067542958 0 -0.25234564295639661 0.0033151651931428612 0 -0.2479964616934921 0.001751450810798965 0 -0.25234564295639661 0.0033151651931428612 0 -0.2479964616934921 0.001751450810798965 0 -0.2536067881518359 0.03615802008428208 0 -0.25633418442573502 0.021658113668284851 0 -0.2536067881518359 0.03615802008428208 0 -0.25633418442573502 0.021658113668284851 0 -0.24498279436372289 0.02620963615352211 0 -0.2536067881518359 0.03615802008428208 0 -0.26203218151123858 0.035262320786534587 0 -0.25633418442573502 0.021658113668284851 0 -0.26203218151123858 0.035262320786534587 0 -0.25633418442573502 0.021658113668284851 0 -0.26203218151123858 0.035262320786534587 0 -0.25633418442573502 0.021658113668284851 0 -0.26881590792879723 0.02498502032698215 0 -0.26203218151123858 0.035262320786534587 0 -0.26881590792879723 0.02498502032698215 0 -0.28203027520570251 0.033136333581656158 0 -0.25633418442573502 0.021658113668284851 0 -0.26881590792879723 0.02498502032698215 0 -0.2753534564772171 0.013581806102525389 0 -0.26881590792879723 0.02498502032698215 0 -0.2753534564772171 0.013581806102525389 0 -0.28203027520570251 0.033136333581656158 0 -0.26105000904448772 -0.0034130563339460351 0 -0.2753534564772171 0.013581806102525389 0 -0.28360401817538239 0.00097631935184466052 0 -0.2753534564772171 0.013581806102525389 0 -0.28360401817538239 0.00097631935184466052 0 -0.28967980428650908 0.018550003109992799 0 -0.29359687102034132 -0.0088652826219001151 0 -0.28360401817538239 0.00097631935184466052 0 -0.30291762531807659 0.0098120395317106771 0 -0.28360401817538239 0.00097631935184466052 0 -0.28967980428650908 0.018550003109992799 0 -0.30291762531807659 0.0098120395317106771 0 -0.2753534564772171 0.013581806102525389 0 -0.28967980428650908 0.018550003109992799 0 -0.28203027520570251 0.033136333581656158 0 -0.28967980428650908 0.018550003109992799 0 -0.30202836890016771 0.03101034637679019 0 -0.28203027520570251 0.033136333581656158 0 -0.28967980428650908 0.018550003109992799 0 -0.30202836890016771 0.03101034637679019 0 -0.30291762531807659 0.0098120395317106771 0 -0.30202836890016771 0.03101034637679019 0 -0.30291762531807659 0.0098120395317106771 0 -0.30202836890016771 0.03101034637679019 0 -0.32017709162702301 0.029080964862134899 0 -0.30202836890016771 0.03101034637679019 0 -0.31269867827957248 0.019440017249148241 0 -0.32017709162702301 0.029080964862134899 0 -0.30202836890016771 0.03101034637679019 0 -0.30291762531807659 0.0098120395317106771 0 -0.31269867827957248 0.019440017249148241 0 -0.30291762531807659 0.0098120395317106771 0 -0.3170416445055787 0.0083731275878341366 0 -0.31269867827957248 0.019440017249148241 0 -0.3163223612136904 -0.0047133062924637663 0 -0.30291762531807659 0.0098120395317106771 0 -0.3170416445055787 0.0083731275878341366 0 -0.26882092902760418 0.051470740324188087 0 -0.28848650653278768 0.057271353444525941 0 -0.28864510263739879 0.044297882186454487 0 -0.30011904295821001 0.07652531412961372 0 -0.28848650653278768 0.057271353444525941 0 -0.30136333652160779 0.046863547027204452 0 -0.28848650653278768 0.057271353444525941 0 -0.30136333652160779 0.046863547027204452 0 -0.28848650653278768 0.057271353444525941 0 -0.28864510263739879 0.044297882186454487 0 -0.30136333652160779 0.046863547027204452 0 -0.27560967654396462 0.067679159861843835 0 -0.28848650653278768 0.057271353444525941 0 -0.30202836890016771 0.03101034637679019 0 -0.28203027520570251 0.033136333581656158 0 -0.28864510263739879 0.044297882186454487 0 -0.30202836890016771 0.03101034637679019 0 -0.28203027520570251 0.033136333581656158 0 -0.30202836890016771 0.03101034637679019 0 -0.28864510263739879 0.044297882186454487 0 -0.30136333652160779 0.046863547027204452 0 -0.30202836890016771 0.03101034637679019 0 -0.30136333652160779 0.046863547027204452 0 -0.31223316652798982 0.038077915268949172 0 -0.30202836890016771 0.03101034637679019 0 -0.30136333652160779 0.046863547027204452 0 -0.30202836890016771 0.03101034637679019 0 -0.31223316652798982 0.038077915268949172 0 -0.32017709162702301 0.029080964862134899 0 -0.30136333652160779 0.046863547027204452 0 -0.31223316652798982 0.038077915268949172 0 -0.31662126815817981 0.047342778880839792 0 -0.30136333652160779 0.046863547027204452 0 -0.31223316652798982 0.038077915268949172 0 -0.30136333652160779 0.046863547027204452 0 -0.31433680675404679 0.056739422832139848 0 -0.31662126815817981 0.047342778880839792 0 -0.30011904295821001 0.07652531412961372 0 -0.30136333652160779 0.046863547027204452 0 -0.30862959795619088 0.068014008760301087 0 -0.30136333652160779 0.046863547027204452 0 -0.31433680675404679 0.056739422832139848 0 -0.31433680675404679 0.056739422832139848 0 -0.32366875503140358 0.054639415768720882 0 -0.32116041660487948 0.065508805769189632 0 -0.32366875503140358 0.054639415768720882 0 -0.32116041660487948 0.065508805769189632 0 -0.33491894650640802 0.06579428555928872 0 -0.32366875503140358 0.054639415768720882 0 -0.31662126815817981 0.047342778880839792 0 -0.32892943367172689 0.043108816117795462 0 -0.31433680675404679 0.056739422832139848 0 -0.32366875503140358 0.054639415768720882 0 -0.31662126815817981 0.047342778880839792 0 -0.31223316652798982 0.038077915268949172 0 -0.31662126815817981 0.047342778880839792 0 -0.32892943367172689 0.043108816117795462 0 -0.31223316652798982 0.038077915268949172 0 -0.32892943367172689 0.043108816117795462 0 -0.32017709162702301 0.029080964862134899 0 -0.32892943367172689 0.043108816117795462 0 -0.32017709162702301 0.029080964862134899 0 -0.33832581435387971 0.02715158334749233 0 -0.32892943367172689 0.043108816117795462 0 -0.34289143247314219 0.039739700269837669 0 -0.33832581435387971 0.02715158334749233 0 -0.34289143247314219 0.039739700269837669 0 -0.33832581435387971 0.02715158334749233 0 -0.34984255571260497 0.031084234242446499 0 -0.32892943367172689 0.043108816117795462 0 -0.34289143247314219 0.039739700269837669 0 -0.34369133961111842 0.052601747991208272 0 -0.34369133961111842 0.052601747991208272 0 -0.33333033854794769 0.054797636642642658 0 -0.33491894650640802 0.06579428555928872 0 -0.32366875503140358 0.054639415768720882 0 -0.33333033854794769 0.054797636642642658 0 -0.33491894650640802 0.06579428555928872 0 -0.32892943367172689 0.043108816117795462 0 -0.34369133961111842 0.052601747991208272 0 -0.33333033854794769 0.054797636642642658 0 -0.32366875503140358 0.054639415768720882 0 -0.32892943367172689 0.043108816117795462 0 -0.33333033854794769 0.054797636642642658 0 -0.3163223612136904 -0.0047133062924637663 0 -0.3170416445055787 0.0083731275878341366 0 -0.32841165485387902 0.00074677658014647198 0 -0.3170416445055787 0.0083731275878341366 0 -0.3270414966139375 0.016021312148152951 0 -0.31269867827957248 0.019440017249148241 0 -0.3170416445055787 0.0083731275878341366 0 -0.3270414966139375 0.016021312148152951 0 -0.32841165485387902 0.00074677658014647198 0 -0.3270414966139375 0.016021312148152951 0 -0.31269867827957248 0.019440017249148241 0 -0.32017709162702301 0.029080964862134899 0 -0.32017709162702301 0.029080964862134899 0 -0.33832581435387971 0.02715158334749233 0 -0.3270414966139375 0.016021312148152951 0 -0.33832581435387971 0.02715158334749233 0 -0.3396507374462937 0.0085495496487234379 0 -0.33832581435387971 0.02715158334749233 0 -0.3396507374462937 0.0085495496487234379 0 -0.35236329566664959 0.01626255453911149 0 -0.3270414966139375 0.016021312148152951 0 -0.32017709162702301 0.029080964862134899 0 -0.33832581435387971 0.02715158334749233 0 -0.34020042749406948 -0.0073900965852247494 0 -0.3396507374462937 0.0085495496487234379 0 -0.32841165485387902 0.00074677658014647198 0 -0.3270414966139375 0.016021312148152951 0 -0.3396507374462937 0.0085495496487234379 0 -0.32841165485387902 0.00074677658014647198 0 -0.3515617356953476 -0.0014948321373378769 0 -0.35236329566664959 0.01626255453911149 0 -0.36816400398299193 0.0056681537939764493 0 -0.3515617356953476 -0.0014948321373378769 0 -0.3396507374462937 0.0085495496487234379 0 -0.35236329566664959 0.01626255453911149 0 -0.33832581435387971 0.02715158334749233 0 -0.35236329566664959 0.01626255453911149 0 -0.34984255571260497 0.031084234242446499 0 -0.35236329566664959 0.01626255453911149 0 -0.34984255571260497 0.031084234242446499 0 -0.36133639873361922 0.029002341154496999 0 -0.35236329566664959 0.01626255453911149 0 -0.36133639873361922 0.029002341154496999 0 -0.37000877116417769 0.019164673627885691 0 -0.37554717599428261 0.03436746997365428 0 -0.36133639873361922 0.029002341154496999 0 -0.37000877116417769 0.019164673627885691 0 -0.35236329566664959 0.01626255453911149 0 -0.37000877116417769 0.019164673627885691 0 -0.36816400398299193 0.0056681537939764493 0 -0.37962163360978141 0.0070281146825582922 0 -0.37000877116417769 0.019164673627885691 0 -0.36816400398299193 0.0056681537939764493 0 -0.35434568491634572 0.055625559190482898 0 -0.35429583733573428 0.043264991901293987 0 -0.36537039806047061 0.052316058090839841 0 -0.35434568491634572 0.055625559190482898 0 -0.36114329407920831 0.061427831100293998 0 -0.35078225615181291 0.066335925726636616 0 -0.34369133961111842 0.052601747991208272 0 -0.35434568491634572 0.055625559190482898 0 -0.35078225615181291 0.066335925726636616 0 -0.34369133961111842 0.052601747991208272 0 -0.35434568491634572 0.055625559190482898 0 -0.35429583733573428 0.043264991901293987 0 -0.34289143247314219 0.039739700269837669 0 -0.34369133961111842 0.052601747991208272 0 -0.35429583733573428 0.043264991901293987 0 -0.34289143247314219 0.039739700269837669 0 -0.34984255571260497 0.031084234242446499 0 -0.35429583733573428 0.043264991901293987 0 -0.34984255571260497 0.031084234242446499 0 -0.36133639873361922 0.029002341154496999 0 -0.35429583733573428 0.043264991901293987 0 -0.35429583733573428 0.043264991901293987 0 -0.36588690116059602 0.041013075366576043 0 -0.36537039806047061 0.052316058090839841 0 -0.36133639873361922 0.029002341154496999 0 -0.35429583733573428 0.043264991901293987 0 -0.36588690116059602 0.041013075366576043 0 -0.37554717599428261 0.03436746997365428 0 -0.36133639873361922 0.029002341154496999 0 -0.36588690116059602 0.041013075366576043 0 -0.37513243858445372 0.046652380892278911 0 -0.36588690116059602 0.041013075366576043 0 -0.36537039806047061 0.052316058090839841 0 -0.37513243858445372 0.046652380892278911 0 -0.37554717599428261 0.03436746997365428 0 -0.36588690116059602 0.041013075366576043 0 -0.37535096121134331 0.055065439952669173 0 -0.37513243858445372 0.046652380892278911 0 -0.36537039806047061 0.052316058090839841 0 -0.35434568491634572 0.055625559190482898 0 -0.36537039806047061 0.052316058090839841 0 -0.36114329407920831 0.061427831100293998 0 -0.36537039806047061 0.052316058090839841 0 -0.36114329407920831 0.061427831100293998 0 -0.37221443001157078 0.061861291939602693 0 -0.37535096121134331 0.055065439952669173 0 -0.36537039806047061 0.052316058090839841 0 -0.37221443001157078 0.061861291939602693 0 -0.36114329407920831 0.061427831100293998 0 -0.37221443001157078 0.061861291939602693 0 -0.36899102151055901 0.066400584855085862 0 -0.38517291627657702 0.068937700389941958 0 -0.36899102151055901 0.066400584855085862 0 -0.3622029514279152 0.072843505679458465 0 -0.38517291627657702 0.068937700389941958 0 -0.37093481851189508 0.077818975369586069 0 -0.3622029514279152 0.072843505679458465 0 -0.38517291627657702 0.068937700389941958 0 -0.3622029514279152 0.072843505679458465 0 -0.37093481851189508 0.077818975369586069 0 -0.3622029514279152 0.072843505679458465 0 -0.37093481851189508 0.077818975369586069 0 -0.3622029514279152 0.072843505679458465 0 -0.35962784900464517 0.080249068497445314 0 -0.36114329407920831 0.061427831100293998 0 -0.36899102151055901 0.066400584855085862 0 -0.3622029514279152 0.072843505679458465 0 -0.34369133961111842 0.052601747991208272 0 -0.34756939838543838 0.075331790239503635 0 -0.35078225615181291 0.066335925726636616 0 -0.34369133961111842 0.052601747991208272 0 -0.34756939838543838 0.075331790239503635 0 -0.36114329407920831 0.061427831100293998 0 -0.3622029514279152 0.072843505679458465 0 -0.35078225615181291 0.066335925726636616 0 -0.3622029514279152 0.072843505679458465 0 -0.35078225615181291 0.066335925726636616 0 -0.3622029514279152 0.072843505679458465 0 -0.34756939838543838 0.075331790239503635 0 -0.35962784900464517 0.080249068497445314 0 -0.3622029514279152 0.072843505679458465 0 -0.34756939838543838 0.075331790239503635 0 -0.3622029514279152 0.072843505679458465 0 -0.34756939838543838 0.075331790239503635 0 -0.35078225615181291 0.066335925726636616 0 -0.34756939838543838 0.075331790239503635 0 -0.35126577693011313 0.096996970004830915 0 -0.34756939838543838 0.075331790239503635 0 -0.35862015626986621 0.089033444396524303 0 -0.35126577693011313 0.096996970004830915 0 -0.34756939838543838 0.075331790239503635 0 -0.35126577693011313 0.096996970004830915 0 -0.33769467895948307 0.085860698696192395 0 -0.34756939838543838 0.075331790239503635 0 -0.35862015626986621 0.089033444396524303 0 -0.35962784900464517 0.080249068497445314 0 -0.35862015626986621 0.089033444396524303 0 -0.37005017994723077 0.087897290851935581 0 -0.36854655565954142 0.1010336040288158 0 -0.37093481851189508 0.077818975369586069 0 -0.35962784900464517 0.080249068497445314 0 -0.35862015626986621 0.089033444396524303 0 -0.35962784900464517 0.080249068497445314 0 -0.37005017994723077 0.087897290851935581 0 -0.37093481851189508 0.077818975369586069 0 -0.35962784900464517 0.080249068497445314 0 -0.37005017994723077 0.087897290851935581 0 -0.35862015626986621 0.089033444396524303 0 -0.36854655565954142 0.1010336040288158 0 -0.35126577693011313 0.096996970004830915 0 -0.36854655565954142 0.1010336040288158 0 -0.37415242258487802 0.11756488204243069 0 -0.35496215547478782 0.1186621497701582 0 -0.37397773792926731 0.13493586287057369 0 -0.37415242258487802 0.11756488204243069 0 -0.35496215547478782 0.1186621497701582 0 -0.35496215547478782 0.1186621497701582 0 -0.35126577693011313 0.096996970004830915 0 -0.34063994643386231 0.1094903406268342 0 -0.36854655565954142 0.1010336040288158 0 -0.35496215547478782 0.1186621497701582 0 -0.35126577693011313 0.096996970004830915 0 -0.35496215547478782 0.1186621497701582 0 -0.35126577693011313 0.096996970004830915 0 -0.35126577693011313 0.096996970004830915 0 -0.32919383175074141 0.096201648065308246 0 -0.34063994643386231 0.1094903406268342 0 -0.32919383175074141 0.096201648065308246 0 -0.34063994643386231 0.1094903406268342 0 -0.3258626989430673 0.1140033499477317 0 -0.33451305398194608 0.13132551882225579 0 -0.35496215547478782 0.1186621497701582 0 -0.34063994643386231 0.1094903406268342 0 -0.33451305398194608 0.13132551882225579 0 -0.34063994643386231 0.1094903406268342 0 -0.3258626989430673 0.1140033499477317 0 -0.31960969299681008 0.12504159845959281 0 -0.33451305398194608 0.13132551882225579 0 -0.3258626989430673 0.1140033499477317 0 -0.31159122660440319 0.1162730880362603 0 -0.3258626989430673 0.1140033499477317 0 -0.3153567736276453 0.10269482917387029 0 -0.31960969299681008 0.12504159845959281 0 -0.30869212196180978 0.12731106783944571 0 -0.31159122660440319 0.1162730880362603 0 -0.31960969299681008 0.12504159845959281 0 -0.31159122660440319 0.1162730880362603 0 -0.3258626989430673 0.1140033499477317 0 -0.32919383175074141 0.096201648065308246 0 -0.3153567736276453 0.10269482917387029 0 -0.3127667348206174 0.08697553401587689 0 -0.32919383175074141 0.096201648065308246 0 -0.3258626989430673 0.1140033499477317 0 -0.3153567736276453 0.10269482917387029 0 -0.32919383175074141 0.096201648065308246 0 -0.3127667348206174 0.08697553401587689 0 -0.3241291074262474 0.079317569626603343 0 -0.30862959795619088 0.068014008760301087 0 -0.3241291074262474 0.079317569626603343 0 -0.32116041660487948 0.065508805769189632 0 -0.30862959795619088 0.068014008760301087 0 -0.3127667348206174 0.08697553401587689 0 -0.3241291074262474 0.079317569626603343 0 -0.30862959795619088 0.068014008760301087 0 -0.31433680675404679 0.056739422832139848 0 -0.32116041660487948 0.065508805769189632 0 -0.3241291074262474 0.079317569626603343 0 -0.32116041660487948 0.065508805769189632 0 -0.33491894650640802 0.06579428555928872 0 -0.34756939838543838 0.075331790239503635 0 -0.3241291074262474 0.079317569626603343 0 -0.34369133961111842 0.052601747991208272 0 -0.34756939838543838 0.075331790239503635 0 -0.33491894650640802 0.06579428555928872 0 -0.34756939838543838 0.075331790239503635 0 -0.3241291074262474 0.079317569626603343 0 -0.33491894650640802 0.06579428555928872 0 -0.35126577693011313 0.096996970004830915 0 -0.32919383175074141 0.096201648065308246 0 -0.33769467895948307 0.085860698696192395 0 -0.32919383175074141 0.096201648065308246 0 -0.3241291074262474 0.079317569626603343 0 -0.33769467895948307 0.085860698696192395 0 -0.34756939838543838 0.075331790239503635 0 -0.3241291074262474 0.079317569626603343 0 -0.33769467895948307 0.085860698696192395 0 -0.40261608109891178 0.47287246553184498 0 -0.4066174938894524 0.49224095934206669 0 -0.40261608109891178 0.47287246553184498 0 -0.38935645100253002 0.48437805726230271 0 -0.38712095085933163 0.46837939260834338 0 -0.40261608109891178 0.47287246553184498 0 -0.39926567069983909 0.4863558181159956 0 -0.4066174938894524 0.49224095934206669 0 -0.40261608109891178 0.47287246553184498 0 -0.39926567069983909 0.4863558181159956 0 -0.38935645100253002 0.48437805726230271 0 -0.40328853518404911 0.49505951136368448 0 -0.38935645100253002 0.48437805726230271 0 -0.38134699805860361 0.5 0 -0.39926567069983909 0.4863558181159956 0 -0.40328853518404911 0.49505951136368448 0 -0.4066174938894524 0.49224095934206669 0 -0.40328853518404911 0.49505951136368448 0 -0.38134699805860361 0.5 0 -0.40822046440616688 0.4999999999999975 0 -0.40328853518404911 0.49505951136368448 0 -0.40822046440616688 0.4999999999999975 0 -0.4066174938894524 0.49224095934206669 0 -0.40328853518404911 0.49505951136368448 0 -0.4066174938894524 0.49224095934206669 0 -0.39926567069983909 0.4863558181159956 0 -0.40328853518404911 0.49505951136368448 0 -0.38935645100253002 0.48437805726230271 0 -0.38935645100253002 0.48437805726230271 0 -0.38134699805860361 0.5 0 -0.37254821432271701 0.4773643366350912 0 -0.38935645100253002 0.48437805726230271 0 -0.38712095085933163 0.46837939260834338 0 -0.37254821432271701 0.4773643366350912 0 -0.38712095085933163 0.46837939260834338 0 -0.39861466830837028 0.45350397172162349 0 -0.37246933956412792 0.45377813189085492 0 -0.39861466830837028 0.45350397172162349 0 -0.37246933956412792 0.45377813189085492 0 -0.38712095085933163 0.46837939260834338 0 -0.37246933956412792 0.45377813189085492 0 -0.37254821432271701 0.4773643366350912 0 -0.38413752924977651 0.44257706686193538 0 -0.37198128017799892 0.42988277280885612 0 -0.37246933956412792 0.45377813189085492 0 -0.393895286387827 0.44910189840837378 0 -0.39861466830837028 0.45350397172162349 0 -0.37246933956412792 0.45377813189085492 0 -0.38413752924977651 0.44257706686193538 0 -0.393895286387827 0.44910189840837378 0 -0.37246933956412792 0.45377813189085492 0 -0.38413752924977651 0.44257706686193538 0 -0.3929320951528531 0.44370031640422669 0 -0.393895286387827 0.44910189840837378 0 -0.39548736956120278 0.43836655161579469 0 -0.3973129355831414 0.44720304663566152 0 -0.39548736956120278 0.43836655161579469 0 -0.3929320951528531 0.44370031640422669 0 -0.3973129355831414 0.44720304663566152 0 -0.38413752924977651 0.44257706686193538 0 -0.39548736956120278 0.43836655161579469 0 -0.3929320951528531 0.44370031640422669 0 -0.3929320951528531 0.44370031640422669 0 -0.3973129355831414 0.44720304663566152 0 -0.393895286387827 0.44910189840837378 0 -0.3973129355831414 0.44720304663566152 0 -0.393895286387827 0.44910189840837378 0 -0.3973129355831414 0.44720304663566152 0 -0.393895286387827 0.44910189840837378 0 -0.39861466830837028 0.45350397172162349 0 -0.3973129355831414 0.44720304663566152 0 -0.39861466830837028 0.45350397172162349 0 -0.3973129355831414 0.44720304663566152 0 -0.40490919798804742 0.44906473623482351 0 -0.40623539685092969 0.44224571180490468 0 -0.3973129355831414 0.44720304663566152 0 -0.40490919798804742 0.44906473623482351 0 -0.39861466830837028 0.45350397172162349 0 -0.40002746947857581 0.43773230822357317 0 -0.40623539685092969 0.44224571180490468 0 -0.4087732484132699 0.43265262197173471 0 -0.39548736956120278 0.43836655161579469 0 -0.40623539685092969 0.44224571180490468 0 -0.39548736956120278 0.43836655161579469 0 -0.3973129355831414 0.44720304663566152 0 -0.40623539685092969 0.44224571180490468 0 -0.3973129355831414 0.44720304663566152 0 -0.40623539685092969 0.44224571180490468 0 -0.39548736956120278 0.43836655161579469 0 -0.40002746947857581 0.43773230822357317 0 -0.40623539685092969 0.44224571180490468 0 -0.40261608109891178 0.47287246553184498 0 -0.39861466830837028 0.45350397172162349 0 -0.40261608109891178 0.47287246553184498 0 -0.39861466830837028 0.45350397172162349 0 -0.41747379120974831 0.45330621477710359 0 -0.40261608109891178 0.47287246553184498 0 -0.38712095085933163 0.46837939260834338 0 -0.39861466830837028 0.45350397172162349 0 -0.39861466830837028 0.45350397172162349 0 -0.41747379120974831 0.45330621477710359 0 -0.40261608109891178 0.47287246553184498 0 -0.41747379120974831 0.45330621477710359 0 -0.42726072977033092 0.47476281095580769 0 -0.40623539685092969 0.44224571180490468 0 -0.42128415548102782 0.4476770848187418 0 -0.42681925895155792 0.43664679872325091 0 -0.40490919798804742 0.44906473623482351 0 -0.39861466830837028 0.45350397172162349 0 -0.41747379120974831 0.45330621477710359 0 -0.40623539685092969 0.44224571180490468 0 -0.42128415548102782 0.4476770848187418 0 -0.40490919798804742 0.44906473623482351 0 -0.40623539685092969 0.44224571180490468 0 -0.41747379120974831 0.45330621477710359 0 -0.40623539685092969 0.44224571180490468 0 -0.41747379120974831 0.45330621477710359 0 -0.42128415548102782 0.4476770848187418 0 -0.41747379120974831 0.45330621477710359 0 -0.42128415548102782 0.4476770848187418 0 -0.43633291411112618 0.45310845783257808 0 -0.42128415548102782 0.4476770848187418 0 -0.42994054047802938 0.44507950914599009 0 -0.42681925895155792 0.43664679872325091 0 -0.42128415548102782 0.4476770848187418 0 -0.43633291411112618 0.45310845783257808 0 -0.42994054047802938 0.44507950914599009 0 -0.42128415548102782 0.4476770848187418 0 -0.43633291411112618 0.45310845783257808 0 -0.43633291411112618 0.45310845783257808 0 -0.43532583336840602 0.44288569520939031 0 -0.42994054047802938 0.44507950914599009 0 -0.43532583336840602 0.44288569520939031 0 -0.43931246322049872 0.43646829742796128 0 -0.42681925895155792 0.43664679872325091 0 -0.43532583336840602 0.44288569520939031 0 -0.42994054047802938 0.44507950914599009 0 -0.42681925895155792 0.43664679872325091 0 -0.41747379120974831 0.45330621477710359 0 -0.43633291411112618 0.45310845783257808 0 -0.41747379120974831 0.45330621477710359 0 -0.43633291411112618 0.45310845783257808 0 -0.42726072977033092 0.47476281095580769 0 -0.43633291411112618 0.45310845783257808 0 -0.42726072977033092 0.47476281095580769 0 -0.44790396565120888 0.45728466256954831 0 -0.42726072977033092 0.47476281095580769 0 -0.4066174938894524 0.49224095934206669 0 -0.40261608109891178 0.47287246553184498 0 -0.42726072977033092 0.47476281095580769 0 -0.4066174938894524 0.49224095934206669 0 -0.40822046440616688 0.4999999999999975 0 -0.4066174938894524 0.49224095934206669 0 -0.43781395954548769 0.5 0 -0.40822046440616688 0.4999999999999975 0 -0.4066174938894524 0.49224095934206669 0 -0.42726072977033092 0.47476281095580769 0 -0.4066174938894524 0.49224095934206669 0 -0.43781395954548769 0.5 0 -0.42726072977033092 0.47476281095580769 0 -0.43781395954548769 0.5 0 -0.45206762670418948 0.48302326741219531 0 -0.43781395954548769 0.5 0 -0.45206762670418948 0.48302326741219531 0 -0.4674074546848086 0.5 0 -0.42726072977033092 0.47476281095580769 0 -0.45206762670418948 0.48302326741219531 0 -0.44840748291301391 0.46985190331764198 0 -0.45206762670418948 0.48302326741219531 0 -0.45898457064584031 0.47004587018085059 0 -0.47029484130046401 0.47829856546592459 0 -0.45206762670418948 0.48302326741219531 0 -0.44840748291301391 0.46985190331764198 0 -0.45898457064584031 0.47004587018085059 0 -0.45898457064584031 0.47004587018085059 0 -0.47029484130046401 0.47829856546592459 0 -0.46733255911762223 0.46667796429276992 0 -0.45206762670418948 0.48302326741219531 0 -0.4674074546848086 0.5 0 -0.47029484130046401 0.47829856546592459 0 -0.4674074546848086 0.5 0 -0.48301970392107602 0.48581971856258771 0 -0.49700094982412929 0.500000000000004 0 -0.4674074546848086 0.5 0 -0.48301970392107602 0.48581971856258771 0 -0.47029484130046401 0.47829856546592459 0 -0.49558426924384491 0.47915264917086281 0 -0.5 0.5 0 -0.5 0.45316110024199707 0 -0.47029484130046401 0.47829856546592459 0 -0.47610582280541569 0.46627615752418639 0 -0.46733255911762223 0.46667796429276992 0 -0.47029484130046401 0.47829856546592459 0 -0.48481100455213361 0.47164737817615149 0 -0.47610582280541569 0.46627615752418639 0 -0.48301970392107602 0.48581971856258771 0 -0.47029484130046401 0.47829856546592459 0 -0.48481100455213361 0.47164737817615149 0 -0.48301970392107602 0.48581971856258771 0 -0.48481100455213361 0.47164737817615149 0 -0.49558426924384491 0.47915264917086281 0 -0.48481100455213361 0.47164737817615149 0 -0.49558426924384491 0.47915264917086281 0 -0.49416758866356059 0.45830529834172129 0 -0.49558426924384491 0.47915264917086281 0 -0.49700094982412929 0.500000000000004 0 -0.48301970392107602 0.48581971856258771 0 -0.49558426924384491 0.47915264917086281 0 -0.49700094982412929 0.500000000000004 0 -0.49558426924384491 0.47915264917086281 0 -0.49700094982412929 0.500000000000004 0 -0.5 0.5 0 -0.49416758866356059 0.45830529834172129 0 -0.49275090808327637 0.43745794751257988 0 -0.48567264752022687 0.4490051656120535 0 -0.49416758866356059 0.45830529834172129 0 -0.49275090808327637 0.43745794751257988 0 -0.5 0.45316110024199707 0 -0.49416758866356059 0.45830529834172129 0 -0.49275090808327637 0.43745794751257988 0 -0.48567264752022687 0.4490051656120535 0 -0.47937577659909619 0.44233678987768837 0 -0.49275090808327637 0.43745794751257988 0 -0.49558426924384491 0.47915264917086281 0 -0.5 0.45316110024199707 0 -0.49416758866356059 0.45830529834172129 0 -0.49558426924384491 0.47915264917086281 0 -0.49416758866356059 0.45830529834172129 0 -0.48481100455213361 0.47164737817615149 0 -0.49416758866356059 0.45830529834172129 0 -0.48339248344530411 0.45883273707123179 0 -0.48567264752022687 0.4490051656120535 0 -0.49416758866356059 0.45830529834172129 0 -0.48339248344530411 0.45883273707123179 0 -0.48567264752022687 0.4490051656120535 0 -0.48339248344530411 0.45883273707123179 0 -0.4796734327702421 0.45183228958109062 0 -0.48339248344530411 0.45883273707123179 0 -0.47610582280541569 0.46627615752418639 0 -0.47603126845044141 0.45720759116595278 0 -0.48339248344530411 0.45883273707123179 0 -0.47603126845044141 0.45720759116595278 0 -0.4796734327702421 0.45183228958109062 0 -0.48481100455213361 0.47164737817615149 0 -0.48339248344530411 0.45883273707123179 0 -0.47610582280541569 0.46627615752418639 0 -0.47610582280541569 0.46627615752418639 0 -0.46956103372722519 0.45896013952318548 0 -0.46733255911762223 0.46667796429276992 0 -0.47603126845044141 0.45720759116595278 0 -0.46956103372722519 0.45896013952318548 0 -0.47276305809069008 0.44955572519856829 0 -0.46956103372722519 0.45896013952318548 0 -0.47276305809069008 0.44955572519856829 0 -0.46487482156342702 0.45291069120049082 0 -0.47610582280541569 0.46627615752418639 0 -0.47603126845044141 0.45720759116595278 0 -0.46956103372722519 0.45896013952318548 0 -0.47603126845044141 0.45720759116595278 0 -0.47276305809069008 0.44955572519856829 0 -0.4796734327702421 0.45183228958109062 0 -0.47276305809069008 0.44955572519856829 0 -0.4796734327702421 0.45183228958109062 0 -0.47937577659909619 0.44233678987768837 0 -0.48567264752022687 0.4490051656120535 0 -0.4796734327702421 0.45183228958109062 0 -0.47937577659909619 0.44233678987768837 0 -0.47937577659909619 0.44233678987768837 0 -0.46808525303643289 0.44019763524591948 0 -0.47982676356250398 0.43157848694781331 0 -0.47276305809069008 0.44955572519856829 0 -0.47937577659909619 0.44233678987768837 0 -0.46808525303643289 0.44019763524591948 0 -0.46808525303643289 0.44019763524591948 0 -0.46487482156342702 0.45291069120049082 0 -0.45515448828291921 0.45291109462439239 0 -0.47276305809069008 0.44955572519856829 0 -0.46808525303643289 0.44019763524591948 0 -0.46487482156342702 0.45291069120049082 0 -0.46808525303643289 0.44019763524591948 0 -0.45515448828291921 0.45291109462439239 0 -0.45304338965792362 0.45293323162492288 0 -0.46808525303643289 0.44019763524591948 0 -0.45304338965792362 0.45293323162492288 0 -0.45515448828291921 0.45291109462439239 0 -0.45304338965792362 0.45293323162492288 0 -0.46808525303643289 0.44019763524591948 0 -0.45441309339377728 0.43897175067181388 0 -0.45304338965792362 0.45293323162492288 0 -0.45898457064584031 0.47004587018085059 0 -0.46733255911762223 0.46667796429276992 0 -0.46353515830940939 0.4610368837222642 0 -0.46956103372722519 0.45896013952318548 0 -0.46733255911762223 0.46667796429276992 0 -0.46353515830940939 0.4610368837222642 0 -0.46956103372722519 0.45896013952318548 0 -0.46487482156342702 0.45291069120049082 0 -0.46353515830940939 0.4610368837222642 0 -0.46487482156342702 0.45291069120049082 0 -0.46353515830940939 0.4610368837222642 0 -0.46019740937178533 0.45684343874956052 0 -0.46487482156342702 0.45291069120049082 0 -0.45515448828291921 0.45291109462439239 0 -0.46019740937178533 0.45684343874956052 0 -0.45515448828291921 0.45291109462439239 0 -0.46019740937178533 0.45684343874956052 0 -0.45682095080147511 0.46050296606556301 0 -0.45515448828291921 0.45291109462439239 0 -0.45682095080147511 0.46050296606556301 0 -0.45304338965792362 0.45293323162492288 0 -0.46353515830940939 0.4610368837222642 0 -0.46019740937178533 0.45684343874956052 0 -0.45682095080147511 0.46050296606556301 0 -0.45898457064584031 0.47004587018085059 0 -0.46353515830940939 0.4610368837222642 0 -0.45682095080147511 0.46050296606556301 0 -0.44840748291301391 0.46985190331764198 0 -0.45898457064584031 0.47004587018085059 0 -0.45682095080147511 0.46050296606556301 0 -0.42726072977033092 0.47476281095580769 0 -0.44840748291301391 0.46985190331764198 0 -0.44790396565120888 0.45728466256954831 0 -0.43633291411112618 0.45310845783257808 0 -0.44790396565120888 0.45728466256954831 0 -0.45304338965792362 0.45293323162492288 0 -0.42726072977033092 0.47476281095580769 0 -0.44790396565120888 0.45728466256954831 0 -0.44840748291301391 0.46985190331764198 0 -0.45682095080147511 0.46050296606556301 0 -0.44790396565120888 0.45728466256954831 0 -0.45682095080147511 0.46050296606556301 0 -0.44790396565120888 0.45728466256954831 0 -0.45682095080147511 0.46050296606556301 0 -0.44790396565120888 0.45728466256954831 0 -0.45304338965792362 0.45293323162492288 0 -0.44790396565120888 0.45728466256954831 0 -0.45304338965792362 0.45293323162492288 0 -0.43633291411112618 0.45310845783257808 0 -0.44790396565120888 0.45728466256954831 0 -0.43633291411112618 0.45310845783257808 0 -0.45304338965792362 0.45293323162492288 0 -0.43633291411112618 0.45310845783257808 0 -0.45304338965792362 0.45293323162492288 0 -0.44395528360577768 0.44560717532034838 0 -0.45441309339377728 0.43897175067181388 0 -0.44395528360577768 0.44560717532034838 0 -0.43931246322049872 0.43646829742796128 0 -0.45441309339377728 0.43897175067181388 0 -0.45304338965792362 0.45293323162492288 0 -0.44395528360577768 0.44560717532034838 0 -0.43633291411112618 0.45310845783257808 0 -0.43532583336840602 0.44288569520939031 0 -0.44395528360577768 0.44560717532034838 0 -0.43532583336840602 0.44288569520939031 0 -0.44395528360577768 0.44560717532034838 0 -0.43931246322049872 0.43646829742796128 0 -0.45441309339377728 0.43897175067181388 0 -0.43931246322049872 0.43646829742796128 0 -0.44747602625460642 0.41933234715702788 0 -0.5 0.45316110024199707 0 -0.49275090808327637 0.43745794751257988 0 -0.49999999999999839 0.39014993698080691 0 -0.44747602625460642 0.41933234715702788 0 -0.4450374960208261 0.41180060683975428 0 -0.42312124699122577 0.42238024574437821 0 -0.44747602625460642 0.41933234715702788 0 -0.4646811345647423 0.424639375401627 0 -0.46945544371564402 0.40712054500185257 0 -0.4450374960208261 0.41180060683975428 0 -0.46695374505042742 0.40122096793513229 0 -0.44747602625460642 0.41933234715702788 0 -0.4450374960208261 0.41180060683975428 0 -0.46945544371564402 0.40712054500185257 0 -0.4450374960208261 0.41180060683975428 0 -0.46945544371564402 0.40712054500185257 0 -0.46695374505042742 0.40122096793513229 0 -0.44747602625460642 0.41933234715702788 0 -0.46945544371564402 0.40712054500185257 0 -0.45441309339377728 0.43897175067181388 0 -0.44747602625460642 0.41933234715702788 0 -0.4646811345647423 0.424639375401627 0 -0.46808525303643289 0.44019763524591948 0 -0.45441309339377728 0.43897175067181388 0 -0.4646811345647423 0.424639375401627 0 -0.48535216744384863 0.41298843148687597 0 -0.49275090808327637 0.43745794751257988 0 -0.49999999999999839 0.39014993698080691 0 -0.46808525303643289 0.44019763524591948 0 -0.4646811345647423 0.424639375401627 0 -0.47982676356250398 0.43157848694781331 0 -0.47937577659909619 0.44233678987768837 0 -0.47982676356250398 0.43157848694781331 0 -0.49275090808327637 0.43745794751257988 0 -0.4646811345647423 0.424639375401627 0 -0.47982676356250398 0.43157848694781331 0 -0.46945544371564402 0.40712054500185257 0 -0.47982676356250398 0.43157848694781331 0 -0.46945544371564402 0.40712054500185257 0 -0.47982676356250398 0.43157848694781331 0 -0.46945544371564402 0.40712054500185257 0 -0.48535216744384863 0.41298843148687597 0 -0.47982676356250398 0.43157848694781331 0 -0.48535216744384863 0.41298843148687597 0 -0.49275090808327637 0.43745794751257988 0 -0.499999999999999 0.38526853720465049 0 -0.48664492920656022 0.37814552349462632 0 -0.49999999999999922 0.36326869149470897 0 -0.499999999999999 0.38526853720465049 0 -0.48347687252521249 0.39324475256989 0 -0.499999999999999 0.38526853720465049 0 -0.48664492920656022 0.37814552349462632 0 -0.48347687252521249 0.39324475256989 0 -0.499999999999999 0.38526853720465049 0 -0.49999999999999839 0.39014993698080691 0 -0.48347687252521249 0.39324475256989 0 -0.49999999999999839 0.39014993698080691 0 -0.48472772185782081 0.39863524099132902 0 -0.48535216744384863 0.41298843148687597 0 -0.49999999999999839 0.39014993698080691 0 -0.48472772185782081 0.39863524099132902 0 -0.49999999999999839 0.39014993698080691 0 -0.48472772185782081 0.39863524099132902 0 -0.48347687252521249 0.39324475256989 0 -0.48347687252521249 0.39324475256989 0 -0.47476884205155961 0.38465138621319039 0 -0.46695374505042742 0.40122096793513229 0 -0.46945544371564402 0.40712054500185257 0 -0.48472772185782081 0.39863524099132902 0 -0.46695374505042742 0.40122096793513229 0 -0.48472772185782081 0.39863524099132902 0 -0.48347687252521249 0.39324475256989 0 -0.46695374505042742 0.40122096793513229 0 -0.46945544371564402 0.40712054500185257 0 -0.48535216744384863 0.41298843148687597 0 -0.48472772185782081 0.39863524099132902 0 -0.48347687252521249 0.39324475256989 0 -0.46695374505042742 0.40122096793513229 0 -0.46945544371564402 0.40712054500185257 0 -0.48472772185782081 0.39863524099132902 0 -0.48664492920656022 0.37814552349462632 0 -0.47476884205155961 0.38465138621319039 0 -0.4767322165742307 0.36573728870290689 0 -0.47476884205155961 0.38465138621319039 0 -0.4600364469013668 0.3849083983633963 0 -0.4767322165742307 0.36573728870290689 0 -0.48664492920656022 0.37814552349462632 0 -0.48347687252521249 0.39324475256989 0 -0.47476884205155961 0.38465138621319039 0 -0.47476884205155961 0.38465138621319039 0 -0.4600364469013668 0.3849083983633963 0 -0.46695374505042742 0.40122096793513229 0 -0.4600364469013668 0.3849083983633963 0 -0.45346443314846252 0.36820588591110592 0 -0.4450374960208261 0.41180060683975428 0 -0.46695374505042742 0.40122096793513229 0 -0.44891038522860938 0.39444189456520973 0 -0.4600364469013668 0.3849083983633963 0 -0.46695374505042742 0.40122096793513229 0 -0.44891038522860938 0.39444189456520973 0 -0.4600364469013668 0.3849083983633963 0 -0.46695374505042742 0.40122096793513229 0 -0.46945544371564402 0.40712054500185257 0 -0.46695374505042742 0.40122096793513229 0 -0.44891038522860938 0.39444189456520973 0 -0.44254722899891352 0.38053510229331827 0 -0.43396471359189093 0.39695061724247632 0 -0.4450374960208261 0.41180060683975428 0 -0.44891038522860938 0.39444189456520973 0 -0.43396471359189093 0.39695061724247632 0 -0.4600364469013668 0.3849083983633963 0 -0.44254722899891352 0.38053510229331827 0 -0.45346443314846252 0.36820588591110592 0 -0.4600364469013668 0.3849083983633963 0 -0.44891038522860938 0.39444189456520973 0 -0.44254722899891352 0.38053510229331827 0 -0.44254722899891352 0.38053510229331827 0 -0.43396471359189093 0.39695061724247632 0 -0.42371979518246239 0.37136164548210038 0 -0.41571173152224611 0.39379509076928781 0 -0.43396471359189093 0.39695061724247632 0 -0.42371979518246239 0.37136164548210038 0 -0.41571173152224611 0.39379509076928781 0 -0.41509395686495359 0.372276804438127 0 -0.42371979518246239 0.37136164548210038 0 -0.41571173152224611 0.39379509076928781 0 -0.40989877548963172 0.37136929926492118 0 -0.41571173152224611 0.39379509076928781 0 -0.42371979518246239 0.37136164548210038 0 -0.40641132433850991 0.38319010299454959 0 -0.41571173152224611 0.39379509076928781 0 -0.40989877548963172 0.37136929926492118 0 -0.40641132433850991 0.38319010299454959 0 -0.41571173152224611 0.39379509076928781 0 -0.39959103258348361 0.3931906783202116 0 -0.41571173152224611 0.39379509076928781 0 -0.40989877548963172 0.37136929926492118 0 -0.41509395686495359 0.372276804438127 0 -0.40641132433850991 0.38319010299454959 0 -0.40386624265721321 0.37668300208905331 0 -0.40989877548963172 0.37136929926492118 0 -0.41571173152224611 0.39379509076928781 0 -0.40786960050041121 0.41576369949643072 0 -0.40333104412520471 0.40382242827069548 0 -0.41571173152224611 0.39379509076928781 0 -0.40786960050041121 0.41576369949643072 0 -0.41571173152224611 0.39379509076928781 0 -0.43396471359189093 0.39695061724247632 0 -0.42312124699122577 0.42238024574437821 0 -0.4450374960208261 0.41180060683975428 0 -0.42312124699122577 0.42238024574437821 0 -0.4450374960208261 0.41180060683975428 0 -0.43396471359189093 0.39695061724247632 0 -0.42312124699122577 0.42238024574437821 0 -0.44747602625460642 0.41933234715702788 0 -0.42312124699122577 0.42238024574437821 0 -0.42549660879356987 0.43154414931220558 0 -0.44747602625460642 0.41933234715702788 0 -0.42549660879356987 0.43154414931220558 0 -0.43931246322049872 0.43646829742796128 0 -0.44747602625460642 0.41933234715702788 0 -0.42549660879356987 0.43154414931220558 0 -0.43931246322049872 0.43646829742796128 0 -0.42549660879356987 0.43154414931220558 0 -0.42681925895155792 0.43664679872325091 0 -0.42312124699122577 0.42238024574437821 0 -0.42549660879356987 0.43154414931220558 0 -0.42549660879356987 0.43154414931220558 0 -0.42681925895155792 0.43664679872325091 0 -0.41339455193295788 0.42707561680504202 0 -0.4087732484132699 0.43265262197173471 0 -0.40786960050041121 0.41576369949643072 0 -0.40623539685092969 0.44224571180490468 0 -0.42549660879356987 0.43154414931220558 0 -0.42549660879356987 0.43154414931220558 0 -0.41339455193295788 0.42707561680504202 0 -0.4087732484132699 0.43265262197173471 0 -0.40623539685092969 0.44224571180490468 0 -0.42549660879356987 0.43154414931220558 0 -0.4087732484132699 0.43265262197173471 0 -0.40623539685092969 0.44224571180490468 0 -0.42549660879356987 0.43154414931220558 0 -0.42681925895155792 0.43664679872325091 0 -0.42312124699122577 0.42238024574437821 0 -0.42549660879356987 0.43154414931220558 0 -0.41339455193295788 0.42707561680504202 0 -0.42312124699122577 0.42238024574437821 0 -0.41339455193295788 0.42707561680504202 0 -0.41571173152224611 0.39379509076928781 0 -0.42312124699122577 0.42238024574437821 0 -0.41571173152224611 0.39379509076928781 0 -0.42312124699122577 0.42238024574437821 0 -0.40786960050041121 0.41576369949643072 0 -0.42312124699122577 0.42238024574437821 0 -0.41339455193295788 0.42707561680504202 0 -0.40786960050041121 0.41576369949643072 0 -0.40786960050041121 0.41576369949643072 0 -0.39015181189467851 0.41254024449685173 0 -0.40333104412520471 0.40382242827069548 0 -0.40002746947857581 0.43773230822357317 0 -0.40786960050041121 0.41576369949643072 0 -0.39015181189467851 0.41254024449685173 0 -0.39548736956120278 0.43836655161579469 0 -0.39015181189467851 0.41254024449685173 0 -0.40002746947857581 0.43773230822357317 0 -0.4087732484132699 0.43265262197173471 0 -0.40786960050041121 0.41576369949643072 0 -0.39548736956120278 0.43836655161579469 0 -0.40002746947857581 0.43773230822357317 0 -0.39015181189467851 0.41254024449685173 0 -0.40002746947857581 0.43773230822357317 0 -0.40786960050041121 0.41576369949643072 0 -0.39548736956120278 0.43836655161579469 0 -0.39015181189467851 0.41254024449685173 0 -0.37198128017799892 0.42988277280885612 0 -0.38413752924977651 0.44257706686193538 0 -0.39548736956120278 0.43836655161579469 0 -0.37198128017799892 0.42988277280885612 0 -0.39548736956120278 0.43836655161579469 0 -0.37198128017799892 0.42988277280885612 0 -0.39015181189467851 0.41254024449685173 0 -0.37460475820660311 0.40677235115409738 0 -0.37198128017799892 0.42988277280885612 0 -0.38481625422815391 0.38671393737790871 0 -0.37124843066259122 0.39109587056364631 0 -0.37460475820660311 0.40677235115409738 0 -0.39015181189467851 0.41254024449685173 0 -0.38481625422815391 0.38671393737790871 0 -0.39015181189467851 0.41254024449685173 0 -0.38481625422815391 0.38671393737790871 0 -0.37460475820660311 0.40677235115409738 0 -0.38481625422815391 0.38671393737790871 0 -0.37409608587387821 0.37840132064443738 0 -0.37124843066259122 0.39109587056364631 0 -0.38481625422815391 0.38671393737790871 0 -0.37948069656162781 0.36088763025896597 0 -0.37409608587387821 0.37840132064443738 0 -0.38481625422815391 0.38671393737790871 0 -0.39845531662117017 0.37998405053220058 0 -0.39959103258348361 0.3931906783202116 0 -0.38481625422815391 0.38671393737790871 0 -0.39845531662117017 0.37998405053220058 0 -0.39214744911769028 0.37262469612961557 0 -0.40641132433850991 0.38319010299454959 0 -0.39845531662117017 0.37998405053220058 0 -0.40386624265721321 0.37668300208905331 0 -0.39845531662117017 0.37998405053220058 0 -0.40386624265721321 0.37668300208905331 0 -0.40069955417954078 0.37218855556454211 0 -0.40641132433850991 0.38319010299454959 0 -0.39845531662117017 0.37998405053220058 0 -0.39959103258348361 0.3931906783202116 0 -0.41571173152224611 0.39379509076928781 0 -0.40333104412520471 0.40382242827069548 0 -0.39959103258348361 0.3931906783202116 0 -0.39015181189467851 0.41254024449685173 0 -0.38481625422815391 0.38671393737790871 0 -0.39959103258348361 0.3931906783202116 0 -0.39015181189467851 0.41254024449685173 0 -0.40333104412520471 0.40382242827069548 0 -0.39959103258348361 0.3931906783202116 0 -0.40408581945701788 0.34894350776055461 0 -0.39879702992278782 0.35589180412883742 0 -0.40989877548963172 0.37136929926492118 0 -0.39733888047701432 0.34745671469642042 0 -0.39879702992278782 0.35589180412883742 0 -0.37948069656162781 0.36088763025896597 0 -0.39733888047701432 0.34745671469642042 0 -0.40408581945701788 0.34894350776055461 0 -0.39879702992278782 0.35589180412883742 0 -0.39879702992278782 0.35589180412883742 0 -0.39728542399795902 0.36334930691446038 0 -0.37948069656162781 0.36088763025896597 0 -0.39879702992278782 0.35589180412883742 0 -0.39728542399795902 0.36334930691446038 0 -0.40989877548963172 0.37136929926492118 0 -0.40386624265721321 0.37668300208905331 0 -0.40069955417954078 0.37218855556454211 0 -0.40989877548963172 0.37136929926492118 0 -0.40069955417954078 0.37218855556454211 0 -0.39728542399795902 0.36334930691446038 0 -0.40989877548963172 0.37136929926492118 0 -0.39845531662117017 0.37998405053220058 0 -0.40069955417954078 0.37218855556454211 0 -0.39214744911769028 0.37262469612961557 0 -0.40069955417954078 0.37218855556454211 0 -0.39214744911769028 0.37262469612961557 0 -0.39728542399795902 0.36334930691446038 0 -0.39214744911769028 0.37262469612961557 0 -0.39728542399795902 0.36334930691446038 0 -0.37948069656162781 0.36088763025896597 0 -0.38481625422815391 0.38671393737790871 0 -0.37948069656162781 0.36088763025896597 0 -0.38481625422815391 0.38671393737790871 0 -0.39214744911769028 0.37262469612961557 0 -0.37948069656162781 0.36088763025896597 0 -0.37948069656162781 0.36088763025896597 0 -0.37400454740840761 0.33438080216345789 0 -0.39733888047701432 0.34745671469642042 0 -0.37948069656162781 0.36088763025896597 0 -0.37948069656162781 0.36088763025896597 0 -0.38648267768971301 0.34270360172564651 0 -0.37400454740840761 0.33438080216345789 0 -0.39733888047701432 0.34745671469642042 0 -0.37948069656162781 0.36088763025896597 0 -0.38648267768971301 0.34270360172564651 0 -0.39510658631180251 0.3280892597837417 0 -0.37400454740840761 0.33438080216345789 0 -0.38648267768971301 0.34270360172564651 0 -0.39510658631180251 0.3280892597837417 0 -0.37400454740840761 0.33438080216345789 0 -0.38611855898268571 0.31420370245827878 0 -0.39510658631180251 0.3280892597837417 0 -0.37400454740840761 0.33438080216345789 0 -0.38611855898268571 0.31420370245827878 0 -0.36911498400139908 0.3107132918263027 0 -0.37400454740840761 0.33438080216345789 0 -0.39510658631180251 0.3280892597837417 0 -0.415197064392403 0.33402579913387759 0 -0.40741538358832319 0.31715378091543339 0 -0.38611855898268571 0.31420370245827878 0 -0.39510658631180251 0.3280892597837417 0 -0.40741538358832319 0.31715378091543339 0 -0.39733888047701432 0.34745671469642042 0 -0.38648267768971301 0.34270360172564651 0 -0.39510658631180251 0.3280892597837417 0 -0.39733888047701432 0.34745671469642042 0 -0.40408581945701788 0.34894350776055461 0 -0.415197064392403 0.33402579913387759 0 -0.39733888047701432 0.34745671469642042 0 -0.39510658631180251 0.3280892597837417 0 -0.415197064392403 0.33402579913387759 0 -0.40408581945701788 0.34894350776055461 0 -0.415197064392403 0.33402579913387759 0 -0.41552108742814953 0.34573038747152851 0 -0.39733888047701432 0.34745671469642042 0 -0.415197064392403 0.33402579913387759 0 -0.415197064392403 0.33402579913387759 0 -0.4248467719715458 0.34063622708533969 0 -0.41552108742814953 0.34573038747152851 0 -0.40741538358832319 0.31715378091543339 0 -0.42514421761602073 0.31911592604846217 0 -0.42179529167970731 0.30187146599966269 0 -0.415197064392403 0.33402579913387759 0 -0.40741538358832319 0.31715378091543339 0 -0.42514421761602073 0.31911592604846217 0 -0.415197064392403 0.33402579913387759 0 -0.42514421761602073 0.31911592604846217 0 -0.42934095822937701 0.329318944544571 0 -0.42934095822937701 0.329318944544571 0 -0.44058499504256832 0.32711420596038271 0 -0.43867017453014828 0.32096064531687568 0 -0.42514421761602073 0.31911592604846217 0 -0.42934095822937701 0.329318944544571 0 -0.43867017453014828 0.32096064531687568 0 -0.42514421761602073 0.31911592604846217 0 -0.43867017453014828 0.32096064531687568 0 -0.43994811397397482 0.3078509778346411 0 -0.43079053532227768 0.3515539780113045 0 -0.43786127546209402 0.33174631054050913 0 -0.43070988524632359 0.33831386504543109 0 -0.43079053532227768 0.3515539780113045 0 -0.43786127546209402 0.33174631054050913 0 -0.43079053532227768 0.3515539780113045 0 -0.43786127546209402 0.33174631054050913 0 -0.43818772776193632 0.33338412640994941 0 -0.4248467719715458 0.34063622708533969 0 -0.42934095822937701 0.329318944544571 0 -0.43070988524632359 0.33831386504543109 0 -0.4248467719715458 0.34063622708533969 0 -0.43070988524632359 0.33831386504543109 0 -0.43079053532227768 0.3515539780113045 0 -0.415197064392403 0.33402579913387759 0 -0.4248467719715458 0.34063622708533969 0 -0.42934095822937701 0.329318944544571 0 -0.42934095822937701 0.329318944544571 0 -0.43070988524632359 0.33831386504543109 0 -0.43786127546209402 0.33174631054050913 0 -0.42934095822937701 0.329318944544571 0 -0.43786127546209402 0.33174631054050913 0 -0.44058499504256832 0.32711420596038271 0 -0.43079053532227768 0.3515539780113045 0 -0.42191814634050517 0.35259231196914809 0 -0.42371979518246239 0.37136164548210038 0 -0.4248467719715458 0.34063622708533969 0 -0.43079053532227768 0.3515539780113045 0 -0.42191814634050517 0.35259231196914809 0 -0.4248467719715458 0.34063622708533969 0 -0.42191814634050517 0.35259231196914809 0 -0.41552108742814953 0.34573038747152851 0 -0.42191814634050517 0.35259231196914809 0 -0.41552108742814953 0.34573038747152851 0 -0.41435208602917412 0.35388951916661748 0 -0.41435208602917412 0.35388951916661748 0 -0.41343138535595642 0.36255623842799739 0 -0.41680399156424103 0.35962515020385888 0 -0.42191814634050517 0.35259231196914809 0 -0.41435208602917412 0.35388951916661748 0 -0.41680399156424103 0.35962515020385888 0 -0.40408581945701788 0.34894350776055461 0 -0.41435208602917412 0.35388951916661748 0 -0.41343138535595642 0.36255623842799739 0 -0.40408581945701788 0.34894350776055461 0 -0.41552108742814953 0.34573038747152851 0 -0.41435208602917412 0.35388951916661748 0 -0.40408581945701788 0.34894350776055461 0 -0.40989877548963172 0.37136929926492118 0 -0.40408581945701788 0.34894350776055461 0 -0.40989877548963172 0.37136929926492118 0 -0.41343138535595642 0.36255623842799739 0 -0.42191814634050517 0.35259231196914809 0 -0.41680399156424103 0.35962515020385888 0 -0.42371979518246239 0.37136164548210038 0 -0.40989877548963172 0.37136929926492118 0 -0.41343138535595642 0.36255623842799739 0 -0.41509395686495359 0.372276804438127 0 -0.41343138535595642 0.36255623842799739 0 -0.41680399156424103 0.35962515020385888 0 -0.42371979518246239 0.37136164548210038 0 -0.41343138535595642 0.36255623842799739 0 -0.41509395686495359 0.372276804438127 0 -0.42371979518246239 0.37136164548210038 0 -0.41509395686495359 0.372276804438127 0 -0.42371979518246239 0.37136164548210038 0 -0.43079053532227768 0.3515539780113045 0 -0.42371979518246239 0.37136164548210038 0 -0.43079053532227768 0.3515539780113045 0 -0.42371979518246239 0.37136164548210038 0 -0.45346443314846252 0.36820588591110592 0 -0.44254722899891352 0.38053510229331827 0 -0.42371979518246239 0.37136164548210038 0 -0.45346443314846252 0.36820588591110592 0 -0.44558175329009492 0.35082092806922982 0 -0.45346443314846252 0.36820588591110592 0 -0.42371979518246239 0.37136164548210038 0 -0.45346443314846252 0.36820588591110592 0 -0.44254722899891352 0.38053510229331827 0 -0.45346443314846252 0.36820588591110592 0 -0.44558175329009492 0.35082092806922982 0 -0.45640876383664492 0.34912044020081701 0 -0.45346443314846252 0.36820588591110592 0 -0.43079053532227768 0.3515539780113045 0 -0.44558175329009492 0.35082092806922982 0 -0.43818772776193632 0.33338412640994941 0 -0.43079053532227768 0.3515539780113045 0 -0.44558175329009492 0.35082092806922982 0 -0.45346443314846252 0.36820588591110592 0 -0.44558175329009492 0.35082092806922982 0 -0.45640876383664492 0.34912044020081701 0 -0.44892548165365981 0.33839407332570842 0 -0.45640876383664492 0.34912044020081701 0 -0.45346443314846252 0.36820588591110592 0 -0.46897628876564013 0.35068775381666378 0 -0.45640876383664492 0.34912044020081701 0 -0.46897628876564013 0.35068775381666378 0 -0.45759778415896052 0.33915529220741653 0 -0.45346443314846252 0.36820588591110592 0 -0.46897628876564013 0.35068775381666378 0 -0.45346443314846252 0.36820588591110592 0 -0.4767322165742307 0.36573728870290689 0 -0.46897628876564013 0.35068775381666378 0 -0.45346443314846252 0.36820588591110592 0 -0.4767322165742307 0.36573728870290689 0 -0.4600364469013668 0.3849083983633963 0 -0.45346443314846252 0.36820588591110592 0 -0.4767322165742307 0.36573728870290689 0 -0.46897628876564013 0.35068775381666378 0 -0.48666686531004272 0.35109405365965851 0 -0.48448814438281712 0.33316962172222109 0 -0.4767322165742307 0.36573728870290689 0 -0.46897628876564013 0.35068775381666378 0 -0.48666686531004272 0.35109405365965851 0 -0.48666686531004272 0.35109405365965851 0 -0.49999999999999922 0.36326869149470897 0 -0.5 0.33946009056124471 0 -0.4767322165742307 0.36573728870290689 0 -0.48666686531004272 0.35109405365965851 0 -0.49999999999999922 0.36326869149470897 0 -0.48664492920656022 0.37814552349462632 0 -0.4767322165742307 0.36573728870290689 0 -0.49999999999999922 0.36326869149470897 0 -0.4767322165742307 0.36573728870290689 0 -0.49999999999999922 0.36326869149470897 0 -0.49999999999999623 0.31565148962778039 0 -0.48448814438281712 0.33316962172222109 0 -0.48909348024890281 0.31069534684717048 0 -0.49999999999999623 0.31565148962778039 0 -0.48448814438281712 0.33316962172222109 0 -0.49999999999999623 0.31565148962778039 0 -0.48448814438281712 0.33316962172222109 0 -0.5 0.33946009056124471 0 -0.48666686531004272 0.35109405365965851 0 -0.48448814438281712 0.33316962172222109 0 -0.5 0.33946009056124471 0 -0.46897628876564013 0.35068775381666378 0 -0.48448814438281712 0.33316962172222109 0 -0.47405961857693107 0.32542680998369072 0 -0.46897628876564013 0.35068775381666378 0 -0.48448814438281712 0.33316962172222109 0 -0.48448814438281712 0.33316962172222109 0 -0.47636618721142859 0.31139887079422379 0 -0.48909348024890281 0.31069534684717048 0 -0.48448814438281712 0.33316962172222109 0 -0.47405961857693107 0.32542680998369072 0 -0.47636618721142859 0.31139887079422379 0 -0.47405961857693107 0.32542680998369072 0 -0.46456295396655101 0.31542493327014731 0 -0.47636618721142859 0.31139887079422379 0 -0.47405961857693107 0.32542680998369072 0 -0.46456295396655101 0.31542493327014731 0 -0.46131313350261882 0.32792328797331988 0 -0.46131313350261882 0.32792328797331988 0 -0.45150538168688081 0.32984147135429343 0 -0.45168918466983088 0.31749196706050498 0 -0.46456295396655101 0.31542493327014731 0 -0.46131313350261882 0.32792328797331988 0 -0.45168918466983088 0.31749196706050498 0 -0.46897628876564013 0.35068775381666378 0 -0.46131313350261882 0.32792328797331988 0 -0.45759778415896052 0.33915529220741653 0 -0.46897628876564013 0.35068775381666378 0 -0.47405961857693107 0.32542680998369072 0 -0.46131313350261882 0.32792328797331988 0 -0.46131313350261882 0.32792328797331988 0 -0.45759778415896052 0.33915529220741653 0 -0.45150538168688081 0.32984147135429343 0 -0.45640876383664492 0.34912044020081701 0 -0.45759778415896052 0.33915529220741653 0 -0.44892548165365981 0.33839407332570842 0 -0.44558175329009492 0.35082092806922982 0 -0.43818772776193632 0.33338412640994941 0 -0.44558175329009492 0.35082092806922982 0 -0.44892548165365981 0.33839407332570842 0 -0.43818772776193632 0.33338412640994941 0 -0.44892548165365981 0.33839407332570842 0 -0.45150538168688081 0.32984147135429343 0 -0.4441089340886698 0.331195323765201 0 -0.45759778415896052 0.33915529220741653 0 -0.44892548165365981 0.33839407332570842 0 -0.45150538168688081 0.32984147135429343 0 -0.45150538168688081 0.32984147135429343 0 -0.4441089340886698 0.331195323765201 0 -0.445615337871683 0.32522457842674751 0 -0.44892548165365981 0.33839407332570842 0 -0.4441089340886698 0.331195323765201 0 -0.43818772776193632 0.33338412640994941 0 -0.4441089340886698 0.331195323765201 0 -0.44047002863165718 0.33060411489929659 0 -0.44058499504256832 0.32711420596038271 0 -0.43786127546209402 0.33174631054050913 0 -0.44047002863165718 0.33060411489929659 0 -0.44058499504256832 0.32711420596038271 0 -0.4441089340886698 0.331195323765201 0 -0.44047002863165718 0.33060411489929659 0 -0.43818772776193632 0.33338412640994941 0 -0.43786127546209402 0.33174631054050913 0 -0.44047002863165718 0.33060411489929659 0 -0.43818772776193632 0.33338412640994941 0 -0.45168918466983088 0.31749196706050498 0 -0.445615337871683 0.32522457842674751 0 -0.43867017453014828 0.32096064531687568 0 -0.45150538168688081 0.32984147135429343 0 -0.45168918466983088 0.31749196706050498 0 -0.445615337871683 0.32522457842674751 0 -0.445615337871683 0.32522457842674751 0 -0.44058499504256832 0.32711420596038271 0 -0.43867017453014828 0.32096064531687568 0 -0.4441089340886698 0.331195323765201 0 -0.445615337871683 0.32522457842674751 0 -0.44058499504256832 0.32711420596038271 0 -0.45168918466983088 0.31749196706050498 0 -0.43867017453014828 0.32096064531687568 0 -0.43994811397397482 0.3078509778346411 0 -0.45168918466983088 0.31749196706050498 0 -0.43994811397397482 0.3078509778346411 0 -0.45938664587194511 0.29488373053899669 0 -0.43994811397397482 0.3078509778346411 0 -0.44040382846074883 0.29207376908219468 0 -0.45938664587194511 0.29488373053899669 0 -0.44040382846074883 0.29207376908219468 0 -0.45355186861492502 0.27203002041078772 0 -0.42572891301139187 0.28438539596522638 0 -0.44040382846074883 0.29207376908219468 0 -0.45938664587194511 0.29488373053899669 0 -0.45355186861492502 0.27203002041078772 0 -0.45938664587194511 0.29488373053899669 0 -0.48201574838466599 0.27746545528408051 0 -0.45355186861492502 0.27203002041078772 0 -0.46456295396655101 0.31542493327014731 0 -0.45938664587194511 0.29488373053899669 0 -0.47636618721142859 0.31139887079422379 0 -0.46456295396655101 0.31542493327014731 0 -0.45168918466983088 0.31749196706050498 0 -0.45938664587194511 0.29488373053899669 0 -0.45938664587194511 0.29488373053899669 0 -0.47636618721142859 0.31139887079422379 0 -0.48461306965027401 0.29498115201306419 0 -0.47636618721142859 0.31139887079422379 0 -0.48461306965027401 0.29498115201306419 0 -0.48909348024890281 0.31069534684717048 0 -0.45938664587194511 0.29488373053899669 0 -0.48461306965027401 0.29498115201306419 0 -0.48201574838466599 0.27746545528408051 0 -0.45938664587194511 0.29488373053899669 0 -0.48201574838466599 0.27746545528408051 0 -0.48461306965027401 0.29498115201306419 0 -0.5 0.29827560007856502 0 -0.4999999999999975 0.28089971052934948 0 -0.48461306965027401 0.29498115201306419 0 -0.4999999999999975 0.28089971052934948 0 -0.48201574838466599 0.27746545528408051 0 -0.49999999999999623 0.31565148962778039 0 -0.5 0.29827560007856502 0 -0.48909348024890281 0.31069534684717048 0 -0.48461306965027401 0.29498115201306419 0 -0.5 0.29827560007856502 0 -0.48909348024890281 0.31069534684717048 0 -0.50000000000000022 0.26362245622066638 0 -0.48201574838466599 0.27746545528408051 0 -0.47796070139457819 0.25332514117943361 0 -0.5 0.23536401922354011 0 -0.50000000000000022 0.26362245622066638 0 -0.47796070139457819 0.25332514117943361 0 -0.50000000000000022 0.26362245622066638 0 -0.4999999999999975 0.28089971052934948 0 -0.48201574838466599 0.27746545528408051 0 -0.50000000000000022 0.26362245622066638 0 -0.48201574838466599 0.27746545528408051 0 -0.4999999999999975 0.28089971052934948 0 -0.48201574838466599 0.27746545528408051 0 -0.48201574838466599 0.27746545528408051 0 -0.47796070139457819 0.25332514117943361 0 -0.45355186861492502 0.27203002041078772 0 -0.44727390015106799 0.24734178314887889 0 -0.47796070139457819 0.25332514117943361 0 -0.45355186861492502 0.27203002041078772 0 -0.48201574838466599 0.27746545528408051 0 -0.45355186861492502 0.27203002041078772 0 -0.45355186861492502 0.27203002041078772 0 -0.42508798884518367 0.26659458553749682 0 -0.44727390015106799 0.24734178314887889 0 -0.45355186861492502 0.27203002041078772 0 -0.42508798884518367 0.26659458553749682 0 -0.44727390015106799 0.24734178314887889 0 -0.42586458440754649 0.24499996518788711 0 -0.42508798884518367 0.26659458553749682 0 -0.40903431346496538 0.24711338688654449 0 -0.42586458440754649 0.24499996518788711 0 -0.42508798884518367 0.26659458553749682 0 -0.40903431346496538 0.24711338688654449 0 -0.42508798884518367 0.26659458553749682 0 -0.39670237511777262 0.25870318207235887 0 -0.42508798884518367 0.26659458553749682 0 -0.42572891301139187 0.28438539596522638 0 -0.4109355104359157 0.28740993855919522 0 -0.42508798884518367 0.26659458553749682 0 -0.4109355104359157 0.28740993855919522 0 -0.3954750116978748 0.27747720374081769 0 -0.45355186861492502 0.27203002041078772 0 -0.42508798884518367 0.26659458553749682 0 -0.42572891301139187 0.28438539596522638 0 -0.44040382846074883 0.29207376908219468 0 -0.42572891301139187 0.28438539596522638 0 -0.42179529167970731 0.30187146599966269 0 -0.43994811397397482 0.3078509778346411 0 -0.44040382846074883 0.29207376908219468 0 -0.42179529167970731 0.30187146599966269 0 -0.42514421761602073 0.31911592604846217 0 -0.43994811397397482 0.3078509778346411 0 -0.42179529167970731 0.30187146599966269 0 -0.40741538358832319 0.31715378091543339 0 -0.42179529167970731 0.30187146599966269 0 -0.39851578426742262 0.30131026550722728 0 -0.42572891301139187 0.28438539596522638 0 -0.42179529167970731 0.30187146599966269 0 -0.4109355104359157 0.28740993855919522 0 -0.42179529167970731 0.30187146599966269 0 -0.4109355104359157 0.28740993855919522 0 -0.39851578426742262 0.30131026550722728 0 -0.39851578426742262 0.30131026550722728 0 -0.38186695775171731 0.29323960690694778 0 -0.3954750116978748 0.27747720374081769 0 -0.4109355104359157 0.28740993855919522 0 -0.39851578426742262 0.30131026550722728 0 -0.3954750116978748 0.27747720374081769 0 -0.38611855898268571 0.31420370245827878 0 -0.40741538358832319 0.31715378091543339 0 -0.39851578426742262 0.30131026550722728 0 -0.38611855898268571 0.31420370245827878 0 -0.38186695775171731 0.29323960690694778 0 -0.36911498400139908 0.3107132918263027 0 -0.38611855898268571 0.31420370245827878 0 -0.39851578426742262 0.30131026550722728 0 -0.38186695775171731 0.29323960690694778 0 -0.38186695775171731 0.29323960690694778 0 -0.37829821030508248 0.26866773568613822 0 -0.3954750116978748 0.27747720374081769 0 -0.37829821030508248 0.26866773568613822 0 -0.39670237511777262 0.25870318207235887 0 -0.3954750116978748 0.27747720374081769 0 -0.38379799893057909 0.24650838869412239 0 -0.37829821030508248 0.26866773568613822 0 -0.36900824068294868 0.25067681521255369 0 -0.38379799893057909 0.24650838869412239 0 -0.37829821030508248 0.26866773568613822 0 -0.39670237511777262 0.25870318207235887 0 -0.42508798884518367 0.26659458553749682 0 -0.39670237511777262 0.25870318207235887 0 -0.3954750116978748 0.27747720374081769 0 -0.35933585718738131 0.2633782711519923 0 -0.34859475532740669 0.28554663033400302 0 -0.33542519091958162 0.27377721607654432 0 -0.35933585718738131 0.2633782711519923 0 -0.36422542059439023 0.28704578148914761 0 -0.34859475532740669 0.28554663033400302 0 -0.35444629378037229 0.23971076081483711 0 -0.33202300589168171 0.24846154870984599 0 -0.35933585718738131 0.2633782711519923 0 -0.35444629378037229 0.23971076081483711 0 -0.35933585718738131 0.2633782711519923 0 -0.37829821030508248 0.26866773568613822 0 -0.35933585718738131 0.2633782711519923 0 -0.36900824068294868 0.25067681521255369 0 -0.35444629378037229 0.23971076081483711 0 -0.35933585718738131 0.2633782711519923 0 -0.36900824068294868 0.25067681521255369 0 -0.37829821030508248 0.26866773568613822 0 -0.35933585718738131 0.2633782711519923 0 -0.36422542059439023 0.28704578148914761 0 -0.35933585718738131 0.2633782711519923 0 -0.36422542059439023 0.28704578148914761 0 -0.38186695775171731 0.29323960690694778 0 -0.37829821030508248 0.26866773568613822 0 -0.36422542059439023 0.28704578148914761 0 -0.36422542059439023 0.28704578148914761 0 -0.36911498400139908 0.3107132918263027 0 -0.34990658465725288 0.30685887105665899 0 -0.36422542059439023 0.28704578148914761 0 -0.36911498400139908 0.3107132918263027 0 -0.38186695775171731 0.29323960690694778 0 -0.36422542059439023 0.28704578148914761 0 -0.36911498400139908 0.3107132918263027 0 -0.36422542059439023 0.28704578148914761 0 -0.34990658465725288 0.30685887105665899 0 -0.34859475532740669 0.28554663033400302 0 -0.34990658465725288 0.30685887105665899 0 -0.34859475532740669 0.28554663033400302 0 -0.3340807232784278 0.29667301189567202 0 -0.34859475532740669 0.28554663033400302 0 -0.3340807232784278 0.29667301189567202 0 -0.33542519091958162 0.27377721607654432 0 -0.3340807232784278 0.29667301189567202 0 -0.32061781952217872 0.28362754477353819 0 -0.33542519091958162 0.27377721607654432 0 -0.34990658465725288 0.30685887105665899 0 -0.3340807232784278 0.29667301189567202 0 -0.33048536261040667 0.32365308342329319 0 -0.31835967382920782 0.30074564087717048 0 -0.30779702556816652 0.3124657574567441 0 -0.33048536261040667 0.32365308342329319 0 -0.3340807232784278 0.29667301189567202 0 -0.31835967382920782 0.30074564087717048 0 -0.33048536261040667 0.32365308342329319 0 -0.3340807232784278 0.29667301189567202 0 -0.31835967382920782 0.30074564087717048 0 -0.32061781952217872 0.28362754477353819 0 -0.31835967382920782 0.30074564087717048 0 -0.32061781952217872 0.28362754477353819 0 -0.30368774826558098 0.2916384784131355 0 -0.32061781952217872 0.28362754477353819 0 -0.33542519091958162 0.27377721607654432 0 -0.31768807523276271 0.26276534780560429 0 -0.33202300589168171 0.24846154870984599 0 -0.33542519091958162 0.27377721607654432 0 -0.31768807523276271 0.26276534780560429 0 -0.33202300589168171 0.24846154870984599 0 -0.35933585718738131 0.2633782711519923 0 -0.33542519091958162 0.27377721607654432 0 -0.31272196361514459 0.2411208714275736 0 -0.33202300589168171 0.24846154870984599 0 -0.31768807523276271 0.26276534780560429 0 -0.31768807523276271 0.26276534780560429 0 -0.30001096413420081 0.25400905032456172 0 -0.29850347982585301 0.27281504831599168 0 -0.31272196361514459 0.2411208714275736 0 -0.31768807523276271 0.26276534780560429 0 -0.30001096413420081 0.25400905032456172 0 -0.32061781952217872 0.28362754477353819 0 -0.31768807523276271 0.26276534780560429 0 -0.29850347982585301 0.27281504831599168 0 -0.29850347982585301 0.27281504831599168 0 -0.27593161089096763 0.27022997216748129 0 -0.28271107982757399 0.28605140987296163 0 -0.29850347982585301 0.27281504831599168 0 -0.2863429766458116 0.25949204645050927 0 -0.27593161089096763 0.27022997216748129 0 -0.2820648556851344 0.24475616044829701 0 -0.30001096413420081 0.25400905032456172 0 -0.2863429766458116 0.25949204645050927 0 -0.30001096413420081 0.25400905032456172 0 -0.29850347982585301 0.27281504831599168 0 -0.2863429766458116 0.25949204645050927 0 -0.26848796233705841 0.25512828882703059 0 -0.27593161089096763 0.27022997216748129 0 -0.25541430208287691 0.26569991437095047 0 -0.2820648556851344 0.24475616044829701 0 -0.2863429766458116 0.25949204645050927 0 -0.26848796233705841 0.25512828882703059 0 -0.2863429766458116 0.25949204645050927 0 -0.26848796233705841 0.25512828882703059 0 -0.27593161089096763 0.27022997216748129 0 -0.27593161089096763 0.27022997216748129 0 -0.26149186012242331 0.28138736996149599 0 -0.28271107982757399 0.28605140987296163 0 -0.25541430208287691 0.26569991437095047 0 -0.26149186012242331 0.28138736996149599 0 -0.24045132181340539 0.27645039150723821 0 -0.27593161089096763 0.27022997216748129 0 -0.25541430208287691 0.26569991437095047 0 -0.26149186012242331 0.28138736996149599 0 -0.25184776955068922 0.24631017592718801 0 -0.26848796233705841 0.25512828882703059 0 -0.25541430208287691 0.26569991437095047 0 -0.26704990588043442 0.29956708119126862 0 -0.25377531595147601 0.31773220833136251 0 -0.24739294023928149 0.29032545065907611 0 -0.26149186012242331 0.28138736996149599 0 -0.26704990588043442 0.29956708119126862 0 -0.24739294023928149 0.29032545065907611 0 -0.26149186012242331 0.28138736996149599 0 -0.26704990588043442 0.29956708119126862 0 -0.28271107982757399 0.28605140987296163 0 -0.26704990588043442 0.29956708119126862 0 -0.29092859119130487 0.30337496469900721 0 -0.28271107982757399 0.28605140987296163 0 -0.26704990588043442 0.29956708119126862 0 -0.27744816122260102 0.31567879531348098 0 -0.25377531595147601 0.31773220833136251 0 -0.26704990588043442 0.29956708119126862 0 -0.29092859119130487 0.30337496469900721 0 -0.27744816122260102 0.31567879531348098 0 -0.29092859119130487 0.30337496469900721 0 -0.28271107982757399 0.28605140987296163 0 -0.30368774826558098 0.2916384784131355 0 -0.29850347982585301 0.27281504831599168 0 -0.28271107982757399 0.28605140987296163 0 -0.30368774826558098 0.2916384784131355 0 -0.32061781952217872 0.28362754477353819 0 -0.29850347982585301 0.27281504831599168 0 -0.30368774826558098 0.2916384784131355 0 -0.29092859119130487 0.30337496469900721 0 -0.30779702556816652 0.3124657574567441 0 -0.29541874069866658 0.32026356283794011 0 -0.31835967382920782 0.30074564087717048 0 -0.30368774826558098 0.2916384784131355 0 -0.30779702556816652 0.3124657574567441 0 -0.29092859119130487 0.30337496469900721 0 -0.30368774826558098 0.2916384784131355 0 -0.30779702556816652 0.3124657574567441 0 -0.31217600724986738 0.32628334244237972 0 -0.29902969123859302 0.33454542265974307 0 -0.29541874069866658 0.32026356283794011 0 -0.30779702556816652 0.3124657574567441 0 -0.31217600724986738 0.32628334244237972 0 -0.29541874069866658 0.32026356283794011 0 -0.29902969123859302 0.33454542265974307 0 -0.30139815998075531 0.34344918084623027 0 -0.31366566060492912 0.33935454498972167 0 -0.31217600724986738 0.32628334244237972 0 -0.29902969123859302 0.33454542265974307 0 -0.31366566060492912 0.33935454498972167 0 -0.29902969123859302 0.33454542265974307 0 -0.30139815998075531 0.34344918084623027 0 -0.2844888494587608 0.34679957804154271 0 -0.29902969123859302 0.33454542265974307 0 -0.28513296772146679 0.32923309445628562 0 -0.2844888494587608 0.34679957804154271 0 -0.28513296772146679 0.32923309445628562 0 -0.29541874069866658 0.32026356283794011 0 -0.27744816122260102 0.31567879531348098 0 -0.29092859119130487 0.30337496469900721 0 -0.29541874069866658 0.32026356283794011 0 -0.27744816122260102 0.31567879531348098 0 -0.29902969123859302 0.33454542265974307 0 -0.28513296772146679 0.32923309445628562 0 -0.29541874069866658 0.32026356283794011 0 -0.27744816122260102 0.31567879531348098 0 -0.27155803874230761 0.3295898425090269 0 -0.25377531595147601 0.31773220833136251 0 -0.28513296772146679 0.32923309445628562 0 -0.27744816122260102 0.31567879531348098 0 -0.27155803874230761 0.3295898425090269 0 -0.26056926029678329 0.34050197838917151 0 -0.2844888494587608 0.34679957804154271 0 -0.27155803874230761 0.3295898425090269 0 -0.26056926029678329 0.34050197838917151 0 -0.2844888494587608 0.34679957804154271 0 -0.28513296772146679 0.32923309445628562 0 -0.27155803874230761 0.3295898425090269 0 -0.2844888494587608 0.34679957804154271 0 -0.27155803874230761 0.3295898425090269 0 -0.26056926029678329 0.34050197838917151 0 -0.25377531595147601 0.31773220833136251 0 -0.26056926029678329 0.34050197838917151 0 -0.25377531595147601 0.31773220833136251 0 -0.23664967113480551 0.33420437873680198 0 -0.26124968907457041 0.35711566317170562 0 -0.25963242396411929 0.37727622901940577 0 -0.24756924973357089 0.36598025727603489 0 -0.26124968907457041 0.35711566317170562 0 -0.2757604081754898 0.36367215018778037 0 -0.25963242396411929 0.37727622901940577 0 -0.26056926029678329 0.34050197838917151 0 -0.26124968907457041 0.35711566317170562 0 -0.240880986077846 0.35039392822675808 0 -0.26056926029678329 0.34050197838917151 0 -0.26124968907457041 0.35711566317170562 0 -0.2844888494587608 0.34679957804154271 0 -0.26124968907457041 0.35711566317170562 0 -0.2757604081754898 0.36367215018778037 0 -0.2844888494587608 0.34679957804154271 0 -0.2757604081754898 0.36367215018778037 0 -0.29067612458819991 0.37129091735776187 0 -0.27672383066267681 0.38599555906808097 0 -0.2757604081754898 0.36367215018778037 0 -0.29067612458819991 0.37129091735776187 0 -0.3003214429837191 0.35634931318169882 0 -0.2757604081754898 0.36367215018778037 0 -0.3003214429837191 0.35634931318169882 0 -0.2844888494587608 0.34679957804154271 0 -0.30863871455042358 0.35386953069314148 0 -0.2757604081754898 0.36367215018778037 0 -0.2844888494587608 0.34679957804154271 0 -0.3003214429837191 0.35634931318169882 0 -0.2844888494587608 0.34679957804154271 0 -0.3003214429837191 0.35634931318169882 0 -0.30863871455042358 0.35386953069314148 0 -0.30139815998075531 0.34344918084623027 0 -0.2844888494587608 0.34679957804154271 0 -0.30863871455042358 0.35386953069314148 0 -0.3003214429837191 0.35634931318169882 0 -0.30863871455042358 0.35386953069314148 0 -0.3003214429837191 0.35634931318169882 0 -0.30863871455042358 0.35386953069314148 0 -0.31528556382640122 0.36230658815398192 0 -0.30139815998075531 0.34344918084623027 0 -0.30863871455042358 0.35386953069314148 0 -0.31366566060492912 0.33935454498972167 0 -0.29067612458819991 0.37129091735776187 0 -0.3003214429837191 0.35634931318169882 0 -0.30525996039997838 0.36990070793511998 0 -0.3003214429837191 0.35634931318169882 0 -0.30525996039997838 0.36990070793511998 0 -0.31528556382640122 0.36230658815398192 0 -0.30525996039997838 0.36990070793511998 0 -0.31862750216658492 0.37417776804905689 0 -0.31528556382640122 0.36230658815398192 0 -0.31862750216658492 0.37417776804905689 0 -0.31528556382640122 0.36230658815398192 0 -0.32685317282918902 0.36561746228519842 0 -0.31862750216658492 0.37417776804905689 0 -0.32685317282918902 0.36561746228519842 0 -0.33099576806603143 0.37734162067197802 0 -0.32685317282918902 0.36561746228519842 0 -0.34268919730432268 0.36442474369340128 0 -0.32488247779194818 0.34902647617561722 0 -0.32685317282918902 0.36561746228519842 0 -0.34268919730432268 0.36442474369340128 0 -0.33099576806603143 0.37734162067197802 0 -0.32488247779194818 0.34902647617561722 0 -0.34944351260017731 0.34170363916953561 0 -0.34268919730432268 0.36442474369340128 0 -0.32488247779194818 0.34902647617561722 0 -0.34944351260017731 0.34170363916953561 0 -0.31528556382640122 0.36230658815398192 0 -0.32685317282918902 0.36561746228519842 0 -0.32488247779194818 0.34902647617561722 0 -0.30863871455042358 0.35386953069314148 0 -0.32488247779194818 0.34902647617561722 0 -0.31366566060492912 0.33935454498972167 0 -0.30863871455042358 0.35386953069314148 0 -0.31528556382640122 0.36230658815398192 0 -0.32488247779194818 0.34902647617561722 0 -0.30863871455042358 0.35386953069314148 0 -0.32488247779194818 0.34902647617561722 0 -0.32488247779194818 0.34902647617561722 0 -0.31366566060492912 0.33935454498972167 0 -0.33048536261040667 0.32365308342329319 0 -0.31217600724986738 0.32628334244237972 0 -0.31366566060492912 0.33935454498972167 0 -0.33048536261040667 0.32365308342329319 0 -0.30779702556816652 0.3124657574567441 0 -0.31217600724986738 0.32628334244237972 0 -0.33048536261040667 0.32365308342329319 0 -0.32488247779194818 0.34902647617561722 0 -0.33048536261040667 0.32365308342329319 0 -0.34944351260017731 0.34170363916953561 0 -0.33048536261040667 0.32365308342329319 0 -0.34944351260017731 0.34170363916953561 0 -0.35662688102087847 0.32431027700337628 0 -0.36911498400139908 0.3107132918263027 0 -0.34990658465725288 0.30685887105665899 0 -0.35662688102087847 0.32431027700337628 0 -0.34990658465725288 0.30685887105665899 0 -0.33048536261040667 0.32365308342329319 0 -0.35662688102087847 0.32431027700337628 0 -0.36911498400139908 0.3107132918263027 0 -0.35662688102087847 0.32431027700337628 0 -0.37400454740840761 0.33438080216345789 0 -0.36911498400139908 0.3107132918263027 0 -0.37400454740840761 0.33438080216345789 0 -0.34944351260017731 0.34170363916953561 0 -0.37400454740840761 0.33438080216345789 0 -0.34944351260017731 0.34170363916953561 0 -0.35662688102087847 0.32431027700337628 0 -0.37400454740840761 0.33438080216345789 0 -0.34944351260017731 0.34170363916953561 0 -0.37400454740840761 0.33438080216345789 0 -0.36131746929308978 0.35570950903671311 0 -0.37948069656162781 0.36088763025896597 0 -0.37400454740840761 0.33438080216345789 0 -0.36131746929308978 0.35570950903671311 0 -0.37948069656162781 0.36088763025896597 0 -0.36083896204313992 0.37490784437722868 0 -0.37409608587387821 0.37840132064443738 0 -0.37948069656162781 0.36088763025896597 0 -0.36083896204313992 0.37490784437722868 0 -0.37948069656162781 0.36088763025896597 0 -0.36131746929308978 0.35570950903671311 0 -0.36083896204313992 0.37490784437722868 0 -0.34268919730432268 0.36442474369340128 0 -0.36131746929308978 0.35570950903671311 0 -0.36083896204313992 0.37490784437722868 0 -0.34268919730432268 0.36442474369340128 0 -0.34944351260017731 0.34170363916953561 0 -0.36131746929308978 0.35570950903671311 0 -0.35657995219141969 0.39192668120201402 0 -0.34622770181631829 0.40711946760891071 0 -0.34219722752465431 0.38892805849549428 0 -0.35657995219141969 0.39192668120201402 0 -0.35986181072869311 0.40624743228278271 0 -0.34622770181631829 0.40711946760891071 0 -0.36083896204313992 0.37490784437722868 0 -0.35657995219141969 0.39192668120201402 0 -0.34219722752465431 0.38892805849549428 0 -0.36083896204313992 0.37490784437722868 0 -0.34219722752465431 0.38892805849549428 0 -0.34268919730432268 0.36442474369340128 0 -0.36083896204313992 0.37490784437722868 0 -0.34219722752465431 0.38892805849549428 0 -0.36083896204313992 0.37490784437722868 0 -0.35657995219141969 0.39192668120201402 0 -0.37124843066259122 0.39109587056364631 0 -0.36083896204313992 0.37490784437722868 0 -0.37409608587387821 0.37840132064443738 0 -0.37124843066259122 0.39109587056364631 0 -0.37124843066259122 0.39109587056364631 0 -0.35986181072869311 0.40624743228278271 0 -0.37460475820660311 0.40677235115409738 0 -0.35657995219141969 0.39192668120201402 0 -0.37124843066259122 0.39109587056364631 0 -0.35986181072869311 0.40624743228278271 0 -0.37124843066259122 0.39109587056364631 0 -0.35986181072869311 0.40624743228278271 0 -0.37460475820660311 0.40677235115409738 0 -0.36350717894984208 0.41708497742405531 0 -0.37198128017799892 0.42988277280885612 0 -0.35986181072869311 0.40624743228278271 0 -0.37460475820660311 0.40677235115409738 0 -0.36350717894984208 0.41708497742405531 0 -0.36350717894984208 0.41708497742405531 0 -0.37198128017799892 0.42988277280885612 0 -0.34847519079479439 0.42139899400191883 0 -0.37198128017799892 0.42988277280885612 0 -0.34847519079479439 0.42139899400191883 0 -0.34847519079479439 0.42139899400191883 0 -0.33331421951736723 0.44157288171974313 0 -0.35326895171602879 0.44541809186596187 0 -0.37198128017799892 0.42988277280885612 0 -0.34847519079479439 0.42139899400191883 0 -0.35326895171602879 0.44541809186596187 0 -0.35986181072869311 0.40624743228278271 0 -0.34847519079479439 0.42139899400191883 0 -0.35986181072869311 0.40624743228278271 0 -0.36350717894984208 0.41708497742405531 0 -0.34847519079479439 0.42139899400191883 0 -0.34847519079479439 0.42139899400191883 0 -0.34652308549665217 0.42069444339431461 0 -0.34622770181631829 0.40711946760891071 0 -0.34847519079479439 0.42139899400191883 0 -0.34652308549665217 0.42069444339431461 0 -0.35986181072869311 0.40624743228278271 0 -0.34847519079479439 0.42139899400191883 0 -0.34622770181631829 0.40711946760891071 0 -0.34652308549665217 0.42069444339431461 0 -0.34622770181631829 0.40711946760891071 0 -0.33840202136131381 0.41396555072374902 0 -0.34622770181631829 0.40711946760891071 0 -0.33840202136131381 0.41396555072374902 0 -0.33139674181266437 0.40657657271488951 0 -0.34652308549665217 0.42069444339431461 0 -0.33840202136131381 0.41396555072374902 0 -0.32946055631962029 0.42147171917688148 0 -0.33840202136131381 0.41396555072374902 0 -0.32946055631962029 0.42147171917688148 0 -0.33139674181266437 0.40657657271488951 0 -0.34652308549665217 0.42069444339431461 0 -0.32946055631962029 0.42147171917688148 0 -0.33331421951736723 0.44157288171974313 0 -0.34847519079479439 0.42139899400191883 0 -0.33331421951736723 0.44157288171974313 0 -0.34847519079479439 0.42139899400191883 0 -0.34652308549665217 0.42069444339431461 0 -0.33331421951736723 0.44157288171974313 0 -0.32946055631962029 0.42147171917688148 0 -0.31516025745948151 0.43426046148133179 0 -0.33331421951736723 0.44157288171974313 0 -0.32946055631962029 0.42147171917688148 0 -0.31516025745948151 0.43426046148133179 0 -0.31462526127850149 0.41305195869936329 0 -0.32946055631962029 0.42147171917688148 0 -0.33139674181266437 0.40657657271488951 0 -0.31462526127850149 0.41305195869936329 0 -0.33139674181266437 0.40657657271488951 0 -0.31462526127850149 0.41305195869936329 0 -0.32104103052409239 0.39193984147282568 0 -0.34622770181631829 0.40711946760891071 0 -0.33139674181266437 0.40657657271488951 0 -0.34219722752465431 0.38892805849549428 0 -0.33139674181266437 0.40657657271488951 0 -0.32104103052409239 0.39193984147282568 0 -0.34219722752465431 0.38892805849549428 0 -0.34268919730432268 0.36442474369340128 0 -0.34219722752465431 0.38892805849549428 0 -0.33099576806603143 0.37734162067197802 0 -0.32104103052409239 0.39193984147282568 0 -0.34219722752465431 0.38892805849549428 0 -0.33099576806603143 0.37734162067197802 0 -0.31862750216658492 0.37417776804905689 0 -0.32104103052409239 0.39193984147282568 0 -0.30821783240227429 0.38392415123740647 0 -0.31862750216658492 0.37417776804905689 0 -0.32104103052409239 0.39193984147282568 0 -0.33099576806603143 0.37734162067197802 0 -0.30525996039997838 0.36990070793511998 0 -0.31862750216658492 0.37417776804905689 0 -0.30821783240227429 0.38392415123740647 0 -0.30821783240227429 0.38392415123740647 0 -0.30118325654933881 0.39931451356171488 0 -0.29497741237137731 0.38428792516831511 0 -0.30525996039997838 0.36990070793511998 0 -0.30821783240227429 0.38392415123740647 0 -0.29497741237137731 0.38428792516831511 0 -0.29067612458819991 0.37129091735776187 0 -0.30525996039997838 0.36990070793511998 0 -0.29497741237137731 0.38428792516831511 0 -0.32104103052409239 0.39193984147282568 0 -0.30821783240227429 0.38392415123740647 0 -0.30118325654933881 0.39931451356171488 0 -0.31462526127850149 0.41305195869936329 0 -0.32104103052409239 0.39193984147282568 0 -0.30118325654933881 0.39931451356171488 0 -0.30118325654933881 0.39931451356171488 0 -0.28664270077895843 0.39502431659755782 0 -0.28616187592775172 0.40742230810612118 0 -0.30118325654933881 0.39931451356171488 0 -0.28664270077895843 0.39502431659755782 0 -0.29497741237137731 0.38428792516831511 0 -0.28664270077895843 0.39502431659755782 0 -0.27440070714303139 0.40447529832093682 0 -0.28616187592775172 0.40742230810612118 0 -0.29067612458819991 0.37129091735776187 0 -0.29497741237137731 0.38428792516831511 0 -0.27672383066267681 0.38599555906808097 0 -0.28664270077895843 0.39502431659755782 0 -0.29497741237137731 0.38428792516831511 0 -0.27672383066267681 0.38599555906808097 0 -0.27672383066267681 0.38599555906808097 0 -0.26241552557014808 0.397060561712692 0 -0.25963242396411929 0.37727622901940577 0 -0.2757604081754898 0.36367215018778037 0 -0.27672383066267681 0.38599555906808097 0 -0.25963242396411929 0.37727622901940577 0 -0.28664270077895843 0.39502431659755782 0 -0.27672383066267681 0.38599555906808097 0 -0.27440070714303139 0.40447529832093682 0 -0.27672383066267681 0.38599555906808097 0 -0.27440070714303139 0.40447529832093682 0 -0.26241552557014808 0.397060561712692 0 -0.27440070714303139 0.40447529832093682 0 -0.26241552557014808 0.397060561712692 0 -0.26012010042176931 0.40982199886045129 0 -0.26241552557014808 0.397060561712692 0 -0.25230699108832699 0.4026191535729341 0 -0.26012010042176931 0.40982199886045129 0 -0.26241552557014808 0.397060561712692 0 -0.25230699108832699 0.4026191535729341 0 -0.25074605683935891 0.39025963196937857 0 -0.26241552557014808 0.397060561712692 0 -0.25963242396411929 0.37727622901940577 0 -0.25074605683935891 0.39025963196937857 0 -0.25404549454522068 0.43096924023269378 0 -0.25865246927565982 0.4214408159921233 0 -0.26585966868169281 0.43377222641760688 0 -0.25865246927565982 0.4214408159921233 0 -0.26929964060437211 0.41854408328612169 0 -0.26585966868169281 0.43377222641760688 0 -0.25404549454522068 0.43096924023269378 0 -0.26585966868169281 0.43377222641760688 0 -0.25671173586964652 0.44391461565791202 0 -0.25404549454522068 0.43096924023269378 0 -0.25865246927565982 0.4214408159921233 0 -0.24832935763120639 0.41647626704002783 0 -0.26012010042176931 0.40982199886045129 0 -0.25865246927565982 0.4214408159921233 0 -0.24832935763120639 0.41647626704002783 0 -0.25230699108832699 0.4026191535729341 0 -0.26012010042176931 0.40982199886045129 0 -0.24832935763120639 0.41647626704002783 0 -0.26012010042176931 0.40982199886045129 0 -0.25865246927565982 0.4214408159921233 0 -0.26929964060437211 0.41854408328612169 0 -0.27440070714303139 0.40447529832093682 0 -0.26012010042176931 0.40982199886045129 0 -0.26929964060437211 0.41854408328612169 0 -0.27440070714303139 0.40447529832093682 0 -0.28105110109883202 0.41814663489506021 0 -0.28616187592775172 0.40742230810612118 0 -0.27440070714303139 0.40447529832093682 0 -0.26929964060437211 0.41854408328612169 0 -0.28105110109883202 0.41814663489506021 0 -0.26929964060437211 0.41854408328612169 0 -0.28105110109883202 0.41814663489506021 0 -0.28043139564952591 0.43103921603081558 0 -0.26929964060437211 0.41854408328612169 0 -0.26585966868169281 0.43377222641760688 0 -0.28043139564952591 0.43103921603081558 0 -0.26585966868169281 0.43377222641760688 0 -0.28043139564952591 0.43103921603081558 0 -0.27730608386954753 0.4433993810184319 0 -0.28105110109883202 0.41814663489506021 0 -0.28043139564952591 0.43103921603081558 0 -0.29611593745672687 0.42132644712024558 0 -0.28043139564952591 0.43103921603081558 0 -0.29611593745672687 0.42132644712024558 0 -0.29929232194473371 0.44639299273419031 0 -0.30118325654933881 0.39931451356171488 0 -0.28616187592775172 0.40742230810612118 0 -0.29611593745672687 0.42132644712024558 0 -0.28105110109883202 0.41814663489506021 0 -0.28616187592775172 0.40742230810612118 0 -0.29611593745672687 0.42132644712024558 0 -0.31462526127850149 0.41305195869936329 0 -0.30118325654933881 0.39931451356171488 0 -0.29611593745672687 0.42132644712024558 0 -0.31516025745948151 0.43426046148133179 0 -0.31462526127850149 0.41305195869936329 0 -0.29611593745672687 0.42132644712024558 0 -0.31516025745948151 0.43426046148133179 0 -0.29611593745672687 0.42132644712024558 0 -0.29929232194473371 0.44639299273419031 0 -0.31516025745948151 0.43426046148133179 0 -0.29929232194473371 0.44639299273419031 0 -0.31815324823993968 0.4617467694375671 0 -0.29929232194473371 0.44639299273419031 0 -0.31815324823993968 0.4617467694375671 0 -0.29929232194473371 0.44639299273419031 0 -0.30066501621546438 0.46543204271909638 0 -0.31815324823993968 0.4617467694375671 0 -0.30066501621546438 0.46543204271909638 0 -0.2865248112058541 0.45434622099901878 0 -0.28499947257698632 0.4665727263088657 0 -0.29929232194473371 0.44639299273419031 0 -0.30066501621546438 0.46543204271909638 0 -0.2865248112058541 0.45434622099901878 0 -0.2865248112058541 0.45434622099901878 0 -0.28499947257698632 0.4665727263088657 0 -0.27570531101917312 0.45921290664631947 0 -0.28043139564952591 0.43103921603081558 0 -0.29929232194473371 0.44639299273419031 0 -0.27730608386954753 0.4433993810184319 0 -0.28043139564952591 0.43103921603081558 0 -0.29929232194473371 0.44639299273419031 0 -0.29929232194473371 0.44639299273419031 0 -0.2865248112058541 0.45434622099901878 0 -0.27730608386954753 0.4433993810184319 0 -0.27730608386954753 0.4433993810184319 0 -0.26667539088125602 0.45748072756981151 0 -0.2609517296811717 0.45709779292477959 0 -0.27730608386954753 0.4433993810184319 0 -0.2609517296811717 0.45709779292477959 0 -0.26513492426841451 0.44445959016569492 0 -0.2865248112058541 0.45434622099901878 0 -0.27730608386954753 0.4433993810184319 0 -0.27570531101917312 0.45921290664631947 0 -0.27730608386954753 0.4433993810184319 0 -0.2609517296811717 0.45709779292477959 0 -0.26585966868169281 0.43377222641760688 0 -0.27730608386954753 0.4433993810184319 0 -0.26513492426841451 0.44445959016569492 0 -0.27730608386954753 0.4433993810184319 0 -0.27570531101917312 0.45921290664631947 0 -0.26667539088125602 0.45748072756981151 0 -0.28499947257698632 0.4665727263088657 0 -0.27570531101917312 0.45921290664631947 0 -0.27340747661636522 0.47090132695025028 0 -0.27570531101917312 0.45921290664631947 0 -0.26783388056144852 0.46434621592898878 0 -0.27340747661636522 0.47090132695025028 0 -0.26783388056144852 0.46434621592898878 0 -0.26667539088125602 0.45748072756981151 0 -0.26319881545845542 0.46163475462421122 0 -0.27570531101917312 0.45921290664631947 0 -0.26783388056144852 0.46434621592898878 0 -0.26667539088125602 0.45748072756981151 0 -0.26667539088125602 0.45748072756981151 0 -0.26319881545845542 0.46163475462421122 0 -0.25735120147609392 0.46011359641450922 0 -0.25735120147609392 0.46011359641450922 0 -0.25570875743256172 0.45805806738667881 0 -0.2372762584224431 0.47692837465508542 0 -0.26667539088125602 0.45748072756981151 0 -0.2609517296811717 0.45709779292477959 0 -0.25735120147609392 0.46011359641450922 0 -0.2609517296811717 0.45709779292477959 0 -0.25735120147609392 0.46011359641450922 0 -0.25570875743256172 0.45805806738667881 0 -0.2609517296811717 0.45709779292477959 0 -0.25570875743256172 0.45805806738667881 0 -0.2609517296811717 0.45709779292477959 0 -0.25735120147609392 0.46011359641450922 0 -0.26783388056144852 0.46434621592898878 0 -0.26093478891502331 0.46459847858353548 0 -0.26508266728741903 0.47275394962046319 0 -0.26093478891502331 0.46459847858353548 0 -0.25735120147609392 0.46011359641450922 0 -0.25788205664377922 0.47089498520339479 0 -0.26783388056144852 0.46434621592898878 0 -0.26319881545845542 0.46163475462421122 0 -0.26093478891502331 0.46459847858353548 0 -0.26319881545845542 0.46163475462421122 0 -0.26093478891502331 0.46459847858353548 0 -0.25735120147609392 0.46011359641450922 0 -0.26093478891502331 0.46459847858353548 0 -0.25735120147609392 0.46011359641450922 0 -0.25735120147609392 0.46011359641450922 0 -0.25076271441078912 0.47396788578294868 0 -0.25788205664377922 0.47089498520339479 0 -0.25735120147609392 0.46011359641450922 0 -0.25570875743256172 0.45805806738667881 0 -0.25570875743256172 0.45805806738667881 0 -0.25671173586964652 0.44391461565791202 0 -0.24067424126789799 0.43924227605579907 0 -0.2609517296811717 0.45709779292477959 0 -0.25570875743256172 0.45805806738667881 0 -0.25671173586964652 0.44391461565791202 0 -0.25404549454522068 0.43096924023269378 0 -0.25671173586964652 0.44391461565791202 0 -0.24067424126789799 0.43924227605579907 0 -0.26585966868169281 0.43377222641760688 0 -0.25671173586964652 0.44391461565791202 0 -0.26513492426841451 0.44445959016569492 0 -0.2609517296811717 0.45709779292477959 0 -0.25671173586964652 0.44391461565791202 0 -0.26513492426841451 0.44445959016569492 0 -0.25865824502194679 0.48367225319284879 0 -0.2450937842319563 0.48506806858536478 0 -0.24697966632078749 0.5 0 -0.25865824502194679 0.48367225319284879 0 -0.27385313266835082 0.5 0 -0.24697966632078749 0.5 0 -0.25076271441078912 0.47396788578294868 0 -0.25865824502194679 0.48367225319284879 0 -0.2450937842319563 0.48506806858536478 0 -0.25076271441078912 0.47396788578294868 0 -0.25788205664377922 0.47089498520339479 0 -0.25865824502194679 0.48367225319284879 0 -0.26508266728741903 0.47275394962046319 0 -0.25788205664377922 0.47089498520339479 0 -0.25865824502194679 0.48367225319284879 0 -0.26093478891502331 0.46459847858353548 0 -0.26508266728741903 0.47275394962046319 0 -0.25788205664377922 0.47089498520339479 0 -0.26508266728741903 0.47275394962046319 0 -0.25865824502194679 0.48367225319284879 0 -0.27248358386019639 0.48224194569237189 0 -0.26783388056144852 0.46434621592898878 0 -0.26508266728741903 0.47275394962046319 0 -0.27340747661636522 0.47090132695025028 0 -0.26508266728741903 0.47275394962046319 0 -0.27248358386019639 0.48224194569237189 0 -0.27340747661636522 0.47090132695025028 0 -0.27248358386019639 0.48224194569237189 0 -0.27340747661636522 0.47090132695025028 0 -0.2859230346680191 0.48241943877638338 0 -0.27248358386019639 0.48224194569237189 0 -0.27385313266835082 0.5 0 -0.2859230346680191 0.48241943877638338 0 -0.25865824502194679 0.48367225319284879 0 -0.27248358386019639 0.48224194569237189 0 -0.27385313266835082 0.5 0 -0.27385313266835082 0.5 0 -0.2859230346680191 0.48241943877638338 0 -0.30072659901591392 0.5 0 -0.2859230346680191 0.48241943877638338 0 -0.30243932117597738 0.48265644563136278 0 -0.30072659901591392 0.5 0 -0.29353995705304781 0.47448723589678682 0 -0.2859230346680191 0.48241943877638338 0 -0.30243932117597738 0.48265644563136278 0 -0.28499947257698632 0.4665727263088657 0 -0.29353995705304781 0.47448723589678682 0 -0.2859230346680191 0.48241943877638338 0 -0.30066501621546438 0.46543204271909638 0 -0.28499947257698632 0.4665727263088657 0 -0.29353995705304781 0.47448723589678682 0 -0.28499947257698632 0.4665727263088657 0 -0.27340747661636522 0.47090132695025028 0 -0.2859230346680191 0.48241943877638338 0 -0.30243932117597738 0.48265644563136278 0 -0.31815324823993968 0.4617467694375671 0 -0.30066501621546438 0.46543204271909638 0 -0.29353995705304781 0.47448723589678682 0 -0.30243932117597738 0.48265644563136278 0 -0.30066501621546438 0.46543204271909638 0 -0.30243932117597738 0.48265644563136278 0 -0.31815324823993968 0.4617467694375671 0 -0.30243932117597738 0.48265644563136278 0 -0.30072659901591392 0.5 0 -0.31953559728852632 0.48289567101635322 0 -0.30072659901591392 0.5 0 -0.32760006536347719 0.5 0 -0.31953559728852632 0.48289567101635322 0 -0.32760006536347719 0.5 0 -0.33739672619179611 0.48926661394044441 0 -0.35447353171104051 0.5 0 -0.32760006536347719 0.5 0 -0.33739672619179611 0.48926661394044441 0 -0.31953559728852632 0.48289567101635322 0 -0.33739672619179611 0.48926661394044441 0 -0.33450922827862589 0.47506138937447778 0 -0.3508652083173105 0.48837600931139069 0 -0.33450922827862589 0.47506138937447778 0 -0.3508652083173105 0.48837600931139069 0 -0.33739672619179611 0.48926661394044441 0 -0.33450922827862589 0.47506138937447778 0 -0.31953559728852632 0.48289567101635322 0 -0.30243932117597738 0.48265644563136278 0 -0.31953559728852632 0.48289567101635322 0 -0.31815324823993968 0.4617467694375671 0 -0.33450922827862589 0.47506138937447778 0 -0.31953559728852632 0.48289567101635322 0 -0.31815324823993968 0.4617467694375671 0 -0.33450922827862589 0.47506138937447778 0 -0.31815324823993968 0.4617467694375671 0 -0.31516025745948151 0.43426046148133179 0 -0.31815324823993968 0.4617467694375671 0 -0.33331421951736723 0.44157288171974313 0 -0.31815324823993968 0.4617467694375671 0 -0.33331421951736723 0.44157288171974313 0 -0.33331421951736723 0.44157288171974313 0 -0.33866057919616188 0.45831012600256388 0 -0.35326895171602879 0.44541809186596187 0 -0.31815324823993968 0.4617467694375671 0 -0.33331421951736723 0.44157288171974313 0 -0.33866057919616188 0.45831012600256388 0 -0.33450922827862589 0.47506138937447778 0 -0.33866057919616188 0.45831012600256388 0 -0.35405724822884799 0.46775149761507012 0 -0.33450922827862589 0.47506138937447778 0 -0.31815324823993968 0.4617467694375671 0 -0.33866057919616188 0.45831012600256388 0 -0.33866057919616188 0.45831012600256388 0 -0.35405724822884799 0.46775149761507012 0 -0.35326895171602879 0.44541809186596187 0 -0.37198128017799892 0.42988277280885612 0 -0.35326895171602879 0.44541809186596187 0 -0.37246933956412792 0.45377813189085492 0 -0.35405724822884799 0.46775149761507012 0 -0.35326895171602879 0.44541809186596187 0 -0.37246933956412792 0.45377813189085492 0 -0.35405724822884799 0.46775149761507012 0 -0.37246933956412792 0.45377813189085492 0 -0.37254821432271701 0.4773643366350912 0 -0.35405724822884799 0.46775149761507012 0 -0.36029928866701699 0.48061684941444732 0 -0.37254821432271701 0.4773643366350912 0 -0.36029928866701699 0.48061684941444732 0 -0.37254821432271701 0.4773643366350912 0 -0.36372648379919242 0.48897555409623727 0 -0.38134699805860361 0.5 0 -0.37254821432271701 0.4773643366350912 0 -0.36372648379919242 0.48897555409623727 0 -0.38134699805860361 0.5 0 -0.36372648379919242 0.48897555409623727 0 -0.35447353171104051 0.5 0 -0.36029928866701699 0.48061684941444732 0 -0.36372648379919242 0.48897555409623727 0 -0.3508652083173105 0.48837600931139069 0 -0.33739672619179611 0.48926661394044441 0 -0.35447353171104051 0.5 0 -0.3508652083173105 0.48837600931139069 0 -0.36372648379919242 0.48897555409623727 0 -0.35447353171104051 0.5 0 -0.3508652083173105 0.48837600931139069 0 -0.33450922827862589 0.47506138937447778 0 -0.35405724822884799 0.46775149761507012 0 -0.3508652083173105 0.48837600931139069 0 -0.35405724822884799 0.46775149761507012 0 -0.36029928866701699 0.48061684941444732 0 -0.3508652083173105 0.48837600931139069 0 -0.15097494409204271 0.48314740409142909 0 -0.14536611412384901 0.46636699133450188 0 -0.17160907689378771 0.47208995668946369 0 -0.15097494409204271 0.48314740409142909 0 -0.13293933748483619 0.4720456825956364 0 -0.14536611412384901 0.46636699133450188 0 -0.15097494409204271 0.48314740409142909 0 -0.13709577279281929 0.5 0 -0.16635926727809791 0.49999999999999423 0 -0.15097494409204271 0.48314740409142909 0 -0.13709577279281929 0.5 0 -0.13293933748483619 0.4720456825956364 0 -0.13709577279281929 0.5 0 -0.13293933748483619 0.4720456825956364 0 -0.11494632252728711 0.47650727730266318 0 -0.13293933748483619 0.4720456825956364 0 -0.1341420266950375 0.45514891774332372 0 -0.1220603667470337 0.45301455460532869 0 -0.13293933748483619 0.4720456825956364 0 -0.1341420266950375 0.45514891774332372 0 -0.14536611412384901 0.46636699133450188 0 -0.12974186454792591 0.44451914813230581 0 -0.12543055554419991 0.4418851732852449 0 -0.13554763656691371 0.43864941345778841 0 -0.12974186454792591 0.44451914813230581 0 -0.12543055554419991 0.4418851732852449 0 -0.1220603667470337 0.45301455460532869 0 -0.1341420266950375 0.45514891774332372 0 -0.12974186454792591 0.44451914813230581 0 -0.1220603667470337 0.45301455460532869 0 -0.12974186454792591 0.44451914813230581 0 -0.1220603667470337 0.45301455460532869 0 -0.1341420266950375 0.45514891774332372 0 -0.13921686325922361 0.44548712449987371 0 -0.14551778166835469 0.45395118777800242 0 -0.1341420266950375 0.45514891774332372 0 -0.12974186454792591 0.44451914813230581 0 -0.13921686325922361 0.44548712449987371 0 -0.13921686325922361 0.44548712449987371 0 -0.13554763656691371 0.43864941345778841 0 -0.14337108733032641 0.4366682374816353 0 -0.12974186454792591 0.44451914813230581 0 -0.13921686325922361 0.44548712449987371 0 -0.13554763656691371 0.43864941345778841 0 -0.13921686325922361 0.44548712449987371 0 -0.15189614494802331 0.44477701923797042 0 -0.14337108733032641 0.4366682374816353 0 -0.13921686325922361 0.44548712449987371 0 -0.15189614494802331 0.44477701923797042 0 -0.14551778166835469 0.45395118777800242 0 -0.15189614494802331 0.44477701923797042 0 -0.14551778166835469 0.45395118777800242 0 -0.15977952017142391 0.45818518924555379 0 -0.15189614494802331 0.44477701923797042 0 -0.15544911619522461 0.43112094251756777 0 -0.14337108733032641 0.4366682374816353 0 -0.1341420266950375 0.45514891774332372 0 -0.14536611412384901 0.46636699133450188 0 -0.14551778166835469 0.45395118777800242 0 -0.14536611412384901 0.46636699133450188 0 -0.14551778166835469 0.45395118777800242 0 -0.15977952017142391 0.45818518924555379 0 -0.14536611412384901 0.46636699133450188 0 -0.15977952017142391 0.45818518924555379 0 -0.17160907689378771 0.47208995668946369 0 -0.15977952017142391 0.45818518924555379 0 -0.1768588865094779 0.44417991337893348 0 -0.17160907689378771 0.47208995668946369 0 -0.15189614494802331 0.44477701923797042 0 -0.1768588865094779 0.44417991337893348 0 -0.15544911619522461 0.43112094251756777 0 -0.15189614494802331 0.44477701923797042 0 -0.15977952017142391 0.45818518924555379 0 -0.1768588865094779 0.44417991337893348 0 -0.1768588865094779 0.44417991337893348 0 -0.19153927599921211 0.44612006175288388 0 -0.1938388938311521 0.42973659382961688 0 -0.1768588865094779 0.44417991337893348 0 -0.18247951117797881 0.45783324546471699 0 -0.1768588865094779 0.44417991337893348 0 -0.18247951117797881 0.45783324546471699 0 -0.19153927599921211 0.44612006175288388 0 -0.1768588865094779 0.44417991337893348 0 -0.17160907689378771 0.47208995668946369 0 -0.1768588865094779 0.44417991337893348 0 -0.18247951117797881 0.45783324546471699 0 -0.17160907689378771 0.47208995668946369 0 -0.18247951117797881 0.45783324546471699 0 -0.18559933892246219 0.46803980931552053 0 -0.17160907689378771 0.47208995668946369 0 -0.18559933892246219 0.46803980931552053 0 -0.1755853844004982 0.47918182480297988 0 -0.17160907689378771 0.47208995668946369 0 -0.1755853844004982 0.47918182480297988 0 -0.17160907689378771 0.47208995668946369 0 -0.16635926727809791 0.49999999999999423 0 -0.17160907689378771 0.47208995668946369 0 -0.16635926727809791 0.49999999999999423 0 -0.15097494409204271 0.48314740409142909 0 -0.17160907689378771 0.47208995668946369 0 -0.16635926727809791 0.49999999999999423 0 -0.16635926727809791 0.49999999999999423 0 -0.1932327336256611 0.5 0 -0.19040951593215949 0.48481280396383908 0 -0.1755853844004982 0.47918182480297988 0 -0.16635926727809791 0.49999999999999423 0 -0.19040951593215949 0.48481280396383908 0 -0.1932327336256611 0.5 0 -0.19040951593215949 0.48481280396383908 0 -0.20457630235877899 0.48560110127262418 0 -0.1755853844004982 0.47918182480297988 0 -0.2022931754111861 0.47214057233087908 0 -0.1755853844004982 0.47918182480297988 0 -0.19040951593215949 0.48481280396383908 0 -0.2022931754111861 0.47214057233087908 0 -0.18559933892246219 0.46803980931552053 0 -0.1755853844004982 0.47918182480297988 0 -0.2022931754111861 0.47214057233087908 0 -0.19040951593215949 0.48481280396383908 0 -0.2022931754111861 0.47214057233087908 0 -0.20457630235877899 0.48560110127262418 0 -0.2022931754111861 0.47214057233087908 0 -0.21904089219183831 0.478214064348085 0 -0.2290009664218737 0.46509931985877839 0 -0.2022931754111861 0.47214057233087908 0 -0.20457630235877899 0.48560110127262418 0 -0.21904089219183831 0.478214064348085 0 -0.1932327336256611 0.5 0 -0.20457630235877899 0.48560110127262418 0 -0.2172013153687925 0.49374315289566162 0 -0.1932327336256611 0.5 0 -0.2172013153687925 0.49374315289566162 0 -0.22010619997322431 0.5 0 -0.20457630235877899 0.48560110127262418 0 -0.2172013153687925 0.49374315289566162 0 -0.21904089219183831 0.478214064348085 0 -0.2172013153687925 0.49374315289566162 0 -0.22010619997322431 0.5 0 -0.2317920369838152 0.49077182929594138 0 -0.2172013153687925 0.49374315289566162 0 -0.2372762584224431 0.47692837465508542 0 -0.2172013153687925 0.49374315289566162 0 -0.2317920369838152 0.49077182929594138 0 -0.2372762584224431 0.47692837465508542 0 -0.22010619997322431 0.5 0 -0.2317920369838152 0.49077182929594138 0 -0.24697966632078749 0.5 0 -0.2172013153687925 0.49374315289566162 0 -0.21904089219183831 0.478214064348085 0 -0.2372762584224431 0.47692837465508542 0 -0.21904089219183831 0.478214064348085 0 -0.2372762584224431 0.47692837465508542 0 -0.2290009664218737 0.46509931985877839 0 -0.25735120147609392 0.46011359641450922 0 -0.25076271441078912 0.47396788578294868 0 -0.2372762584224431 0.47692837465508542 0 -0.2317920369838152 0.49077182929594138 0 -0.2372762584224431 0.47692837465508542 0 -0.2450937842319563 0.48506806858536478 0 -0.25076271441078912 0.47396788578294868 0 -0.2372762584224431 0.47692837465508542 0 -0.2450937842319563 0.48506806858536478 0 -0.2317920369838152 0.49077182929594138 0 -0.2450937842319563 0.48506806858536478 0 -0.24697966632078749 0.5 0 -0.25570875743256172 0.45805806738667881 0 -0.24067424126789799 0.43924227605579907 0 -0.25570875743256172 0.45805806738667881 0 -0.24067424126789799 0.43924227605579907 0 -0.238876469465478 0.45428154890057793 0 -0.24067424126789799 0.43924227605579907 0 -0.238876469465478 0.45428154890057793 0 -0.2295064018114252 0.45345011511857719 0 -0.25570875743256172 0.45805806738667881 0 -0.2290009664218737 0.46509931985877839 0 -0.25570875743256172 0.45805806738667881 0 -0.2372762584224431 0.47692837465508542 0 -0.2290009664218737 0.46509931985877839 0 -0.25570875743256172 0.45805806738667881 0 -0.238876469465478 0.45428154890057793 0 -0.2290009664218737 0.46509931985877839 0 -0.25735120147609392 0.46011359641450922 0 -0.2372762584224431 0.47692837465508542 0 -0.238876469465478 0.45428154890057793 0 -0.2295064018114252 0.45345011511857719 0 -0.2290009664218737 0.46509931985877839 0 -0.2295064018114252 0.45345011511857719 0 -0.2290009664218737 0.46509931985877839 0 -0.21411079018234461 0.45646667316605333 0 -0.24067424126789799 0.43924227605579907 0 -0.2295064018114252 0.45345011511857719 0 -0.2219150892643951 0.44603395513578392 0 -0.2295064018114252 0.45345011511857719 0 -0.2219150892643951 0.44603395513578392 0 -0.21411079018234461 0.45646667316605333 0 -0.24067424126789799 0.43924227605579907 0 -0.2219150892643951 0.44603395513578392 0 -0.21803140046968919 0.43309548300826251 0 -0.20530405052817341 0.44184621208026048 0 -0.21411079018234461 0.45646667316605333 0 -0.1960295467288605 0.4589534472895625 0 -0.2219150892643951 0.44603395513578392 0 -0.20530405052817341 0.44184621208026048 0 -0.21803140046968919 0.43309548300826251 0 -0.2219150892643951 0.44603395513578392 0 -0.20530405052817341 0.44184621208026048 0 -0.21411079018234461 0.45646667316605333 0 -0.2022931754111861 0.47214057233087908 0 -0.2290009664218737 0.46509931985877839 0 -0.21411079018234461 0.45646667316605333 0 -0.2022931754111861 0.47214057233087908 0 -0.2290009664218737 0.46509931985877839 0 -0.2022931754111861 0.47214057233087908 0 -0.21411079018234461 0.45646667316605333 0 -0.1960295467288605 0.4589534472895625 0 -0.18559933892246219 0.46803980931552053 0 -0.2022931754111861 0.47214057233087908 0 -0.1960295467288605 0.4589534472895625 0 -0.18247951117797881 0.45783324546471699 0 -0.1960295467288605 0.4589534472895625 0 -0.19153927599921211 0.44612006175288388 0 -0.18247951117797881 0.45783324546471699 0 -0.18559933892246219 0.46803980931552053 0 -0.1960295467288605 0.4589534472895625 0 -0.20530405052817341 0.44184621208026048 0 -0.19153927599921211 0.44612006175288388 0 -0.1938388938311521 0.42973659382961688 0 -0.20530405052817341 0.44184621208026048 0 -0.1960295467288605 0.4589534472895625 0 -0.19153927599921211 0.44612006175288388 0 -0.20530405052817341 0.44184621208026048 0 -0.1938388938311521 0.42973659382961688 0 -0.2069622786283489 0.42148385881334532 0 -0.19880350836458291 0.41190234354558658 0 -0.19771742157019909 0.39649405011038069 0 -0.1822369870595934 0.41558782523282961 0 -0.1938388938311521 0.42973659382961688 0 -0.19880350836458291 0.41190234354558658 0 -0.1822369870595934 0.41558782523282961 0 -0.1938388938311521 0.42973659382961688 0 -0.19880350836458291 0.41190234354558658 0 -0.2069622786283489 0.42148385881334532 0 -0.22563972510323629 0.42042648472491773 0 -0.21060520893857451 0.40161069339403632 0 -0.19880350836458291 0.41190234354558658 0 -0.2069622786283489 0.42148385881334532 0 -0.21060520893857451 0.40161069339403632 0 -0.2069622786283489 0.42148385881334532 0 -0.22563972510323629 0.42042648472491773 0 -0.21060520893857451 0.40161069339403632 0 -0.2069622786283489 0.42148385881334532 0 -0.21803140046968919 0.43309548300826251 0 -0.22563972510323629 0.42042648472491773 0 -0.20530405052817341 0.44184621208026048 0 -0.2069622786283489 0.42148385881334532 0 -0.21803140046968919 0.43309548300826251 0 -0.24067424126789799 0.43924227605579907 0 -0.22563972510323629 0.42042648472491773 0 -0.24067424126789799 0.43924227605579907 0 -0.22563972510323629 0.42042648472491773 0 -0.23594889991765389 0.41461011574421019 0 -0.24067424126789799 0.43924227605579907 0 -0.21803140046968919 0.43309548300826251 0 -0.22563972510323629 0.42042648472491773 0 -0.22563972510323629 0.42042648472491773 0 -0.22661095704568929 0.40733604835423548 0 -0.21060520893857451 0.40161069339403632 0 -0.22661095704568929 0.40733604835423548 0 -0.23594889991765389 0.41461011574421019 0 -0.2399239149791528 0.39947730828212102 0 -0.22563972510323629 0.42042648472491773 0 -0.22661095704568929 0.40733604835423548 0 -0.23594889991765389 0.41461011574421019 0 -0.23594889991765389 0.41461011574421019 0 -0.24832935763120639 0.41647626704002783 0 -0.2399239149791528 0.39947730828212102 0 -0.24067424126789799 0.43924227605579907 0 -0.23594889991765389 0.41461011574421019 0 -0.24832935763120639 0.41647626704002783 0 -0.25404549454522068 0.43096924023269378 0 -0.24067424126789799 0.43924227605579907 0 -0.24832935763120639 0.41647626704002783 0 -0.25074605683935891 0.39025963196937857 0 -0.2380843279317898 0.37873447349200662 0 -0.2399239149791528 0.39947730828212102 0 -0.2380843279317898 0.37873447349200662 0 -0.2399239149791528 0.39947730828212102 0 -0.227199662249505 0.38913345404969613 0 -0.25963242396411929 0.37727622901940577 0 -0.25074605683935891 0.39025963196937857 0 -0.2380843279317898 0.37873447349200662 0 -0.25230699108832699 0.4026191535729341 0 -0.25074605683935891 0.39025963196937857 0 -0.2399239149791528 0.39947730828212102 0 -0.25230699108832699 0.4026191535729341 0 -0.24832935763120639 0.41647626704002783 0 -0.2399239149791528 0.39947730828212102 0 -0.22661095704568929 0.40733604835423548 0 -0.227199662249505 0.38913345404969613 0 -0.20980207260275821 0.38286984864742779 0 -0.22661095704568929 0.40733604835423548 0 -0.2399239149791528 0.39947730828212102 0 -0.227199662249505 0.38913345404969613 0 -0.227199662249505 0.38913345404969613 0 -0.22138730006762589 0.37860178181899112 0 -0.20980207260275821 0.38286984864742779 0 -0.2380843279317898 0.37873447349200662 0 -0.227199662249505 0.38913345404969613 0 -0.22138730006762589 0.37860178181899112 0 -0.20980207260275821 0.38286984864742779 0 -0.21060520893857451 0.40161069339403632 0 -0.1955706927739127 0.38279490206315492 0 -0.22138730006762589 0.37860178181899112 0 -0.20980207260275821 0.38286984864742779 0 -0.21186066757003749 0.36708443823166648 0 -0.22661095704568929 0.40733604835423548 0 -0.20980207260275821 0.38286984864742779 0 -0.21060520893857451 0.40161069339403632 0 -0.22661095704568929 0.40733604835423548 0 -0.20980207260275821 0.38286984864742779 0 -0.19771742157019909 0.39649405011038069 0 -0.18761508760970841 0.38699573708672541 0 -0.1822369870595934 0.41558782523282961 0 -0.21060520893857451 0.40161069339403632 0 -0.1955706927739127 0.38279490206315492 0 -0.21060520893857451 0.40161069339403632 0 -0.19771742157019909 0.39649405011038069 0 -0.1955706927739127 0.38279490206315492 0 -0.19880350836458291 0.41190234354558658 0 -0.21060520893857451 0.40161069339403632 0 -0.19771742157019909 0.39649405011038069 0 -0.1955706927739127 0.38279490206315492 0 -0.18761508760970841 0.38699573708672541 0 -0.19299318815982511 0.3584036489406216 0 -0.19771742157019909 0.39649405011038069 0 -0.1955706927739127 0.38279490206315492 0 -0.18761508760970841 0.38699573708672541 0 -0.18761508760970841 0.38699573708672541 0 -0.16784626737036021 0.38367774067199678 0 -0.1693635991047929 0.39488889509463349 0 -0.18761508760970841 0.38699573708672541 0 -0.16784626737036021 0.38367774067199678 0 -0.17209258985668821 0.37287519816867881 0 -0.18761508760970841 0.38699573708672541 0 -0.17209258985668821 0.37287519816867881 0 -0.1820175651140804 0.36962084513555271 0 -0.16784626737036021 0.38367774067199678 0 -0.1586485160828463 0.37519192368121562 0 -0.17209258985668821 0.37287519816867881 0 -0.16784626737036021 0.38367774067199678 0 -0.1586485160828463 0.37519192368121562 0 -0.15498310706512461 0.39104039615357161 0 -0.16784626737036021 0.38367774067199678 0 -0.1693635991047929 0.39488889509463349 0 -0.15498310706512461 0.39104039615357161 0 -0.17289484165915331 0.40704536193159557 0 -0.16592099678730041 0.41761015476625279 0 -0.15498310706512461 0.39104039615357161 0 -0.16592099678730041 0.41761015476625279 0 -0.15498310706512461 0.39104039615357161 0 -0.16592099678730041 0.41761015476625279 0 -0.1545250687615847 0.40748959449452038 0 -0.15498310706512461 0.39104039615357161 0 -0.1693635991047929 0.39488889509463349 0 -0.17289484165915331 0.40704536193159557 0 -0.15498310706512461 0.39104039615357161 0 -0.1693635991047929 0.39488889509463349 0 -0.15498310706512461 0.39104039615357161 0 -0.18761508760970841 0.38699573708672541 0 -0.1822369870595934 0.41558782523282961 0 -0.18761508760970841 0.38699573708672541 0 -0.1693635991047929 0.39488889509463349 0 -0.17289484165915331 0.40704536193159557 0 -0.18761508760970841 0.38699573708672541 0 -0.1822369870595934 0.41558782523282961 0 -0.17289484165915331 0.40704536193159557 0 -0.1822369870595934 0.41558782523282961 0 -0.17289484165915331 0.40704536193159557 0 -0.16592099678730041 0.41761015476625279 0 -0.1768588865094779 0.44417991337893348 0 -0.1822369870595934 0.41558782523282961 0 -0.1768588865094779 0.44417991337893348 0 -0.1938388938311521 0.42973659382961688 0 -0.1822369870595934 0.41558782523282961 0 -0.1768588865094779 0.44417991337893348 0 -0.1822369870595934 0.41558782523282961 0 -0.16592099678730041 0.41761015476625279 0 -0.1768588865094779 0.44417991337893348 0 -0.16592099678730041 0.41761015476625279 0 -0.1768588865094779 0.44417991337893348 0 -0.16592099678730041 0.41761015476625279 0 -0.15544911619522461 0.43112094251756777 0 -0.16592099678730041 0.41761015476625279 0 -0.15396824847425039 0.42022701891705577 0 -0.15544911619522461 0.43112094251756777 0 -0.16592099678730041 0.41761015476625279 0 -0.1545250687615847 0.40748959449452038 0 -0.15396824847425039 0.42022701891705577 0 -0.1545250687615847 0.40748959449452038 0 -0.13481333604998941 0.41354275360105008 0 -0.1397202057038307 0.40023656879284331 0 -0.1545250687615847 0.40748959449452038 0 -0.15396824847425039 0.42022701891705577 0 -0.13997781215289179 0.42468738388988231 0 -0.1545250687615847 0.40748959449452038 0 -0.13997781215289179 0.42468738388988231 0 -0.13481333604998941 0.41354275360105008 0 -0.1545250687615847 0.40748959449452038 0 -0.13997781215289179 0.42468738388988231 0 -0.15396824847425039 0.42022701891705577 0 -0.15544911619522461 0.43112094251756777 0 -0.13997781215289179 0.42468738388988231 0 -0.15544911619522461 0.43112094251756777 0 -0.14337108733032641 0.4366682374816353 0 -0.13997781215289179 0.42468738388988231 0 -0.12543055554419991 0.4418851732852449 0 -0.13997781215289179 0.42468738388988231 0 -0.12543055554419991 0.4418851732852449 0 -0.13554763656691371 0.43864941345778841 0 -0.13997781215289179 0.42468738388988231 0 -0.12543055554419991 0.4418851732852449 0 -0.13052740083170131 0.42505385072499302 0 -0.12543055554419991 0.4418851732852449 0 -0.13997781215289179 0.42468738388988231 0 -0.13052740083170131 0.42505385072499302 0 -0.12543055554419991 0.4418851732852449 0 -0.13052740083170131 0.42505385072499302 0 -0.1231996008834208 0.42639881085791081 0 -0.13554763656691371 0.43864941345778841 0 -0.14337108733032641 0.4366682374816353 0 -0.13997781215289179 0.42468738388988231 0 -0.13481333604998941 0.41354275360105008 0 -0.12582637250862541 0.40516963685766161 0 -0.1231996008834208 0.42639881085791081 0 -0.13481333604998941 0.41354275360105008 0 -0.12582637250862541 0.40516963685766161 0 -0.1397202057038307 0.40023656879284331 0 -0.13997781215289179 0.42468738388988231 0 -0.13052740083170131 0.42505385072499302 0 -0.13481333604998941 0.41354275360105008 0 -0.13052740083170131 0.42505385072499302 0 -0.13481333604998941 0.41354275360105008 0 -0.1231996008834208 0.42639881085791081 0 -0.12582637250862541 0.40516963685766161 0 -0.1284531441338306 0.38394046285741251 0 -0.12582637250862541 0.40516963685766161 0 -0.1397202057038307 0.40023656879284331 0 -0.1284531441338306 0.38394046285741251 0 -0.1284531441338306 0.38394046285741251 0 -0.13029579966624269 0.36904839742441409 0 -0.1284531441338306 0.38394046285741251 0 -0.15498310706512461 0.39104039615357161 0 -0.14354357663251049 0.36325207775238411 0 -0.15498310706512461 0.39104039615357161 0 -0.14354357663251049 0.36325207775238411 0 -0.1284531441338306 0.38394046285741251 0 -0.15498310706512461 0.39104039615357161 0 -0.1586485160828463 0.37519192368121562 0 -0.15498310706512461 0.39104039615357161 0 -0.14354357663251049 0.36325207775238411 0 -0.1545250687615847 0.40748959449452038 0 -0.1397202057038307 0.40023656879284331 0 -0.15498310706512461 0.39104039615357161 0 -0.1397202057038307 0.40023656879284331 0 -0.1284531441338306 0.38394046285741251 0 -0.15498310706512461 0.39104039615357161 0 -0.14969657978653139 0.34521550510542781 0 -0.14354357663251049 0.36325207775238411 0 -0.13776740220958669 0.34922089221111302 0 -0.14969657978653139 0.34521550510542781 0 -0.14354357663251049 0.36325207775238411 0 -0.15896404764819971 0.35650513600299027 0 -0.14354357663251049 0.36325207775238411 0 -0.13776740220958669 0.34922089221111302 0 -0.15349844210609759 0.36314919049554839 0 -0.15896404764819971 0.35650513600299027 0 -0.14354357663251049 0.36325207775238411 0 -0.15896404764819971 0.35650513600299027 0 -0.15349844210609759 0.36314919049554839 0 -0.14354357663251049 0.36325207775238411 0 -0.15896404764819971 0.35650513600299027 0 -0.1586485160828463 0.37519192368121562 0 -0.15349844210609759 0.36314919049554839 0 -0.14354357663251049 0.36325207775238411 0 -0.1284531441338306 0.38394046285741251 0 -0.14354357663251049 0.36325207775238411 0 -0.13029579966624269 0.36904839742441409 0 -0.14354357663251049 0.36325207775238411 0 -0.13029579966624269 0.36904839742441409 0 -0.13776740220958669 0.34922089221111302 0 -0.14354357663251049 0.36325207775238411 0 -0.13029579966624269 0.36904839742441409 0 -0.13029579966624269 0.36904839742441409 0 -0.13312730013659771 0.34616463562715738 0 -0.13029579966624269 0.36904839742441409 0 -0.13312730013659771 0.34616463562715738 0 -0.12365021453331169 0.35636852945536851 0 -0.13312730013659771 0.34616463562715738 0 -0.131991227786662 0.33518970666984238 0 -0.12365021453331169 0.35636852945536851 0 -0.13029579966624269 0.36904839742441409 0 -0.13776740220958669 0.34922089221111302 0 -0.13312730013659771 0.34616463562715738 0 -0.13776740220958669 0.34922089221111302 0 -0.131991227786662 0.33518970666984238 0 -0.14596361555013879 0.33306356421282818 0 -0.13776740220958669 0.34922089221111302 0 -0.131991227786662 0.33518970666984238 0 -0.13776740220958669 0.34922089221111302 0 -0.13312730013659771 0.34616463562715738 0 -0.131991227786662 0.33518970666984238 0 -0.131991227786662 0.33518970666984238 0 -0.13571420934911421 0.3187241401356995 0 -0.14994963927078289 0.31950407615247328 0 -0.131991227786662 0.33518970666984238 0 -0.1237041471641563 0.3150591570540977 0 -0.131991227786662 0.33518970666984238 0 -0.13571420934911421 0.3187241401356995 0 -0.1237041471641563 0.3150591570540977 0 -0.13571420934911421 0.3187241401356995 0 -0.13721182317485489 0.30514362066638512 0 -0.1237041471641563 0.3150591570540977 0 -0.131991227786662 0.33518970666984238 0 -0.14994963927078289 0.31950407615247328 0 -0.14994963927078289 0.31950407615247328 0 -0.15689513735818569 0.32410533154557492 0 -0.15468904744803719 0.29434557536231798 0 -0.13571420934911421 0.3187241401356995 0 -0.14994963927078289 0.31950407615247328 0 -0.13721182317485489 0.30514362066638512 0 -0.15197541214350799 0.32743209169767451 0 -0.14994963927078289 0.31950407615247328 0 -0.15689513735818569 0.32410533154557492 0 -0.15197541214350799 0.32743209169767451 0 -0.14994963927078289 0.31950407615247328 0 -0.14596361555013879 0.33306356421282818 0 -0.14969657978653139 0.34521550510542781 0 -0.13776740220958669 0.34922089221111302 0 -0.14596361555013879 0.33306356421282818 0 -0.131991227786662 0.33518970666984238 0 -0.14994963927078289 0.31950407615247328 0 -0.14596361555013879 0.33306356421282818 0 -0.15197541214350799 0.32743209169767451 0 -0.14596361555013879 0.33306356421282818 0 -0.15509325639492441 0.3330553948798215 0 -0.15197541214350799 0.32743209169767451 0 -0.15509325639492441 0.3330553948798215 0 -0.15689513735818569 0.32410533154557492 0 -0.14969657978653139 0.34521550510542781 0 -0.14596361555013879 0.33306356421282818 0 -0.15509325639492441 0.3330553948798215 0 -0.14969657978653139 0.34521550510542781 0 -0.15509325639492441 0.3330553948798215 0 -0.1610502868310596 0.34004595027855378 0 -0.1610502868310596 0.34004595027855378 0 -0.1632389568775843 0.32897738811225269 0 -0.17679622456605809 0.33482813164353231 0 -0.15509325639492441 0.3330553948798215 0 -0.1610502868310596 0.34004595027855378 0 -0.1632389568775843 0.32897738811225269 0 -0.15509325639492441 0.3330553948798215 0 -0.1632389568775843 0.32897738811225269 0 -0.15689513735818569 0.32410533154557492 0 -0.1683120899940074 0.31621231690321822 0 -0.17679622456605809 0.33482813164353231 0 -0.1599724888422103 0.31034031513008797 0 -0.1632389568775843 0.32897738811225269 0 -0.15689513735818569 0.32410533154557492 0 -0.1599724888422103 0.31034031513008797 0 -0.1632389568775843 0.32897738811225269 0 -0.17679622456605809 0.33482813164353231 0 -0.1599724888422103 0.31034031513008797 0 -0.17679622456605809 0.33482813164353231 0 -0.1599724888422103 0.31034031513008797 0 -0.1683120899940074 0.31621231690321822 0 -0.18787348587883981 0.32136248227980552 0 -0.1683120899940074 0.31621231690321822 0 -0.17971340992624471 0.31263194127036947 0 -0.18787348587883981 0.32136248227980552 0 -0.1683120899940074 0.31621231690321822 0 -0.17679622456605809 0.33482813164353231 0 -0.18787348587883981 0.32136248227980552 0 -0.17679622456605809 0.33482813164353231 0 -0.18787348587883981 0.32136248227980552 0 -0.17971340992624471 0.31263194127036947 0 -0.18787348587883981 0.32136248227980552 0 -0.1898534355719429 0.31895563210516797 0 -0.17679622456605809 0.33482813164353231 0 -0.1871685534965358 0.33214747615677059 0 -0.18787348587883981 0.32136248227980552 0 -0.1871685534965358 0.33214747615677059 0 -0.18412546694698961 0.34549622258081608 0 -0.1911624765847669 0.33687242201873019 0 -0.17679622456605809 0.33482813164353231 0 -0.1871685534965358 0.33214747615677059 0 -0.18412546694698961 0.34549622258081608 0 -0.17679622456605809 0.33482813164353231 0 -0.18412546694698961 0.34549622258081608 0 -0.17679622456605809 0.33482813164353231 0 -0.18412546694698961 0.34549622258081608 0 -0.15896404764819971 0.35650513600299027 0 -0.18412546694698961 0.34549622258081608 0 -0.1753693948301018 0.36020879634618558 0 -0.19299318815982511 0.3584036489406216 0 -0.18412546694698961 0.34549622258081608 0 -0.15896404764819971 0.35650513600299027 0 -0.1753693948301018 0.36020879634618558 0 -0.1610502868310596 0.34004595027855378 0 -0.17679622456605809 0.33482813164353231 0 -0.15896404764819971 0.35650513600299027 0 -0.18412546694698961 0.34549622258081608 0 -0.15896404764819971 0.35650513600299027 0 -0.14969657978653139 0.34521550510542781 0 -0.1610502868310596 0.34004595027855378 0 -0.15896404764819971 0.35650513600299027 0 -0.17679622456605809 0.33482813164353231 0 -0.15896404764819971 0.35650513600299027 0 -0.15896404764819971 0.35650513600299027 0 -0.16320222614617591 0.36706048872763908 0 -0.1753693948301018 0.36020879634618558 0 -0.1586485160828463 0.37519192368121562 0 -0.15349844210609759 0.36314919049554839 0 -0.16320222614617591 0.36706048872763908 0 -0.15349844210609759 0.36314919049554839 0 -0.15896404764819971 0.35650513600299027 0 -0.16320222614617591 0.36706048872763908 0 -0.16320222614617591 0.36706048872763908 0 -0.17209258985668821 0.37287519816867881 0 -0.1753693948301018 0.36020879634618558 0 -0.1586485160828463 0.37519192368121562 0 -0.16320222614617591 0.36706048872763908 0 -0.17209258985668821 0.37287519816867881 0 -0.17209258985668821 0.37287519816867881 0 -0.1753693948301018 0.36020879634618558 0 -0.1820175651140804 0.36962084513555271 0 -0.1753693948301018 0.36020879634618558 0 -0.1820175651140804 0.36962084513555271 0 -0.19299318815982511 0.3584036489406216 0 -0.18761508760970841 0.38699573708672541 0 -0.19299318815982511 0.3584036489406216 0 -0.20980207260275821 0.38286984864742779 0 -0.19299318815982511 0.3584036489406216 0 -0.18761508760970841 0.38699573708672541 0 -0.1820175651140804 0.36962084513555271 0 -0.19299318815982511 0.3584036489406216 0 -0.20980207260275821 0.38286984864742779 0 -0.1955706927739127 0.38279490206315492 0 -0.19299318815982511 0.3584036489406216 0 -0.2062535097921751 0.356236930732516 0 -0.19643401933983931 0.34011084324127261 0 -0.1987197037640811 0.33911078431621589 0 -0.18412546694698961 0.34549622258081608 0 -0.19299318815982511 0.3584036489406216 0 -0.19643401933983931 0.34011084324127261 0 -0.2062535097921751 0.356236930732516 0 -0.1987197037640811 0.33911078431621589 0 -0.19299318815982511 0.3584036489406216 0 -0.2062535097921751 0.356236930732516 0 -0.19643401933983931 0.34011084324127261 0 -0.19299318815982511 0.3584036489406216 0 -0.19643401933983931 0.34011084324127261 0 -0.18412546694698961 0.34549622258081608 0 -0.19299318815982511 0.3584036489406216 0 -0.2062535097921751 0.356236930732516 0 -0.20632137740801779 0.34327246976741999 0 -0.1987197037640811 0.33911078431621589 0 -0.2062535097921751 0.356236930732516 0 -0.21599314107502601 0.34538766054860093 0 -0.20632137740801779 0.34327246976741999 0 -0.2062535097921751 0.356236930732516 0 -0.21695061706958951 0.35796456727662102 0 -0.21599314107502601 0.34538766054860093 0 -0.20980207260275821 0.38286984864742779 0 -0.19299318815982511 0.3584036489406216 0 -0.21186066757003749 0.36708443823166648 0 -0.19299318815982511 0.3584036489406216 0 -0.2062535097921751 0.356236930732516 0 -0.21186066757003749 0.36708443823166648 0 -0.21695061706958951 0.35796456727662102 0 -0.21186066757003749 0.36708443823166648 0 -0.2240469261320345 0.36720438552579088 0 -0.2062535097921751 0.356236930732516 0 -0.21695061706958951 0.35796456727662102 0 -0.21186066757003749 0.36708443823166648 0 -0.22138730006762589 0.37860178181899112 0 -0.21186066757003749 0.36708443823166648 0 -0.2240469261320345 0.36720438552579088 0 -0.2380843279317898 0.37873447349200662 0 -0.22138730006762589 0.37860178181899112 0 -0.2240469261320345 0.36720438552579088 0 -0.2380843279317898 0.37873447349200662 0 -0.2240469261320345 0.36720438552579088 0 -0.23543606613078319 0.36324449317302421 0 -0.2240469261320345 0.36720438552579088 0 -0.22659884077867459 0.35390942134453041 0 -0.23543606613078319 0.36324449317302421 0 -0.21695061706958951 0.35796456727662102 0 -0.2240469261320345 0.36720438552579088 0 -0.22659884077867459 0.35390942134453041 0 -0.21695061706958951 0.35796456727662102 0 -0.21599314107502601 0.34538766054860093 0 -0.22659884077867459 0.35390942134453041 0 -0.21599314107502601 0.34538766054860093 0 -0.22659884077867459 0.35390942134453041 0 -0.22762851497159939 0.3426389783520567 0 -0.22659884077867459 0.35390942134453041 0 -0.240880986077846 0.35039392822675808 0 -0.22762851497159939 0.3426389783520567 0 -0.22659884077867459 0.35390942134453041 0 -0.240880986077846 0.35039392822675808 0 -0.23543606613078319 0.36324449317302421 0 -0.26124968907457041 0.35711566317170562 0 -0.240880986077846 0.35039392822675808 0 -0.24756924973357089 0.36598025727603489 0 -0.25963242396411929 0.37727622901940577 0 -0.2380843279317898 0.37873447349200662 0 -0.24756924973357089 0.36598025727603489 0 -0.2380843279317898 0.37873447349200662 0 -0.24756924973357089 0.36598025727603489 0 -0.23543606613078319 0.36324449317302421 0 -0.240880986077846 0.35039392822675808 0 -0.24756924973357089 0.36598025727603489 0 -0.23543606613078319 0.36324449317302421 0 -0.25377531595147601 0.31773220833136251 0 -0.23664967113480551 0.33420437873680198 0 -0.2294959091892419 0.30683317507645502 0 -0.26056926029678329 0.34050197838917151 0 -0.240880986077846 0.35039392822675808 0 -0.23664967113480551 0.33420437873680198 0 -0.240880986077846 0.35039392822675808 0 -0.23664967113480551 0.33420437873680198 0 -0.240880986077846 0.35039392822675808 0 -0.23664967113480551 0.33420437873680198 0 -0.22762851497159939 0.3426389783520567 0 -0.26056926029678329 0.34050197838917151 0 -0.23664967113480551 0.33420437873680198 0 -0.23664967113480551 0.33420437873680198 0 -0.22762851497159939 0.3426389783520567 0 -0.2180199357916458 0.32929950290359222 0 -0.21599314107502601 0.34538766054860093 0 -0.22762851497159939 0.3426389783520567 0 -0.2180199357916458 0.32929950290359222 0 -0.23664967113480551 0.33420437873680198 0 -0.2180199357916458 0.32929950290359222 0 -0.21218918434011391 0.31550349560216562 0 -0.2180199357916458 0.32929950290359222 0 -0.2294959091892419 0.30683317507645502 0 -0.23664967113480551 0.33420437873680198 0 -0.2180199357916458 0.32929950290359222 0 -0.2294959091892419 0.30683317507645502 0 -0.23664967113480551 0.33420437873680198 0 -0.2294959091892419 0.30683317507645502 0 -0.2180199357916458 0.32929950290359222 0 -0.19939020044848879 0.32439462707037259 0 -0.21218918434011391 0.31550349560216562 0 -0.2180199357916458 0.32929950290359222 0 -0.19939020044848879 0.32439462707037259 0 -0.21218918434011391 0.31550349560216562 0 -0.19939020044848879 0.32439462707037259 0 -0.20354355659255341 0.30231375969597452 0 -0.2180199357916458 0.32929950290359222 0 -0.20449027540477521 0.33217990964778549 0 -0.19939020044848879 0.32439462707037259 0 -0.21599314107502601 0.34538766054860093 0 -0.2180199357916458 0.32929950290359222 0 -0.2093835204290288 0.33762634118246032 0 -0.2180199357916458 0.32929950290359222 0 -0.20449027540477521 0.33217990964778549 0 -0.2093835204290288 0.33762634118246032 0 -0.20449027540477521 0.33217990964778549 0 -0.2093835204290288 0.33762634118246032 0 -0.20125701197977791 0.3380006320573069 0 -0.2093835204290288 0.33762634118246032 0 -0.20632137740801779 0.34327246976741999 0 -0.20125701197977791 0.3380006320573069 0 -0.21599314107502601 0.34538766054860093 0 -0.2093835204290288 0.33762634118246032 0 -0.20632137740801779 0.34327246976741999 0 -0.20632137740801779 0.34327246976741999 0 -0.20125701197977791 0.3380006320573069 0 -0.1987197037640811 0.33911078431621589 0 -0.20125701197977791 0.3380006320573069 0 -0.1987197037640811 0.33911078431621589 0 -0.20125701197977791 0.3380006320573069 0 -0.1987197037640811 0.33911078431621589 0 -0.19725039199577771 0.3357706865779243 0 -0.19643401933983931 0.34011084324127261 0 -0.1987197037640811 0.33911078431621589 0 -0.19725039199577771 0.3357706865779243 0 -0.19643401933983931 0.34011084324127261 0 -0.19725039199577771 0.3357706865779243 0 -0.1987197037640811 0.33911078431621589 0 -0.19725039199577771 0.3357706865779243 0 -0.19643401933983931 0.34011084324127261 0 -0.1987197037640811 0.33911078431621589 0 -0.20449027540477521 0.33217990964778549 0 -0.19725039199577771 0.3357706865779243 0 -0.19939020044848879 0.32439462707037259 0 -0.19725039199577771 0.3357706865779243 0 -0.19939020044848879 0.32439462707037259 0 -0.20449027540477521 0.33217990964778549 0 -0.20125701197977791 0.3380006320573069 0 -0.19725039199577771 0.3357706865779243 0 -0.1871685534965358 0.33214747615677059 0 -0.19725039199577771 0.3357706865779243 0 -0.19131025017838929 0.32226732079988107 0 -0.1871685534965358 0.33214747615677059 0 -0.19725039199577771 0.3357706865779243 0 -0.1911624765847669 0.33687242201873019 0 -0.19725039199577771 0.3357706865779243 0 -0.19131025017838929 0.32226732079988107 0 -0.18412546694698961 0.34549622258081608 0 -0.19643401933983931 0.34011084324127261 0 -0.18412546694698961 0.34549622258081608 0 -0.19643401933983931 0.34011084324127261 0 -0.1911624765847669 0.33687242201873019 0 -0.19643401933983931 0.34011084324127261 0 -0.19725039199577771 0.3357706865779243 0 -0.1911624765847669 0.33687242201873019 0 -0.19939020044848879 0.32439462707037259 0 -0.1898534355719429 0.31895563210516797 0 -0.20354355659255341 0.30231375969597452 0 -0.19939020044848879 0.32439462707037259 0 -0.20354355659255341 0.30231375969597452 0 -0.19939020044848879 0.32439462707037259 0 -0.19131025017838929 0.32226732079988107 0 -0.19725039199577771 0.3357706865779243 0 -0.19939020044848879 0.32439462707037259 0 -0.19131025017838929 0.32226732079988107 0 -0.19939020044848879 0.32439462707037259 0 -0.19131025017838929 0.32226732079988107 0 -0.1898534355719429 0.31895563210516797 0 -0.1871685534965358 0.33214747615677059 0 -0.19131025017838929 0.32226732079988107 0 -0.18787348587883981 0.32136248227980552 0 -0.19131025017838929 0.32226732079988107 0 -0.1898534355719429 0.31895563210516797 0 -0.19131025017838929 0.32226732079988107 0 -0.18787348587883981 0.32136248227980552 0 -0.19131025017838929 0.32226732079988107 0 -0.18787348587883981 0.32136248227980552 0 -0.1898534355719429 0.31895563210516797 0 -0.18787348587883981 0.32136248227980552 0 -0.1898534355719429 0.31895563210516797 0 -0.1898534355719429 0.31895563210516797 0 -0.20354355659255341 0.30231375969597452 0 -0.181836286286642 0.30073073064242939 0 -0.1898534355719429 0.31895563210516797 0 -0.20354355659255341 0.30231375969597452 0 -0.1912617800180853 0.28627851795556941 0 -0.20354355659255341 0.30231375969597452 0 -0.20872689779234641 0.27475708850792557 0 -0.1912617800180853 0.28627851795556941 0 -0.20354355659255341 0.30231375969597452 0 -0.181836286286642 0.30073073064242939 0 -0.20354355659255341 0.30231375969597452 0 -0.2294959091892419 0.30683317507645502 0 -0.22234214724367901 0.27946197141610779 0 -0.20354355659255341 0.30231375969597452 0 -0.20872689779234641 0.27475708850792557 0 -0.20354355659255341 0.30231375969597452 0 -0.20872689779234641 0.27475708850792557 0 -0.21000099714937939 0.27763267687147503 0 -0.20354355659255341 0.30231375969597452 0 -0.22234214724367901 0.27946197141610779 0 -0.20354355659255341 0.30231375969597452 0 -0.22234214724367901 0.27946197141610779 0 -0.21000099714937939 0.27763267687147503 0 -0.21218918434011391 0.31550349560216562 0 -0.20354355659255341 0.30231375969597452 0 -0.2294959091892419 0.30683317507645502 0 -0.2294959091892419 0.30683317507645502 0 -0.23321397310055861 0.28552306488950963 0 -0.22234214724367901 0.27946197141610779 0 -0.2294959091892419 0.30683317507645502 0 -0.22234214724367901 0.27946197141610779 0 -0.26149186012242331 0.28138736996149599 0 -0.24739294023928149 0.29032545065907611 0 -0.24045132181340539 0.27645039150723821 0 -0.2294959091892419 0.30683317507645502 0 -0.23321397310055861 0.28552306488950963 0 -0.24739294023928149 0.29032545065907611 0 -0.23321397310055861 0.28552306488950963 0 -0.24739294023928149 0.29032545065907611 0 -0.24045132181340539 0.27645039150723821 0 -0.25377531595147601 0.31773220833136251 0 -0.2294959091892419 0.30683317507645502 0 -0.24739294023928149 0.29032545065907611 0 -0.25184776955068922 0.24631017592718801 0 -0.25541430208287691 0.26569991437095047 0 -0.24091014833661389 0.26008264408294751 0 -0.25184776955068922 0.24631017592718801 0 -0.24091014833661389 0.26008264408294751 0 -0.23051586595270601 0.24702283913706391 0 -0.24091014833661389 0.26008264408294751 0 -0.24045132181340539 0.27645039150723821 0 -0.23136012386372751 0.26459967376670468 0 -0.25541430208287691 0.26569991437095047 0 -0.24091014833661389 0.26008264408294751 0 -0.24045132181340539 0.27645039150723821 0 -0.24045132181340539 0.27645039150723821 0 -0.22638754701718511 0.27454433578867082 0 -0.23136012386372751 0.26459967376670468 0 -0.23321397310055861 0.28552306488950963 0 -0.22638754701718511 0.27454433578867082 0 -0.22234214724367901 0.27946197141610779 0 -0.23321397310055861 0.28552306488950963 0 -0.24045132181340539 0.27645039150723821 0 -0.22638754701718511 0.27454433578867082 0 -0.22638754701718511 0.27454433578867082 0 -0.22234214724367901 0.27946197141610779 0 -0.22234214724367901 0.27946197141610779 0 -0.21853573619872879 0.26489815831760283 0 -0.22638754701718511 0.27454433578867082 0 -0.23136012386372751 0.26459967376670468 0 -0.21853573619872879 0.26489815831760283 0 -0.22638754701718511 0.27454433578867082 0 -0.22234214724367901 0.27946197141610779 0 -0.21853573619872879 0.26489815831760283 0 -0.21853573619872879 0.26489815831760283 0 -0.23051586595270601 0.24702283913706391 0 -0.23136012386372751 0.26459967376670468 0 -0.21853573619872879 0.26489815831760283 0 -0.23051586595270601 0.24702283913706391 0 -0.21853573619872879 0.26489815831760283 0 -0.23051586595270601 0.24702283913706391 0 -0.2139102389921374 0.24720041731987641 0 -0.24091014833661389 0.26008264408294751 0 -0.23136012386372751 0.26459967376670468 0 -0.23051586595270601 0.24702283913706391 0 -0.20872689779234641 0.27475708850792557 0 -0.2139102389921374 0.24720041731987641 0 -0.21853573619872879 0.26489815831760283 0 -0.20872689779234641 0.27475708850792557 0 -0.2139102389921374 0.24720041731987641 0 -0.21853573619872879 0.26489815831760283 0 -0.2139102389921374 0.24720041731987641 0 -0.20872689779234641 0.27475708850792557 0 -0.19883530747484129 0.2584162776348467 0 -0.2139102389921374 0.24720041731987641 0 -0.22234214724367901 0.27946197141610779 0 -0.21853573619872879 0.26489815831760283 0 -0.21000099714937939 0.27763267687147503 0 -0.21853573619872879 0.26489815831760283 0 -0.20872689779234641 0.27475708850792557 0 -0.21000099714937939 0.27763267687147503 0 -0.21853573619872879 0.26489815831760283 0 -0.21000099714937939 0.27763267687147503 0 -0.20872689779234641 0.27475708850792557 0 -0.18838302241754251 0.2710851817518265 0 -0.19883530747484129 0.2584162776348467 0 -0.1912617800180853 0.28627851795556941 0 -0.20872689779234641 0.27475708850792557 0 -0.18838302241754251 0.2710851817518265 0 -0.18838302241754251 0.2710851817518265 0 -0.19883530747484129 0.2584162776348467 0 -0.18499936284267901 0.25575901019454228 0 -0.19883530747484129 0.2584162776348467 0 -0.18499936284267901 0.25575901019454228 0 -0.19815701532950039 0.24327969040006259 0 -0.18499936284267901 0.25575901019454228 0 -0.1641376444911597 0.25348716799195747 0 -0.1736537184321294 0.26646623278499182 0 -0.18838302241754251 0.2710851817518265 0 -0.18499936284267901 0.25575901019454228 0 -0.1736537184321294 0.26646623278499182 0 -0.1641376444911597 0.25348716799195747 0 -0.16295596946611621 0.26679113438051821 0 -0.1736537184321294 0.26646623278499182 0 -0.1641376444911597 0.25348716799195747 0 -0.16295596946611621 0.26679113438051821 0 -0.15248295753788721 0.26458581917906132 0 -0.1619615230134199 0.27744751604782569 0 -0.1736537184321294 0.26646623278499182 0 -0.17381913700134111 0.28250582917969091 0 -0.1619615230134199 0.27744751604782569 0 -0.15468904744803719 0.29434557536231798 0 -0.15248295753788721 0.26458581917906132 0 -0.1619615230134199 0.27744751604782569 0 -0.15248295753788721 0.26458581917906132 0 -0.1619615230134199 0.27744751604782569 0 -0.16295596946611621 0.26679113438051821 0 -0.15248295753788721 0.26458581917906132 0 -0.1619615230134199 0.27744751604782569 0 -0.16295596946611621 0.26679113438051821 0 -0.1736537184321294 0.26646623278499182 0 -0.1912617800180853 0.28627851795556941 0 -0.18838302241754251 0.2710851817518265 0 -0.17381913700134111 0.28250582917969091 0 -0.18838302241754251 0.2710851817518265 0 -0.1736537184321294 0.26646623278499182 0 -0.17381913700134111 0.28250582917969091 0 -0.1912617800180853 0.28627851795556941 0 -0.17381913700134111 0.28250582917969091 0 -0.181836286286642 0.30073073064242939 0 -0.17381913700134111 0.28250582917969091 0 -0.181836286286642 0.30073073064242939 0 -0.16832099577655329 0.29952253670197332 0 -0.17381913700134111 0.28250582917969091 0 -0.181836286286642 0.30073073064242939 0 -0.17971340992624471 0.31263194127036947 0 -0.1898534355719429 0.31895563210516797 0 -0.181836286286642 0.30073073064242939 0 -0.1683120899940074 0.31621231690321822 0 -0.17971340992624471 0.31263194127036947 0 -0.16832099577655329 0.29952253670197332 0 -0.1898534355719429 0.31895563210516797 0 -0.181836286286642 0.30073073064242939 0 -0.17971340992624471 0.31263194127036947 0 -0.181836286286642 0.30073073064242939 0 -0.16832099577655329 0.29952253670197332 0 -0.1683120899940074 0.31621231690321822 0 -0.1599724888422103 0.31034031513008797 0 -0.16832099577655329 0.29952253670197332 0 -0.1599724888422103 0.31034031513008797 0 -0.16832099577655329 0.29952253670197332 0 -0.15468904744803719 0.29434557536231798 0 -0.15689513735818569 0.32410533154557492 0 -0.1599724888422103 0.31034031513008797 0 -0.15468904744803719 0.29434557536231798 0 -0.17381913700134111 0.28250582917969091 0 -0.16832099577655329 0.29952253670197332 0 -0.16469767580983791 0.28845536432295188 0 -0.1619615230134199 0.27744751604782569 0 -0.16469767580983791 0.28845536432295188 0 -0.15468904744803719 0.29434557536231798 0 -0.1619615230134199 0.27744751604782569 0 -0.17381913700134111 0.28250582917969091 0 -0.16469767580983791 0.28845536432295188 0 -0.16832099577655329 0.29952253670197332 0 -0.16469767580983791 0.28845536432295188 0 -0.15468904744803719 0.29434557536231798 0 -0.15468904744803719 0.29434557536231798 0 -0.13721182317485489 0.30514362066638512 0 -0.1331064142480633 0.28947222546558432 0 -0.15468904744803719 0.29434557536231798 0 -0.1331064142480633 0.28947222546558432 0 -0.14177389146291439 0.27658067435587691 0 -0.14994963927078289 0.31950407615247328 0 -0.15468904744803719 0.29434557536231798 0 -0.13721182317485489 0.30514362066638512 0 -0.15689513735818569 0.32410533154557492 0 -0.15468904744803719 0.29434557536231798 0 -0.13721182317485489 0.30514362066638512 0 -0.1154170665416496 0.29492860743835331 0 -0.1237041471641563 0.3150591570540977 0 -0.13721182317485489 0.30514362066638512 0 -0.1331064142480633 0.28947222546558432 0 -0.1154170665416496 0.29492860743835331 0 -0.13041013700142601 0.27365065967180052 0 -0.13818090107915851 0.26084909210062063 0 -0.14177389146291439 0.27658067435587691 0 -0.1331064142480633 0.28947222546558432 0 -0.13041013700142601 0.27365065967180052 0 -0.1209353843976628 0.28026424758500179 0 -0.1331064142480633 0.28947222546558432 0 -0.13041013700142601 0.27365065967180052 0 -0.14177389146291439 0.27658067435587691 0 -0.13041013700142601 0.27365065967180052 0 -0.12854179022962489 0.26340256385917171 0 -0.1210567531115385 0.26828649542157151 0 -0.13041013700142601 0.27365065967180052 0 -0.12854179022962489 0.26340256385917171 0 -0.13818090107915851 0.26084909210062063 0 -0.12854179022962489 0.26340256385917171 0 -0.13818090107915851 0.26084909210062063 0 -0.1245193697263768 0.25082400824269452 0 -0.13818090107915851 0.26084909210062063 0 -0.1245193697263768 0.25082400824269452 0 -0.13884631553718049 0.2460819267732304 0 -0.1641376444911597 0.25348716799195747 0 -0.15248295753788721 0.26458581917906132 0 -0.15097385591933679 0.24422830971525139 0 -0.15248295753788721 0.26458581917906132 0 -0.13884631553718049 0.2460819267732304 0 -0.15097385591933679 0.24422830971525139 0 -0.15248295753788721 0.26458581917906132 0 -0.13884631553718049 0.2460819267732304 0 -0.15248295753788721 0.26458581917906132 0 -0.15097385591933679 0.24422830971525139 0 -0.13818090107915851 0.26084909210062063 0 -0.15248295753788721 0.26458581917906132 0 -0.13884631553718049 0.2460819267732304 0 -0.15468904744803719 0.29434557536231798 0 -0.15248295753788721 0.26458581917906132 0 -0.15468904744803719 0.29434557536231798 0 -0.15248295753788721 0.26458581917906132 0 -0.14177389146291439 0.27658067435587691 0 -0.13818090107915851 0.26084909210062063 0 -0.15248295753788721 0.26458581917906132 0 -0.14177389146291439 0.27658067435587691 0 -0.097413101076760114 0.27660307080725299 0 -0.094666885453573074 0.28609697530781669 0 -0.091074255566442372 0.26902052766453483 0 -0.1071299859191429 0.27479805782260891 0 -0.097413101076760114 0.27660307080725299 0 -0.1026697056031672 0.26396337450155782 0 -0.1071299859191429 0.27479805782260891 0 -0.1026697056031672 0.26396337450155782 0 -0.1071299859191429 0.27479805782260891 0 -0.097772353682765795 0.28769905199654783 0 -0.1071299859191429 0.27479805782260891 0 -0.097413101076760114 0.27660307080725299 0 -0.097772353682765795 0.28769905199654783 0 -0.097413101076760114 0.27660307080725299 0 -0.1026697056031672 0.26396337450155782 0 -0.091074255566442372 0.26902052766453483 0 -0.098730633274728821 0.25553511076904117 0 -0.1026697056031672 0.26396337450155782 0 -0.091074255566442372 0.26902052766453483 0 -0.1071299859191429 0.27479805782260891 0 -0.10857203192562449 0.253773843241345 0 -0.1026697056031672 0.26396337450155782 0 -0.098730633274728821 0.25553511076904117 0 -0.10857203192562449 0.253773843241345 0 -0.1026697056031672 0.26396337450155782 0 -0.1071299859191429 0.27479805782260891 0 -0.1245193697263768 0.25082400824269452 0 -0.1210567531115385 0.26828649542157151 0 -0.1071299859191429 0.27479805782260891 0 -0.1245193697263768 0.25082400824269452 0 -0.1071299859191429 0.27479805782260891 0 -0.10857203192562449 0.253773843241345 0 -0.1245193697263768 0.25082400824269452 0 -0.12854179022962489 0.26340256385917171 0 -0.1245193697263768 0.25082400824269452 0 -0.1210567531115385 0.26828649542157151 0 -0.1071299859191429 0.27479805782260891 0 -0.1210567531115385 0.26828649542157151 0 -0.1209353843976628 0.28026424758500179 0 -0.13041013700142601 0.27365065967180052 0 -0.1210567531115385 0.26828649542157151 0 -0.1209353843976628 0.28026424758500179 0 -0.1071299859191429 0.27479805782260891 0 -0.1209353843976628 0.28026424758500179 0 -0.1154170665416496 0.29492860743835331 0 -0.1331064142480633 0.28947222546558432 0 -0.1209353843976628 0.28026424758500179 0 -0.1154170665416496 0.29492860743835331 0 -0.1071299859191429 0.27479805782260891 0 -0.1154170665416496 0.29492860743835331 0 -0.1138914359117182 0.2960147081156429 0 -0.1087943119983668 0.30476135568801982 0 -0.1237041471641563 0.3150591570540977 0 -0.1154170665416496 0.29492860743835331 0 -0.1138914359117182 0.2960147081156429 0 -0.1237041471641563 0.3150591570540977 0 -0.1001462331367468 0.31214134858607079 0 -0.1087943119983668 0.30476135568801982 0 -0.1237041471641563 0.3150591570540977 0 -0.1154170665416496 0.29492860743835331 0 -0.1237041471641563 0.3150591570540977 0 -0.1001462331367468 0.31214134858607079 0 -0.10401403961756429 0.2956475213468297 0 -0.095626377778404437 0.290657623346669 0 -0.1001462331367468 0.31214134858607079 0 -0.095626377778404437 0.290657623346669 0 -0.1001462331367468 0.31214134858607079 0 -0.1087943119983668 0.30476135568801982 0 -0.10401403961756429 0.2956475213468297 0 -0.1138914359117182 0.2960147081156429 0 -0.1087943119983668 0.30476135568801982 0 -0.10401403961756429 0.2956475213468297 0 -0.1154170665416496 0.29492860743835331 0 -0.1138914359117182 0.2960147081156429 0 -0.097772353682765795 0.28769905199654783 0 -0.1138914359117182 0.2960147081156429 0 -0.10401403961756429 0.2956475213468297 0 -0.097772353682765795 0.28769905199654783 0 -0.1138914359117182 0.2960147081156429 0 -0.097772353682765795 0.28769905199654783 0 -0.1071299859191429 0.27479805782260891 0 -0.1154170665416496 0.29492860743835331 0 -0.097772353682765795 0.28769905199654783 0 -0.10401403961756429 0.2956475213468297 0 -0.095626377778404437 0.290657623346669 0 -0.097772353682765795 0.28769905199654783 0 -0.095626377778404437 0.290657623346669 0 -0.097772353682765795 0.28769905199654783 0 -0.095626377778404437 0.290657623346669 0 -0.094666885453573074 0.28609697530781669 0 -0.097413101076760114 0.27660307080725299 0 -0.094666885453573074 0.28609697530781669 0 -0.097772353682765795 0.28769905199654783 0 -0.095626377778404437 0.290657623346669 0 -0.094666885453573074 0.28609697530781669 0 -0.097772353682765795 0.28769905199654783 0 -0.094666885453573074 0.28609697530781669 0 -0.097772353682765795 0.28769905199654783 0 -0.095626377778404437 0.290657623346669 0 -0.08366752086620502 0.29105383014271641 0 -0.082640824795175052 0.30856028709218658 0 -0.094666885453573074 0.28609697530781669 0 -0.08366752086620502 0.29105383014271641 0 -0.076843961766697388 0.27690232623836031 0 -0.094666885453573074 0.28609697530781669 0 -0.076843961766697388 0.27690232623836031 0 -0.095626377778404437 0.290657623346669 0 -0.094666885453573074 0.28609697530781669 0 -0.08366752086620502 0.29105383014271641 0 -0.1001462331367468 0.31214134858607079 0 -0.095626377778404437 0.290657623346669 0 -0.082640824795175052 0.30856028709218658 0 -0.08366752086620502 0.29105383014271641 0 -0.082640824795175052 0.30856028709218658 0 -0.069323002849279322 0.29324764572244472 0 -0.095626377778404437 0.290657623346669 0 -0.082640824795175052 0.30856028709218658 0 -0.082640824795175052 0.30856028709218658 0 -0.067100668917239911 0.30743674431235352 0 -0.069323002849279322 0.29324764572244472 0 -0.067100668917239911 0.30743674431235352 0 -0.069323002849279322 0.29324764572244472 0 -0.056799547622498482 0.2962257251874823 0 -0.08366752086620502 0.29105383014271641 0 -0.069323002849279322 0.29324764572244472 0 -0.076843961766697388 0.27690232623836031 0 -0.069323002849279322 0.29324764572244472 0 -0.076843961766697388 0.27690232623836031 0 -0.061901981469868861 0.28264368732469441 0 -0.069323002849279322 0.29324764572244472 0 -0.056799547622498482 0.2962257251874823 0 -0.061901981469868861 0.28264368732469441 0 -0.076843961766697388 0.27690232623836031 0 -0.080000464123583179 0.26581424165258261 0 -0.059021038079822057 0.26770767716890309 0 -0.076843961766697388 0.27690232623836031 0 -0.059021038079822057 0.26770767716890309 0 -0.061901981469868861 0.28264368732469441 0 -0.076843961766697388 0.27690232623836031 0 -0.059021038079822057 0.26770767716890309 0 -0.094666885453573074 0.28609697530781669 0 -0.091074255566442372 0.26902052766453483 0 -0.094666885453573074 0.28609697530781669 0 -0.076843961766697388 0.27690232623836031 0 -0.091074255566442372 0.26902052766453483 0 -0.076843961766697388 0.27690232623836031 0 -0.080000464123583179 0.26581424165258261 0 -0.091074255566442372 0.26902052766453483 0 -0.080000464123583179 0.26581424165258261 0 -0.091074255566442372 0.26902052766453483 0 -0.087821607423689663 0.2537606424516044 0 -0.098730633274728821 0.25553511076904117 0 -0.091074255566442372 0.26902052766453483 0 -0.087821607423689663 0.2537606424516044 0 -0.080000464123583179 0.26581424165258261 0 -0.087821607423689663 0.2537606424516044 0 -0.073970605074816495 0.25598825942369569 0 -0.073970605074816495 0.25598825942369569 0 -0.05774904498435033 0.25419785454266369 0 -0.059021038079822057 0.26770767716890309 0 -0.080000464123583179 0.26581424165258261 0 -0.073970605074816495 0.25598825942369569 0 -0.059021038079822057 0.26770767716890309 0 -0.073970605074816495 0.25598825942369569 0 -0.05774904498435033 0.25419785454266369 0 -0.062993086238880794 0.24070619097824791 0 -0.073970605074816495 0.25598825942369569 0 -0.059021038079822057 0.26770767716890309 0 -0.059021038079822057 0.26770767716890309 0 -0.04361044081197156 0.25975752059986951 0 -0.05774904498435033 0.25419785454266369 0 -0.059021038079822057 0.26770767716890309 0 -0.04361044081197156 0.25975752059986951 0 -0.05774904498435033 0.25419785454266369 0 -0.04361044081197156 0.25975752059986951 0 -0.049150054716260758 0.24682962454260279 0 -0.059021038079822057 0.26770767716890309 0 -0.040860528150706593 0.28194425020118458 0 -0.059021038079822057 0.26770767716890309 0 -0.04361044081197156 0.25975752059986951 0 -0.040860528150706593 0.28194425020118458 0 -0.059021038079822057 0.26770767716890309 0 -0.040860528150706593 0.28194425020118458 0 -0.061901981469868861 0.28264368732469441 0 -0.04361044081197156 0.25975752059986951 0 -0.029237255970418641 0.26764266496843447 0 -0.040860528150706593 0.28194425020118458 0 -0.029237255970418641 0.26764266496843447 0 -0.02687602612969155 0.27915176132855302 0 -0.040860528150706593 0.28194425020118458 0 -0.04361044081197156 0.25975752059986951 0 -0.028199843544121379 0.25180736403083531 0 -0.029237255970418641 0.26764266496843447 0 -0.04361044081197156 0.25975752059986951 0 -0.028199843544121379 0.25180736403083531 0 -0.049150054716260758 0.24682962454260279 0 -0.04361044081197156 0.25975752059986951 0 -0.028199843544121379 0.25180736403083531 0 -0.028199843544121379 0.25180736403083531 0 -0.019713996955274 0.25894678162479451 0 -0.029237255970418641 0.26764266496843447 0 -0.028199843544121379 0.25180736403083531 0 -0.019713996955274 0.25894678162479451 0 -0.0067125861305070769 0.2454977905887831 0 -0.029237255970418641 0.26764266496843447 0 -0.02687602612969155 0.27915176132855302 0 -0.014706302176048869 0.27083930691112562 0 -0.019713996955274 0.25894678162479451 0 -0.029237255970418641 0.26764266496843447 0 -0.014706302176048869 0.27083930691112562 0 -0.014706302176048869 0.27083930691112562 0 -0.010303404472008171 0.29060007823643108 0 0.00036586918226188788 0.27564353025539912 0 -0.014706302176048869 0.27083930691112562 0 0.0041589756708292538 0.26017081773150558 0 0.00036586918226188788 0.27564353025539912 0 -0.014706302176048869 0.27083930691112562 0 -0.0067125861305070769 0.2454977905887831 0 0.0041589756708292538 0.26017081773150558 0 -0.019713996955274 0.25894678162479451 0 -0.014706302176048869 0.27083930691112562 0 -0.0067125861305070769 0.2454977905887831 0 -0.014706302176048869 0.27083930691112562 0 -0.0067125861305070769 0.2454977905887831 0 -0.01267501183996431 0.29724353167455969 0 -0.01276323623293717 0.30397056719107401 0 -0.0049333884333196774 0.298222658037266 0 -0.01276323623293717 0.30397056719107401 0 -0.011001929408437651 0.30535130888484269 0 -0.01276323623293717 0.30397056719107401 0 -0.0138420525665095 0.30765231201035248 0 -0.01818969412707579 0.30746665241258531 0 -0.01276323623293717 0.30397056719107401 0 -0.0138420525665095 0.30765231201035248 0 -0.011001929408437651 0.30535130888484269 0 -0.0138420525665095 0.30765231201035248 0 -0.0099139911848114531 0.31192143338525191 0 -0.015823501906507421 0.31156156555019238 0 -0.0138420525665095 0.30765231201035248 0 -0.0099139911848114531 0.31192143338525191 0 -0.011001929408437651 0.30535130888484269 0 -0.01276323623293717 0.30397056719107401 0 0.002360204579834125 0.30663038714305529 0 -0.0099139911848114531 0.31192143338525191 0 -0.011001929408437651 0.30535130888484269 0 0.002360204579834125 0.30663038714305529 0 -0.0099139911848114531 0.31192143338525191 0 -0.0053530779621081843 0.31677408380582378 0 0.002360204579834125 0.30663038714305529 0 -0.01276323623293717 0.30397056719107401 0 -0.011001929408437651 0.30535130888484269 0 0.002360204579834125 0.30663038714305529 0 -0.01276323623293717 0.30397056719107401 0 -0.0049333884333196774 0.298222658037266 0 0.002360204579834125 0.30663038714305529 0 -0.0049333884333196774 0.298222658037266 0 -0.010303404472008171 0.29060007823643108 0 0.0032397524786903281 0.28941532214885041 0 -0.010303404472008171 0.29060007823643108 0 0.0032397524786903281 0.28941532214885041 0 0.00036586918226188788 0.27564353025539912 0 -0.01267501183996431 0.29724353167455969 0 -0.010303404472008171 0.29060007823643108 0 -0.02270001822159215 0.29618082323346739 0 -0.01267501183996431 0.29724353167455969 0 -0.0049333884333196774 0.298222658037266 0 -0.010303404472008171 0.29060007823643108 0 -0.02687602612969155 0.27915176132855302 0 -0.014706302176048869 0.27083930691112562 0 -0.02270001822159215 0.29618082323346739 0 -0.014706302176048869 0.27083930691112562 0 -0.010303404472008171 0.29060007823643108 0 -0.02270001822159215 0.29618082323346739 0 -0.02687602612969155 0.27915176132855302 0 -0.02270001822159215 0.29618082323346739 0 -0.040860528150706593 0.28194425020118458 0 -0.014706302176048869 0.27083930691112562 0 -0.02270001822159215 0.29618082323346739 0 -0.02270001822159215 0.29618082323346739 0 -0.02450576402454448 0.30190536191844741 0 -0.040652655823521497 0.29906554355296472 0 -0.02270001822159215 0.29618082323346739 0 -0.02450576402454448 0.30190536191844741 0 -0.01276323623293717 0.30397056719107401 0 -0.02270001822159215 0.29618082323346739 0 -0.01276323623293717 0.30397056719107401 0 -0.02450576402454448 0.30190536191844741 0 -0.01818969412707579 0.30746665241258531 0 -0.01276323623293717 0.30397056719107401 0 -0.02270001822159215 0.29618082323346739 0 -0.02450576402454448 0.30190536191844741 0 -0.01276323623293717 0.30397056719107401 0 -0.02450576402454448 0.30190536191844741 0 -0.01267501183996431 0.29724353167455969 0 -0.01276323623293717 0.30397056719107401 0 -0.02270001822159215 0.29618082323346739 0 -0.015823501906507421 0.31156156555019238 0 -0.01818969412707579 0.30746665241258531 0 -0.0209780959593245 0.31626339013722948 0 -0.02450576402454448 0.30190536191844741 0 -0.01818969412707579 0.30746665241258531 0 -0.0209780959593245 0.31626339013722948 0 -0.0138420525665095 0.30765231201035248 0 -0.015823501906507421 0.31156156555019238 0 -0.01818969412707579 0.30746665241258531 0 -0.02450576402454448 0.30190536191844741 0 -0.040652655823521497 0.29906554355296472 0 -0.040808990682695452 0.31588825203750232 0 -0.02450576402454448 0.30190536191844741 0 -0.040652655823521497 0.29906554355296472 0 -0.040652655823521497 0.29906554355296472 0 -0.054285582405981282 0.31403488948725999 0 -0.040808990682695452 0.31588825203750232 0 -0.02270001822159215 0.29618082323346739 0 -0.040860528150706593 0.28194425020118458 0 -0.02270001822159215 0.29618082323346739 0 -0.040652655823521497 0.29906554355296472 0 -0.040860528150706593 0.28194425020118458 0 -0.040652655823521497 0.29906554355296472 0 -0.040860528150706593 0.28194425020118458 0 -0.056799547622498482 0.2962257251874823 0 -0.040860528150706593 0.28194425020118458 0 -0.056799547622498482 0.2962257251874823 0 -0.061901981469868861 0.28264368732469441 0 -0.040652655823521497 0.29906554355296472 0 -0.056799547622498482 0.2962257251874823 0 -0.054285582405981282 0.31403488948725999 0 -0.040652655823521497 0.29906554355296472 0 -0.056799547622498482 0.2962257251874823 0 -0.067100668917239911 0.30743674431235352 0 -0.056799547622498482 0.2962257251874823 0 -0.054285582405981282 0.31403488948725999 0 -0.054285582405981282 0.31403488948725999 0 -0.050826183723336783 0.3335427867235608 0 -0.040808990682695452 0.31588825203750232 0 -0.054285582405981282 0.31403488948725999 0 -0.050826183723336783 0.3335427867235608 0 -0.069655271811942657 0.32646295083770188 0 -0.050826183723336783 0.3335427867235608 0 -0.033603848092504107 0.33074792332501979 0 -0.038117235962785032 0.34915909562416131 0 -0.033603848092504107 0.33074792332501979 0 -0.025052234675127849 0.3473525287310304 0 -0.038117235962785032 0.34915909562416131 0 -0.050826183723336783 0.3335427867235608 0 -0.033603848092504107 0.33074792332501979 0 -0.040808990682695452 0.31588825203750232 0 -0.02450576402454448 0.30190536191844741 0 -0.033603848092504107 0.33074792332501979 0 -0.040808990682695452 0.31588825203750232 0 -0.02450576402454448 0.30190536191844741 0 -0.033603848092504107 0.33074792332501979 0 -0.0209780959593245 0.31626339013722948 0 -0.0209780959593245 0.31626339013722948 0 -0.02047922933067519 0.33288102596205432 0 -0.011787956709305131 0.32577086575549119 0 -0.033603848092504107 0.33074792332501979 0 -0.0209780959593245 0.31626339013722948 0 -0.02047922933067519 0.33288102596205432 0 -0.02450576402454448 0.30190536191844741 0 -0.033603848092504107 0.33074792332501979 0 -0.015823501906507421 0.31156156555019238 0 -0.0209780959593245 0.31626339013722948 0 -0.01240827535191439 0.31640601256921819 0 -0.033603848092504107 0.33074792332501979 0 -0.02047922933067519 0.33288102596205432 0 -0.025052234675127849 0.3473525287310304 0 -0.02047922933067519 0.33288102596205432 0 -0.01148215698073273 0.34011427551088808 0 -0.025052234675127849 0.3473525287310304 0 -0.01148215698073273 0.34011427551088808 0 0.0002001884757462532 0.34890758167539238 0 0.0012801965277906089 0.32776898440922392 0 -0.02047922933067519 0.33288102596205432 0 -0.01148215698073273 0.34011427551088808 0 -0.011787956709305131 0.32577086575549119 0 -0.01148215698073273 0.34011427551088808 0 -0.011787956709305131 0.32577086575549119 0 0.0012801965277906089 0.32776898440922392 0 -0.0053530779621081843 0.31677408380582378 0 0.0012801965277906089 0.32776898440922392 0 0.002360204579834125 0.30663038714305529 0 -0.0053530779621081843 0.31677408380582378 0 -0.011787956709305131 0.32577086575549119 0 0.0012801965277906089 0.32776898440922392 0 -0.0209780959593245 0.31626339013722948 0 -0.01240827535191439 0.31640601256921819 0 -0.011787956709305131 0.32577086575549119 0 -0.0053530779621081843 0.31677408380582378 0 -0.01240827535191439 0.31640601256921819 0 -0.011787956709305131 0.32577086575549119 0 -0.0099139911848114531 0.31192143338525191 0 -0.0053530779621081843 0.31677408380582378 0 -0.01240827535191439 0.31640601256921819 0 -0.0099139911848114531 0.31192143338525191 0 -0.015823501906507421 0.31156156555019238 0 -0.01240827535191439 0.31640601256921819 0 -0.00087981957629810256 0.37004617894156078 0 0.0002001884757462532 0.34890758167539238 0 -0.01443026978900671 0.37274382347287532 0 -0.00087981957629810256 0.37004617894156078 0 -0.01305390617282505 0.35800466653213692 0 -0.01148215698073273 0.34011427551088808 0 -0.01305390617282505 0.35800466653213692 0 0.0002001884757462532 0.34890758167539238 0 -0.00087981957629810256 0.37004617894156078 0 -0.01305390617282505 0.35800466653213692 0 0.0002001884757462532 0.34890758167539238 0 -0.01305390617282505 0.35800466653213692 0 -0.025052234675127849 0.3473525287310304 0 -0.0264747293129333 0.36478847695512689 0 -0.025052234675127849 0.3473525287310304 0 -0.0264747293129333 0.36478847695512689 0 -0.025052234675127849 0.3473525287310304 0 -0.0264747293129333 0.36478847695512689 0 -0.038117235962785032 0.34915909562416131 0 -0.01148215698073273 0.34011427551088808 0 -0.01305390617282505 0.35800466653213692 0 -0.025052234675127849 0.3473525287310304 0 -0.0264747293129333 0.36478847695512689 0 -0.027897223950732301 0.38222442517922389 0 -0.01443026978900671 0.37274382347287532 0 -0.0264747293129333 0.36478847695512689 0 -0.027897223950732301 0.38222442517922389 0 -0.01443026978900671 0.37274382347287532 0 -0.01305390617282505 0.35800466653213692 0 -0.0264747293129333 0.36478847695512689 0 -0.042075342727755149 0.36314126357092652 0 -0.05098908328580963 0.37605008536516832 0 -0.027897223950732301 0.38222442517922389 0 -0.0264747293129333 0.36478847695512689 0 -0.042075342727755149 0.36314126357092652 0 -0.027897223950732301 0.38222442517922389 0 -0.0264747293129333 0.36478847695512689 0 -0.042075342727755149 0.36314126357092652 0 -0.038117235962785032 0.34915909562416131 0 -0.050826183723336783 0.3335427867235608 0 -0.038117235962785032 0.34915909562416131 0 -0.051615769091477581 0.35153497743823758 0 -0.042075342727755149 0.36314126357092652 0 -0.038117235962785032 0.34915909562416131 0 -0.051615769091477581 0.35153497743823758 0 -0.042075342727755149 0.36314126357092652 0 -0.051615769091477581 0.35153497743823758 0 -0.059879695339774712 0.36303210136802289 0 -0.051615769091477581 0.35153497743823758 0 -0.059879695339774712 0.36303210136802289 0 -0.067713785053270581 0.3494531896782464 0 -0.050826183723336783 0.3335427867235608 0 -0.051615769091477581 0.35153497743823758 0 -0.067713785053270581 0.3494531896782464 0 -0.059879695339774712 0.36303210136802289 0 -0.074080942620887325 0.36987574555111391 0 -0.05098908328580963 0.37605008536516832 0 -0.042075342727755149 0.36314126357092652 0 -0.059879695339774712 0.36303210136802289 0 -0.05098908328580963 0.37605008536516832 0 -0.074080942620887325 0.36987574555111391 0 -0.082819615086019815 0.35975024286749341 0 -0.067713785053270581 0.3494531896782464 0 -0.059879695339774712 0.36303210136802289 0 -0.074080942620887325 0.36987574555111391 0 -0.067713785053270581 0.3494531896782464 0 -0.074080942620887325 0.36987574555111391 0 -0.05098908328580963 0.37605008536516832 0 -0.082819615086019815 0.35975024286749341 0 -0.091339564116386315 0.3706965763510438 0 -0.094552704262952494 0.35212560814186777 0 -0.082915547044562388 0.37178415292286471 0 -0.082819615086019815 0.35975024286749341 0 -0.091339564116386315 0.3706965763510438 0 -0.074080942620887325 0.36987574555111391 0 -0.082915547044562388 0.37178415292286471 0 -0.078586468023807629 0.37780731978115989 0 -0.074080942620887325 0.36987574555111391 0 -0.082915547044562388 0.37178415292286471 0 -0.082819615086019815 0.35975024286749341 0 -0.082915547044562388 0.37178415292286471 0 -0.091339564116386315 0.3706965763510438 0 -0.090008656623773955 0.37658634356315313 0 -0.091339564116386315 0.3706965763510438 0 -0.095295011892300996 0.37506670273382342 0 -0.090008656623773955 0.37658634356315313 0 -0.082819615086019815 0.35975024286749341 0 -0.067713785053270581 0.3494531896782464 0 -0.084752309763828276 0.34144734860045589 0 -0.082819615086019815 0.35975024286749341 0 -0.084752309763828276 0.34144734860045589 0 -0.094552704262952494 0.35212560814186777 0 -0.050826183723336783 0.3335427867235608 0 -0.067713785053270581 0.3494531896782464 0 -0.069655271811942657 0.32646295083770188 0 -0.067713785053270581 0.3494531896782464 0 -0.069655271811942657 0.32646295083770188 0 -0.084752309763828276 0.34144734860045589 0 -0.067100668917239911 0.30743674431235352 0 -0.054285582405981282 0.31403488948725999 0 -0.069655271811942657 0.32646295083770188 0 -0.082640824795175052 0.30856028709218658 0 -0.067100668917239911 0.30743674431235352 0 -0.069655271811942657 0.32646295083770188 0 -0.082640824795175052 0.30856028709218658 0 -0.069655271811942657 0.32646295083770188 0 -0.1001462331367468 0.31214134858607079 0 -0.082640824795175052 0.30856028709218658 0 -0.088328449754244448 0.32485326814268223 0 -0.082640824795175052 0.30856028709218658 0 -0.069655271811942657 0.32646295083770188 0 -0.088328449754244448 0.32485326814268223 0 -0.069655271811942657 0.32646295083770188 0 -0.088328449754244448 0.32485326814268223 0 -0.084752309763828276 0.34144734860045589 0 -0.088328449754244448 0.32485326814268223 0 -0.084752309763828276 0.34144734860045589 0 -0.1046660884950916 0.33362507382547218 0 -0.084752309763828276 0.34144734860045589 0 -0.1046660884950916 0.33362507382547218 0 -0.094552704262952494 0.35212560814186777 0 -0.1001462331367468 0.31214134858607079 0 -0.088328449754244448 0.32485326814268223 0 -0.1046660884950916 0.33362507382547218 0 -0.1001462331367468 0.31214134858607079 0 -0.1046660884950916 0.33362507382547218 0 -0.1001462331367468 0.31214134858607079 0 -0.1046660884950916 0.33362507382547218 0 -0.1237041471641563 0.3150591570540977 0 -0.131991227786662 0.33518970666984238 0 -0.1046660884950916 0.33362507382547218 0 -0.1237041471641563 0.3150591570540977 0 -0.131991227786662 0.33518970666984238 0 -0.1046660884950916 0.33362507382547218 0 -0.10918594385343509 0.35510879906487391 0 -0.131991227786662 0.33518970666984238 0 -0.12365021453331169 0.35636852945536851 0 -0.10918594385343509 0.35510879906487391 0 -0.131991227786662 0.33518970666984238 0 -0.10918594385343509 0.35510879906487391 0 -0.10918594385343509 0.35510879906487391 0 -0.1136508012236188 0.37633110849055429 0 -0.13029579966624269 0.36904839742441409 0 -0.12365021453331169 0.35636852945536851 0 -0.1136508012236188 0.37633110849055429 0 -0.12365021453331169 0.35636852945536851 0 -0.10918594385343509 0.35510879906487391 0 -0.1136508012236188 0.37633110849055429 0 -0.13029579966624269 0.36904839742441409 0 -0.1136508012236188 0.37633110849055429 0 -0.091339564116386315 0.3706965763510438 0 -0.10402771889055509 0.36763541562836821 0 -0.10918594385343509 0.35510879906487391 0 -0.10402771889055509 0.36763541562836821 0 -0.10918594385343509 0.35510879906487391 0 -0.1136508012236188 0.37633110849055429 0 -0.091339564116386315 0.3706965763510438 0 -0.10918594385343509 0.35510879906487391 0 -0.10266346985122091 0.37392646637975568 0 -0.10402771889055509 0.36763541562836821 0 -0.1136508012236188 0.37633110849055429 0 -0.10266346985122091 0.37392646637975568 0 -0.10402771889055509 0.36763541562836821 0 -0.095295011892300996 0.37506670273382342 0 -0.091339564116386315 0.3706965763510438 0 -0.10402771889055509 0.36763541562836821 0 -0.095295011892300996 0.37506670273382342 0 -0.091339564116386315 0.3706965763510438 0 -0.10918594385343509 0.35510879906487391 0 -0.094552704262952494 0.35212560814186777 0 -0.1046660884950916 0.33362507382547218 0 -0.10918594385343509 0.35510879906487391 0 -0.1046660884950916 0.33362507382547218 0 -0.10918594385343509 0.35510879906487391 0 -0.094552704262952494 0.35212560814186777 0 -0.096875880600343717 0.39618756988263032 0 -0.1082500167617997 0.4064623520207597 0 -0.089132891537137784 0.40635808565336301 0 -0.1067612793999044 0.3927722817437021 0 -0.096875880600343717 0.39618756988263032 0 -0.1082500167617997 0.4064623520207597 0 -0.1067612793999044 0.3927722817437021 0 -0.096875880600343717 0.39618756988263032 0 -0.095216507315106752 0.38439669267830662 0 -0.095216507315106752 0.38439669267830662 0 -0.095295011892300996 0.37506670273382342 0 -0.10847749738474451 0.37859459185738892 0 -0.095295011892300996 0.37506670273382342 0 -0.10847749738474451 0.37859459185738892 0 -0.10266346985122091 0.37392646637975568 0 -0.095295011892300996 0.37506670273382342 0 -0.10847749738474451 0.37859459185738892 0 -0.095216507315106752 0.38439669267830662 0 -0.10847749738474451 0.37859459185738892 0 -0.10907874750421991 0.38448998308028592 0 -0.10266346985122091 0.37392646637975568 0 -0.10847749738474451 0.37859459185738892 0 -0.1136508012236188 0.37633110849055429 0 -0.095216507315106752 0.38439669267830662 0 -0.10847749738474451 0.37859459185738892 0 -0.1067612793999044 0.3927722817437021 0 -0.095216507315106752 0.38439669267830662 0 -0.10907874750421991 0.38448998308028592 0 -0.1284531441338306 0.38394046285741251 0 -0.13029579966624269 0.36904839742441409 0 -0.1136508012236188 0.37633110849055429 0 -0.1067612793999044 0.3927722817437021 0 -0.10907874750421991 0.38448998308028592 0 -0.11468815243080061 0.3888772816569917 0 -0.10907874750421991 0.38448998308028592 0 -0.11468815243080061 0.3888772816569917 0 -0.1148649814971867 0.38210233639949021 0 -0.10847749738474451 0.37859459185738892 0 -0.11446406699757571 0.38019671414583778 0 -0.1136508012236188 0.37633110849055429 0 -0.10847749738474451 0.37859459185738892 0 -0.1136508012236188 0.37633110849055429 0 -0.10907874750421991 0.38448998308028592 0 -0.1148649814971867 0.38210233639949021 0 -0.11446406699757571 0.38019671414583778 0 -0.10847749738474451 0.37859459185738892 0 -0.11446406699757571 0.38019671414583778 0 -0.10847749738474451 0.37859459185738892 0 -0.10907874750421991 0.38448998308028592 0 -0.11446406699757571 0.38019671414583778 0 -0.1148649814971867 0.38210233639949021 0 -0.11446406699757571 0.38019671414583778 0 -0.11446406699757571 0.38019671414583778 0 -0.1136508012236188 0.37633110849055429 0 -0.1284531441338306 0.38394046285741251 0 -0.11446406699757571 0.38019671414583778 0 -0.1284531441338306 0.38394046285741251 0 -0.11446406699757571 0.38019671414583778 0 -0.1136508012236188 0.37633110849055429 0 -0.1284531441338306 0.38394046285741251 0 -0.1148649814971867 0.38210233639949021 0 -0.11446406699757571 0.38019671414583778 0 -0.1284531441338306 0.38394046285741251 0 -0.11468815243080061 0.3888772816569917 0 -0.1148649814971867 0.38210233639949021 0 -0.1284531441338306 0.38394046285741251 0 -0.11468815243080061 0.3888772816569917 0 -0.1183241912536639 0.39459657999153402 0 -0.12582637250862541 0.40516963685766161 0 -0.1183241912536639 0.39459657999153402 0 -0.1082500167617997 0.4064623520207597 0 -0.12582637250862541 0.40516963685766161 0 -0.1284531441338306 0.38394046285741251 0 -0.1183241912536639 0.39459657999153402 0 -0.1067612793999044 0.3927722817437021 0 -0.1183241912536639 0.39459657999153402 0 -0.1082500167617997 0.4064623520207597 0 -0.1067612793999044 0.3927722817437021 0 -0.11468815243080061 0.3888772816569917 0 -0.1183241912536639 0.39459657999153402 0 -0.12582637250862541 0.40516963685766161 0 -0.1231996008834208 0.42639881085791081 0 -0.1231996008834208 0.42639881085791081 0 -0.098610100622489316 0.42453591803248891 0 -0.1082500167617997 0.4064623520207597 0 -0.12582637250862541 0.40516963685766161 0 -0.1231996008834208 0.42639881085791081 0 -0.1082500167617997 0.4064623520207597 0 -0.1231996008834208 0.42639881085791081 0 -0.1205728292582179 0.44762798485816019 0 -0.1231996008834208 0.42639881085791081 0 -0.098610100622489316 0.42453591803248891 0 -0.1036835290135158 0.44236008459213882 0 -0.098610100622489316 0.42453591803248891 0 -0.08766019002062557 0.43632508189671643 0 -0.1036835290135158 0.44236008459213882 0 -0.098610100622489316 0.42453591803248891 0 -0.1082500167617997 0.4064623520207597 0 -0.089132891537137784 0.40635808565336301 0 -0.089132891537137784 0.40635808565336301 0 -0.077117288629656167 0.42384981955002499 0 -0.070939324401208162 0.41179561984863799 0 -0.098610100622489316 0.42453591803248891 0 -0.089132891537137784 0.40635808565336301 0 -0.077117288629656167 0.42384981955002499 0 -0.098610100622489316 0.42453591803248891 0 -0.08766019002062557 0.43632508189671643 0 -0.077117288629656167 0.42384981955002499 0 -0.08766019002062557 0.43632508189671643 0 -0.077117288629656167 0.42384981955002499 0 -0.067566439174446019 0.43932659135653218 0 -0.077117288629656167 0.42384981955002499 0 -0.054551228381880652 0.41712205094834193 0 -0.067566439174446019 0.43932659135653218 0 -0.070939324401208162 0.41179561984863799 0 -0.062802449355065265 0.40773553992998091 0 -0.054551228381880652 0.41712205094834193 0 -0.077117288629656167 0.42384981955002499 0 -0.054551228381880652 0.41712205094834193 0 -0.077117288629656167 0.42384981955002499 0 -0.070939324401208162 0.41179561984863799 0 -0.054551228381880652 0.41712205094834193 0 -0.070939324401208162 0.41179561984863799 0 -0.062802449355065265 0.40773553992998091 0 -0.065441423317382758 0.39941644151882277 0 -0.067920900171846044 0.39078620695296612 0 -0.062154291566120699 0.38075815660313111 0 -0.058000352946317869 0.40062559442740753 0 -0.065441423317382758 0.39941644151882277 0 -0.067920900171846044 0.39078620695296612 0 -0.058000352946317869 0.40062559442740753 0 -0.065441423317382758 0.39941644151882277 0 -0.067920900171846044 0.39078620695296612 0 -0.072244758983263324 0.39529918423180899 0 -0.065441423317382758 0.39941644151882277 0 -0.072244758983263324 0.39529918423180899 0 -0.078215969348603712 0.40037102310483852 0 -0.072244758983263324 0.39529918423180899 0 -0.078215969348603712 0.40037102310483852 0 -0.078136939523753765 0.38756110481489892 0 -0.067920900171846044 0.39078620695296612 0 -0.072244758983263324 0.39529918423180899 0 -0.078136939523753765 0.38756110481489892 0 -0.070939324401208162 0.41179561984863799 0 -0.065441423317382758 0.39941644151882277 0 -0.078215969348603712 0.40037102310483852 0 -0.089132891537137784 0.40635808565336301 0 -0.070939324401208162 0.41179561984863799 0 -0.078215969348603712 0.40037102310483852 0 -0.089132891537137784 0.40635808565336301 0 -0.078215969348603712 0.40037102310483852 0 -0.086979106933745221 0.39251327506496531 0 -0.078215969348603712 0.40037102310483852 0 -0.086979106933745221 0.39251327506496531 0 -0.078136939523753765 0.38756110481489892 0 -0.096875880600343717 0.39618756988263032 0 -0.095216507315106752 0.38439669267830662 0 -0.086979106933745221 0.39251327506496531 0 -0.096875880600343717 0.39618756988263032 0 -0.089132891537137784 0.40635808565336301 0 -0.086979106933745221 0.39251327506496531 0 -0.082915547044562388 0.37178415292286471 0 -0.090008656623773955 0.37658634356315313 0 -0.085276652750513326 0.38098759312972741 0 -0.095216507315106752 0.38439669267830662 0 -0.095295011892300996 0.37506670273382342 0 -0.090008656623773955 0.37658634356315313 0 -0.095216507315106752 0.38439669267830662 0 -0.090008656623773955 0.37658634356315313 0 -0.085276652750513326 0.38098759312972741 0 -0.095216507315106752 0.38439669267830662 0 -0.086979106933745221 0.39251327506496531 0 -0.085276652750513326 0.38098759312972741 0 -0.086979106933745221 0.39251327506496531 0 -0.078136939523753765 0.38756110481489892 0 -0.085276652750513326 0.38098759312972741 0 -0.078136939523753765 0.38756110481489892 0 -0.078586468023807629 0.37780731978115989 0 -0.085276652750513326 0.38098759312972741 0 -0.082915547044562388 0.37178415292286471 0 -0.078586468023807629 0.37780731978115989 0 -0.085276652750513326 0.38098759312972741 0 -0.078136939523753765 0.38756110481489892 0 -0.078586468023807629 0.37780731978115989 0 -0.072175908381283099 0.38135770674065389 0 -0.074080942620887325 0.36987574555111391 0 -0.078586468023807629 0.37780731978115989 0 -0.072175908381283099 0.38135770674065389 0 -0.067920900171846044 0.39078620695296612 0 -0.078136939523753765 0.38756110481489892 0 -0.072175908381283099 0.38135770674065389 0 -0.067920900171846044 0.39078620695296612 0 -0.072175908381283099 0.38135770674065389 0 -0.062154291566120699 0.38075815660313111 0 -0.074080942620887325 0.36987574555111391 0 -0.072175908381283099 0.38135770674065389 0 -0.062154291566120699 0.38075815660313111 0 -0.062154291566120699 0.38075815660313111 0 -0.052934030650872467 0.38703083742350541 0 -0.058000352946317869 0.40062559442740753 0 -0.074080942620887325 0.36987574555111391 0 -0.062154291566120699 0.38075815660313111 0 -0.05098908328580963 0.37605008536516832 0 -0.062154291566120699 0.38075815660313111 0 -0.052934030650872467 0.38703083742350541 0 -0.05098908328580963 0.37605008536516832 0 -0.052934030650872467 0.38703083742350541 0 -0.05098908328580963 0.37605008536516832 0 -0.043087987561371423 0.3912989010638398 0 -0.062154291566120699 0.38075815660313111 0 -0.058000352946317869 0.40062559442740753 0 -0.062802449355065265 0.40773553992998091 0 -0.065441423317382758 0.39941644151882277 0 -0.058000352946317869 0.40062559442740753 0 -0.065441423317382758 0.39941644151882277 0 -0.058000352946317869 0.40062559442740753 0 -0.052934030650872467 0.38703083742350541 0 -0.058000352946317869 0.40062559442740753 0 -0.043087987561371423 0.3912989010638398 0 -0.043087987561371423 0.3912989010638398 0 -0.027897223950732301 0.38222442517922389 0 -0.029772684243853001 0.40521251082679888 0 -0.058000352946317869 0.40062559442740753 0 -0.029772684243853001 0.40521251082679888 0 -0.030150816700491061 0.40984739503695439 0 -0.058000352946317869 0.40062559442740753 0 -0.029772684243853001 0.40521251082679888 0 -0.058000352946317869 0.40062559442740753 0 -0.043087987561371423 0.3912989010638398 0 -0.029772684243853001 0.40521251082679888 0 -0.05098908328580963 0.37605008536516832 0 -0.043087987561371423 0.3912989010638398 0 -0.027897223950732301 0.38222442517922389 0 -0.05098908328580963 0.37605008536516832 0 -0.027897223950732301 0.38222442517922389 0 -0.027897223950732301 0.38222442517922389 0 -0.017116541542245761 0.39354656116536901 0 -0.0038456699322450831 0.38865536975632942 0 -0.027897223950732301 0.38222442517922389 0 -0.0038456699322450831 0.38865536975632942 0 -0.027897223950732301 0.38222442517922389 0 -0.029772684243853001 0.40521251082679888 0 -0.027897223950732301 0.38222442517922389 0 -0.029772684243853001 0.40521251082679888 0 -0.017116541542245761 0.39354656116536901 0 -0.029772684243853001 0.40521251082679888 0 -0.01995545137450257 0.40680778342687612 0 -0.029772684243853001 0.40521251082679888 0 -0.017116541542245761 0.39354656116536901 0 -0.01995545137450257 0.40680778342687612 0 -0.01995545137450257 0.40680778342687612 0 0.0051179241548920951 0.39933249235822299 0 -0.01995545137450257 0.40680778342687612 0 0.0062569560340532994 0.41106722556066511 0 0.0051179241548920951 0.39933249235822299 0 -0.017116541542245761 0.39354656116536901 0 -0.01995545137450257 0.40680778342687612 0 0.0051179241548920951 0.39933249235822299 0 -0.017116541542245761 0.39354656116536901 0 -0.0038456699322450831 0.38865536975632942 0 0.0051179241548920951 0.39933249235822299 0 -0.01443026978900671 0.37274382347287532 0 -0.00087981957629810256 0.37004617894156078 0 -0.0038456699322450831 0.38865536975632942 0 -0.01443026978900671 0.37274382347287532 0 -0.027897223950732301 0.38222442517922389 0 -0.0038456699322450831 0.38865536975632942 0 -0.010758393889383251 0.42494773866136148 0 -0.018044979890104101 0.44078207827288662 0 -0.0021281657377375911 0.43989566915210648 0 -0.010758393889383251 0.42494773866136148 0 -0.0021281657377375911 0.43989566915210648 0 0.0045153601692261239 0.42615740995073359 0 -0.010758393889383251 0.42494773866136148 0 -0.01995545137450257 0.40680778342687612 0 0.0062569560340532994 0.41106722556066511 0 -0.01995545137450257 0.40680778342687612 0 0.0062569560340532994 0.41106722556066511 0 -0.010758393889383251 0.42494773866136148 0 -0.023176858434127309 0.41852297503184321 0 -0.01995545137450257 0.40680778342687612 0 -0.01995545137450257 0.40680778342687612 0 -0.030150816700491061 0.40984739503695439 0 -0.029772684243853001 0.40521251082679888 0 -0.01995545137450257 0.40680778342687612 0 -0.030150816700491061 0.40984739503695439 0 -0.023176858434127309 0.41852297503184321 0 -0.01995545137450257 0.40680778342687612 0 -0.030150816700491061 0.40984739503695439 0 -0.029772684243853001 0.40521251082679888 0 -0.030150816700491061 0.40984739503695439 0 -0.023176858434127309 0.41852297503184321 0 -0.030150816700491061 0.40984739503695439 0 -0.031337084794427872 0.42438784286436171 0 -0.030150816700491061 0.40984739503695439 0 -0.031337084794427872 0.42438784286436171 0 -0.010758393889383251 0.42494773866136148 0 -0.024359255722819571 0.43045035540818127 0 -0.018044979890104101 0.44078207827288662 0 -0.023176858434127309 0.41852297503184321 0 -0.036333588189583751 0.42992516214321258 0 -0.023176858434127309 0.41852297503184321 0 -0.036333588189583751 0.42992516214321258 0 -0.031337084794427872 0.42438784286436171 0 -0.023176858434127309 0.41852297503184321 0 -0.024359255722819571 0.43045035540818127 0 -0.036333588189583751 0.42992516214321258 0 -0.010758393889383251 0.42494773866136148 0 -0.023176858434127309 0.41852297503184321 0 -0.024359255722819571 0.43045035540818127 0 -0.024359255722819571 0.43045035540818127 0 -0.032066469395329027 0.43854998078171992 0 -0.018044979890104101 0.44078207827288662 0 -0.024359255722819571 0.43045035540818127 0 -0.036333588189583751 0.42992516214321258 0 -0.032066469395329027 0.43854998078171992 0 -0.036333588189583751 0.42992516214321258 0 -0.054551228381880652 0.41712205094834193 0 -0.049490317945040482 0.44132734925458161 0 -0.036333588189583751 0.42992516214321258 0 -0.049490317945040482 0.44132734925458161 0 -0.032066469395329027 0.43854998078171992 0 -0.036333588189583751 0.42992516214321258 0 -0.031337084794427872 0.42438784286436171 0 -0.054551228381880652 0.41712205094834193 0 -0.036333588189583751 0.42992516214321258 0 -0.049490317945040482 0.44132734925458161 0 -0.030150816700491061 0.40984739503695439 0 -0.054551228381880652 0.41712205094834193 0 -0.030150816700491061 0.40984739503695439 0 -0.031337084794427872 0.42438784286436171 0 -0.054551228381880652 0.41712205094834193 0 -0.058000352946317869 0.40062559442740753 0 -0.030150816700491061 0.40984739503695439 0 -0.054551228381880652 0.41712205094834193 0 -0.062802449355065265 0.40773553992998091 0 -0.058000352946317869 0.40062559442740753 0 -0.054551228381880652 0.41712205094834193 0 -0.058000352946317869 0.40062559442740753 0 -0.054551228381880652 0.41712205094834193 0 -0.054551228381880652 0.41712205094834193 0 -0.049490317945040482 0.44132734925458161 0 -0.067566439174446019 0.43932659135653218 0 -0.054551228381880652 0.41712205094834193 0 -0.049490317945040482 0.44132734925458161 0 -0.049490317945040482 0.44132734925458161 0 -0.068155680773031788 0.45750355439234391 0 -0.067566439174446019 0.43932659135653218 0 -0.049490317945040482 0.44132734925458161 0 -0.045334342195398149 0.46120453025374658 0 -0.049490317945040482 0.44132734925458161 0 -0.068155680773031788 0.45750355439234391 0 -0.045334342195398149 0.46120453025374658 0 -0.057227565891968687 0.47414549024026259 0 -0.068155680773031788 0.45750355439234391 0 -0.049490317945040482 0.44132734925458161 0 -0.045334342195398149 0.46120453025374658 0 -0.068155680773031788 0.45750355439234391 0 -0.045334342195398149 0.46120453025374658 0 -0.03013564349722082 0.46553738519070192 0 -0.057227565891968687 0.47414549024026259 0 -0.045334342195398149 0.46120453025374658 0 -0.03210420522909728 0.4502649588297376 0 -0.03013564349722082 0.46553738519070192 0 -0.049490317945040482 0.44132734925458161 0 -0.03210420522909728 0.4502649588297376 0 -0.032066469395329027 0.43854998078171992 0 -0.049490317945040482 0.44132734925458161 0 -0.045334342195398149 0.46120453025374658 0 -0.03210420522909728 0.4502649588297376 0 -0.03210420522909728 0.4502649588297376 0 -0.032066469395329027 0.43854998078171992 0 -0.018044979890104101 0.44078207827288662 0 -0.03210420522909728 0.4502649588297376 0 -0.018044979890104101 0.44078207827288662 0 -0.018519750317616109 0.45226818740216718 0 -0.03013564349722082 0.46553738519070192 0 -0.0030437211024727639 0.4569292801411412 0 -0.021426870931403531 0.47846464007056783 0 -0.03013564349722082 0.46553738519070192 0 -0.0030437211024727639 0.4569292801411412 0 -0.03210420522909728 0.4502649588297376 0 -0.018519750317616109 0.45226818740216718 0 -0.03013564349722082 0.46553738519070192 0 -0.018519750317616109 0.45226818740216718 0 -0.03013564349722082 0.46553738519070192 0 -0.0030437211024727639 0.4569292801411412 0 -0.0030437211024727639 0.4569292801411412 0 -0.021426870931403531 0.47846464007056783 0 -0.018044979890104101 0.44078207827288662 0 -0.0021281657377375911 0.43989566915210648 0 -0.0095731882271606547 0.44773393208930778 0 -0.0030437211024727639 0.4569292801411412 0 -0.0021281657377375911 0.43989566915210648 0 -0.0095731882271606547 0.44773393208930778 0 -0.018519750317616109 0.45226818740216718 0 -0.0030437211024727639 0.4569292801411412 0 -0.0095731882271606547 0.44773393208930778 0 -0.018044979890104101 0.44078207827288662 0 -0.018519750317616109 0.45226818740216718 0 -0.0095731882271606547 0.44773393208930778 0 -0.01027405539571569 0.5 0 -0.021426870931403531 0.47846464007056783 0 0.0021015448394762831 0.47993526466174352 0 -0.0030437211024727639 0.4569292801411412 0 -0.021426870931403531 0.47846464007056783 0 0.0021015448394762831 0.47993526466174352 0 -0.03013564349722082 0.46553738519070192 0 -0.021426870931403531 0.47846464007056783 0 -0.039767007291828069 0.48142286728727579 0 -0.01027405539571569 0.5 0 -0.021426870931403531 0.47846464007056783 0 -0.039810020760332597 0.499999999999996 0 -0.021426870931403531 0.47846464007056783 0 -0.039810020760332597 0.499999999999996 0 -0.039810020760332597 0.499999999999996 0 -0.039767007291828069 0.48142286728727579 0 -0.051037937123749377 0.48897582105949161 0 -0.021426870931403531 0.47846464007056783 0 -0.039810020760332597 0.499999999999996 0 -0.039767007291828069 0.48142286728727579 0 -0.03013564349722082 0.46553738519070192 0 -0.057227565891968687 0.47414549024026259 0 -0.03013564349722082 0.46553738519070192 0 -0.039767007291828069 0.48142286728727579 0 -0.057227565891968687 0.47414549024026259 0 -0.039767007291828069 0.48142286728727579 0 -0.057227565891968687 0.47414549024026259 0 -0.051037937123749377 0.48897582105949161 0 -0.057227565891968687 0.47414549024026259 0 -0.051037937123749377 0.48897582105949161 0 -0.0634626098652461 0.48696969838654508 0 -0.039810020760332597 0.499999999999996 0 -0.051037937123749377 0.48897582105949161 0 -0.058041219367492181 0.5 0 -0.051037937123749377 0.48897582105949161 0 -0.058041219367492181 0.5 0 -0.0634626098652461 0.48696969838654508 0 -0.058041219367492181 0.5 0 -0.076272417974651785 0.50000000000000089 0 -0.0634626098652461 0.48696969838654508 0 -0.076272417974651785 0.50000000000000089 0 -0.0634626098652461 0.48696969838654508 0 -0.076428571603230189 0.48383736307845682 0 -0.079576396542757916 0.49999999999999778 0 -0.091039221735841169 0.48254266161938791 0 -0.099570611304334589 0.47788725767925139 0 -0.079576396542757916 0.49999999999999778 0 -0.099570611304334589 0.47788725767925139 0 -0.076272417974651785 0.50000000000000089 0 -0.079576396542757916 0.49999999999999778 0 -0.091039221735841169 0.48254266161938791 0 -0.076272417974651785 0.50000000000000089 0 -0.091039221735841169 0.48254266161938791 0 -0.076272417974651785 0.50000000000000089 0 -0.091039221735841169 0.48254266161938791 0 -0.076428571603230189 0.48383736307845682 0 -0.086821043601023384 0.47367975953010583 0 -0.091039221735841169 0.48254266161938791 0 -0.076428571603230189 0.48383736307845682 0 -0.086821043601023384 0.47367975953010583 0 -0.070999075872179379 0.47391048847432721 0 -0.076428571603230189 0.48383736307845682 0 -0.057227565891968687 0.47414549024026259 0 -0.0634626098652461 0.48696969838654508 0 -0.070999075872179379 0.47391048847432721 0 -0.0634626098652461 0.48696969838654508 0 -0.070999075872179379 0.47391048847432721 0 -0.076428571603230189 0.48383736307845682 0 -0.086821043601023384 0.47367975953010583 0 -0.070999075872179379 0.47391048847432721 0 -0.068155680773031788 0.45750355439234391 0 -0.057227565891968687 0.47414549024026259 0 -0.070999075872179379 0.47391048847432721 0 -0.068155680773031788 0.45750355439234391 0 -0.086821043601023384 0.47367975953010583 0 -0.068155680773031788 0.45750355439234391 0 -0.068155680773031788 0.45750355439234391 0 -0.067566439174446019 0.43932659135653218 0 -0.086591909557826266 0.45249742446004221 0 -0.08766019002062557 0.43632508189671643 0 -0.067566439174446019 0.43932659135653218 0 -0.086591909557826266 0.45249742446004221 0 -0.08766019002062557 0.43632508189671643 0 -0.086591909557826266 0.45249742446004221 0 -0.1036835290135158 0.44236008459213882 0 -0.086821043601023384 0.47367975953010583 0 -0.068155680773031788 0.45750355439234391 0 -0.086591909557826266 0.45249742446004221 0 -0.086821043601023384 0.47367975953010583 0 -0.086591909557826266 0.45249742446004221 0 -0.10580602549703021 0.46508532323877461 0 -0.086591909557826266 0.45249742446004221 0 -0.10580602549703021 0.46508532323877461 0 -0.1036835290135158 0.44236008459213882 0 -0.10580602549703021 0.46508532323877461 0 -0.1195648260659135 0.45577451535850699 0 -0.099570611304334589 0.47788725767925139 0 -0.10580602549703021 0.46508532323877461 0 -0.1036835290135158 0.44236008459213882 0 -0.1205728292582179 0.44762798485816019 0 -0.1231996008834208 0.42639881085791081 0 -0.1036835290135158 0.44236008459213882 0 -0.1205728292582179 0.44762798485816019 0 -0.12543055554419991 0.4418851732852449 0 -0.1231996008834208 0.42639881085791081 0 -0.1205728292582179 0.44762798485816019 0 -0.12543055554419991 0.4418851732852449 0 -0.1220603667470337 0.45301455460532869 0 -0.1220603667470337 0.45301455460532869 0 -0.1205728292582179 0.44762798485816019 0 -0.1195648260659135 0.45577451535850699 0 -0.12543055554419991 0.4418851732852449 0 -0.1220603667470337 0.45301455460532869 0 -0.1205728292582179 0.44762798485816019 0 -0.1205728292582179 0.44762798485816019 0 -0.1195648260659135 0.45577451535850699 0 -0.12543055554419991 0.4418851732852449 0 -0.1205728292582179 0.44762798485816019 0 -0.1220603667470337 0.45301455460532869 0 -0.1195648260659135 0.45577451535850699 0 -0.11494632252728711 0.47650727730266318 0 -0.10580602549703021 0.46508532323877461 0 -0.1205728292582179 0.44762798485816019 0 -0.1195648260659135 0.45577451535850699 0 -0.099570611304334589 0.47788725767925139 0 -0.1220603667470337 0.45301455460532869 0 -0.11494632252728711 0.47650727730266318 0 -0.13293933748483619 0.4720456825956364 0 -0.1220603667470337 0.45301455460532869 0 -0.11494632252728711 0.47650727730266318 0 -0.10580602549703021 0.46508532323877461 0 -0.1205728292582179 0.44762798485816019 0 -0.1195648260659135 0.45577451535850699 0 -0.1220603667470337 0.45301455460532869 0 -0.1195648260659135 0.45577451535850699 0 -0.1195648260659135 0.45577451535850699 0 -0.11494632252728711 0.47650727730266318 0 -0.099570611304334589 0.47788725767925139 0 -0.13709577279281929 0.5 0 -0.11494632252728711 0.47650727730266318 0 -0.1078322783075407 0.49999999999999761 0 -0.11494632252728711 0.47650727730266318 0 -0.1078322783075407 0.49999999999999761 0 -0.11494632252728711 0.47650727730266318 0 -0.1078322783075407 0.49999999999999761 0 -0.099570611304334589 0.47788725767925139 0 -0.079576396542757916 0.49999999999999778 0 -0.1078322783075407 0.49999999999999761 0 -0.099570611304334589 0.47788725767925139 0 -0.086821043601023384 0.47367975953010583 0 -0.091039221735841169 0.48254266161938791 0 -0.10580602549703021 0.46508532323877461 0 -0.091039221735841169 0.48254266161938791 0 -0.10580602549703021 0.46508532323877461 0 -0.099570611304334589 0.47788725767925139 0 -0.091039221735841169 0.48254266161938791 0 -0.10580602549703021 0.46508532323877461 0 -0.1711712645160397 0.075006139857380527 0 -0.16884841395719841 0.097601775460045392 0 -0.14750800171561601 0.089485490051859573 0 -0.1711712645160397 0.075006139857380527 0 -0.14750800171561601 0.089485490051859573 0 -0.15139506703433711 0.06627227086817386 0 -0.1711712645160397 0.075006139857380527 0 -0.1843700791883115 0.058462642684422833 0 -0.19455933800273759 0.07429860889728454 0 -0.1711712645160397 0.075006139857380527 0 -0.18467138450828241 0.089848248291311328 0 -0.19455933800273759 0.07429860889728454 0 -0.1711712645160397 0.075006139857380527 0 -0.18467138450828241 0.089848248291311328 0 -0.16884841395719841 0.097601775460045392 0 -0.18467138450828241 0.089848248291311328 0 -0.18597382569722021 0.10629330672598419 0 -0.16884841395719841 0.097601775460045392 0 -0.18597382569722021 0.10629330672598419 0 -0.17236277362289781 0.1166057288357769 0 -0.16884841395719841 0.097601775460045392 0 -0.18597382569722021 0.10629330672598419 0 -0.18421424307235509 0.12095890305881379 0 -0.17236277362289781 0.1166057288357769 0 -0.18421424307235509 0.12095890305881379 0 -0.17236277362289781 0.1166057288357769 0 -0.17482441116505529 0.13165925239651821 0 -0.17236277362289781 0.1166057288357769 0 -0.16172739713684009 0.12557701966577631 0 -0.17482441116505529 0.13165925239651821 0 -0.17236277362289781 0.1166057288357769 0 -0.15759596173732859 0.11087170318080811 0 -0.16172739713684009 0.12557701966577631 0 -0.15759596173732859 0.11087170318080811 0 -0.16884841395719841 0.097601775460045392 0 -0.14750800171561601 0.089485490051859573 0 -0.17236277362289781 0.1166057288357769 0 -0.15759596173732859 0.11087170318080811 0 -0.16884841395719841 0.097601775460045392 0 -0.15759596173732859 0.11087170318080811 0 -0.13746276640735841 0.10846006176325861 0 -0.14750800171561601 0.089485490051859573 0 -0.15759596173732859 0.11087170318080811 0 -0.13746276640735841 0.10846006176325861 0 -0.1435357231901325 0.12716212974980601 0 -0.15759596173732859 0.11087170318080811 0 -0.16172739713684009 0.12557701966577631 0 -0.1435357231901325 0.12716212974980601 0 -0.13746276640735841 0.10846006176325861 0 -0.1435357231901325 0.12716212974980601 0 -0.11980067290913921 0.11633006653277669 0 -0.13746276640735841 0.10846006176325861 0 -0.1188734724845756 0.098450919301042744 0 -0.11980067290913921 0.11633006653277669 0 -0.13746276640735841 0.10846006176325861 0 -0.14750800171561601 0.089485490051859573 0 -0.1188734724845756 0.098450919301042744 0 -0.14750800171561601 0.089485490051859573 0 -0.1292250598048533 0.073547824708840526 0 -0.1188734724845756 0.098450919301042744 0 -0.14750800171561601 0.089485490051859573 0 -0.15139506703433711 0.06627227086817386 0 -0.1292250598048533 0.073547824708840526 0 -0.15139506703433711 0.06627227086817386 0 -0.1292250598048533 0.073547824708840526 0 -0.13957664712513099 0.048644730116638293 0 -0.1292250598048533 0.073547824708840526 0 -0.13957664712513099 0.048644730116638293 0 -0.1159912604935 0.053330403839997292 0 -0.1292250598048533 0.073547824708840526 0 -0.13957664712513099 0.048644730116638293 0 -0.13957664712513099 0.048644730116638293 0 -0.12559464592930161 0.033607998242454432 0 -0.14992823444540859 0.023741635524436099 0 -0.13957664712513099 0.048644730116638293 0 -0.12559464592930161 0.033607998242454432 0 -0.1159912604935 0.053330403839997292 0 -0.13957664712513099 0.048644730116638293 0 -0.14992823444540859 0.023741635524436099 0 -0.16776534198832629 0.045840038782040883 0 -0.13957664712513099 0.048644730116638293 0 -0.14992823444540859 0.023741635524436099 0 -0.15139506703433711 0.06627227086817386 0 -0.13957664712513099 0.048644730116638293 0 -0.16776534198832629 0.045840038782040883 0 -0.14992823444540859 0.023741635524436099 0 -0.14131752195370059 0.001569289130654902 0 -0.12332417756614659 0.01212573047390467 0 -0.12559464592930161 0.033607998242454432 0 -0.14992823444540859 0.023741635524436099 0 -0.12332417756614659 0.01212573047390467 0 -0.16027982176568631 -0.00116145906776613 0 -0.14992823444540859 0.023741635524436099 0 -0.14131752195370059 0.001569289130654902 0 -0.16027982176568631 -0.00116145906776613 0 -0.14992823444540859 0.023741635524436099 0 -0.1727975559702061 0.02376763164536911 0 -0.19587064460800779 0.04229592024158281 0 -0.1901437370436016 0.0081220227465518963 0 -0.16027982176568631 -0.00116145906776613 0 -0.14992823444540859 0.023741635524436099 0 -0.1727975559702061 0.02376763164536911 0 -0.14992823444540859 0.023741635524436099 0 -0.1727975559702061 0.02376763164536911 0 -0.16776534198832629 0.045840038782040883 0 -0.16027982176568631 -0.00116145906776613 0 -0.1727975559702061 0.02376763164536911 0 -0.1901437370436016 0.0081220227465518963 0 -0.1711712645160397 0.075006139857380527 0 -0.15139506703433711 0.06627227086817386 0 -0.16776534198832629 0.045840038782040883 0 -0.1727975559702061 0.02376763164536911 0 -0.16776534198832629 0.045840038782040883 0 -0.19587064460800779 0.04229592024158281 0 -0.1711712645160397 0.075006139857380527 0 -0.16776534198832629 0.045840038782040883 0 -0.1843700791883115 0.058462642684422833 0 -0.16776534198832629 0.045840038782040883 0 -0.1843700791883115 0.058462642684422833 0 -0.19587064460800779 0.04229592024158281 0 -0.1843700791883115 0.058462642684422833 0 -0.19587064460800779 0.04229592024158281 0 -0.2061875481735056 0.056289735421495471 0 -0.19587064460800779 0.04229592024158281 0 -0.210273305727538 0.021503848082506011 0 -0.22473871637992121 0.039226970162926159 0 -0.19587064460800779 0.04229592024158281 0 -0.2061875481735056 0.056289735421495471 0 -0.22473871637992121 0.039226970162926159 0 -0.19587064460800779 0.04229592024158281 0 -0.22473871637992121 0.039226970162926159 0 -0.2061875481735056 0.056289735421495471 0 -0.22293294759648211 0.051161972205292207 0 -0.21465356326557331 0.072292298337464395 0 -0.2061875481735056 0.056289735421495471 0 -0.22293294759648211 0.051161972205292207 0 -0.22473871637992121 0.039226970162926159 0 -0.19587064460800779 0.04229592024158281 0 -0.1901437370436016 0.0081220227465518963 0 -0.210273305727538 0.021503848082506011 0 -0.1901437370436016 0.0081220227465518963 0 -0.210273305727538 0.021503848082506011 0 -0.20447405146865369 0.0015694416137433901 0 -0.210273305727538 0.021503848082506011 0 -0.20447405146865369 0.0015694416137433901 0 -0.2212337546737895 0.008973270288563498 0 -0.2289417689957631 -0.0050995161233011316 0 -0.2212337546737895 0.008973270288563498 0 -0.2365649664175089 0.015926478330844041 0 -0.22524719633171369 0.023345299879103401 0 -0.23599870550918969 0.029008324238861859 0 -0.22473871637992121 0.039226970162926159 0 -0.210273305727538 0.021503848082506011 0 -0.22524719633171369 0.023345299879103401 0 -0.22473871637992121 0.039226970162926159 0 -0.22524719633171369 0.023345299879103401 0 -0.23599870550918969 0.029008324238861859 0 -0.2365649664175089 0.015926478330844041 0 -0.2212337546737895 0.008973270288563498 0 -0.22524719633171369 0.023345299879103401 0 -0.2365649664175089 0.015926478330844041 0 -0.210273305727538 0.021503848082506011 0 -0.2212337546737895 0.008973270288563498 0 -0.22524719633171369 0.023345299879103401 0 -0.25633418442573502 0.021658113668284851 0 -0.24498279436372289 0.02620963615352211 0 -0.2365649664175089 0.015926478330844041 0 -0.2536067881518359 0.03615802008428208 0 -0.23599870550918969 0.029008324238861859 0 -0.24498279436372289 0.02620963615352211 0 -0.23599870550918969 0.029008324238861859 0 -0.24498279436372289 0.02620963615352211 0 -0.2365649664175089 0.015926478330844041 0 -0.25633418442573502 0.021658113668284851 0 -0.2365649664175089 0.015926478330844041 0 -0.2479964616934921 0.001751450810798965 0 -0.2289417689957631 -0.0050995161233011316 0 -0.2365649664175089 0.015926478330844041 0 -0.2479964616934921 0.001751450810798965 0 -0.22293294759648211 0.051161972205292207 0 -0.21465356326557331 0.072292298337464395 0 -0.22293294759648211 0.051161972205292207 0 -0.23606616139967501 0.051650770750553979 0 -0.23128344769709511 0.070367681396135973 0 -0.22293294759648211 0.051161972205292207 0 -0.22473871637992121 0.039226970162926159 0 -0.23606616139967501 0.051650770750553979 0 -0.2536067881518359 0.03615802008428208 0 -0.23599870550918969 0.029008324238861859 0 -0.22473871637992121 0.039226970162926159 0 -0.2536067881518359 0.03615802008428208 0 -0.22473871637992121 0.039226970162926159 0 -0.2536067881518359 0.03615802008428208 0 -0.22473871637992121 0.039226970162926159 0 -0.23606616139967501 0.051650770750553979 0 -0.23606616139967501 0.051650770750553979 0 -0.24813832050515441 0.06523053509607378 0 -0.23128344769709511 0.070367681396135973 0 -0.2536067881518359 0.03615802008428208 0 -0.23606616139967501 0.051650770750553979 0 -0.24813832050515441 0.06523053509607378 0 -0.24813832050515441 0.06523053509607378 0 -0.23128344769709511 0.070367681396135973 0 -0.24266985285847051 0.09430305010786505 0 -0.25913976470121758 0.080991104984854567 0 -0.24813832050515441 0.06523053509607378 0 -0.24266985285847051 0.09430305010786505 0 -0.24813832050515441 0.06523053509607378 0 -0.24266985285847051 0.09430305010786505 0 -0.2232398405572166 0.087567461879566627 0 -0.23128344769709511 0.070367681396135973 0 -0.24266985285847051 0.09430305010786505 0 -0.2232398405572166 0.087567461879566627 0 -0.23128344769709511 0.070367681396135973 0 -0.21465356326557331 0.072292298337464395 0 -0.22293294759648211 0.051161972205292207 0 -0.23128344769709511 0.070367681396135973 0 -0.21465356326557331 0.072292298337464395 0 -0.2061875481735056 0.056289735421495471 0 -0.21465356326557331 0.072292298337464395 0 -0.19455933800273759 0.07429860889728454 0 -0.21465356326557331 0.072292298337464395 0 -0.20637417893466439 0.093422624469636562 0 -0.2232398405572166 0.087567461879566627 0 -0.21465356326557331 0.072292298337464395 0 -0.20637417893466439 0.093422624469636562 0 -0.21465356326557331 0.072292298337464395 0 -0.20637417893466439 0.093422624469636562 0 -0.19455933800273759 0.07429860889728454 0 -0.18467138450828241 0.089848248291311328 0 -0.20637417893466439 0.093422624469636562 0 -0.19455933800273759 0.07429860889728454 0 -0.1843700791883115 0.058462642684422833 0 -0.2061875481735056 0.056289735421495471 0 -0.19455933800273759 0.07429860889728454 0 -0.18421424307235509 0.12095890305881379 0 -0.19809479460375551 0.1145529506018088 0 -0.1898154102728466 0.13568327673398109 0 -0.18597382569722021 0.10629330672598419 0 -0.18421424307235509 0.12095890305881379 0 -0.19809479460375551 0.1145529506018088 0 -0.20637417893466439 0.093422624469636562 0 -0.19809479460375551 0.1145529506018088 0 -0.18467138450828241 0.089848248291311328 0 -0.18597382569722021 0.10629330672598419 0 -0.20637417893466439 0.093422624469636562 0 -0.18597382569722021 0.10629330672598419 0 -0.20637417893466439 0.093422624469636562 0 -0.19809479460375551 0.1145529506018088 0 -0.20637417893466439 0.093422624469636562 0 -0.19809479460375551 0.1145529506018088 0 -0.22158757336239801 0.1113429802786722 0 -0.2232398405572166 0.087567461879566627 0 -0.20637417893466439 0.093422624469636562 0 -0.22158757336239801 0.1113429802786722 0 -0.19809479460375551 0.1145529506018088 0 -0.22158757336239801 0.1113429802786722 0 -0.20050529386632471 0.12838291044947819 0 -0.22158757336239801 0.1113429802786722 0 -0.20050529386632471 0.12838291044947819 0 -0.22158757336239801 0.1113429802786722 0 -0.20050529386632471 0.12838291044947819 0 -0.2184048750017199 0.1313562180074577 0 -0.22158757336239801 0.1113429802786722 0 -0.23811807215611311 0.1185020984244162 0 -0.2184048750017199 0.1313562180074577 0 -0.22158757336239801 0.1113429802786722 0 -0.24266985285847051 0.09430305010786505 0 -0.22158757336239801 0.1113429802786722 0 -0.24266985285847051 0.09430305010786505 0 -0.23811807215611311 0.1185020984244162 0 -0.2232398405572166 0.087567461879566627 0 -0.22158757336239801 0.1113429802786722 0 -0.24266985285847051 0.09430305010786505 0 -0.25221335592051047 0.1122038124009291 0 -0.24266985285847051 0.09430305010786505 0 -0.23811807215611311 0.1185020984244162 0 -0.24266985285847051 0.09430305010786505 0 -0.23811807215611311 0.1185020984244162 0 -0.25221335592051047 0.1122038124009291 0 -0.23811807215611311 0.1185020984244162 0 -0.24928655479220371 0.12736228417046699 0 -0.23811807215611311 0.1185020984244162 0 -0.24928655479220371 0.12736228417046699 0 -0.23356629145375701 0.1427011467409674 0 -0.25067899134314953 0.14316715857932191 0 -0.24928655479220371 0.12736228417046699 0 -0.23356629145375701 0.1427011467409674 0 -0.23811807215611311 0.1185020984244162 0 -0.23356629145375701 0.1427011467409674 0 -0.23811807215611311 0.1185020984244162 0 -0.23356629145375701 0.1427011467409674 0 -0.2184048750017199 0.1313562180074577 0 -0.23356629145375701 0.1427011467409674 0 -0.22901451075140081 0.1669001950575186 0 -0.21147588350800561 0.14837993260236909 0 -0.23356629145375701 0.1427011467409674 0 -0.2184048750017199 0.1313562180074577 0 -0.21147588350800561 0.14837993260236909 0 -0.23356629145375701 0.1427011467409674 0 -0.22901451075140081 0.1669001950575186 0 -0.25067899134314953 0.14316715857932191 0 -0.23356629145375701 0.1427011467409674 0 -0.24762251711130989 0.15780097984971159 0 -0.23356629145375701 0.1427011467409674 0 -0.24762251711130989 0.15780097984971159 0 -0.22901451075140081 0.1669001950575186 0 -0.24762251711130989 0.15780097984971159 0 -0.247977347910708 0.17381395201700811 0 -0.22901451075140081 0.1669001950575186 0 -0.247977347910708 0.17381395201700811 0 -0.23681234476122251 0.18123021728975819 0 -0.22901451075140081 0.1669001950575186 0 -0.247977347910708 0.17381395201700811 0 -0.23681234476122251 0.18123021728975819 0 -0.24579479033373661 0.1931074787104361 0 -0.23681234476122251 0.18123021728975819 0 -0.22901451075140081 0.1669001950575186 0 -0.2244627300490446 0.19109924337406989 0 -0.22901451075140081 0.1669001950575186 0 -0.21241003655471949 0.17908286763696829 0 -0.2244627300490446 0.19109924337406989 0 -0.22901451075140081 0.1669001950575186 0 -0.2244627300490446 0.19109924337406989 0 -0.22901451075140081 0.1669001950575186 0 -0.20704156133192181 0.16504857704935891 0 -0.21147588350800561 0.14837993260236909 0 -0.22901451075140081 0.1669001950575186 0 -0.20704156133192181 0.16504857704935891 0 -0.21241003655471949 0.17908286763696829 0 -0.20704156133192181 0.16504857704935891 0 -0.21241003655471949 0.17908286763696829 0 -0.19553293149171419 0.17688649995016681 0 -0.21241003655471949 0.17908286763696829 0 -0.19553293149171419 0.17688649995016681 0 -0.20077359137631889 0.19693793164549961 0 -0.19553293149171419 0.17688649995016681 0 -0.20077359137631889 0.19693793164549961 0 -0.18763212765137979 0.18808778620069039 0 -0.19553293149171419 0.17688649995016681 0 -0.20077359137631889 0.19693793164549961 0 -0.19553293149171419 0.17688649995016681 0 -0.19029227160710971 0.15683506825483409 0 -0.18118028017317919 0.16672300267686299 0 -0.20704156133192181 0.16504857704935891 0 -0.19553293149171419 0.17688649995016681 0 -0.19029227160710971 0.15683506825483409 0 -0.20704156133192181 0.16504857704935891 0 -0.19029227160710971 0.15683506825483409 0 -0.21147588350800561 0.14837993260236909 0 -0.19553293149171419 0.17688649995016681 0 -0.19029227160710971 0.15683506825483409 0 -0.19029227160710971 0.15683506825483409 0 -0.1973745198030824 0.1435697982951617 0 -0.21147588350800561 0.14837993260236909 0 -0.19029227160710971 0.15683506825483409 0 -0.1973745198030824 0.1435697982951617 0 -0.17942301437025129 0.14542284062028421 0 -0.19809479460375551 0.1145529506018088 0 -0.1898154102728466 0.13568327673398109 0 -0.20050529386632471 0.12838291044947819 0 -0.1898154102728466 0.13568327673398109 0 -0.20050529386632471 0.12838291044947819 0 -0.17942301437025129 0.14542284062028421 0 -0.1973745198030824 0.1435697982951617 0 -0.20050529386632471 0.12838291044947819 0 -0.17942301437025129 0.14542284062028421 0 -0.19809479460375551 0.1145529506018088 0 -0.1898154102728466 0.13568327673398109 0 -0.20050529386632471 0.12838291044947819 0 -0.17942301437025129 0.14542284062028421 0 -0.1973745198030824 0.1435697982951617 0 -0.20050529386632471 0.12838291044947819 0 -0.2056353212585415 0.13859239388291569 0 -0.2056353212585415 0.13859239388291569 0 -0.2184048750017199 0.1313562180074577 0 -0.21147588350800561 0.14837993260236909 0 -0.20050529386632471 0.12838291044947819 0 -0.2056353212585415 0.13859239388291569 0 -0.2184048750017199 0.1313562180074577 0 -0.1973745198030824 0.1435697982951617 0 -0.2056353212585415 0.13859239388291569 0 -0.21147588350800561 0.14837993260236909 0 -0.23051586595270601 0.24702283913706391 0 -0.24249599570668121 0.22914751995652369 0 -0.2287922861393612 0.2272572477849206 0 -0.23051586595270601 0.24702283913706391 0 -0.2287922861393612 0.2272572477849206 0 -0.21691059416941341 0.23124935450524869 0 -0.23051586595270601 0.24702283913706391 0 -0.21691059416941341 0.23124935450524869 0 -0.2139102389921374 0.24720041731987641 0 -0.25184776955068922 0.24631017592718801 0 -0.23051586595270601 0.24702283913706391 0 -0.24249599570668121 0.22914751995652369 0 -0.23051586595270601 0.24702283913706391 0 -0.24249599570668121 0.22914751995652369 0 -0.25447612546065629 0.21127220077598349 0 -0.24249599570668121 0.22914751995652369 0 -0.24249599570668121 0.22914751995652369 0 -0.2287922861393612 0.2272572477849206 0 -0.23412802552131681 0.21356823363514549 0 -0.2287922861393612 0.2272572477849206 0 -0.21991094934668981 0.21529829169062131 0 -0.21691059416941341 0.23124935450524869 0 -0.21991094934668981 0.21529829169062131 0 -0.23412802552131681 0.21356823363514549 0 -0.2244627300490446 0.19109924337406989 0 -0.21991094934668981 0.21529829169062131 0 -0.2244627300490446 0.19109924337406989 0 -0.2287922861393612 0.2272572477849206 0 -0.21991094934668981 0.21529829169062131 0 -0.23412802552131681 0.21356823363514549 0 -0.21991094934668981 0.21529829169062131 0 -0.23412802552131681 0.21356823363514549 0 -0.25447612546065629 0.21127220077598349 0 -0.24249599570668121 0.22914751995652369 0 -0.23412802552131681 0.21356823363514549 0 -0.25447612546065629 0.21127220077598349 0 -0.23412802552131681 0.21356823363514549 0 -0.24579479033373661 0.1931074787104361 0 -0.23681234476122251 0.18123021728975819 0 -0.24579479033373661 0.1931074787104361 0 -0.2244627300490446 0.19109924337406989 0 -0.23412802552131681 0.21356823363514549 0 -0.24579479033373661 0.1931074787104361 0 -0.2244627300490446 0.19109924337406989 0 -0.2244627300490446 0.19109924337406989 0 -0.20077359137631889 0.19693793164549961 0 -0.2115849623773853 0.2048228297729135 0 -0.21241003655471949 0.17908286763696829 0 -0.2244627300490446 0.19109924337406989 0 -0.20077359137631889 0.19693793164549961 0 -0.20077359137631889 0.19693793164549961 0 -0.18763212765137979 0.18808778620069039 0 -0.17620474499852459 0.19809916179316411 0 -0.2060142512609224 0.21698936334083271 0 -0.1777395027808544 0.22043008179613721 0 -0.20077359137631889 0.19693793164549961 0 -0.2060142512609224 0.21698936334083271 0 -0.1777395027808544 0.22043008179613721 0 -0.20077359137631889 0.19693793164549961 0 -0.2060142512609224 0.21698936334083271 0 -0.21991094934668981 0.21529829169062131 0 -0.2244627300490446 0.19109924337406989 0 -0.2115849623773853 0.2048228297729135 0 -0.20077359137631889 0.19693793164549961 0 -0.2060142512609224 0.21698936334083271 0 -0.2115849623773853 0.2048228297729135 0 -0.21991094934668981 0.21529829169062131 0 -0.2060142512609224 0.21698936334083271 0 -0.2115849623773853 0.2048228297729135 0 -0.21991094934668981 0.21529829169062131 0 -0.2060142512609224 0.21698936334083271 0 -0.21262852542381011 0.2235188099244747 0 -0.21991094934668981 0.21529829169062131 0 -0.2060142512609224 0.21698936334083271 0 -0.21991094934668981 0.21529829169062131 0 -0.21262852542381011 0.2235188099244747 0 -0.21691059416941341 0.23124935450524869 0 -0.21991094934668981 0.21529829169062131 0 -0.21691059416941341 0.23124935450524869 0 -0.21262852542381011 0.2235188099244747 0 -0.21691059416941341 0.23124935450524869 0 -0.20996224512652989 0.23209489033035449 0 -0.2060142512609224 0.21698936334083271 0 -0.20996224512652989 0.23209489033035449 0 -0.2060142512609224 0.21698936334083271 0 -0.20996224512652989 0.23209489033035449 0 -0.19495986002373211 0.2300217463570402 0 -0.2060142512609224 0.21698936334083271 0 -0.21262852542381011 0.2235188099244747 0 -0.20996224512652989 0.23209489033035449 0 -0.2060142512609224 0.21698936334083271 0 -0.19495986002373211 0.2300217463570402 0 -0.1777395027808544 0.22043008179613721 0 -0.19495986002373211 0.2300217463570402 0 -0.19815701532950039 0.24327969040006259 0 -0.18216608642050139 0.23822309235898101 0 -0.18499936284267901 0.25575901019454228 0 -0.19815701532950039 0.24327969040006259 0 -0.18216608642050139 0.23822309235898101 0 -0.20996224512652989 0.23209489033035449 0 -0.19495986002373211 0.2300217463570402 0 -0.19815701532950039 0.24327969040006259 0 -0.21691059416941341 0.23124935450524869 0 -0.2139102389921374 0.24720041731987641 0 -0.20996224512652989 0.23209489033035449 0 -0.19815701532950039 0.24327969040006259 0 -0.2139102389921374 0.24720041731987641 0 -0.19883530747484129 0.2584162776348467 0 -0.19815701532950039 0.24327969040006259 0 -0.2139102389921374 0.24720041731987641 0 -0.21691059416941341 0.23124935450524869 0 -0.20996224512652989 0.23209489033035449 0 -0.2139102389921374 0.24720041731987641 0 -0.20996224512652989 0.23209489033035449 0 -0.2139102389921374 0.24720041731987641 0 -0.1641376444911597 0.25348716799195747 0 -0.1650484086225982 0.2358662131345203 0 -0.18216608642050139 0.23822309235898101 0 -0.1641376444911597 0.25348716799195747 0 -0.1650484086225982 0.2358662131345203 0 -0.15097385591933679 0.24422830971525139 0 -0.18499936284267901 0.25575901019454228 0 -0.1641376444911597 0.25348716799195747 0 -0.18216608642050139 0.23822309235898101 0 -0.1650484086225982 0.2358662131345203 0 -0.18216608642050139 0.23822309235898101 0 -0.1777395027808544 0.22043008179613721 0 -0.19495986002373211 0.2300217463570402 0 -0.18216608642050139 0.23822309235898101 0 -0.1777395027808544 0.22043008179613721 0 -0.1777395027808544 0.22043008179613721 0 -0.14946475430078629 0.2238708002514414 0 -0.1650484086225982 0.2358662131345203 0 -0.1777395027808544 0.22043008179613721 0 -0.14946475430078629 0.2238708002514414 0 -0.1777395027808544 0.22043008179613721 0 -0.159954755578569 0.2073564164643423 0 -0.14946475430078629 0.2238708002514414 0 -0.1777395027808544 0.22043008179613721 0 -0.159954755578569 0.2073564164643423 0 -0.17620474499852459 0.19809916179316411 0 -0.20077359137631889 0.19693793164549961 0 -0.1777395027808544 0.22043008179613721 0 -0.17620474499852459 0.19809916179316411 0 -0.18763212765137979 0.18808778620069039 0 -0.17620474499852459 0.19809916179316411 0 -0.17801724273896161 0.18042755141393119 0 -0.17620474499852459 0.19809916179316411 0 -0.16000689398529649 0.19319658181242699 0 -0.16514459632117789 0.18393895868434379 0 -0.159954755578569 0.2073564164643423 0 -0.17620474499852459 0.19809916179316411 0 -0.16000689398529649 0.19319658181242699 0 -0.16000689398529649 0.19319658181242699 0 -0.16514459632117789 0.18393895868434379 0 -0.1541912190186201 0.18544899740778301 0 -0.16000689398529649 0.19319658181242699 0 -0.14772255061774139 0.19647018034114749 0 -0.1541912190186201 0.18544899740778301 0 -0.14772255061774139 0.19647018034114749 0 -0.1541912190186201 0.18544899740778301 0 -0.144557788628006 0.18408249412587421 0 -0.159954755578569 0.2073564164643423 0 -0.16000689398529649 0.19319658181242699 0 -0.14772255061774139 0.19647018034114749 0 -0.14772255061774139 0.19647018034114749 0 -0.1330062274617729 0.1895706411315774 0 -0.144557788628006 0.18408249412587421 0 -0.1330062274617729 0.1895706411315774 0 -0.1286859713420283 0.2059120484563943 0 -0.14063992125143979 0.20611838897375601 0 -0.14772255061774139 0.19647018034114749 0 -0.1330062274617729 0.1895706411315774 0 -0.14063992125143979 0.20611838897375601 0 -0.1330062274617729 0.1895706411315774 0 -0.1286859713420283 0.2059120484563943 0 -0.120796641412089 0.1971979530807981 0 -0.1286859713420283 0.2059120484563943 0 -0.13840598924293521 0.21555180597028259 0 -0.14063992125143979 0.20611838897375601 0 -0.1286859713420283 0.2059120484563943 0 -0.1276564653219002 0.21681992860011101 0 -0.13840598924293521 0.21555180597028259 0 -0.13840598924293521 0.21555180597028259 0 -0.14063992125143979 0.20611838897375601 0 -0.14859008678821109 0.2120716927917369 0 -0.159954755578569 0.2073564164643423 0 -0.14859008678821109 0.2120716927917369 0 -0.14946475430078629 0.2238708002514414 0 -0.13840598924293521 0.21555180597028259 0 -0.14859008678821109 0.2120716927917369 0 -0.14946475430078629 0.2238708002514414 0 -0.14772255061774139 0.19647018034114749 0 -0.14063992125143979 0.20611838897375601 0 -0.14859008678821109 0.2120716927917369 0 -0.159954755578569 0.2073564164643423 0 -0.14772255061774139 0.19647018034114749 0 -0.14859008678821109 0.2120716927917369 0 -0.14859008678821109 0.2120716927917369 0 -0.14946475430078629 0.2238708002514414 0 -0.14946475430078629 0.2238708002514414 0 -0.13975950793465469 0.23349497867164429 0 -0.15097385591933679 0.24422830971525139 0 -0.14946475430078629 0.2238708002514414 0 -0.15097385591933679 0.24422830971525139 0 -0.14946475430078629 0.2238708002514414 0 -0.13430294037949481 0.22571582225089981 0 -0.13975950793465469 0.23349497867164429 0 -0.13840598924293521 0.21555180597028259 0 -0.14946475430078629 0.2238708002514414 0 -0.13430294037949481 0.22571582225089981 0 -0.14946475430078629 0.2238708002514414 0 -0.13430294037949481 0.22571582225089981 0 -0.1276564653219002 0.21681992860011101 0 -0.13840598924293521 0.21555180597028259 0 -0.13430294037949481 0.22571582225089981 0 -0.1276564653219002 0.21681992860011101 0 -0.13430294037949481 0.22571582225089981 0 -0.12520967353647541 0.22757803436739851 0 -0.13430294037949481 0.22571582225089981 0 -0.12520967353647541 0.22757803436739851 0 -0.13975950793465469 0.23349497867164429 0 -0.12520967353647541 0.22757803436739851 0 -0.13884631553718049 0.2460819267732304 0 -0.1165444496308824 0.23895395153575749 0 -0.1245193697263768 0.25082400824269452 0 -0.13884631553718049 0.2460819267732304 0 -0.1165444496308824 0.23895395153575749 0 -0.12520967353647541 0.22757803436739851 0 -0.13975950793465469 0.23349497867164429 0 -0.13884631553718049 0.2460819267732304 0 -0.12520967353647541 0.22757803436739851 0 -0.13884631553718049 0.2460819267732304 0 -0.1650484086225982 0.2358662131345203 0 -0.14946475430078629 0.2238708002514414 0 -0.15097385591933679 0.24422830971525139 0 -0.13975950793465469 0.23349497867164429 0 -0.13884631553718049 0.2460819267732304 0 -0.15097385591933679 0.24422830971525139 0 -0.17942301437025129 0.14542284062028421 0 -0.15834073487417771 0.16246277079108989 0 -0.15993481009316071 0.14028998748595739 0 -0.17942301437025129 0.14542284062028421 0 -0.15834073487417771 0.16246277079108989 0 -0.15993481009316071 0.14028998748595739 0 -0.17482441116505529 0.13165925239651821 0 -0.17942301437025129 0.14542284062028421 0 -0.15993481009316071 0.14028998748595739 0 -0.16172739713684009 0.12557701966577631 0 -0.17482441116505529 0.13165925239651821 0 -0.18421424307235509 0.12095890305881379 0 -0.1898154102728466 0.13568327673398109 0 -0.17482441116505529 0.13165925239651821 0 -0.1898154102728466 0.13568327673398109 0 -0.17482441116505529 0.13165925239651821 0 -0.17942301437025129 0.14542284062028421 0 -0.17942301437025129 0.14542284062028421 0 -0.18065904645271719 0.15754470093345119 0 -0.1726479708770188 0.16134782337968939 0 -0.19029227160710971 0.15683506825483409 0 -0.17942301437025129 0.14542284062028421 0 -0.18065904645271719 0.15754470093345119 0 -0.19029227160710971 0.15683506825483409 0 -0.18065904645271719 0.15754470093345119 0 -0.18118028017317919 0.16672300267686299 0 -0.18118028017317919 0.16672300267686299 0 -0.17282318596713889 0.1702685108339014 0 -0.1726479708770188 0.16134782337968939 0 -0.18065904645271719 0.15754470093345119 0 -0.18118028017317919 0.16672300267686299 0 -0.1726479708770188 0.16134782337968939 0 -0.17620474499852459 0.19809916179316411 0 -0.17801724273896161 0.18042755141393119 0 -0.16514459632117789 0.18393895868434379 0 -0.19553293149171419 0.17688649995016681 0 -0.18763212765137979 0.18808778620069039 0 -0.17801724273896161 0.18042755141393119 0 -0.19553293149171419 0.17688649995016681 0 -0.18118028017317919 0.16672300267686299 0 -0.17801724273896161 0.18042755141393119 0 -0.18118028017317919 0.16672300267686299 0 -0.17282318596713889 0.1702685108339014 0 -0.17801724273896161 0.18042755141393119 0 -0.17282318596713889 0.1702685108339014 0 -0.17801724273896161 0.18042755141393119 0 -0.16785916826896799 0.17578904425889549 0 -0.17801724273896161 0.18042755141393119 0 -0.16514459632117789 0.18393895868434379 0 -0.16785916826896799 0.17578904425889549 0 -0.16785916826896799 0.17578904425889549 0 -0.15894703750757189 0.1783702721287431 0 -0.15827593308466409 0.1709906004124285 0 -0.16514459632117789 0.18393895868434379 0 -0.16785916826896799 0.17578904425889549 0 -0.15894703750757189 0.1783702721287431 0 -0.16514459632117789 0.18393895868434379 0 -0.15894703750757189 0.1783702721287431 0 -0.1541912190186201 0.18544899740778301 0 -0.17942301437025129 0.14542284062028421 0 -0.1726479708770188 0.16134782337968939 0 -0.15834073487417771 0.16246277079108989 0 -0.1726479708770188 0.16134782337968939 0 -0.16441126777756659 0.16705513244012771 0 -0.15834073487417771 0.16246277079108989 0 -0.17282318596713889 0.1702685108339014 0 -0.1726479708770188 0.16134782337968939 0 -0.16441126777756659 0.16705513244012771 0 -0.17282318596713889 0.1702685108339014 0 -0.16785916826896799 0.17578904425889549 0 -0.16441126777756659 0.16705513244012771 0 -0.16441126777756659 0.16705513244012771 0 -0.15827593308466409 0.1709906004124285 0 -0.15834073487417771 0.16246277079108989 0 -0.16441126777756659 0.16705513244012771 0 -0.15834073487417771 0.16246277079108989 0 -0.16785916826896799 0.17578904425889549 0 -0.16441126777756659 0.16705513244012771 0 -0.15827593308466409 0.1709906004124285 0 -0.15834073487417771 0.16246277079108989 0 -0.1505098538685275 0.1687921463947589 0 -0.14084264969637619 0.16112661045873991 0 -0.15834073487417771 0.16246277079108989 0 -0.14084264969637619 0.16112661045873991 0 -0.13965732825978899 0.14832876289181171 0 -0.15827593308466409 0.1709906004124285 0 -0.15834073487417771 0.16246277079108989 0 -0.1505098538685275 0.1687921463947589 0 -0.15834073487417771 0.16246277079108989 0 -0.1505098538685275 0.1687921463947589 0 -0.1505098538685275 0.1687921463947589 0 -0.14084264969637619 0.16112661045873991 0 -0.14009524359197889 0.17317684265768379 0 -0.1541912190186201 0.18544899740778301 0 -0.1510961792832281 0.17681022552121189 0 -0.144557788628006 0.18408249412587421 0 -0.15894703750757189 0.1783702721287431 0 -0.1541912190186201 0.18544899740778301 0 -0.1510961792832281 0.17681022552121189 0 -0.15894703750757189 0.1783702721287431 0 -0.15827593308466409 0.1709906004124285 0 -0.1510961792832281 0.17681022552121189 0 -0.15827593308466409 0.1709906004124285 0 -0.1505098538685275 0.1687921463947589 0 -0.1510961792832281 0.17681022552121189 0 -0.1510961792832281 0.17681022552121189 0 -0.144557788628006 0.18408249412587421 0 -0.14009524359197889 0.17317684265768379 0 -0.1505098538685275 0.1687921463947589 0 -0.1510961792832281 0.17681022552121189 0 -0.14009524359197889 0.17317684265768379 0 -0.1330062274617729 0.1895706411315774 0 -0.14009524359197889 0.17317684265768379 0 -0.1254036219945677 0.16857639118291559 0 -0.1330062274617729 0.1895706411315774 0 -0.144557788628006 0.18408249412587421 0 -0.14009524359197889 0.17317684265768379 0 -0.14084264969637619 0.16112661045873991 0 -0.1254036219945677 0.16857639118291559 0 -0.12305490781020299 0.15148842345361621 0 -0.14084264969637619 0.16112661045873991 0 -0.14009524359197889 0.17317684265768379 0 -0.1254036219945677 0.16857639118291559 0 -0.13965732825978899 0.14832876289181171 0 -0.1209739216453999 0.13419475499253419 0 -0.12305490781020299 0.15148842345361621 0 -0.14084264969637619 0.16112661045873991 0 -0.13965732825978899 0.14832876289181171 0 -0.12305490781020299 0.15148842345361621 0 -0.13965732825978899 0.14832876289181171 0 -0.1209739216453999 0.13419475499253419 0 -0.15993481009316071 0.14028998748595739 0 -0.15834073487417771 0.16246277079108989 0 -0.13965732825978899 0.14832876289181171 0 -0.15834073487417771 0.16246277079108989 0 -0.13965732825978899 0.14832876289181171 0 -0.15993481009316071 0.14028998748595739 0 -0.16172739713684009 0.12557701966577631 0 -0.1435357231901325 0.12716212974980601 0 -0.15993481009316071 0.14028998748595739 0 -0.13965732825978899 0.14832876289181171 0 -0.1435357231901325 0.12716212974980601 0 -0.1435357231901325 0.12716212974980601 0 -0.1209739216453999 0.13419475499253419 0 -0.11980067290913921 0.11633006653277669 0 -0.13965732825978899 0.14832876289181171 0 -0.1435357231901325 0.12716212974980601 0 -0.1209739216453999 0.13419475499253419 0 -0.1209739216453999 0.13419475499253419 0 -0.10555608039051551 0.13935577662446871 0 -0.10229051503101071 0.1200607470932567 0 -0.1209739216453999 0.13419475499253419 0 -0.10229051503101071 0.1200607470932567 0 -0.10555608039051551 0.13935577662446871 0 -0.083933289059558214 0.14259527673705799 0 -0.10229051503101071 0.1200607470932567 0 -0.10555608039051551 0.13935577662446871 0 -0.105717721768088 0.15775497431992361 0 -0.083933289059558214 0.14259527673705799 0 -0.1209739216453999 0.13419475499253419 0 -0.10555608039051551 0.13935577662446871 0 -0.12305490781020299 0.15148842345361621 0 -0.10555608039051551 0.13935577662446871 0 -0.12305490781020299 0.15148842345361621 0 -0.105717721768088 0.15775497431992361 0 -0.1254036219945677 0.16857639118291559 0 -0.1099213353087847 0.18423498077365411 0 -0.105717721768088 0.15775497431992361 0 -0.1254036219945677 0.16857639118291559 0 -0.12305490781020299 0.15148842345361621 0 -0.105717721768088 0.15775497431992361 0 -0.1330062274617729 0.1895706411315774 0 -0.1254036219945677 0.16857639118291559 0 -0.1099213353087847 0.18423498077365411 0 -0.1099213353087847 0.18423498077365411 0 -0.086381767210076635 0.169686043603793 0 -0.086162015743261794 0.20085969889341621 0 -0.1099213353087847 0.18423498077365411 0 -0.105717721768088 0.15775497431992361 0 -0.086381767210076635 0.169686043603793 0 -0.086381767210076635 0.169686043603793 0 -0.070092748738376912 0.1637916146304684 0 -0.083933289059558214 0.14259527673705799 0 -0.105717721768088 0.15775497431992361 0 -0.086381767210076635 0.169686043603793 0 -0.083933289059558214 0.14259527673705799 0 -0.086381767210076635 0.169686043603793 0 -0.06997867975103414 0.18487190258679231 0 -0.086162015743261794 0.20085969889341621 0 -0.06997867975103414 0.18487190258679231 0 -0.070092748738376912 0.1637916146304684 0 -0.060015246261647608 0.17338448077896521 0 -0.086381767210076635 0.169686043603793 0 -0.06997867975103414 0.18487190258679231 0 -0.070092748738376912 0.1637916146304684 0 -0.070092748738376912 0.1637916146304684 0 -0.064832515332864146 0.1490640130043783 0 -0.055414994815080741 0.16314797107182349 0 -0.064832515332864146 0.1490640130043783 0 -0.064960192440270639 0.13269513757965329 0 -0.083933289059558214 0.14259527673705799 0 -0.070092748738376912 0.1637916146304684 0 -0.064832515332864146 0.1490640130043783 0 -0.083933289059558214 0.14259527673705799 0 -0.064960192440270639 0.13269513757965329 0 -0.083933289059558214 0.14259527673705799 0 -0.072370878685899642 0.1217286521554925 0 -0.083933289059558214 0.14259527673705799 0 -0.081484810909039793 0.115504509870323 0 -0.10229051503101071 0.1200607470932567 0 -0.083933289059558214 0.14259527673705799 0 -0.072370878685899642 0.1217286521554925 0 -0.081484810909039793 0.115504509870323 0 -0.083933289059558214 0.14259527673705799 0 -0.081484810909039793 0.115504509870323 0 -0.086381767210076635 0.169686043603793 0 -0.083933289059558214 0.14259527673705799 0 -0.10857203192562449 0.253773843241345 0 -0.1001605289441776 0.23997994716665649 0 -0.1165444496308824 0.23895395153575749 0 -0.1001605289441776 0.23997994716665649 0 -0.1165444496308824 0.23895395153575749 0 -0.10912099644809919 0.22726665986575731 0 -0.098730633274728821 0.25553511076904117 0 -0.087821607423689663 0.2537606424516044 0 -0.1001605289441776 0.23997994716665649 0 -0.098730633274728821 0.25553511076904117 0 -0.10857203192562449 0.253773843241345 0 -0.1001605289441776 0.23997994716665649 0 -0.10857203192562449 0.253773843241345 0 -0.1245193697263768 0.25082400824269452 0 -0.1165444496308824 0.23895395153575749 0 -0.12520967353647541 0.22757803436739851 0 -0.10912099644809919 0.22726665986575731 0 -0.1115730315357702 0.2090741419615666 0 -0.12520967353647541 0.22757803436739851 0 -0.1165444496308824 0.23895395153575749 0 -0.10912099644809919 0.22726665986575731 0 -0.10912099644809919 0.22726665986575731 0 -0.1115730315357702 0.2090741419615666 0 -0.092117298593190455 0.22074722429740731 0 -0.1001605289441776 0.23997994716665649 0 -0.10912099644809919 0.22726665986575731 0 -0.092117298593190455 0.22074722429740731 0 -0.1115730315357702 0.2090741419615666 0 -0.086162015743261794 0.20085969889341621 0 -0.092117298593190455 0.22074722429740731 0 -0.1286859713420283 0.2059120484563943 0 -0.1276564653219002 0.21681992860011101 0 -0.1115730315357702 0.2090741419615666 0 -0.1276564653219002 0.21681992860011101 0 -0.12520967353647541 0.22757803436739851 0 -0.1115730315357702 0.2090741419615666 0 -0.1286859713420283 0.2059120484563943 0 -0.1115730315357702 0.2090741419615666 0 -0.120796641412089 0.1971979530807981 0 -0.12520967353647541 0.22757803436739851 0 -0.1115730315357702 0.2090741419615666 0 -0.1099213353087847 0.18423498077365411 0 -0.1115730315357702 0.2090741419615666 0 -0.120796641412089 0.1971979530807981 0 -0.1330062274617729 0.1895706411315774 0 -0.1099213353087847 0.18423498077365411 0 -0.120796641412089 0.1971979530807981 0 -0.1099213353087847 0.18423498077365411 0 -0.1115730315357702 0.2090741419615666 0 -0.086162015743261794 0.20085969889341621 0 -0.06997867975103414 0.18487190258679231 0 -0.069202789217974986 0.2059448091064445 0 -0.048716705039018933 0.1954195827086995 0 -0.06997867975103414 0.18487190258679231 0 -0.086162015743261794 0.20085969889341621 0 -0.069202789217974986 0.2059448091064445 0 -0.069202789217974986 0.2059448091064445 0 -0.079841743657551756 0.2127451087817131 0 -0.07188487107577976 0.22342870282958449 0 -0.069202789217974986 0.2059448091064445 0 -0.07188487107577976 0.22342870282958449 0 -0.052590495917862509 0.21414201453966389 0 -0.086162015743261794 0.20085969889341621 0 -0.079841743657551756 0.2127451087817131 0 -0.092117298593190455 0.22074722429740731 0 -0.086162015743261794 0.20085969889341621 0 -0.069202789217974986 0.2059448091064445 0 -0.079841743657551756 0.2127451087817131 0 -0.092117298593190455 0.22074722429740731 0 -0.07188487107577976 0.22342870282958449 0 -0.08149133289175578 0.23910182785786599 0 -0.079841743657551756 0.2127451087817131 0 -0.092117298593190455 0.22074722429740731 0 -0.07188487107577976 0.22342870282958449 0 -0.1001605289441776 0.23997994716665649 0 -0.092117298593190455 0.22074722429740731 0 -0.08149133289175578 0.23910182785786599 0 -0.07188487107577976 0.22342870282958449 0 -0.062993086238880794 0.24070619097824791 0 -0.0568080948490709 0.22883672327449869 0 -0.07188487107577976 0.22342870282958449 0 -0.062993086238880794 0.24070619097824791 0 -0.08149133289175578 0.23910182785786599 0 -0.073970605074816495 0.25598825942369569 0 -0.062993086238880794 0.24070619097824791 0 -0.08149133289175578 0.23910182785786599 0 -0.087821607423689663 0.2537606424516044 0 -0.073970605074816495 0.25598825942369569 0 -0.08149133289175578 0.23910182785786599 0 -0.087821607423689663 0.2537606424516044 0 -0.1001605289441776 0.23997994716665649 0 -0.08149133289175578 0.23910182785786599 0 -0.033969864848961667 0.23919865786554201 0 -0.049150054716260758 0.24682962454260279 0 -0.027931320423383959 0.2461637075656927 0 -0.049150054716260758 0.24682962454260279 0 -0.027931320423383959 0.2461637075656927 0 -0.028199843544121379 0.25180736403083531 0 -0.049150054716260758 0.24682962454260279 0 -0.027931320423383959 0.2461637075656927 0 -0.033969864848961667 0.23919865786554201 0 -0.040921575192306409 0.2362641802266697 0 -0.033998490740296018 0.2284807963059412 0 -0.033969864848961667 0.23919865786554201 0 -0.040921575192306409 0.2362641802266697 0 -0.049150054716260758 0.24682962454260279 0 -0.05774904498435033 0.25419785454266369 0 -0.062993086238880794 0.24070619097824791 0 -0.049150054716260758 0.24682962454260279 0 -0.062993086238880794 0.24070619097824791 0 -0.051035785603907459 0.23617781512157299 0 -0.0568080948490709 0.22883672327449869 0 -0.062993086238880794 0.24070619097824791 0 -0.049150054716260758 0.24682962454260279 0 -0.051035785603907459 0.23617781512157299 0 -0.040921575192306409 0.2362641802266697 0 -0.049150054716260758 0.24682962454260279 0 -0.051035785603907459 0.23617781512157299 0 -0.07188487107577976 0.22342870282958449 0 -0.0568080948490709 0.22883672327449869 0 -0.052590495917862509 0.21414201453966389 0 -0.051035785603907459 0.23617781512157299 0 -0.0568080948490709 0.22883672327449869 0 -0.045306117023018462 0.22825235658584589 0 -0.0568080948490709 0.22883672327449869 0 -0.045306117023018462 0.22825235658584589 0 -0.052590495917862509 0.21414201453966389 0 -0.045306117023018462 0.22825235658584589 0 -0.038607022851074133 0.21796037638068291 0 -0.052590495917862509 0.21414201453966389 0 -0.045306117023018462 0.22825235658584589 0 -0.033998490740296018 0.2284807963059412 0 -0.038607022851074133 0.21796037638068291 0 -0.040921575192306409 0.2362641802266697 0 -0.045306117023018462 0.22825235658584589 0 -0.033998490740296018 0.2284807963059412 0 -0.040921575192306409 0.2362641802266697 0 -0.051035785603907459 0.23617781512157299 0 -0.045306117023018462 0.22825235658584589 0 -0.033969864848961667 0.23919865786554201 0 -0.033998490740296018 0.2284807963059412 0 -0.0262003912042519 0.23511982977204021 0 -0.033998490740296018 0.2284807963059412 0 -0.038607022851074133 0.21796037638068291 0 -0.025756580404818711 0.2150884576169266 0 -0.033704534264430791 0.2044448501885732 0 -0.052590495917862509 0.21414201453966389 0 -0.048716705039018933 0.1954195827086995 0 -0.038607022851074133 0.21796037638068291 0 -0.033704534264430791 0.2044448501885732 0 -0.052590495917862509 0.21414201453966389 0 -0.038607022851074133 0.21796037638068291 0 -0.033704534264430791 0.2044448501885732 0 -0.025756580404818711 0.2150884576169266 0 -0.069202789217974986 0.2059448091064445 0 -0.052590495917862509 0.21414201453966389 0 -0.048716705039018933 0.1954195827086995 0 -0.033704534264430791 0.2044448501885732 0 -0.048716705039018933 0.1954195827086995 0 -0.032659893090975348 0.18453187573503291 0 -0.01523576898795816 0.2009060415452496 0 -0.032659893090975348 0.18453187573503291 0 -0.033704534264430791 0.2044448501885732 0 -0.01523576898795816 0.2009060415452496 0 -0.032659893090975348 0.18453187573503291 0 -0.01523576898795816 0.2009060415452496 0 -0.032659893090975348 0.18453187573503291 0 -0.01586588330823414 0.18415291803538569 0 -0.01523576898795816 0.2009060415452496 0 -0.01586588330823414 0.18415291803538569 0 -0.002984792374191875 0.182819937678703 0 -0.01523576898795816 0.2009060415452496 0 -0.002984792374191875 0.182819937678703 0 0.0070705260361831421 0.20180284821720479 0 -0.01523576898795816 0.2009060415452496 0 0.002188355115057558 0.21728020735546791 0 0.0070705260361831421 0.20180284821720479 0 -0.01523576898795816 0.2009060415452496 0 0.002188355115057558 0.21728020735546791 0 -0.01523576898795816 0.2009060415452496 0 -0.01377501299899926 0.214002919914838 0 0.002188355115057558 0.21728020735546791 0 -0.01377501299899926 0.214002919914838 0 -0.019218652586153951 0.22473576136627479 0 0.002188355115057558 0.21728020735546791 0 -0.033704534264430791 0.2044448501885732 0 -0.01523576898795816 0.2009060415452496 0 -0.025756580404818711 0.2150884576169266 0 -0.01377501299899926 0.214002919914838 0 -0.025756580404818711 0.2150884576169266 0 -0.019218652586153951 0.22473576136627479 0 -0.01523576898795816 0.2009060415452496 0 -0.01377501299899926 0.214002919914838 0 -0.025756580404818711 0.2150884576169266 0 -0.033998490740296018 0.2284807963059412 0 -0.025756580404818711 0.2150884576169266 0 -0.019218652586153951 0.22473576136627479 0 -0.033998490740296018 0.2284807963059412 0 -0.019218652586153951 0.22473576136627479 0 -0.0262003912042519 0.23511982977204021 0 -0.019218652586153951 0.22473576136627479 0 -0.015743986993860731 0.2359000204529523 0 -0.0262003912042519 0.23511982977204021 0 -0.0067125861305070769 0.2454977905887831 0 -0.015743986993860731 0.2359000204529523 0 0.002188355115057558 0.21728020735546791 0 -0.019218652586153951 0.22473576136627479 0 -0.015743986993860731 0.2359000204529523 0 0.002188355115057558 0.21728020735546791 0 -0.0067125861305070769 0.2454977905887831 0 0.002188355115057558 0.21728020735546791 0 -0.028199843544121379 0.25180736403083531 0 -0.0067125861305070769 0.2454977905887831 0 -0.027931320423383959 0.2461637075656927 0 -0.0067125861305070769 0.2454977905887831 0 -0.027931320423383959 0.2461637075656927 0 -0.0067125861305070769 0.2454977905887831 0 -0.015743986993860731 0.2359000204529523 0 -0.027931320423383959 0.2461637075656927 0 -0.015743986993860731 0.2359000204529523 0 -0.0262003912042519 0.23511982977204021 0 -0.027931320423383959 0.2461637075656927 0 -0.033969864848961667 0.23919865786554201 0 -0.0262003912042519 0.23511982977204021 0 -0.027931320423383959 0.2461637075656927 0 -0.039233294779016152 0.1519737515976988 0 -0.051321891089051948 0.1434766153211128 0 -0.042811682197905918 0.15962837894142939 0 -0.039233294779016152 0.1519737515976988 0 -0.036369475025505707 0.1425306264682917 0 -0.051321891089051948 0.1434766153211128 0 -0.039233294779016152 0.1519737515976988 0 -0.034467418289147192 0.15999334571873641 0 -0.030257530695989718 0.15082098484546899 0 -0.039233294779016152 0.1519737515976988 0 -0.036369475025505707 0.1425306264682917 0 -0.030257530695989718 0.15082098484546899 0 -0.036369475025505707 0.1425306264682917 0 -0.031820174218179759 0.13636426524533521 0 -0.043210385751510448 0.1306981949520189 0 -0.043210385751510448 0.1306981949520189 0 -0.028364804978969978 0.1277497585026082 0 -0.052559764984113189 0.1187955207174103 0 -0.031820174218179759 0.13636426524533521 0 -0.043210385751510448 0.1306981949520189 0 -0.028364804978969978 0.1277497585026082 0 -0.036369475025505707 0.1425306264682917 0 -0.043210385751510448 0.1306981949520189 0 -0.051321891089051948 0.1434766153211128 0 -0.051321891089051948 0.1434766153211128 0 -0.052559764984113189 0.1187955207174103 0 -0.064960192440270639 0.13269513757965329 0 -0.051321891089051948 0.1434766153211128 0 -0.052559764984113189 0.1187955207174103 0 -0.043210385751510448 0.1306981949520189 0 -0.051321891089051948 0.1434766153211128 0 -0.052559764984113189 0.1187955207174103 0 -0.051321891089051948 0.1434766153211128 0 -0.050084017193991623 0.16815770992481541 0 -0.064832515332864146 0.1490640130043783 0 -0.051321891089051948 0.1434766153211128 0 -0.055414994815080741 0.16314797107182349 0 -0.064832515332864146 0.1490640130043783 0 -0.064960192440270639 0.13269513757965329 0 -0.051321891089051948 0.1434766153211128 0 -0.051321891089051948 0.1434766153211128 0 -0.055414994815080741 0.16314797107182349 0 -0.050084017193991623 0.16815770992481541 0 -0.051321891089051948 0.1434766153211128 0 -0.050084017193991623 0.16815770992481541 0 -0.042811682197905918 0.15962837894142939 0 -0.070092748738376912 0.1637916146304684 0 -0.055414994815080741 0.16314797107182349 0 -0.060015246261647608 0.17338448077896521 0 -0.055414994815080741 0.16314797107182349 0 -0.050084017193991623 0.16815770992481541 0 -0.060015246261647608 0.17338448077896521 0 -0.055414994815080741 0.16314797107182349 0 -0.050084017193991623 0.16815770992481541 0 -0.048716705039018933 0.1954195827086995 0 -0.050084017193991623 0.16815770992481541 0 -0.06997867975103414 0.18487190258679231 0 -0.048716705039018933 0.1954195827086995 0 -0.060015246261647608 0.17338448077896521 0 -0.048716705039018933 0.1954195827086995 0 -0.050084017193991623 0.16815770992481541 0 -0.060015246261647608 0.17338448077896521 0 -0.050084017193991623 0.16815770992481541 0 -0.032659893090975348 0.18453187573503291 0 -0.037074836443362152 0.16770285875787391 0 -0.050084017193991623 0.16815770992481541 0 -0.032659893090975348 0.18453187573503291 0 -0.048716705039018933 0.1954195827086995 0 -0.050084017193991623 0.16815770992481541 0 -0.032659893090975348 0.18453187573503291 0 -0.032659893090975348 0.18453187573503291 0 -0.037074836443362152 0.16770285875787391 0 -0.02786309508302225 0.16963224763468349 0 -0.050084017193991623 0.16815770992481541 0 -0.042811682197905918 0.15962837894142939 0 -0.037074836443362152 0.16770285875787391 0 -0.037074836443362152 0.16770285875787391 0 -0.034467418289147192 0.15999334571873641 0 -0.02786309508302225 0.16963224763468349 0 -0.042811682197905918 0.15962837894142939 0 -0.037074836443362152 0.16770285875787391 0 -0.034467418289147192 0.15999334571873641 0 -0.039233294779016152 0.1519737515976988 0 -0.042811682197905918 0.15962837894142939 0 -0.034467418289147192 0.15999334571873641 0 -0.034467418289147192 0.15999334571873641 0 -0.02633652758679841 0.16034525070310079 0 -0.030257530695989718 0.15082098484546899 0 -0.034467418289147192 0.15999334571873641 0 -0.02633652758679841 0.16034525070310079 0 -0.02786309508302225 0.16963224763468349 0 -0.02633652758679841 0.16034525070310079 0 -0.02786309508302225 0.16963224763468349 0 -0.017344706524565399 0.1632841241342812 0 -0.02786309508302225 0.16963224763468349 0 -0.017344706524565399 0.1632841241342812 0 -0.020495356478876209 0.1755117200678962 0 -0.017344706524565399 0.1632841241342812 0 -0.020495356478876209 0.1755117200678962 0 -0.010419478739446229 0.17416585569503501 0 -0.02633652758679841 0.16034525070310079 0 -0.017344706524565399 0.1632841241342812 0 -0.022681751898893151 0.1533340175979106 0 -0.017344706524565399 0.1632841241342812 0 -0.014918057393375371 0.15437853374477389 0 -0.022681751898893151 0.1533340175979106 0 -0.032659893090975348 0.18453187573503291 0 -0.020495356478876209 0.1755117200678962 0 -0.01586588330823414 0.18415291803538569 0 -0.032659893090975348 0.18453187573503291 0 -0.02786309508302225 0.16963224763468349 0 -0.020495356478876209 0.1755117200678962 0 -0.01586588330823414 0.18415291803538569 0 -0.010419478739446229 0.17416585569503501 0 -0.002984792374191875 0.182819937678703 0 -0.020495356478876209 0.1755117200678962 0 -0.01586588330823414 0.18415291803538569 0 -0.010419478739446229 0.17416585569503501 0 -0.010419478739446229 0.17416585569503501 0 -0.00013995955948005169 0.1722625834562479 0 -0.002984792374191875 0.182819937678703 0 -0.0079831214446054004 0.1646444725640536 0 -0.0069976941138892986 0.1555058086497863 0 -0.014918057393375371 0.15437853374477389 0 -0.017344706524565399 0.1632841241342812 0 -0.0079831214446054004 0.1646444725640536 0 -0.014918057393375371 0.15437853374477389 0 -0.017344706524565399 0.1632841241342812 0 -0.010419478739446229 0.17416585569503501 0 -0.0079831214446054004 0.1646444725640536 0 -0.010419478739446229 0.17416585569503501 0 -0.00013995955948005169 0.1722625834562479 0 -0.0079831214446054004 0.1646444725640536 0 -0.00013995955948005169 0.1722625834562479 0 -0.0079831214446054004 0.1646444725640536 0 0.00079023584047536143 0.16212904774933021 0 -0.0079831214446054004 0.1646444725640536 0 -0.0069976941138892986 0.1555058086497863 0 0.00079023584047536143 0.16212904774933021 0 -0.0069976941138892986 0.1555058086497863 0 -0.0059281172365853313 0.14590660226524421 0 0.00079023584047536143 0.16212904774933021 0 -0.0059281172365853313 0.14590660226524421 0 0.00010543445606855251 0.14834388122586309 0 0.00082868943533995004 0.141115449658996 0 -0.0059281172365853313 0.14590660226524421 0 -0.010815610380147739 0.15037651543428929 0 -0.016129046146247741 0.14573002509791599 0 -0.0069976941138892986 0.1555058086497863 0 -0.0059281172365853313 0.14590660226524421 0 -0.010815610380147739 0.15037651543428929 0 -0.014918057393375371 0.15437853374477389 0 -0.010815610380147739 0.15037651543428929 0 -0.016129046146247741 0.14573002509791599 0 -0.0069976941138892986 0.1555058086497863 0 -0.014918057393375371 0.15437853374477389 0 -0.010815610380147739 0.15037651543428929 0 -0.014918057393375371 0.15437853374477389 0 -0.022681751898893151 0.1533340175979106 0 -0.016129046146247741 0.14573002509791599 0 -0.022681751898893151 0.1533340175979106 0 -0.016129046146247741 0.14573002509791599 0 -0.023841756391292841 0.14352295391142489 0 -0.036369475025505707 0.1425306264682917 0 -0.023841756391292841 0.14352295391142489 0 -0.030257530695989718 0.15082098484546899 0 -0.036369475025505707 0.1425306264682917 0 -0.031820174218179759 0.13636426524533521 0 -0.023841756391292841 0.14352295391142489 0 -0.022681751898893151 0.1533340175979106 0 -0.023841756391292841 0.14352295391142489 0 -0.030257530695989718 0.15082098484546899 0 -0.02633652758679841 0.16034525070310079 0 -0.022681751898893151 0.1533340175979106 0 -0.030257530695989718 0.15082098484546899 0 -0.0059281172365853313 0.14590660226524421 0 -0.016129046146247741 0.14573002509791599 0 -0.028364804978969978 0.1277497585026082 0 -0.016129046146247741 0.14573002509791599 0 -0.023841756391292841 0.14352295391142489 0 -0.028364804978969978 0.1277497585026082 0 -0.031820174218179759 0.13636426524533521 0 -0.023841756391292841 0.14352295391142489 0 -0.028364804978969978 0.1277497585026082 0 -0.0059281172365853313 0.14590660226524421 0 -0.028364804978969978 0.1277497585026082 0 -0.0059281172365853313 0.14590660226524421 0 -0.028364804978969978 0.1277497585026082 0 -0.0068668774793380089 0.1345471695475278 0 -0.028364804978969978 0.1277497585026082 0 -0.01145816809130428 0.12682305235231209 0 -0.0068668774793380089 0.1345471695475278 0 -0.0059281172365853313 0.14590660226524421 0 -0.0068668774793380089 0.1345471695475278 0 0.00082868943533995004 0.141115449658996 0 -0.0068668774793380089 0.1345471695475278 0 0.0060329548530184979 0.1339258120873098 0 0.00082868943533995004 0.141115449658996 0 -0.01145816809130428 0.12682305235231209 0 -0.0068668774793380089 0.1345471695475278 0 -0.00082439648766763319 0.126182985957942 0 -0.0068668774793380089 0.1345471695475278 0 -0.00082439648766763319 0.126182985957942 0 0.0060329548530184979 0.1339258120873098 0 -0.01145816809130428 0.12682305235231209 0 -0.00082439648766763319 0.126182985957942 0 -0.002949797505990402 0.11698106427360989 0 -0.01145816809130428 0.12682305235231209 0 -0.002949797505990402 0.11698106427360989 0 -0.01701203994356907 0.1194417109449703 0 -0.002949797505990402 0.11698106427360989 0 -0.0081840208466594684 0.1063124210284206 0 -0.016547213217728101 0.11078437689416849 0 -0.002949797505990402 0.11698106427360989 0 -0.01701203994356907 0.1194417109449703 0 -0.016547213217728101 0.11078437689416849 0 -0.00089384049089925866 0.099379613399809719 0 -0.012345232172020109 0.098104629546094557 0 0.0057402632052494153 0.089790503587336104 0 -0.002949797505990402 0.11698106427360989 0 -0.00089384049089925866 0.099379613399809719 0 -0.0081840208466594684 0.1063124210284206 0 -0.00089384049089925866 0.099379613399809719 0 -0.012345232172020109 0.098104629546094557 0 -0.0081840208466594684 0.1063124210284206 0 -0.012345232172020109 0.098104629546094557 0 -0.0081840208466594684 0.1063124210284206 0 -0.016547213217728101 0.11078437689416849 0 -0.012345232172020109 0.098104629546094557 0 -0.028482165794696819 0.1027932253732295 0 -0.016547213217728101 0.11078437689416849 0 -0.012345232172020109 0.098104629546094557 0 -0.028482165794696819 0.1027932253732295 0 -0.018792858258600519 0.080891594286476548 0 -0.028482165794696819 0.1027932253732295 0 -0.02511471091017458 0.11575556869714949 0 -0.035167330615908918 0.1180087717707712 0 -0.028364804978969978 0.1277497585026082 0 -0.01145816809130428 0.12682305235231209 0 -0.01701203994356907 0.1194417109449703 0 -0.028364804978969978 0.1277497585026082 0 -0.02511471091017458 0.11575556869714949 0 -0.01701203994356907 0.1194417109449703 0 -0.028364804978969978 0.1277497585026082 0 -0.02511471091017458 0.11575556869714949 0 -0.035167330615908918 0.1180087717707712 0 -0.028482165794696819 0.1027932253732295 0 -0.02511471091017458 0.11575556869714949 0 -0.016547213217728101 0.11078437689416849 0 -0.02511471091017458 0.11575556869714949 0 -0.01701203994356907 0.1194417109449703 0 -0.016547213217728101 0.11078437689416849 0 -0.018792858258600519 0.080891594286476548 0 -0.047909777990857973 0.066596898312140759 0 -0.01475407716168687 0.060851110243847019 0 -0.01475407716168687 0.060851110243847019 0 0.002034669314375587 0.057952022898971632 0 0.0045890164421649726 0.073984735346648359 0 -0.018792858258600519 0.080891594286476548 0 -0.01475407716168687 0.060851110243847019 0 0.0045890164421649726 0.073984735346648359 0 -0.018792858258600519 0.080891594286476548 0 0.0057402632052494153 0.089790503587336104 0 0.0045890164421649726 0.073984735346648359 0 -0.012345232172020109 0.098104629546094557 0 -0.018792858258600519 0.080891594286476548 0 0.0057402632052494153 0.089790503587336104 0 -0.018792858258600519 0.080891594286476548 0 0.0057402632052494153 0.089790503587336104 0 -0.028482165794696819 0.1027932253732295 0 -0.018792858258600519 0.080891594286476548 0 -0.041538554303383421 0.092302835041456061 0 -0.018792858258600519 0.080891594286476548 0 -0.041538554303383421 0.092302835041456061 0 -0.047909777990857973 0.066596898312140759 0 -0.041538554303383421 0.092302835041456061 0 -0.047909777990857973 0.066596898312140759 0 -0.041538554303383421 0.092302835041456061 0 -0.059050839940257741 0.089343006760422075 0 -0.047909777990857973 0.066596898312140759 0 -0.059050839940257741 0.089343006760422075 0 -0.047909777990857973 0.066596898312140759 0 -0.065923365744557205 0.075942869226539103 0 -0.028364804978969978 0.1277497585026082 0 -0.050801492721354619 0.10959291473997231 0 -0.052559764984113189 0.1187955207174103 0 -0.035167330615908918 0.1180087717707712 0 -0.048738604823041647 0.10065995592838339 0 -0.050801492721354619 0.10959291473997231 0 -0.028364804978969978 0.1277497585026082 0 -0.050801492721354619 0.10959291473997231 0 -0.028364804978969978 0.1277497585026082 0 -0.035167330615908918 0.1180087717707712 0 -0.050801492721354619 0.10959291473997231 0 -0.041538554303383421 0.092302835041456061 0 -0.035167330615908918 0.1180087717707712 0 -0.048738604823041647 0.10065995592838339 0 -0.028482165794696819 0.1027932253732295 0 -0.041538554303383421 0.092302835041456061 0 -0.035167330615908918 0.1180087717707712 0 -0.041538554303383421 0.092302835041456061 0 -0.035167330615908918 0.1180087717707712 0 -0.048738604823041647 0.10065995592838339 0 -0.058251442615051982 0.1029428312725976 0 -0.050801492721354619 0.10959291473997231 0 -0.041538554303383421 0.092302835041456061 0 -0.059050839940257741 0.089343006760422075 0 -0.048738604823041647 0.10065995592838339 0 -0.059050839940257741 0.089343006760422075 0 -0.058251442615051982 0.1029428312725976 0 -0.067597093013130757 0.10001663980563751 0 -0.059050839940257741 0.089343006760422075 0 -0.048738604823041647 0.10065995592838339 0 -0.058251442615051982 0.1029428312725976 0 -0.058251442615051982 0.1029428312725976 0 -0.058174271421562278 0.1123457411147237 0 -0.050801492721354619 0.10959291473997231 0 -0.058251442615051982 0.1029428312725976 0 -0.058174271421562278 0.1123457411147237 0 -0.06634993084398455 0.1109731543569063 0 -0.058174271421562278 0.1123457411147237 0 -0.052559764984113189 0.1187955207174103 0 -0.062908725943307098 0.1194242844867319 0 -0.058174271421562278 0.1123457411147237 0 -0.062908725943307098 0.1194242844867319 0 -0.06634993084398455 0.1109731543569063 0 -0.058174271421562278 0.1123457411147237 0 -0.050801492721354619 0.10959291473997231 0 -0.052559764984113189 0.1187955207174103 0 -0.064960192440270639 0.13269513757965329 0 -0.052559764984113189 0.1187955207174103 0 -0.062908725943307098 0.1194242844867319 0 -0.064960192440270639 0.13269513757965329 0 -0.062908725943307098 0.1194242844867319 0 -0.072370878685899642 0.1217286521554925 0 -0.062908725943307098 0.1194242844867319 0 -0.06634993084398455 0.1109731543569063 0 -0.072370878685899642 0.1217286521554925 0 -0.06634993084398455 0.1109731543569063 0 -0.072370878685899642 0.1217286521554925 0 -0.073367809242115223 0.1073273398383895 0 -0.072370878685899642 0.1217286521554925 0 -0.081484810909039793 0.115504509870323 0 -0.073367809242115223 0.1073273398383895 0 -0.081484810909039793 0.115504509870323 0 -0.083607108416621514 0.1059267391939793 0 -0.10229051503101071 0.1200607470932567 0 -0.083607108416621514 0.1059267391939793 0 -0.10229051503101071 0.1200607470932567 0 -0.083607108416621514 0.1059267391939793 0 -0.090297345563659093 0.098177352824033642 0 -0.079036332758521385 0.088413743003588161 0 -0.081484810909039793 0.115504509870323 0 -0.083607108416621514 0.1059267391939793 0 -0.079036332758521385 0.088413743003588161 0 -0.081484810909039793 0.115504509870323 0 -0.079036332758521385 0.088413743003588161 0 -0.083607108416621514 0.1059267391939793 0 -0.090297345563659093 0.098177352824033642 0 -0.099820504866436219 0.10574094215644871 0 -0.073367809242115223 0.1073273398383895 0 -0.067597093013130757 0.10001663980563751 0 -0.079036332758521385 0.088413743003588161 0 -0.081484810909039793 0.115504509870323 0 -0.073367809242115223 0.1073273398383895 0 -0.079036332758521385 0.088413743003588161 0 -0.058251442615051982 0.1029428312725976 0 -0.06634993084398455 0.1109731543569063 0 -0.067597093013130757 0.10001663980563751 0 -0.06634993084398455 0.1109731543569063 0 -0.073367809242115223 0.1073273398383895 0 -0.067597093013130757 0.10001663980563751 0 -0.059050839940257741 0.089343006760422075 0 -0.065923365744557205 0.075942869226539103 0 -0.079036332758521385 0.088413743003588161 0 -0.059050839940257741 0.089343006760422075 0 -0.067597093013130757 0.10001663980563751 0 -0.079036332758521385 0.088413743003588161 0 -0.047909777990857973 0.066596898312140759 0 -0.065923365744557205 0.075942869226539103 0 -0.076587854608002978 0.061322976136853252 0 -0.079036332758521385 0.088413743003588161 0 -0.076587854608002978 0.061322976136853252 0 -0.065923365744557205 0.075942869226539103 0 -0.079036332758521385 0.088413743003588161 0 -0.076587854608002978 0.061322976136853252 0 -0.079036332758521385 0.088413743003588161 0 -0.1016812002747732 0.072711056816511174 0 -0.076587854608002978 0.061322976136853252 0 -0.079036332758521385 0.088413743003588161 0 -0.098725436213057224 0.09262798694211842 0 -0.1016812002747732 0.072711056816511174 0 -0.090297345563659093 0.098177352824033642 0 -0.079036332758521385 0.088413743003588161 0 -0.098725436213057224 0.09262798694211842 0 -0.098725436213057224 0.09262798694211842 0 -0.1016812002747732 0.072711056816511174 0 -0.1188734724845756 0.098450919301042744 0 -0.1292250598048533 0.073547824708840526 0 -0.1016812002747732 0.072711056816511174 0 -0.1159912604935 0.053330403839997292 0 -0.1292250598048533 0.073547824708840526 0 -0.1016812002747732 0.072711056816511174 0 -0.1188734724845756 0.098450919301042744 0 -0.1292250598048533 0.073547824708840526 0 -0.1188734724845756 0.098450919301042744 0 -0.1188734724845756 0.098450919301042744 0 -0.11980067290913921 0.11633006653277669 0 -0.099820504866436219 0.10574094215644871 0 -0.1209739216453999 0.13419475499253419 0 -0.11980067290913921 0.11633006653277669 0 -0.10229051503101071 0.1200607470932567 0 -0.083607108416621514 0.1059267391939793 0 -0.10229051503101071 0.1200607470932567 0 -0.099820504866436219 0.10574094215644871 0 -0.11980067290913921 0.11633006653277669 0 -0.10229051503101071 0.1200607470932567 0 -0.099820504866436219 0.10574094215644871 0 -0.098725436213057224 0.09262798694211842 0 -0.1188734724845756 0.098450919301042744 0 -0.099820504866436219 0.10574094215644871 0 -0.090297345563659093 0.098177352824033642 0 -0.098725436213057224 0.09262798694211842 0 -0.099820504866436219 0.10574094215644871 0 -0.099963557658248631 0.01255376896326779 0 -0.12332417756614659 0.01212573047390467 0 -0.1045330586676519 0.033180804512176483 0 -0.099963557658248631 0.01255376896326779 0 -0.1045330586676519 0.033180804512176483 0 -0.079747820120782006 0.030302778211909329 0 -0.1101430223599959 -0.0097464949415967794 0 -0.089612629523708298 -0.002578900474753773 0 -0.099963557658248631 0.01255376896326779 0 -0.1101430223599959 -0.0097464949415967794 0 -0.099963557658248631 0.01255376896326779 0 -0.12332417756614659 0.01212573047390467 0 -0.12559464592930161 0.033607998242454432 0 -0.12332417756614659 0.01212573047390467 0 -0.1045330586676519 0.033180804512176483 0 -0.12559464592930161 0.033607998242454432 0 -0.1159912604935 0.053330403839997292 0 -0.1045330586676519 0.033180804512176483 0 -0.1016812002747732 0.072711056816511174 0 -0.1159912604935 0.053330403839997292 0 -0.09570823883294205 0.050169603903489512 0 -0.1159912604935 0.053330403839997292 0 -0.09570823883294205 0.050169603903489512 0 -0.1045330586676519 0.033180804512176483 0 -0.09570823883294205 0.050169603903489512 0 -0.1045330586676519 0.033180804512176483 0 -0.079747820120782006 0.030302778211909329 0 -0.1016812002747732 0.072711056816511174 0 -0.09570823883294205 0.050169603903489512 0 -0.076587854608002978 0.061322976136853252 0 -0.09570823883294205 0.050169603903489512 0 -0.076587854608002978 0.061322976136853252 0 -0.079747820120782006 0.030302778211909329 0 -0.076587854608002978 0.061322976136853252 0 -0.079747820120782006 0.030302778211909329 0 -0.054281001678332511 0.040890961582825493 0 -0.079747820120782006 0.030302778211909329 0 -0.075867284991946005 0.0089052263810172338 0 -0.055020306791806882 0.011606654754603559 0 -0.079747820120782006 0.030302778211909329 0 -0.055020306791806882 0.011606654754603559 0 -0.054281001678332511 0.040890961582825493 0 -0.099963557658248631 0.01255376896326779 0 -0.079747820120782006 0.030302778211909329 0 -0.075867284991946005 0.0089052263810172338 0 -0.089612629523708298 -0.002578900474753773 0 -0.099963557658248631 0.01255376896326779 0 -0.075867284991946005 0.0089052263810172338 0 -0.064293171325576548 -0.01105348015708171 0 -0.075867284991946005 0.0089052263810172338 0 -0.055020306791806882 0.011606654754603559 0 -0.055020306791806882 0.011606654754603559 0 -0.035656216418855913 0.023287976328726971 0 -0.054281001678332511 0.040890961582825493 0 -0.046732334298602442 -0.006744458449042038 0 -0.055020306791806882 0.011606654754603559 0 -0.031201037738230551 0.0036621007205455318 0 -0.055020306791806882 0.011606654754603559 0 -0.035656216418855913 0.023287976328726971 0 -0.031201037738230551 0.0036621007205455318 0 -0.047909777990857973 0.066596898312140759 0 -0.054281001678332511 0.040890961582825493 0 -0.047909777990857973 0.066596898312140759 0 -0.076587854608002978 0.061322976136853252 0 -0.054281001678332511 0.040890961582825493 0 -0.035656216418855913 0.023287976328726971 0 -0.054281001678332511 0.040890961582825493 0 -0.02734949526734896 0.043167672965685439 0 -0.047909777990857973 0.066596898312140759 0 -0.054281001678332511 0.040890961582825493 0 -0.02734949526734896 0.043167672965685439 0 -0.047909777990857973 0.066596898312140759 0 -0.02734949526734896 0.043167672965685439 0 -0.01475407716168687 0.060851110243847019 0 -0.02734949526734896 0.043167672965685439 0 -0.0010960172098543419 0.042513737653159439 0 -0.01042924061856065 0.01711249161997485 0 -0.0010960172098543419 0.042513737653159439 0 -0.01475407716168687 0.060851110243847019 0 0.002034669314375587 0.057952022898971632 0 -0.02734949526734896 0.043167672965685439 0 -0.0010960172098543419 0.042513737653159439 0 -0.01475407716168687 0.060851110243847019 0 -0.035656216418855913 0.023287976328726971 0 -0.031201037738230551 0.0036621007205455318 0 -0.01042924061856065 0.01711249161997485 0 -0.0089960230977084721 -0.01103573319387138 0 -0.031201037738230551 0.0036621007205455318 0 -0.01042924061856065 0.01711249161997485 0 -0.035656216418855913 0.023287976328726971 0 -0.02734949526734896 0.043167672965685439 0 -0.01042924061856065 0.01711249161997485 0 -0.0010960172098543419 0.042513737653159439 0 -0.01042924061856065 0.01711249161997485 0 0.0098834863910447109 0.029145312182995511 0 -0.0089960230977084721 -0.01103573319387138 0 -0.01042924061856065 0.01711249161997485 0 0.0045792914518202627 0.0040950445345904066 0 -0.01042924061856065 0.01711249161997485 0 0.0045792914518202627 0.0040950445345904066 0 0.01841636082331442 0.017296003022671608 0 0.0045792914518202627 0.0040950445345904066 0 0.01841636082331442 0.017296003022671608 0 0.01932606870023575 -0.0069925833104134546 0 -0.01042924061856065 0.01711249161997485 0 0.01841636082331442 0.017296003022671608 0 -0.01042924061856065 0.01711249161997485 0 0.0098834863910447109 0.029145312182995511 0 0.01841636082331442 0.017296003022671608 0 0.0098834863910447109 0.029145312182995511 0 0.01841636082331442 0.017296003022671608 0 0.02576239239508795 0.031376676689934872 0 0.01841636082331442 0.017296003022671608 0 0.02576239239508795 0.031376676689934872 0 0.037047131790631377 0.026522451707800921 0 0.01841636082331442 0.017296003022671608 0 0.03375457624651311 0.01395544178252218 0 0.01932606870023575 -0.0069925833104134546 0 0.03375457624651311 0.01395544178252218 0 0.01932606870023575 -0.0069925833104134546 0 -0.0010960172098543419 0.042513737653159439 0 0.002034669314375587 0.057952022898971632 0 0.016346918795954079 0.05015532121738199 0 0.002034669314375587 0.057952022898971632 0 0.016346918795954079 0.05015532121738199 0 0.019336412406651179 0.063883867485784743 0 -0.0010960172098543419 0.042513737653159439 0 0.01676393656523617 0.037427651929236763 0 0.016346918795954079 0.05015532121738199 0 -0.0010960172098543419 0.042513737653159439 0 0.0098834863910447109 0.029145312182995511 0 0.01676393656523617 0.037427651929236763 0 0.0098834863910447109 0.029145312182995511 0 0.01676393656523617 0.037427651929236763 0 0.02576239239508795 0.031376676689934872 0 0.01676393656523617 0.037427651929236763 0 0.02576239239508795 0.031376676689934872 0 0.0292754013543703 0.043299188392650297 0 0.01676393656523617 0.037427651929236763 0 0.0292754013543703 0.043299188392650297 0 0.016346918795954079 0.05015532121738199 0 0.0292754013543703 0.043299188392650297 0 0.016346918795954079 0.05015532121738199 0 0.031278943650257837 0.055592948761876988 0 0.016346918795954079 0.05015532121738199 0 0.031278943650257837 0.055592948761876988 0 0.019336412406651179 0.063883867485784743 0 0.044586049542794479 0.060495943968892622 0 0.031278943650257837 0.055592948761876988 0 0.04317818686993128 0.048356839086185148 0 0.044586049542794479 0.060495943968892622 0 0.031278943650257837 0.055592948761876988 0 0.034942519138216707 0.068165210744933744 0 0.0292754013543703 0.043299188392650297 0 0.031278943650257837 0.055592948761876988 0 0.04317818686993128 0.048356839086185148 0 0.04317818686993128 0.048356839086185148 0 0.041150429782503883 0.036255668233017173 0 0.054646617625796437 0.041110669488953297 0 0.0292754013543703 0.043299188392650297 0 0.04317818686993128 0.048356839086185148 0 0.041150429782503883 0.036255668233017173 0 0.02576239239508795 0.031376676689934872 0 0.041150429782503883 0.036255668233017173 0 0.037047131790631377 0.026522451707800921 0 0.02576239239508795 0.031376676689934872 0 0.0292754013543703 0.043299188392650297 0 0.041150429782503883 0.036255668233017173 0 0.041150429782503883 0.036255668233017173 0 0.054646617625796437 0.041110669488953297 0 0.05264451368706112 0.030204396168012609 0 0.054646617625796437 0.041110669488953297 0 0.05264451368706112 0.030204396168012609 0 0.065486367675815421 0.034572053388985648 0 0.054646617625796437 0.041110669488953297 0 0.065486367675815421 0.034572053388985648 0 0.064358290650222347 0.046282094534396051 0 0.04317818686993128 0.048356839086185148 0 0.054646617625796437 0.041110669488953297 0 0.05601822511557536 0.053359655220036051 0 0.044586049542794479 0.060495943968892622 0 0.04317818686993128 0.048356839086185148 0 0.05601822511557536 0.053359655220036051 0 0.054646617625796437 0.041110669488953297 0 0.05601822511557536 0.053359655220036051 0 0.064358290650222347 0.046282094534396051 0 0.05601822511557536 0.053359655220036051 0 0.061289775951766212 0.060987566067924832 0 0.054744216709492637 0.065227032035206453 0 0.05601822511557536 0.053359655220036051 0 0.061289775951766212 0.060987566067924832 0 0.067941668414158135 0.055854136259246803 0 0.044586049542794479 0.060495943968892622 0 0.05601822511557536 0.053359655220036051 0 0.054744216709492637 0.065227032035206453 0 0.03375457624651311 0.01395544178252218 0 0.047261962265189493 0.017479514425368371 0 0.046596842003609563 -0.00069525990569292847 0 0.03375457624651311 0.01395544178252218 0 0.046596842003609563 -0.00069525990569292847 0 0.033591006718873592 -0.0077061067195627808 0 0.01841636082331442 0.017296003022671608 0 0.03375457624651311 0.01395544178252218 0 0.047261962265189493 0.017479514425368371 0 0.01841636082331442 0.017296003022671608 0 0.047261962265189493 0.017479514425368371 0 0.01841636082331442 0.017296003022671608 0 0.037047131790631377 0.026522451707800921 0 0.047261962265189493 0.017479514425368371 0 0.041150429782503883 0.036255668233017173 0 0.037047131790631377 0.026522451707800921 0 0.05264451368706112 0.030204396168012609 0 0.037047131790631377 0.026522451707800921 0 0.047261962265189493 0.017479514425368371 0 0.05264451368706112 0.030204396168012609 0 0.047261962265189493 0.017479514425368371 0 0.076107563707064285 0.017663025828065119 0 0.047261962265189493 0.017479514425368371 0 0.076107563707064285 0.017663025828065119 0 0.063950914290884106 0.025662525408789209 0 0.047261962265189493 0.017479514425368371 0 0.05264451368706112 0.030204396168012609 0 0.063950914290884106 0.025662525408789209 0 0.05264451368706112 0.030204396168012609 0 0.063950914290884106 0.025662525408789209 0 0.065486367675815421 0.034572053388985648 0 0.047261962265189493 0.017479514425368371 0 0.06175221594896229 0.0069685432474568291 0 0.076107563707064285 0.017663025828065119 0 0.047261962265189493 0.017479514425368371 0 0.06175221594896229 0.0069685432474568291 0 0.046596842003609563 -0.00069525990569292847 0 0.06175221594896229 0.0069685432474568291 0 0.07905212668422168 0.0023684285233401721 0 0.068077007432875786 -0.0040758889933961793 0 0.06175221594896229 0.0069685432474568291 0 0.07905212668422168 0.0023684285233401721 0 0.076107563707064285 0.017663025828065119 0 0.07905212668422168 0.0023684285233401721 0 0.078254164119290204 0.02839363723351428 0 0.07905212668422168 0.0023684285233401721 0 0.091770219455842267 0.0081801344681066215 0 0.087847030251306052 0.01971377807653699 0 0.07905212668422168 0.0023684285233401721 0 0.091770219455842267 0.0081801344681066215 0 0.0878376211017112 -0.010387035779324091 0 0.087847030251306052 0.01971377807653699 0 0.078254164119290204 0.02839363723351428 0 0.095515182730773779 0.0200409229087486 0 0.090339786138129763 0.02880406384902387 0 0.078254164119290204 0.02839363723351428 0 0.095515182730773779 0.0200409229087486 0 0.078254164119290204 0.02839363723351428 0 0.095515182730773779 0.0200409229087486 0 0.07905212668422168 0.0023684285233401721 0 0.087847030251306052 0.01971377807653699 0 0.078254164119290204 0.02839363723351428 0 0.090339786138129763 0.02880406384902387 0 0.078254164119290204 0.02839363723351428 0 0.090502179544923622 0.036206125326248867 0 0.087847030251306052 0.01971377807653699 0 0.095515182730773779 0.0200409229087486 0 0.091770219455842267 0.0081801344681066215 0 0.087847030251306052 0.01971377807653699 0 0.095515182730773779 0.0200409229087486 0 0.07905212668422168 0.0023684285233401721 0 0.078254164119290204 0.02839363723351428 0 0.076107563707064285 0.017663025828065119 0 0.078254164119290204 0.02839363723351428 0 0.076107563707064285 0.017663025828065119 0 0.063950914290884106 0.025662525408789209 0 0.078254164119290204 0.02839363723351428 0 0.063950914290884106 0.025662525408789209 0 0.065486367675815421 0.034572053388985648 0 0.078254164119290204 0.02839363723351428 0 0.065486367675815421 0.034572053388985648 0 0.077698574419766409 0.04651395831475845 0 0.078254164119290204 0.02839363723351428 0 0.077698574419766409 0.04651395831475845 0 0.065486367675815421 0.034572053388985648 0 0.064358290650222347 0.046282094534396051 0 0.077698574419766409 0.04651395831475845 0 0.078254164119290204 0.02839363723351428 0 0.065486367675815421 0.034572053388985648 0 0.077698574419766409 0.04651395831475845 0 0.07714298472024167 0.064634279396002609 0 0.077698574419766409 0.04651395831475845 0 0.067941668414158135 0.055854136259246803 0 0.07714298472024167 0.064634279396002609 0 0.061289775951766212 0.060987566067924832 0 0.067941668414158135 0.055854136259246803 0 0.069999157542351587 0.065148634365049765 0 0.064358290650222347 0.046282094534396051 0 0.077698574419766409 0.04651395831475845 0 0.067941668414158135 0.055854136259246803 0 0.05601822511557536 0.053359655220036051 0 0.064358290650222347 0.046282094534396051 0 0.067941668414158135 0.055854136259246803 0 0.067941668414158135 0.055854136259246803 0 0.07714298472024167 0.064634279396002609 0 0.069999157542351587 0.065148634365049765 0 0.077698574419766409 0.04651395831475845 0 0.092400146547217218 0.056033403321733358 0 0.096289651642211455 0.046228781006692012 0 0.077698574419766409 0.04651395831475845 0 0.087881666206539852 0.063054619256112485 0 0.07714298472024167 0.064634279396002609 0 0.077698574419766409 0.04651395831475845 0 0.092400146547217218 0.056033403321733358 0 0.087881666206539852 0.063054619256112485 0 0.092400146547217218 0.056033403321733358 0 0.097696953631965511 0.065844372140303697 0 0.087881666206539852 0.063054619256112485 0 0.078254164119290204 0.02839363723351428 0 0.077698574419766409 0.04651395831475845 0 0.090502179544923622 0.036206125326248867 0 0.077698574419766409 0.04651395831475845 0 0.090502179544923622 0.036206125326248867 0 0.096289651642211455 0.046228781006692012 0 0.090339786138129763 0.02880406384902387 0 0.090502179544923622 0.036206125326248867 0 0.097087618157531447 0.03057556992758375 0 0.090502179544923622 0.036206125326248867 0 0.10204923092768491 0.037603420808938547 0 0.097087618157531447 0.03057556992758375 0 0.090502179544923622 0.036206125326248867 0 0.096289651642211455 0.046228781006692012 0 0.10204923092768491 0.037603420808938547 0 0.096289651642211455 0.046228781006692012 0 0.10204923092768491 0.037603420808938547 0 0.1110374364555668 0.042884925464511087 0 0.10204923092768491 0.037603420808938547 0 0.1110374364555668 0.042884925464511087 0 0.1083899404091391 0.030535384444801871 0 0.10204923092768491 0.037603420808938547 0 0.097087618157531447 0.03057556992758375 0 0.1083899404091391 0.030535384444801871 0 0.092400146547217218 0.056033403321733358 0 0.1039546911980465 0.057002555395901461 0 0.097696953631965511 0.065844372140303697 0 0.092400146547217218 0.056033403321733358 0 0.096289651642211455 0.046228781006692012 0 0.1039546911980465 0.057002555395901461 0 0.096289651642211455 0.046228781006692012 0 0.1039546911980465 0.057002555395901461 0 0.1110374364555668 0.042884925464511087 0 0.1039546911980465 0.057002555395901461 0 0.1184476747314175 0.056014063399916478 0 0.1106165626664971 0.069574427499079716 0 0.1039546911980465 0.057002555395901461 0 0.1184476747314175 0.056014063399916478 0 0.1110374364555668 0.042884925464511087 0 0.1110374364555668 0.042884925464511087 0 0.1196768841157642 0.03312942407152087 0 0.1083899404091391 0.030535384444801871 0 0.1110374364555668 0.042884925464511087 0 0.1196768841157642 0.03312942407152087 0 0.12648151235079791 0.041627876699407602 0 0.1184476747314175 0.056014063399916478 0 0.1110374364555668 0.042884925464511087 0 0.12648151235079791 0.041627876699407602 0 0.1196768841157642 0.03312942407152087 0 0.1221117354862226 0.0211756062385163 0 0.13187984920416429 0.031323327930024139 0 0.1221117354862226 0.0211756062385163 0 0.1175995477600949 0.0093541612357724065 0 0.095515182730773779 0.0200409229087486 0 0.1196768841157642 0.03312942407152087 0 0.1221117354862226 0.0211756062385163 0 0.1083899404091391 0.030535384444801871 0 0.1175995477600949 0.0093541612357724065 0 0.10585658762530251 0.0097324821153323259 0 0.110514703989132 -0.0008969358902345655 0 0.1175995477600949 0.0093541612357724065 0 0.095515182730773779 0.0200409229087486 0 0.1175995477600949 0.0093541612357724065 0 0.10585658762530251 0.0097324821153323259 0 0.095515182730773779 0.0200409229087486 0 0.10585658762530251 0.0097324821153323259 0 0.110514703989132 -0.0008969358902345655 0 0.099403600792298777 -8.5827329185945826e-05 0 0.10585658762530251 0.0097324821153323259 0 0.098136397651054336 0.0094669280407504025 0 0.099403600792298777 -8.5827329185945826e-05 0 0.091770219455842267 0.0081801344681066215 0 0.098136397651054336 0.0094669280407504025 0 0.099403600792298777 -8.5827329185945826e-05 0 0.10585658762530251 0.0097324821153323259 0 0.098136397651054336 0.0094669280407504025 0 0.095515182730773779 0.0200409229087486 0 0.091770219455842267 0.0081801344681066215 0 0.098136397651054336 0.0094669280407504025 0 0.095515182730773779 0.0200409229087486 0 0.1221117354862226 0.0211756062385163 0 0.095515182730773779 0.0200409229087486 0 0.1221117354862226 0.0211756062385163 0 0.095515182730773779 0.0200409229087486 0 0.1083899404091391 0.030535384444801871 0 0.090339786138129763 0.02880406384902387 0 0.095515182730773779 0.0200409229087486 0 0.097087618157531447 0.03057556992758375 0 0.095515182730773779 0.0200409229087486 0 0.097087618157531447 0.03057556992758375 0 0.1083899404091391 0.030535384444801871 0 0.1107267544787164 0.1204150413650918 0 0.08812886447722601 0.1116229686304006 0 0.10095871487851329 0.099020024805160867 0 0.1107267544787164 0.1204150413650918 0 0.08812886447722601 0.1116229686304006 0 0.1107267544787164 0.1204150413650918 0 0.08812886447722601 0.1116229686304006 0 0.093826915640095265 0.12855250308583879 0 0.1107267544787164 0.1204150413650918 0 0.1189401858846638 0.099345531850481006 0 0.13715475885935269 0.1120727242666161 0 0.1107267544787164 0.1204150413650918 0 0.1189401858846638 0.099345531850481006 0 0.10095871487851329 0.099020024805160867 0 0.1107267544787164 0.1204150413650918 0 0.1189401858846638 0.099345531850481006 0 0.1189401858846638 0.099345531850481006 0 0.094469671713508424 0.082247083107764296 0 0.12547495181618501 0.082582219884395291 0 0.1106165626664971 0.069574427499079716 0 0.094469671713508424 0.082247083107764296 0 0.12547495181618501 0.082582219884395291 0 0.1189401858846638 0.099345531850481006 0 0.12547495181618501 0.082582219884395291 0 0.1184476747314175 0.056014063399916478 0 0.1106165626664971 0.069574427499079716 0 0.12616329073261071 0.067024338333600775 0 0.1106165626664971 0.069574427499079716 0 0.12616329073261071 0.067024338333600775 0 0.12547495181618501 0.082582219884395291 0 0.1106165626664971 0.069574427499079716 0 0.097696953631965511 0.065844372140303697 0 0.094469671713508424 0.082247083107764296 0 0.1039546911980465 0.057002555395901461 0 0.1106165626664971 0.069574427499079716 0 0.097696953631965511 0.065844372140303697 0 0.10095871487851329 0.099020024805160867 0 0.094469671713508424 0.082247083107764296 0 0.090623544958507274 0.099663641955594851 0 0.10095871487851329 0.099020024805160867 0 0.1189401858846638 0.099345531850481006 0 0.094469671713508424 0.082247083107764296 0 0.1189401858846638 0.099345531850481006 0 0.094469671713508424 0.082247083107764296 0 0.094469671713508424 0.082247083107764296 0 0.070888608056777505 0.075890095307825492 0 0.075220001928022931 0.086002584818095792 0 0.094469671713508424 0.082247083107764296 0 0.075220001928022931 0.086002584818095792 0 0.080483472162656722 0.095709684945086609 0 0.094469671713508424 0.082247083107764296 0 0.080483472162656722 0.095709684945086609 0 0.090623544958507274 0.099663641955594851 0 0.094469671713508424 0.082247083107764296 0 0.07714298472024167 0.064634279396002609 0 0.069999157542351587 0.065148634365049765 0 0.097696953631965511 0.065844372140303697 0 0.094469671713508424 0.082247083107764296 0 0.087881666206539852 0.063054619256112485 0 0.094469671713508424 0.082247083107764296 0 0.070888608056777505 0.075890095307825492 0 0.069999157542351587 0.065148634365049765 0 0.094469671713508424 0.082247083107764296 0 0.069999157542351587 0.065148634365049765 0 0.094469671713508424 0.082247083107764296 0 0.087881666206539852 0.063054619256112485 0 0.07714298472024167 0.064634279396002609 0 0.070888608056777505 0.075890095307825492 0 0.063138566934015719 0.083441176909156867 0 0.059659450625032188 0.072279769256317572 0 0.070888608056777505 0.075890095307825492 0 0.063527989809047225 0.066818872967588955 0 0.059659450625032188 0.072279769256317572 0 0.070888608056777505 0.075890095307825492 0 0.069999157542351587 0.065148634365049765 0 0.063527989809047225 0.066818872967588955 0 0.061289775951766212 0.060987566067924832 0 0.069999157542351587 0.065148634365049765 0 0.063527989809047225 0.066818872967588955 0 0.075220001928022931 0.086002584818095792 0 0.068441617658889148 0.091870926596631708 0 0.080483472162656722 0.095709684945086609 0 0.070888608056777505 0.075890095307825492 0 0.075220001928022931 0.086002584818095792 0 0.063138566934015719 0.083441176909156867 0 0.075220001928022931 0.086002584818095792 0 0.063138566934015719 0.083441176909156867 0 0.068441617658889148 0.091870926596631708 0 0.063138566934015719 0.083441176909156867 0 0.068441617658889148 0.091870926596631708 0 0.057835072794014723 0.091370290415109801 0 0.065530974475735609 0.1028308958957094 0 0.080483472162656722 0.095709684945086609 0 0.08812886447722601 0.1116229686304006 0 0.065530974475735609 0.1028308958957094 0 0.08812886447722601 0.1116229686304006 0 0.068441617658889148 0.091870926596631708 0 0.065530974475735609 0.1028308958957094 0 0.057835072794014723 0.091370290415109801 0 0.065530974475735609 0.1028308958957094 0 0.079339627596799217 0.1164872314899148 0 0.054806506132949281 0.1075883221890552 0 0.068441617658889148 0.091870926596631708 0 0.065530974475735609 0.1028308958957094 0 0.080483472162656722 0.095709684945086609 0 0.080483472162656722 0.095709684945086609 0 0.090623544958507274 0.099663641955594851 0 0.08812886447722601 0.1116229686304006 0 0.10095871487851329 0.099020024805160867 0 0.090623544958507274 0.099663641955594851 0 0.08812886447722601 0.1116229686304006 0 0.08812886447722601 0.1116229686304006 0 0.082322619978975192 0.1256009050522981 0 0.093826915640095265 0.12855250308583879 0 0.079339627596799217 0.1164872314899148 0 0.073339457844807873 0.12469811022793489 0 0.082322619978975192 0.1256009050522981 0 0.08812886447722601 0.1116229686304006 0 0.079339627596799217 0.1164872314899148 0 0.082322619978975192 0.1256009050522981 0 0.079339627596799217 0.1164872314899148 0 0.06409668449741264 0.12024327120683891 0 0.054806506132949281 0.1075883221890552 0 0.079339627596799217 0.1164872314899148 0 0.073339457844807873 0.12469811022793489 0 0.06409668449741264 0.12024327120683891 0 0.065530974475735609 0.1028308958957094 0 0.08812886447722601 0.1116229686304006 0 0.079339627596799217 0.1164872314899148 0 0.079339627596799217 0.1164872314899148 0 0.054806506132949281 0.1075883221890552 0 0.073339457844807873 0.12469811022793489 0 0.06409668449741264 0.12024327120683891 0 0.067141198041719183 0.12963058133249411 0 0.06409668449741264 0.12024327120683891 0 0.049873174265023593 0.1200393206422268 0 0.057398494632256707 0.13262498522612789 0 0.049873174265023593 0.1200393206422268 0 0.054806506132949281 0.1075883221890552 0 0.043737194083525402 0.1110678904723672 0 0.06409668449741264 0.12024327120683891 0 0.049873174265023593 0.1200393206422268 0 0.054806506132949281 0.1075883221890552 0 0.065530974475735609 0.1028308958957094 0 0.042933084474245257 0.094038823161018248 0 0.065530974475735609 0.1028308958957094 0 0.054806506132949281 0.1075883221890552 0 0.042933084474245257 0.094038823161018248 0 0.065530974475735609 0.1028308958957094 0 0.042933084474245257 0.094038823161018248 0 0.057835072794014723 0.091370290415109801 0 0.054806506132949281 0.1075883221890552 0 0.042933084474245257 0.094038823161018248 0 0.030273384669099349 0.09868941288819566 0 0.054806506132949281 0.1075883221890552 0 0.030273384669099349 0.09868941288819566 0 0.054806506132949281 0.1075883221890552 0 0.043737194083525402 0.1110678904723672 0 0.030273384669099349 0.09868941288819566 0 0.033911473668448662 0.1103035769788476 0 0.043737194083525402 0.1110678904723672 0 0.030273384669099349 0.09868941288819566 0 0.033911473668448662 0.1103035769788476 0 0.036260268305745531 0.1196876977242806 0 0.025375047615424379 0.1117693068305468 0 0.033911473668448662 0.1103035769788476 0 0.036260268305745531 0.1196876977242806 0 0.043737194083525402 0.1110678904723672 0 0.036260268305745531 0.1196876977242806 0 0.025749548020319198 0.12421072619980519 0 0.033687501549020907 0.1310224577675054 0 0.049873174265023593 0.1200393206422268 0 0.036260268305745531 0.1196876977242806 0 0.044411149288317527 0.13149611031592251 0 0.049873174265023593 0.1200393206422268 0 0.036260268305745531 0.1196876977242806 0 0.043737194083525402 0.1110678904723672 0 0.044586049542794479 0.060495943968892622 0 0.054744216709492637 0.065227032035206453 0 0.047863068983481347 0.071770702164041217 0 0.054744216709492637 0.065227032035206453 0 0.059659450625032188 0.072279769256317572 0 0.047863068983481347 0.071770702164041217 0 0.061289775951766212 0.060987566067924832 0 0.063527989809047225 0.066818872967588955 0 0.054744216709492637 0.065227032035206453 0 0.063527989809047225 0.066818872967588955 0 0.054744216709492637 0.065227032035206453 0 0.059659450625032188 0.072279769256317572 0 0.063138566934015719 0.083441176909156867 0 0.059659450625032188 0.072279769256317572 0 0.055954346279278991 0.0783873216684427 0 0.059659450625032188 0.072279769256317572 0 0.047863068983481347 0.071770702164041217 0 0.055954346279278991 0.0783873216684427 0 0.047863068983481347 0.071770702164041217 0 0.050453047312920697 0.083815672289018747 0 0.055954346279278991 0.0783873216684427 0 0.063138566934015719 0.083441176909156867 0 0.050453047312920697 0.083815672289018747 0 0.055954346279278991 0.0783873216684427 0 0.063138566934015719 0.083441176909156867 0 0.050453047312920697 0.083815672289018747 0 0.057835072794014723 0.091370290415109801 0 0.042933084474245257 0.094038823161018248 0 0.050453047312920697 0.083815672289018747 0 0.057835072794014723 0.091370290415109801 0 0.042933084474245257 0.094038823161018248 0 0.050453047312920697 0.083815672289018747 0 0.038111198264004248 0.080329207550698112 0 0.042933084474245257 0.094038823161018248 0 0.038111198264004248 0.080329207550698112 0 0.030442872300299611 0.0871492564159978 0 0.042933084474245257 0.094038823161018248 0 0.030442872300299611 0.0871492564159978 0 0.030273384669099349 0.09868941288819566 0 0.047863068983481347 0.071770702164041217 0 0.050453047312920697 0.083815672289018747 0 0.038111198264004248 0.080329207550698112 0 0.047863068983481347 0.071770702164041217 0 0.038111198264004248 0.080329207550698112 0 0.034942519138216707 0.068165210744933744 0 0.038111198264004248 0.080329207550698112 0 0.034942519138216707 0.068165210744933744 0 0.024091848018943131 0.076624064522879287 0 0.044586049542794479 0.060495943968892622 0 0.047863068983481347 0.071770702164041217 0 0.034942519138216707 0.068165210744933744 0 0.019336412406651179 0.063883867485784743 0 0.024091848018943131 0.076624064522879287 0 0.0045890164421649726 0.073984735346648359 0 0.031278943650257837 0.055592948761876988 0 0.034942519138216707 0.068165210744933744 0 0.019336412406651179 0.063883867485784743 0 0.034942519138216707 0.068165210744933744 0 0.019336412406651179 0.063883867485784743 0 0.024091848018943131 0.076624064522879287 0 0.024091848018943131 0.076624064522879287 0 0.019027476927151291 0.085247594552211439 0 0.0045890164421649726 0.073984735346648359 0 0.019027476927151291 0.085247594552211439 0 0.0057402632052494153 0.089790503587336104 0 0.030273384669099349 0.09868941288819566 0 0.038111198264004248 0.080329207550698112 0 0.024091848018943131 0.076624064522879287 0 0.030442872300299611 0.0871492564159978 0 0.024091848018943131 0.076624064522879287 0 0.019027476927151291 0.085247594552211439 0 0.030442872300299611 0.0871492564159978 0 0.019027476927151291 0.085247594552211439 0 0.030442872300299611 0.0871492564159978 0 0.030273384669099349 0.09868941288819566 0 0.019027476927151291 0.085247594552211439 0 0.0057402632052494153 0.089790503587336104 0 0.0045890164421649726 0.073984735346648359 0 0.002034669314375587 0.057952022898971632 0 0.019336412406651179 0.063883867485784743 0 0.0045890164421649726 0.073984735346648359 0 0.025375047615424379 0.1117693068305468 0 0.0143427559978945 0.1036254073975484 0 0.011119905785276029 0.11863783152895049 0 0.025749548020319198 0.12421072619980519 0 0.025375047615424379 0.1117693068305468 0 0.011119905785276029 0.11863783152895049 0 0.036260268305745531 0.1196876977242806 0 0.025749548020319198 0.12421072619980519 0 0.025375047615424379 0.1117693068305468 0 0.025375047615424379 0.1117693068305468 0 0.030273384669099349 0.09868941288819566 0 0.0143427559978945 0.1036254073975484 0 0.033911473668448662 0.1103035769788476 0 0.025375047615424379 0.1117693068305468 0 0.030273384669099349 0.09868941288819566 0 0.0057402632052494153 0.089790503587336104 0 0.030273384669099349 0.09868941288819566 0 0.0143427559978945 0.1036254073975484 0 0.0057402632052494153 0.089790503587336104 0 0.030273384669099349 0.09868941288819566 0 -0.00089384049089925866 0.099379613399809719 0 0.011119905785276029 0.11863783152895049 0 -0.00089384049089925866 0.099379613399809719 0 0.0143427559978945 0.1036254073975484 0 0.011119905785276029 0.11863783152895049 0 -0.00089384049089925866 0.099379613399809719 0 0.0057402632052494153 0.089790503587336104 0 0.0143427559978945 0.1036254073975484 0 -0.002949797505990402 0.11698106427360989 0 -0.00089384049089925866 0.099379613399809719 0 0.011119905785276029 0.11863783152895049 0 -0.00082439648766763319 0.126182985957942 0 -0.002949797505990402 0.11698106427360989 0 0.011119905785276029 0.11863783152895049 0 0.0060329548530184979 0.1339258120873098 0 0.023133652061451342 0.1378960496580913 0 0.01080005258353604 0.14285378316903499 0 -0.00082439648766763319 0.126182985957942 0 0.011119905785276029 0.11863783152895049 0 0.0060329548530184979 0.1339258120873098 0 0.011119905785276029 0.11863783152895049 0 0.0060329548530184979 0.1339258120873098 0 0.023133652061451342 0.1378960496580913 0 0.0060329548530184979 0.1339258120873098 0 0.01080005258353604 0.14285378316903499 0 0.00082868943533995004 0.141115449658996 0 0.025749548020319198 0.12421072619980519 0 0.011119905785276029 0.11863783152895049 0 0.023133652061451342 0.1378960496580913 0 0.011119905785276029 0.11863783152895049 0 0.023133652061451342 0.1378960496580913 0 0.025749548020319198 0.12421072619980519 0 0.023133652061451342 0.1378960496580913 0 0.033687501549020907 0.1310224577675054 0 0.017626416396847391 0.15274907450654779 0 0.035147398337626312 0.15715426778723229 0 0.023133652061451342 0.1378960496580913 0 0.035147398337626312 0.15715426778723229 0 0.023133652061451342 0.1378960496580913 0 0.017626416396847391 0.15274907450654779 0 0.035147398337626312 0.15715426778723229 0 0.023133652061451342 0.1378960496580913 0 0.017626416396847391 0.15274907450654779 0 0.01080005258353604 0.14285378316903499 0 0.017626416396847391 0.15274907450654779 0 0.01080005258353604 0.14285378316903499 0 0.00010543445606855251 0.14834388122586309 0 -0.0059281172365853313 0.14590660226524421 0 0.016508570505799319 0.16406344602788009 0 0.017626416396847391 0.15274907450654779 0 0.00010543445606855251 0.14834388122586309 0 -0.0059281172365853313 0.14590660226524421 0 0.00010543445606855251 0.14834388122586309 0 0.016508570505799319 0.16406344602788009 0 0.017626416396847391 0.15274907450654779 0 0.00010543445606855251 0.14834388122586309 0 0.016508570505799319 0.16406344602788009 0 0.01080005258353604 0.14285378316903499 0 0.00010543445606855251 0.14834388122586309 0 0.00082868943533995004 0.141115449658996 0 -0.0059281172365853313 0.14590660226524421 0 0.00079023584047536143 0.16212904774933021 0 0.016508570505799319 0.16406344602788009 0 0.00079023584047536143 0.16212904774933021 0 0.0092817368916129316 0.1703913735327689 0 0.016508570505799319 0.16406344602788009 0 -0.00013995955948005169 0.1722625834562479 0 0.00079023584047536143 0.16212904774933021 0 0.0092817368916129316 0.1703913735327689 0 0.0092817368916129316 0.1703913735327689 0 0.014388581913753969 0.1786032960423837 0 0.016508570505799319 0.16406344602788009 0 -0.00013995955948005169 0.1722625834562479 0 -0.002984792374191875 0.182819937678703 0 0.014388581913753969 0.1786032960423837 0 -0.00013995955948005169 0.1722625834562479 0 0.0092817368916129316 0.1703913735327689 0 0.014388581913753969 0.1786032960423837 0 0.014388581913753969 0.1786032960423837 0 0.038945258248183963 0.1822202897905161 0 0.026063462980553061 0.19189243905611769 0 0.014388581913753969 0.1786032960423837 0 0.016508570505799319 0.16406344602788009 0 0.038945258248183963 0.1822202897905161 0 0.016508570505799319 0.16406344602788009 0 0.038945258248183963 0.1822202897905161 0 0.017626416396847391 0.15274907450654779 0 0.016508570505799319 0.16406344602788009 0 0.035147398337626312 0.15715426778723229 0 0.016508570505799319 0.16406344602788009 0 0.035147398337626312 0.15715426778723229 0 0.041133348826321373 0.16674983752638431 0 0.035147398337626312 0.15715426778723229 0 0.041133348826321373 0.16674983752638431 0 0.035147398337626312 0.15715426778723229 0 0.056957487034522122 0.1626378449351028 0 0.035147398337626312 0.15715426778723229 0 0.056957487034522122 0.1626378449351028 0 0.048350494649797779 0.15015418015345339 0 0.035147398337626312 0.15715426778723229 0 0.041133348826321373 0.16674983752638431 0 0.056957487034522122 0.1626378449351028 0 0.016508570505799319 0.16406344602788009 0 0.041133348826321373 0.16674983752638431 0 0.038945258248183963 0.1822202897905161 0 0.041133348826321373 0.16674983752638431 0 0.038945258248183963 0.1822202897905161 0 0.052948188622079222 0.17831138263907509 0 0.052948188622079222 0.17831138263907509 0 0.056957487034522122 0.1626378449351028 0 0.066322903010800113 0.17957180739022019 0 0.052948188622079222 0.17831138263907509 0 0.061381945990568593 0.20037713355315201 0 0.066322903010800113 0.17957180739022019 0 0.038945258248183963 0.1822202897905161 0 0.052948188622079222 0.17831138263907509 0 0.061381945990568593 0.20037713355315201 0 0.041133348826321373 0.16674983752638431 0 0.052948188622079222 0.17831138263907509 0 0.056957487034522122 0.1626378449351028 0 0.056957487034522122 0.1626378449351028 0 0.048350494649797779 0.15015418015345339 0 0.059571495683659777 0.1474168749991891 0 0.048350494649797779 0.15015418015345339 0 0.04972290486466055 0.14070277112682411 0 0.059571495683659777 0.1474168749991891 0 0.04972290486466055 0.14070277112682411 0 0.059571495683659777 0.1474168749991891 0 0.057398494632256707 0.13262498522612789 0 0.059571495683659777 0.1474168749991891 0 0.057398494632256707 0.13262498522612789 0 0.068356426405192017 0.1394561736357392 0 0.049873174265023593 0.1200393206422268 0 0.057398494632256707 0.13262498522612789 0 0.044411149288317527 0.13149611031592251 0 0.04972290486466055 0.14070277112682411 0 0.057398494632256707 0.13262498522612789 0 0.044411149288317527 0.13149611031592251 0 0.04972290486466055 0.14070277112682411 0 0.044411149288317527 0.13149611031592251 0 0.038882890069270981 0.14182170493942761 0 0.023133652061451342 0.1378960496580913 0 0.033687501549020907 0.1310224577675054 0 0.038882890069270981 0.14182170493942761 0 0.036260268305745531 0.1196876977242806 0 0.044411149288317527 0.13149611031592251 0 0.033687501549020907 0.1310224577675054 0 0.044411149288317527 0.13149611031592251 0 0.033687501549020907 0.1310224577675054 0 0.038882890069270981 0.14182170493942761 0 0.023133652061451342 0.1378960496580913 0 0.035147398337626312 0.15715426778723229 0 0.038882890069270981 0.14182170493942761 0 0.035147398337626312 0.15715426778723229 0 0.048350494649797779 0.15015418015345339 0 0.038882890069270981 0.14182170493942761 0 0.048350494649797779 0.15015418015345339 0 0.04972290486466055 0.14070277112682411 0 0.038882890069270981 0.14182170493942761 0 0.029612041759355889 0.24435779863365781 0 0.01144972781442437 0.24492779461122019 0 0.014247957129277639 0.2286131111972064 0 0.029612041759355889 0.24435779863365781 0 0.01144972781442437 0.24492779461122019 0 0.029612041759355889 0.24435779863365781 0 0.01144972781442437 0.24492779461122019 0 0.02186299581578972 0.25674704960299283 0 -0.0067125861305070769 0.2454977905887831 0 0.01144972781442437 0.24492779461122019 0 -0.0067125861305070769 0.2454977905887831 0 0.01144972781442437 0.24492779461122019 0 0.014247957129277639 0.2286131111972064 0 0.014247957129277639 0.2286131111972064 0 0.018341283897770101 0.22308032342543099 0 0.002188355115057558 0.21728020735546791 0 -0.0067125861305070769 0.2454977905887831 0 0.014247957129277639 0.2286131111972064 0 0.002188355115057558 0.21728020735546791 0 0.014247957129277639 0.2286131111972064 0 0.002188355115057558 0.21728020735546791 0 0.029612041759355889 0.24435779863365781 0 0.018341283897770101 0.22308032342543099 0 0.029612041759355889 0.24435779863365781 0 0.018341283897770101 0.22308032342543099 0 0.040068511687278652 0.2250763925191783 0 0.029612041759355889 0.24435779863365781 0 0.014247957129277639 0.2286131111972064 0 0.018341283897770101 0.22308032342543099 0 0.018341283897770101 0.22308032342543099 0 0.02989936070082095 0.20710601012551369 0 0.040068511687278652 0.2250763925191783 0 0.018341283897770101 0.22308032342543099 0 0.02989936070082095 0.20710601012551369 0 0.0070705260361831421 0.20180284821720479 0 0.018341283897770101 0.22308032342543099 0 0.002188355115057558 0.21728020735546791 0 0.0070705260361831421 0.20180284821720479 0 0.018341283897770101 0.22308032342543099 0 0.0070705260361831421 0.20180284821720479 0 0.002188355115057558 0.21728020735546791 0 0.0070705260361831421 0.20180284821720479 0 -0.002984792374191875 0.182819937678703 0 0.0070705260361831421 0.20180284821720479 0 0.014388581913753969 0.1786032960423837 0 0.0070705260361831421 0.20180284821720479 0 -0.002984792374191875 0.182819937678703 0 0.014388581913753969 0.1786032960423837 0 0.0070705260361831421 0.20180284821720479 0 0.02989936070082095 0.20710601012551369 0 0.0070705260361831421 0.20180284821720479 0 0.026063462980553061 0.19189243905611769 0 0.014388581913753969 0.1786032960423837 0 0.0070705260361831421 0.20180284821720479 0 0.026063462980553061 0.19189243905611769 0 0.038945258248183963 0.1822202897905161 0 0.026063462980553061 0.19189243905611769 0 0.040581768907249398 0.1983751636629556 0 0.02989936070082095 0.20710601012551369 0 0.026063462980553061 0.19189243905611769 0 0.040581768907249398 0.1983751636629556 0 0.038945258248183963 0.1822202897905161 0 0.040581768907249398 0.1983751636629556 0 0.061381945990568593 0.20037713355315201 0 0.040581768907249398 0.1983751636629556 0 0.061381945990568593 0.20037713355315201 0 0.046618816616120468 0.21027994578947851 0 0.038945258248183963 0.1822202897905161 0 0.061381945990568593 0.20037713355315201 0 0.061381945990568593 0.20037713355315201 0 0.046618816616120468 0.21027994578947851 0 0.060433870424215642 0.22314753465730719 0 0.02989936070082095 0.20710601012551369 0 0.040581768907249398 0.1983751636629556 0 0.046618816616120468 0.21027994578947851 0 0.02989936070082095 0.20710601012551369 0 0.046618816616120468 0.21027994578947851 0 0.040068511687278652 0.2250763925191783 0 0.040068511687278652 0.2250763925191783 0 0.060433870424215642 0.22314753465730719 0 0.053555423586063432 0.2436063728312057 0 0.046618816616120468 0.21027994578947851 0 0.040068511687278652 0.2250763925191783 0 0.060433870424215642 0.22314753465730719 0 0.029612041759355889 0.24435779863365781 0 0.053555423586063432 0.2436063728312057 0 0.036465713714951727 0.25729648802006788 0 0.029612041759355889 0.24435779863365781 0 0.040068511687278652 0.2250763925191783 0 0.053555423586063432 0.2436063728312057 0 0.029612041759355889 0.24435779863365781 0 0.053555423586063432 0.2436063728312057 0 0.093683841314688002 0.24820175738892189 0 0.077498805412770863 0.2428549470287534 0 0.083818633732953257 0.218533977315788 0 0.060433870424215642 0.22314753465730719 0 0.053555423586063432 0.2436063728312057 0 0.077498805412770863 0.2428549470287534 0 0.053555423586063432 0.2436063728312057 0 0.077498805412770863 0.2428549470287534 0 0.060433870424215642 0.22314753465730719 0 0.077498805412770863 0.2428549470287534 0 0.083818633732953257 0.218533977315788 0 0.083818633732953257 0.218533977315788 0 0.083341955455175198 0.19066391239898459 0 0.097167490159200592 0.2077714345077841 0 0.061381945990568593 0.20037713355315201 0 0.083818633732953257 0.218533977315788 0 0.061381945990568593 0.20037713355315201 0 0.083818633732953257 0.218533977315788 0 0.083341955455175198 0.19066391239898459 0 0.061381945990568593 0.20037713355315201 0 0.060433870424215642 0.22314753465730719 0 0.083818633732953257 0.218533977315788 0 0.061381945990568593 0.20037713355315201 0 0.083341955455175198 0.19066391239898459 0 0.066322903010800113 0.17957180739022019 0 0.083341955455175198 0.19066391239898459 0 0.102722015503261 0.19387339975216561 0 0.097167490159200592 0.2077714345077841 0 0.083341955455175198 0.19066391239898459 0 0.102722015503261 0.19387339975216561 0 0.099260312306416645 0.18017407548359249 0 0.102722015503261 0.19387339975216561 0 0.1159910595883636 0.19671415710530099 0 0.10800393573270881 0.20637330068954429 0 0.102722015503261 0.19387339975216561 0 0.10800393573270881 0.20637330068954429 0 0.097167490159200592 0.2077714345077841 0 0.102722015503261 0.19387339975216561 0 0.1159910595883636 0.19671415710530099 0 0.11230993515489369 0.181340015252234 0 0.1159910595883636 0.19671415710530099 0 0.12612918054461139 0.18694294646378359 0 0.12833809593590281 0.19968889372809809 0 0.1159910595883636 0.19671415710530099 0 0.11230993515489369 0.181340015252234 0 0.12612918054461139 0.18694294646378359 0 0.1159910595883636 0.19671415710530099 0 0.1184672035089092 0.20938223285764959 0 0.12833809593590281 0.19968889372809809 0 0.1159910595883636 0.19671415710530099 0 0.1184672035089092 0.20938223285764959 0 0.10800393573270881 0.20637330068954429 0 0.1184672035089092 0.20938223285764959 0 0.1209885823856677 0.21968753409449959 0 0.1290961992274722 0.212672868064716 0 0.1184672035089092 0.20938223285764959 0 0.10800393573270881 0.20637330068954429 0 0.1083853481833402 0.22115664346373839 0 0.1184672035089092 0.20938223285764959 0 0.1083853481833402 0.22115664346373839 0 0.1209885823856677 0.21968753409449959 0 0.083818633732953257 0.218533977315788 0 0.097167490159200592 0.2077714345077841 0 0.1083853481833402 0.22115664346373839 0 0.10800393573270881 0.20637330068954429 0 0.097167490159200592 0.2077714345077841 0 0.1083853481833402 0.22115664346373839 0 0.083818633732953257 0.218533977315788 0 0.1083853481833402 0.22115664346373839 0 0.10625532147533789 0.23669082107842401 0 0.083818633732953257 0.218533977315788 0 0.10625532147533789 0.23669082107842401 0 0.1083853481833402 0.22115664346373839 0 0.1209885823856677 0.21968753409449959 0 0.11901216217150699 0.23367182415963031 0 0.1209885823856677 0.21968753409449959 0 0.11901216217150699 0.23367182415963031 0 0.1286704749319654 0.22177958979839371 0 0.1083853481833402 0.22115664346373839 0 0.11901216217150699 0.23367182415963031 0 0.10625532147533789 0.23669082107842401 0 0.1236358936284965 0.24097919379615801 0 0.10625532147533789 0.23669082107842401 0 0.1286920092177225 0.25484766484105992 0 0.10625532147533789 0.23669082107842401 0 0.1286920092177225 0.25484766484105992 0 0.11901216217150699 0.23367182415963031 0 0.1236358936284965 0.24097919379615801 0 0.10625532147533789 0.23669082107842401 0 0.10625532147533789 0.23669082107842401 0 0.1173043538645356 0.25739549318977062 0 0.1286920092177225 0.25484766484105992 0 0.11901216217150699 0.23367182415963031 0 0.1236358936284965 0.24097919379615801 0 0.13052543404488531 0.23948952164979309 0 0.093683841314688002 0.24820175738892189 0 0.10625532147533789 0.23669082107842401 0 0.1055113111411201 0.26134467515459481 0 0.093683841314688002 0.24820175738892189 0 0.083818633732953257 0.218533977315788 0 0.10625532147533789 0.23669082107842401 0 0.084829550018202041 0.15530621338285819 0 0.09247022179635514 0.16724762205435359 0 0.1015984881375351 0.14383133170972251 0 0.084829550018202041 0.15530621338285819 0 0.082562081581436464 0.1396760479894254 0 0.1015984881375351 0.14383133170972251 0 0.084829550018202041 0.15530621338285819 0 0.082562081581436464 0.1396760479894254 0 0.072394509357390543 0.15246989271666259 0 0.082562081581436464 0.1396760479894254 0 0.1015984881375351 0.14383133170972251 0 0.093826915640095265 0.12855250308583879 0 0.082322619978975192 0.1256009050522981 0 0.082562081581436464 0.1396760479894254 0 0.093826915640095265 0.12855250308583879 0 0.082322619978975192 0.1256009050522981 0 0.082562081581436464 0.1396760479894254 0 0.075079391389339473 0.13192675775042681 0 0.082562081581436464 0.1396760479894254 0 0.075079391389339473 0.13192675775042681 0 0.068356426405192017 0.1394561736357392 0 0.073339457844807873 0.12469811022793489 0 0.082322619978975192 0.1256009050522981 0 0.075079391389339473 0.13192675775042681 0 0.073339457844807873 0.12469811022793489 0 0.075079391389339473 0.13192675775042681 0 0.067141198041719183 0.12963058133249411 0 0.06409668449741264 0.12024327120683891 0 0.057398494632256707 0.13262498522612789 0 0.067141198041719183 0.12963058133249411 0 0.057398494632256707 0.13262498522612789 0 0.067141198041719183 0.12963058133249411 0 0.068356426405192017 0.1394561736357392 0 0.075079391389339473 0.13192675775042681 0 0.067141198041719183 0.12963058133249411 0 0.068356426405192017 0.1394561736357392 0 0.059571495683659777 0.1474168749991891 0 0.068356426405192017 0.1394561736357392 0 0.072394509357390543 0.15246989271666259 0 0.082562081581436464 0.1396760479894254 0 0.068356426405192017 0.1394561736357392 0 0.072394509357390543 0.15246989271666259 0 0.056957487034522122 0.1626378449351028 0 0.059571495683659777 0.1474168749991891 0 0.072394509357390543 0.15246989271666259 0 0.056957487034522122 0.1626378449351028 0 0.078767575731418044 0.16812142208297309 0 0.056957487034522122 0.1626378449351028 0 0.066322903010800113 0.17957180739022019 0 0.078767575731418044 0.16812142208297309 0 0.056957487034522122 0.1626378449351028 0 0.072394509357390543 0.15246989271666259 0 0.078767575731418044 0.16812142208297309 0 0.083341955455175198 0.19066391239898459 0 0.066322903010800113 0.17957180739022019 0 0.078767575731418044 0.16812142208297309 0 0.083341955455175198 0.19066391239898459 0 0.09247022179635514 0.16724762205435359 0 0.083341955455175198 0.19066391239898459 0 0.078767575731418044 0.16812142208297309 0 0.09247022179635514 0.16724762205435359 0 0.083341955455175198 0.19066391239898459 0 0.09247022179635514 0.16724762205435359 0 0.099260312306416645 0.18017407548359249 0 0.084829550018202041 0.15530621338285819 0 0.072394509357390543 0.15246989271666259 0 0.078767575731418044 0.16812142208297309 0 0.084829550018202041 0.15530621338285819 0 0.078767575731418044 0.16812142208297309 0 0.09247022179635514 0.16724762205435359 0 0.1072007960666221 0.16737863604378261 0 0.1181491332798312 0.15846521612557679 0 0.1015984881375351 0.14383133170972251 0 0.09247022179635514 0.16724762205435359 0 0.1072007960666221 0.16737863604378261 0 0.1015984881375351 0.14383133170972251 0 0.09247022179635514 0.16724762205435359 0 0.1072007960666221 0.16737863604378261 0 0.099260312306416645 0.18017407548359249 0 0.1072007960666221 0.16737863604378261 0 0.099260312306416645 0.18017407548359249 0 0.11230993515489369 0.181340015252234 0 0.102722015503261 0.19387339975216561 0 0.099260312306416645 0.18017407548359249 0 0.11230993515489369 0.181340015252234 0 0.1072007960666221 0.16737863604378261 0 0.11230993515489369 0.181340015252234 0 0.123600755590838 0.17233325503775521 0 0.11230993515489369 0.181340015252234 0 0.123600755590838 0.17233325503775521 0 0.12612918054461139 0.18694294646378359 0 0.1072007960666221 0.16737863604378261 0 0.123600755590838 0.17233325503775521 0 0.1181491332798312 0.15846521612557679 0 0.1181491332798312 0.15846521612557679 0 0.1243466167420595 0.14353728646847219 0 0.1015984881375351 0.14383133170972251 0 0.09247022179635514 0.16724762205435359 0 0.1015984881375351 0.14383133170972251 0 0.1107267544787164 0.1204150413650918 0 0.1015984881375351 0.14383133170972251 0 0.1107267544787164 0.1204150413650918 0 0.1015984881375351 0.14383133170972251 0 0.093826915640095265 0.12855250308583879 0 0.1107267544787164 0.1204150413650918 0 0.13853269635246351 0.13123339048505189 0 0.1107267544787164 0.1204150413650918 0 0.1243466167420595 0.14353728646847219 0 0.1015984881375351 0.14383133170972251 0 0.1107267544787164 0.1204150413650918 0 0.1243466167420595 0.14353728646847219 0 0.13853269635246351 0.13123339048505189 0 0.1243466167420595 0.14353728646847219 0 0.13853269635246351 0.13123339048505189 0 0.13808578714334691 0.1464651801436134 0 0.13853269635246351 0.13123339048505189 0 0.1663386382262107 0.1420517396050115 0 0.1553693318340402 0.12479991668275341 0 0.13853269635246351 0.13123339048505189 0 0.1663386382262107 0.1420517396050115 0 0.15193415790169179 0.1510472610753136 0 0.15352208440399359 0.1668798415245199 0 0.16261102722791601 0.14979649809528911 0 0.13853269635246351 0.13123339048505189 0 0.15193415790169179 0.1510472610753136 0 0.13808578714334691 0.1464651801436134 0 0.13853269635246351 0.13123339048505189 0 0.15193415790169179 0.1510472610753136 0 0.1663386382262107 0.1420517396050115 0 0.15193415790169179 0.1510472610753136 0 0.13808578714334691 0.1464651801436134 0 0.13752967757717299 0.16004278254561599 0 0.15193415790169179 0.1510472610753136 0 0.13752967757717299 0.16004278254561599 0 0.1181491332798312 0.15846521612557679 0 0.1243466167420595 0.14353728646847219 0 0.13752967757717299 0.16004278254561599 0 0.1243466167420595 0.14353728646847219 0 0.13808578714334691 0.1464651801436134 0 0.13752967757717299 0.16004278254561599 0 0.123600755590838 0.17233325503775521 0 0.13752967757717299 0.16004278254561599 0 0.13659001312214511 0.1797006293620817 0 0.123600755590838 0.17233325503775521 0 0.1181491332798312 0.15846521612557679 0 0.13752967757717299 0.16004278254561599 0 0.123600755590838 0.17233325503775521 0 0.12612918054461139 0.18694294646378359 0 0.13659001312214511 0.1797006293620817 0 0.12612918054461139 0.18694294646378359 0 0.13659001312214511 0.1797006293620817 0 0.13994522387552491 0.1918807282972316 0 0.13659001312214511 0.1797006293620817 0 0.15215822988252389 0.18264551818359309 0 0.15352208440399359 0.1668798415245199 0 0.13659001312214511 0.1797006293620817 0 0.15352208440399359 0.1668798415245199 0 0.13659001312214511 0.1797006293620817 0 0.15215822988252389 0.18264551818359309 0 0.13994522387552491 0.1918807282972316 0 0.13752967757717299 0.16004278254561599 0 0.13659001312214511 0.1797006293620817 0 0.15352208440399359 0.1668798415245199 0 0.15193415790169179 0.1510472610753136 0 0.13752967757717299 0.16004278254561599 0 0.15352208440399359 0.1668798415245199 0 0.15352208440399359 0.1668798415245199 0 0.17045415568584291 0.15405905368695891 0 0.15352208440399359 0.1668798415245199 0 0.16489156447137629 0.17221349346837611 0 0.17045415568584291 0.15405905368695891 0 0.16489156447137629 0.17221349346837611 0 0.17822651980266169 0.17585883084073919 0 0.17045415568584291 0.15405905368695891 0 0.15352208440399359 0.1668798415245199 0 0.16261102722791601 0.14979649809528911 0 0.17045415568584291 0.15405905368695891 0 0.15215822988252389 0.18264551818359309 0 0.16489156447137629 0.17221349346837611 0 0.16529861450285721 0.19110643400732541 0 0.16489156447137629 0.17221349346837611 0 0.17822651980266169 0.17585883084073919 0 0.16529861450285721 0.19110643400732541 0 0.15215822988252389 0.18264551818359309 0 0.15352208440399359 0.1668798415245199 0 0.16489156447137629 0.17221349346837611 0 0.17822651980266169 0.17585883084073919 0 0.18055638558177911 0.19305629781419989 0 0.1920037211624758 0.19034361114482179 0 0.17822651980266169 0.17585883084073919 0 0.16529861450285721 0.19110643400732541 0 0.18055638558177911 0.19305629781419989 0 0.17822651980266169 0.17585883084073919 0 0.17045415568584291 0.15405905368695891 0 0.1967542113089909 0.168352514486315 0 0.17045415568584291 0.15405905368695891 0 0.1967542113089909 0.168352514486315 0 0.18657063452309411 0.14185582394492521 0 0.17045415568584291 0.15405905368695891 0 0.18657063452309411 0.14185582394492521 0 0.1825345859194 0.14378127936735211 0 0.17045415568584291 0.15405905368695891 0 0.18657063452309411 0.14185582394492521 0 0.17045415568584291 0.15405905368695891 0 0.1967542113089909 0.168352514486315 0 0.1744026358808598 0.145299639368037 0 0.1825345859194 0.14378127936735211 0 0.17358390480872621 0.13752710909889271 0 0.1825345859194 0.14378127936735211 0 0.17358390480872621 0.13752710909889271 0 0.1744026358808598 0.145299639368037 0 0.1825345859194 0.14378127936735211 0 0.17045415568584291 0.15405905368695891 0 0.1744026358808598 0.145299639368037 0 0.17358390480872621 0.13752710909889271 0 0.1711773454710121 0.1435227305037676 0 0.17828827792020799 0.1345892530724859 0 0.1992437006399807 0.1215027028639304 0 0.18361350155480979 0.1218610433560799 0 0.18657063452309411 0.14185582394492521 0 0.1825345859194 0.14378127936735211 0 0.17828827792020799 0.1345892530724859 0 0.18657063452309411 0.14185582394492521 0 0.17828827792020799 0.1345892530724859 0 0.17828827792020799 0.1345892530724859 0 0.17389927722369289 0.11926578249398739 0 0.18361350155480979 0.1218610433560799 0 0.1825345859194 0.14378127936735211 0 0.17828827792020799 0.1345892530724859 0 0.17358390480872621 0.13752710909889271 0 0.17828827792020799 0.1345892530724859 0 0.17358390480872621 0.13752710909889271 0 0.17358390480872621 0.13752710909889271 0 0.1553693318340402 0.12479991668275341 0 0.17358390480872621 0.13752710909889271 0 0.1553693318340402 0.12479991668275341 0 0.1588426654228681 0.1175285385747781 0 0.17358390480872621 0.13752710909889271 0 0.1663386382262107 0.1420517396050115 0 0.17828827792020799 0.1345892530724859 0 0.17358390480872621 0.13752710909889271 0 0.1588426654228681 0.1175285385747781 0 0.17828827792020799 0.1345892530724859 0 0.1588426654228681 0.1175285385747781 0 0.17358390480872621 0.13752710909889271 0 0.1663386382262107 0.1420517396050115 0 0.1553693318340402 0.12479991668275341 0 0.15193415790169179 0.1510472610753136 0 0.1663386382262107 0.1420517396050115 0 0.15193415790169179 0.1510472610753136 0 0.16261102722791601 0.14979649809528911 0 0.1663386382262107 0.1420517396050115 0 0.1744026358808598 0.145299639368037 0 0.17045415568584291 0.15405905368695891 0 0.1692380528951887 0.14723166592735551 0 0.16261102722791601 0.14979649809528911 0 0.17045415568584291 0.15405905368695891 0 0.1692380528951887 0.14723166592735551 0 0.16261102722791601 0.14979649809528911 0 0.17045415568584291 0.15405905368695891 0 0.1744026358808598 0.145299639368037 0 0.1692380528951887 0.14723166592735551 0 0.1711773454710121 0.1435227305037676 0 0.1692380528951887 0.14723166592735551 0 0.1711773454710121 0.1435227305037676 0 0.1663386382262107 0.1420517396050115 0 0.17358390480872621 0.13752710909889271 0 0.1711773454710121 0.1435227305037676 0 0.1663386382262107 0.1420517396050115 0 0.16261102722791601 0.14979649809528911 0 0.1692380528951887 0.14723166592735551 0 0.1663386382262107 0.1420517396050115 0 0.14658109877038339 0.2391161347108057 0 0.16085058421703699 0.24075786873429389 0 0.14737864001805551 0.25121788241116427 0 0.14658109877038339 0.2391161347108057 0 0.1518984499790699 0.22996379177285131 0 0.16085058421703699 0.24075786873429389 0 0.14658109877038339 0.2391161347108057 0 0.14737864001805551 0.25121788241116427 0 0.1357283634457094 0.25258130713008992 0 0.13052543404488531 0.23948952164979309 0 0.13693239124384221 0.22578062022524481 0 0.1357283634457094 0.25258130713008992 0 0.14658109877038339 0.2391161347108057 0 0.13693239124384221 0.22578062022524481 0 0.1357283634457094 0.25258130713008992 0 0.13693239124384221 0.22578062022524481 0 0.1357283634457094 0.25258130713008992 0 0.1296454250842034 0.24697442185427521 0 0.13052543404488531 0.23948952164979309 0 0.1357283634457094 0.25258130713008992 0 0.1236358936284965 0.24097919379615801 0 0.1296454250842034 0.24697442185427521 0 0.1286920092177225 0.25484766484105992 0 0.1236358936284965 0.24097919379615801 0 0.1296454250842034 0.24697442185427521 0 0.13052543404488531 0.23948952164979309 0 0.11901216217150699 0.23367182415963031 0 0.1286704749319654 0.22177958979839371 0 0.13693239124384221 0.22578062022524481 0 0.11901216217150699 0.23367182415963031 0 0.13693239124384221 0.22578062022524481 0 0.11901216217150699 0.23367182415963031 0 0.13052543404488531 0.23948952164979309 0 0.13693239124384221 0.22578062022524481 0 0.13693239124384221 0.22578062022524481 0 0.13732303963133799 0.21708510244787771 0 0.1286704749319654 0.22177958979839371 0 0.13693239124384221 0.22578062022524481 0 0.13732303963133799 0.21708510244787771 0 0.13693239124384221 0.22578062022524481 0 0.1518984499790699 0.22996379177285131 0 0.16322972568501709 0.21420054342106079 0 0.13693239124384221 0.22578062022524481 0 0.16322972568501709 0.21420054342106079 0 0.14658109877038339 0.2391161347108057 0 0.13693239124384221 0.22578062022524481 0 0.1518984499790699 0.22996379177285131 0 0.13693239124384221 0.22578062022524481 0 0.14544218404939499 0.21256348460858149 0 0.16322972568501709 0.21420054342106079 0 0.14544218404939499 0.21256348460858149 0 0.1511802335849958 0.19973684207548309 0 0.16322972568501709 0.21420054342106079 0 0.14544218404939499 0.21256348460858149 0 0.13854553010178219 0.20601431487324121 0 0.1511802335849958 0.19973684207548309 0 0.13693239124384221 0.22578062022524481 0 0.14544218404939499 0.21256348460858149 0 0.13732303963133799 0.21708510244787771 0 0.13732303963133799 0.21708510244787771 0 0.1290961992274722 0.212672868064716 0 0.13854553010178219 0.20601431487324121 0 0.14544218404939499 0.21256348460858149 0 0.13732303963133799 0.21708510244787771 0 0.13854553010178219 0.20601431487324121 0 0.1209885823856677 0.21968753409449959 0 0.1286704749319654 0.22177958979839371 0 0.1290961992274722 0.212672868064716 0 0.1286704749319654 0.22177958979839371 0 0.13732303963133799 0.21708510244787771 0 0.1290961992274722 0.212672868064716 0 0.1290961992274722 0.212672868064716 0 0.13854553010178219 0.20601431487324121 0 0.12833809593590281 0.19968889372809809 0 0.1184672035089092 0.20938223285764959 0 0.1290961992274722 0.212672868064716 0 0.12833809593590281 0.19968889372809809 0 0.13854553010178219 0.20601431487324121 0 0.12833809593590281 0.19968889372809809 0 0.13994522387552491 0.1918807282972316 0 0.12612918054461139 0.18694294646378359 0 0.12833809593590281 0.19968889372809809 0 0.13994522387552491 0.1918807282972316 0 0.15215822988252389 0.18264551818359309 0 0.13994522387552491 0.1918807282972316 0 0.1511802335849958 0.19973684207548309 0 0.15215822988252389 0.18264551818359309 0 0.1511802335849958 0.19973684207548309 0 0.16529861450285721 0.19110643400732541 0 0.13854553010178219 0.20601431487324121 0 0.13994522387552491 0.1918807282972316 0 0.1511802335849958 0.19973684207548309 0 0.16529861450285721 0.19110643400732541 0 0.16322972568501709 0.21420054342106079 0 0.1511802335849958 0.19973684207548309 0 0.16529861450285721 0.19110643400732541 0 0.16322972568501709 0.21420054342106079 0 0.16529861450285721 0.19110643400732541 0 0.18055638558177911 0.19305629781419989 0 0.17975603501013809 0.20692315446353601 0 0.18055638558177911 0.19305629781419989 0 0.17975603501013809 0.20692315446353601 0 0.19628234433525879 0.19964576550601079 0 0.17975603501013809 0.20692315446353601 0 0.1769083901674697 0.22285999474144871 0 0.18916958897112091 0.2175768757455819 0 0.17975603501013809 0.20692315446353601 0 0.16322972568501709 0.21420054342106079 0 0.1769083901674697 0.22285999474144871 0 0.16529861450285721 0.19110643400732541 0 0.17975603501013809 0.20692315446353601 0 0.16322972568501709 0.21420054342106079 0 0.17975603501013809 0.20692315446353601 0 0.16322972568501709 0.21420054342106079 0 0.16322972568501709 0.21420054342106079 0 0.1769083901674697 0.22285999474144871 0 0.16085058421703699 0.24075786873429389 0 0.1518984499790699 0.22996379177285131 0 0.16322972568501709 0.21420054342106079 0 0.16085058421703699 0.24075786873429389 0 0.16322972568501709 0.21420054342106079 0 0.16085058421703699 0.24075786873429389 0 0.1769083901674697 0.22285999474144871 0 0.18618582173783979 0.23612729373750579 0 0.18916958897112091 0.2175768757455819 0 0.1769083901674697 0.22285999474144871 0 0.18618582173783979 0.23612729373750579 0 0.16085058421703699 0.24075786873429389 0 0.18618582173783979 0.23612729373750579 0 0.16085058421703699 0.24075786873429389 0 0.17444353000816201 0.2581931818276173 0 0.21714836287453759 0.24501057505280541 0 0.20326649633027699 0.2386008671198066 0 0.20671535360489809 0.2223281702794081 0 0.21714836287453759 0.24501057505280541 0 0.20326649633027699 0.2386008671198066 0 0.20520283793857749 0.25194597199181179 0 0.18618582173783979 0.23612729373750579 0 0.20326649633027699 0.2386008671198066 0 0.19570194822741041 0.2454510088932618 0 0.18618582173783979 0.23612729373750579 0 0.19570194822741041 0.2454510088932618 0 0.1893992401434304 0.25590890759110818 0 0.20326649633027699 0.2386008671198066 0 0.19570194822741041 0.2454510088932618 0 0.20520283793857749 0.25194597199181179 0 0.18618582173783979 0.23612729373750579 0 0.20671535360489809 0.2223281702794081 0 0.18916958897112091 0.2175768757455819 0 0.18618582173783979 0.23612729373750579 0 0.20326649633027699 0.2386008671198066 0 0.20671535360489809 0.2223281702794081 0 0.21714836287453759 0.24501057505280541 0 0.20671535360489809 0.2223281702794081 0 0.2264391426247073 0.2285501293452519 0 0.20671535360489809 0.2223281702794081 0 0.2197830005032983 0.2174447757979433 0 0.2264391426247073 0.2285501293452519 0 0.21714836287453759 0.24501057505280541 0 0.20671535360489809 0.2223281702794081 0 0.20671535360489809 0.2223281702794081 0 0.2152392865597591 0.2057882234062304 0 0.2197830005032983 0.2174447757979433 0 0.20671535360489809 0.2223281702794081 0 0.2152392865597591 0.2057882234062304 0 0.19628234433525879 0.19964576550601079 0 0.17975603501013809 0.20692315446353601 0 0.18916958897112091 0.2175768757455819 0 0.19628234433525879 0.19964576550601079 0 0.17975603501013809 0.20692315446353601 0 0.19628234433525879 0.19964576550601079 0 0.20671535360489809 0.2223281702794081 0 0.18916958897112091 0.2175768757455819 0 0.19628234433525879 0.19964576550601079 0 0.20671535360489809 0.2223281702794081 0 0.19628234433525879 0.19964576550601079 0 0.18055638558177911 0.19305629781419989 0 0.19628234433525879 0.19964576550601079 0 0.1920037211624758 0.19034361114482179 0 0.19628234433525879 0.19964576550601079 0 0.1920037211624758 0.19034361114482179 0 0.19628234433525879 0.19964576550601079 0 0.19846981855184989 0.19012444396554351 0 0.20674494939704899 0.1891975022477366 0 0.19628234433525879 0.19964576550601079 0 0.1920037211624758 0.19034361114482179 0 0.19846981855184989 0.19012444396554351 0 0.2152392865597591 0.2057882234062304 0 0.19628234433525879 0.19964576550601079 0 0.22088405788765009 0.18881235829934501 0 0.19628234433525879 0.19964576550601079 0 0.20674494939704899 0.1891975022477366 0 0.22088405788765009 0.18881235829934501 0 0.19628234433525879 0.19964576550601079 0 0.22088405788765009 0.18881235829934501 0 0.2152392865597591 0.2057882234062304 0 0.22088405788765009 0.18881235829934501 0 0.22472945218583429 0.1996866948119754 0 0.22676382252441471 0.193023279688262 0 0.24935432255528769 0.19693943608502659 0 0.22305426693213931 0.18264597528567081 0 0.22088405788765009 0.18881235829934501 0 0.22676382252441471 0.193023279688262 0 0.22305426693213931 0.18264597528567081 0 0.22088405788765009 0.18881235829934501 0 0.22472945218583429 0.1996866948119754 0 0.22676382252441471 0.193023279688262 0 0.22472945218583429 0.1996866948119754 0 0.23538004815044489 0.19995083502768701 0 0.23174675686515719 0.20520605457250241 0 0.22472945218583429 0.1996866948119754 0 0.22676382252441471 0.193023279688262 0 0.23538004815044489 0.19995083502768701 0 0.22676382252441471 0.193023279688262 0 0.24935432255528769 0.19693943608502659 0 0.23538004815044489 0.19995083502768701 0 0.24935432255528769 0.19693943608502659 0 0.22305426693213931 0.18264597528567081 0 0.24935432255528769 0.19693943608502659 0 0.22842642654455639 0.17857823203832629 0 0.24935432255528769 0.19693943608502659 0 0.2454275566270771 0.20281680800347529 0 0.23538004815044489 0.19995083502768701 0 0.2454275566270771 0.20281680800347529 0 0.23538004815044489 0.19995083502768701 0 0.23761418294559539 0.20519715383910059 0 0.2454275566270771 0.20281680800347529 0 0.23761418294559539 0.20519715383910059 0 0.24176710877166679 0.21003029919206209 0 0.23538004815044489 0.19995083502768701 0 0.23761418294559539 0.20519715383910059 0 0.23174675686515719 0.20520605457250241 0 0.23761418294559539 0.20519715383910059 0 0.235729922374877 0.21208968363769851 0 0.23174675686515719 0.20520605457250241 0 0.23761418294559539 0.20519715383910059 0 0.24176710877166679 0.21003029919206209 0 0.235729922374877 0.21208968363769851 0 0.24176710877166679 0.21003029919206209 0 0.2460729633334354 0.2086357382219938 0 0.24614915226034359 0.2116544418930518 0 0.2454275566270771 0.20281680800347529 0 0.24176710877166679 0.21003029919206209 0 0.2460729633334354 0.2086357382219938 0 0.2460729633334354 0.2086357382219938 0 0.24614915226034359 0.2116544418930518 0 0.25094803567465412 0.21004140379938599 0 0.2454275566270771 0.20281680800347529 0 0.2460729633334354 0.2086357382219938 0 0.25094803567465412 0.21004140379938599 0 0.24491667054163929 0.21571989589081669 0 0.23925277559152069 0.2178972397029123 0 0.25026085623467398 0.22245649446486629 0 0.24915236946045161 0.21535571836731099 0 0.24491667054163929 0.21571989589081669 0 0.25026085623467398 0.22245649446486629 0 0.24915236946045161 0.21535571836731099 0 0.24614915226034359 0.2116544418930518 0 0.24491667054163929 0.21571989589081669 0 0.24915236946045161 0.21535571836731099 0 0.24614915226034359 0.2116544418930518 0 0.25094803567465412 0.21004140379938599 0 0.24176710877166679 0.21003029919206209 0 0.24614915226034359 0.2116544418930518 0 0.24491667054163929 0.21571989589081669 0 0.24176710877166679 0.21003029919206209 0 0.23925277559152069 0.2178972397029123 0 0.235729922374877 0.21208968363769851 0 0.23925277559152069 0.2178972397029123 0 0.235729922374877 0.21208968363769851 0 0.23531520007212581 0.2255815059415682 0 0.24176710877166679 0.21003029919206209 0 0.24491667054163929 0.21571989589081669 0 0.23925277559152069 0.2178972397029123 0 0.235729922374877 0.21208968363769851 0 0.22680806104297921 0.2167976235817361 0 0.22528017866903419 0.20910590554605071 0 0.235729922374877 0.21208968363769851 0 0.23174675686515719 0.20520605457250241 0 0.22528017866903419 0.20910590554605071 0 0.22472945218583429 0.1996866948119754 0 0.23174675686515719 0.20520605457250241 0 0.22528017866903419 0.20910590554605071 0 0.2152392865597591 0.2057882234062304 0 0.22528017866903419 0.20910590554605071 0 0.2197830005032983 0.2174447757979433 0 0.2152392865597591 0.2057882234062304 0 0.22472945218583429 0.1996866948119754 0 0.22528017866903419 0.20910590554605071 0 0.22680806104297921 0.2167976235817361 0 0.22528017866903419 0.20910590554605071 0 0.2197830005032983 0.2174447757979433 0 0.235729922374877 0.21208968363769851 0 0.2264391426247073 0.2285501293452519 0 0.23531520007212581 0.2255815059415682 0 0.235729922374877 0.21208968363769851 0 0.2264391426247073 0.2285501293452519 0 0.235729922374877 0.21208968363769851 0 0.22680806104297921 0.2167976235817361 0 0.2264391426247073 0.2285501293452519 0 0.22680806104297921 0.2167976235817361 0 0.2197830005032983 0.2174447757979433 0 0.2264391426247073 0.2285501293452519 0 0.2264391426247073 0.2285501293452519 0 0.23531520007212581 0.2255815059415682 0 0.23228678217246229 0.23920978062111359 0 0.23925277559152069 0.2178972397029123 0 0.23531520007212581 0.2255815059415682 0 0.2423169063647706 0.23328778410659839 0 0.23925277559152069 0.2178972397029123 0 0.2423169063647706 0.23328778410659839 0 0.25649998866544099 0.24000328340968119 0 0.23925277559152069 0.2178972397029123 0 0.25649998866544099 0.24000328340968119 0 0.25026085623467398 0.22245649446486629 0 0.23925277559152069 0.2178972397029123 0 0.25649998866544099 0.24000328340968119 0 0.23531520007212581 0.2255815059415682 0 0.2423169063647706 0.23328778410659839 0 0.23228678217246229 0.23920978062111359 0 0.2423169063647706 0.23328778410659839 0 0.2438731903488971 0.2443253423721817 0 0.23228678217246229 0.23920978062111359 0 0.2423169063647706 0.23328778410659839 0 0.2438731903488971 0.2443253423721817 0 0.25649998866544099 0.24000328340968119 0 0.2438731903488971 0.2443253423721817 0 0.24924586184957531 0.25441070943284838 0 0.25649998866544099 0.24000328340968119 0 0.2438731903488971 0.2443253423721817 0 0.23474974831446649 0.24735315689870069 0 0.23631049940191359 0.25694621688910702 0 0.2438731903488971 0.2443253423721817 0 0.23474974831446649 0.24735315689870069 0 0.23228678217246229 0.23920978062111359 0 0.21714836287453759 0.24501057505280541 0 0.2264391426247073 0.2285501293452519 0 0.21714836287453759 0.24501057505280541 0 0.2264391426247073 0.2285501293452519 0 0.23228678217246229 0.23920978062111359 0 0.23474974831446649 0.24735315689870069 0 0.23228678217246229 0.23920978062111359 0 0.22616492460773091 0.25035997063068921 0 0.21714836287453759 0.24501057505280541 0 0.23228678217246229 0.23920978062111359 0 0.22616492460773091 0.25035997063068921 0 0.20716867055446689 0.14807174811064841 0 0.21191589303928851 0.13791914824419699 0 0.2018957112533977 0.13963114810098881 0 0.20716867055446689 0.14807174811064841 0 0.21742924608791961 0.15523651051699791 0 0.20749853053382489 0.16021702799162599 0 0.20716867055446689 0.14807174811064841 0 0.21742924608791961 0.15523651051699791 0 0.21696723444778501 0.14497288563118579 0 0.20716867055446689 0.14807174811064841 0 0.21696723444778501 0.14497288563118579 0 0.21191589303928851 0.13791914824419699 0 0.21696723444778501 0.14497288563118579 0 0.21191589303928851 0.13791914824419699 0 0.2224818906245746 0.137238100815638 0 0.21191589303928851 0.13791914824419699 0 0.21819794242644769 0.1275137735300382 0 0.2224818906245746 0.137238100815638 0 0.21191589303928851 0.13791914824419699 0 0.21819794242644769 0.1275137735300382 0 0.20636100074167371 0.12687076498240199 0 0.21191589303928851 0.13791914824419699 0 0.20636100074167371 0.12687076498240199 0 0.2018957112533977 0.13963114810098881 0 0.18657063452309411 0.14185582394492521 0 0.20636100074167371 0.12687076498240199 0 0.2018957112533977 0.13963114810098881 0 0.18657063452309411 0.14185582394492521 0 0.20636100074167371 0.12687076498240199 0 0.1992437006399807 0.1215027028639304 0 0.18657063452309411 0.14185582394492521 0 0.17828827792020799 0.1345892530724859 0 0.1992437006399807 0.1215027028639304 0 0.18657063452309411 0.14185582394492521 0 0.20636100074167371 0.12687076498240199 0 0.17828827792020799 0.1345892530724859 0 0.1992437006399807 0.1215027028639304 0 0.18657063452309411 0.14185582394492521 0 0.20749853053382489 0.16021702799162599 0 0.18657063452309411 0.14185582394492521 0 0.20716867055446689 0.14807174811064841 0 0.20749853053382489 0.16021702799162599 0 0.18657063452309411 0.14185582394492521 0 0.20716867055446689 0.14807174811064841 0 0.2018957112533977 0.13963114810098881 0 0.18657063452309411 0.14185582394492521 0 0.1967542113089909 0.168352514486315 0 0.20749853053382489 0.16021702799162599 0 0.17822651980266169 0.17585883084073919 0 0.1920037211624758 0.19034361114482179 0 0.1988482593126161 0.181310896963605 0 0.17822651980266169 0.17585883084073919 0 0.1967542113089909 0.168352514486315 0 0.1988482593126161 0.181310896963605 0 0.1920037211624758 0.19034361114482179 0 0.19846981855184989 0.19012444396554351 0 0.1988482593126161 0.181310896963605 0 0.19846981855184989 0.19012444396554351 0 0.20674494939704899 0.1891975022477366 0 0.1988482593126161 0.181310896963605 0 0.20674494939704899 0.1891975022477366 0 0.1988482593126161 0.181310896963605 0 0.22305426693213931 0.18264597528567081 0 0.1967542113089909 0.168352514486315 0 0.22305426693213931 0.18264597528567081 0 0.1967542113089909 0.168352514486315 0 0.1988482593126161 0.181310896963605 0 0.22305426693213931 0.18264597528567081 0 0.20674494939704899 0.1891975022477366 0 0.22088405788765009 0.18881235829934501 0 0.22305426693213931 0.18264597528567081 0 0.20749853053382489 0.16021702799162599 0 0.2133412913898218 0.16534320619023801 0 0.22305426693213931 0.18264597528567081 0 0.1967542113089909 0.168352514486315 0 0.20749853053382489 0.16021702799162599 0 0.22305426693213931 0.18264597528567081 0 0.20749853053382489 0.16021702799162599 0 0.2133412913898218 0.16534320619023801 0 0.21742924608791961 0.15523651051699791 0 0.2133412913898218 0.16534320619023801 0 0.2224576065178602 0.16104945045273811 0 0.21742924608791961 0.15523651051699791 0 0.20749853053382489 0.16021702799162599 0 0.2133412913898218 0.16534320619023801 0 0.21742924608791961 0.15523651051699791 0 0.2224576065178602 0.16104945045273811 0 0.2289071886229895 0.1572998165168763 0 0.2133412913898218 0.16534320619023801 0 0.2224576065178602 0.16104945045273811 0 0.22867759222887549 0.16454746828911351 0 0.2133412913898218 0.16534320619023801 0 0.2364846466088574 0.17298911175848919 0 0.2133412913898218 0.16534320619023801 0 0.22867759222887549 0.16454746828911351 0 0.2364846466088574 0.17298911175848919 0 0.22867759222887549 0.16454746828911351 0 0.2289071886229895 0.1572998165168763 0 0.23951595681167229 0.16220761622284149 0 0.2224576065178602 0.16104945045273811 0 0.22867759222887549 0.16454746828911351 0 0.2289071886229895 0.1572998165168763 0 0.24935432255528769 0.19693943608502659 0 0.22305426693213931 0.18264597528567081 0 0.22842642654455639 0.17857823203832629 0 0.2133412913898218 0.16534320619023801 0 0.22305426693213931 0.18264597528567081 0 0.22842642654455639 0.17857823203832629 0 0.2133412913898218 0.16534320619023801 0 0.22842642654455639 0.17857823203832629 0 0.2364846466088574 0.17298911175848919 0 0.2133412913898218 0.16534320619023801 0 0.22842642654455639 0.17857823203832629 0 0.22842642654455639 0.17857823203832629 0 0.2364846466088574 0.17298911175848919 0 0.24565130564131499 0.1834963333921539 0 0.2364846466088574 0.17298911175848919 0 0.25007349048874872 0.16739368446153899 0 0.25935905753740091 0.18094155703567161 0 0.2364846466088574 0.17298911175848919 0 0.24565130564131499 0.1834963333921539 0 0.25935905753740091 0.18094155703567161 0 0.2364846466088574 0.17298911175848919 0 0.25935905753740091 0.18094155703567161 0 0.24935432255528769 0.19693943608502659 0 0.22842642654455639 0.17857823203832629 0 0.24565130564131499 0.1834963333921539 0 0.2289071886229895 0.1572998165168763 0 0.23951595681167229 0.16220761622284149 0 0.2375694250200038 0.1506117887431333 0 0.2364846466088574 0.17298911175848919 0 0.23951595681167229 0.16220761622284149 0 0.25007349048874872 0.16739368446153899 0 0.22867759222887549 0.16454746828911351 0 0.2364846466088574 0.17298911175848919 0 0.23951595681167229 0.16220761622284149 0 0.23951595681167229 0.16220761622284149 0 0.2375694250200038 0.1506117887431333 0 0.25076961036854689 0.15660723377399119 0 0.23951595681167229 0.16220761622284149 0 0.25076961036854689 0.15660723377399119 0 0.25007349048874872 0.16739368446153899 0 0.2375694250200038 0.1506117887431333 0 0.24657939787599439 0.1393859283567242 0 0.25076961036854689 0.15660723377399119 0 0.2375694250200038 0.1506117887431333 0 0.23306909559740199 0.13878028876992629 0 0.24657939787599439 0.1393859283567242 0 0.2289071886229895 0.1572998165168763 0 0.2375694250200038 0.1506117887431333 0 0.22622138771695291 0.14747879308719239 0 0.22622138771695291 0.14747879308719239 0 0.2224818906245746 0.137238100815638 0 0.23306909559740199 0.13878028876992629 0 0.2375694250200038 0.1506117887431333 0 0.22622138771695291 0.14747879308719239 0 0.23306909559740199 0.13878028876992629 0 0.21696723444778501 0.14497288563118579 0 0.22622138771695291 0.14747879308719239 0 0.2224818906245746 0.137238100815638 0 0.21742924608791961 0.15523651051699791 0 0.21696723444778501 0.14497288563118579 0 0.22622138771695291 0.14747879308719239 0 0.21742924608791961 0.15523651051699791 0 0.2289071886229895 0.1572998165168763 0 0.22622138771695291 0.14747879308719239 0 0.21819794242644769 0.1275137735300382 0 0.2224818906245746 0.137238100815638 0 0.22851979051957169 0.12676371563128849 0 0.2224818906245746 0.137238100815638 0 0.23306909559740199 0.13878028876992629 0 0.22851979051957169 0.12676371563128849 0 0.23306909559740199 0.13878028876992629 0 0.22851979051957169 0.12676371563128849 0 0.2404627815028211 0.12927433716363471 0 0.23306909559740199 0.13878028876992629 0 0.2404627815028211 0.12927433716363471 0 0.24657939787599439 0.1393859283567242 0 0.2404627815028211 0.12927433716363471 0 0.24657939787599439 0.1393859283567242 0 0.25182276585737318 0.12923487294363301 0 0.2404627815028211 0.12927433716363471 0 0.2461092204160209 0.12279952171658361 0 0.25182276585737318 0.12923487294363301 0 0.2461092204160209 0.12279952171658361 0 0.23834718843736791 0.1161268253472411 0 0.25348076198986558 0.1105559123977594 0 0.2404627815028211 0.12927433716363471 0 0.2461092204160209 0.12279952171658361 0 0.23834718843736791 0.1161268253472411 0 0.22851979051957169 0.12676371563128849 0 0.2404627815028211 0.12927433716363471 0 0.23834718843736791 0.1161268253472411 0 0.23834718843736791 0.1161268253472411 0 0.24115454607952511 0.095329602446818137 0 0.25348076198986558 0.1105559123977594 0 0.24115454607952511 0.095329602446818137 0 0.22019912335975289 0.1084161526553743 0 0.22050215684242361 0.090791562284132515 0 0.23834718843736791 0.1161268253472411 0 0.24115454607952511 0.095329602446818137 0 0.22019912335975289 0.1084161526553743 0 0.24115454607952511 0.095329602446818137 0 0.22019912335975289 0.1084161526553743 0 0.21819794242644769 0.1275137735300382 0 0.22851979051957169 0.12676371563128849 0 0.22019912335975289 0.1084161526553743 0 0.22851979051957169 0.12676371563128849 0 0.23834718843736791 0.1161268253472411 0 0.22019912335975289 0.1084161526553743 0 0.20636100074167371 0.12687076498240199 0 0.22019912335975289 0.1084161526553743 0 0.1992437006399807 0.1215027028639304 0 0.21819794242644769 0.1275137735300382 0 0.20636100074167371 0.12687076498240199 0 0.22019912335975289 0.1084161526553743 0 0.22019912335975289 0.1084161526553743 0 0.1992437006399807 0.1215027028639304 0 0.22019912335975289 0.1084161526553743 0 0.19884018875680801 0.097736202429318339 0 0.22050215684242361 0.090791562284132515 0 0.22019912335975289 0.1084161526553743 0 0.19884018875680801 0.097736202429318339 0 0.1992437006399807 0.1215027028639304 0 0.19884018875680801 0.097736202429318339 0 0.1830227504353571 0.1120864349939152 0 0.18166427311363451 0.097649615556476443 0 0.1992437006399807 0.1215027028639304 0 0.1830227504353571 0.1120864349939152 0 0.18361350155480979 0.1218610433560799 0 0.19884018875680801 0.097736202429318339 0 0.1992437006399807 0.1215027028639304 0 0.1830227504353571 0.1120864349939152 0 0.20263517875230849 0.057785926162421293 0 0.18266086025302269 0.058497071149588922 0 0.18373995780991539 0.077278680874224015 0 0.20868562794198239 0.076584844921125272 0 0.20263517875230849 0.057785926162421293 0 0.18373995780991539 0.077278680874224015 0 0.20868562794198239 0.076584844921125272 0 0.18373995780991539 0.077278680874224015 0 0.19884018875680801 0.097736202429318339 0 0.18166427311363451 0.097649615556476443 0 0.18373995780991539 0.077278680874224015 0 0.19884018875680801 0.097736202429318339 0 0.20868562794198239 0.076584844921125272 0 0.18373995780991539 0.077278680874224015 0 0.19884018875680801 0.097736202429318339 0 0.20868562794198239 0.076584844921125272 0 0.22050215684242361 0.090791562284132515 0 0.20868562794198239 0.076584844921125272 0 0.22030731307755211 0.063528144230232814 0 0.20263517875230849 0.057785926162421293 0 0.20868562794198239 0.076584844921125272 0 0.2336312980740495 0.07589100896802653 0 0.20868562794198239 0.076584844921125272 0 0.2336312980740495 0.07589100896802653 0 0.22030731307755211 0.063528144230232814 0 0.2336312980740495 0.07589100896802653 0 0.22030731307755211 0.063528144230232814 0 0.23361721052328191 0.058353916973313158 0 0.24115454607952511 0.095329602446818137 0 0.2336312980740495 0.07589100896802653 0 0.22050215684242361 0.090791562284132515 0 0.20868562794198239 0.076584844921125272 0 0.2336312980740495 0.07589100896802653 0 0.22050215684242361 0.090791562284132515 0 0.24115454607952511 0.095329602446818137 0 0.24628835692018061 0.082167537972379481 0 0.26210996879929749 0.082243052238262226 0 0.24115454607952511 0.095329602446818137 0 0.2336312980740495 0.07589100896802653 0 0.24628835692018061 0.082167537972379481 0 0.2336312980740495 0.07589100896802653 0 0.243269786728808 0.065271085736777687 0 0.25857696820611659 0.075197173014929092 0 0.243269786728808 0.065271085736777687 0 0.24670767730800799 0.051526191952567371 0 0.25857696820611659 0.075197173014929092 0 0.2336312980740495 0.07589100896802653 0 0.24628835692018061 0.082167537972379481 0 0.25857696820611659 0.075197173014929092 0 0.2336312980740495 0.07589100896802653 0 0.243269786728808 0.065271085736777687 0 0.23361721052328191 0.058353916973313158 0 0.2336312980740495 0.07589100896802653 0 0.25857696820611659 0.075197173014929092 0 0.243269786728808 0.065271085736777687 0 0.24670767730800799 0.051526191952567371 0 0.23361721052328191 0.058353916973313158 0 0.24670767730800799 0.051526191952567371 0 0.23207369531732869 0.04286393310848103 0 0.23361721052328191 0.058353916973313158 0 0.24670767730800799 0.051526191952567371 0 0.23483838640990221 0.027855210890204238 0 0.24670767730800799 0.051526191952567371 0 0.24688176197826031 0.035227469018283497 0 0.23483838640990221 0.027855210890204238 0 0.24670767730800799 0.051526191952567371 0 0.24688176197826031 0.035227469018283497 0 0.25357027357901851 0.039615494441644902 0 0.24670767730800799 0.051526191952567371 0 0.23207369531732869 0.04286393310848103 0 0.23483838640990221 0.027855210890204238 0 0.23207369531732869 0.04286393310848103 0 0.22774153366056901 0.033502131624914208 0 0.23483838640990221 0.027855210890204238 0 0.23207369531732869 0.04286393310848103 0 0.22774153366056901 0.033502131624914208 0 0.22421345404863349 0.03898882168967216 0 0.22774153366056901 0.033502131624914208 0 0.21908418601896321 0.032088352878624271 0 0.22421345404863349 0.03898882168967216 0 0.23207369531732869 0.04286393310848103 0 0.22421345404863349 0.03898882168967216 0 0.22296725009613841 0.049025024126277801 0 0.22421345404863349 0.03898882168967216 0 0.22296725009613841 0.049025024126277801 0 0.21070994226758771 0.039724513899187283 0 0.22030731307755211 0.063528144230232814 0 0.22296725009613841 0.049025024126277801 0 0.23361721052328191 0.058353916973313158 0 0.23207369531732869 0.04286393310848103 0 0.22296725009613841 0.049025024126277801 0 0.23361721052328191 0.058353916973313158 0 0.23665614420463971 0.0061919762364166832 0 0.24577479012298409 0.0066097637553849268 0 0.246759296357245 -0.002510635819166105 0 0.24577479012298409 0.0066097637553849268 0 0.25742416126469281 0.0073364507183336647 0 0.246759296357245 -0.002510635819166105 0 0.24577479012298409 0.0066097637553849268 0 0.24225955866535909 0.01542126388595547 0 0.25742416126469281 0.0073364507183336647 0 0.23665614420463971 0.0061919762364166832 0 0.24577479012298409 0.0066097637553849268 0 0.24225955866535909 0.01542126388595547 0 0.23665614420463971 0.0061919762364166832 0 0.24225955866535909 0.01542126388595547 0 0.2316464477780687 0.01460843698911915 0 0.24225955866535909 0.01542126388595547 0 0.2284979465080175 0.025714339557589349 0 0.25509449926346622 0.026849022887357851 0 0.24688176197826031 0.035227469018283497 0 0.23483838640990221 0.027855210890204238 0 0.25509449926346622 0.026849022887357851 0 0.2284979465080175 0.025714339557589349 0 0.25509449926346622 0.026849022887357851 0 0.23483838640990221 0.027855210890204238 0 0.2284979465080175 0.025714339557589349 0 0.25509449926346622 0.026849022887357851 0 0.22774153366056901 0.033502131624914208 0 0.23483838640990221 0.027855210890204238 0 0.2284979465080175 0.025714339557589349 0 0.22774153366056901 0.033502131624914208 0 0.21908418601896321 0.032088352878624271 0 0.2284979465080175 0.025714339557589349 0 0.2284979465080175 0.025714339557589349 0 0.2250596796598672 0.017118924022769391 0 0.215906331467591 0.017507761580573079 0 0.2284979465080175 0.025714339557589349 0 0.2250596796598672 0.017118924022769391 0 0.2316464477780687 0.01460843698911915 0 0.24225955866535909 0.01542126388595547 0 0.2284979465080175 0.025714339557589349 0 0.2316464477780687 0.01460843698911915 0 0.22558579938535231 0.0090323158126615847 0 0.21642668838111401 0.0025320231582431768 0 0.22605066663092499 -0.0066391765881388936 0 0.23665614420463971 0.0061919762364166832 0 0.22558579938535231 0.0090323158126615847 0 0.22605066663092499 -0.0066391765881388936 0 0.23665614420463971 0.0061919762364166832 0 0.2316464477780687 0.01460843698911915 0 0.22558579938535231 0.0090323158126615847 0 0.2250596796598672 0.017118924022769391 0 0.2316464477780687 0.01460843698911915 0 0.22558579938535231 0.0090323158126615847 0 0.22558579938535231 0.0090323158126615847 0 0.21642668838111401 0.0025320231582431768 0 0.215906331467591 0.017507761580573079 0 0.2250596796598672 0.017118924022769391 0 0.22558579938535231 0.0090323158126615847 0 0.215906331467591 0.017507761580573079 0 0.20536935462328429 0.0056862788303377806 0 0.21642668838111401 0.0025320231582431768 0 0.215906331467591 0.017507761580573079 0 0.20536935462328429 0.0056862788303377806 0 0.215906331467591 0.017507761580573079 0 0.2019013937525688 0.02457965622782109 0 0.21908418601896321 0.032088352878624271 0 0.2284979465080175 0.025714339557589349 0 0.2019013937525688 0.02457965622782109 0 0.2284979465080175 0.025714339557589349 0 0.2019013937525688 0.02457965622782109 0 0.2284979465080175 0.025714339557589349 0 0.215906331467591 0.017507761580573079 0 0.2019013937525688 0.02457965622782109 0 0.2019013937525688 0.02457965622782109 0 0.1857530235408775 0.031559633469889027 0 0.17530484099711999 0.023444972898052831 0 0.2019013937525688 0.02457965622782109 0 0.17530484099711999 0.023444972898052831 0 0.20536935462328429 0.0056862788303377806 0 0.18891566880757921 0.0057909682396340839 0 0.20534203690460509 -0.01076771735711169 0 0.20536935462328429 0.0056862788303377806 0 0.2019013937525688 0.02457965622782109 0 0.18891566880757921 0.0057909682396340839 0 0.2019013937525688 0.02457965622782109 0 0.18891566880757921 0.0057909682396340839 0 0.17708704701074079 0.01428691470876509 0 0.22030731307755211 0.063528144230232814 0 0.22296725009613841 0.049025024126277801 0 0.20263517875230849 0.057785926162421293 0 0.22296725009613841 0.049025024126277801 0 0.21070994226758771 0.039724513899187283 0 0.20263517875230849 0.057785926162421293 0 0.21908418601896321 0.032088352878624271 0 0.2019013937525688 0.02457965622782109 0 0.21070994226758771 0.039724513899187283 0 0.21908418601896321 0.032088352878624271 0 0.22421345404863349 0.03898882168967216 0 0.21070994226758771 0.039724513899187283 0 0.2019013937525688 0.02457965622782109 0 0.18992611025030809 0.042054836691606749 0 0.1857530235408775 0.031559633469889027 0 0.2019013937525688 0.02457965622782109 0 0.21070994226758771 0.039724513899187283 0 0.18992611025030809 0.042054836691606749 0 0.21070994226758771 0.039724513899187283 0 0.18992611025030809 0.042054836691606749 0 0.20263517875230849 0.057785926162421293 0 0.18992611025030809 0.042054836691606749 0 0.20263517875230849 0.057785926162421293 0 0.18266086025302269 0.058497071149588922 0 0.18992611025030809 0.042054836691606749 0 0.18266086025302269 0.058497071149588922 0 0.16871572198957019 0.049458834550822513 0 0.18266086025302269 0.058497071149588922 0 0.16871572198957019 0.049458834550822513 0 0.1695165363689255 0.064883037922558492 0 0.18992611025030809 0.042054836691606749 0 0.17587974916351309 0.036159068062075438 0 0.16871572198957019 0.049458834550822513 0 0.18992611025030809 0.042054836691606749 0 0.1857530235408775 0.031559633469889027 0 0.17587974916351309 0.036159068062075438 0 0.16045537247170061 0.035245968588640382 0 0.16871572198957019 0.049458834550822513 0 0.15191871952441779 0.047219415160355459 0 0.17587974916351309 0.036159068062075438 0 0.16045537247170061 0.035245968588640382 0 0.16871572198957019 0.049458834550822513 0 0.17587974916351309 0.036159068062075438 0 0.16045537247170061 0.035245968588640382 0 0.17530484099711999 0.023444972898052831 0 0.16871572198957019 0.049458834550822513 0 0.1536718541142704 0.061208086210834317 0 0.15191871952441779 0.047219415160355459 0 0.16871572198957019 0.049458834550822513 0 0.1536718541142704 0.061208086210834317 0 0.1695165363689255 0.064883037922558492 0 0.18891566880757921 0.0057909682396340839 0 0.17708704701074079 0.01428691470876509 0 0.16895049907619231 -0.002679034393242765 0 0.17708704701074079 0.01428691470876509 0 0.16895049907619231 -0.002679034393242765 0 0.2019013937525688 0.02457965622782109 0 0.17708704701074079 0.01428691470876509 0 0.17530484099711999 0.023444972898052831 0 0.1857530235408775 0.031559633469889027 0 0.17587974916351309 0.036159068062075438 0 0.17530484099711999 0.023444972898052831 0 0.17530484099711999 0.023444972898052831 0 0.14870828824167129 0.022310289568284559 0 0.17708704701074079 0.01428691470876509 0 0.17530484099711999 0.023444972898052831 0 0.16099536516314181 0.0115701389107277 0 0.17530484099711999 0.023444972898052831 0 0.16099536516314181 0.0115701389107277 0 0.14870828824167129 0.022310289568284559 0 0.16045537247170061 0.035245968588640382 0 0.17530484099711999 0.023444972898052831 0 0.14870828824167129 0.022310289568284559 0 0.17708704701074079 0.01428691470876509 0 0.16099536516314181 0.0115701389107277 0 0.16895049907619231 -0.002679034393242765 0 0.16099536516314181 0.0115701389107277 0 0.16895049907619231 -0.002679034393242765 0 0.1566002555707719 -0.007194885615248307 0 0.16099536516314181 0.0115701389107277 0 0.13968391278941569 -0.001332600437204217 0 0.1566002555707719 -0.007194885615248307 0 0.16099536516314181 0.0115701389107277 0 0.13575264869271589 0.013711668820296591 0 0.13968391278941569 -0.001332600437204217 0 0.14870828824167129 0.022310289568284559 0 0.14242082582636559 0.038373443072391357 0 0.13187984920416429 0.031323327930024139 0 0.16099536516314181 0.0115701389107277 0 0.14870828824167129 0.022310289568284559 0 0.13575264869271589 0.013711668820296591 0 0.1221117354862226 0.0211756062385163 0 0.14870828824167129 0.022310289568284559 0 0.1221117354862226 0.0211756062385163 0 0.14870828824167129 0.022310289568284559 0 0.13187984920416429 0.031323327930024139 0 0.1221117354862226 0.0211756062385163 0 0.14870828824167129 0.022310289568284559 0 0.13575264869271589 0.013711668820296591 0 0.1175995477600949 0.0093541612357724065 0 0.13575264869271589 0.013711668820296591 0 0.13968391278941569 -0.001332600437204217 0 0.1175995477600949 0.0093541612357724065 0 0.13968391278941569 -0.001332600437204217 0 0.1221117354862226 0.0211756062385163 0 0.1175995477600949 0.0093541612357724065 0 0.13575264869271589 0.013711668820296591 0 0.1536718541142704 0.061208086210834317 0 0.15191871952441779 0.047219415160355459 0 0.13659726649251169 0.054413780907292673 0 0.16045537247170061 0.035245968588640382 0 0.14870828824167129 0.022310289568284559 0 0.14242082582636559 0.038373443072391357 0 0.15191871952441779 0.047219415160355459 0 0.14242082582636559 0.038373443072391357 0 0.13659726649251169 0.054413780907292673 0 0.16045537247170061 0.035245968588640382 0 0.15191871952441779 0.047219415160355459 0 0.14242082582636559 0.038373443072391357 0 0.14242082582636559 0.038373443072391357 0 0.13187984920416429 0.031323327930024139 0 0.12648151235079791 0.041627876699407602 0 0.14242082582636559 0.038373443072391357 0 0.12648151235079791 0.041627876699407602 0 0.13659726649251169 0.054413780907292673 0 0.1196768841157642 0.03312942407152087 0 0.13187984920416429 0.031323327930024139 0 0.12648151235079791 0.041627876699407602 0 0.1184476747314175 0.056014063399916478 0 0.13659726649251169 0.054413780907292673 0 0.12616329073261071 0.067024338333600775 0 0.1184476747314175 0.056014063399916478 0 0.12648151235079791 0.041627876699407602 0 0.13659726649251169 0.054413780907292673 0 0.13659726649251169 0.054413780907292673 0 0.12616329073261071 0.067024338333600775 0 0.1396799979564424 0.072537199977319694 0 0.12616329073261071 0.067024338333600775 0 0.1396799979564424 0.072537199977319694 0 0.12547495181618501 0.082582219884395291 0 0.1536718541142704 0.061208086210834317 0 0.13659726649251169 0.054413780907292673 0 0.1396799979564424 0.072537199977319694 0 0.1536718541142704 0.061208086210834317 0 0.1396799979564424 0.072537199977319694 0 0.15879428767784859 0.077972516827322771 0 0.14143592666555779 0.090110248492711043 0 0.1648789805605296 0.095124379185528046 0 0.15879428767784859 0.077972516827322771 0 0.1396799979564424 0.072537199977319694 0 0.14143592666555779 0.090110248492711043 0 0.15879428767784859 0.077972516827322771 0 0.1396799979564424 0.072537199977319694 0 0.14143592666555779 0.090110248492711043 0 0.12547495181618501 0.082582219884395291 0 0.1189401858846638 0.099345531850481006 0 0.14143592666555779 0.090110248492711043 0 0.12547495181618501 0.082582219884395291 0 0.1189401858846638 0.099345531850481006 0 0.14143592666555779 0.090110248492711043 0 0.13715475885935269 0.1120727242666161 0 0.1189401858846638 0.099345531850481006 0 0.13715475885935269 0.1120727242666161 0 0.1107267544787164 0.1204150413650918 0 0.13853269635246351 0.13123339048505189 0 0.13715475885935269 0.1120727242666161 0 0.13715475885935269 0.1120727242666161 0 0.15080999520815561 0.1036252429199455 0 0.1588426654228681 0.1175285385747781 0 0.13853269635246351 0.13123339048505189 0 0.13715475885935269 0.1120727242666161 0 0.1553693318340402 0.12479991668275341 0 0.13715475885935269 0.1120727242666161 0 0.1553693318340402 0.12479991668275341 0 0.1588426654228681 0.1175285385747781 0 0.13715475885935269 0.1120727242666161 0 0.1553693318340402 0.12479991668275341 0 0.14143592666555779 0.090110248492711043 0 0.15080999520815561 0.1036252429199455 0 0.1648789805605296 0.095124379185528046 0 0.14143592666555779 0.090110248492711043 0 0.13715475885935269 0.1120727242666161 0 0.15080999520815561 0.1036252429199455 0 0.15080999520815561 0.1036252429199455 0 0.1648789805605296 0.095124379185528046 0 0.1682859921719573 0.1079788912189359 0 0.1648789805605296 0.095124379185528046 0 0.1682859921719573 0.1079788912189359 0 0.18166427311363451 0.097649615556476443 0 0.17828827792020799 0.1345892530724859 0 0.1588426654228681 0.1175285385747781 0 0.17389927722369289 0.11926578249398739 0 0.15080999520815561 0.1036252429199455 0 0.1682859921719573 0.1079788912189359 0 0.1588426654228681 0.1175285385747781 0 0.1682859921719573 0.1079788912189359 0 0.1588426654228681 0.1175285385747781 0 0.17389927722369289 0.11926578249398739 0 0.1682859921719573 0.1079788912189359 0 0.17389927722369289 0.11926578249398739 0 0.1830227504353571 0.1120864349939152 0 0.17389927722369289 0.11926578249398739 0 0.1830227504353571 0.1120864349939152 0 0.18361350155480979 0.1218610433560799 0 0.1682859921719573 0.1079788912189359 0 0.1830227504353571 0.1120864349939152 0 0.18166427311363451 0.097649615556476443 0 0.1648789805605296 0.095124379185528046 0 0.18166427311363451 0.097649615556476443 0 0.18373995780991539 0.077278680874224015 0 0.18266086025302269 0.058497071149588922 0 0.18373995780991539 0.077278680874224015 0 0.1695165363689255 0.064883037922558492 0 0.18373995780991539 0.077278680874224015 0 0.15879428767784859 0.077972516827322771 0 0.18373995780991539 0.077278680874224015 0 0.15879428767784859 0.077972516827322771 0 0.1695165363689255 0.064883037922558492 0 0.1536718541142704 0.061208086210834317 0 0.15879428767784859 0.077972516827322771 0 0.1695165363689255 0.064883037922558492 0 0.1648789805605296 0.095124379185528046 0 0.18373995780991539 0.077278680874224015 0 0.15879428767784859 0.077972516827322771 0 0.094712203302199982 0.4780458143900318 0 0.11519851676414369 0.48118072910952558 0 0.1061405408965682 0.45795894174876012 0 0.094712203302199982 0.4780458143900318 0 0.1078698060627518 0.5 0 0.11519851676414369 0.48118072910952558 0 0.1078698060627518 0.5 0 0.11519851676414369 0.48118072910952558 0 0.13740577142736871 0.49999999999999989 0 0.11519851676414369 0.48118072910952558 0 0.121934603102152 0.46560955878734261 0 0.1338395057733027 0.47814249583817309 0 0.11519851676414369 0.48118072910952558 0 0.121934603102152 0.46560955878734261 0 0.1061405408965682 0.45795894174876012 0 0.121934603102152 0.46560955878734261 0 0.12492092938486329 0.44442938247274849 0 0.1061405408965682 0.45795894174876012 0 0.12492092938486329 0.44442938247274849 0 0.1060823779628267 0.4385391005670361 0 0.1061405408965682 0.45795894174876012 0 0.1060823779628267 0.4385391005670361 0 0.096104700823337816 0.4484139277736981 0 0.1061405408965682 0.45795894174876012 0 0.1060823779628267 0.4385391005670361 0 0.096104700823337816 0.4484139277736981 0 0.091065819349795157 0.43696662366003702 0 0.094712203302199982 0.4780458143900318 0 0.1061405408965682 0.45795894174876012 0 0.08801622379284911 0.45770780380309389 0 0.096104700823337816 0.4484139277736981 0 0.1061405408965682 0.45795894174876012 0 0.08801622379284911 0.45770780380309389 0 0.08801622379284911 0.45770780380309389 0 0.081933819338856628 0.44560250537806878 0 0.070636912201720359 0.45414960410186872 0 0.096104700823337816 0.4484139277736981 0 0.081933819338856628 0.44560250537806878 0 0.091065819349795157 0.43696662366003702 0 0.096104700823337816 0.4484139277736981 0 0.08801622379284911 0.45770780380309389 0 0.081933819338856628 0.44560250537806878 0 0.081933819338856628 0.44560250537806878 0 0.078516363599464539 0.43408965910939012 0 0.091065819349795157 0.43696662366003702 0 0.081933819338856628 0.44560250537806878 0 0.068273170768507599 0.44007197908475398 0 0.078516363599464539 0.43408965910939012 0 0.081933819338856628 0.44560250537806878 0 0.068273170768507599 0.44007197908475398 0 0.070636912201720359 0.45414960410186872 0 0.068273170768507599 0.44007197908475398 0 0.070636912201720359 0.45414960410186872 0 0.0582498225695064 0.44693323077955621 0 0.08801622379284911 0.45770780380309389 0 0.070636912201720359 0.45414960410186872 0 0.074349518851503371 0.47287917189245982 0 0.070636912201720359 0.45414960410186872 0 0.074349518851503371 0.47287917189245982 0 0.055276226741618813 0.46217433831946741 0 0.074349518851503371 0.47287917189245982 0 0.058734710662760432 0.48305438674424828 0 0.055276226741618813 0.46217433831946741 0 0.094712203302199982 0.4780458143900318 0 0.074349518851503371 0.47287917189245982 0 0.078333840698134927 0.5 0 0.094712203302199982 0.4780458143900318 0 0.08801622379284911 0.45770780380309389 0 0.074349518851503371 0.47287917189245982 0 0.094712203302199982 0.4780458143900318 0 0.1078698060627518 0.5 0 0.078333840698134927 0.5 0 0.074349518851503371 0.47287917189245982 0 0.078333840698134927 0.5 0 0.058734710662760432 0.48305438674424828 0 0.048797875333518037 0.5 0 0.058734710662760432 0.48305438674424828 0 0.045250358135840552 0.47669310227080097 0 0.078333840698134927 0.5 0 0.048797875333518037 0.5 0 0.058734710662760432 0.48305438674424828 0 0.058734710662760432 0.48305438674424828 0 0.045250358135840552 0.47669310227080097 0 0.055276226741618813 0.46217433831946741 0 0.045250358135840552 0.47669310227080097 0 0.026218199598028111 0.47754913873587818 0 0.037224778343277372 0.46068764755441138 0 0.048797875333518037 0.5 0 0.045250358135840552 0.47669310227080097 0 0.026218199598028111 0.47754913873587818 0 0.048797875333518037 0.5 0 0.0192619099689012 0.5 0 0.026218199598028111 0.47754913873587818 0 0.0192619099689012 0.5 0 0.026218199598028111 0.47754913873587818 0 0.0021015448394762831 0.47993526466174352 0 0.026218199598028111 0.47754913873587818 0 0.0021015448394762831 0.47993526466174352 0 0.01108225669383254 0.46569995025485711 0 -0.01027405539571569 0.5 0 0.0192619099689012 0.5 0 0.0021015448394762831 0.47993526466174352 0 -0.0030437211024727639 0.4569292801411412 0 0.01222321751646497 0.4520784094830112 0 0.01471282117006794 0.43612797391779562 0 -0.0030437211024727639 0.4569292801411412 0 -0.0021281657377375911 0.43989566915210648 0 0.01471282117006794 0.43612797391779562 0 -0.0030437211024727639 0.4569292801411412 0 0.01471282117006794 0.43612797391779562 0 -0.0030437211024727639 0.4569292801411412 0 0.01222321751646497 0.4520784094830112 0 -0.0030437211024727639 0.4569292801411412 0 0.01222321751646497 0.4520784094830112 0 0.01108225669383254 0.46569995025485711 0 -0.0030437211024727639 0.4569292801411412 0 0.0021015448394762831 0.47993526466174352 0 0.01108225669383254 0.46569995025485711 0 0.01222321751646497 0.4520784094830112 0 0.01108225669383254 0.46569995025485711 0 0.023304694301932629 0.46050474122909718 0 0.026218199598028111 0.47754913873587818 0 0.023304694301932629 0.46050474122909718 0 0.037224778343277372 0.46068764755441138 0 0.026218199598028111 0.47754913873587818 0 0.01108225669383254 0.46569995025485711 0 0.023304694301932629 0.46050474122909718 0 0.01222321751646497 0.4520784094830112 0 0.023304694301932629 0.46050474122909718 0 0.027490156135402771 0.44722753882488142 0 0.023304694301932629 0.46050474122909718 0 0.027490156135402771 0.44722753882488142 0 0.037224778343277372 0.46068764755441138 0 0.027490156135402771 0.44722753882488142 0 0.033669679411598367 0.43572241843427212 0 0.01471282117006794 0.43612797391779562 0 0.01222321751646497 0.4520784094830112 0 0.027490156135402771 0.44722753882488142 0 0.01471282117006794 0.43612797391779562 0 0.01222321751646497 0.4520784094830112 0 0.027490156135402771 0.44722753882488142 0 0.027490156135402771 0.44722753882488142 0 0.044366578431372913 0.44443720517200591 0 0.037224778343277372 0.46068764755441138 0 0.027490156135402771 0.44722753882488142 0 0.044366578431372913 0.44443720517200591 0 0.033669679411598367 0.43572241843427212 0 0.045250358135840552 0.47669310227080097 0 0.037224778343277372 0.46068764755441138 0 0.055276226741618813 0.46217433831946741 0 0.044366578431372913 0.44443720517200591 0 0.037224778343277372 0.46068764755441138 0 0.055276226741618813 0.46217433831946741 0 0.070636912201720359 0.45414960410186872 0 0.055276226741618813 0.46217433831946741 0 0.0582498225695064 0.44693323077955621 0 0.044366578431372913 0.44443720517200591 0 0.0582498225695064 0.44693323077955621 0 0.053862848090510743 0.43095102279929348 0 0.068273170768507599 0.44007197908475398 0 0.0582498225695064 0.44693323077955621 0 0.053862848090510743 0.43095102279929348 0 0.044366578431372913 0.44443720517200591 0 0.055276226741618813 0.46217433831946741 0 0.0582498225695064 0.44693323077955621 0 0.044366578431372913 0.44443720517200591 0 0.053862848090510743 0.43095102279929348 0 0.045375849420795117 0.42592323728196291 0 0.053862848090510743 0.43095102279929348 0 0.064891050443789206 0.40703430854799899 0 0.067022570504086124 0.42726485013015109 0 0.04159939216313744 0.41681027156222472 0 0.045375849420795117 0.42592323728196291 0 0.064891050443789206 0.40703430854799899 0 0.053862848090510743 0.43095102279929348 0 0.064891050443789206 0.40703430854799899 0 0.053862848090510743 0.43095102279929348 0 0.045375849420795117 0.42592323728196291 0 0.064891050443789206 0.40703430854799899 0 0.04159939216313744 0.41681027156222472 0 0.044257438104729437 0.40151725891054019 0 0.064891050443789206 0.40703430854799899 0 0.032469363442609693 0.41532666769445092 0 0.02700379994155001 0.40488876630444809 0 0.044257438104729437 0.40151725891054019 0 0.04159939216313744 0.41681027156222472 0 0.032469363442609693 0.41532666769445092 0 0.044257438104729437 0.40151725891054019 0 0.04159939216313744 0.41681027156222472 0 0.032469363442609693 0.41532666769445092 0 0.03356542112164148 0.4259821137781411 0 0.04159939216313744 0.41681027156222472 0 0.032469363442609693 0.41532666769445092 0 0.032469363442609693 0.41532666769445092 0 0.044257438104729437 0.40151725891054019 0 0.044366578431372913 0.44443720517200591 0 0.045375849420795117 0.42592323728196291 0 0.033669679411598367 0.43572241843427212 0 0.04159939216313744 0.41681027156222472 0 0.045375849420795117 0.42592323728196291 0 0.03356542112164148 0.4259821137781411 0 0.045375849420795117 0.42592323728196291 0 0.03356542112164148 0.4259821137781411 0 0.033669679411598367 0.43572241843427212 0 0.032469363442609693 0.41532666769445092 0 0.03356542112164148 0.4259821137781411 0 0.01471282117006794 0.43612797391779562 0 0.032469363442609693 0.41532666769445092 0 0.01471282117006794 0.43612797391779562 0 0.032469363442609693 0.41532666769445092 0 0.01471282117006794 0.43612797391779562 0 0.01448871093619849 0.42211065866362008 0 0.03356542112164148 0.4259821137781411 0 0.033669679411598367 0.43572241843427212 0 0.01471282117006794 0.43612797391779562 0 0.032469363442609693 0.41532666769445092 0 0.0062569560340532994 0.41106722556066511 0 0.01448871093619849 0.42211065866362008 0 0.032469363442609693 0.41532666769445092 0 0.0062569560340532994 0.41106722556066511 0 0.032469363442609693 0.41532666769445092 0 0.0062569560340532994 0.41106722556066511 0 0.017121911335030611 0.40494204584850851 0 0.032469363442609693 0.41532666769445092 0 0.017121911335030611 0.40494204584850851 0 0.02700379994155001 0.40488876630444809 0 0.0062569560340532994 0.41106722556066511 0 0.0045153601692261239 0.42615740995073359 0 0.01448871093619849 0.42211065866362008 0 -0.010758393889383251 0.42494773866136148 0 0.0062569560340532994 0.41106722556066511 0 0.0045153601692261239 0.42615740995073359 0 -0.0021281657377375911 0.43989566915210648 0 0.0045153601692261239 0.42615740995073359 0 0.01471282117006794 0.43612797391779562 0 0.0045153601692261239 0.42615740995073359 0 0.01471282117006794 0.43612797391779562 0 0.01448871093619849 0.42211065866362008 0 -0.00087981957629810256 0.37004617894156078 0 -0.0038456699322450831 0.38865536975632942 0 0.011768988736328499 0.38126337763943952 0 -0.0038456699322450831 0.38865536975632942 0 0.011768988736328499 0.38126337763943952 0 0.02020588408624183 0.39508631433343588 0 -0.0038456699322450831 0.38865536975632942 0 0.0051179241548920951 0.39933249235822299 0 0.02020588408624183 0.39508631433343588 0 -0.0038456699322450831 0.38865536975632942 0 0.02020588408624183 0.39508631433343588 0 0.0062569560340532994 0.41106722556066511 0 0.0051179241548920951 0.39933249235822299 0 0.017121911335030611 0.40494204584850851 0 0.0051179241548920951 0.39933249235822299 0 0.02020588408624183 0.39508631433343588 0 0.017121911335030611 0.40494204584850851 0 0.02020588408624183 0.39508631433343588 0 0.02700379994155001 0.40488876630444809 0 0.044257438104729437 0.40151725891054019 0 0.02020588408624183 0.39508631433343588 0 0.017121911335030611 0.40494204584850851 0 0.02700379994155001 0.40488876630444809 0 0.011768988736328499 0.38126337763943952 0 0.036659939510540633 0.38181921096920313 0 0.02195090609193304 0.36831395755289459 0 0.011768988736328499 0.38126337763943952 0 0.02020588408624183 0.39508631433343588 0 0.036659939510540633 0.38181921096920313 0 0.036659939510540633 0.38181921096920313 0 0.044257438104729437 0.40151725891054019 0 0.057639492707952662 0.38584054598823853 0 0.02020588408624183 0.39508631433343588 0 0.036659939510540633 0.38181921096920313 0 0.044257438104729437 0.40151725891054019 0 0.02020588408624183 0.39508631433343588 0 0.044257438104729437 0.40151725891054019 0 0.044257438104729437 0.40151725891054019 0 0.057639492707952662 0.38584054598823853 0 0.044257438104729437 0.40151725891054019 0 0.064891050443789206 0.40703430854799899 0 0.044257438104729437 0.40151725891054019 0 0.057639492707952662 0.38584054598823853 0 0.064891050443789206 0.40703430854799899 0 0.036659939510540633 0.38181921096920313 0 0.057639492707952662 0.38584054598823853 0 0.051819697924249328 0.36732262263658139 0 0.057639492707952662 0.38584054598823853 0 0.071021547311180155 0.37016383306594047 0 0.057639492707952662 0.38584054598823853 0 0.075481067410671621 0.38406788105603251 0 0.071021547311180155 0.37016383306594047 0 0.075481067410671621 0.38406788105603251 0 0.087833080319522402 0.37848025756055609 0 0.08486176860829138 0.39217561198248418 0 0.08486176860829138 0.39217561198248418 0 0.095639164740084576 0.38445716806686958 0 0.095115306777065492 0.39523062707628598 0 0.087833080319522402 0.37848025756055609 0 0.08486176860829138 0.39217561198248418 0 0.095639164740084576 0.38445716806686958 0 0.087833080319522402 0.37848025756055609 0 0.095639164740084576 0.38445716806686958 0 0.097112316461010095 0.37059917313332852 0 0.075481067410671621 0.38406788105603251 0 0.08486176860829138 0.39217561198248418 0 0.076697568730004967 0.40205267544905299 0 0.08882797701860784 0.40044404351243429 0 0.095115306777065492 0.39523062707628598 0 0.094899024592770512 0.40385162676505759 0 0.08882797701860784 0.40044404351243429 0 0.090125380899319402 0.4068014501658887 0 0.094899024592770512 0.40385162676505759 0 0.08882797701860784 0.40044404351243429 0 0.08486176860829138 0.39217561198248418 0 0.095115306777065492 0.39523062707628598 0 0.08882797701860784 0.40044404351243429 0 0.08486176860829138 0.39217561198248418 0 0.076697568730004967 0.40205267544905299 0 0.08882797701860784 0.40044404351243429 0 0.076697568730004967 0.40205267544905299 0 0.090125380899319402 0.4068014501658887 0 0.057639492707952662 0.38584054598823853 0 0.075481067410671621 0.38406788105603251 0 0.064891050443789206 0.40703430854799899 0 0.075481067410671621 0.38406788105603251 0 0.064891050443789206 0.40703430854799899 0 0.075481067410671621 0.38406788105603251 0 0.076697568730004967 0.40205267544905299 0 0.064891050443789206 0.40703430854799899 0 0.064891050443789206 0.40703430854799899 0 0.067022570504086124 0.42726485013015109 0 0.076647942817414244 0.42230080988615493 0 0.064891050443789206 0.40703430854799899 0 0.076647942817414244 0.42230080988615493 0 0.082591516604322318 0.41814788359060812 0 0.068273170768507599 0.44007197908475398 0 0.053862848090510743 0.43095102279929348 0 0.067022570504086124 0.42726485013015109 0 0.067022570504086124 0.42726485013015109 0 0.076647942817414244 0.42230080988615493 0 0.078516363599464539 0.43408965910939012 0 0.068273170768507599 0.44007197908475398 0 0.067022570504086124 0.42726485013015109 0 0.078516363599464539 0.43408965910939012 0 0.078516363599464539 0.43408965910939012 0 0.08695227269864915 0.42619232189922629 0 0.091065819349795157 0.43696662366003702 0 0.076647942817414244 0.42230080988615493 0 0.078516363599464539 0.43408965910939012 0 0.08695227269864915 0.42619232189922629 0 0.076647942817414244 0.42230080988615493 0 0.08695227269864915 0.42619232189922629 0 0.082591516604322318 0.41814788359060812 0 0.08695227269864915 0.42619232189922629 0 0.090528131215433072 0.42116106266262582 0 0.098306245686814855 0.42661645627698652 0 0.08695227269864915 0.42619232189922629 0 0.091065819349795157 0.43696662366003702 0 0.098306245686814855 0.42661645627698652 0 0.076697568730004967 0.40205267544905299 0 0.064891050443789206 0.40703430854799899 0 0.0933976791369589 0.41465645841262161 0 0.064891050443789206 0.40703430854799899 0 0.0933976791369589 0.41465645841262161 0 0.064891050443789206 0.40703430854799899 0 0.082591516604322318 0.41814788359060812 0 0.0933976791369589 0.41465645841262161 0 0.076697568730004967 0.40205267544905299 0 0.0933976791369589 0.41465645841262161 0 0.090125380899319402 0.4068014501658887 0 0.08695227269864915 0.42619232189922629 0 0.082591516604322318 0.41814788359060812 0 0.090528131215433072 0.42116106266262582 0 0.082591516604322318 0.41814788359060812 0 0.0933976791369589 0.41465645841262161 0 0.090528131215433072 0.42116106266262582 0 0.0933976791369589 0.41465645841262161 0 0.090125380899319402 0.4068014501658887 0 0.09647189007991816 0.41297344267761232 0 0.090125380899319402 0.4068014501658887 0 0.09647189007991816 0.41297344267761232 0 0.094899024592770512 0.40385162676505759 0 0.09647189007991816 0.41297344267761232 0 0.1010528579266461 0.40355565540263177 0 0.094899024592770512 0.40385162676505759 0 0.0933976791369589 0.41465645841262161 0 0.1219043078301292 0.42227860827724262 0 0.0933976791369589 0.41465645841262161 0 0.09647189007991816 0.41297344267761232 0 0.1219043078301292 0.42227860827724262 0 0.0933976791369589 0.41465645841262161 0 0.098306245686814855 0.42661645627698652 0 0.1219043078301292 0.42227860827724262 0 0.0933976791369589 0.41465645841262161 0 0.090528131215433072 0.42116106266262582 0 0.098306245686814855 0.42661645627698652 0 0.1060823779628267 0.4385391005670361 0 0.098306245686814855 0.42661645627698652 0 0.1219043078301292 0.42227860827724262 0 0.1060823779628267 0.4385391005670361 0 0.091065819349795157 0.43696662366003702 0 0.098306245686814855 0.42661645627698652 0 0.12492092938486329 0.44442938247274849 0 0.1060823779628267 0.4385391005670361 0 0.1219043078301292 0.42227860827724262 0 0.09647189007991816 0.41297344267761232 0 0.1219043078301292 0.42227860827724262 0 0.1190569495839222 0.39894175692983752 0 0.1190569495839222 0.39894175692983752 0 0.115761552396259 0.38214441258079901 0 0.1010528579266461 0.40355565540263177 0 0.1190569495839222 0.39894175692983752 0 0.115761552396259 0.38214441258079901 0 0.12974413416520811 0.37723340166559111 0 0.115761552396259 0.38214441258079901 0 0.095639164740084576 0.38445716806686958 0 0.097112316461010095 0.37059917313332852 0 0.115761552396259 0.38214441258079901 0 0.095639164740084576 0.38445716806686958 0 0.095115306777065492 0.39523062707628598 0 0.115761552396259 0.38214441258079901 0 0.095115306777065492 0.39523062707628598 0 0.1010528579266461 0.40355565540263177 0 0.115761552396259 0.38214441258079901 0 0.1010528579266461 0.40355565540263177 0 0.09647189007991816 0.41297344267761232 0 0.1190569495839222 0.39894175692983752 0 0.1010528579266461 0.40355565540263177 0 0.09647189007991816 0.41297344267761232 0 0.1190569495839222 0.39894175692983752 0 0.095115306777065492 0.39523062707628598 0 0.1010528579266461 0.40355565540263177 0 0.094899024592770512 0.40385162676505759 0 0.10827336336815011 0.36124254367215403 0 0.096661101344437117 0.33813502607209961 0 0.086071084377554341 0.36110145356406598 0 0.10827336336815011 0.36124254367215403 0 0.1178091704133494 0.34532791259500412 0 0.096661101344437117 0.33813502607209961 0 0.10827336336815011 0.36124254367215403 0 0.097112316461010095 0.37059917313332852 0 0.086071084377554341 0.36110145356406598 0 0.115761552396259 0.38214441258079901 0 0.10827336336815011 0.36124254367215403 0 0.097112316461010095 0.37059917313332852 0 0.115761552396259 0.38214441258079901 0 0.130470246865872 0.36073316975896619 0 0.115761552396259 0.38214441258079901 0 0.10827336336815011 0.36124254367215403 0 0.130470246865872 0.36073316975896619 0 0.10827336336815011 0.36124254367215403 0 0.1178091704133494 0.34532791259500412 0 0.130470246865872 0.36073316975896619 0 0.1178091704133494 0.34532791259500412 0 0.1165642244890083 0.32860356309398259 0 0.096661101344437117 0.33813502607209961 0 0.1178091704133494 0.34532791259500412 0 0.1165642244890083 0.32860356309398259 0 0.13211628005130679 0.33298336784462518 0 0.1165642244890083 0.32860356309398259 0 0.10725111831131991 0.31516859858013302 0 0.13332030784944099 0.30618268093978013 0 0.1165642244890083 0.32860356309398259 0 0.10725111831131991 0.31516859858013302 0 0.096661101344437117 0.33813502607209961 0 0.10725111831131991 0.31516859858013302 0 0.096661101344437117 0.33813502607209961 0 0.083224867590868737 0.31468210130402469 0 0.10725111831131991 0.31516859858013302 0 0.096661101344437117 0.33813502607209961 0 0.096661101344437117 0.33813502607209961 0 0.07597424335929559 0.33111589414587539 0 0.080661787287451714 0.34468239258271399 0 0.096661101344437117 0.33813502607209961 0 0.083224867590868737 0.31468210130402469 0 0.07597424335929559 0.33111589414587539 0 0.083224867590868737 0.31468210130402469 0 0.07597424335929559 0.33111589414587539 0 0.059514592965360741 0.32316425985506708 0 0.083224867590868737 0.31468210130402469 0 0.059514592965360741 0.32316425985506708 0 0.063782691452085136 0.30639840853764622 0 0.07597424335929559 0.33111589414587539 0 0.06478019181332767 0.33979874744210242 0 0.080661787287451714 0.34468239258271399 0 0.07597424335929559 0.33111589414587539 0 0.06478019181332767 0.33979874744210242 0 0.059514592965360741 0.32316425985506708 0 0.06478019181332767 0.33979874744210242 0 0.065179557391164378 0.35550843706964658 0 0.080661787287451714 0.34468239258271399 0 0.065179557391164378 0.35550843706964658 0 0.080661787287451714 0.34468239258271399 0 0.086071084377554341 0.36110145356406598 0 0.096661101344437117 0.33813502607209961 0 0.080661787287451714 0.34468239258271399 0 0.086071084377554341 0.36110145356406598 0 0.096661101344437117 0.33813502607209961 0 0.086071084377554341 0.36110145356406598 0 0.075481067410671621 0.38406788105603251 0 0.087833080319522402 0.37848025756055609 0 0.086071084377554341 0.36110145356406598 0 0.087833080319522402 0.37848025756055609 0 0.097112316461010095 0.37059917313332852 0 0.086071084377554341 0.36110145356406598 0 0.075481067410671621 0.38406788105603251 0 0.086071084377554341 0.36110145356406598 0 0.065179557391164378 0.35550843706964658 0 0.086071084377554341 0.36110145356406598 0 0.071021547311180155 0.37016383306594047 0 0.075481067410671621 0.38406788105603251 0 0.086071084377554341 0.36110145356406598 0 0.071021547311180155 0.37016383306594047 0 0.065179557391164378 0.35550843706964658 0 0.071021547311180155 0.37016383306594047 0 0.051819697924249328 0.36732262263658139 0 0.057639492707952662 0.38584054598823853 0 0.071021547311180155 0.37016383306594047 0 0.051819697924249328 0.36732262263658139 0 0.065179557391164378 0.35550843706964658 0 0.051819697924249328 0.36732262263658139 0 0.049838358168664013 0.34387188034770361 0 0.06478019181332767 0.33979874744210242 0 0.065179557391164378 0.35550843706964658 0 0.049838358168664013 0.34387188034770361 0 0.051819697924249328 0.36732262263658139 0 0.049838358168664013 0.34387188034770361 0 0.035296009355446328 0.35376563031759239 0 0.051819697924249328 0.36732262263658139 0 0.035296009355446328 0.35376563031759239 0 0.036925423150432873 0.36796838548469379 0 0.036659939510540633 0.38181921096920313 0 0.051819697924249328 0.36732262263658139 0 0.036925423150432873 0.36796838548469379 0 0.035296009355446328 0.35376563031759239 0 0.036925423150432873 0.36796838548469379 0 0.02195090609193304 0.36831395755289459 0 0.036659939510540633 0.38181921096920313 0 0.036925423150432873 0.36796838548469379 0 0.02195090609193304 0.36831395755289459 0 0.035296009355446328 0.35376563031759239 0 0.01506475588466639 0.35387845252856293 0 0.01961883978161183 0.33791049060672518 0 0.035296009355446328 0.35376563031759239 0 0.02195090609193304 0.36831395755289459 0 0.01506475588466639 0.35387845252856293 0 -0.00087981957629810256 0.37004617894156078 0 0.01506475588466639 0.35387845252856293 0 0.0002001884757462532 0.34890758167539238 0 0.01506475588466639 0.35387845252856293 0 0.0002001884757462532 0.34890758167539238 0 0.01961883978161183 0.33791049060672518 0 -0.00087981957629810256 0.37004617894156078 0 0.02195090609193304 0.36831395755289459 0 0.01506475588466639 0.35387845252856293 0 -0.00087981957629810256 0.37004617894156078 0 0.011768988736328499 0.38126337763943952 0 0.02195090609193304 0.36831395755289459 0 0.0012801965277906089 0.32776898440922392 0 0.002360204579834125 0.30663038714305529 0 0.012945225336225901 0.31966147757224872 0 0.0012801965277906089 0.32776898440922392 0 0.002360204579834125 0.30663038714305529 0 0.012945225336225901 0.31966147757224872 0 0.0012801965277906089 0.32776898440922392 0 0.01961883978161183 0.33791049060672518 0 0.0002001884757462532 0.34890758167539238 0 0.0012801965277906089 0.32776898440922392 0 0.0002001884757462532 0.34890758167539238 0 0.0012801965277906089 0.32776898440922392 0 0.01961883978161183 0.33791049060672518 0 0.01961883978161183 0.33791049060672518 0 0.026280143587429791 0.32517951026540981 0 0.040866506798854813 0.32923453645108808 0 0.026280143587429791 0.32517951026540981 0 0.043965425914658782 0.30866210867470928 0 0.02336153268238415 0.31032397461410788 0 0.012945225336225901 0.31966147757224872 0 0.01961883978161183 0.33791049060672518 0 0.026280143587429791 0.32517951026540981 0 0.012945225336225901 0.31966147757224872 0 0.026280143587429791 0.32517951026540981 0 0.02336153268238415 0.31032397461410788 0 0.026280143587429791 0.32517951026540981 0 0.040866506798854813 0.32923453645108808 0 0.043965425914658782 0.30866210867470928 0 0.035296009355446328 0.35376563031759239 0 0.01961883978161183 0.33791049060672518 0 0.040866506798854813 0.32923453645108808 0 0.049838358168664013 0.34387188034770361 0 0.035296009355446328 0.35376563031759239 0 0.040866506798854813 0.32923453645108808 0 0.049838358168664013 0.34387188034770361 0 0.040866506798854813 0.32923453645108808 0 0.059514592965360741 0.32316425985506708 0 0.06478019181332767 0.33979874744210242 0 0.049838358168664013 0.34387188034770361 0 0.059514592965360741 0.32316425985506708 0 0.059514592965360741 0.32316425985506708 0 0.043965425914658782 0.30866210867470928 0 0.063782691452085136 0.30639840853764622 0 0.040866506798854813 0.32923453645108808 0 0.059514592965360741 0.32316425985506708 0 0.043965425914658782 0.30866210867470928 0 0.06080298650476032 0.2900179104773471 0 0.043965425914658782 0.30866210867470928 0 0.063782691452085136 0.30639840853764622 0 0.06080298650476032 0.2900179104773471 0 0.044526397714357367 0.28784175365976289 0 0.058278987705904207 0.26709009886207707 0 0.06080298650476032 0.2900179104773471 0 0.044526397714357367 0.28784175365976289 0 0.043965425914658782 0.30866210867470928 0 0.044526397714357367 0.28784175365976289 0 0.032297231200322733 0.29764506587282208 0 0.030318194050874259 0.28424821995646232 0 0.044526397714357367 0.28784175365976289 0 0.030318194050874259 0.28424821995646232 0 0.039657769829346552 0.27317030701641748 0 0.044526397714357367 0.28784175365976289 0 0.043965425914658782 0.30866210867470928 0 0.032297231200322733 0.29764506587282208 0 0.043965425914658782 0.30866210867470928 0 0.032297231200322733 0.29764506587282208 0 0.02336153268238415 0.31032397461410788 0 0.032297231200322733 0.29764506587282208 0 0.02336153268238415 0.31032397461410788 0 0.017829126939640321 0.29517085919307429 0 0.032297231200322733 0.29764506587282208 0 0.030318194050874259 0.28424821995646232 0 0.017829126939640321 0.29517085919307429 0 0.030318194050874259 0.28424821995646232 0 0.017829126939640321 0.29517085919307429 0 0.014767629400767 0.28140051010841938 0 0.017829126939640321 0.29517085919307429 0 0.014767629400767 0.28140051010841938 0 0.0032397524786903281 0.28941532214885041 0 0.014767629400767 0.28140051010841938 0 0.0032397524786903281 0.28941532214885041 0 0.00036586918226188788 0.27564353025539912 0 0.012945225336225901 0.31966147757224872 0 0.02336153268238415 0.31032397461410788 0 0.002360204579834125 0.30663038714305529 0 0.017829126939640321 0.29517085919307429 0 0.0032397524786903281 0.28941532214885041 0 0.002360204579834125 0.30663038714305529 0 0.02336153268238415 0.31032397461410788 0 0.017829126939640321 0.29517085919307429 0 0.002360204579834125 0.30663038714305529 0 0.0032397524786903281 0.28941532214885041 0 0.002360204579834125 0.30663038714305529 0 -0.0049333884333196774 0.298222658037266 0 0.0032397524786903281 0.28941532214885041 0 0.002360204579834125 0.30663038714305529 0 0.02336153268238415 0.31032397461410788 0 0.002360204579834125 0.30663038714305529 0 0.0041589756708292538 0.26017081773150558 0 0.01350306597380126 0.26799647246087538 0 0.02186299581578972 0.25674704960299283 0 0.01144972781442437 0.24492779461122019 0 0.0041589756708292538 0.26017081773150558 0 0.02186299581578972 0.25674704960299283 0 -0.0067125861305070769 0.2454977905887831 0 0.01144972781442437 0.24492779461122019 0 0.0041589756708292538 0.26017081773150558 0 0.0041589756708292538 0.26017081773150558 0 0.00036586918226188788 0.27564353025539912 0 0.01350306597380126 0.26799647246087538 0 0.014767629400767 0.28140051010841938 0 0.00036586918226188788 0.27564353025539912 0 0.01350306597380126 0.26799647246087538 0 0.014767629400767 0.28140051010841938 0 0.01350306597380126 0.26799647246087538 0 0.026077141113441751 0.27020525264116119 0 0.030318194050874259 0.28424821995646232 0 0.014767629400767 0.28140051010841938 0 0.026077141113441751 0.27020525264116119 0 0.026077141113441751 0.27020525264116119 0 0.02186299581578972 0.25674704960299283 0 0.036465713714951727 0.25729648802006788 0 0.01350306597380126 0.26799647246087538 0 0.026077141113441751 0.27020525264116119 0 0.02186299581578972 0.25674704960299283 0 0.029612041759355889 0.24435779863365781 0 0.02186299581578972 0.25674704960299283 0 0.036465713714951727 0.25729648802006788 0 0.029612041759355889 0.24435779863365781 0 0.036465713714951727 0.25729648802006788 0 0.036465713714951727 0.25729648802006788 0 0.039657769829346552 0.27317030701641748 0 0.058278987705904207 0.26709009886207707 0 0.026077141113441751 0.27020525264116119 0 0.036465713714951727 0.25729648802006788 0 0.039657769829346552 0.27317030701641748 0 0.030318194050874259 0.28424821995646232 0 0.026077141113441751 0.27020525264116119 0 0.039657769829346552 0.27317030701641748 0 0.044526397714357367 0.28784175365976289 0 0.039657769829346552 0.27317030701641748 0 0.058278987705904207 0.26709009886207707 0 0.053555423586063432 0.2436063728312057 0 0.036465713714951727 0.25729648802006788 0 0.058278987705904207 0.26709009886207707 0 0.053555423586063432 0.2436063728312057 0 0.077498805412770863 0.2428549470287534 0 0.058278987705904207 0.26709009886207707 0 0.077498805412770863 0.2428549470287534 0 0.058278987705904207 0.26709009886207707 0 0.08017397845893158 0.26329946016589001 0 0.093683841314688002 0.24820175738892189 0 0.077498805412770863 0.2428549470287534 0 0.08017397845893158 0.26329946016589001 0 0.093683841314688002 0.24820175738892189 0 0.08017397845893158 0.26329946016589001 0 0.093622015938068237 0.26210029311057498 0 0.08017397845893158 0.26329946016589001 0 0.073241997869302009 0.27813098128297692 0 0.095118932837533227 0.2755552797328934 0 0.08017397845893158 0.26329946016589001 0 0.093622015938068237 0.26210029311057498 0 0.095118932837533227 0.2755552797328934 0 0.06080298650476032 0.2900179104773471 0 0.058278987705904207 0.26709009886207707 0 0.073241997869302009 0.27813098128297692 0 0.058278987705904207 0.26709009886207707 0 0.08017397845893158 0.26329946016589001 0 0.073241997869302009 0.27813098128297692 0 0.06080298650476032 0.2900179104773471 0 0.063782691452085136 0.30639840853764622 0 0.081912308890857155 0.29240117500976498 0 0.06080298650476032 0.2900179104773471 0 0.073241997869302009 0.27813098128297692 0 0.081912308890857155 0.29240117500976498 0 0.083224867590868737 0.31468210130402469 0 0.063782691452085136 0.30639840853764622 0 0.081912308890857155 0.29240117500976498 0 0.083224867590868737 0.31468210130402469 0 0.081912308890857155 0.29240117500976498 0 0.098618735647141131 0.29534426347027332 0 0.073241997869302009 0.27813098128297692 0 0.081912308890857155 0.29240117500976498 0 0.095118932837533227 0.2755552797328934 0 0.081912308890857155 0.29240117500976498 0 0.098618735647141131 0.29534426347027332 0 0.095118932837533227 0.2755552797328934 0 0.098618735647141131 0.29534426347027332 0 0.095118932837533227 0.2755552797328934 0 0.1092598898568034 0.28082151720367438 0 0.098618735647141131 0.29534426347027332 0 0.1143851686734019 0.29605169421661892 0 0.1092598898568034 0.28082151720367438 0 0.10725111831131991 0.31516859858013302 0 0.083224867590868737 0.31468210130402469 0 0.098618735647141131 0.29534426347027332 0 0.10725111831131991 0.31516859858013302 0 0.098618735647141131 0.29534426347027332 0 0.1143851686734019 0.29605169421661892 0 0.10725111831131991 0.31516859858013302 0 0.1143851686734019 0.29605169421661892 0 0.13332030784944099 0.30618268093978013 0 0.1143851686734019 0.29605169421661892 0 0.12232917009848469 0.28607604863620101 0 0.13332030784944099 0.30618268093978013 0 0.1143851686734019 0.29605169421661892 0 0.12232917009848469 0.28607604863620101 0 0.1092598898568034 0.28082151720367438 0 0.1195960207431393 0.27055714201146602 0 0.1055113111411201 0.26134467515459481 0 0.1092598898568034 0.28082151720367438 0 0.12232917009848469 0.28607604863620101 0 0.1195960207431393 0.27055714201146602 0 0.1092598898568034 0.28082151720367438 0 0.10625532147533789 0.23669082107842401 0 0.1173043538645356 0.25739549318977062 0 0.1055113111411201 0.26134467515459481 0 0.1173043538645356 0.25739549318977062 0 0.1286920092177225 0.25484766484105992 0 0.12696847091562841 0.26311970384770528 0 0.1195960207431393 0.27055714201146602 0 0.1173043538645356 0.25739549318977062 0 0.12696847091562841 0.26311970384770528 0 0.1195960207431393 0.27055714201146602 0 0.1173043538645356 0.25739549318977062 0 0.1055113111411201 0.26134467515459481 0 0.093683841314688002 0.24820175738892189 0 0.093622015938068237 0.26210029311057498 0 0.1055113111411201 0.26134467515459481 0 0.1055113111411201 0.26134467515459481 0 0.095118932837533227 0.2755552797328934 0 0.1092598898568034 0.28082151720367438 0 0.093622015938068237 0.26210029311057498 0 0.1055113111411201 0.26134467515459481 0 0.095118932837533227 0.2755552797328934 0 0.14699071528950219 0.27542909067037041 0 0.15609230128107801 0.29387251936076042 0 0.15847144274905689 0.26731519404752702 0 0.14699071528950219 0.27542909067037041 0 0.14448881341496189 0.26506202055740541 0 0.13452433564757521 0.27938199403493502 0 0.14699071528950219 0.27542909067037041 0 0.14448881341496189 0.26506202055740541 0 0.15847144274905689 0.26731519404752702 0 0.14737864001805551 0.25121788241116427 0 0.14448881341496189 0.26506202055740541 0 0.15847144274905689 0.26731519404752702 0 0.16085058421703699 0.24075786873429389 0 0.14737864001805551 0.25121788241116427 0 0.15847144274905689 0.26731519404752702 0 0.14737864001805551 0.25121788241116427 0 0.14448881341496189 0.26506202055740541 0 0.1357283634457094 0.25258130713008992 0 0.1357283634457094 0.25258130713008992 0 0.12696847091562841 0.26311970384770528 0 0.13452433564757521 0.27938199403493502 0 0.1357283634457094 0.25258130713008992 0 0.1286920092177225 0.25484766484105992 0 0.12696847091562841 0.26311970384770528 0 0.1296454250842034 0.24697442185427521 0 0.1357283634457094 0.25258130713008992 0 0.1286920092177225 0.25484766484105992 0 0.1195960207431393 0.27055714201146602 0 0.12696847091562841 0.26311970384770528 0 0.13452433564757521 0.27938199403493502 0 0.1357283634457094 0.25258130713008992 0 0.13452433564757521 0.27938199403493502 0 0.14448881341496189 0.26506202055740541 0 0.1357283634457094 0.25258130713008992 0 0.13452433564757521 0.27938199403493502 0 0.12232917009848469 0.28607604863620101 0 0.1195960207431393 0.27055714201146602 0 0.13452433564757521 0.27938199403493502 0 0.13452433564757521 0.27938199403493502 0 0.13332030784944099 0.30618268093978013 0 0.13452433564757521 0.27938199403493502 0 0.13332030784944099 0.30618268093978013 0 0.14329621141945961 0.29113841740749358 0 0.12232917009848469 0.28607604863620101 0 0.13452433564757521 0.27938199403493502 0 0.13332030784944099 0.30618268093978013 0 0.1546885854565459 0.3095415908729513 0 0.15609230128107801 0.29387251936076042 0 0.14601314419571629 0.3034194747473406 0 0.1546885854565459 0.3095415908729513 0 0.15609230128107801 0.29387251936076042 0 0.13332030784944099 0.30618268093978013 0 0.14601314419571629 0.3034194747473406 0 0.14302319920118309 0.31681913714738441 0 0.14601314419571629 0.3034194747473406 0 0.1546885854565459 0.3095415908729513 0 0.14302319920118309 0.31681913714738441 0 0.13332030784944099 0.30618268093978013 0 0.14601314419571629 0.3034194747473406 0 0.14329621141945961 0.29113841740749358 0 0.14699071528950219 0.27542909067037041 0 0.14329621141945961 0.29113841740749358 0 0.15609230128107801 0.29387251936076042 0 0.14699071528950219 0.27542909067037041 0 0.15609230128107801 0.29387251936076042 0 0.14699071528950219 0.27542909067037041 0 0.13452433564757521 0.27938199403493502 0 0.14329621141945961 0.29113841740749358 0 0.14601314419571629 0.3034194747473406 0 0.14329621141945961 0.29113841740749358 0 0.15609230128107801 0.29387251936076042 0 0.15609230128107801 0.29387251936076042 0 0.16206017858012359 0.2911768695793101 0 0.15847144274905689 0.26731519404752702 0 0.16206017858012359 0.2911768695793101 0 0.16102827508441969 0.30387476302947902 0 0.1781224979177902 0.29136644789337779 0 0.16206017858012359 0.2911768695793101 0 0.1781224979177902 0.29136644789337779 0 0.1702509974283862 0.27774428490250308 0 0.15609230128107801 0.29387251936076042 0 0.16206017858012359 0.2911768695793101 0 0.16102827508441969 0.30387476302947902 0 0.16458232790739771 0.3110766858441617 0 0.1781224979177902 0.29136644789337779 0 0.1546885854565459 0.3095415908729513 0 0.15609230128107801 0.29387251936076042 0 0.16102827508441969 0.30387476302947902 0 0.16102827508441969 0.30387476302947902 0 0.16458232790739771 0.3110766858441617 0 0.1781224979177902 0.29136644789337779 0 0.16102827508441969 0.30387476302947902 0 0.15988763580509849 0.31791068411530132 0 0.16102827508441969 0.30387476302947902 0 0.16458232790739771 0.3110766858441617 0 0.15988763580509849 0.31791068411530132 0 0.1546885854565459 0.3095415908729513 0 0.16102827508441969 0.30387476302947902 0 0.15988763580509849 0.31791068411530132 0 0.16102827508441969 0.30387476302947902 0 0.16458232790739771 0.3110766858441617 0 0.16206017858012359 0.2911768695793101 0 0.16102827508441969 0.30387476302947902 0 0.15609230128107801 0.29387251936076042 0 0.16102827508441969 0.30387476302947902 0 0.16458232790739771 0.3110766858441617 0 0.18133166168569859 0.30846691361596917 0 0.1781224979177902 0.29136644789337779 0 0.18133166168569859 0.30846691361596917 0 0.19327056208197829 0.28731480076158122 0 0.1781224979177902 0.29136644789337779 0 0.19166266792818379 0.27165620994259487 0 0.18133166168569859 0.30846691361596917 0 0.1781224979177902 0.29136644789337779 0 0.19327056208197829 0.28731480076158122 0 0.1781224979177902 0.29136644789337779 0 0.17973547357858599 0.27040474535056369 0 0.1702509974283862 0.27774428490250308 0 0.1781224979177902 0.29136644789337779 0 0.17973547357858599 0.27040474535056369 0 0.19166266792818379 0.27165620994259487 0 0.17973547357858599 0.27040474535056369 0 0.1702509974283862 0.27774428490250308 0 0.17444353000816201 0.2581931818276173 0 0.17973547357858599 0.27040474535056369 0 0.1893992401434304 0.25590890759110818 0 0.19166266792818379 0.27165620994259487 0 0.15609230128107801 0.29387251936076042 0 0.15847144274905689 0.26731519404752702 0 0.16206017858012359 0.2911768695793101 0 0.1702509974283862 0.27774428490250308 0 0.15847144274905689 0.26731519404752702 0 0.1702509974283862 0.27774428490250308 0 0.15847144274905689 0.26731519404752702 0 0.17444353000816201 0.2581931818276173 0 0.16085058421703699 0.24075786873429389 0 0.15847144274905689 0.26731519404752702 0 0.17444353000816201 0.2581931818276173 0 0.16085058421703699 0.24075786873429389 0 0.15847144274905689 0.26731519404752702 0 0.18618582173783979 0.23612729373750579 0 0.17444353000816201 0.2581931818276173 0 0.1893992401434304 0.25590890759110818 0 0.17973547357858599 0.27040474535056369 0 0.17444353000816201 0.2581931818276173 0 0.1893992401434304 0.25590890759110818 0 0.19166266792818379 0.27165620994259487 0 0.205209462478258 0.26616268790719327 0 0.20520283793857749 0.25194597199181179 0 0.19570194822741041 0.2454510088932618 0 0.1893992401434304 0.25590890759110818 0 0.20520283793857749 0.25194597199181179 0 0.1893992401434304 0.25590890759110818 0 0.19166266792818379 0.27165620994259487 0 0.20520283793857749 0.25194597199181179 0 0.19166266792818379 0.27165620994259487 0 0.20520283793857749 0.25194597199181179 0 0.19166266792818379 0.27165620994259487 0 0.205209462478258 0.26616268790719327 0 0.19327056208197829 0.28731480076158122 0 0.205209462478258 0.26616268790719327 0 0.19327056208197829 0.28731480076158122 0 0.205209462478258 0.26616268790719327 0 0.21119501609641311 0.27471916902773341 0 0.19327056208197829 0.28731480076158122 0 0.21119501609641311 0.27471916902773341 0 0.21720412567118549 0.26212786120649573 0 0.2243018681569614 0.27446694315485121 0 0.205209462478258 0.26616268790719327 0 0.21119501609641311 0.27471916902773341 0 0.21720412567118549 0.26212786120649573 0 0.21119501609641311 0.27471916902773341 0 0.2243018681569614 0.27446694315485121 0 0.21598906209368221 0.28352355210854541 0 0.21714836287453759 0.24501057505280541 0 0.205209462478258 0.26616268790719327 0 0.20520283793857749 0.25194597199181179 0 0.21714836287453759 0.24501057505280541 0 0.205209462478258 0.26616268790719327 0 0.21714836287453759 0.24501057505280541 0 0.205209462478258 0.26616268790719327 0 0.21720412567118549 0.26212786120649573 0 0.21714836287453759 0.24501057505280541 0 0.22616492460773091 0.25035997063068921 0 0.22431281387017379 0.26058680749564439 0 0.22431281387017379 0.26058680749564439 0 0.24199173503370719 0.26881813545601441 0 0.23631049940191359 0.25694621688910702 0 0.21720412567118549 0.26212786120649573 0 0.22431281387017379 0.26058680749564439 0 0.24199173503370719 0.26881813545601441 0 0.21720412567118549 0.26212786120649573 0 0.24199173503370719 0.26881813545601441 0 0.21714836287453759 0.24501057505280541 0 0.21720412567118549 0.26212786120649573 0 0.22431281387017379 0.26058680749564439 0 0.21714836287453759 0.24501057505280541 0 0.22431281387017379 0.26058680749564439 0 0.22616492460773091 0.25035997063068921 0 0.22431281387017379 0.26058680749564439 0 0.23631049940191359 0.25694621688910702 0 0.23474974831446649 0.24735315689870069 0 0.22616492460773091 0.25035997063068921 0 0.23631049940191359 0.25694621688910702 0 0.2243018681569614 0.27446694315485121 0 0.24199173503370719 0.26881813545601441 0 0.23284915347607099 0.28697622267944511 0 0.21720412567118549 0.26212786120649573 0 0.2243018681569614 0.27446694315485121 0 0.24199173503370719 0.26881813545601441 0 0.24199173503370719 0.26881813545601441 0 0.24555838619246181 0.28049138676962287 0 0.25784649716980201 0.27309739874842359 0 0.24199173503370719 0.26881813545601441 0 0.25784649716980201 0.27309739874842359 0 0.24199173503370719 0.26881813545601441 0 0.24555838619246181 0.28049138676962287 0 0.23284915347607099 0.28697622267944511 0 0.24199173503370719 0.26881813545601441 0 0.23284915347607099 0.28697622267944511 0 0.24199173503370719 0.26881813545601441 0 0.24924586184957531 0.25441070943284838 0 0.25784649716980201 0.27309739874842359 0 0.24199173503370719 0.26881813545601441 0 0.24924586184957531 0.25441070943284838 0 0.24199173503370719 0.26881813545601441 0 0.24924586184957531 0.25441070943284838 0 0.23631049940191359 0.25694621688910702 0 0.2438731903488971 0.2443253423721817 0 0.24924586184957531 0.25441070943284838 0 0.23631049940191359 0.25694621688910702 0 0.23683692637387779 0.2995586261044314 0 0.24954615909026809 0.29307379019460911 0 0.24124582101073619 0.31305018164079529 0 0.24954615909026809 0.29307379019460911 0 0.24124582101073619 0.31305018164079529 0 0.23683692637387779 0.2995586261044314 0 0.24954615909026809 0.29307379019460911 0 0.23284915347607099 0.28697622267944511 0 0.24555838619246181 0.28049138676962287 0 0.24954615909026809 0.29307379019460911 0 0.23284915347607099 0.28697622267944511 0 0.23284915347607099 0.28697622267944511 0 0.22093222240916199 0.29260391118973211 0 0.21598906209368221 0.28352355210854541 0 0.23284915347607099 0.28697622267944511 0 0.22093222240916199 0.29260391118973211 0 0.2237065719184359 0.30513430990287632 0 0.23284915347607099 0.28697622267944511 0 0.2237065719184359 0.30513430990287632 0 0.2243018681569614 0.27446694315485121 0 0.23284915347607099 0.28697622267944511 0 0.21598906209368221 0.28352355210854541 0 0.23683692637387779 0.2995586261044314 0 0.23284915347607099 0.28697622267944511 0 0.2237065719184359 0.30513430990287632 0 0.23683692637387779 0.2995586261044314 0 0.2237065719184359 0.30513430990287632 0 0.24124582101073619 0.31305018164079529 0 0.2237065719184359 0.30513430990287632 0 0.2292202731292006 0.31790627907617941 0 0.24124582101073619 0.31305018164079529 0 0.2237065719184359 0.30513430990287632 0 0.20221197453875159 0.30559191403069552 0 0.2145639903608009 0.32329239712630747 0 0.2237065719184359 0.30513430990287632 0 0.21118410214845909 0.29478156006806189 0 0.20221197453875159 0.30559191403069552 0 0.22093222240916199 0.29260391118973211 0 0.2237065719184359 0.30513430990287632 0 0.21118410214845909 0.29478156006806189 0 0.21119501609641311 0.27471916902773341 0 0.21598906209368221 0.28352355210854541 0 0.19327056208197829 0.28731480076158122 0 0.21598906209368221 0.28352355210854541 0 0.21118410214845909 0.29478156006806189 0 0.19327056208197829 0.28731480076158122 0 0.22093222240916199 0.29260391118973211 0 0.21598906209368221 0.28352355210854541 0 0.21118410214845909 0.29478156006806189 0 0.21118410214845909 0.29478156006806189 0 0.19327056208197829 0.28731480076158122 0 0.20221197453875159 0.30559191403069552 0 0.1781224979177902 0.29136644789337779 0 0.19166266792818379 0.27165620994259487 0 0.19327056208197829 0.28731480076158122 0 0.18133166168569859 0.30846691361596917 0 0.19327056208197829 0.28731480076158122 0 0.20221197453875159 0.30559191403069552 0 0.18133166168569859 0.30846691361596917 0 0.20221197453875159 0.30559191403069552 0 0.19464908993155711 0.31811144080715609 0 0.19464908993155711 0.31811144080715609 0 0.1984168945110322 0.3311122310201714 0 0.2145639903608009 0.32329239712630747 0 0.19464908993155711 0.31811144080715609 0 0.1984168945110322 0.3311122310201714 0 0.1835740478549881 0.32342967538610568 0 0.1974913678473858 0.33979126504553969 0 0.21403476307894531 0.33996841150891721 0 0.19070481693106109 0.34978859538309609 0 0.1974913678473858 0.33979126504553969 0 0.19070481693106109 0.34978859538309609 0 0.18680899686850469 0.33829582226997429 0 0.1984168945110322 0.3311122310201714 0 0.1974913678473858 0.33979126504553969 0 0.18680899686850469 0.33829582226997429 0 0.1984168945110322 0.3311122310201714 0 0.18680899686850469 0.33829582226997429 0 0.1835740478549881 0.32342967538610568 0 0.1984168945110322 0.3311122310201714 0 0.21403476307894531 0.33996841150891721 0 0.2145639903608009 0.32329239712630747 0 0.1984168945110322 0.3311122310201714 0 0.1974913678473858 0.33979126504553969 0 0.21403476307894531 0.33996841150891721 0 0.20221197453875159 0.30559191403069552 0 0.19464908993155711 0.31811144080715609 0 0.2145639903608009 0.32329239712630747 0 0.2237065719184359 0.30513430990287632 0 0.2145639903608009 0.32329239712630747 0 0.2237065719184359 0.30513430990287632 0 0.2145639903608009 0.32329239712630747 0 0.2292202731292006 0.31790627907617941 0 0.2145639903608009 0.32329239712630747 0 0.2292202731292006 0.31790627907617941 0 0.23736470922682951 0.33014822763473828 0 0.21403476307894531 0.33996841150891721 0 0.23736470922682951 0.33014822763473828 0 0.21403476307894531 0.33996841150891721 0 0.22860003019672459 0.34371267523538163 0 0.23736470922682951 0.33014822763473828 0 0.21403476307894531 0.33996841150891721 0 0.2145639903608009 0.32329239712630747 0 0.23736470922682951 0.33014822763473828 0 0.23736470922682951 0.33014822763473828 0 0.24954674546759109 0.34153470978815648 0 0.26069465537471359 0.32032804376055951 0 0.22860003019672459 0.34371267523538163 0 0.23736470922682951 0.33014822763473828 0 0.24954674546759109 0.34153470978815648 0 0.23736470922682951 0.33014822763473828 0 0.26069465537471359 0.32032804376055951 0 0.2292202731292006 0.31790627907617941 0 0.23736470922682951 0.33014822763473828 0 0.24124582101073619 0.31305018164079529 0 0.23736470922682951 0.33014822763473828 0 0.24124582101073619 0.31305018164079529 0 0.26069465537471359 0.32032804376055951 0 0.24528295548902029 0.36888346300206892 0 0.2319074600003509 0.35695635651053642 0 0.2345670454358412 0.3786152285576655 0 0.24528295548902029 0.36888346300206892 0 0.2319074600003509 0.35695635651053642 0 0.25449703772848981 0.35745791892868539 0 0.22860003019672459 0.34371267523538163 0 0.24954674546759109 0.34153470978815648 0 0.2319074600003509 0.35695635651053642 0 0.24954674546759109 0.34153470978815648 0 0.2319074600003509 0.35695635651053642 0 0.25449703772848981 0.35745791892868539 0 0.2319074600003509 0.35695635651053642 0 0.25449703772848981 0.35745791892868539 0 0.22860003019672459 0.34371267523538163 0 0.2319074600003509 0.35695635651053642 0 0.20931788227221201 0.35645479409238751 0 0.2319074600003509 0.35695635651053642 0 0.20931788227221201 0.35645479409238751 0 0.2319074600003509 0.35695635651053642 0 0.214431658194837 0.37224533894340528 0 0.2345670454358412 0.3786152285576655 0 0.214431658194837 0.37224533894340528 0 0.20075212653822361 0.36491275569825582 0 0.19715999348425259 0.37709197730238481 0 0.214431658194837 0.37224533894340528 0 0.20931788227221201 0.35645479409238751 0 0.20075212653822361 0.36491275569825582 0 0.2319074600003509 0.35695635651053642 0 0.214431658194837 0.37224533894340528 0 0.20931788227221201 0.35645479409238751 0 0.21403476307894531 0.33996841150891721 0 0.22860003019672459 0.34371267523538163 0 0.20931788227221201 0.35645479409238751 0 0.21403476307894531 0.33996841150891721 0 0.20931788227221201 0.35645479409238751 0 0.19070481693106109 0.34978859538309609 0 0.19070481693106109 0.34978859538309609 0 0.18672830454407291 0.35595323167424442 0 0.18680899686850469 0.33829582226997429 0 0.20931788227221201 0.35645479409238751 0 0.19070481693106109 0.34978859538309609 0 0.18672830454407291 0.35595323167424442 0 0.20931788227221201 0.35645479409238751 0 0.20075212653822361 0.36491275569825582 0 0.18672830454407291 0.35595323167424442 0 0.20931788227221201 0.35645479409238751 0 0.18672830454407291 0.35595323167424442 0 0.21403476307894531 0.33996841150891721 0 0.19070481693106109 0.34978859538309609 0 0.18672830454407291 0.35595323167424442 0 0.19715999348425259 0.37709197730238481 0 0.20075212653822361 0.36491275569825582 0 0.18672830454407291 0.35595323167424442 0 0.19715999348425259 0.37709197730238481 0 0.1894182482323257 0.37316985056887131 0 0.18672830454407291 0.35595323167424442 0 0.19715999348425259 0.37709197730238481 0 0.16422706859193029 0.37087838543428803 0 0.18672830454407291 0.35595323167424442 0 0.1894182482323257 0.37316985056887131 0 0.18167233300928939 0.36753551151446379 0 0.18226391436274961 0.37295089512072271 0 0.1894182482323257 0.37316985056887131 0 0.18167233300928939 0.36753551151446379 0 0.18672830454407291 0.35595323167424442 0 0.18167233300928939 0.36753551151446379 0 0.16422706859193029 0.37087838543428803 0 0.18672830454407291 0.35595323167424442 0 0.18167233300928939 0.36753551151446379 0 0.1761741330625827 0.37323447767881551 0 0.16422706859193029 0.37087838543428803 0 0.18167233300928939 0.36753551151446379 0 0.18226391436274961 0.37295089512072271 0 0.1761741330625827 0.37323447767881551 0 0.16422706859193029 0.37087838543428803 0 0.1568499920284587 0.35528983553395233 0 0.18672830454407291 0.35595323167424442 0 0.1761741330625827 0.37323447767881551 0 0.16422706859193029 0.37087838543428803 0 0.17003611189540949 0.37865551715873558 0 0.16422706859193029 0.37087838543428803 0 0.1568499920284587 0.35528983553395233 0 0.15561066539612961 0.37054013519161172 0 0.16940060667876089 0.34533957144800698 0 0.1568499920284587 0.35528983553395233 0 0.15836881391677909 0.33660025982462688 0 0.16940060667876089 0.34533957144800698 0 0.1568499920284587 0.35528983553395233 0 0.18672830454407291 0.35595323167424442 0 0.1568499920284587 0.35528983553395233 0 0.15836881391677909 0.33660025982462688 0 0.1568499920284587 0.35528983553395233 0 0.18672830454407291 0.35595323167424442 0 0.18672830454407291 0.35595323167424442 0 0.17565531622573549 0.33351495875920301 0 0.16940060667876089 0.34533957144800698 0 0.18672830454407291 0.35595323167424442 0 0.17565531622573549 0.33351495875920301 0 0.18672830454407291 0.35595323167424442 0 0.18680899686850469 0.33829582226997429 0 0.17565531622573549 0.33351495875920301 0 0.18680899686850469 0.33829582226997429 0 0.17565531622573549 0.33351495875920301 0 0.1835740478549881 0.32342967538610568 0 0.16458232790739771 0.3110766858441617 0 0.18133166168569859 0.30846691361596917 0 0.1835740478549881 0.32342967538610568 0 0.16458232790739771 0.3110766858441617 0 0.17565531622573549 0.33351495875920301 0 0.1835740478549881 0.32342967538610568 0 0.18133166168569859 0.30846691361596917 0 0.19464908993155711 0.31811144080715609 0 0.1835740478549881 0.32342967538610568 0 0.16458232790739771 0.3110766858441617 0 0.17565531622573549 0.33351495875920301 0 0.16493539524881831 0.3256371071219829 0 0.16458232790739771 0.3110766858441617 0 0.17565531622573549 0.33351495875920301 0 0.16493539524881831 0.3256371071219829 0 0.15988763580509849 0.31791068411530132 0 0.15836881391677909 0.33660025982462688 0 0.15988763580509849 0.31791068411530132 0 0.15836881391677909 0.33660025982462688 0 0.16458232790739771 0.3110766858441617 0 0.16493539524881831 0.3256371071219829 0 0.15988763580509849 0.31791068411530132 0 0.16458232790739771 0.3110766858441617 0 0.15988763580509849 0.31791068411530132 0 0.17565531622573549 0.33351495875920301 0 0.16493539524881831 0.3256371071219829 0 0.15836881391677909 0.33660025982462688 0 0.16940060667876089 0.34533957144800698 0 0.17565531622573549 0.33351495875920301 0 0.15836881391677909 0.33660025982462688 0 0.15836881391677909 0.33660025982462688 0 0.14517894133548481 0.33932192693713348 0 0.15072301777186481 0.3551537966906832 0 0.15988763580509849 0.31791068411530132 0 0.15836881391677909 0.33660025982462688 0 0.14517894133548481 0.33932192693713348 0 0.15988763580509849 0.31791068411530132 0 0.14517894133548481 0.33932192693713348 0 0.14340082255499739 0.32858377357857138 0 0.14517894133548481 0.33932192693713348 0 0.1532848696320151 0.32521066238514229 0 0.15988763580509849 0.31791068411530132 0 0.14517894133548481 0.33932192693713348 0 0.1532848696320151 0.32521066238514229 0 0.1546885854565459 0.3095415908729513 0 0.15988763580509849 0.31791068411530132 0 0.1532848696320151 0.32521066238514229 0 0.1546885854565459 0.3095415908729513 0 0.1532848696320151 0.32521066238514229 0 0.1546885854565459 0.3095415908729513 0 0.1532848696320151 0.32521066238514229 0 0.14302319920118309 0.31681913714738441 0 0.14340082255499739 0.32858377357857138 0 0.1532848696320151 0.32521066238514229 0 0.14302319920118309 0.31681913714738441 0 0.1165642244890083 0.32860356309398259 0 0.13332030784944099 0.30618268093978013 0 0.13211628005130679 0.33298336784462518 0 0.14340082255499739 0.32858377357857138 0 0.14302319920118309 0.31681913714738441 0 0.13211628005130679 0.33298336784462518 0 0.13332030784944099 0.30618268093978013 0 0.13211628005130679 0.33298336784462518 0 0.13332030784944099 0.30618268093978013 0 0.14302319920118309 0.31681913714738441 0 0.13211628005130679 0.33298336784462518 0 0.14340082255499739 0.32858377357857138 0 0.14517894133548481 0.33932192693713348 0 0.13211628005130679 0.33298336784462518 0 0.14517894133548481 0.33932192693713348 0 0.130470246865872 0.36073316975896619 0 0.1178091704133494 0.34532791259500412 0 0.13211628005130679 0.33298336784462518 0 0.130470246865872 0.36073316975896619 0 0.14517894133548481 0.33932192693713348 0 0.13211628005130679 0.33298336784462518 0 0.130470246865872 0.36073316975896619 0 0.130470246865872 0.36073316975896619 0 0.14285029493388821 0.36612413579685937 0 0.12974413416520811 0.37723340166559111 0 0.115761552396259 0.38214441258079901 0 0.130470246865872 0.36073316975896619 0 0.12974413416520811 0.37723340166559111 0 0.130470246865872 0.36073316975896619 0 0.14285029493388821 0.36612413579685937 0 0.15072301777186481 0.3551537966906832 0 0.14285029493388821 0.36612413579685937 0 0.15110714295142191 0.36291933463356751 0 0.15072301777186481 0.3551537966906832 0 0.14285029493388821 0.36612413579685937 0 0.15561066539612961 0.37054013519161172 0 0.14164200908792621 0.38491007118206277 0 0.14285029493388821 0.36612413579685937 0 0.15561066539612961 0.37054013519161172 0 0.15110714295142191 0.36291933463356751 0 0.1568499920284587 0.35528983553395233 0 0.15561066539612961 0.37054013519161172 0 0.1568499920284587 0.35528983553395233 0 0.15561066539612961 0.37054013519161172 0 0.15110714295142191 0.36291933463356751 0 0.1568499920284587 0.35528983553395233 0 0.15110714295142191 0.36291933463356751 0 0.15072301777186481 0.3551537966906832 0 0.14517894133548481 0.33932192693713348 0 0.130470246865872 0.36073316975896619 0 0.15072301777186481 0.3551537966906832 0 0.1568499920284587 0.35528983553395233 0 0.15836881391677909 0.33660025982462688 0 0.15072301777186481 0.3551537966906832 0 0.1568499920284587 0.35528983553395233 0 0.15072301777186481 0.3551537966906832 0 0.13814282347862039 0.40361976667843791 0 0.15485731912909881 0.40902893157843012 0 0.1586236399149635 0.387051266786203 0 0.14164200908792621 0.38491007118206277 0 0.13814282347862039 0.40361976667843791 0 0.1586236399149635 0.387051266786203 0 0.16422706859193029 0.37087838543428803 0 0.14164200908792621 0.38491007118206277 0 0.16422706859193029 0.37087838543428803 0 0.14164200908792621 0.38491007118206277 0 0.1586236399149635 0.387051266786203 0 0.16422706859193029 0.37087838543428803 0 0.15561066539612961 0.37054013519161172 0 0.14164200908792621 0.38491007118206277 0 0.1190569495839222 0.39894175692983752 0 0.14164200908792621 0.38491007118206277 0 0.12974413416520811 0.37723340166559111 0 0.14285029493388821 0.36612413579685937 0 0.14164200908792621 0.38491007118206277 0 0.12974413416520811 0.37723340166559111 0 0.1190569495839222 0.39894175692983752 0 0.14164200908792621 0.38491007118206277 0 0.13814282347862039 0.40361976667843791 0 0.1190569495839222 0.39894175692983752 0 0.14164200908792621 0.38491007118206277 0 0.1219043078301292 0.42227860827724262 0 0.13814282347862039 0.40361976667843791 0 0.13979773383841451 0.42628818967266502 0 0.1219043078301292 0.42227860827724262 0 0.1190569495839222 0.39894175692983752 0 0.13814282347862039 0.40361976667843791 0 0.12492092938486329 0.44442938247274849 0 0.1219043078301292 0.42227860827724262 0 0.13979773383841451 0.42628818967266502 0 0.13979773383841451 0.42628818967266502 0 0.1617751742647533 0.42727575948695828 0 0.14783665255212211 0.44221833807443178 0 0.13814282347862039 0.40361976667843791 0 0.13979773383841451 0.42628818967266502 0 0.15485731912909881 0.40902893157843012 0 0.13979773383841451 0.42628818967266502 0 0.15485731912909881 0.40902893157843012 0 0.1617751742647533 0.42727575948695828 0 0.15485731912909881 0.40902893157843012 0 0.1617751742647533 0.42727575948695828 0 0.17397785394477519 0.40329842337821642 0 0.1617751742647533 0.42727575948695828 0 0.18138870350743291 0.42856275547629669 0 0.17149096579303549 0.45169793364222832 0 0.1617751742647533 0.42727575948695828 0 0.18138870350743291 0.42856275547629669 0 0.17397785394477519 0.40329842337821642 0 0.18138870350743291 0.42856275547629669 0 0.17397785394477519 0.40329842337821642 0 0.19750623923051661 0.4174625635849849 0 0.17397785394477519 0.40329842337821642 0 0.1741363092206113 0.38665624439800012 0 0.18784076843566311 0.38749769681062068 0 0.17397785394477519 0.40329842337821642 0 0.18784076843566311 0.38749769681062068 0 0.191868239385318 0.40083970210453779 0 0.17397785394477519 0.40329842337821642 0 0.1586236399149635 0.387051266786203 0 0.1741363092206113 0.38665624439800012 0 0.15485731912909881 0.40902893157843012 0 0.17397785394477519 0.40329842337821642 0 0.1586236399149635 0.387051266786203 0 0.16422706859193029 0.37087838543428803 0 0.1586236399149635 0.387051266786203 0 0.17003611189540949 0.37865551715873558 0 0.1586236399149635 0.387051266786203 0 0.17003611189540949 0.37865551715873558 0 0.1741363092206113 0.38665624439800012 0 0.1761741330625827 0.37323447767881551 0 0.17003611189540949 0.37865551715873558 0 0.18039634740214441 0.3792035193963505 0 0.17003611189540949 0.37865551715873558 0 0.1741363092206113 0.38665624439800012 0 0.18039634740214441 0.3792035193963505 0 0.18226391436274961 0.37295089512072271 0 0.1761741330625827 0.37323447767881551 0 0.18039634740214441 0.3792035193963505 0 0.1741363092206113 0.38665624439800012 0 0.18039634740214441 0.3792035193963505 0 0.18784076843566311 0.38749769681062068 0 0.1894182482323257 0.37316985056887131 0 0.18226391436274961 0.37295089512072271 0 0.18039634740214441 0.3792035193963505 0 0.1894182482323257 0.37316985056887131 0 0.18039634740214441 0.3792035193963505 0 0.18784076843566311 0.38749769681062068 0 0.18784076843566311 0.38749769681062068 0 0.19715999348425259 0.37709197730238481 0 0.2073849406323782 0.3978117819346747 0 0.19715999348425259 0.37709197730238481 0 0.2073849406323782 0.3978117819346747 0 0.1894182482323257 0.37316985056887131 0 0.18784076843566311 0.38749769681062068 0 0.19715999348425259 0.37709197730238481 0 0.1894182482323257 0.37316985056887131 0 0.19715999348425259 0.37709197730238481 0 0.18784076843566311 0.38749769681062068 0 0.191868239385318 0.40083970210453779 0 0.2073849406323782 0.3978117819346747 0 0.191868239385318 0.40083970210453779 0 0.2073849406323782 0.3978117819346747 0 0.19750623923051661 0.4174625635849849 0 0.2073849406323782 0.3978117819346747 0 0.22058718394813251 0.38896067189507072 0 0.22510419828866979 0.40523475714559448 0 0.214431658194837 0.37224533894340528 0 0.19715999348425259 0.37709197730238481 0 0.22058718394813251 0.38896067189507072 0 0.19715999348425259 0.37709197730238481 0 0.22058718394813251 0.38896067189507072 0 0.19715999348425259 0.37709197730238481 0 0.2073849406323782 0.3978117819346747 0 0.22058718394813251 0.38896067189507072 0 0.214431658194837 0.37224533894340528 0 0.22058718394813251 0.38896067189507072 0 0.2345670454358412 0.3786152285576655 0 0.22058718394813251 0.38896067189507072 0 0.24401437441201251 0.40082936648775652 0 0.2345670454358412 0.3786152285576655 0 0.22058718394813251 0.38896067189507072 0 0.24401437441201251 0.40082936648775652 0 0.22058718394813251 0.38896067189507072 0 0.22510419828866979 0.40523475714559448 0 0.24401437441201251 0.40082936648775652 0 0.24401437441201251 0.40082936648775652 0 0.25117864057069422 0.38381617450715522 0 0.24401437441201251 0.40082936648775652 0 0.2345670454358412 0.3786152285576655 0 0.25117864057069422 0.38381617450715522 0 0.24528295548902029 0.36888346300206892 0 0.2345670454358412 0.3786152285576655 0 0.25117864057069422 0.38381617450715522 0 0.24050998209317609 0.43369096562285347 0 0.2359246046703222 0.42004037884350598 0 0.22783483492862969 0.4392513911992546 0 0.24050998209317609 0.43369096562285347 0 0.24655206961420481 0.42558110188360621 0 0.2359246046703222 0.42004037884350598 0 0.24050998209317609 0.43369096562285347 0 0.24655206961420481 0.42558110188360621 0 0.25003150725201562 0.43372022130883903 0 0.24050998209317609 0.43369096562285347 0 0.24534049440682701 0.44107132207723249 0 0.25003150725201562 0.43372022130883903 0 0.22510419828866979 0.40523475714559448 0 0.24401437441201251 0.40082936648775652 0 0.2359246046703222 0.42004037884350598 0 0.24655206961420481 0.42558110188360621 0 0.2359246046703222 0.42004037884350598 0 0.25133370731323168 0.41510519689569142 0 0.24401437441201251 0.40082936648775652 0 0.2359246046703222 0.42004037884350598 0 0.25133370731323168 0.41510519689569142 0 0.24401437441201251 0.40082936648775652 0 0.2359246046703222 0.42004037884350598 0 0.22510419828866979 0.40523475714559448 0 0.2359246046703222 0.42004037884350598 0 0.2176098877805038 0.41853158656696471 0 0.2359246046703222 0.42004037884350598 0 0.22783483492862969 0.4392513911992546 0 0.2176098877805038 0.41853158656696471 0 0.22783483492862969 0.4392513911992546 0 0.2359246046703222 0.42004037884350598 0 0.2176098877805038 0.41853158656696471 0 0.22783483492862969 0.4392513911992546 0 0.2104404339096291 0.43182611713459901 0 0.2176098877805038 0.41853158656696471 0 0.22783483492862969 0.4392513911992546 0 0.2104404339096291 0.43182611713459901 0 0.2176098877805038 0.41853158656696471 0 0.19750623923051661 0.4174625635849849 0 0.2073849406323782 0.3978117819346747 0 0.2176098877805038 0.41853158656696471 0 0.2073849406323782 0.3978117819346747 0 0.2176098877805038 0.41853158656696471 0 0.19750623923051661 0.4174625635849849 0 0.2073849406323782 0.3978117819346747 0 0.22510419828866979 0.40523475714559448 0 0.2176098877805038 0.41853158656696471 0 0.17397785394477519 0.40329842337821642 0 0.191868239385318 0.40083970210453779 0 0.19750623923051661 0.4174625635849849 0 0.2104404339096291 0.43182611713459901 0 0.19750623923051661 0.4174625635849849 0 0.19755394660307521 0.43965605971011412 0 0.18138870350743291 0.42856275547629669 0 0.19750623923051661 0.4174625635849849 0 0.19755394660307521 0.43965605971011412 0 0.19755394660307521 0.43965605971011412 0 0.18847826364637449 0.45963814115188828 0 0.20318263446251289 0.45454074229444552 0 0.18847826364637449 0.45963814115188828 0 0.20318263446251289 0.45454074229444552 0 0.20159235756807151 0.46896509441345058 0 0.2146136306299371 0.45816146136323072 0 0.21398855504584879 0.46955151356193431 0 0.20159235756807151 0.46896509441345058 0 0.20318263446251289 0.45454074229444552 0 0.2146136306299371 0.45816146136323072 0 0.20159235756807151 0.46896509441345058 0 0.2146136306299371 0.45816146136323072 0 0.22564947014093131 0.4602800525557878 0 0.21398855504584879 0.46955151356193431 0 0.2104404339096291 0.43182611713459901 0 0.19755394660307521 0.43965605971011412 0 0.21588977126055911 0.44510869272341658 0 0.2104404339096291 0.43182611713459901 0 0.21588977126055911 0.44510869272341658 0 0.22783483492862969 0.4392513911992546 0 0.19755394660307521 0.43965605971011412 0 0.20318263446251289 0.45454074229444552 0 0.21588977126055911 0.44510869272341658 0 0.2146136306299371 0.45816146136323072 0 0.21588977126055911 0.44510869272341658 0 0.22445936813966741 0.45118147659243218 0 0.20318263446251289 0.45454074229444552 0 0.2146136306299371 0.45816146136323072 0 0.21588977126055911 0.44510869272341658 0 0.21588977126055911 0.44510869272341658 0 0.22598645667608391 0.44364078899197051 0 0.22783483492862969 0.4392513911992546 0 0.22783483492862969 0.4392513911992546 0 0.22919978033049801 0.44201731278796857 0 0.2362101887653377 0.4414092386992331 0 0.22783483492862969 0.4392513911992546 0 0.22919978033049801 0.44201731278796857 0 0.22598645667608391 0.44364078899197051 0 0.22919978033049801 0.44201731278796857 0 0.22947877882891571 0.44694578669869939 0 0.22598645667608391 0.44364078899197051 0 0.22783483492862969 0.4392513911992546 0 0.22598645667608391 0.44364078899197051 0 0.22783483492862969 0.4392513911992546 0 0.22919978033049801 0.44201731278796857 0 0.22919978033049801 0.44201731278796857 0 0.2334928518450971 0.44610105544015172 0 0.2362101887653377 0.4414092386992331 0 0.22919978033049801 0.44201731278796857 0 0.2334928518450971 0.44610105544015172 0 0.22947877882891571 0.44694578669869939 0 0.23248890709262049 0.45213277814536262 0 0.22947877882891571 0.44694578669869939 0 0.22445936813966741 0.45118147659243218 0 0.23248890709262049 0.45213277814536262 0 0.2334928518450971 0.44610105544015172 0 0.22947877882891571 0.44694578669869939 0 0.22598645667608391 0.44364078899197051 0 0.22947877882891571 0.44694578669869939 0 0.22445936813966741 0.45118147659243218 0 0.21588977126055911 0.44510869272341658 0 0.22598645667608391 0.44364078899197051 0 0.22445936813966741 0.45118147659243218 0 0.2146136306299371 0.45816146136323072 0 0.22445936813966741 0.45118147659243218 0 0.22564947014093131 0.4602800525557878 0 0.22564947014093131 0.4602800525557878 0 0.2293546818475741 0.47117576488865659 0 0.21398855504584879 0.46955151356193431 0 0.22564947014093131 0.4602800525557878 0 0.23899167808994021 0.45947732078311032 0 0.2293546818475741 0.47117576488865659 0 0.23248890709262049 0.45213277814536262 0 0.22445936813966741 0.45118147659243218 0 0.22564947014093131 0.4602800525557878 0 0.23248890709262049 0.45213277814536262 0 0.22564947014093131 0.4602800525557878 0 0.23899167808994021 0.45947732078311032 0 0.23899167808994021 0.45947732078311032 0 0.24802348447485681 0.46912426160624832 0 0.2293546818475741 0.47117576488865659 0 0.23899167808994021 0.45947732078311032 0 0.24807532024175441 0.45072224774080721 0 0.24802348447485681 0.46912426160624832 0 0.23248890709262049 0.45213277814536262 0 0.23899167808994021 0.45947732078311032 0 0.24008660420811351 0.44800016086949462 0 0.23899167808994021 0.45947732078311032 0 0.24807532024175441 0.45072224774080721 0 0.24008660420811351 0.44800016086949462 0 0.24807532024175441 0.45072224774080721 0 0.24534049440682701 0.44107132207723249 0 0.24008660420811351 0.44800016086949462 0 0.24534049440682701 0.44107132207723249 0 0.25456350493456648 0.44099956295796272 0 0.25003150725201562 0.43372022130883903 0 0.24807532024175441 0.45072224774080721 0 0.24534049440682701 0.44107132207723249 0 0.25456350493456648 0.44099956295796272 0 0.24534049440682701 0.44107132207723249 0 0.2362101887653377 0.4414092386992331 0 0.24008660420811351 0.44800016086949462 0 0.24050998209317609 0.43369096562285347 0 0.22783483492862969 0.4392513911992546 0 0.2362101887653377 0.4414092386992331 0 0.24050998209317609 0.43369096562285347 0 0.24534049440682701 0.44107132207723249 0 0.2362101887653377 0.4414092386992331 0 0.2334928518450971 0.44610105544015172 0 0.2362101887653377 0.4414092386992331 0 0.24008660420811351 0.44800016086949462 0 0.23248890709262049 0.45213277814536262 0 0.2334928518450971 0.44610105544015172 0 0.24008660420811351 0.44800016086949462 0 0.24278266422756981 0.5 0 0.2308362113105531 0.48757906600159212 0 0.25527094133527017 0.48568755804809038 0 0.24802348447485681 0.46912426160624832 0 0.2293546818475741 0.47117576488865659 0 0.2308362113105531 0.48757906600159212 0 0.24802348447485681 0.46912426160624832 0 0.2308362113105531 0.48757906600159212 0 0.25527094133527017 0.48568755804809038 0 0.2293546818475741 0.47117576488865659 0 0.2308362113105531 0.48757906600159212 0 0.2146877750087918 0.48156031665482218 0 0.2293546818475741 0.47117576488865659 0 0.21398855504584879 0.46955151356193431 0 0.2146877750087918 0.48156031665482218 0 0.2308362113105531 0.48757906600159212 0 0.2164384410275195 0.5 0 0.2146877750087918 0.48156031665482218 0 0.24278266422756981 0.5 0 0.2308362113105531 0.48757906600159212 0 0.2164384410275195 0.5 0 0.2164384410275195 0.5 0 0.2146877750087918 0.48156031665482218 0 0.2004030465470405 0.48564396572777307 0 0.2146877750087918 0.48156031665482218 0 0.20159235756807151 0.46896509441345058 0 0.2004030465470405 0.48564396572777307 0 0.21398855504584879 0.46955151356193431 0 0.2146877750087918 0.48156031665482218 0 0.20159235756807151 0.46896509441345058 0 0.18847826364637449 0.45963814115188828 0 0.20159235756807151 0.46896509441345058 0 0.1792024413033502 0.47769441757059322 0 0.20159235756807151 0.46896509441345058 0 0.2004030465470405 0.48564396572777307 0 0.1792024413033502 0.47769441757059322 0 0.2164384410275195 0.5 0 0.2004030465470405 0.48564396572777307 0 0.19009421782746919 0.5 0 0.2004030465470405 0.48564396572777307 0 0.19009421782746919 0.5 0 0.1792024413033502 0.47769441757059322 0 0.19009421782746919 0.5 0 0.1637499946274189 0.5 0 0.1792024413033502 0.47769441757059322 0 0.1637499946274189 0.5 0 0.1792024413033502 0.47769441757059322 0 0.154448368610202 0.47584896682111411 0 0.18847826364637449 0.45963814115188828 0 0.1792024413033502 0.47769441757059322 0 0.17149096579303549 0.45169793364222832 0 0.19755394660307521 0.43965605971011412 0 0.18847826364637449 0.45963814115188828 0 0.17149096579303549 0.45169793364222832 0 0.18138870350743291 0.42856275547629669 0 0.19755394660307521 0.43965605971011412 0 0.17149096579303549 0.45169793364222832 0 0.1617751742647533 0.42727575948695828 0 0.17149096579303549 0.45169793364222832 0 0.14783665255212211 0.44221833807443178 0 0.17149096579303549 0.45169793364222832 0 0.154448368610202 0.47584896682111411 0 0.1792024413033502 0.47769441757059322 0 0.17149096579303549 0.45169793364222832 0 0.154448368610202 0.47584896682111411 0 0.17149096579303549 0.45169793364222832 0 0.14157432007055529 0.46046112360749891 0 0.154448368610202 0.47584896682111411 0 0.17149096579303549 0.45169793364222832 0 0.14157432007055529 0.46046112360749891 0 0.14783665255212211 0.44221833807443178 0 0.12492092938486329 0.44442938247274849 0 0.13979773383841451 0.42628818967266502 0 0.14783665255212211 0.44221833807443178 0 0.12492092938486329 0.44442938247274849 0 0.14157432007055529 0.46046112360749891 0 0.14783665255212211 0.44221833807443178 0 0.121934603102152 0.46560955878734261 0 0.12492092938486329 0.44442938247274849 0 0.14157432007055529 0.46046112360749891 0 0.121934603102152 0.46560955878734261 0 0.14157432007055529 0.46046112360749891 0 0.1338395057733027 0.47814249583817309 0 0.11519851676414369 0.48118072910952558 0 0.1338395057733027 0.47814249583817309 0 0.13740577142736871 0.49999999999999989 0 0.1637499946274189 0.5 0 0.13740577142736871 0.49999999999999989 0 0.154448368610202 0.47584896682111411 0 0.1338395057733027 0.47814249583817309 0 0.13740577142736871 0.49999999999999989 0 0.154448368610202 0.47584896682111411 0 0.13740577142736871 0.49999999999999989 0 0.154448368610202 0.47584896682111411 0 0.14157432007055529 0.46046112360749891 0 0.1338395057733027 0.47814249583817309 0 0.154448368610202 0.47584896682111411 0 0.35565749482017811 0.4691096696763204 0 0.34458392472975252 0.48074952450543301 0 0.35659937429105248 0.48579819718509448 0 0.35565749482017811 0.4691096696763204 0 0.34458392472975252 0.48074952450543301 0 0.33340194060155942 0.46991386140811048 0 0.35565749482017811 0.4691096696763204 0 0.33340194060155942 0.46991386140811048 0 0.34453439527492968 0.49065310022660802 0 0.35659937429105248 0.48579819718509448 0 0.36313646621206641 0.5 0 0.34458392472975252 0.48074952450543301 0 0.34453439527492968 0.49065310022660802 0 0.35659937429105248 0.48579819718509448 0 0.34453439527492968 0.49065310022660802 0 0.36313646621206641 0.5 0 0.33680550992718489 0.5 0 0.35659937429105248 0.48579819718509448 0 0.36905044244076091 0.49165249158332253 0 0.36732939593929942 0.48156814675879939 0 0.36313646621206641 0.5 0 0.36905044244076091 0.49165249158332253 0 0.37900129705842062 0.49402662384127838 0 0.35659937429105248 0.48579819718509448 0 0.36313646621206641 0.5 0 0.36905044244076091 0.49165249158332253 0 0.36905044244076091 0.49165249158332253 0 0.36732939593929942 0.48156814675879939 0 0.37900129705842062 0.49402662384127838 0 0.36732939593929942 0.48156814675879939 0 0.37773733934697717 0.48397856100248571 0 0.37900129705842062 0.49402662384127838 0 0.36732939593929942 0.48156814675879939 0 0.37900129705842062 0.49402662384127838 0 0.35565749482017811 0.4691096696763204 0 0.35659937429105248 0.48579819718509448 0 0.36732939593929942 0.48156814675879939 0 0.36732939593929942 0.48156814675879939 0 0.36918132510192869 0.47395909405753772 0 0.37692434201361041 0.47513085074703049 0 0.35565749482017811 0.4691096696763204 0 0.36918132510192869 0.47395909405753772 0 0.37471811207274758 0.46842092516576977 0 0.35565749482017811 0.4691096696763204 0 0.37471811207274758 0.46842092516576977 0 0.36732939593929942 0.48156814675879939 0 0.37692434201361041 0.47513085074703049 0 0.37773733934697717 0.48397856100248571 0 0.35565749482017811 0.4691096696763204 0 0.36732939593929942 0.48156814675879939 0 0.36918132510192869 0.47395909405753772 0 0.35565749482017811 0.4691096696763204 0 0.36732939593929942 0.48156814675879939 0 0.36918132510192869 0.47395909405753772 0 0.37471811207274758 0.46842092516576977 0 0.37692434201361041 0.47513085074703049 0 0.35565749482017811 0.4691096696763204 0 0.37188241952350898 0.45839592287978098 0 0.36307989353460279 0.44986787192074162 0 0.35565749482017811 0.4691096696763204 0 0.37471811207274758 0.46842092516576977 0 0.37188241952350898 0.45839592287978098 0 0.36307989353460279 0.44986787192074162 0 0.35171153666427307 0.44042448928011207 0 0.37063340713274329 0.42699576663325872 0 0.37188241952350898 0.45839592287978098 0 0.36307989353460279 0.44986787192074162 0 0.3816306129578409 0.44606872067474312 0 0.36307989353460279 0.44986787192074162 0 0.37063340713274329 0.42699576663325872 0 0.3816306129578409 0.44606872067474312 0 0.36307989353460279 0.44986787192074162 0 0.35171153666427307 0.44042448928011207 0 0.3419041904278981 0.45442952238661499 0 0.35565749482017811 0.4691096696763204 0 0.36307989353460279 0.44986787192074162 0 0.3419041904278981 0.45442952238661499 0 0.35565749482017811 0.4691096696763204 0 0.3419041904278981 0.45442952238661499 0 0.35565749482017811 0.4691096696763204 0 0.3419041904278981 0.45442952238661499 0 0.33340194060155942 0.46991386140811048 0 0.3419041904278981 0.45442952238661499 0 0.32845948028422373 0.45584496433231331 0 0.33340194060155942 0.46991386140811048 0 0.35171153666427307 0.44042448928011207 0 0.3419041904278981 0.45442952238661499 0 0.32815088603561809 0.43974937509690948 0 0.3419041904278981 0.45442952238661499 0 0.32845948028422373 0.45584496433231331 0 0.32815088603561809 0.43974937509690948 0 0.3419041904278981 0.45442952238661499 0 0.32815088603561809 0.43974937509690948 0 0.32845948028422373 0.45584496433231331 0 0.32815088603561809 0.43974937509690948 0 0.31947800462196257 0.45128420258777302 0 0.32815088603561809 0.43974937509690948 0 0.31947800462196257 0.45128420258777302 0 0.31531651958774209 0.44329301179649211 0 0.31947800462196257 0.45128420258777302 0 0.31531651958774209 0.44329301179649211 0 0.31190318571918779 0.45616264563272763 0 0.32044482243971928 0.46165992106644888 0 0.33340194060155942 0.46991386140811048 0 0.31114638638294068 0.47071805313990062 0 0.32845948028422373 0.45584496433231331 0 0.32044482243971928 0.46165992106644888 0 0.33340194060155942 0.46991386140811048 0 0.32845948028422373 0.45584496433231331 0 0.31947800462196257 0.45128420258777302 0 0.32044482243971928 0.46165992106644888 0 0.31947800462196257 0.45128420258777302 0 0.32044482243971928 0.46165992106644888 0 0.31190318571918779 0.45616264563272763 0 0.32044482243971928 0.46165992106644888 0 0.31114638638294068 0.47071805313990062 0 0.31190318571918779 0.45616264563272763 0 0.33340194060155942 0.46991386140811048 0 0.31114638638294068 0.47071805313990062 0 0.32448327430145979 0.47968516338899719 0 0.33340194060155942 0.46991386140811048 0 0.31114638638294068 0.47071805313990062 0 0.32448327430145979 0.47968516338899719 0 0.31114638638294068 0.47071805313990062 0 0.31067286682971312 0.47982518329936119 0 0.32448327430145979 0.47968516338899719 0 0.33340194060155942 0.46991386140811048 0 0.33473145962109202 0.4832381299263922 0 0.34458392472975252 0.48074952450543301 0 0.33340194060155942 0.46991386140811048 0 0.33473145962109202 0.4832381299263922 0 0.34453439527492968 0.49065310022660802 0 0.33680550992718489 0.5 0 0.33134963686843028 0.49413274974272831 0 0.34453439527492968 0.49065310022660802 0 0.33473145962109202 0.4832381299263922 0 0.33134963686843028 0.49413274974272831 0 0.34458392472975252 0.48074952450543301 0 0.34453439527492968 0.49065310022660802 0 0.33473145962109202 0.4832381299263922 0 0.32448327430145979 0.47968516338899719 0 0.33473145962109202 0.4832381299263922 0 0.33134963686843028 0.49413274974272831 0 0.33680550992718489 0.5 0 0.33134963686843028 0.49413274974272831 0 0.31047455364230342 0.49999999999999822 0 0.33134963686843028 0.49413274974272831 0 0.30988145120105431 0.49504636073826658 0 0.31067286682971312 0.47982518329936119 0 0.33134963686843028 0.49413274974272831 0 0.31047455364230342 0.49999999999999822 0 0.30988145120105431 0.49504636073826658 0 0.32448327430145979 0.47968516338899719 0 0.33134963686843028 0.49413274974272831 0 0.31067286682971312 0.47982518329936119 0 0.33134963686843028 0.49413274974272831 0 0.31067286682971312 0.47982518329936119 0 0.30988145120105431 0.49504636073826658 0 0.30782289153344522 0.47785310493137012 0 0.31047455364230342 0.49999999999999822 0 0.30988145120105431 0.49504636073826658 0 0.30988145120105431 0.49504636073826658 0 0.29828015937755409 0.48760431626435841 0 0.30782289153344522 0.47785310493137012 0 0.31047455364230342 0.49999999999999822 0 0.30988145120105431 0.49504636073826658 0 0.29828015937755409 0.48760431626435841 0 0.31047455364230342 0.49999999999999822 0 0.29828015937755409 0.48760431626435841 0 0.28937538862223172 0.5 0 0.30988145120105431 0.49504636073826658 0 0.31067286682971312 0.47982518329936119 0 0.29828015937755409 0.48760431626435841 0 0.30782289153344522 0.47785310493137012 0 0.29056162771308047 0.46590894351041873 0 0.30988145120105431 0.49504636073826658 0 0.30782289153344522 0.47785310493137012 0 0.31067286682971312 0.47982518329936119 0 0.30782289153344522 0.47785310493137012 0 0.29056162771308047 0.46590894351041873 0 0.31114638638294068 0.47071805313990062 0 0.31067286682971312 0.47982518329936119 0 0.31114638638294068 0.47071805313990062 0 0.30782289153344522 0.47785310493137012 0 0.31067286682971312 0.47982518329936119 0 0.31114638638294068 0.47071805313990062 0 0.30941191733607459 0.47078072718759378 0 0.31114638638294068 0.47071805313990062 0 0.30941191733607459 0.47078072718759378 0 0.30782289153344522 0.47785310493137012 0 0.30782289153344522 0.47785310493137012 0 0.31067286682971312 0.47982518329936119 0 0.29828015937755409 0.48760431626435841 0 0.28288794877133089 0.48655569604377918 0 0.29056162771308047 0.46590894351041873 0 0.28288794877133089 0.48655569604377918 0 0.27121362566016832 0.47698239104473361 0 0.29056162771308047 0.46590894351041873 0 0.29828015937755409 0.48760431626435841 0 0.28937538862223172 0.5 0 0.28288794877133089 0.48655569604377918 0 0.28937538862223172 0.5 0 0.28288794877133089 0.48655569604377918 0 0.26912688742762009 0.50000000000000022 0 0.26912688742762009 0.50000000000000022 0 0.27121362566016832 0.47698239104473361 0 0.28288794877133089 0.48655569604377918 0 0.26912688742762009 0.50000000000000022 0 0.27121362566016832 0.47698239104473361 0 0.24802348447485681 0.46912426160624832 0 0.25527094133527017 0.48568755804809038 0 0.26248713078316521 0.46458786690954668 0 0.27121362566016832 0.47698239104473361 0 0.25527094133527017 0.48568755804809038 0 0.26248713078316521 0.46458786690954668 0 0.24278266422756981 0.5 0 0.26912688742762009 0.50000000000000022 0 0.25527094133527017 0.48568755804809038 0 0.26912688742762009 0.50000000000000022 0 0.27121362566016832 0.47698239104473361 0 0.25527094133527017 0.48568755804809038 0 0.26005992643434639 0.44480288502720272 0 0.25456350493456648 0.44099956295796272 0 0.25908388250284647 0.4331415586191783 0 0.26005992643434639 0.44480288502720272 0 0.25456350493456648 0.44099956295796272 0 0.24807532024175441 0.45072224774080721 0 0.26005992643434639 0.44480288502720272 0 0.25456350493456648 0.44099956295796272 0 0.24802348447485681 0.46912426160624832 0 0.26005992643434639 0.44480288502720272 0 0.24802348447485681 0.46912426160624832 0 0.26005992643434639 0.44480288502720272 0 0.26248713078316521 0.46458786690954668 0 0.26005992643434639 0.44480288502720272 0 0.26248713078316521 0.46458786690954668 0 0.273300363892716 0.45396478208946689 0 0.24807532024175441 0.45072224774080721 0 0.24802348447485681 0.46912426160624832 0 0.26005992643434639 0.44480288502720272 0 0.27121362566016832 0.47698239104473361 0 0.273300363892716 0.45396478208946689 0 0.27121362566016832 0.47698239104473361 0 0.26248713078316521 0.46458786690954668 0 0.273300363892716 0.45396478208946689 0 0.27121362566016832 0.47698239104473361 0 0.273300363892716 0.45396478208946689 0 0.29056162771308047 0.46590894351041873 0 0.273300363892716 0.45396478208946689 0 0.28358711440867967 0.44002060420806638 0 0.27519219088625479 0.43309712688045299 0 0.26005992643434639 0.44480288502720272 0 0.273300363892716 0.45396478208946689 0 0.27519219088625479 0.43309712688045299 0 0.273300363892716 0.45396478208946689 0 0.27519219088625479 0.43309712688045299 0 0.26005992643434639 0.44480288502720272 0 0.273300363892716 0.45396478208946689 0 0.28358711440867967 0.44002060420806638 0 0.2890505931525435 0.44933258191184983 0 0.2931668285764466 0.43552403663369121 0 0.2890505931525435 0.44933258191184983 0 0.30463703117179503 0.45124454311760542 0 0.2931668285764466 0.43552403663369121 0 0.273300363892716 0.45396478208946689 0 0.28358711440867967 0.44002060420806638 0 0.2890505931525435 0.44933258191184983 0 0.273300363892716 0.45396478208946689 0 0.2890505931525435 0.44933258191184983 0 0.29056162771308047 0.46590894351041873 0 0.2890505931525435 0.44933258191184983 0 0.29056162771308047 0.46590894351041873 0 0.30463703117179503 0.45124454311760542 0 0.273300363892716 0.45396478208946689 0 0.29056162771308047 0.46590894351041873 0 0.30941191733607459 0.47078072718759378 0 0.31190318571918779 0.45616264563272763 0 0.30463703117179503 0.45124454311760542 0 0.30782289153344522 0.47785310493137012 0 0.29056162771308047 0.46590894351041873 0 0.30463703117179503 0.45124454311760542 0 0.30941191733607459 0.47078072718759378 0 0.30782289153344522 0.47785310493137012 0 0.30463703117179503 0.45124454311760542 0 0.30782289153344522 0.47785310493137012 0 0.30463703117179503 0.45124454311760542 0 0.31114638638294068 0.47071805313990062 0 0.30941191733607459 0.47078072718759378 0 0.31190318571918779 0.45616264563272763 0 0.31114638638294068 0.47071805313990062 0 0.31190318571918779 0.45616264563272763 0 0.30463703117179503 0.45124454311760542 0 0.3014511708101445 0.42463598130384062 0 0.31531651958774209 0.44329301179649211 0 0.30463703117179503 0.45124454311760542 0 0.3014511708101445 0.42463598130384062 0 0.31531651958774209 0.44329301179649211 0 0.31190318571918779 0.45616264563272763 0 0.30463703117179503 0.45124454311760542 0 0.30463703117179503 0.45124454311760542 0 0.3014511708101445 0.42463598130384062 0 0.2931668285764466 0.43552403663369121 0 0.31531651958774209 0.44329301179649211 0 0.3014511708101445 0.42463598130384062 0 0.31439758164333742 0.42506922780720457 0 0.3014511708101445 0.42463598130384062 0 0.31407628789189951 0.4175306520783364 0 0.31439758164333742 0.42506922780720457 0 0.3014511708101445 0.42463598130384062 0 0.31439758164333742 0.42506922780720457 0 0.3014511708101445 0.42463598130384062 0 0.29843114547578042 0.42453491735391319 0 0.29215838886663331 0.41883843410695132 0 0.3014511708101445 0.42463598130384062 0 0.29843114547578042 0.42453491735391319 0 0.2931668285764466 0.43552403663369121 0 0.3014511708101445 0.42463598130384062 0 0.29843114547578042 0.42453491735391319 0 0.3014511708101445 0.42463598130384062 0 0.2933595842773194 0.41054284151563891 0 0.29787963522188571 0.39480622899761719 0 0.3014511708101445 0.42463598130384062 0 0.30915754173288468 0.41048985702967627 0 0.29787963522188571 0.39480622899761719 0 0.3014511708101445 0.42463598130384062 0 0.29787963522188571 0.39480622899761719 0 0.3014511708101445 0.42463598130384062 0 0.30915754173288468 0.41048985702967627 0 0.31407628789189951 0.4175306520783364 0 0.2933595842773194 0.41054284151563891 0 0.28422674073199172 0.41527559545710768 0 0.29001530318566038 0.40108828768902971 0 0.3014511708101445 0.42463598130384062 0 0.2933595842773194 0.41054284151563891 0 0.29215838886663331 0.41883843410695132 0 0.2933595842773194 0.41054284151563891 0 0.29215838886663331 0.41883843410695132 0 0.28422674073199172 0.41527559545710768 0 0.28422674073199172 0.41527559545710768 0 0.28590397940172269 0.42284341010388821 0 0.27993423672423517 0.42518226603485038 0 0.29215838886663331 0.41883843410695132 0 0.28422674073199172 0.41527559545710768 0 0.28590397940172269 0.42284341010388821 0 0.28422674073199172 0.41527559545710768 0 0.2803329026060935 0.40383839655871928 0 0.29001530318566038 0.40108828768902971 0 0.2931668285764466 0.43552403663369121 0 0.29066074645463802 0.42633706605479021 0 0.28415185808098709 0.43037455693984189 0 0.29843114547578042 0.42453491735391319 0 0.2931668285764466 0.43552403663369121 0 0.29066074645463802 0.42633706605479021 0 0.29843114547578042 0.42453491735391319 0 0.29215838886663331 0.41883843410695132 0 0.29066074645463802 0.42633706605479021 0 0.29215838886663331 0.41883843410695132 0 0.29066074645463802 0.42633706605479021 0 0.28590397940172269 0.42284341010388821 0 0.29066074645463802 0.42633706605479021 0 0.28590397940172269 0.42284341010388821 0 0.28415185808098709 0.43037455693984189 0 0.28590397940172269 0.42284341010388821 0 0.28415185808098709 0.43037455693984189 0 0.27993423672423517 0.42518226603485038 0 0.28358711440867967 0.44002060420806638 0 0.2931668285764466 0.43552403663369121 0 0.28415185808098709 0.43037455693984189 0 0.26005992643434639 0.44480288502720272 0 0.27519219088625479 0.43309712688045299 0 0.27019641452021997 0.424320640792961 0 0.28358711440867967 0.44002060420806638 0 0.28415185808098709 0.43037455693984189 0 0.27519219088625479 0.43309712688045299 0 0.27519219088625479 0.43309712688045299 0 0.27019641452021997 0.424320640792961 0 0.27993423672423517 0.42518226603485038 0 0.28415185808098709 0.43037455693984189 0 0.27519219088625479 0.43309712688045299 0 0.27993423672423517 0.42518226603485038 0 0.28422674073199172 0.41527559545710768 0 0.27019641452021997 0.424320640792961 0 0.27993423672423517 0.42518226603485038 0 0.27019641452021997 0.424320640792961 0 0.26894439502094653 0.41345942561725402 0 0.2803329026060935 0.40383839655871928 0 0.28422674073199172 0.41527559545710768 0 0.27019641452021997 0.424320640792961 0 0.2803329026060935 0.40383839655871928 0 0.27019641452021997 0.424320640792961 0 0.2803329026060935 0.40383839655871928 0 0.27019641452021997 0.424320640792961 0 0.26894439502094653 0.41345942561725402 0 0.26164587283371799 0.4205177514307315 0 0.24401437441201251 0.40082936648775652 0 0.26894439502094653 0.41345942561725402 0 0.24401437441201251 0.40082936648775652 0 0.26894439502094653 0.41345942561725402 0 0.25133370731323168 0.41510519689569142 0 0.26894439502094653 0.41345942561725402 0 0.26164587283371799 0.4205177514307315 0 0.25133370731323168 0.41510519689569142 0 0.26164587283371799 0.4205177514307315 0 0.25133370731323168 0.41510519689569142 0 0.25496054674227842 0.42534874674714113 0 0.26005992643434639 0.44480288502720272 0 0.27019641452021997 0.424320640792961 0 0.25908388250284647 0.4331415586191783 0 0.24655206961420481 0.42558110188360621 0 0.25496054674227842 0.42534874674714113 0 0.25003150725201562 0.43372022130883903 0 0.24655206961420481 0.42558110188360621 0 0.25133370731323168 0.41510519689569142 0 0.25496054674227842 0.42534874674714113 0 0.26005992643434639 0.44480288502720272 0 0.27019641452021997 0.424320640792961 0 0.25496054674227842 0.42534874674714113 0 0.25003150725201562 0.43372022130883903 0 0.25908388250284647 0.4331415586191783 0 0.25456350493456648 0.44099956295796272 0 0.25003150725201562 0.43372022130883903 0 0.25908388250284647 0.4331415586191783 0 0.27019641452021997 0.424320640792961 0 0.25908388250284647 0.4331415586191783 0 0.26147167914976582 0.42583217439750293 0 0.27019641452021997 0.424320640792961 0 0.26164587283371799 0.4205177514307315 0 0.26147167914976582 0.42583217439750293 0 0.26164587283371799 0.4205177514307315 0 0.25496054674227842 0.42534874674714113 0 0.26147167914976582 0.42583217439750293 0 0.25496054674227842 0.42534874674714113 0 0.25908388250284647 0.4331415586191783 0 0.26147167914976582 0.42583217439750293 0 0.26237741982731011 0.37832600575700298 0 0.25117864057069422 0.38381617450715522 0 0.25834290672937399 0.36680298252655319 0 0.25117864057069422 0.38381617450715522 0 0.25834290672937399 0.36680298252655319 0 0.26185985882934387 0.38754447866094272 0 0.26237741982731011 0.37832600575700298 0 0.25117864057069422 0.38381617450715522 0 0.26185985882934387 0.38754447866094272 0 0.26237741982731011 0.37832600575700298 0 0.27080622114959929 0.38206632684797759 0 0.26185985882934387 0.38754447866094272 0 0.25117864057069422 0.38381617450715522 0 0.25906964852031139 0.39624937045424979 0 0.24401437441201251 0.40082936648775652 0 0.25117864057069422 0.38381617450715522 0 0.25906964852031139 0.39624937045424979 0 0.24401437441201251 0.40082936648775652 0 0.26894439502094653 0.41345942561725402 0 0.25906964852031139 0.39624937045424979 0 0.26185985882934387 0.38754447866094272 0 0.25906964852031139 0.39624937045424979 0 0.26935097376856032 0.39559740699814061 0 0.26894439502094653 0.41345942561725402 0 0.26935097376856032 0.39559740699814061 0 0.2803329026060935 0.40383839655871928 0 0.26894439502094653 0.41345942561725402 0 0.25906964852031139 0.39624937045424979 0 0.26935097376856032 0.39559740699814061 0 0.26935097376856032 0.39559740699814061 0 0.2803329026060935 0.40383839655871928 0 0.2783739193822497 0.38759267502678307 0 0.26935097376856032 0.39559740699814061 0 0.2783739193822497 0.38759267502678307 0 0.27080622114959929 0.38206632684797759 0 0.26185985882934387 0.38754447866094272 0 0.26935097376856032 0.39559740699814061 0 0.27080622114959929 0.38206632684797759 0 0.26237741982731011 0.37832600575700298 0 0.27080622114959929 0.38206632684797759 0 0.26969947185753917 0.37140006624238642 0 0.27080622114959929 0.38206632684797759 0 0.28091010869502819 0.37310509240460021 0 0.26969947185753917 0.37140006624238642 0 0.2783739193822497 0.38759267502678307 0 0.27080622114959929 0.38206632684797759 0 0.28091010869502819 0.37310509240460021 0 0.2783739193822497 0.38759267502678307 0 0.29046939069196709 0.38335615232447767 0 0.28091010869502819 0.37310509240460021 0 0.2803329026060935 0.40383839655871928 0 0.29046939069196709 0.38335615232447767 0 0.29001530318566038 0.40108828768902971 0 0.2803329026060935 0.40383839655871928 0 0.2783739193822497 0.38759267502678307 0 0.29046939069196709 0.38335615232447767 0 0.2803329026060935 0.40383839655871928 0 0.29046939069196709 0.38335615232447767 0 0.29046939069196709 0.38335615232447767 0 0.29001530318566038 0.40108828768902971 0 0.29787963522188571 0.39480622899761719 0 0.2933595842773194 0.41054284151563891 0 0.29001530318566038 0.40108828768902971 0 0.29787963522188571 0.39480622899761719 0 0.30915754173288468 0.41048985702967627 0 0.30832764130956097 0.38081015950574509 0 0.30915754173288468 0.41048985702967627 0 0.29787963522188571 0.39480622899761719 0 0.30832764130956097 0.38081015950574509 0 0.29046939069196709 0.38335615232447767 0 0.29787963522188571 0.39480622899761719 0 0.30832764130956097 0.38081015950574509 0 0.29046939069196709 0.38335615232447767 0 0.30832764130956097 0.38081015950574509 0 0.29282281117003811 0.36616404156240662 0 0.30832764130956097 0.38081015950574509 0 0.32469664692273309 0.37565330088939719 0 0.32084316395176399 0.39533824437311438 0 0.32469664692273309 0.37565330088939719 0 0.33649784545405592 0.39766618505309881 0 0.32084316395176399 0.39533824437311438 0 0.32469664692273309 0.37565330088939719 0 0.34088236324348081 0.38135944869131511 0 0.33649784545405592 0.39766618505309881 0 0.33649784545405592 0.39766618505309881 0 0.32084316395176399 0.39533824437311438 0 0.32767703586340707 0.41206503796518962 0 0.30915754173288468 0.41048985702967627 0 0.30832764130956097 0.38081015950574509 0 0.32084316395176399 0.39533824437311438 0 0.30915754173288468 0.41048985702967627 0 0.32084316395176399 0.39533824437311438 0 0.32767703586340707 0.41206503796518962 0 0.30915754173288468 0.41048985702967627 0 0.31407628789189951 0.4175306520783364 0 0.32767703586340707 0.41206503796518962 0 0.31407628789189951 0.4175306520783364 0 0.32143101499453502 0.41932042292088612 0 0.31439758164333742 0.42506922780720457 0 0.31407628789189951 0.4175306520783364 0 0.32143101499453502 0.41932042292088612 0 0.32767703586340707 0.41206503796518962 0 0.32143101499453502 0.41932042292088612 0 0.31439758164333742 0.42506922780720457 0 0.34251624030247729 0.42601020756602292 0 0.32815088603561809 0.43974937509690948 0 0.31531651958774209 0.44329301179649211 0 0.31439758164333742 0.42506922780720457 0 0.32815088603561809 0.43974937509690948 0 0.31439758164333742 0.42506922780720457 0 0.32815088603561809 0.43974937509690948 0 0.31439758164333742 0.42506922780720457 0 0.34251624030247729 0.42601020756602292 0 0.35171153666427307 0.44042448928011207 0 0.32815088603561809 0.43974937509690948 0 0.34251624030247729 0.42601020756602292 0 0.31439758164333742 0.42506922780720457 0 0.34251624030247729 0.42601020756602292 0 0.32143101499453502 0.41932042292088612 0 0.32767703586340707 0.41206503796518962 0 0.34251624030247729 0.42601020756602292 0 0.33649784545405592 0.39766618505309881 0 0.32767703586340707 0.41206503796518962 0 0.34251624030247729 0.42601020756602292 0 0.34251624030247729 0.42601020756602292 0 0.37063340713274329 0.42699576663325872 0 0.35575788518811202 0.40417760766228689 0 0.33649784545405592 0.39766618505309881 0 0.34251624030247729 0.42601020756602292 0 0.35575788518811202 0.40417760766228689 0 0.35171153666427307 0.44042448928011207 0 0.34251624030247729 0.42601020756602292 0 0.37063340713274329 0.42699576663325872 0 0.34251624030247729 0.42601020756602292 0 0.37063340713274329 0.42699576663325872 0 0.37063340713274329 0.42699576663325872 0 0.35575788518811202 0.40417760766228689 0 0.37951547016484832 0.40521641817248771 0 0.37063340713274329 0.42699576663325872 0 0.35575788518811202 0.40417760766228689 0 0.37155154671428559 0.38224959154127691 0 0.35575788518811202 0.40417760766228689 0 0.37951547016484832 0.40521641817248771 0 0.34088236324348081 0.38135944869131511 0 0.37155154671428559 0.38224959154127691 0 0.35575788518811202 0.40417760766228689 0 0.34088236324348081 0.38135944869131511 0 0.37155154671428559 0.38224959154127691 0 0.35718775725654323 0.36843183351659059 0 0.34088236324348081 0.38135944869131511 0 0.35575788518811202 0.40417760766228689 0 0.34088236324348081 0.38135944869131511 0 0.33649784545405592 0.39766618505309881 0 0.35575788518811202 0.40417760766228689 0 0.35505597642348979 0.35298362817923168 0 0.35718775725654323 0.36843183351659059 0 0.3412193476825317 0.36165032574040962 0 0.34088236324348081 0.38135944869131511 0 0.35718775725654323 0.36843183351659059 0 0.3412193476825317 0.36165032574040962 0 0.37155154671428559 0.38224959154127691 0 0.35718775725654323 0.36843183351659059 0 0.38314815265668428 0.35903182776389608 0 0.35505597642348979 0.35298362817923168 0 0.35718775725654323 0.36843183351659059 0 0.38314815265668428 0.35903182776389608 0 0.35505597642348979 0.35298362817923168 0 0.36701136261477407 0.33731731196654768 0 0.38314815265668428 0.35903182776389608 0 0.35505597642348979 0.35298362817923168 0 0.38314815265668428 0.35903182776389608 0 0.36118971487449758 0.31504690262895102 0 0.37542481911830478 0.31106244188061788 0 0.37841764990076138 0.32649699848163211 0 0.36701136261477407 0.33731731196654768 0 0.36118971487449758 0.31504690262895102 0 0.37841764990076138 0.32649699848163211 0 0.36701136261477407 0.33731731196654768 0 0.36118971487449758 0.31504690262895102 0 0.34712575763334352 0.32510743331509878 0 0.36118971487449758 0.31504690262895102 0 0.34712575763334352 0.32510743331509878 0 0.35066929387108908 0.30280868159240881 0 0.36701136261477407 0.33731731196654768 0 0.34712575763334352 0.32510743331509878 0 0.36701136261477407 0.33731731196654768 0 0.34712575763334352 0.32510743331509878 0 0.34566500835268471 0.33973041453193092 0 0.35505597642348979 0.35298362817923168 0 0.36701136261477407 0.33731731196654768 0 0.34566500835268471 0.33973041453193092 0 0.34566500835268471 0.33973041453193092 0 0.33186315873942529 0.33518071554032741 0 0.32696380019029531 0.34693542859456722 0 0.34712575763334352 0.32510743331509878 0 0.34566500835268471 0.33973041453193092 0 0.33186315873942529 0.33518071554032741 0 0.34712575763334352 0.32510743331509878 0 0.32724015265191281 0.31289755466364988 0 0.3357230271858066 0.30470735102978203 0 0.34712575763334352 0.32510743331509878 0 0.32724015265191281 0.31289755466364988 0 0.34712575763334352 0.32510743331509878 0 0.33186315873942529 0.33518071554032741 0 0.32724015265191281 0.31289755466364988 0 0.33186315873942529 0.33518071554032741 0 0.32724015265191281 0.31289755466364988 0 0.32039031339862839 0.32789730910920079 0 0.32724015265191281 0.31289755466364988 0 0.32039031339862839 0.32789730910920079 0 0.30666784046291368 0.32145076445788268 0 0.32724015265191281 0.31289755466364988 0 0.30666784046291368 0.32145076445788268 0 0.3090008967246034 0.31146862628161542 0 0.32039031339862839 0.32789730910920079 0 0.31859402814042659 0.33929179021036793 0 0.30666784046291368 0.32145076445788268 0 0.33186315873942529 0.33518071554032741 0 0.31859402814042659 0.33929179021036793 0 0.32696380019029531 0.34693542859456722 0 0.33186315873942529 0.33518071554032741 0 0.32039031339862839 0.32789730910920079 0 0.31859402814042659 0.33929179021036793 0 0.31859402814042659 0.33929179021036793 0 0.31868111645801711 0.35872707181703911 0 0.32696380019029531 0.34693542859456722 0 0.31859402814042659 0.33929179021036793 0 0.31868111645801711 0.35872707181703911 0 0.30749774088623738 0.35113046198181391 0 0.31868111645801711 0.35872707181703911 0 0.32600684129884949 0.35854128972034321 0 0.32696380019029531 0.34693542859456722 0 0.35505597642348979 0.35298362817923168 0 0.32696380019029531 0.34693542859456722 0 0.3412193476825317 0.36165032574040962 0 0.35505597642348979 0.35298362817923168 0 0.34566500835268471 0.33973041453193092 0 0.32696380019029531 0.34693542859456722 0 0.35505597642348979 0.35298362817923168 0 0.32696380019029531 0.34693542859456722 0 0.32600684129884949 0.35854128972034321 0 0.32696380019029531 0.34693542859456722 0 0.3412193476825317 0.36165032574040962 0 0.34088236324348081 0.38135944869131511 0 0.32600684129884949 0.35854128972034321 0 0.34088236324348081 0.38135944869131511 0 0.32600684129884949 0.35854128972034321 0 0.3412193476825317 0.36165032574040962 0 0.32469664692273309 0.37565330088939719 0 0.34088236324348081 0.38135944869131511 0 0.32600684129884949 0.35854128972034321 0 0.32469664692273309 0.37565330088939719 0 0.31868111645801711 0.35872707181703911 0 0.32600684129884949 0.35854128972034321 0 0.30832764130956097 0.38081015950574509 0 0.32469664692273309 0.37565330088939719 0 0.31868111645801711 0.35872707181703911 0 0.30832764130956097 0.38081015950574509 0 0.31868111645801711 0.35872707181703911 0 0.30749774088623738 0.35113046198181391 0 0.30832764130956097 0.38081015950574509 0 0.30749774088623738 0.35113046198181391 0 0.30832764130956097 0.38081015950574509 0 0.30749774088623738 0.35113046198181391 0 0.29282281117003811 0.36616404156240662 0 0.30749774088623738 0.35113046198181391 0 0.29186347663340229 0.35253821997362778 0 0.29282281117003811 0.36616404156240662 0 0.29186347663340229 0.35253821997362778 0 0.27708661545662872 0.35795948134683442 0 0.28871172002186268 0.33778066468337797 0 0.30749774088623738 0.35113046198181391 0 0.29186347663340229 0.35253821997362778 0 0.28871172002186268 0.33778066468337797 0 0.29186347663340229 0.35253821997362778 0 0.29282281117003811 0.36616404156240662 0 0.27708661545662872 0.35795948134683442 0 0.29046939069196709 0.38335615232447767 0 0.29282281117003811 0.36616404156240662 0 0.28091010869502819 0.37310509240460021 0 0.29282281117003811 0.36616404156240662 0 0.28091010869502819 0.37310509240460021 0 0.27708661545662872 0.35795948134683442 0 0.28091010869502819 0.37310509240460021 0 0.26969947185753917 0.37140006624238642 0 0.27708661545662872 0.35795948134683442 0 0.26969947185753917 0.37140006624238642 0 0.27708661545662872 0.35795948134683442 0 0.25834290672937399 0.36680298252655319 0 0.27708661545662872 0.35795948134683442 0 0.26780454789726038 0.33902845869083392 0 0.28871172002186268 0.33778066468337797 0 0.27708661545662872 0.35795948134683442 0 0.25449703772848981 0.35745791892868539 0 0.27708661545662872 0.35795948134683442 0 0.2622337366374925 0.34899514218862748 0 0.26780454789726038 0.33902845869083392 0 0.24954674546759109 0.34153470978815648 0 0.2622337366374925 0.34899514218862748 0 0.25449703772848981 0.35745791892868539 0 0.27708661545662872 0.35795948134683442 0 0.2622337366374925 0.34899514218862748 0 0.25449703772848981 0.35745791892868539 0 0.27708661545662872 0.35795948134683442 0 0.25449703772848981 0.35745791892868539 0 0.25834290672937399 0.36680298252655319 0 0.24528295548902029 0.36888346300206892 0 0.25117864057069422 0.38381617450715522 0 0.25834290672937399 0.36680298252655319 0 0.24528295548902029 0.36888346300206892 0 0.25449703772848981 0.35745791892868539 0 0.25834290672937399 0.36680298252655319 0 0.26237741982731011 0.37832600575700298 0 0.26969947185753917 0.37140006624238642 0 0.25834290672937399 0.36680298252655319 0 0.24954674546759109 0.34153470978815648 0 0.2622337366374925 0.34899514218862748 0 0.26780454789726038 0.33902845869083392 0 0.24954674546759109 0.34153470978815648 0 0.26069465537471359 0.32032804376055951 0 0.26780454789726038 0.33902845869083392 0 0.26780454789726038 0.33902845869083392 0 0.2771640591758131 0.32649695237094001 0 0.28871172002186268 0.33778066468337797 0 0.26069465537471359 0.32032804376055951 0 0.26780454789726038 0.33902845869083392 0 0.2771640591758131 0.32649695237094001 0 0.26069465537471359 0.32032804376055951 0 0.2771640591758131 0.32649695237094001 0 0.28402460152259779 0.31050785988638052 0 0.26069465537471359 0.32032804376055951 0 0.28402460152259779 0.31050785988638052 0 0.2910600526538093 0.3221774947915057 0 0.28871172002186268 0.33778066468337797 0 0.30666784046291368 0.32145076445788268 0 0.2771640591758131 0.32649695237094001 0 0.2910600526538093 0.3221774947915057 0 0.28402460152259779 0.31050785988638052 0 0.2910600526538093 0.3221774947915057 0 0.29941880185969821 0.31332041102040048 0 0.28402460152259779 0.31050785988638052 0 0.2771640591758131 0.32649695237094001 0 0.2910600526538093 0.3221774947915057 0 0.28871172002186268 0.33778066468337797 0 0.30749774088623738 0.35113046198181391 0 0.30666784046291368 0.32145076445788268 0 0.31859402814042659 0.33929179021036793 0 0.30749774088623738 0.35113046198181391 0 0.30666784046291368 0.32145076445788268 0 0.30749774088623738 0.35113046198181391 0 0.28871172002186268 0.33778066468337797 0 0.30666784046291368 0.32145076445788268 0 0.2910600526538093 0.3221774947915057 0 0.29941880185969821 0.31332041102040048 0 0.30666784046291368 0.32145076445788268 0 0.29941880185969821 0.31332041102040048 0 0.30666784046291368 0.32145076445788268 0 0.3090008967246034 0.31146862628161542 0 0.29941880185969821 0.31332041102040048 0 0.30735454767048181 0.30068767601220142 0 0.28402460152259779 0.31050785988638052 0 0.30735454767048181 0.30068767601220142 0 0.30307373553378281 0.29969763979339847 0 0.28402460152259779 0.31050785988638052 0 0.29941880185969821 0.31332041102040048 0 0.3090008967246034 0.31146862628161542 0 0.30735454767048181 0.30068767601220142 0 0.30735454767048181 0.30068767601220142 0 0.30675815088692482 0.29410732808760709 0 0.30061996772944122 0.2965526042391573 0 0.30307373553378281 0.29969763979339847 0 0.30061996772944122 0.2965526042391573 0 0.29058147978203719 0.29738041665706061 0 0.30735454767048181 0.30068767601220142 0 0.30061996772944122 0.2965526042391573 0 0.30735454767048181 0.30068767601220142 0 0.30307373553378281 0.29969763979339847 0 0.30061996772944122 0.2965526042391573 0 0.30307373553378281 0.29969763979339847 0 0.30061996772944122 0.2965526042391573 0 0.30249650885710239 0.28514861429986033 0 0.31279778186955948 0.28305617066407962 0 0.31327227241416827 0.29033458765926368 0 0.30249650885710239 0.28514861429986033 0 0.3071899303484838 0.27630130765049932 0 0.31279778186955948 0.28305617066407962 0 0.30675815088692482 0.29410732808760709 0 0.30249650885710239 0.28514861429986033 0 0.31327227241416827 0.29033458765926368 0 0.30735454767048181 0.30068767601220142 0 0.30675815088692482 0.29410732808760709 0 0.31327227241416827 0.29033458765926368 0 0.30675815088692482 0.29410732808760709 0 0.30192891046300102 0.29091160384904469 0 0.30249650885710239 0.28514861429986033 0 0.30061996772944122 0.2965526042391573 0 0.30192891046300102 0.29091160384904469 0 0.2888485463013874 0.28146497498194079 0 0.30675815088692482 0.29410732808760709 0 0.30061996772944122 0.2965526042391573 0 0.30192891046300102 0.29091160384904469 0 0.30061996772944122 0.2965526042391573 0 0.2951866988510311 0.29321654512765372 0 0.30192891046300102 0.29091160384904469 0 0.30249650885710239 0.28514861429986033 0 0.2888485463013874 0.28146497498194079 0 0.30249650885710239 0.28514861429986033 0 0.2888485463013874 0.28146497498194079 0 0.2951866988510311 0.29321654512765372 0 0.28430264595995097 0.28949982289526832 0 0.2888485463013874 0.28146497498194079 0 0.30061996772944122 0.2965526042391573 0 0.2888485463013874 0.28146497498194079 0 0.30061996772944122 0.2965526042391573 0 0.2951866988510311 0.29321654512765372 0 0.29058147978203719 0.29738041665706061 0 0.30061996772944122 0.2965526042391573 0 0.2951866988510311 0.29321654512765372 0 0.2888485463013874 0.28146497498194079 0 0.2951866988510311 0.29321654512765372 0 0.28430264595995097 0.28949982289526832 0 0.29058147978203719 0.29738041665706061 0 0.28430264595995097 0.28949982289526832 0 0.29058147978203719 0.29738041665706061 0 0.2762812290954198 0.29480802800050537 0 0.28430264595995097 0.28949982289526832 0 0.2888485463013874 0.28146497498194079 0 0.27334752173559451 0.27728118686518288 0 0.29058147978203719 0.29738041665706061 0 0.28402460152259779 0.31050785988638052 0 0.2762812290954198 0.29480802800050537 0 0.30735454767048181 0.30068767601220142 0 0.28402460152259779 0.31050785988638052 0 0.30307373553378281 0.29969763979339847 0 0.29058147978203719 0.29738041665706061 0 0.28402460152259779 0.31050785988638052 0 0.26069465537471359 0.32032804376055951 0 0.28402460152259779 0.31050785988638052 0 0.26348049260199408 0.30328117992795223 0 0.28402460152259779 0.31050785988638052 0 0.2762812290954198 0.29480802800050537 0 0.26348049260199408 0.30328117992795223 0 0.2762812290954198 0.29480802800050537 0 0.26410037993861568 0.2883083167473347 0 0.27334752173559451 0.27728118686518288 0 0.28430264595995097 0.28949982289526832 0 0.2762812290954198 0.29480802800050537 0 0.27334752173559451 0.27728118686518288 0 0.2762812290954198 0.29480802800050537 0 0.26410037993861568 0.2883083167473347 0 0.26348049260199408 0.30328117992795223 0 0.24954615909026809 0.29307379019460911 0 0.26410037993861568 0.2883083167473347 0 0.25784649716980201 0.27309739874842359 0 0.24555838619246181 0.28049138676962287 0 0.24954615909026809 0.29307379019460911 0 0.25784649716980201 0.27309739874842359 0 0.24954615909026809 0.29307379019460911 0 0.26410037993861568 0.2883083167473347 0 0.26348049260199408 0.30328117992795223 0 0.24954615909026809 0.29307379019460911 0 0.25784649716980201 0.27309739874842359 0 0.24124582101073619 0.31305018164079529 0 0.26069465537471359 0.32032804376055951 0 0.26348049260199408 0.30328117992795223 0 0.24954615909026809 0.29307379019460911 0 0.24124582101073619 0.31305018164079529 0 0.26348049260199408 0.30328117992795223 0 0.24924586184957531 0.25441070943284838 0 0.25784649716980201 0.27309739874842359 0 0.26635104178176788 0.25262954423305578 0 0.25784649716980201 0.27309739874842359 0 0.26635104178176788 0.25262954423305578 0 0.25784649716980201 0.27309739874842359 0 0.26836932419540072 0.26787539626184881 0 0.26635104178176788 0.25262954423305578 0 0.25784649716980201 0.27309739874842359 0 0.27334752173559451 0.27728118686518288 0 0.26410037993861568 0.2883083167473347 0 0.25784649716980201 0.27309739874842359 0 0.27334752173559451 0.27728118686518288 0 0.25784649716980201 0.27309739874842359 0 0.26836932419540072 0.26787539626184881 0 0.27334752173559451 0.27728118686518288 0 0.26836932419540072 0.26787539626184881 0 0.27334752173559451 0.27728118686518288 0 0.27759979404157809 0.26704725960749798 0 0.2888485463013874 0.28146497498194079 0 0.27334752173559451 0.27728118686518288 0 0.27759979404157809 0.26704725960749798 0 0.2888485463013874 0.28146497498194079 0 0.27334752173559451 0.27728118686518288 0 0.27759979404157809 0.26704725960749798 0 0.26635104178176788 0.25262954423305578 0 0.28276787437026069 0.25041466503740861 0 0.26836932419540072 0.26787539626184881 0 0.27759979404157809 0.26704725960749798 0 0.26635104178176788 0.25262954423305578 0 0.27759979404157809 0.26704725960749798 0 0.26635104178176788 0.25262954423305578 0 0.27759979404157809 0.26704725960749798 0 0.28276787437026069 0.25041466503740861 0 0.29232065813412439 0.26567437741055461 0 0.29395634980609342 0.25347798679437261 0 0.29232065813412439 0.26567437741055461 0 0.3035033041920609 0.25833993340735312 0 0.28276787437026069 0.25041466503740861 0 0.29395634980609342 0.25347798679437261 0 0.29232065813412439 0.26567437741055461 0 0.2888485463013874 0.28146497498194079 0 0.29232065813412439 0.26567437741055461 0 0.29826073970659678 0.27623554700717018 0 0.2888485463013874 0.28146497498194079 0 0.27759979404157809 0.26704725960749798 0 0.29232065813412439 0.26567437741055461 0 0.2888485463013874 0.28146497498194079 0 0.27759979404157809 0.26704725960749798 0 0.30249650885710239 0.28514861429986033 0 0.2888485463013874 0.28146497498194079 0 0.29826073970659678 0.27623554700717018 0 0.29826073970659678 0.27623554700717018 0 0.30264623102423271 0.26948043849617609 0 0.3071899303484838 0.27630130765049932 0 0.30249650885710239 0.28514861429986033 0 0.29826073970659678 0.27623554700717018 0 0.3071899303484838 0.27630130765049932 0 0.29232065813412439 0.26567437741055461 0 0.29826073970659678 0.27623554700717018 0 0.30264623102423271 0.26948043849617609 0 0.30264623102423271 0.26948043849617609 0 0.31126492707747377 0.26649755644088291 0 0.3071899303484838 0.27630130765049932 0 0.31126492707747377 0.26649755644088291 0 0.3071899303484838 0.27630130765049932 0 0.31677248162211152 0.27583550789641659 0 0.3071899303484838 0.27630130765049932 0 0.31677248162211152 0.27583550789641659 0 0.31279778186955948 0.28305617066407962 0 0.29395634980609342 0.25347798679437261 0 0.3035033041920609 0.25833993340735312 0 0.29972105135729787 0.24731396504540271 0 0.3035033041920609 0.25833993340735312 0 0.30959430955757972 0.24797104421956531 0 0.29972105135729787 0.24731396504540271 0 0.29232065813412439 0.26567437741055461 0 0.30264623102423271 0.26948043849617609 0 0.3035033041920609 0.25833993340735312 0 0.30264623102423271 0.26948043849617609 0 0.31126492707747377 0.26649755644088291 0 0.3035033041920609 0.25833993340735312 0 0.31126492707747377 0.26649755644088291 0 0.3035033041920609 0.25833993340735312 0 0.31118230899832661 0.2567903197361433 0 0.3035033041920609 0.25833993340735312 0 0.31118230899832661 0.2567903197361433 0 0.30959430955757972 0.24797104421956531 0 0.32210051683487972 0.25821390133522898 0 0.32975590232202212 0.2511441829190228 0 0.32565014139396031 0.27090064462225599 0 0.32975590232202212 0.2511441829190228 0 0.32565014139396031 0.27090064462225599 0 0.31118230899832661 0.2567903197361433 0 0.31688290666958718 0.2524294299713844 0 0.30959430955757972 0.24797104421956531 0 0.31118230899832661 0.2567903197361433 0 0.31688290666958718 0.2524294299713844 0 0.31688123489025488 0.26005348367334502 0 0.31688290666958718 0.2524294299713844 0 0.31688123489025488 0.26005348367334502 0 0.32210051683487972 0.25821390133522898 0 0.31688123489025488 0.26005348367334502 0 0.32210051683487972 0.25821390133522898 0 0.31853386036373621 0.26630021879362609 0 0.31126492707747377 0.26649755644088291 0 0.31118230899832661 0.2567903197361433 0 0.31688123489025488 0.26005348367334502 0 0.31126492707747377 0.26649755644088291 0 0.31688123489025488 0.26005348367334502 0 0.31853386036373621 0.26630021879362609 0 0.32210051683487972 0.25821390133522898 0 0.32565014139396031 0.27090064462225599 0 0.31853386036373621 0.26630021879362609 0 0.32210051683487972 0.25821390133522898 0 0.32975590232202212 0.2511441829190228 0 0.32321984768261802 0.24799016297425749 0 0.31688290666958718 0.2524294299713844 0 0.32210051683487972 0.25821390133522898 0 0.32321984768261802 0.24799016297425749 0 0.32975590232202212 0.2511441829190228 0 0.33912355885182038 0.26341111757358121 0 0.32565014139396031 0.27090064462225599 0 0.32975590232202212 0.2511441829190228 0 0.33912355885182038 0.26341111757358121 0 0.34242532483264748 0.2437425965290515 0 0.32975590232202212 0.2511441829190228 0 0.33912355885182038 0.26341111757358121 0 0.34186892067264862 0.27696522167406912 0 0.33588095400162032 0.27307196795034427 0 0.33659123350658809 0.28125674720841148 0 0.34186892067264862 0.27696522167406912 0 0.33659123350658809 0.28125674720841148 0 0.34407584444350481 0.28446156744932077 0 0.33912355885182038 0.26341111757358121 0 0.34304500626212642 0.26870734707003913 0 0.33588095400162032 0.27307196795034427 0 0.34186892067264862 0.27696522167406912 0 0.34304500626212642 0.26870734707003913 0 0.33588095400162032 0.27307196795034427 0 0.33912355885182038 0.26341111757358121 0 0.34304500626212642 0.26870734707003913 0 0.33912355885182038 0.26341111757358121 0 0.33588095400162032 0.27307196795034427 0 0.32565014139396031 0.27090064462225599 0 0.33912355885182038 0.26341111757358121 0 0.32565014139396031 0.27090064462225599 0 0.33588095400162032 0.27307196795034427 0 0.33035937820584488 0.279399603078268 0 0.33659123350658809 0.28125674720841148 0 0.33588095400162032 0.27307196795034427 0 0.33035937820584488 0.279399603078268 0 0.32565014139396031 0.27090064462225599 0 0.33035937820584488 0.279399603078268 0 0.32565014139396031 0.27090064462225599 0 0.32255140533930532 0.28581141543059052 0 0.32565014139396031 0.27090064462225599 0 0.32255140533930532 0.28581141543059052 0 0.32565014139396031 0.27090064462225599 0 0.31677248162211152 0.27583550789641659 0 0.32255140533930532 0.28581141543059052 0 0.32565014139396031 0.27090064462225599 0 0.31853386036373621 0.26630021879362609 0 0.31677248162211152 0.27583550789641659 0 0.32565014139396031 0.27090064462225599 0 0.31677248162211152 0.27583550789641659 0 0.31126492707747377 0.26649755644088291 0 0.31853386036373621 0.26630021879362609 0 0.31677248162211152 0.27583550789641659 0 0.30735454767048181 0.30068767601220142 0 0.32747213727780139 0.29221965693505242 0 0.31677248162211152 0.27583550789641659 0 0.31279778186955948 0.28305617066407962 0 0.32255140533930532 0.28581141543059052 0 0.31279778186955948 0.28305617066407962 0 0.31327227241416827 0.29033458765926368 0 0.32255140533930532 0.28581141543059052 0 0.30735454767048181 0.30068767601220142 0 0.31327227241416827 0.29033458765926368 0 0.32747213727780139 0.29221965693505242 0 0.31327227241416827 0.29033458765926368 0 0.32747213727780139 0.29221965693505242 0 0.32255140533930532 0.28581141543059052 0 0.33035937820584488 0.279399603078268 0 0.32255140533930532 0.28581141543059052 0 0.33112315678774978 0.28595724017973673 0 0.32747213727780139 0.29221965693505242 0 0.32255140533930532 0.28581141543059052 0 0.33112315678774978 0.28595724017973673 0 0.32724015265191281 0.31289755466364988 0 0.3090008967246034 0.31146862628161542 0 0.30735454767048181 0.30068767601220142 0 0.32724015265191281 0.31289755466364988 0 0.30735454767048181 0.30068767601220142 0 0.32724015265191281 0.31289755466364988 0 0.30735454767048181 0.30068767601220142 0 0.32444746619650061 0.30262805966017142 0 0.30735454767048181 0.30068767601220142 0 0.32747213727780139 0.29221965693505242 0 0.32444746619650061 0.30262805966017142 0 0.32724015265191281 0.31289755466364988 0 0.32444746619650061 0.30262805966017142 0 0.3357230271858066 0.30470735102978203 0 0.32747213727780139 0.29221965693505242 0 0.32444746619650061 0.30262805966017142 0 0.3357230271858066 0.30470735102978203 0 0.3357230271858066 0.30470735102978203 0 0.34020923224047839 0.2927165096550125 0 0.35066929387108908 0.30280868159240881 0 0.33035937820584488 0.279399603078268 0 0.33112315678774978 0.28595724017973673 0 0.33659123350658809 0.28125674720841148 0 0.32747213727780139 0.29221965693505242 0 0.33112315678774978 0.28595724017973673 0 0.34020923224047839 0.2927165096550125 0 0.32747213727780139 0.29221965693505242 0 0.3357230271858066 0.30470735102978203 0 0.34020923224047839 0.2927165096550125 0 0.33112315678774978 0.28595724017973673 0 0.34020923224047839 0.2927165096550125 0 0.33659123350658809 0.28125674720841148 0 0.34020923224047839 0.2927165096550125 0 0.33659123350658809 0.28125674720841148 0 0.34407584444350481 0.28446156744932077 0 0.34407584444350481 0.28446156744932077 0 0.35240908282584671 0.28808694170752758 0 0.3497515651494032 0.27732847869222971 0 0.35240908282584671 0.28808694170752758 0 0.35066929387108908 0.30280868159240881 0 0.36691515065587149 0.29462854382694659 0 0.34020923224047839 0.2927165096550125 0 0.34407584444350481 0.28446156744932077 0 0.35240908282584671 0.28808694170752758 0 0.34020923224047839 0.2927165096550125 0 0.35240908282584671 0.28808694170752758 0 0.35066929387108908 0.30280868159240881 0 0.34712575763334352 0.32510743331509878 0 0.3357230271858066 0.30470735102978203 0 0.35066929387108908 0.30280868159240881 0 0.36118971487449758 0.31504690262895102 0 0.36691515065587149 0.29462854382694659 0 0.37542481911830478 0.31106244188061788 0 0.36118971487449758 0.31504690262895102 0 0.35066929387108908 0.30280868159240881 0 0.36691515065587149 0.29462854382694659 0 0.35240908282584671 0.28808694170752758 0 0.36691515065587149 0.29462854382694659 0 0.36283341059473301 0.27657786902924753 0 0.36691515065587149 0.29462854382694659 0 0.36283341059473301 0.27657786902924753 0 0.3826218149273396 0.28444839098845598 0 0.36283341059473301 0.27657786902924753 0 0.36849373491056697 0.26164027851453708 0 0.37865656683264559 0.27261510040475567 0 0.36283341059473301 0.27657786902924753 0 0.3826218149273396 0.28444839098845598 0 0.36283341059473301 0.27657786902924753 0 0.37865656683264559 0.27261510040475567 0 0.3826218149273396 0.28444839098845598 0 0.36283341059473301 0.27657786902924753 0 0.36849373491056697 0.26164027851453708 0 0.35422363889973862 0.25501737052983459 0 0.38058004259589451 0.26049308008921862 0 0.36932371894765859 0.24662362348609121 0 0.36849373491056697 0.26164027851453708 0 0.38058004259589451 0.26049308008921862 0 0.36932371894765859 0.24662362348609121 0 0.35422363889973862 0.25501737052983459 0 0.36932371894765859 0.24662362348609121 0 0.36849373491056697 0.26164027851453708 0 0.35422363889973862 0.25501737052983459 0 0.36932371894765859 0.24662362348609121 0 0.33912355885182038 0.26341111757358121 0 0.35422363889973862 0.25501737052983459 0 0.34242532483264748 0.2437425965290515 0 0.33912355885182038 0.26341111757358121 0 0.35422363889973862 0.25501737052983459 0 0.33912355885182038 0.26341111757358121 0 0.34304500626212642 0.26870734707003913 0 0.35422363889973862 0.25501737052983459 0 0.34304500626212642 0.26870734707003913 0 0.36283341059473301 0.27657786902924753 0 0.35422363889973862 0.25501737052983459 0 0.34304500626212642 0.26870734707003913 0 0.36283341059473301 0.27657786902924753 0 0.3497515651494032 0.27732847869222971 0 0.34304500626212642 0.26870734707003913 0 0.3497515651494032 0.27732847869222971 0 0.34304500626212642 0.26870734707003913 0 0.36283341059473301 0.27657786902924753 0 0.34186892067264862 0.27696522167406912 0 0.34407584444350481 0.28446156744932077 0 0.3497515651494032 0.27732847869222971 0 0.34186892067264862 0.27696522167406912 0 0.34304500626212642 0.26870734707003913 0 0.3497515651494032 0.27732847869222971 0 0.35240908282584671 0.28808694170752758 0 0.36283341059473301 0.27657786902924753 0 0.3497515651494032 0.27732847869222971 0 0.3946880504259852 0.27583621654739038 0 0.38663851201382071 0.25865476135483972 0 0.40954228439379547 0.27213426797659612 0 0.3946880504259852 0.27583621654739038 0 0.38663851201382071 0.25865476135483972 0 0.3946880504259852 0.27583621654739038 0 0.41511516902780898 0.28639244622093002 0 0.39694891646985792 0.28066195519726239 0 0.3946880504259852 0.27583621654739038 0 0.41511516902780898 0.28639244622093002 0 0.39183636624413037 0.27436253669234578 0 0.3946880504259852 0.27583621654739038 0 0.38663851201382071 0.25865476135483972 0 0.39183636624413037 0.27436253669234578 0 0.39694891646985792 0.28066195519726239 0 0.3946880504259852 0.27583621654739038 0 0.39183636624413037 0.27436253669234578 0 0.3946880504259852 0.27583621654739038 0 0.39183636624413037 0.27436253669234578 0 0.39694891646985792 0.28066195519726239 0 0.39183636624413037 0.27436253669234578 0 0.39694891646985792 0.28066195519726239 0 0.39055057114344172 0.27970818860621921 0 0.39694891646985792 0.28066195519726239 0 0.3946880504259852 0.27583621654739038 0 0.38663851201382071 0.25865476135483972 0 0.41412833772902058 0.2567079335919053 0 0.40418435892776822 0.24441781281166741 0 0.38663851201382071 0.25865476135483972 0 0.40954228439379547 0.27213426797659612 0 0.41412833772902058 0.2567079335919053 0 0.38663851201382071 0.25865476135483972 0 0.378588973601656 0.2414733061622891 0 0.38663851201382071 0.25865476135483972 0 0.38058004259589451 0.26049308008921862 0 0.378588973601656 0.2414733061622891 0 0.39183636624413037 0.27436253669234578 0 0.38663851201382071 0.25865476135483972 0 0.38058004259589451 0.26049308008921862 0 0.36849373491056697 0.26164027851453708 0 0.38058004259589451 0.26049308008921862 0 0.37865656683264559 0.27261510040475567 0 0.39183636624413037 0.27436253669234578 0 0.38058004259589451 0.26049308008921862 0 0.37865656683264559 0.27261510040475567 0 0.39183636624413037 0.27436253669234578 0 0.38058004259589451 0.26049308008921862 0 0.37865656683264559 0.27261510040475567 0 0.39055057114344172 0.27970818860621921 0 0.3826218149273396 0.28444839098845598 0 0.39183636624413037 0.27436253669234578 0 0.37865656683264559 0.27261510040475567 0 0.39055057114344172 0.27970818860621921 0 0.36691515065587149 0.29462854382694659 0 0.3826218149273396 0.28444839098845598 0 0.38880870927890188 0.30291661182026702 0 0.36691515065587149 0.29462854382694659 0 0.37542481911830478 0.31106244188061788 0 0.38880870927890188 0.30291661182026702 0 0.37542481911830478 0.31106244188061788 0 0.38880870927890188 0.30291661182026702 0 0.39337855997354221 0.3220363629149432 0 0.38880870927890188 0.30291661182026702 0 0.40241021925994591 0.29231891294766549 0 0.41210169173840749 0.31300501836297379 0 0.39055057114344172 0.27970818860621921 0 0.3826218149273396 0.28444839098845598 0 0.40241021925994591 0.29231891294766549 0 0.3826218149273396 0.28444839098845598 0 0.40241021925994591 0.29231891294766549 0 0.3826218149273396 0.28444839098845598 0 0.38880870927890188 0.30291661182026702 0 0.40241021925994591 0.29231891294766549 0 0.39694891646985792 0.28066195519726239 0 0.39055057114344172 0.27970818860621921 0 0.40241021925994591 0.29231891294766549 0 0.39694891646985792 0.28066195519726239 0 0.40241021925994591 0.29231891294766549 0 0.40831595038647389 0.29466782323549018 0 0.40241021925994591 0.29231891294766549 0 0.40831595038647389 0.29466782323549018 0 0.39694891646985792 0.28066195519726239 0 0.40241021925994591 0.29231891294766549 0 0.39694891646985792 0.28066195519726239 0 0.40831595038647389 0.29466782323549018 0 0.41511516902780898 0.28639244622093002 0 0.40831595038647389 0.29466782323549018 0 0.43315902297475978 0.30454875881037802 0 0.39694891646985792 0.28066195519726239 0 0.41511516902780898 0.28639244622093002 0 0.40831595038647389 0.29466782323549018 0 0.40241021925994591 0.29231891294766549 0 0.40831595038647389 0.29466782323549018 0 0.4081891685902071 0.29968948420852909 0 0.40241021925994591 0.29231891294766549 0 0.41210169173840749 0.31300501836297379 0 0.40831595038647389 0.29466782323549018 0 0.43315902297475978 0.30454875881037802 0 0.4081891685902071 0.29968948420852909 0 0.4215109746114819 0.31604343094409099 0 0.40241021925994591 0.29231891294766549 0 0.4081891685902071 0.29968948420852909 0 0.41210169173840749 0.31300501836297379 0 0.40831595038647389 0.29466782323549018 0 0.41432128669001628 0.30206728631526869 0 0.43315902297475978 0.30454875881037802 0 0.4081891685902071 0.29968948420852909 0 0.41210169173840749 0.31300501836297379 0 0.4215109746114819 0.31604343094409099 0 0.4081891685902071 0.29968948420852909 0 0.41432128669001628 0.30206728631526869 0 0.4215109746114819 0.31604343094409099 0 0.40831595038647389 0.29466782323549018 0 0.41432128669001628 0.30206728631526869 0 0.40831595038647389 0.29466782323549018 0 0.4081891685902071 0.29968948420852909 0 0.41432128669001628 0.30206728631526869 0 0.41432128669001628 0.30206728631526869 0 0.42543854775926032 0.30919523936234961 0 0.4215109746114819 0.31604343094409099 0 0.41432128669001628 0.30206728631526869 0 0.42543854775926032 0.30919523936234961 0 0.43315902297475978 0.30454875881037802 0 0.43315902297475978 0.30454875881037802 0 0.44185048333613192 0.31298100368693538 0 0.43276290676078311 0.31412148137966101 0 0.42543854775926032 0.30919523936234961 0 0.43315902297475978 0.30454875881037802 0 0.43276290676078311 0.31412148137966101 0 0.41511516902780898 0.28639244622093002 0 0.4355422876296321 0.29694867589447121 0 0.41511516902780898 0.28639244622093002 0 0.4355422876296321 0.29694867589447121 0 0.43315902297475978 0.30454875881037802 0 0.4355422876296321 0.29694867589447121 0 0.4272605682480447 0.27204764844858909 0 0.44679301426055862 0.27906462877526722 0 0.41511516902780898 0.28639244622093002 0 0.4355422876296321 0.29694867589447121 0 0.4272605682480447 0.27204764844858909 0 0.4272605682480447 0.27204764844858909 0 0.43761662228966258 0.25062435198252192 0 0.44679301426055862 0.27906462877526722 0 0.4272605682480447 0.27204764844858909 0 0.40954228439379547 0.27213426797659612 0 0.41412833772902058 0.2567079335919053 0 0.41511516902780898 0.28639244622093002 0 0.4272605682480447 0.27204764844858909 0 0.40954228439379547 0.27213426797659612 0 0.3946880504259852 0.27583621654739038 0 0.41511516902780898 0.28639244622093002 0 0.40954228439379547 0.27213426797659612 0 0.41412833772902058 0.2567079335919053 0 0.43761662228966258 0.25062435198252192 0 0.41887843647872591 0.24294735935182671 0 0.4272605682480447 0.27204764844858909 0 0.41412833772902058 0.2567079335919053 0 0.43761662228966258 0.25062435198252192 0 0.43761662228966258 0.25062435198252192 0 0.44679301426055862 0.27906462877526722 0 0.43761662228966258 0.25062435198252192 0 0.44679301426055862 0.27906462877526722 0 0.45330158921245622 0.2573151343135 0 0.44679301426055862 0.27906462877526722 0 0.46476117993978089 0.26994298195004779 0 0.45330158921245622 0.2573151343135 0 0.44679301426055862 0.27906462877526722 0 0.46476117993978089 0.26994298195004779 0 0.4630496642773268 0.29340165190250472 0 0.46476117993978089 0.26994298195004779 0 0.45330158921245622 0.2573151343135 0 0.46647269560223498 0.24648431199759091 0 0.46476117993978089 0.26994298195004779 0 0.46647269560223498 0.24648431199759091 0 0.48412133235874172 0.25038907708322911 0 0.48237626942745598 0.27820247522369501 0 0.46476117993978089 0.26994298195004779 0 0.48412133235874172 0.25038907708322911 0 0.46647269560223498 0.24648431199759091 0 0.46476117993978089 0.26994298195004779 0 0.48237626942745598 0.27820247522369501 0 0.47108353013520948 0.2837301434377153 0 0.46476117993978089 0.26994298195004779 0 0.48412133235874172 0.25038907708322911 0 0.48237626942745598 0.27820247522369501 0 0.48412133235874172 0.25038907708322911 0 0.48237626942745598 0.27820247522369501 0 0.5 0.27599458335945809 0 0.48412133235874172 0.25038907708322911 0 0.5 0.27599458335945809 0 0.5 0.24836481013999009 0 0.5 0.30362435657892622 0 0.4806312064961703 0.30601587336416097 0 0.48987933751526452 0.31868090781152719 0 0.48237626942745598 0.27820247522369501 0 0.5 0.27599458335945809 0 0.5 0.30362435657892622 0 0.48237626942745598 0.27820247522369501 0 0.5 0.30362435657892622 0 0.4806312064961703 0.30601587336416097 0 0.48237626942745598 0.27820247522369501 0 0.4806312064961703 0.30601587336416097 0 0.48237626942745598 0.27820247522369501 0 0.47335641403376938 0.29304919356258929 0 0.4806312064961703 0.30601587336416097 0 0.48237626942745598 0.27820247522369501 0 0.47108353013520948 0.2837301434377153 0 0.47335641403376938 0.29304919356258929 0 0.47108353013520948 0.2837301434377153 0 0.47335641403376938 0.29304919356258929 0 0.4630496642773268 0.29340165190250472 0 0.47335641403376938 0.29304919356258929 0 0.46964139983268399 0.30389582388487052 0 0.4806312064961703 0.30601587336416097 0 0.46964139983268399 0.30389582388487052 0 0.4806312064961703 0.30601587336416097 0 0.47390117130948051 0.31677159825753959 0 0.45596940623145499 0.30750490556801258 0 0.47390117130948051 0.31677159825753959 0 0.46964139983268399 0.30389582388487052 0 0.45596940623145499 0.30750490556801258 0 0.47390117130948051 0.31677159825753959 0 0.46964139983268399 0.30389582388487052 0 0.45596940623145499 0.30750490556801258 0 0.4630496642773268 0.29340165190250472 0 0.45596940623145499 0.30750490556801258 0 0.45818471121169652 0.31437077256870782 0 0.46476117993978089 0.26994298195004779 0 0.4630496642773268 0.29340165190250472 0 0.46476117993978089 0.26994298195004779 0 0.47108353013520948 0.2837301434377153 0 0.4630496642773268 0.29340165190250472 0 0.44679301426055862 0.27906462877526722 0 0.45596940623145499 0.30750490556801258 0 0.4630496642773268 0.29340165190250472 0 0.47335641403376938 0.29304919356258929 0 0.46964139983268399 0.30389582388487052 0 0.4630496642773268 0.29340165190250472 0 0.4355422876296321 0.29694867589447121 0 0.44679301426055862 0.27906462877526722 0 0.45596940623145499 0.30750490556801258 0 0.44679301426055862 0.27906462877526722 0 0.45596940623145499 0.30750490556801258 0 0.4355422876296321 0.29694867589447121 0 0.45596940623145499 0.30750490556801258 0 0.43315902297475978 0.30454875881037802 0 0.44185048333613192 0.31298100368693538 0 0.45818471121169652 0.31437077256870782 0 0.43315902297475978 0.30454875881037802 0 0.45596940623145499 0.30750490556801258 0 0.45818471121169652 0.31437077256870782 0 0.43315902297475978 0.30454875881037802 0 0.45818471121169652 0.31437077256870782 0 0.4355422876296321 0.29694867589447121 0 0.43315902297475978 0.30454875881037802 0 0.45596940623145499 0.30750490556801258 0 0.44347790804593862 0.31882408017243669 0 0.44185048333613192 0.31298100368693538 0 0.43276290676078311 0.31412148137966101 0 0.44347790804593862 0.31882408017243669 0 0.44185048333613192 0.31298100368693538 0 0.45818471121169652 0.31437077256870782 0 0.44347790804593862 0.31882408017243669 0 0.44682024834126349 0.33002422293565509 0 0.43588096367844481 0.32228211862229927 0 0.44347790804593862 0.31882408017243669 0 0.45283527089612913 0.32348166749629309 0 0.44682024834126349 0.33002422293565509 0 0.44347790804593862 0.31882408017243669 0 0.45283527089612913 0.32348166749629309 0 0.45818471121169652 0.31437077256870782 0 0.44682024834126349 0.33002422293565509 0 0.44815458665403157 0.3487513244152145 0 0.43483278063275671 0.33239737767965277 0 0.44682024834126349 0.33002422293565509 0 0.45740799369236879 0.3334860642525046 0 0.44815458665403157 0.3487513244152145 0 0.44815458665403157 0.3487513244152145 0 0.43483278063275671 0.33239737767965277 0 0.44682024834126349 0.33002422293565509 0 0.43483278063275671 0.33239737767965277 0 0.43588096367844481 0.32228211862229927 0 0.45283527089612913 0.32348166749629309 0 0.44682024834126349 0.33002422293565509 0 0.45740799369236879 0.3334860642525046 0 0.45740799369236879 0.3334860642525046 0 0.46337452279864821 0.34361478161246239 0 0.44815458665403157 0.3487513244152145 0 0.45740799369236879 0.3334860642525046 0 0.46858560826801782 0.33351385559559282 0 0.46170346223917968 0.32527639359097738 0 0.46858560826801782 0.33351385559559282 0 0.46170346223917968 0.32527639359097738 0 0.47154706836977051 0.32639838380328923 0 0.45740799369236879 0.3334860642525046 0 0.46858560826801782 0.33351385559559282 0 0.46337452279864821 0.34361478161246239 0 0.45818471121169652 0.31437077256870782 0 0.46170346223917968 0.32527639359097738 0 0.47390117130948051 0.31677159825753959 0 0.45596940623145499 0.30750490556801258 0 0.45818471121169652 0.31437077256870782 0 0.47390117130948051 0.31677159825753959 0 0.45818471121169652 0.31437077256870782 0 0.46170346223917968 0.32527639359097738 0 0.45283527089612913 0.32348166749629309 0 0.45740799369236879 0.3334860642525046 0 0.46170346223917968 0.32527639359097738 0 0.45283527089612913 0.32348166749629309 0 0.45818471121169652 0.31437077256870782 0 0.46170346223917968 0.32527639359097738 0 0.4806312064961703 0.30601587336416097 0 0.47390117130948051 0.31677159825753959 0 0.47940816664490749 0.32550909261429112 0 0.4806312064961703 0.30601587336416097 0 0.47940816664490749 0.32550909261429112 0 0.4806312064961703 0.30601587336416097 0 0.47940816664490749 0.32550909261429112 0 0.48987933751526452 0.31868090781152719 0 0.47940816664490749 0.32550909261429112 0 0.47888614356488451 0.33382927150462688 0 0.48987933751526452 0.31868090781152719 0 0.46170346223917968 0.32527639359097738 0 0.47390117130948051 0.31677159825753959 0 0.47154706836977051 0.32639838380328923 0 0.47390117130948051 0.31677159825753959 0 0.47940816664490749 0.32550909261429112 0 0.47154706836977051 0.32639838380328923 0 0.46858560826801782 0.33351385559559282 0 0.47859445894326053 0.33847823880969719 0 0.47888614356488451 0.33382927150462688 0 0.46858560826801782 0.33351385559559282 0 0.47154706836977051 0.32639838380328923 0 0.47888614356488451 0.33382927150462688 0 0.46337452279864821 0.34361478161246239 0 0.47859445894326053 0.33847823880969719 0 0.46858560826801782 0.33351385559559282 0 0.46337452279864821 0.34361478161246239 0 0.47859445894326053 0.33847823880969719 0 0.47859445894326053 0.33847823880969719 0 0.47888614356488451 0.33382927150462688 0 0.47940816664490749 0.32550909261429112 0 0.47154706836977051 0.32639838380328923 0 0.47888614356488451 0.33382927150462688 0 0.47940816664490749 0.32550909261429112 0 0.47888614356488451 0.33382927150462688 0 0.47859445894326053 0.33847823880969719 0 0.47888614356488451 0.33382927150462688 0 0.50000000000000266 0.33125412979839419 0 0.47859445894326053 0.33847823880969719 0 0.50000000000000266 0.33125412979839419 0 0.5 0.35392711886147149 0 0.47859445894326053 0.33847823880969719 0 0.50000000000000266 0.33125412979839419 0 0.5 0.30362435657892622 0 0.50000000000000266 0.33125412979839419 0 0.48987933751526452 0.31868090781152719 0 0.47888614356488451 0.33382927150462688 0 0.50000000000000266 0.33125412979839419 0 0.48987933751526452 0.31868090781152719 0 0.5 0.35392711886147149 0 0.47857374701597322 0.3611038802445613 0 0.5 0.37660010792454879 0 0.47857374701597322 0.3611038802445613 0 0.47831367332304991 0.38381030335568489 0 0.5 0.37660010792454879 0 0.47859445894326053 0.33847823880969719 0 0.5 0.35392711886147149 0 0.47857374701597322 0.3611038802445613 0 0.47859445894326053 0.33847823880969719 0 0.47857374701597322 0.3611038802445613 0 0.47859445894326053 0.33847823880969719 0 0.47683869124124822 0.36646225317535969 0 0.47859445894326053 0.33847823880969719 0 0.46891624699057532 0.35199753277636281 0 0.47683869124124822 0.36646225317535969 0 0.47859445894326053 0.33847823880969719 0 0.47857374701597322 0.3611038802445613 0 0.47683869124124822 0.36646225317535969 0 0.46337452279864821 0.34361478161246239 0 0.47859445894326053 0.33847823880969719 0 0.46891624699057532 0.35199753277636281 0 0.47857374701597322 0.3611038802445613 0 0.47683869124124822 0.36646225317535969 0 0.47831367332304991 0.38381030335568489 0 0.47857374701597322 0.3611038802445613 0 0.47831367332304991 0.38381030335568489 0 0.47683869124124822 0.36646225317535969 0 0.45685731497915011 0.35943485750793253 0 0.46596254876632681 0.37686163176330018 0 0.45685731497915011 0.35943485750793253 0 0.4393325051230641 0.37112822693326758 0 0.46596254876632681 0.37686163176330018 0 0.46891624699057532 0.35199753277636281 0 0.47683869124124822 0.36646225317535969 0 0.45685731497915011 0.35943485750793253 0 0.46337452279864821 0.34361478161246239 0 0.45685731497915011 0.35943485750793253 0 0.44815458665403157 0.3487513244152145 0 0.46337452279864821 0.34361478161246239 0 0.46891624699057532 0.35199753277636281 0 0.45685731497915011 0.35943485750793253 0 0.46337452279864821 0.34361478161246239 0 0.44815458665403157 0.3487513244152145 0 0.44815458665403157 0.3487513244152145 0 0.43148463669533499 0.35437722919358888 0 0.44815458665403157 0.3487513244152145 0 0.43148463669533499 0.35437722919358888 0 0.43483278063275671 0.33239737767965277 0 0.44815458665403157 0.3487513244152145 0 0.44353456677185521 0.35871372636293147 0 0.43148463669533499 0.35437722919358888 0 0.45685731497915011 0.35943485750793253 0 0.44815458665403157 0.3487513244152145 0 0.45685731497915011 0.35943485750793253 0 0.44815458665403157 0.3487513244152145 0 0.44353456677185521 0.35871372636293147 0 0.4393325051230641 0.37112822693326758 0 0.46596254876632681 0.37686163176330018 0 0.45685731497915011 0.35943485750793253 0 0.44353456677185521 0.35871372636293147 0 0.4393325051230641 0.37112822693326758 0 0.44353456677185521 0.35871372636293147 0 0.4393325051230641 0.37112822693326758 0 0.43148463669533499 0.35437722919358888 0 0.4393325051230641 0.37112822693326758 0 0.41124032888987883 0.36508002734856049 0 0.4393325051230641 0.37112822693326758 0 0.41284781900119633 0.36066692784169219 0 0.43148463669533499 0.35437722919358888 0 0.4393325051230641 0.37112822693326758 0 0.43148463669533499 0.35437722919358888 0 0.4393325051230641 0.37112822693326758 0 0.41124032888987883 0.36508002734856049 0 0.42239772260987429 0.38019828976108799 0 0.4393325051230641 0.37112822693326758 0 0.41124032888987883 0.36508002734856049 0 0.41284781900119633 0.36066692784169219 0 0.41284781900119633 0.36066692784169219 0 0.4188463355958692 0.34768500521195089 0 0.43148463669533499 0.35437722919358888 0 0.40757603066906212 0.35124411838589248 0 0.4188463355958692 0.34768500521195089 0 0.42179316421687058 0.33369112377828158 0 0.41124032888987883 0.36508002734856049 0 0.41284781900119633 0.36066692784169219 0 0.40757603066906212 0.35124411838589248 0 0.41284781900119633 0.36066692784169219 0 0.40757603066906212 0.35124411838589248 0 0.4188463355958692 0.34768500521195089 0 0.43148463669533499 0.35437722919358888 0 0.42179316421687058 0.33369112377828158 0 0.4188463355958692 0.34768500521195089 0 0.43148463669533499 0.35437722919358888 0 0.42179316421687058 0.33369112377828158 0 0.41284781900119633 0.36066692784169219 0 0.43148463669533499 0.35437722919358888 0 0.43148463669533499 0.35437722919358888 0 0.43483278063275671 0.33239737767965277 0 0.42179316421687058 0.33369112377828158 0 0.43483278063275671 0.33239737767965277 0 0.4215109746114819 0.31604343094409099 0 0.42179316421687058 0.33369112377828158 0 0.43483278063275671 0.33239737767965277 0 0.43588096367844481 0.32228211862229927 0 0.4215109746114819 0.31604343094409099 0 0.43483278063275671 0.33239737767965277 0 0.4215109746114819 0.31604343094409099 0 0.43276290676078311 0.31412148137966101 0 0.43588096367844481 0.32228211862229927 0 0.4215109746114819 0.31604343094409099 0 0.44347790804593862 0.31882408017243669 0 0.43276290676078311 0.31412148137966101 0 0.43588096367844481 0.32228211862229927 0 0.42543854775926032 0.30919523936234961 0 0.43276290676078311 0.31412148137966101 0 0.4215109746114819 0.31604343094409099 0 0.41210169173840749 0.31300501836297379 0 0.42179316421687058 0.33369112377828158 0 0.41210169173840749 0.31300501836297379 0 0.4215109746114819 0.31604343094409099 0 0.42179316421687058 0.33369112377828158 0 0.41210169173840749 0.31300501836297379 0 0.42179316421687058 0.33369112377828158 0 0.39337855997354221 0.3220363629149432 0 0.40757603066906212 0.35124411838589248 0 0.42179316421687058 0.33369112377828158 0 0.39758038365387338 0.34130979837097408 0 0.39758038365387338 0.34130979837097408 0 0.39337855997354221 0.3220363629149432 0 0.38354677721397618 0.33870636750258232 0 0.42179316421687058 0.33369112377828158 0 0.39758038365387338 0.34130979837097408 0 0.39337855997354221 0.3220363629149432 0 0.38880870927890188 0.30291661182026702 0 0.41210169173840749 0.31300501836297379 0 0.39337855997354221 0.3220363629149432 0 0.37542481911830478 0.31106244188061788 0 0.39337855997354221 0.3220363629149432 0 0.37841764990076138 0.32649699848163211 0 0.36701136261477407 0.33731731196654768 0 0.37841764990076138 0.32649699848163211 0 0.38354677721397618 0.33870636750258232 0 0.39337855997354221 0.3220363629149432 0 0.37841764990076138 0.32649699848163211 0 0.38354677721397618 0.33870636750258232 0 0.36701136261477407 0.33731731196654768 0 0.38354677721397618 0.33870636750258232 0 0.38314815265668428 0.35903182776389608 0 0.39758038365387338 0.34130979837097408 0 0.38354677721397618 0.33870636750258232 0 0.38314815265668428 0.35903182776389608 0 0.37155154671428559 0.38224959154127691 0 0.38314815265668428 0.35903182776389608 0 0.39345639299652813 0.37353847329098649 0 0.41124032888987883 0.36508002734856049 0 0.38314815265668428 0.35903182776389608 0 0.41124032888987883 0.36508002734856049 0 0.38314815265668428 0.35903182776389608 0 0.39345639299652813 0.37353847329098649 0 0.41124032888987883 0.36508002734856049 0 0.39345639299652813 0.37353847329098649 0 0.40725503975609451 0.38088993342454219 0 0.40757603066906212 0.35124411838589248 0 0.39758038365387338 0.34130979837097408 0 0.38314815265668428 0.35903182776389608 0 0.41124032888987883 0.36508002734856049 0 0.40757603066906212 0.35124411838589248 0 0.38314815265668428 0.35903182776389608 0 0.40113932193509211 0.40621618956823158 0 0.3898339949193611 0.38843711362809819 0 0.40725503975609451 0.38088993342454219 0 0.39345639299652813 0.37353847329098649 0 0.3898339949193611 0.38843711362809819 0 0.40725503975609451 0.38088993342454219 0 0.37155154671428559 0.38224959154127691 0 0.39345639299652813 0.37353847329098649 0 0.3898339949193611 0.38843711362809819 0 0.37155154671428559 0.38224959154127691 0 0.3898339949193611 0.38843711362809819 0 0.37951547016484832 0.40521641817248771 0 0.40113932193509211 0.40621618956823158 0 0.3898339949193611 0.38843711362809819 0 0.37951547016484832 0.40521641817248771 0 0.37063340713274329 0.42699576663325872 0 0.37951547016484832 0.40521641817248771 0 0.3991391747549709 0.4279050716081006 0 0.37063340713274329 0.42699576663325872 0 0.3991391747549709 0.4279050716081006 0 0.3816306129578409 0.44606872067474312 0 0.37063340713274329 0.42699576663325872 0 0.3991391747549709 0.4279050716081006 0 0.40113932193509211 0.40621618956823158 0 0.3991391747549709 0.4279050716081006 0 0.41779698657345932 0.41374899811937488 0 0.40113932193509211 0.40621618956823158 0 0.37951547016484832 0.40521641817248771 0 0.3991391747549709 0.4279050716081006 0 0.3991391747549709 0.4279050716081006 0 0.41779698657345932 0.41374899811937488 0 0.41922770446010682 0.43980827577046061 0 0.43790362068841188 0.42106146842995062 0 0.43663653647058043 0.44329385395825421 0 0.41922770446010682 0.43980827577046061 0 0.41779698657345932 0.41374899811937488 0 0.43790362068841188 0.42106146842995062 0 0.41922770446010682 0.43980827577046061 0 0.41779698657345932 0.41374899811937488 0 0.43169109540876471 0.40260667472705503 0 0.43790362068841188 0.42106146842995062 0 0.41779698657345932 0.41374899811937488 0 0.43169109540876471 0.40260667472705503 0 0.41926174560983109 0.39485627543683649 0 0.43169109540876471 0.40260667472705503 0 0.41926174560983109 0.39485627543683649 0 0.43322115572839881 0.38888850696382549 0 0.40113932193509211 0.40621618956823158 0 0.41926174560983109 0.39485627543683649 0 0.40725503975609451 0.38088993342454219 0 0.40113932193509211 0.40621618956823158 0 0.41779698657345932 0.41374899811937488 0 0.41926174560983109 0.39485627543683649 0 0.41124032888987883 0.36508002734856049 0 0.40725503975609451 0.38088993342454219 0 0.42239772260987429 0.38019828976108799 0 0.41926174560983109 0.39485627543683649 0 0.40725503975609451 0.38088993342454219 0 0.42239772260987429 0.38019828976108799 0 0.4393325051230641 0.37112822693326758 0 0.42239772260987429 0.38019828976108799 0 0.43322115572839881 0.38888850696382549 0 0.41926174560983109 0.39485627543683649 0 0.42239772260987429 0.38019828976108799 0 0.43322115572839881 0.38888850696382549 0 0.4393325051230641 0.37112822693326758 0 0.45079793493907272 0.38816576444120648 0 0.45743313186883022 0.38263374914471598 0 0.4393325051230641 0.37112822693326758 0 0.43322115572839881 0.38888850696382549 0 0.45027196844372208 0.39447812468528748 0 0.4393325051230641 0.37112822693326758 0 0.45027196844372208 0.39447812468528748 0 0.4393325051230641 0.37112822693326758 0 0.45079793493907272 0.38816576444120648 0 0.45027196844372208 0.39447812468528748 0 0.43169109540876471 0.40260667472705503 0 0.45027196844372208 0.39447812468528748 0 0.43790362068841188 0.42106146842995062 0 0.43169109540876471 0.40260667472705503 0 0.43322115572839881 0.38888850696382549 0 0.45027196844372208 0.39447812468528748 0 0.45027196844372208 0.39447812468528748 0 0.46206254538815372 0.40529802317394581 0 0.46121143176440399 0.41782802243729578 0 0.45079793493907272 0.38816576444120648 0 0.46206254538815372 0.40529802317394581 0 0.45079793493907272 0.38816576444120648 0 0.46304741535700378 0.39143806220659683 0 0.46206254538815372 0.40529802317394581 0 0.45079793493907272 0.38816576444120648 0 0.45027196844372208 0.39447812468528748 0 0.46206254538815372 0.40529802317394581 0 0.45027196844372208 0.39447812468528748 0 0.46121143176440399 0.41782802243729578 0 0.46304741535700378 0.39143806220659683 0 0.46206254538815372 0.40529802317394581 0 0.47508292353924148 0.39444626754102252 0 0.4393325051230641 0.37112822693326758 0 0.45743313186883022 0.38263374914471598 0 0.46596254876632681 0.37686163176330018 0 0.45079793493907272 0.38816576444120648 0 0.46304741535700378 0.39143806220659683 0 0.45743313186883022 0.38263374914471598 0 0.46304741535700378 0.39143806220659683 0 0.45743313186883022 0.38263374914471598 0 0.46802525515870708 0.3855750603791977 0 0.46304741535700378 0.39143806220659683 0 0.46802525515870708 0.3855750603791977 0 0.47508292353924148 0.39444626754102252 0 0.45743313186883022 0.38263374914471598 0 0.46802525515870708 0.3855750603791977 0 0.46596254876632681 0.37686163176330018 0 0.47683869124124822 0.36646225317535969 0 0.46802525515870708 0.3855750603791977 0 0.47508292353924148 0.39444626754102252 0 0.47683869124124822 0.36646225317535969 0 0.47508292353924148 0.39444626754102252 0 0.47683869124124822 0.36646225317535969 0 0.47831367332304991 0.38381030335568489 0 0.47508292353924148 0.39444626754102252 0 0.47683869124124822 0.36646225317535969 0 0.46802525515870708 0.3855750603791977 0 0.46596254876632681 0.37686163176330018 0 0.47831367332304991 0.38381030335568489 0 0.4780535996301265 0.40651672646680859 0 0.47831367332304991 0.38381030335568489 0 0.47508292353924148 0.39444626754102252 0 0.4780535996301265 0.40651672646680859 0 0.47831367332304991 0.38381030335568489 0 0.5 0.39927309698762609 0 0.4780535996301265 0.40651672646680859 0 0.47831367332304991 0.38381030335568489 0 0.5 0.39927309698762609 0 0.5 0.37660010792454879 0 0.50000000000000022 0.42194608605070349 0 0.48942581350386932 0.44691460558936308 0 0.50000000000000022 0.42194608605070349 0 0.48942581350386932 0.44691460558936308 0 0.5 0.44247144496673291 0 0.50000000000000022 0.42194608605070349 0 0.47779352593720092 0.42922314957793217 0 0.48942581350386932 0.44691460558936308 0 0.50000000000000022 0.42194608605070349 0 0.4780535996301265 0.40651672646680859 0 0.47779352593720092 0.42922314957793217 0 0.5 0.39927309698762609 0 0.50000000000000022 0.42194608605070349 0 0.4780535996301265 0.40651672646680859 0 0.47508292353924148 0.39444626754102252 0 0.4780535996301265 0.40651672646680859 0 0.47332715583723473 0.42243028190668519 0 0.4780535996301265 0.40651672646680859 0 0.47779352593720092 0.42922314957793217 0 0.4780535996301265 0.40651672646680859 0 0.47332715583723473 0.42243028190668519 0 0.47779352593720092 0.42922314957793217 0 0.47508292353924148 0.39444626754102252 0 0.47332715583723473 0.42243028190668519 0 0.46206254538815372 0.40529802317394581 0 0.47508292353924148 0.39444626754102252 0 0.47332715583723473 0.42243028190668519 0 0.47332715583723473 0.42243028190668519 0 0.47215089508509273 0.44117792018930108 0 0.47779352593720092 0.42922314957793217 0 0.47774791993367849 0.43320490259877198 0 0.48942581350386932 0.44691460558936308 0 0.47332715583723473 0.42243028190668519 0 0.47774791993367849 0.43320490259877198 0 0.47215089508509273 0.44117792018930108 0 0.47332715583723473 0.42243028190668519 0 0.46121143176440399 0.41782802243729578 0 0.47215089508509273 0.44117792018930108 0 0.47332715583723473 0.42243028190668519 0 0.47779352593720092 0.42922314957793217 0 0.47774791993367849 0.43320490259877198 0 0.47332715583723473 0.42243028190668519 0 0.47779352593720092 0.42922314957793217 0 0.47779352593720092 0.42922314957793217 0 0.47774791993367849 0.43320490259877198 0 0.46121143176440399 0.41782802243729578 0 0.47215089508509273 0.44117792018930108 0 0.46121143176440399 0.41782802243729578 0 0.45276919855310388 0.43608739197035068 0 0.47215089508509273 0.44117792018930108 0 0.46206254538815372 0.40529802317394581 0 0.47332715583723473 0.42243028190668519 0 0.46206254538815372 0.40529802317394581 0 0.47332715583723473 0.42243028190668519 0 0.46121143176440399 0.41782802243729578 0 0.45027196844372208 0.39447812468528748 0 0.46121143176440399 0.41782802243729578 0 0.43790362068841188 0.42106146842995062 0 0.43790362068841188 0.42106146842995062 0 0.45276919855310388 0.43608739197035068 0 0.43663653647058043 0.44329385395825421 0 0.46121143176440399 0.41782802243729578 0 0.43790362068841188 0.42106146842995062 0 0.45276919855310388 0.43608739197035068 0 0.45276919855310388 0.43608739197035068 0 0.45174497862262591 0.45936260167358389 0 0.43663653647058043 0.44329385395825421 0 0.45174497862262591 0.45936260167358389 0 0.4319138012985031 0.46002697027327072 0 0.43663653647058043 0.44329385395825421 0 0.45174497862262591 0.45936260167358389 0 0.4464691829929186 0.4795517081764889 0 0.4319138012985031 0.46002697027327072 0 0.45174497862262591 0.45936260167358389 0 0.47090084586889358 0.46110162375447461 0 0.46965079665268789 0.48102532731964792 0 0.45174497862262591 0.45936260167358389 0 0.47215089508509273 0.44117792018930108 0 0.47090084586889358 0.46110162375447461 0 0.45276919855310388 0.43608739197035068 0 0.45174497862262591 0.45936260167358389 0 0.47215089508509273 0.44117792018930108 0 0.47215089508509273 0.44117792018930108 0 0.48250013548912313 0.463268007989872 0 0.47215089508509273 0.44117792018930108 0 0.48250013548912313 0.463268007989872 0 0.48942581350386932 0.44691460558936308 0 0.47774791993367849 0.43320490259877198 0 0.47215089508509273 0.44117792018930108 0 0.48942581350386932 0.44691460558936308 0 0.47779352593720092 0.42922314957793217 0 0.48942581350386932 0.44691460558936308 0 0.47215089508509273 0.44117792018930108 0 0.47090084586889358 0.46110162375447461 0 0.47215089508509273 0.44117792018930108 0 0.47090084586889358 0.46110162375447461 0 0.48250013548912313 0.463268007989872 0 0.47090084586889358 0.46110162375447461 0 0.48250013548912313 0.463268007989872 0 0.47505034365526128 0.47034198147645928 0 0.48250013548912313 0.463268007989872 0 0.48942581350386932 0.44691460558936308 0 0.50000000000000178 0.46299680388276221 0 0.48942581350386932 0.44691460558936308 0 0.48250013548912313 0.463268007989872 0 0.50000000000000178 0.46299680388276221 0 0.48942581350386932 0.44691460558936308 0 0.50000000000000178 0.46299680388276221 0 0.48942581350386932 0.44691460558936308 0 0.5 0.44247144496673291 0 0.4997091307300251 0.4999999999999889 0 0.49146926285550202 0.48241229329807023 0 0.48408471104080869 0.5 0 0.49146926285550202 0.48241229329807023 0 0.47780376139544928 0.49088970900007378 0 0.48408471104080869 0.5 0 0.4997091307300251 0.4999999999999889 0 0.49146926285550202 0.48241229329807023 0 0.4997091307300251 0.4999999999999889 0 0.50000000000000444 0.48295457899678718 0 0.49146926285550202 0.48241229329807023 0 0.48250013548912313 0.463268007989872 0 0.50000000000000178 0.46299680388276221 0 0.49146926285550202 0.48241229329807023 0 0.50000000000000178 0.46299680388276221 0 0.50000000000000444 0.48295457899678718 0 0.49146926285550202 0.48241229329807023 0 0.50000000000000444 0.48295457899678718 0 0.49146926285550202 0.48241229329807023 0 0.48250013548912313 0.463268007989872 0 0.49146926285550202 0.48241229329807023 0 0.48250013548912313 0.463268007989872 0 0.47505034365526128 0.47034198147645928 0 0.47559280639506979 0.47957808361681081 0 0.48250013548912313 0.463268007989872 0 0.49146926285550202 0.48241229329807023 0 0.47559280639506979 0.47957808361681081 0 0.48250013548912313 0.463268007989872 0 0.47559280639506979 0.47957808361681081 0 0.47090084586889358 0.46110162375447461 0 0.47505034365526128 0.47034198147645928 0 0.46965079665268789 0.48102532731964792 0 0.49146926285550202 0.48241229329807023 0 0.46965079665268789 0.48102532731964792 0 0.49146926285550202 0.48241229329807023 0 0.47559280639506979 0.47957808361681081 0 0.46965079665268789 0.48102532731964792 0 0.47090084586889358 0.46110162375447461 0 0.46965079665268789 0.48102532731964792 0 0.47505034365526128 0.47034198147645928 0 0.47559280639506979 0.47957808361681081 0 0.46965079665268789 0.48102532731964792 0 0.49146926285550202 0.48241229329807023 0 0.46965079665268789 0.48102532731964792 0 0.47780376139544928 0.49088970900007378 0 0.46965079665268789 0.48102532731964792 0 0.47780376139544928 0.49088970900007378 0 0.46846029135159239 0.49999999999998362 0 0.46965079665268789 0.48102532731964792 0 0.46846029135159239 0.49999999999998362 0 0.47780376139544928 0.49088970900007378 0 0.48408471104080869 0.5 0 0.46846029135159239 0.49999999999998362 0 0.46965079665268789 0.48102532731964792 0 0.46846029135159239 0.49999999999998362 0 0.45667740151597708 0.49014425887403001 0 0.46846029135159239 0.49999999999998362 0 0.45667740151597708 0.49014425887403001 0 0.44212933506671093 0.5 0 0.45174497862262591 0.45936260167358389 0 0.46965079665268789 0.48102532731964792 0 0.4464691829929186 0.4795517081764889 0 0.46965079665268789 0.48102532731964792 0 0.45667740151597708 0.49014425887403001 0 0.4464691829929186 0.4795517081764889 0 0.46965079665268789 0.48102532731964792 0 0.4464691829929186 0.4795517081764889 0 0.45667740151597708 0.49014425887403001 0 0.4464691829929186 0.4795517081764889 0 0.44212933506671093 0.5 0 0.44212933506671093 0.5 0 0.41579837878182951 0.5 0 0.42328756933314909 0.47807808903333598 0 0.4464691829929186 0.4795517081764889 0 0.44212933506671093 0.5 0 0.42328756933314909 0.47807808903333598 0 0.41579837878182951 0.5 0 0.42328756933314909 0.47807808903333598 0 0.40096871514772542 0.49002373171422342 0 0.42328756933314909 0.47807808903333598 0 0.40602147149675988 0.46701445631162908 0 0.40010595567337981 0.47660446989018329 0 0.42328756933314909 0.47807808903333598 0 0.40096871514772542 0.49002373171422342 0 0.40010595567337981 0.47660446989018329 0 0.42328756933314909 0.47807808903333598 0 0.40010595567337981 0.47660446989018329 0 0.4464691829929186 0.4795517081764889 0 0.42328756933314909 0.47807808903333598 0 0.4464691829929186 0.4795517081764889 0 0.42328756933314909 0.47807808903333598 0 0.4319138012985031 0.46002697027327072 0 0.42328756933314909 0.47807808903333598 0 0.4319138012985031 0.46002697027327072 0 0.41411683591163811 0.46006729302750071 0 0.4319138012985031 0.46002697027327072 0 0.43663653647058043 0.44329385395825421 0 0.41922770446010682 0.43980827577046061 0 0.41922770446010682 0.43980827577046061 0 0.41411683591163811 0.46006729302750071 0 0.39881826724031549 0.45259024895190642 0 0.4319138012985031 0.46002697027327072 0 0.41922770446010682 0.43980827577046061 0 0.41411683591163811 0.46006729302750071 0 0.42328756933314909 0.47807808903333598 0 0.41411683591163811 0.46006729302750071 0 0.40602147149675988 0.46701445631162908 0 0.41411683591163811 0.46006729302750071 0 0.40602147149675988 0.46701445631162908 0 0.39881826724031549 0.45259024895190642 0 0.40602147149675988 0.46701445631162908 0 0.39377872932531721 0.46773218065521932 0 0.39881826724031549 0.45259024895190642 0 0.39377872932531721 0.46773218065521932 0 0.39881826724031549 0.45259024895190642 0 0.38432598423217562 0.45851242696133021 0 0.3991391747549709 0.4279050716081006 0 0.39881826724031549 0.45259024895190642 0 0.3816306129578409 0.44606872067474312 0 0.3991391747549709 0.4279050716081006 0 0.41922770446010682 0.43980827577046061 0 0.39881826724031549 0.45259024895190642 0 0.39881826724031549 0.45259024895190642 0 0.3816306129578409 0.44606872067474312 0 0.38432598423217562 0.45851242696133021 0 0.37471811207274758 0.46842092516576977 0 0.39377872932531721 0.46773218065521932 0 0.38432598423217562 0.45851242696133021 0 0.37471811207274758 0.46842092516576977 0 0.39377872932531721 0.46773218065521932 0 0.37188241952350898 0.45839592287978098 0 0.3816306129578409 0.44606872067474312 0 0.38432598423217562 0.45851242696133021 0 0.37471811207274758 0.46842092516576977 0 0.37188241952350898 0.45839592287978098 0 0.38432598423217562 0.45851242696133021 0 0.37471811207274758 0.46842092516576977 0 0.39377872932531721 0.46773218065521932 0 0.37692434201361041 0.47513085074703049 0 0.39377872932531721 0.46773218065521932 0 0.37692434201361041 0.47513085074703049 0 0.40010595567337981 0.47660446989018329 0 0.37692434201361041 0.47513085074703049 0 0.38769432237657869 0.48518862266283441 0 0.40010595567337981 0.47660446989018329 0 0.37692434201361041 0.47513085074703049 0 0.40010595567337981 0.47660446989018329 0 0.37692434201361041 0.47513085074703049 0 0.37773733934697717 0.48397856100248571 0 0.38769432237657869 0.48518862266283441 0 0.36313646621206641 0.5 0 0.37900129705842062 0.49402662384127838 0 0.38946742249694788 0.5 0 0.37773733934697717 0.48397856100248571 0 0.37900129705842062 0.49402662384127838 0 0.38769432237657869 0.48518862266283441 0 0.37900129705842062 0.49402662384127838 0 0.38946742249694788 0.5 0 0.38769432237657869 0.48518862266283441 0 0.38946742249694788 0.5 0 0.38769432237657869 0.48518862266283441 0 0.40096871514772542 0.49002373171422342 0 0.41579837878182951 0.5 0 0.38946742249694788 0.5 0 0.40096871514772542 0.49002373171422342 0 0.40602147149675988 0.46701445631162908 0 0.39377872932531721 0.46773218065521932 0 0.40010595567337981 0.47660446989018329 0 0.38769432237657869 0.48518862266283441 0 0.40096871514772542 0.49002373171422342 0 0.40010595567337981 0.47660446989018329 0 0.33483749359932857 0.084417113520110415 0 0.32758295642101731 0.098825354564395784 0 0.33483749359932857 0.084417113520110415 0 0.33154631252806249 0.064898469195271313 0 0.34521292290709471 0.063810466572172236 0 0.33483749359932857 0.084417113520110415 0 0.35030010256712041 0.078461632868030512 0 0.34521292290709471 0.063810466572172236 0 0.33483749359932857 0.084417113520110415 0 0.34521292290709471 0.063810466572172236 0 0.33483749359932857 0.084417113520110415 0 0.33154631252806249 0.064898469195271313 0 0.31992136420720962 0.073490947155235506 0 0.33483749359932857 0.084417113520110415 0 0.33154631252806249 0.064898469195271313 0 0.31992136420720962 0.073490947155235506 0 0.32192402692088451 0.056765541633913272 0 0.31116970639102409 0.059973962389319888 0 0.33154631252806249 0.064898469195271313 0 0.31992136420720962 0.073490947155235506 0 0.32192402692088451 0.056765541633913272 0 0.31992136420720962 0.073490947155235506 0 0.31116970639102409 0.059973962389319888 0 0.30663480280757449 0.067772750335656523 0 0.31992136420720962 0.073490947155235506 0 0.31269348220182502 0.082000211601863743 0 0.32131100219299158 0.086687931383507916 0 0.32131100219299158 0.086687931383507916 0 0.32758295642101731 0.098825354564395784 0 0.30939490343370762 0.093781009373615776 0 0.33483749359932857 0.084417113520110415 0 0.31992136420720962 0.073490947155235506 0 0.32131100219299158 0.086687931383507916 0 0.33483749359932857 0.084417113520110415 0 0.32131100219299158 0.086687931383507916 0 0.32758295642101731 0.098825354564395784 0 0.31269348220182502 0.082000211601863743 0 0.32131100219299158 0.086687931383507916 0 0.30939490343370762 0.093781009373615776 0 0.31864314789402742 0.113521060252134 0 0.30939490343370762 0.093781009373615776 0 0.32758295642101731 0.098825354564395784 0 0.31864314789402742 0.113521060252134 0 0.30939490343370762 0.093781009373615776 0 0.32758295642101731 0.098825354564395784 0 0.3203284192427025 0.1132335956086795 0 0.32758295642101731 0.098825354564395784 0 0.31864314789402742 0.113521060252134 0 0.3203284192427025 0.1132335956086795 0 0.3203284192427025 0.1132335956086795 0 0.32396834943556041 0.1248875146986642 0 0.33915496478891211 0.1100222633759121 0 0.31630610931683151 0.1212223079885736 0 0.31938568044953858 0.1151059697436356 0 0.32396834943556041 0.1248875146986642 0 0.31630610931683151 0.1212223079885736 0 0.32396834943556041 0.1248875146986642 0 0.31630610931683151 0.1212223079885736 0 0.31938568044953858 0.1151059697436356 0 0.31630610931683151 0.1212223079885736 0 0.31864314789402742 0.113521060252134 0 0.30505265242160329 0.1158392548493714 0 0.31630610931683151 0.1212223079885736 0 0.31938568044953858 0.1151059697436356 0 0.31864314789402742 0.113521060252134 0 0.31938568044953858 0.1151059697436356 0 0.3203284192427025 0.1132335956086795 0 0.31864314789402742 0.113521060252134 0 0.3203284192427025 0.1132335956086795 0 0.31938568044953858 0.1151059697436356 0 0.31864314789402742 0.113521060252134 0 0.3203284192427025 0.1132335956086795 0 0.31938568044953858 0.1151059697436356 0 0.31864314789402742 0.113521060252134 0 0.31938568044953858 0.1151059697436356 0 0.3203284192427025 0.1132335956086795 0 0.32396834943556041 0.1248875146986642 0 0.31938568044953858 0.1151059697436356 0 0.32396834943556041 0.1248875146986642 0 0.33915496478891211 0.1100222633759121 0 0.34321379296915311 0.13409350768316261 0 0.32396834943556041 0.1248875146986642 0 0.33915496478891211 0.1100222633759121 0 0.34321379296915311 0.13409350768316261 0 0.3203284192427025 0.1132335956086795 0 0.33915496478891211 0.1100222633759121 0 0.33483749359932857 0.084417113520110415 0 0.32758295642101731 0.098825354564395784 0 0.33915496478891211 0.1100222633759121 0 0.32758295642101731 0.098825354564395784 0 0.3203284192427025 0.1132335956086795 0 0.33915496478891211 0.1100222633759121 0 0.33483749359932857 0.084417113520110415 0 0.33915496478891211 0.1100222633759121 0 0.33483749359932857 0.084417113520110415 0 0.33915496478891211 0.1100222633759121 0 0.35169674072975449 0.091877804844412728 0 0.33915496478891211 0.1100222633759121 0 0.35942109918724557 0.10656537371618791 0 0.35169674072975449 0.091877804844412728 0 0.33915496478891211 0.1100222633759121 0 0.35942109918724557 0.10656537371618791 0 0.35942109918724557 0.10656537371618791 0 0.36481103161310913 0.09132767560818357 0 0.35169674072975449 0.091877804844412728 0 0.33915496478891211 0.1100222633759121 0 0.35399869438917481 0.1219080370722023 0 0.34321379296915311 0.13409350768316261 0 0.33915496478891211 0.1100222633759121 0 0.35399869438917481 0.1219080370722023 0 0.35942109918724557 0.10656537371618791 0 0.35399869438917481 0.1219080370722023 0 0.37024643177976341 0.1228084938099806 0 0.35942109918724557 0.10656537371618791 0 0.37024643177976341 0.1228084938099806 0 0.37968723358557949 0.1031084840564665 0 0.37024643177976341 0.1228084938099806 0 0.35942109918724557 0.10656537371618791 0 0.37968723358557949 0.1031084840564665 0 0.35942109918724557 0.10656537371618791 0 0.37285208850655238 0.096496024901164948 0 0.37968723358557949 0.1031084840564665 0 0.35942109918724557 0.10656537371618791 0 0.37968723358557949 0.1031084840564665 0 0.35942109918724557 0.10656537371618791 0 0.37285208850655238 0.096496024901164948 0 0.36481103161310913 0.09132767560818357 0 0.37215165871465189 0.078948867584241494 0 0.36481103161310913 0.09132767560818357 0 0.37558552895051028 0.088946101461699845 0 0.37285208850655238 0.096496024901164948 0 0.36481103161310913 0.09132767560818357 0 0.37558552895051028 0.088946101461699845 0 0.37215165871465189 0.078948867584241494 0 0.36165575262280952 0.080472769978050918 0 0.36481103161310913 0.09132767560818357 0 0.36165575262280952 0.080472769978050918 0 0.36481103161310913 0.09132767560818357 0 0.35169674072975449 0.091877804844412728 0 0.33483749359932857 0.084417113520110415 0 0.35169674072975449 0.091877804844412728 0 0.35030010256712041 0.078461632868030512 0 0.36165575262280952 0.080472769978050918 0 0.35169674072975449 0.091877804844412728 0 0.35030010256712041 0.078461632868030512 0 0.35030010256712041 0.078461632868030512 0 0.34521292290709471 0.063810466572172236 0 0.36281327578226807 0.0680717423517649 0 0.36165575262280952 0.080472769978050918 0 0.35030010256712041 0.078461632868030512 0 0.36281327578226807 0.0680717423517649 0 0.36281327578226807 0.0680717423517649 0 0.3799463339813246 0.057940819005673293 0 0.36281327578226807 0.0680717423517649 0 0.37842087522265277 0.067159713933203302 0 0.3799463339813246 0.057940819005673293 0 0.37215165871465189 0.078948867584241494 0 0.36165575262280952 0.080472769978050918 0 0.36281327578226807 0.0680717423517649 0 0.37215165871465189 0.078948867584241494 0 0.36281327578226807 0.0680717423517649 0 0.37842087522265277 0.067159713933203302 0 0.36281327578226807 0.0680717423517649 0 0.36822426491959181 0.056464482147487199 0 0.3799463339813246 0.057940819005673293 0 0.36281327578226807 0.0680717423517649 0 0.36822426491959181 0.056464482147487199 0 0.36032135503432322 0.055219366383124913 0 0.36822426491959181 0.056464482147487199 0 0.36032135503432322 0.055219366383124913 0 0.36981609488045142 0.044626000849385797 0 0.36032135503432322 0.055219366383124913 0 0.36981609488045142 0.044626000849385797 0 0.35558835221485868 0.043203819624233093 0 0.36822426491959181 0.056464482147487199 0 0.36981609488045142 0.044626000849385797 0 0.3799463339813246 0.057940819005673293 0 0.36981609488045142 0.044626000849385797 0 0.3799463339813246 0.057940819005673293 0 0.36981609488045142 0.044626000849385797 0 0.37219582013524471 0.033797194025992641 0 0.38261346494514198 0.041156982035331337 0 0.36981609488045142 0.044626000849385797 0 0.37219582013524471 0.033797194025992641 0 0.35968585577957679 0.031311182693099363 0 0.36981609488045142 0.044626000849385797 0 0.35968585577957679 0.031311182693099363 0 0.36981609488045142 0.044626000849385797 0 0.35968585577957679 0.031311182693099363 0 0.35558835221485868 0.043203819624233093 0 0.35968585577957679 0.031311182693099363 0 0.35558835221485868 0.043203819624233093 0 0.33262559886621101 0.03015671644699815 0 0.34521292290709471 0.063810466572172236 0 0.36032135503432322 0.055219366383124913 0 0.35558835221485868 0.043203819624233093 0 0.34521292290709471 0.063810466572172236 0 0.36281327578226807 0.0680717423517649 0 0.36032135503432322 0.055219366383124913 0 0.34521292290709471 0.063810466572172236 0 0.35558835221485868 0.043203819624233093 0 0.34521292290709471 0.063810466572172236 0 0.35558835221485868 0.043203819624233093 0 0.34045119324570777 0.049467675532267899 0 0.36491130761458568 0.0093151723393397456 0 0.37915319675336823 0.015039813914909489 0 0.3738576177168153 -0.004268612177127571 0 0.36491130761458568 0.0093151723393397456 0 0.36629522817474292 0.023804747793502931 0 0.34782428851163788 0.015720769707922352 0 0.36491130761458568 0.0093151723393397456 0 0.36629522817474292 0.023804747793502931 0 0.37915319675336823 0.015039813914909489 0 0.37219582013524471 0.033797194025992641 0 0.36629522817474292 0.023804747793502931 0 0.38039569086213249 0.028084558762593359 0 0.37219582013524471 0.033797194025992641 0 0.35968585577957679 0.031311182693099363 0 0.36629522817474292 0.023804747793502931 0 0.35968585577957679 0.031311182693099363 0 0.34782428851163788 0.015720769707922352 0 0.33262559886621101 0.03015671644699815 0 0.35968585577957679 0.031311182693099363 0 0.36629522817474292 0.023804747793502931 0 0.34782428851163788 0.015720769707922352 0 0.35968585577957679 0.031311182693099363 0 0.33262559886621101 0.03015671644699815 0 0.35968585577957679 0.031311182693099363 0 0.34782428851163788 0.015720769707922352 0 0.34782428851163788 0.015720769707922352 0 0.33596272124369791 0.0001303567227463748 0 0.35570265241411442 -0.0062775346211684721 0 0.36491130761458568 0.0093151723393397456 0 0.34782428851163788 0.015720769707922352 0 0.35570265241411442 -0.0062775346211684721 0 0.34782428851163788 0.015720769707922352 0 0.33596272124369791 0.0001303567227463748 0 0.31968214520403521 0.01240594876365271 0 0.34782428851163788 0.015720769707922352 0 0.33596272124369791 0.0001303567227463748 0 0.34782428851163788 0.015720769707922352 0 0.33262559886621101 0.03015671644699815 0 0.31968214520403521 0.01240594876365271 0 0.33262559886621101 0.03015671644699815 0 0.30556534195284513 0.029002250200895929 0 0.33262559886621101 0.03015671644699815 0 0.31968214520403521 0.01240594876365271 0 0.30556534195284513 0.029002250200895929 0 0.33154631252806249 0.064898469195271313 0 0.32825513145679908 0.045379824870431809 0 0.33154631252806249 0.064898469195271313 0 0.34045119324570777 0.049467675532267899 0 0.32825513145679908 0.045379824870431809 0 0.33154631252806249 0.064898469195271313 0 0.34521292290709471 0.063810466572172236 0 0.34045119324570777 0.049467675532267899 0 0.33262559886621101 0.03015671644699815 0 0.34045119324570777 0.049467675532267899 0 0.32825513145679908 0.045379824870431809 0 0.35558835221485868 0.043203819624233093 0 0.33262559886621101 0.03015671644699815 0 0.34045119324570777 0.049467675532267899 0 0.33262559886621101 0.03015671644699815 0 0.32825513145679908 0.045379824870431809 0 0.31079672136449848 0.043875475694490837 0 0.33262559886621101 0.03015671644699815 0 0.31079672136449848 0.043875475694490837 0 0.30556534195284513 0.029002250200895929 0 0.33154631252806249 0.064898469195271313 0 0.32825513145679908 0.045379824870431809 0 0.32192402692088451 0.056765541633913272 0 0.32192402692088451 0.056765541633913272 0 0.31116970639102409 0.059973962389319888 0 0.31079672136449848 0.043875475694490837 0 0.32825513145679908 0.045379824870431809 0 0.32192402692088451 0.056765541633913272 0 0.31079672136449848 0.043875475694490837 0 0.31079672136449848 0.043875475694490837 0 0.2976660253749927 0.068746133768792489 0 0.31116970639102409 0.059973962389319888 0 0.31079672136449848 0.043875475694490837 0 0.2976660253749927 0.068746133768792489 0 0.31079672136449848 0.043875475694490837 0 0.28808555520723372 0.048296958861794748 0 0.2976660253749927 0.068746133768792489 0 0.31079672136449848 0.043875475694490837 0 0.28808555520723372 0.048296958861794748 0 0.30556534195284513 0.029002250200895929 0 0.28808555520723372 0.048296958861794748 0 0.27850508503947913 0.027847783954795272 0 0.28808555520723372 0.048296958861794748 0 0.30556534195284513 0.029002250200895929 0 0.27850508503947913 0.027847783954795272 0 0.28808555520723372 0.048296958861794748 0 0.28549790637890943 0.065802441648609697 0 0.2976660253749927 0.068746133768792489 0 0.28808555520723372 0.048296958861794748 0 0.2736075961696659 0.054463291324741328 0 0.28549790637890943 0.065802441648609697 0 0.28808555520723372 0.048296958861794748 0 0.2976660253749927 0.068746133768792489 0 0.31968214520403521 0.01240594876365271 0 0.28915807743379518 0.010654615332489851 0 0.30331726517711732 -0.0052925995653069144 0 0.31968214520403521 0.01240594876365271 0 0.30556534195284513 0.029002250200895929 0 0.28915807743379518 0.010654615332489851 0 0.30556534195284513 0.029002250200895929 0 0.27850508503947913 0.027847783954795272 0 0.30556534195284513 0.029002250200895929 0 0.28915807743379518 0.010654615332489851 0 0.27850508503947913 0.027847783954795272 0 0.28915807743379518 0.010654615332489851 0 0.26912945415269579 0.0078358312520530049 0 0.28055238580901859 -0.0097180551089432275 0 0.28915807743379518 0.010654615332489851 0 0.26912945415269579 0.0078358312520530049 0 0.27850508503947913 0.027847783954795272 0 0.26912945415269579 0.0078358312520530049 0 0.27850508503947913 0.027847783954795272 0 0.26341055036065131 0.01777119503039468 0 0.27850508503947913 0.027847783954795272 0 0.25509449926346622 0.026849022887357851 0 0.26341055036065131 0.01777119503039468 0 0.26912945415269579 0.0078358312520530049 0 0.27850508503947913 0.027847783954795272 0 0.27850508503947913 0.027847783954795272 0 0.25509449926346622 0.026849022887357851 0 0.24225955866535909 0.01542126388595547 0 0.25509449926346622 0.026849022887357851 0 0.25742416126469281 0.0073364507183336647 0 0.25509449926346622 0.026849022887357851 0 0.25742416126469281 0.0073364507183336647 0 0.25509449926346622 0.026849022887357851 0 0.26341055036065131 0.01777119503039468 0 0.25742416126469281 0.0073364507183336647 0 0.26912945415269579 0.0078358312520530049 0 0.25742416126469281 0.0073364507183336647 0 0.25975382326591612 -0.01217612145069095 0 0.26912945415269579 0.0078358312520530049 0 0.26341055036065131 0.01777119503039468 0 0.25742416126469281 0.0073364507183336647 0 0.2736075961696659 0.054463291324741328 0 0.26957104646354962 0.065075847282366026 0 0.28549790637890943 0.065802441648609697 0 0.28808555520723372 0.048296958861794748 0 0.2736075961696659 0.054463291324741328 0 0.26777247789070302 0.04117353981108017 0 0.2736075961696659 0.054463291324741328 0 0.26777247789070302 0.04117353981108017 0 0.26163433993617691 0.054508589637887919 0 0.2736075961696659 0.054463291324741328 0 0.26163433993617691 0.054508589637887919 0 0.26957104646354962 0.065075847282366026 0 0.28808555520723372 0.048296958861794748 0 0.27850508503947913 0.027847783954795272 0 0.26777247789070302 0.04117353981108017 0 0.27850508503947913 0.027847783954795272 0 0.25509449926346622 0.026849022887357851 0 0.26777247789070302 0.04117353981108017 0 0.26777247789070302 0.04117353981108017 0 0.25357027357901851 0.039615494441644902 0 0.26163433993617691 0.054508589637887919 0 0.25509449926346622 0.026849022887357851 0 0.26777247789070302 0.04117353981108017 0 0.25357027357901851 0.039615494441644902 0 0.24688176197826031 0.035227469018283497 0 0.25509449926346622 0.026849022887357851 0 0.25357027357901851 0.039615494441644902 0 0.25509449926346622 0.026849022887357851 0 0.25357027357901851 0.039615494441644902 0 0.24670767730800799 0.051526191952567371 0 0.26163433993617691 0.054508589637887919 0 0.25857696820611659 0.075197173014929092 0 0.24670767730800799 0.051526191952567371 0 0.25357027357901851 0.039615494441644902 0 0.26163433993617691 0.054508589637887919 0 0.24670767730800799 0.051526191952567371 0 0.25857696820611659 0.075197173014929092 0 0.26163433993617691 0.054508589637887919 0 0.25857696820611659 0.075197173014929092 0 0.26957104646354962 0.065075847282366026 0 0.24115454607952511 0.095329602446818137 0 0.26210996879929749 0.082243052238262226 0 0.24628835692018061 0.082167537972379481 0 0.25857696820611659 0.075197173014929092 0 0.26210996879929749 0.082243052238262226 0 0.26210996879929749 0.082243052238262226 0 0.27079709793527579 0.099567833560858882 0 0.25805432677232298 0.097712209542652528 0 0.24115454607952511 0.095329602446818137 0 0.26210996879929749 0.082243052238262226 0 0.25805432677232298 0.097712209542652528 0 0.25857696820611659 0.075197173014929092 0 0.26210996879929749 0.082243052238262226 0 0.26932584796168763 0.077736774019956448 0 0.25857696820611659 0.075197173014929092 0 0.26210996879929749 0.082243052238262226 0 0.26210996879929749 0.082243052238262226 0 0.27464360616523809 0.085133768272443969 0 0.27079709793527579 0.099567833560858882 0 0.26210996879929749 0.082243052238262226 0 0.27079709793527579 0.099567833560858882 0 0.26210996879929749 0.082243052238262226 0 0.27464360616523809 0.085133768272443969 0 0.26932584796168763 0.077736774019956448 0 0.26210996879929749 0.082243052238262226 0 0.26932584796168763 0.077736774019956448 0 0.27464360616523809 0.085133768272443969 0 0.276684454790741 0.074693533499687187 0 0.28229198294805358 0.082612812477982037 0 0.27464360616523809 0.085133768272443969 0 0.26932584796168763 0.077736774019956448 0 0.276684454790741 0.074693533499687187 0 0.27464360616523809 0.085133768272443969 0 0.28229198294805358 0.082612812477982037 0 0.28304792946086998 0.09643405415535039 0 0.27464360616523809 0.085133768272443969 0 0.28304792946086998 0.09643405415535039 0 0.27079709793527579 0.099567833560858882 0 0.26957104646354962 0.065075847282366026 0 0.276684454790741 0.074693533499687187 0 0.28549790637890943 0.065802441648609697 0 0.25857696820611659 0.075197173014929092 0 0.276684454790741 0.074693533499687187 0 0.25857696820611659 0.075197173014929092 0 0.26957104646354962 0.065075847282366026 0 0.276684454790741 0.074693533499687187 0 0.25857696820611659 0.075197173014929092 0 0.26932584796168763 0.077736774019956448 0 0.276684454790741 0.074693533499687187 0 0.276684454790741 0.074693533499687187 0 0.29479194137536552 0.074189893984447364 0 0.276684454790741 0.074693533499687187 0 0.29479194137536552 0.074189893984447364 0 0.28229198294805358 0.082612812477982037 0 0.276684454790741 0.074693533499687187 0 0.28549790637890943 0.065802441648609697 0 0.29479194137536552 0.074189893984447364 0 0.28549790637890943 0.065802441648609697 0 0.29479194137536552 0.074189893984447364 0 0.2976660253749927 0.068746133768792489 0 0.29479194137536552 0.074189893984447364 0 0.2976660253749927 0.068746133768792489 0 0.29479194137536552 0.074189893984447364 0 0.28229198294805358 0.082612812477982037 0 0.28304792946086998 0.09643405415535039 0 0.29479194137536552 0.074189893984447364 0 0.28304792946086998 0.09643405415535039 0 0.29479194137536552 0.074189893984447364 0 0.29558962388171361 0.088833298326720919 0 0.28304792946086998 0.09643405415535039 0 0.29479194137536552 0.074189893984447364 0 0.29558962388171361 0.088833298326720919 0 0.30014665897338672 0.074040958495097939 0 0.30014665897338672 0.074040958495097939 0 0.30939490343370762 0.093781009373615776 0 0.29558962388171361 0.088833298326720919 0 0.30014665897338672 0.074040958495097939 0 0.30939490343370762 0.093781009373615776 0 0.31269348220182502 0.082000211601863743 0 0.30014665897338672 0.074040958495097939 0 0.30939490343370762 0.093781009373615776 0 0.31992136420720962 0.073490947155235506 0 0.30014665897338672 0.074040958495097939 0 0.31992136420720962 0.073490947155235506 0 0.31269348220182502 0.082000211601863743 0 0.30014665897338672 0.074040958495097939 0 0.31992136420720962 0.073490947155235506 0 0.30663480280757449 0.067772750335656523 0 0.30014665897338672 0.074040958495097939 0 0.31116970639102409 0.059973962389319888 0 0.30663480280757449 0.067772750335656523 0 0.2976660253749927 0.068746133768792489 0 0.30663480280757449 0.067772750335656523 0 0.2976660253749927 0.068746133768792489 0 0.30014665897338672 0.074040958495097939 0 0.2976660253749927 0.068746133768792489 0 0.30014665897338672 0.074040958495097939 0 0.29479194137536552 0.074189893984447364 0 0.2976660253749927 0.068746133768792489 0 0.30014665897338672 0.074040958495097939 0 0.29479194137536552 0.074189893984447364 0 0.30014665897338672 0.074040958495097939 0 0.30505265242160329 0.1158392548493714 0 0.28878256332304503 0.1186145203076012 0 0.29906009057940269 0.12978726605792809 0 0.30505265242160329 0.1158392548493714 0 0.28878256332304503 0.1186145203076012 0 0.31864314789402742 0.113521060252134 0 0.30505265242160329 0.1158392548493714 0 0.30134550371564089 0.10365297107733019 0 0.31630610931683151 0.1212223079885736 0 0.30505265242160329 0.1158392548493714 0 0.29906009057940269 0.12978726605792809 0 0.30505265242160329 0.1158392548493714 0 0.28953133701708861 0.1084146859910592 0 0.31630610931683151 0.1212223079885736 0 0.30505265242160329 0.1158392548493714 0 0.31864314789402742 0.113521060252134 0 0.30505265242160329 0.1158392548493714 0 0.31864314789402742 0.113521060252134 0 0.30939490343370762 0.093781009373615776 0 0.30134550371564089 0.10365297107733019 0 0.29558962388171361 0.088833298326720919 0 0.30939490343370762 0.093781009373615776 0 0.30134550371564089 0.10365297107733019 0 0.30505265242160329 0.1158392548493714 0 0.30134550371564089 0.10365297107733019 0 0.28953133701708861 0.1084146859910592 0 0.30134550371564089 0.10365297107733019 0 0.28953133701708861 0.1084146859910592 0 0.29237859851882819 0.09933375238761516 0 0.28304792946086998 0.09643405415535039 0 0.28430509643168139 0.1104341428748961 0 0.27999039619729121 0.1131101434859864 0 0.29558962388171361 0.088833298326720919 0 0.30134550371564089 0.10365297107733019 0 0.29237859851882819 0.09933375238761516 0 0.29558962388171361 0.088833298326720919 0 0.29237859851882819 0.09933375238761516 0 0.28304792946086998 0.09643405415535039 0 0.28953133701708861 0.1084146859910592 0 0.29237859851882819 0.09933375238761516 0 0.28304792946086998 0.09643405415535039 0 0.28953133701708861 0.1084146859910592 0 0.28304792946086998 0.09643405415535039 0 0.28430509643168139 0.1104341428748961 0 0.30505265242160329 0.1158392548493714 0 0.28953133701708861 0.1084146859910592 0 0.28878256332304503 0.1186145203076012 0 0.28953133701708861 0.1084146859910592 0 0.28430509643168139 0.1104341428748961 0 0.28878256332304503 0.1186145203076012 0 0.28430509643168139 0.1104341428748961 0 0.28878256332304503 0.1186145203076012 0 0.27999039619729121 0.1131101434859864 0 0.28878256332304503 0.1186145203076012 0 0.28164808691183768 0.12586801812263959 0 0.28885231501441672 0.12749902795663409 0 0.28304792946086998 0.09643405415535039 0 0.27999039619729121 0.1131101434859864 0 0.27130391754637312 0.11867821432625281 0 0.28878256332304503 0.1186145203076012 0 0.27251247422448682 0.1213897857658315 0 0.28164808691183768 0.12586801812263959 0 0.27999039619729121 0.1131101434859864 0 0.27251247422448682 0.1213897857658315 0 0.27130391754637312 0.11867821432625281 0 0.28878256332304503 0.1186145203076012 0 0.27999039619729121 0.1131101434859864 0 0.27251247422448682 0.1213897857658315 0 0.28878256332304503 0.1186145203076012 0 0.27251247422448682 0.1213897857658315 0 0.26849892863629798 0.11451548675393949 0 0.27130391754637312 0.11867821432625281 0 0.27157580453504981 0.10873736543680169 0 0.26849892863629798 0.11451548675393949 0 0.27157580453504981 0.10873736543680169 0 0.26419154574536291 0.1126414741414752 0 0.26849892863629798 0.11451548675393949 0 0.26692444671840643 0.11800489311122821 0 0.26419154574536291 0.1126414741414752 0 0.26849892863629798 0.11451548675393949 0 0.26692444671840643 0.11800489311122821 0 0.27130391754637312 0.11867821432625281 0 0.26692444671840643 0.11800489311122821 0 0.26920156231863041 0.1214425623709041 0 0.27130391754637312 0.11867821432625281 0 0.26692444671840643 0.11800489311122821 0 0.26920156231863041 0.1214425623709041 0 0.26540067744718521 0.123253471751486 0 0.26920156231863041 0.1214425623709041 0 0.26540067744718521 0.123253471751486 0 0.26986629565670062 0.12588644689972209 0 0.26920156231863041 0.1214425623709041 0 0.27251247422448682 0.1213897857658315 0 0.26986629565670062 0.12588644689972209 0 0.26920156231863041 0.1214425623709041 0 0.27251247422448682 0.1213897857658315 0 0.27130391754637312 0.11867821432625281 0 0.28304792946086998 0.09643405415535039 0 0.27130391754637312 0.11867821432625281 0 0.27157580453504981 0.10873736543680169 0 0.28304792946086998 0.09643405415535039 0 0.27130391754637312 0.11867821432625281 0 0.28304792946086998 0.09643405415535039 0 0.27157580453504981 0.10873736543680169 0 0.27079709793527579 0.099567833560858882 0 0.27157580453504981 0.10873736543680169 0 0.27079709793527579 0.099567833560858882 0 0.26463251233820201 0.10510064255819319 0 0.27157580453504981 0.10873736543680169 0 0.26463251233820201 0.10510064255819319 0 0.26419154574536291 0.1126414741414752 0 0.24115454607952511 0.095329602446818137 0 0.25805432677232298 0.097712209542652528 0 0.25348076198986558 0.1105559123977594 0 0.27079709793527579 0.099567833560858882 0 0.25805432677232298 0.097712209542652528 0 0.26463251233820201 0.10510064255819319 0 0.25805432677232298 0.097712209542652528 0 0.26463251233820201 0.10510064255819319 0 0.25348076198986558 0.1105559123977594 0 0.26075250330063982 0.1186353684830076 0 0.25439465536503902 0.1213235842408209 0 0.25980802526129532 0.1253922456631209 0 0.26075250330063982 0.1186353684830076 0 0.26540067744718521 0.123253471751486 0 0.25980802526129532 0.1253922456631209 0 0.26692444671840643 0.11800489311122821 0 0.26075250330063982 0.1186353684830076 0 0.26540067744718521 0.123253471751486 0 0.26075250330063982 0.1186353684830076 0 0.26419154574536291 0.1126414741414752 0 0.25348076198986558 0.1105559123977594 0 0.26692444671840643 0.11800489311122821 0 0.26075250330063982 0.1186353684830076 0 0.26419154574536291 0.1126414741414752 0 0.26463251233820201 0.10510064255819319 0 0.26419154574536291 0.1126414741414752 0 0.25348076198986558 0.1105559123977594 0 0.26075250330063982 0.1186353684830076 0 0.25348076198986558 0.1105559123977594 0 0.25439465536503902 0.1213235842408209 0 0.2461092204160209 0.12279952171658361 0 0.25439465536503902 0.1213235842408209 0 0.25182276585737318 0.12923487294363301 0 0.2461092204160209 0.12279952171658361 0 0.25348076198986558 0.1105559123977594 0 0.25439465536503902 0.1213235842408209 0 0.25182276585737318 0.12923487294363301 0 0.26022812692947322 0.13337483059123961 0 0.25980802526129532 0.1253922456631209 0 0.25439465536503902 0.1213235842408209 0 0.25182276585737318 0.12923487294363301 0 0.25980802526129532 0.1253922456631209 0 0.25377450394376672 0.13612830189693589 0 0.26022812692947322 0.13337483059123961 0 0.25824078901747388 0.1423429786083176 0 0.24657939787599439 0.1393859283567242 0 0.25182276585737318 0.12923487294363301 0 0.25377450394376672 0.13612830189693589 0 0.25182276585737318 0.12923487294363301 0 0.25377450394376672 0.13612830189693589 0 0.26022812692947322 0.13337483059123961 0 0.24657939787599439 0.1393859283567242 0 0.25377450394376672 0.13612830189693589 0 0.25824078901747388 0.1423429786083176 0 0.26022812692947322 0.13337483059123961 0 0.270577910394801 0.13414447346615921 0 0.25824078901747388 0.1423429786083176 0 0.26022812692947322 0.13337483059123961 0 0.25980802526129532 0.1253922456631209 0 0.26512517247637513 0.1287765893251735 0 0.26022812692947322 0.13337483059123961 0 0.26512517247637513 0.1287765893251735 0 0.270577910394801 0.13414447346615921 0 0.26540067744718521 0.123253471751486 0 0.25980802526129532 0.1253922456631209 0 0.26512517247637513 0.1287765893251735 0 0.26986629565670062 0.12588644689972209 0 0.270577910394801 0.13414447346615921 0 0.27559272056433343 0.12863721310717199 0 0.26540067744718521 0.123253471751486 0 0.26512517247637513 0.1287765893251735 0 0.26986629565670062 0.12588644689972209 0 0.26512517247637513 0.1287765893251735 0 0.26986629565670062 0.12588644689972209 0 0.270577910394801 0.13414447346615921 0 0.27251247422448682 0.1213897857658315 0 0.26986629565670062 0.12588644689972209 0 0.27559272056433343 0.12863721310717199 0 0.270577910394801 0.13414447346615921 0 0.27559272056433343 0.12863721310717199 0 0.28335883563384101 0.13589734128150779 0 0.270577910394801 0.13414447346615921 0 0.27193473598116641 0.148976326011591 0 0.28335883563384101 0.13589734128150779 0 0.27559272056433343 0.12863721310717199 0 0.28164808691183768 0.12586801812263959 0 0.28335883563384101 0.13589734128150779 0 0.27251247422448682 0.1213897857658315 0 0.27559272056433343 0.12863721310717199 0 0.28164808691183768 0.12586801812263959 0 0.27193473598116641 0.148976326011591 0 0.27838750392498318 0.161252909845845 0 0.28633711451472099 0.15117668012959901 0 0.27193473598116641 0.148976326011591 0 0.28335883563384101 0.13589734128150779 0 0.28633711451472099 0.15117668012959901 0 0.270577910394801 0.13414447346615921 0 0.27193473598116641 0.148976326011591 0 0.25824078901747388 0.1423429786083176 0 0.27193473598116641 0.148976326011591 0 0.26105688366233248 0.1529081168003503 0 0.26423818111726621 0.1642229035167018 0 0.24657939787599439 0.1393859283567242 0 0.25824078901747388 0.1423429786083176 0 0.25076961036854689 0.15660723377399119 0 0.27193473598116641 0.148976326011591 0 0.26105688366233248 0.1529081168003503 0 0.25824078901747388 0.1423429786083176 0 0.26105688366233248 0.1529081168003503 0 0.25824078901747388 0.1423429786083176 0 0.25076961036854689 0.15660723377399119 0 0.25007349048874872 0.16739368446153899 0 0.26423818111726621 0.1642229035167018 0 0.25935905753740091 0.18094155703567161 0 0.25076961036854689 0.15660723377399119 0 0.25007349048874872 0.16739368446153899 0 0.26423818111726621 0.1642229035167018 0 0.26105688366233248 0.1529081168003503 0 0.25076961036854689 0.15660723377399119 0 0.26423818111726621 0.1642229035167018 0 0.24565130564131499 0.1834963333921539 0 0.25935905753740091 0.18094155703567161 0 0.25862748892604659 0.19060445671459461 0 0.25935905753740091 0.18094155703567161 0 0.28223346846594588 0.18889400231284939 0 0.26423818111726621 0.1642229035167018 0 0.25935905753740091 0.18094155703567161 0 0.27569635662452457 0.17390786870837319 0 0.25935905753740091 0.18094155703567161 0 0.25862748892604659 0.19060445671459461 0 0.28223346846594588 0.18889400231284939 0 0.25935905753740091 0.18094155703567161 0 0.27569635662452457 0.17390786870837319 0 0.28223346846594588 0.18889400231284939 0 0.27193473598116641 0.148976326011591 0 0.26423818111726621 0.1642229035167018 0 0.27838750392498318 0.161252909845845 0 0.26423818111726621 0.1642229035167018 0 0.27569635662452457 0.17390786870837319 0 0.27838750392498318 0.161252909845845 0 0.27569635662452457 0.17390786870837319 0 0.27838750392498318 0.161252909845845 0 0.29359101541624077 0.16633677087142401 0 0.27838750392498318 0.161252909845845 0 0.29359101541624077 0.16633677087142401 0 0.28633711451472099 0.15117668012959901 0 0.29359101541624077 0.16633677087142401 0 0.28223346846594588 0.18889400231284939 0 0.27569635662452457 0.17390786870837319 0 0.29359101541624077 0.16633677087142401 0 0.28223346846594588 0.18889400231284939 0 0.29359101541624077 0.16633677087142401 0 0.29514993367601872 0.1813857052180661 0 0.28223346846594588 0.18889400231284939 0 0.29359101541624077 0.16633677087142401 0 0.30784610416222757 0.1828151326039883 0 0.31687921568634408 0.17056436206926509 0 0.29359101541624077 0.16633677087142401 0 0.29514993367601872 0.1813857052180661 0 0.30784610416222757 0.1828151326039883 0 0.29514993367601872 0.1813857052180661 0 0.30784610416222757 0.1828151326039883 0 0.29538523075144069 0.19346630234718659 0 0.30784610416222757 0.1828151326039883 0 0.30948257169850713 0.19220335228631161 0 0.31844587105964212 0.18501284237839741 0 0.29359101541624077 0.16633677087142401 0 0.31237814699886313 0.15575242875546971 0 0.31687921568634408 0.17056436206926509 0 0.29359101541624077 0.16633677087142401 0 0.30494856236653622 0.14377953942999891 0 0.29359101541624077 0.16633677087142401 0 0.30494856236653622 0.14377953942999891 0 0.31237814699886313 0.15575242875546971 0 0.31630610931683151 0.1212223079885736 0 0.30494856236653622 0.14377953942999891 0 0.29906009057940269 0.12978726605792809 0 0.31630610931683151 0.1212223079885736 0 0.30494856236653622 0.14377953942999891 0 0.30494856236653622 0.14377953942999891 0 0.29906009057940269 0.12978726605792809 0 0.28335883563384101 0.13589734128150779 0 0.29906009057940269 0.12978726605792809 0 0.28885231501441672 0.12749902795663409 0 0.28335883563384101 0.13589734128150779 0 0.28878256332304503 0.1186145203076012 0 0.29906009057940269 0.12978726605792809 0 0.28885231501441672 0.12749902795663409 0 0.28164808691183768 0.12586801812263959 0 0.28885231501441672 0.12749902795663409 0 0.28335883563384101 0.13589734128150779 0 0.30494856236653622 0.14377953942999891 0 0.28335883563384101 0.13589734128150779 0 0.28633711451472099 0.15117668012959901 0 0.29359101541624077 0.16633677087142401 0 0.30494856236653622 0.14377953942999891 0 0.28633711451472099 0.15117668012959901 0 0.28276787437026069 0.25041466503740861 0 0.27396346421493112 0.23430875670349721 0 0.28513411016741519 0.23850881796487899 0 0.26635104178176788 0.25262954423305578 0 0.27396346421493112 0.23430875670349721 0 0.26635104178176788 0.25262954423305578 0 0.28276787437026069 0.25041466503740861 0 0.27396346421493112 0.23430875670349721 0 0.26635104178176788 0.25262954423305578 0 0.25649998866544099 0.24000328340968119 0 0.27396346421493112 0.23430875670349721 0 0.26635104178176788 0.25262954423305578 0 0.25649998866544099 0.24000328340968119 0 0.24924586184957531 0.25441070943284838 0 0.26635104178176788 0.25262954423305578 0 0.25649998866544099 0.24000328340968119 0 0.24924586184957531 0.25441070943284838 0 0.25649998866544099 0.24000328340968119 0 0.25649998866544099 0.24000328340968119 0 0.25755850841830308 0.22735974245020379 0 0.25026085623467398 0.22245649446486629 0 0.25649998866544099 0.24000328340968119 0 0.25755850841830308 0.22735974245020379 0 0.26934969072452147 0.21448248172878431 0 0.25649998866544099 0.24000328340968119 0 0.27070984577291168 0.22631121636220841 0 0.26934969072452147 0.21448248172878431 0 0.25649998866544099 0.24000328340968119 0 0.26934969072452147 0.21448248172878431 0 0.25026085623467398 0.22245649446486629 0 0.25515183186744977 0.221961978201346 0 0.25313928369662853 0.2187235404071764 0 0.24915236946045161 0.21535571836731099 0 0.25026085623467398 0.22245649446486629 0 0.25313928369662853 0.2187235404071764 0 0.25755850841830308 0.22735974245020379 0 0.25026085623467398 0.22245649446486629 0 0.25515183186744977 0.221961978201346 0 0.25755850841830308 0.22735974245020379 0 0.25515183186744977 0.221961978201346 0 0.25983036355430328 0.22091586997512541 0 0.25515183186744977 0.221961978201346 0 0.25705978577107008 0.21868298526635899 0 0.25313928369662853 0.2187235404071764 0 0.25515183186744977 0.221961978201346 0 0.25983036355430328 0.22091586997512541 0 0.25705978577107008 0.21868298526635899 0 0.25983036355430328 0.22091586997512541 0 0.26161653099566401 0.21767307401347699 0 0.25705978577107008 0.21868298526635899 0 0.25755850841830308 0.22735974245020379 0 0.25983036355430328 0.22091586997512541 0 0.26934969072452147 0.21448248172878431 0 0.25649998866544099 0.24000328340968119 0 0.27070984577291168 0.22631121636220841 0 0.27396346421493112 0.23430875670349721 0 0.27070984577291168 0.22631121636220841 0 0.26934969072452147 0.21448248172878431 0 0.2707815704359976 0.21573874922645181 0 0.27070984577291168 0.22631121636220841 0 0.27396346421493112 0.23430875670349721 0 0.28316547044567891 0.22660383164348549 0 0.27396346421493112 0.23430875670349721 0 0.28316547044567891 0.22660383164348549 0 0.28513411016741519 0.23850881796487899 0 0.27070984577291168 0.22631121636220841 0 0.2707815704359976 0.21573874922645181 0 0.28316547044567891 0.22660383164348549 0 0.2707815704359976 0.21573874922645181 0 0.28316547044567891 0.22660383164348549 0 0.2791345879562066 0.21113770667288109 0 0.2707815704359976 0.21573874922645181 0 0.28765004241782222 0.21749065908076309 0 0.2791345879562066 0.21113770667288109 0 0.26934969072452147 0.21448248172878431 0 0.28445634781148871 0.20219428837879791 0 0.2791345879562066 0.21113770667288109 0 0.26934969072452147 0.21448248172878431 0 0.2707815704359976 0.21573874922645181 0 0.26934969072452147 0.21448248172878431 0 0.2707815704359976 0.21573874922645181 0 0.2454275566270771 0.20281680800347529 0 0.26934969072452147 0.21448248172878431 0 0.2454275566270771 0.20281680800347529 0 0.26934969072452147 0.21448248172878431 0 0.25583633698051539 0.21094822516271239 0 0.24935432255528769 0.19693943608502659 0 0.26934969072452147 0.21448248172878431 0 0.25983036355430328 0.22091586997512541 0 0.26934969072452147 0.21448248172878431 0 0.26161653099566401 0.21767307401347699 0 0.26934969072452147 0.21448248172878431 0 0.26028263686238162 0.2138848344925246 0 0.25583633698051539 0.21094822516271239 0 0.26934969072452147 0.21448248172878431 0 0.26271719992433001 0.2156014119491953 0 0.26028263686238162 0.2138848344925246 0 0.24935432255528769 0.19693943608502659 0 0.26934969072452147 0.21448248172878431 0 0.25784763214611739 0.2015553498090443 0 0.26934969072452147 0.21448248172878431 0 0.26271719992433001 0.2156014119491953 0 0.26161653099566401 0.21767307401347699 0 0.24935432255528769 0.19693943608502659 0 0.2454275566270771 0.20281680800347529 0 0.26934969072452147 0.21448248172878431 0 0.26028263686238162 0.2138848344925246 0 0.25983089673676762 0.21594627846285411 0 0.25693910798130343 0.2142518338797105 0 0.25983089673676762 0.21594627846285411 0 0.25705978577107008 0.21868298526635899 0 0.25693910798130343 0.2142518338797105 0 0.26161653099566401 0.21767307401347699 0 0.25983089673676762 0.21594627846285411 0 0.25705978577107008 0.21868298526635899 0 0.26271719992433001 0.2156014119491953 0 0.26028263686238162 0.2138848344925246 0 0.25983089673676762 0.21594627846285411 0 0.26271719992433001 0.2156014119491953 0 0.26161653099566401 0.21767307401347699 0 0.25983089673676762 0.21594627846285411 0 0.25705978577107008 0.21868298526635899 0 0.25407157514949702 0.2151605257359997 0 0.25693910798130343 0.2142518338797105 0 0.25705978577107008 0.21868298526635899 0 0.25407157514949702 0.2151605257359997 0 0.25313928369662853 0.2187235404071764 0 0.26028263686238162 0.2138848344925246 0 0.25583633698051539 0.21094822516271239 0 0.25693910798130343 0.2142518338797105 0 0.25407157514949702 0.2151605257359997 0 0.25583633698051539 0.21094822516271239 0 0.25693910798130343 0.2142518338797105 0 0.24915236946045161 0.21535571836731099 0 0.25407157514949702 0.2151605257359997 0 0.25094803567465412 0.21004140379938599 0 0.25407157514949702 0.2151605257359997 0 0.25583633698051539 0.21094822516271239 0 0.25094803567465412 0.21004140379938599 0 0.24915236946045161 0.21535571836731099 0 0.25407157514949702 0.2151605257359997 0 0.25313928369662853 0.2187235404071764 0 0.2454275566270771 0.20281680800347529 0 0.25583633698051539 0.21094822516271239 0 0.25094803567465412 0.21004140379938599 0 0.24935432255528769 0.19693943608502659 0 0.25784763214611739 0.2015553498090443 0 0.24935432255528769 0.19693943608502659 0 0.25784763214611739 0.2015553498090443 0 0.25862748892604659 0.19060445671459461 0 0.24935432255528769 0.19693943608502659 0 0.24565130564131499 0.1834963333921539 0 0.25862748892604659 0.19060445671459461 0 0.26934969072452147 0.21448248172878431 0 0.28223346846594588 0.18889400231284939 0 0.26934969072452147 0.21448248172878431 0 0.28223346846594588 0.18889400231284939 0 0.28445634781148871 0.20219428837879791 0 0.25784763214611739 0.2015553498090443 0 0.25862748892604659 0.19060445671459461 0 0.28223346846594588 0.18889400231284939 0 0.26934969072452147 0.21448248172878431 0 0.25784763214611739 0.2015553498090443 0 0.28223346846594588 0.18889400231284939 0 0.28223346846594588 0.18889400231284939 0 0.28445634781148871 0.20219428837879791 0 0.29538523075144069 0.19346630234718659 0 0.28223346846594588 0.18889400231284939 0 0.29538523075144069 0.19346630234718659 0 0.28445634781148871 0.20219428837879791 0 0.29538523075144069 0.19346630234718659 0 0.29542826158758811 0.20619217977982759 0 0.29514993367601872 0.1813857052180661 0 0.28223346846594588 0.18889400231284939 0 0.29538523075144069 0.19346630234718659 0 0.30784610416222757 0.1828151326039883 0 0.29538523075144069 0.19346630234718659 0 0.30948257169850713 0.19220335228631161 0 0.30948257169850713 0.19220335228631161 0 0.30348824523487877 0.20086683877902081 0 0.31627388865682188 0.19915256235216361 0 0.29538523075144069 0.19346630234718659 0 0.30348824523487877 0.20086683877902081 0 0.29542826158758811 0.20619217977982759 0 0.29538523075144069 0.19346630234718659 0 0.30948257169850713 0.19220335228631161 0 0.30348824523487877 0.20086683877902081 0 0.30348824523487877 0.20086683877902081 0 0.30087127348003612 0.2133197971296146 0 0.29542826158758811 0.20619217977982759 0 0.30087127348003612 0.2133197971296146 0 0.29542826158758811 0.20619217977982759 0 0.30348824523487877 0.20086683877902081 0 0.30087127348003612 0.2133197971296146 0 0.31627388865682188 0.19915256235216361 0 0.2791345879562066 0.21113770667288109 0 0.30087127348003612 0.2133197971296146 0 0.28765004241782222 0.21749065908076309 0 0.2791345879562066 0.21113770667288109 0 0.30087127348003612 0.2133197971296146 0 0.29542826158758811 0.20619217977982759 0 0.30087127348003612 0.2133197971296146 0 0.28765004241782222 0.21749065908076309 0 0.29535233599869443 0.22064780710061779 0 0.2791345879562066 0.21113770667288109 0 0.30087127348003612 0.2133197971296146 0 0.2791345879562066 0.21113770667288109 0 0.28445634781148871 0.20219428837879791 0 0.29542826158758811 0.20619217977982759 0 0.2707815704359976 0.21573874922645181 0 0.28316547044567891 0.22660383164348549 0 0.29211044421817622 0.22660923527425059 0 0.2707815704359976 0.21573874922645181 0 0.29211044421817622 0.22660923527425059 0 0.2707815704359976 0.21573874922645181 0 0.28765004241782222 0.21749065908076309 0 0.29211044421817622 0.22660923527425059 0 0.28316547044567891 0.22660383164348549 0 0.29554937045536062 0.2374689140605187 0 0.28513411016741519 0.23850881796487899 0 0.28316547044567891 0.22660383164348549 0 0.29554937045536062 0.2374689140605187 0 0.28316547044567891 0.22660383164348549 0 0.29211044421817622 0.22660923527425059 0 0.29554937045536062 0.2374689140605187 0 0.28765004241782222 0.21749065908076309 0 0.29211044421817622 0.22660923527425059 0 0.29535233599869443 0.22064780710061779 0 0.29211044421817622 0.22660923527425059 0 0.29535233599869443 0.22064780710061779 0 0.3025792305793979 0.22397816859500611 0 0.29211044421817622 0.22660923527425059 0 0.31343931800035463 0.23747972132204989 0 0.30087127348003612 0.2133197971296146 0 0.29535233599869443 0.22064780710061779 0 0.3025792305793979 0.22397816859500611 0 0.29211044421817622 0.22660923527425059 0 0.3025792305793979 0.22397816859500611 0 0.31343931800035463 0.23747972132204989 0 0.30087127348003612 0.2133197971296146 0 0.3025792305793979 0.22397816859500611 0 0.31241183359144009 0.2284321463402478 0 0.30087127348003612 0.2133197971296146 0 0.31241183359144009 0.2284321463402478 0 0.3025792305793979 0.22397816859500611 0 0.31241183359144009 0.2284321463402478 0 0.31343931800035463 0.23747972132204989 0 0.30277157268214849 0.239341295210515 0 0.29972105135729787 0.24731396504540271 0 0.29554937045536062 0.2374689140605187 0 0.29211044421817622 0.22660923527425059 0 0.30277157268214849 0.239341295210515 0 0.31343931800035463 0.23747972132204989 0 0.30277157268214849 0.239341295210515 0 0.30959430955757972 0.24797104421956531 0 0.31343931800035463 0.23747972132204989 0 0.30277157268214849 0.239341295210515 0 0.30959430955757972 0.24797104421956531 0 0.29972105135729787 0.24731396504540271 0 0.29395634980609342 0.25347798679437261 0 0.29972105135729787 0.24731396504540271 0 0.29142575123128561 0.24543686978051629 0 0.29972105135729787 0.24731396504540271 0 0.29142575123128561 0.24543686978051629 0 0.29554937045536062 0.2374689140605187 0 0.28276787437026069 0.25041466503740861 0 0.29395634980609342 0.25347798679437261 0 0.29142575123128561 0.24543686978051629 0 0.29211044421817622 0.22660923527425059 0 0.30277157268214849 0.239341295210515 0 0.29554937045536062 0.2374689140605187 0 0.29142575123128561 0.24543686978051629 0 0.29554937045536062 0.2374689140605187 0 0.28513411016741519 0.23850881796487899 0 0.28276787437026069 0.25041466503740861 0 0.29142575123128561 0.24543686978051629 0 0.28513411016741519 0.23850881796487899 0 0.32975590232202212 0.2511441829190228 0 0.34242532483264748 0.2437425965290515 0 0.33331074487245638 0.23403867874107931 0 0.32975590232202212 0.2511441829190228 0 0.33331074487245638 0.23403867874107931 0 0.32975590232202212 0.2511441829190228 0 0.32395239370284518 0.24354449555088009 0 0.33331074487245638 0.23403867874107931 0 0.34242532483264748 0.2437425965290515 0 0.33331074487245638 0.23403867874107931 0 0.34324337404687549 0.2289593622611962 0 0.32975590232202212 0.2511441829190228 0 0.32395239370284518 0.24354449555088009 0 0.32975590232202212 0.2511441829190228 0 0.32395239370284518 0.24354449555088009 0 0.32321984768261802 0.24799016297425749 0 0.32395239370284518 0.24354449555088009 0 0.32321984768261802 0.24799016297425749 0 0.31691136486740829 0.2446674795999278 0 0.32395239370284518 0.24354449555088009 0 0.32321984768261802 0.24799016297425749 0 0.30959430955757972 0.24797104421956531 0 0.31691136486740829 0.2446674795999278 0 0.31343931800035463 0.23747972132204989 0 0.31688290666958718 0.2524294299713844 0 0.32321984768261802 0.24799016297425749 0 0.31691136486740829 0.2446674795999278 0 0.31688290666958718 0.2524294299713844 0 0.30959430955757972 0.24797104421956531 0 0.31691136486740829 0.2446674795999278 0 0.31241183359144009 0.2284321463402478 0 0.32395239370284518 0.24354449555088009 0 0.32395239370284518 0.24354449555088009 0 0.31691136486740829 0.2446674795999278 0 0.31343931800035463 0.23747972132204989 0 0.31241183359144009 0.2284321463402478 0 0.32395239370284518 0.24354449555088009 0 0.31343931800035463 0.23747972132204989 0 0.32395239370284518 0.24354449555088009 0 0.32847611621520612 0.21609097693188931 0 0.31241183359144009 0.2284321463402478 0 0.32395239370284518 0.24354449555088009 0 0.32847611621520612 0.21609097693188931 0 0.30087127348003612 0.2133197971296146 0 0.31241183359144009 0.2284321463402478 0 0.32847611621520612 0.21609097693188931 0 0.33331074487245638 0.23403867874107931 0 0.34324337404687549 0.2289593622611962 0 0.33686558742288941 0.21693317456313549 0 0.32395239370284518 0.24354449555088009 0 0.33331074487245638 0.23403867874107931 0 0.32847611621520612 0.21609097693188931 0 0.33331074487245638 0.23403867874107931 0 0.33686558742288941 0.21693317456313549 0 0.33331074487245638 0.23403867874107931 0 0.33686558742288941 0.21693317456313549 0 0.32847611621520612 0.21609097693188931 0 0.34324337404687549 0.2289593622611962 0 0.33686558742288941 0.21693317456313549 0 0.34596890242170358 0.21784703315311249 0 0.33462977113134512 0.20967209960820249 0 0.32847611621520612 0.21609097693188931 0 0.3333361709323599 0.1865963290391098 0 0.33686558742288941 0.21693317456313549 0 0.33857020545468253 0.20873074352689361 0 0.33462977113134512 0.20967209960820249 0 0.33857020545468253 0.20873074352689361 0 0.34596890242170358 0.21784703315311249 0 0.33686558742288941 0.21693317456313549 0 0.33857020545468253 0.20873074352689361 0 0.34596890242170358 0.21784703315311249 0 0.33686558742288941 0.21693317456313549 0 0.33857020545468253 0.20873074352689361 0 0.33686558742288941 0.21693317456313549 0 0.34596890242170358 0.21784703315311249 0 0.33686558742288941 0.21693317456313549 0 0.33462977113134512 0.20967209960820249 0 0.32847611621520612 0.21609097693188931 0 0.33686558742288941 0.21693317456313549 0 0.32847611621520612 0.21609097693188931 0 0.30087127348003612 0.2133197971296146 0 0.32847611621520612 0.21609097693188931 0 0.30087127348003612 0.2133197971296146 0 0.32847611621520612 0.21609097693188931 0 0.31627388865682188 0.19915256235216361 0 0.32847611621520612 0.21609097693188931 0 0.31627388865682188 0.19915256235216361 0 0.3333361709323599 0.1865963290391098 0 0.31627388865682188 0.19915256235216361 0 0.31844587105964212 0.18501284237839741 0 0.3333361709323599 0.1865963290391098 0 0.30948257169850713 0.19220335228631161 0 0.31627388865682188 0.19915256235216361 0 0.31844587105964212 0.18501284237839741 0 0.32847611621520612 0.21609097693188931 0 0.3333361709323599 0.1865963290391098 0 0.33857020545468253 0.20873074352689361 0 0.34185555607606788 0.19292200432597159 0 0.35048162318568388 0.20718537598423301 0 0.33857020545468253 0.20873074352689361 0 0.34185555607606788 0.19292200432597159 0 0.3333361709323599 0.1865963290391098 0 0.33857020545468253 0.20873074352689361 0 0.33462977113134512 0.20967209960820249 0 0.3333361709323599 0.1865963290391098 0 0.33857020545468253 0.20873074352689361 0 0.34185555607606788 0.19292200432597159 0 0.34185555607606788 0.19292200432597159 0 0.35742981505192373 0.19630983020631779 0 0.34514090669745418 0.17711326512504971 0 0.34185555607606788 0.19292200432597159 0 0.35742981505192373 0.19630983020631779 0 0.35048162318568388 0.20718537598423301 0 0.35742981505192373 0.19630983020631779 0 0.35139351625075171 0.18342556379614861 0 0.35742981505192373 0.19630983020631779 0 0.35139351625075171 0.18342556379614861 0 0.3606497796283894 0.18287230419915931 0 0.35742981505192373 0.19630983020631779 0 0.37113646064022188 0.20010486602238239 0 0.36985258259709092 0.18631356824788611 0 0.35742981505192373 0.19630983020631779 0 0.3606497796283894 0.18287230419915931 0 0.36985258259709092 0.18631356824788611 0 0.37113646064022188 0.20010486602238239 0 0.36858363692406482 0.22011726870885909 0 0.37584758221803538 0.21041255236408449 0 0.35742981505192373 0.19630983020631779 0 0.36858363692406482 0.22011726870885909 0 0.35742981505192373 0.19630983020631779 0 0.37113646064022188 0.20010486602238239 0 0.36858363692406482 0.22011726870885909 0 0.36858363692406482 0.22011726870885909 0 0.3788429030020144 0.2211471702813016 0 0.37584758221803538 0.21041255236408449 0 0.35048162318568388 0.20718537598423301 0 0.34596890242170358 0.21784703315311249 0 0.36858363692406482 0.22011726870885909 0 0.35742981505192373 0.19630983020631779 0 0.35048162318568388 0.20718537598423301 0 0.36858363692406482 0.22011726870885909 0 0.33857020545468253 0.20873074352689361 0 0.35048162318568388 0.20718537598423301 0 0.34596890242170358 0.21784703315311249 0 0.34596890242170358 0.21784703315311249 0 0.36858363692406482 0.22011726870885909 0 0.34596890242170358 0.21784703315311249 0 0.35764631068468089 0.232235328319602 0 0.36858363692406482 0.22011726870885909 0 0.34324337404687549 0.2289593622611962 0 0.34596890242170358 0.21784703315311249 0 0.35764631068468089 0.232235328319602 0 0.34596890242170358 0.21784703315311249 0 0.35764631068468089 0.232235328319602 0 0.36858363692406482 0.22011726870885909 0 0.36853566003950911 0.23511238166921319 0 0.378588973601656 0.2414733061622891 0 0.36858363692406482 0.22011726870885909 0 0.378588973601656 0.2414733061622891 0 0.36858363692406482 0.22011726870885909 0 0.3788429030020144 0.2211471702813016 0 0.35764631068468089 0.232235328319602 0 0.36858363692406482 0.22011726870885909 0 0.36853566003950911 0.23511238166921319 0 0.35764631068468089 0.232235328319602 0 0.36853566003950911 0.23511238166921319 0 0.36932371894765859 0.24662362348609121 0 0.35422363889973862 0.25501737052983459 0 0.35764631068468089 0.232235328319602 0 0.36932371894765859 0.24662362348609121 0 0.35764631068468089 0.232235328319602 0 0.36932371894765859 0.24662362348609121 0 0.36853566003950911 0.23511238166921319 0 0.36932371894765859 0.24662362348609121 0 0.378588973601656 0.2414733061622891 0 0.36932371894765859 0.24662362348609121 0 0.378588973601656 0.2414733061622891 0 0.35422363889973862 0.25501737052983459 0 0.34242532483264748 0.2437425965290515 0 0.35764631068468089 0.232235328319602 0 0.34242532483264748 0.2437425965290515 0 0.34324337404687549 0.2289593622611962 0 0.35764631068468089 0.232235328319602 0 0.33512217130768818 0.14869495320121229 0 0.34321379296915311 0.13409350768316261 0 0.34736784138561189 0.15872946413568309 0 0.33512217130768818 0.14869495320121229 0 0.32555640666235353 0.15724719766813219 0 0.33890513520737042 0.15676955591870759 0 0.33512217130768818 0.14869495320121229 0 0.33890513520737042 0.15676955591870759 0 0.34736784138561189 0.15872946413568309 0 0.33512217130768818 0.14869495320121229 0 0.33890513520737042 0.15676955591870759 0 0.32396834943556041 0.1248875146986642 0 0.33512217130768818 0.14869495320121229 0 0.32396834943556041 0.1248875146986642 0 0.33512217130768818 0.14869495320121229 0 0.34321379296915311 0.13409350768316261 0 0.32396834943556041 0.1248875146986642 0 0.34321379296915311 0.13409350768316261 0 0.32396834943556041 0.1248875146986642 0 0.33512217130768818 0.14869495320121229 0 0.32091553486284119 0.1408342737385283 0 0.31630610931683151 0.1212223079885736 0 0.32396834943556041 0.1248875146986642 0 0.32091553486284119 0.1408342737385283 0 0.31630610931683151 0.1212223079885736 0 0.30494856236653622 0.14377953942999891 0 0.32091553486284119 0.1408342737385283 0 0.30494856236653622 0.14377953942999891 0 0.31237814699886313 0.15575242875546971 0 0.32091553486284119 0.1408342737385283 0 0.33512217130768818 0.14869495320121229 0 0.32091553486284119 0.1408342737385283 0 0.32555640666235353 0.15724719766813219 0 0.31237814699886313 0.15575242875546971 0 0.32091553486284119 0.1408342737385283 0 0.32555640666235353 0.15724719766813219 0 0.31237814699886313 0.15575242875546971 0 0.31687921568634408 0.17056436206926509 0 0.32555640666235353 0.15724719766813219 0 0.31687921568634408 0.17056436206926509 0 0.32555640666235353 0.15724719766813219 0 0.32914317231579759 0.16995999044405841 0 0.31687921568634408 0.17056436206926509 0 0.31844587105964212 0.18501284237839741 0 0.3244511074985359 0.1780333809827076 0 0.30784610416222757 0.1828151326039883 0 0.31687921568634408 0.17056436206926509 0 0.31844587105964212 0.18501284237839741 0 0.31687921568634408 0.17056436206926509 0 0.3244511074985359 0.1780333809827076 0 0.32914317231579759 0.16995999044405841 0 0.31844587105964212 0.18501284237839741 0 0.3244511074985359 0.1780333809827076 0 0.3333361709323599 0.1865963290391098 0 0.34185555607606788 0.19292200432597159 0 0.3333361709323599 0.1865963290391098 0 0.34514090669745418 0.17711326512504971 0 0.3333361709323599 0.1865963290391098 0 0.33890513520737042 0.15676955591870759 0 0.34627599317980601 0.17250239170376511 0 0.3244511074985359 0.1780333809827076 0 0.3333361709323599 0.1865963290391098 0 0.32914317231579759 0.16995999044405841 0 0.34185555607606788 0.19292200432597159 0 0.34514090669745418 0.17711326512504971 0 0.3333361709323599 0.1865963290391098 0 0.34514090669745418 0.17711326512504971 0 0.34627599317980601 0.17250239170376511 0 0.3333361709323599 0.1865963290391098 0 0.32914317231579759 0.16995999044405841 0 0.33890513520737042 0.15676955591870759 0 0.3333361709323599 0.1865963290391098 0 0.33890513520737042 0.15676955591870759 0 0.33890513520737042 0.15676955591870759 0 0.34627599317980601 0.17250239170376511 0 0.32555640666235353 0.15724719766813219 0 0.32914317231579759 0.16995999044405841 0 0.33890513520737042 0.15676955591870759 0 0.34736784138561189 0.15872946413568309 0 0.35139351625075171 0.18342556379614861 0 0.33890513520737042 0.15676955591870759 0 0.34736784138561189 0.15872946413568309 0 0.34627599317980601 0.17250239170376511 0 0.34736784138561189 0.15872946413568309 0 0.35139351625075171 0.18342556379614861 0 0.34627599317980601 0.17250239170376511 0 0.34736784138561189 0.15872946413568309 0 0.3501700091587146 0.1647017280484836 0 0.35139351625075171 0.18342556379614861 0 0.3501700091587146 0.1647017280484836 0 0.35747856821933782 0.1739819090105644 0 0.36140259866133401 0.16784051670594649 0 0.3501700091587146 0.1647017280484836 0 0.36256009460767441 0.1608608808615497 0 0.36140259866133401 0.16784051670594649 0 0.3501700091587146 0.1647017280484836 0 0.36256009460767441 0.1608608808615497 0 0.36313889922033371 0.15353416452359439 0 0.35742981505192373 0.19630983020631779 0 0.35139351625075171 0.18342556379614861 0 0.34514090669745418 0.17711326512504971 0 0.3501700091587146 0.1647017280484836 0 0.35139351625075171 0.18342556379614861 0 0.35747856821933782 0.1739819090105644 0 0.35139351625075171 0.18342556379614861 0 0.34514090669745418 0.17711326512504971 0 0.34627599317980601 0.17250239170376511 0 0.35139351625075171 0.18342556379614861 0 0.34627599317980601 0.17250239170376511 0 0.35139351625075171 0.18342556379614861 0 0.35747856821933782 0.1739819090105644 0 0.3606497796283894 0.18287230419915931 0 0.3606497796283894 0.18287230419915931 0 0.36696604247152492 0.1743907929428242 0 0.36985258259709092 0.18631356824788611 0 0.35747856821933782 0.1739819090105644 0 0.3606497796283894 0.18287230419915931 0 0.36696604247152492 0.1743907929428242 0 0.35747856821933782 0.1739819090105644 0 0.36696604247152492 0.1743907929428242 0 0.36140259866133401 0.16784051670594649 0 0.36696604247152492 0.1743907929428242 0 0.36985258259709092 0.18631356824788611 0 0.38210163403596009 0.17718187998586671 0 0.36256009460767441 0.1608608808615497 0 0.37032751572771372 0.15583066665228429 0 0.36313889922033371 0.15353416452359439 0 0.36256009460767441 0.1608608808615497 0 0.36140259866133401 0.16784051670594649 0 0.36933128657331771 0.16513803789021839 0 0.36696604247152492 0.1743907929428242 0 0.36140259866133401 0.16784051670594649 0 0.36933128657331771 0.16513803789021839 0 0.36933128657331771 0.16513803789021839 0 0.37828477377907038 0.16203102217992721 0 0.3765875575594273 0.16939345358271191 0 0.36696604247152492 0.1743907929428242 0 0.36933128657331771 0.16513803789021839 0 0.3765875575594273 0.16939345358271191 0 0.36933128657331771 0.16513803789021839 0 0.37032751572771372 0.15583066665228429 0 0.37828477377907038 0.16203102217992721 0 0.36256009460767441 0.1608608808615497 0 0.36933128657331771 0.16513803789021839 0 0.37032751572771372 0.15583066665228429 0 0.36080562997394727 0.14250850356349479 0 0.37854507616054878 0.15099410779794459 0 0.36080562997394727 0.14250850356349479 0 0.37499003855381302 0.13726283652907731 0 0.37854507616054878 0.15099410779794459 0 0.36723403462800469 0.14680481054856739 0 0.37854507616054878 0.15099410779794459 0 0.36723403462800469 0.14680481054856739 0 0.36080562997394727 0.14250850356349479 0 0.37854507616054878 0.15099410779794459 0 0.37032751572771372 0.15583066665228429 0 0.36723403462800469 0.14680481054856739 0 0.37854507616054878 0.15099410779794459 0 0.36723403462800469 0.14680481054856739 0 0.36080562997394727 0.14250850356349479 0 0.36313889922033371 0.15353416452359439 0 0.37032751572771372 0.15583066665228429 0 0.36723403462800469 0.14680481054856739 0 0.36313889922033371 0.15353416452359439 0 0.34321379296915311 0.13409350768316261 0 0.34736784138561189 0.15872946413568309 0 0.36080562997394727 0.14250850356349479 0 0.3501700091587146 0.1647017280484836 0 0.36080562997394727 0.14250850356349479 0 0.3501700091587146 0.1647017280484836 0 0.36080562997394727 0.14250850356349479 0 0.36313889922033371 0.15353416452359439 0 0.34321379296915311 0.13409350768316261 0 0.34736784138561189 0.15872946413568309 0 0.34736784138561189 0.15872946413568309 0 0.3501700091587146 0.1647017280484836 0 0.36080562997394727 0.14250850356349479 0 0.34321379296915311 0.13409350768316261 0 0.36080562997394727 0.14250850356349479 0 0.35399869438917481 0.1219080370722023 0 0.34321379296915311 0.13409350768316261 0 0.36080562997394727 0.14250850356349479 0 0.35399869438917481 0.1219080370722023 0 0.37024643177976341 0.1228084938099806 0 0.36080562997394727 0.14250850356349479 0 0.37024643177976341 0.1228084938099806 0 0.36080562997394727 0.14250850356349479 0 0.37499003855381302 0.13726283652907731 0 0.37024643177976341 0.1228084938099806 0 0.36080562997394727 0.14250850356349479 0 0.38752175601251521 0.13961595134488011 0 0.38336316861955078 0.12660846451652299 0 0.39574100909009341 0.1208397880668846 0 0.37024643177976341 0.1228084938099806 0 0.37499003855381302 0.13726283652907731 0 0.38336316861955078 0.12660846451652299 0 0.37499003855381302 0.13726283652907731 0 0.38752175601251521 0.13961595134488011 0 0.38336316861955078 0.12660846451652299 0 0.40200111142085521 0.14024164487536389 0 0.42024075907098862 0.1234839746754401 0 0.39574100909009341 0.1208397880668846 0 0.40200111142085521 0.14024164487536389 0 0.39574100909009341 0.1208397880668846 0 0.38752175601251521 0.13961595134488011 0 0.40200111142085521 0.14024164487536389 0 0.39574100909009341 0.1208397880668846 0 0.40200111142085521 0.14024164487536389 0 0.3869211347148257 0.15409636844839819 0 0.40912479590572648 0.16231999104632711 0 0.40200111142085521 0.14024164487536389 0 0.40912479590572648 0.16231999104632711 0 0.38752175601251521 0.13961595134488011 0 0.40200111142085521 0.14024164487536389 0 0.3869211347148257 0.15409636844839819 0 0.40200111142085521 0.14024164487536389 0 0.3869211347148257 0.15409636844839819 0 0.38752175601251521 0.13961595134488011 0 0.3869211347148257 0.15409636844839819 0 0.37854507616054878 0.15099410779794459 0 0.37499003855381302 0.13726283652907731 0 0.38752175601251521 0.13961595134488011 0 0.37854507616054878 0.15099410779794459 0 0.3869211347148257 0.15409636844839819 0 0.37854507616054878 0.15099410779794459 0 0.38246564449786719 0.15286949843498271 0 0.37854507616054878 0.15099410779794459 0 0.37828477377907038 0.16203102217992721 0 0.3869211347148257 0.15409636844839819 0 0.38246564449786719 0.15286949843498271 0 0.37854507616054878 0.15099410779794459 0 0.38246564449786719 0.15286949843498271 0 0.37854507616054878 0.15099410779794459 0 0.37032751572771372 0.15583066665228429 0 0.37854507616054878 0.15099410779794459 0 0.37828477377907038 0.16203102217992721 0 0.3869211347148257 0.15409636844839819 0 0.38246564449786719 0.15286949843498271 0 0.37828477377907038 0.16203102217992721 0 0.3869211347148257 0.15409636844839819 0 0.37828477377907038 0.16203102217992721 0 0.3765875575594273 0.16939345358271191 0 0.38748237949609232 0.16403213560662031 0 0.38210163403596009 0.17718187998586671 0 0.37828477377907038 0.16203102217992721 0 0.3765875575594273 0.16939345358271191 0 0.38748237949609232 0.16403213560662031 0 0.38748237949609232 0.16403213560662031 0 0.38210163403596009 0.17718187998586671 0 0.39336406162745219 0.17136740534701461 0 0.3869211347148257 0.15409636844839819 0 0.37828477377907038 0.16203102217992721 0 0.38748237949609232 0.16403213560662031 0 0.36985258259709092 0.18631356824788611 0 0.38210163403596009 0.17718187998586671 0 0.38440209092165972 0.19148650078321791 0 0.36696604247152492 0.1743907929428242 0 0.3765875575594273 0.16939345358271191 0 0.38210163403596009 0.17718187998586671 0 0.38210163403596009 0.17718187998586671 0 0.3971317681530247 0.1826603854722694 0 0.38440209092165972 0.19148650078321791 0 0.3971317681530247 0.1826603854722694 0 0.41556327404340632 0.1822746857608103 0 0.40344022044588579 0.1941084061363253 0 0.3971317681530247 0.1826603854722694 0 0.39336406162745219 0.17136740534701461 0 0.40912479590572648 0.16231999104632711 0 0.38210163403596009 0.17718187998586671 0 0.3971317681530247 0.1826603854722694 0 0.39336406162745219 0.17136740534701461 0 0.3869211347148257 0.15409636844839819 0 0.38748237949609232 0.16403213560662031 0 0.40912479590572648 0.16231999104632711 0 0.3869211347148257 0.15409636844839819 0 0.40912479590572648 0.16231999104632711 0 0.38748237949609232 0.16403213560662031 0 0.39336406162745219 0.17136740534701461 0 0.40912479590572648 0.16231999104632711 0 0.40912479590572648 0.16231999104632711 0 0.4244927912928475 0.168011871906146 0 0.41995767490706309 0.14652725333721889 0 0.40912479590572648 0.16231999104632711 0 0.41556327404340632 0.1822746857608103 0 0.4244927912928475 0.168011871906146 0 0.40912479590572648 0.16231999104632711 0 0.4244927912928475 0.168011871906146 0 0.3971317681530247 0.1826603854722694 0 0.40912479590572648 0.16231999104632711 0 0.41556327404340632 0.1822746857608103 0 0.40912479590572648 0.16231999104632711 0 0.41556327404340632 0.1822746857608103 0 0.42798445754862358 0.18372281650691261 0 0.4244927912928475 0.168011871906146 0 0.43986078667996847 0.17370375276596511 0 0.41556327404340632 0.1822746857608103 0 0.42798445754862358 0.18372281650691261 0 0.4244927912928475 0.168011871906146 0 0.42798445754862358 0.18372281650691261 0 0.43800368354580899 0.19239439162634811 0 0.43986078667996847 0.17370375276596511 0 0.4244927912928475 0.168011871906146 0 0.44344292902218507 0.16160964081929399 0 0.43986078667996847 0.17370375276596511 0 0.4244927912928475 0.168011871906146 0 0.43663800479356057 0.14934831331516621 0 0.44344292902218507 0.16160964081929399 0 0.4244927912928475 0.168011871906146 0 0.43986078667996847 0.17370375276596511 0 0.4244927912928475 0.168011871906146 0 0.43663800479356057 0.14934831331516621 0 0.41995767490706309 0.14652725333721889 0 0.43663800479356057 0.14934831331516621 0 0.43547908869100882 0.13002271502298279 0 0.41995767490706309 0.14652725333721889 0 0.43547908869100882 0.13002271502298279 0 0.41995767490706309 0.14652725333721889 0 0.42024075907098862 0.1234839746754401 0 0.40200111142085521 0.14024164487536389 0 0.42024075907098862 0.1234839746754401 0 0.40200111142085521 0.14024164487536389 0 0.41995767490706309 0.14652725333721889 0 0.42024075907098862 0.1234839746754401 0 0.40200111142085521 0.14024164487536389 0 0.40912479590572648 0.16231999104632711 0 0.41995767490706309 0.14652725333721889 0 0.38663851201382071 0.25865476135483972 0 0.40418435892776822 0.24441781281166741 0 0.39125283132328131 0.24410893159101729 0 0.40418435892776822 0.24441781281166741 0 0.39569945943031198 0.23196202613029079 0 0.41166679002056011 0.23133525318919651 0 0.40418435892776822 0.24441781281166741 0 0.39125283132328131 0.24410893159101729 0 0.39569945943031198 0.23196202613029079 0 0.38058004259589451 0.26049308008921862 0 0.36932371894765859 0.24662362348609121 0 0.378588973601656 0.2414733061622891 0 0.39125283132328131 0.24410893159101729 0 0.378588973601656 0.2414733061622891 0 0.39569945943031198 0.23196202613029079 0 0.38663851201382071 0.25865476135483972 0 0.39125283132328131 0.24410893159101729 0 0.378588973601656 0.2414733061622891 0 0.378588973601656 0.2414733061622891 0 0.39569945943031198 0.23196202613029079 0 0.36858363692406482 0.22011726870885909 0 0.378588973601656 0.2414733061622891 0 0.3788429030020144 0.2211471702813016 0 0.378588973601656 0.2414733061622891 0 0.38625836140698078 0.2281332280556595 0 0.3788429030020144 0.2211471702813016 0 0.378588973601656 0.2414733061622891 0 0.38625836140698078 0.2281332280556595 0 0.39569945943031198 0.23196202613029079 0 0.38625836140698078 0.2281332280556595 0 0.3788429030020144 0.2211471702813016 0 0.38974613929147123 0.2185609016920784 0 0.38625836140698078 0.2281332280556595 0 0.39569945943031198 0.23196202613029079 0 0.38974613929147123 0.2185609016920784 0 0.39569945943031198 0.23196202613029079 0 0.41280994525896808 0.22245074609829271 0 0.39569945943031198 0.23196202613029079 0 0.40053570215891798 0.2187732742664473 0 0.41280994525896808 0.22245074609829271 0 0.39569945943031198 0.23196202613029079 0 0.40053570215891798 0.2187732742664473 0 0.38974613929147123 0.2185609016920784 0 0.40053570215891798 0.2187732742664473 0 0.39629953406111501 0.2094712172205174 0 0.40701743082119468 0.2094066048393752 0 0.39629953406111501 0.2094712172205174 0 0.40344022044588579 0.1941084061363253 0 0.40701743082119468 0.2094066048393752 0 0.40053570215891798 0.2187732742664473 0 0.39629953406111501 0.2094712172205174 0 0.38974613929147123 0.2185609016920784 0 0.39629953406111501 0.2094712172205174 0 0.38974613929147123 0.2185609016920784 0 0.38502767194033161 0.21082856139952 0 0.3788429030020144 0.2211471702813016 0 0.38974613929147123 0.2185609016920784 0 0.38502767194033161 0.21082856139952 0 0.3788429030020144 0.2211471702813016 0 0.37584758221803538 0.21041255236408449 0 0.38502767194033161 0.21082856139952 0 0.37584758221803538 0.21041255236408449 0 0.38502767194033161 0.21082856139952 0 0.37917879747998751 0.20263305225437009 0 0.37113646064022188 0.20010486602238239 0 0.37584758221803538 0.21041255236408449 0 0.37917879747998751 0.20263305225437009 0 0.38502767194033161 0.21082856139952 0 0.39022933379216718 0.20123720977384921 0 0.37917879747998751 0.20263305225437009 0 0.39629953406111501 0.2094712172205174 0 0.38502767194033161 0.21082856139952 0 0.39022933379216718 0.20123720977384921 0 0.39022933379216718 0.20123720977384921 0 0.37917879747998751 0.20263305225437009 0 0.38440209092165972 0.19148650078321791 0 0.37113646064022188 0.20010486602238239 0 0.37917879747998751 0.20263305225437009 0 0.38440209092165972 0.19148650078321791 0 0.37113646064022188 0.20010486602238239 0 0.36985258259709092 0.18631356824788611 0 0.38440209092165972 0.19148650078321791 0 0.39022933379216718 0.20123720977384921 0 0.38440209092165972 0.19148650078321791 0 0.40344022044588579 0.1941084061363253 0 0.3971317681530247 0.1826603854722694 0 0.38440209092165972 0.19148650078321791 0 0.40344022044588579 0.1941084061363253 0 0.39629953406111501 0.2094712172205174 0 0.39022933379216718 0.20123720977384921 0 0.40344022044588579 0.1941084061363253 0 0.40344022044588579 0.1941084061363253 0 0.42200175218108649 0.2022293804752934 0 0.40701743082119468 0.2094066048393752 0 0.41556327404340632 0.1822746857608103 0 0.42798445754862358 0.18372281650691261 0 0.42200175218108649 0.2022293804752934 0 0.41556327404340632 0.1822746857608103 0 0.42200175218108649 0.2022293804752934 0 0.41556327404340632 0.1822746857608103 0 0.40344022044588579 0.1941084061363253 0 0.42200175218108649 0.2022293804752934 0 0.42200175218108649 0.2022293804752934 0 0.44916797862295449 0.2108755236412265 0 0.43800368354580899 0.19239439162634811 0 0.42798445754862358 0.18372281650691261 0 0.42200175218108649 0.2022293804752934 0 0.43800368354580899 0.19239439162634811 0 0.42200175218108649 0.2022293804752934 0 0.42844023031876682 0.22218407518977651 0 0.42200175218108649 0.2022293804752934 0 0.42844023031876682 0.22218407518977651 0 0.44916797862295449 0.2108755236412265 0 0.42200175218108649 0.2022293804752934 0 0.40701743082119468 0.2094066048393752 0 0.41280994525896808 0.22245074609829271 0 0.42200175218108649 0.2022293804752934 0 0.41280994525896808 0.22245074609829271 0 0.42844023031876682 0.22218407518977651 0 0.40053570215891798 0.2187732742664473 0 0.40701743082119468 0.2094066048393752 0 0.41280994525896808 0.22245074609829271 0 0.39569945943031198 0.23196202613029079 0 0.41280994525896808 0.22245074609829271 0 0.41166679002056011 0.23133525318919651 0 0.41166679002056011 0.23133525318919651 0 0.42844023031876682 0.22218407518977651 0 0.41280994525896808 0.22245074609829271 0 0.41166679002056011 0.23133525318919651 0 0.42844023031876682 0.22218407518977651 0 0.41166679002056011 0.23133525318919651 0 0.42844023031876682 0.22218407518977651 0 0.41887843647872591 0.24294735935182671 0 0.43761662228966258 0.25062435198252192 0 0.42844023031876682 0.22218407518977651 0 0.43761662228966258 0.25062435198252192 0 0.42844023031876682 0.22218407518977651 0 0.41887843647872591 0.24294735935182671 0 0.40418435892776822 0.24441781281166741 0 0.41166679002056011 0.23133525318919651 0 0.41887843647872591 0.24294735935182671 0 0.41412833772902058 0.2567079335919053 0 0.40418435892776822 0.24441781281166741 0 0.41887843647872591 0.24294735935182671 0 0.46647269560223498 0.24648431199759091 0 0.46818421126468918 0.22302564204513389 0 0.45330158921245622 0.2573151343135 0 0.46647269560223498 0.24648431199759091 0 0.4498822179662062 0.23348212117260461 0 0.43761662228966258 0.25062435198252192 0 0.45330158921245622 0.2573151343135 0 0.4498822179662062 0.23348212117260461 0 0.43761662228966258 0.25062435198252192 0 0.42844023031876682 0.22218407518977651 0 0.4498822179662062 0.23348212117260461 0 0.42844023031876682 0.22218407518977651 0 0.4498822179662062 0.23348212117260461 0 0.44916797862295449 0.2108755236412265 0 0.46647269560223498 0.24648431199759091 0 0.4498822179662062 0.23348212117260461 0 0.46818421126468918 0.22302564204513389 0 0.4498822179662062 0.23348212117260461 0 0.46818421126468918 0.22302564204513389 0 0.44916797862295449 0.2108755236412265 0 0.46818421126468918 0.22302564204513389 0 0.44916797862295449 0.2108755236412265 0 0.46989572692714249 0.1995669720926769 0 0.44916797862295449 0.2108755236412265 0 0.46989572692714249 0.1995669720926769 0 0.42844023031876682 0.22218407518977651 0 0.44916797862295449 0.2108755236412265 0 0.44916797862295449 0.2108755236412265 0 0.43800368354580899 0.19239439162634811 0 0.455326578203119 0.18620163650020469 0 0.44916797862295449 0.2108755236412265 0 0.46989572692714249 0.1995669720926769 0 0.455326578203119 0.18620163650020469 0 0.48328074349891859 0.19226443504626001 0 0.48761145822131302 0.19476228080229729 0 0.48138454890643179 0.17913508028345609 0 0.48328074349891859 0.19226443504626001 0 0.48761145822131302 0.19476228080229729 0 0.48069283500606791 0.2047006821103956 0 0.46989572692714249 0.1995669720926769 0 0.48328074349891859 0.19226443504626001 0 0.48069283500606791 0.2047006821103956 0 0.46989572692714249 0.1995669720926769 0 0.48328074349891859 0.19226443504626001 0 0.46989572692714249 0.1995669720926769 0 0.48328074349891859 0.19226443504626001 0 0.47657566991999389 0.18630810245028251 0 0.5 0.1931052637010541 0 0.48761145822131302 0.19476228080229729 0 0.5 0.2207350369205221 0 0.48761145822131302 0.19476228080229729 0 0.48586639529002729 0.2225756789427632 0 0.48761145822131302 0.19476228080229729 0 0.5 0.2207350369205221 0 0.48586639529002729 0.2225756789427632 0 0.48761145822131302 0.19476228080229729 0 0.48069283500606791 0.2047006821103956 0 0.48586639529002729 0.2225756789427632 0 0.46818421126468918 0.22302564204513389 0 0.46989572692714249 0.1995669720926769 0 0.47657294913559212 0.2136537230155614 0 0.47657294913559212 0.2136537230155614 0 0.48069283500606791 0.2047006821103956 0 0.48586639529002729 0.2225756789427632 0 0.46818421126468918 0.22302564204513389 0 0.46989572692714249 0.1995669720926769 0 0.46989572692714249 0.1995669720926769 0 0.47657294913559212 0.2136537230155614 0 0.48069283500606791 0.2047006821103956 0 0.46818421126468918 0.22302564204513389 0 0.47657294913559212 0.2136537230155614 0 0.48586639529002729 0.2225756789427632 0 0.46818421126468918 0.22302564204513389 0 0.48586639529002729 0.2225756789427632 0 0.47616115862892328 0.2356186775171793 0 0.5 0.2207350369205221 0 0.48586639529002729 0.2225756789427632 0 0.5 0.24836481013999009 0 0.48412133235874172 0.25038907708322911 0 0.48586639529002729 0.2225756789427632 0 0.48412133235874172 0.25038907708322911 0 0.48586639529002729 0.2225756789427632 0 0.5 0.24836481013999009 0 0.48412133235874172 0.25038907708322911 0 0.46647269560223498 0.24648431199759091 0 0.47616115862892328 0.2356186775171793 0 0.48412133235874172 0.25038907708322911 0 0.48586639529002729 0.2225756789427632 0 0.47616115862892328 0.2356186775171793 0 0.46647269560223498 0.24648431199759091 0 0.46818421126468918 0.22302564204513389 0 0.47616115862892328 0.2356186775171793 0 0.4590664042670965 0.14589871250329001 0 0.4635247455507191 0.15422310313114951 0 0.4563796429463759 0.15937652171506289 0 0.4590664042670965 0.14589871250329001 0 0.44920008767933822 0.15039802850042161 0 0.4563796429463759 0.15937652171506289 0 0.4635247455507191 0.15422310313114951 0 0.46506534122158288 0.16265230564144811 0 0.47358759376782111 0.14896487266479719 0 0.4590664042670965 0.14589871250329001 0 0.4635247455507191 0.15422310313114951 0 0.47358759376782111 0.14896487266479719 0 0.4590664042670965 0.14589871250329001 0 0.46619005819430909 0.13519224431625401 0 0.47358759376782111 0.14896487266479719 0 0.45047345736747307 0.13575695414929481 0 0.46115533931384189 0.12176959511985019 0 0.44816107712235648 0.1189491540819143 0 0.4590664042670965 0.14589871250329001 0 0.46619005819430909 0.13519224431625401 0 0.45047345736747307 0.13575695414929481 0 0.46619005819430909 0.13519224431625401 0 0.45047345736747307 0.13575695414929481 0 0.46115533931384189 0.12176959511985019 0 0.46619005819430909 0.13519224431625401 0 0.47077760242136663 0.1239263104772973 0 0.46115533931384189 0.12176959511985019 0 0.43547908869100882 0.13002271502298279 0 0.45047345736747307 0.13575695414929481 0 0.44816107712235648 0.1189491540819143 0 0.43663800479356057 0.14934831331516621 0 0.43547908869100882 0.13002271502298279 0 0.45047345736747307 0.13575695414929481 0 0.43663800479356057 0.14934831331516621 0 0.45047345736747307 0.13575695414929481 0 0.44920008767933822 0.15039802850042161 0 0.4590664042670965 0.14589871250329001 0 0.45047345736747307 0.13575695414929481 0 0.44920008767933822 0.15039802850042161 0 0.43663800479356057 0.14934831331516621 0 0.44920008767933822 0.15039802850042161 0 0.44344292902218507 0.16160964081929399 0 0.44344292902218507 0.16160964081929399 0 0.43986078667996847 0.17370375276596511 0 0.45702888781230711 0.17150068748276309 0 0.44344292902218507 0.16160964081929399 0 0.4563796429463759 0.15937652171506289 0 0.45702888781230711 0.17150068748276309 0 0.44920008767933822 0.15039802850042161 0 0.44344292902218507 0.16160964081929399 0 0.4563796429463759 0.15937652171506289 0 0.43800368354580899 0.19239439162634811 0 0.43986078667996847 0.17370375276596511 0 0.455326578203119 0.18620163650020469 0 0.43986078667996847 0.17370375276596511 0 0.455326578203119 0.18620163650020469 0 0.45702888781230711 0.17150068748276309 0 0.46989572692714249 0.1995669720926769 0 0.455326578203119 0.18620163650020469 0 0.47174166034748222 0.17426592237873709 0 0.455326578203119 0.18620163650020469 0 0.45702888781230711 0.17150068748276309 0 0.47174166034748222 0.17426592237873709 0 0.4563796429463759 0.15937652171506289 0 0.45702888781230711 0.17150068748276309 0 0.46506534122158288 0.16265230564144811 0 0.45702888781230711 0.17150068748276309 0 0.46506534122158288 0.16265230564144811 0 0.47174166034748222 0.17426592237873709 0 0.4635247455507191 0.15422310313114951 0 0.4563796429463759 0.15937652171506289 0 0.46506534122158288 0.16265230564144811 0 0.47174166034748222 0.17426592237873709 0 0.47358759376782111 0.14896487266479719 0 0.47839674202618648 0.1635659757520021 0 0.47174166034748222 0.17426592237873709 0 0.47358759376782111 0.14896487266479719 0 0.46506534122158288 0.16265230564144811 0 0.47174166034748222 0.17426592237873709 0 0.47358759376782111 0.14896487266479719 0 0.47839674202618648 0.1635659757520021 0 0.48138454890643179 0.17913508028345609 0 0.48935652115259859 0.16694888266183139 0 0.47839674202618648 0.1635659757520021 0 0.48935652115259859 0.16694888266183139 0 0.48409843476034958 0.1515260014210279 0 0.46989572692714249 0.1995669720926769 0 0.47174166034748222 0.17426592237873709 0 0.46989572692714249 0.1995669720926769 0 0.47174166034748222 0.17426592237873709 0 0.47657566991999389 0.18630810245028251 0 0.47839674202618648 0.1635659757520021 0 0.47174166034748222 0.17426592237873709 0 0.48138454890643179 0.17913508028345609 0 0.47174166034748222 0.17426592237873709 0 0.48138454890643179 0.17913508028345609 0 0.47657566991999389 0.18630810245028251 0 0.48328074349891859 0.19226443504626001 0 0.48138454890643179 0.17913508028345609 0 0.47657566991999389 0.18630810245028251 0 0.48761145822131302 0.19476228080229729 0 0.48138454890643179 0.17913508028345609 0 0.48935652115259859 0.16694888266183139 0 0.5 0.1931052637010541 0 0.48761145822131302 0.19476228080229729 0 0.48935652115259859 0.16694888266183139 0 0.48761145822131302 0.19476228080229729 0 0.48935652115259859 0.16694888266183139 0 0.5 0.1931052637010541 0 0.5 0.16547549048158611 0 0.48935652115259859 0.16694888266183139 0 0.5 0.16547549048158611 0 0.48935652115259859 0.16694888266183139 0 0.49110158408388438 0.13913548452136559 0 0.48935652115259859 0.16694888266183139 0 0.48409843476034958 0.1515260014210279 0 0.49110158408388438 0.13913548452136559 0 0.5 0.16547549048158611 0 0.5 0.137845717262118 0 0.49110158408388438 0.13913548452136559 0 0.48935652115259859 0.16694888266183139 0 0.49110158408388438 0.13913548452136559 0 0.48409843476034958 0.1515260014210279 0 0.47851166698882658 0.1377814271866506 0 0.49110158408388438 0.13913548452136559 0 0.47839674202618648 0.1635659757520021 0 0.48409843476034958 0.1515260014210279 0 0.47851166698882658 0.1377814271866506 0 0.47839674202618648 0.1635659757520021 0 0.47851166698882658 0.1377814271866506 0 0.47839674202618648 0.1635659757520021 0 0.47358759376782111 0.14896487266479719 0 0.47851166698882658 0.1377814271866506 0 0.46619005819430909 0.13519224431625401 0 0.47358759376782111 0.14896487266479719 0 0.47851166698882658 0.1377814271866506 0 0.46619005819430909 0.13519224431625401 0 0.47851166698882658 0.1377814271866506 0 0.47077760242136663 0.1239263104772973 0 0.48527162250983691 0.12505896917755371 0 0.49110158408388438 0.13913548452136559 0 0.49284664701517 0.1113220863808996 0 0.5 0.137845717262118 0 0.49110158408388438 0.13913548452136559 0 0.49284664701517 0.1113220863808996 0 0.49110158408388438 0.13913548452136559 0 0.49284664701517 0.1113220863808996 0 0.47851166698882658 0.1377814271866506 0 0.48527162250983691 0.12505896917755371 0 0.49110158408388438 0.13913548452136559 0 0.5 0.137845717262118 0 0.5 0.11021594404264989 0 0.49284664701517 0.1113220863808996 0 0.48527162250983691 0.12505896917755371 0 0.49284664701517 0.1113220863808996 0 0.47862659195146662 0.11199687862129901 0 0.49284664701517 0.1113220863808996 0 0.4945917099464559 0.083508688240433684 0 0.5 0.11021594404264989 0 0.49284664701517 0.1113220863808996 0 0.4945917099464559 0.083508688240433684 0 0.49284664701517 0.1113220863808996 0 0.48541798349298959 0.098906037704802288 0 0.4945917099464559 0.083508688240433684 0 0.49284664701517 0.1113220863808996 0 0.48541798349298959 0.098906037704802288 0 0.47862659195146662 0.11199687862129901 0 0.47862659195146662 0.11199687862129901 0 0.47874151691410399 0.086212330055947334 0 0.47461186650072801 0.09709608173364323 0 0.47443907984933797 0.1051131441074387 0 0.46714403903665319 0.088190566288148031 0 0.47443907984933797 0.1051131441074387 0 0.46714403903665319 0.088190566288148031 0 0.48541798349298959 0.098906037704802288 0 0.47862659195146662 0.11199687862129901 0 0.47874151691410399 0.086212330055947334 0 0.47461186650072801 0.09709608173364323 0 0.47862659195146662 0.11199687862129901 0 0.47874151691410399 0.086212330055947334 0 0.47461186650072801 0.09709608173364323 0 0.47443907984933797 0.1051131441074387 0 0.47862659195146662 0.11199687862129901 0 0.46923729426835409 0.1130920480566765 0 0.47077760242136663 0.1239263104772973 0 0.47862659195146662 0.11199687862129901 0 0.47443907984933797 0.1051131441074387 0 0.46923729426835409 0.1130920480566765 0 0.47862659195146662 0.11199687862129901 0 0.47851166698882658 0.1377814271866506 0 0.47077760242136663 0.1239263104772973 0 0.47862659195146662 0.11199687862129901 0 0.47851166698882658 0.1377814271866506 0 0.48527162250983691 0.12505896917755371 0 0.47862659195146662 0.11199687862129901 0 0.47851166698882658 0.1377814271866506 0 0.47862659195146662 0.11199687862129901 0 0.49999999999999722 0.08258617082318187 0 0.4945917099464559 0.083508688240433684 0 0.49639447329763597 0.054775641460008358 0 0.4945917099464559 0.083508688240433684 0 0.49639447329763597 0.054775641460008358 0 0.4945917099464559 0.083508688240433684 0 0.4819140069428729 0.062282020943584468 0 0.49639447329763597 0.054775641460008358 0 0.4945917099464559 0.083508688240433684 0 0.47878599972034208 0.076232173862272129 0 0.4819140069428729 0.062282020943584468 0 0.49999999999999722 0.08258617082318187 0 0.49639447329763597 0.054775641460008358 0 0.5 0.054160629848507218 0 0.4945917099464559 0.083508688240433684 0 0.47874151691410399 0.086212330055947334 0 0.48541798349298959 0.098906037704802288 0 0.4945917099464559 0.083508688240433684 0 0.47874151691410399 0.086212330055947334 0 0.5 0.11021594404264989 0 0.49999999999999722 0.08258617082318187 0 0.4945917099464559 0.083508688240433684 0 0.49999999999999722 0.08258617082318187 0 0.4945917099464559 0.083508688240433684 0 0.4945917099464559 0.083508688240433684 0 0.47874151691410399 0.086212330055947334 0 0.47878599972034208 0.076232173862272129 0 0.47874151691410399 0.086212330055947334 0 0.46714403903665319 0.088190566288148031 0 0.47874151691410399 0.086212330055947334 0 0.47040151400564473 0.083410484277634228 0 0.46714403903665319 0.088190566288148031 0 0.47461186650072801 0.09709608173364323 0 0.47874151691410399 0.086212330055947334 0 0.46714403903665319 0.088190566288148031 0 0.47874151691410399 0.086212330055947334 0 0.47040151400564473 0.083410484277634228 0 0.47357737158905061 0.080264540505065485 0 0.47357737158905061 0.080264540505065485 0 0.47274933190748458 0.076062332782640324 0 0.46780881589218448 0.079780838323736294 0 0.47040151400564473 0.083410484277634228 0 0.47357737158905061 0.080264540505065485 0 0.46780881589218448 0.079780838323736294 0 0.47874151691410399 0.086212330055947334 0 0.47878599972034208 0.076232173862272129 0 0.47874151691410399 0.086212330055947334 0 0.47357737158905061 0.080264540505065485 0 0.47878599972034208 0.076232173862272129 0 0.47878599972034208 0.076232173862272129 0 0.47274933190748458 0.076062332782640324 0 0.47082514042836132 0.067971778439487388 0 0.47274933190748458 0.076062332782640324 0 0.47082514042836132 0.067971778439487388 0 0.46780881589218448 0.079780838323736294 0 0.47357737158905061 0.080264540505065485 0 0.47878599972034208 0.076232173862272129 0 0.47274933190748458 0.076062332782640324 0 0.47878599972034208 0.076232173862272129 0 0.47082514042836132 0.067971778439487388 0 0.4819140069428729 0.062282020943584468 0 0.456247829584146 0.062914223478015868 0 0.45400944014466782 0.078973734162567144 0 0.46473582659623103 0.082604146215274371 0 0.456247829584146 0.062914223478015868 0 0.46780881589218448 0.079780838323736294 0 0.46473582659623103 0.082604146215274371 0 0.456247829584146 0.062914223478015868 0 0.46473582659623103 0.082604146215274371 0 0.47082514042836132 0.067971778439487388 0 0.456247829584146 0.062914223478015868 0 0.46780881589218448 0.079780838323736294 0 0.45400944014466782 0.078973734162567144 0 0.46473582659623103 0.082604146215274371 0 0.45672005437125429 0.089968634275591736 0 0.47040151400564473 0.083410484277634228 0 0.46780881589218448 0.079780838323736294 0 0.46473582659623103 0.082604146215274371 0 0.46780881589218448 0.079780838323736294 0 0.46473582659623103 0.082604146215274371 0 0.47040151400564473 0.083410484277634228 0 0.46473582659623103 0.082604146215274371 0 0.46714403903665319 0.088190566288148031 0 0.46473582659623103 0.082604146215274371 0 0.46714403903665319 0.088190566288148031 0 0.46473582659623103 0.082604146215274371 0 0.46714403903665319 0.088190566288148031 0 0.45672005437125429 0.089968634275591736 0 0.46714403903665319 0.088190566288148031 0 0.45672005437125429 0.089968634275591736 0 0.46714403903665319 0.088190566288148031 0 0.45672005437125429 0.089968634275591736 0 0.46304209408661079 0.095587291200544974 0 0.46473582659623103 0.082604146215274371 0 0.45672005437125429 0.089968634275591736 0 0.45672005437125429 0.089968634275591736 0 0.44292045171840128 0.076678174609247612 0 0.43430700516728021 0.093791733269861621 0 0.45672005437125429 0.089968634275591736 0 0.43430700516728021 0.093791733269861621 0 0.45400944014466782 0.078973734162567144 0 0.45672005437125429 0.089968634275591736 0 0.44292045171840128 0.076678174609247612 0 0.456247829584146 0.062914223478015868 0 0.45400944014466782 0.078973734162567144 0 0.44292045171840128 0.076678174609247612 0 0.456247829584146 0.062914223478015868 0 0.44292045171840128 0.076678174609247612 0 0.43751795476330879 0.055763835413043923 0 0.46115533931384189 0.12176959511985019 0 0.46038596313359148 0.1036173883458672 0 0.44816107712235648 0.1189491540819143 0 0.46923729426835409 0.1130920480566765 0 0.46115533931384189 0.12176959511985019 0 0.46038596313359148 0.1036173883458672 0 0.46923729426835409 0.1130920480566765 0 0.47077760242136663 0.1239263104772973 0 0.46115533931384189 0.12176959511985019 0 0.47443907984933797 0.1051131441074387 0 0.46923729426835409 0.1130920480566765 0 0.46038596313359148 0.1036173883458672 0 0.47443907984933797 0.1051131441074387 0 0.46714403903665319 0.088190566288148031 0 0.46304209408661079 0.095587291200544974 0 0.47443907984933797 0.1051131441074387 0 0.46304209408661079 0.095587291200544974 0 0.46038596313359148 0.1036173883458672 0 0.45672005437125429 0.089968634275591736 0 0.46304209408661079 0.095587291200544974 0 0.46038596313359148 0.1036173883458672 0 0.45672005437125429 0.089968634275591736 0 0.43848040672112221 0.10672630447551661 0 0.43430700516728021 0.093791733269861621 0 0.45672005437125429 0.089968634275591736 0 0.43848040672112221 0.10672630447551661 0 0.45672005437125429 0.089968634275591736 0 0.46038596313359148 0.1036173883458672 0 0.43848040672112221 0.10672630447551661 0 0.43547908869100882 0.13002271502298279 0 0.43848040672112221 0.10672630447551661 0 0.44816107712235648 0.1189491540819143 0 0.46038596313359148 0.1036173883458672 0 0.43848040672112221 0.10672630447551661 0 0.44816107712235648 0.1189491540819143 0 0.43848040672112221 0.10672630447551661 0 0.42024075907098862 0.1234839746754401 0 0.42515003671080059 0.10456687022217841 0 0.43848040672112221 0.10672630447551661 0 0.42024075907098862 0.1234839746754401 0 0.43547908869100882 0.13002271502298279 0 0.43848040672112221 0.10672630447551661 0 0.42024075907098862 0.1234839746754401 0 0.42024075907098862 0.1234839746754401 0 0.41189395596330619 0.097614832264133145 0 0.39574100909009341 0.1208397880668846 0 0.42024075907098862 0.1234839746754401 0 0.41189395596330619 0.097614832264133145 0 0.42515003671080059 0.10456687022217841 0 0.41189395596330619 0.097614832264133145 0 0.42515003671080059 0.10456687022217841 0 0.43430700516728021 0.093791733269861621 0 0.41189395596330619 0.097614832264133145 0 0.43430700516728021 0.093791733269861621 0 0.43848040672112221 0.10672630447551661 0 0.42515003671080059 0.10456687022217841 0 0.43430700516728021 0.093791733269861621 0 0.41189395596330619 0.097614832264133145 0 0.43430700516728021 0.093791733269861621 0 0.42048429453065939 0.080623140408621535 0 0.44292045171840128 0.076678174609247612 0 0.43430700516728021 0.093791733269861621 0 0.42048429453065939 0.080623140408621535 0 0.44292045171840128 0.076678174609247612 0 0.42424804889982048 0.065426101700308367 0 0.43751795476330879 0.055763835413043923 0 0.44292045171840128 0.076678174609247612 0 0.42424804889982048 0.065426101700308367 0 0.42048429453065939 0.080623140408621535 0 0.42048429453065939 0.080623140408621535 0 0.40442596791382002 0.083343980594271283 0 0.40511033752132819 0.066884020013907267 0 0.42424804889982048 0.065426101700308367 0 0.42048429453065939 0.080623140408621535 0 0.40511033752132819 0.066884020013907267 0 0.41189395596330619 0.097614832264133145 0 0.42048429453065939 0.080623140408621535 0 0.40442596791382002 0.083343980594271283 0 0.41189395596330619 0.097614832264133145 0 0.40442596791382002 0.083343980594271283 0 0.395384077952457 0.089814872659339864 0 0.40442596791382002 0.083343980594271283 0 0.39482724903340061 0.079371470439645556 0 0.395384077952457 0.089814872659339864 0 0.39482724903340061 0.079371470439645556 0 0.395384077952457 0.089814872659339864 0 0.38395089099099178 0.084298822595804374 0 0.40442596791382002 0.083343980594271283 0 0.39482724903340061 0.079371470439645556 0 0.40511033752132819 0.066884020013907267 0 0.39482724903340061 0.079371470439645556 0 0.40511033752132819 0.066884020013907267 0 0.3898699380775868 0.070984043620709911 0 0.40511033752132819 0.066884020013907267 0 0.3898699380775868 0.070984043620709911 0 0.3936427552977666 0.060525515111951138 0 0.37215165871465189 0.078948867584241494 0 0.37842087522265277 0.067159713933203302 0 0.38395089099099178 0.084298822595804374 0 0.37842087522265277 0.067159713933203302 0 0.38395089099099178 0.084298822595804374 0 0.3898699380775868 0.070984043620709911 0 0.37842087522265277 0.067159713933203302 0 0.38395089099099178 0.084298822595804374 0 0.3898699380775868 0.070984043620709911 0 0.3799463339813246 0.057940819005673293 0 0.3898699380775868 0.070984043620709911 0 0.3799463339813246 0.057940819005673293 0 0.3936427552977666 0.060525515111951138 0 0.3898699380775868 0.070984043620709911 0 0.37842087522265277 0.067159713933203302 0 0.3799463339813246 0.057940819005673293 0 0.395384077952457 0.089814872659339864 0 0.38395089099099178 0.084298822595804374 0 0.38948090675933228 0.1014379312584049 0 0.38395089099099178 0.084298822595804374 0 0.38948090675933228 0.1014379312584049 0 0.38475554919631771 0.092532489663286782 0 0.38395089099099178 0.084298822595804374 0 0.38948090675933228 0.1014379312584049 0 0.39482724903340061 0.079371470439645556 0 0.3898699380775868 0.070984043620709911 0 0.38395089099099178 0.084298822595804374 0 0.37215165871465189 0.078948867584241494 0 0.38395089099099178 0.084298822595804374 0 0.37558552895051028 0.088946101461699845 0 0.38475554919631771 0.092532489663286782 0 0.38395089099099178 0.084298822595804374 0 0.37558552895051028 0.088946101461699845 0 0.37285208850655238 0.096496024901164948 0 0.38475554919631771 0.092532489663286782 0 0.37558552895051028 0.088946101461699845 0 0.38475554919631771 0.092532489663286782 0 0.37968723358557949 0.1031084840564665 0 0.37285208850655238 0.096496024901164948 0 0.38475554919631771 0.092532489663286782 0 0.37968723358557949 0.1031084840564665 0 0.38475554919631771 0.092532489663286782 0 0.38948090675933228 0.1014379312584049 0 0.37968723358557949 0.1031084840564665 0 0.38948090675933228 0.1014379312584049 0 0.37968723358557949 0.1031084840564665 0 0.38370374996686391 0.11496063234165189 0 0.38948090675933228 0.1014379312584049 0 0.37968723358557949 0.1031084840564665 0 0.38948090675933228 0.1014379312584049 0 0.38370374996686391 0.11496063234165189 0 0.39574100909009341 0.1208397880668846 0 0.37024643177976341 0.1228084938099806 0 0.37968723358557949 0.1031084840564665 0 0.38370374996686391 0.11496063234165189 0 0.37024643177976341 0.1228084938099806 0 0.38336316861955078 0.12660846451652299 0 0.38370374996686391 0.11496063234165189 0 0.38336316861955078 0.12660846451652299 0 0.38370374996686391 0.11496063234165189 0 0.39574100909009341 0.1208397880668846 0 0.38948090675933228 0.1014379312584049 0 0.39574100909009341 0.1208397880668846 0 0.41189395596330619 0.097614832264133145 0 0.38948090675933228 0.1014379312584049 0 0.41189395596330619 0.097614832264133145 0 0.395384077952457 0.089814872659339864 0 0.38948090675933228 0.1014379312584049 0 0.41189395596330619 0.097614832264133145 0 0.38948090675933228 0.1014379312584049 0 0.39574100909009341 0.1208397880668846 0 0.39999075456705019 0.02934179217231617 0 0.38946858158488262 0.0039612245988322903 0 0.41338291642589359 0.014099925906150281 0 0.39999075456705019 0.02934179217231617 0 0.38946858158488262 0.0039612245988322903 0 0.38946858158488262 0.0039612245988322903 0 0.41338291642589359 0.014099925906150281 0 0.41302051867945477 -0.0059717909655199412 0 0.38946858158488262 0.0039612245988322903 0 0.37915319675336823 0.015039813914909489 0 0.3738576177168153 -0.004268612177127571 0 0.39999075456705019 0.02934179217231617 0 0.37915319675336823 0.015039813914909489 0 0.38039569086213249 0.028084558762593359 0 0.39999075456705019 0.02934179217231617 0 0.38039569086213249 0.028084558762593359 0 0.39044523837544881 0.035355236154904338 0 0.39999075456705019 0.02934179217231617 0 0.38946858158488262 0.0039612245988322903 0 0.37915319675336823 0.015039813914909489 0 0.36629522817474292 0.023804747793502931 0 0.37915319675336823 0.015039813914909489 0 0.38039569086213249 0.028084558762593359 0 0.37219582013524471 0.033797194025992641 0 0.38039569086213249 0.028084558762593359 0 0.38261346494514198 0.041156982035331337 0 0.38039569086213249 0.028084558762593359 0 0.38261346494514198 0.041156982035331337 0 0.39044523837544881 0.035355236154904338 0 0.3799463339813246 0.057940819005673293 0 0.39964441161082659 0.04629317780751422 0 0.38261346494514198 0.041156982035331337 0 0.3799463339813246 0.057940819005673293 0 0.39964441161082659 0.04629317780751422 0 0.36981609488045142 0.044626000849385797 0 0.38261346494514198 0.041156982035331337 0 0.3799463339813246 0.057940819005673293 0 0.3799463339813246 0.057940819005673293 0 0.3936427552977666 0.060525515111951138 0 0.39964441161082659 0.04629317780751422 0 0.40511033752132819 0.066884020013907267 0 0.3936427552977666 0.060525515111951138 0 0.39964441161082659 0.04629317780751422 0 0.39999075456705019 0.02934179217231617 0 0.39044523837544881 0.035355236154904338 0 0.39964441161082659 0.04629317780751422 0 0.38261346494514198 0.041156982035331337 0 0.39044523837544881 0.035355236154904338 0 0.39964441161082659 0.04629317780751422 0 0.39964441161082659 0.04629317780751422 0 0.41934248924032808 0.034645536609353857 0 0.39999075456705019 0.02934179217231617 0 0.39964441161082659 0.04629317780751422 0 0.41934248924032808 0.034645536609353857 0 0.39964441161082659 0.04629317780751422 0 0.41934248924032808 0.034645536609353857 0 0.41979572212394728 0.050676435689729238 0 0.40511033752132819 0.066884020013907267 0 0.39964441161082659 0.04629317780751422 0 0.41979572212394728 0.050676435689729238 0 0.42424804889982048 0.065426101700308367 0 0.40511033752132819 0.066884020013907267 0 0.41979572212394728 0.050676435689729238 0 0.41979572212394728 0.050676435689729238 0 0.43501066723391019 0.036105086021602922 0 0.43751795476330879 0.055763835413043923 0 0.42424804889982048 0.065426101700308367 0 0.41979572212394728 0.050676435689729238 0 0.43751795476330879 0.055763835413043923 0 0.41934248924032808 0.034645536609353857 0 0.41979572212394728 0.050676435689729238 0 0.43501066723391019 0.036105086021602922 0 0.41934248924032808 0.034645536609353857 0 0.4257576505595802 0.019175780584254089 0 0.43955725492658898 0.022692373359261799 0 0.43501066723391019 0.036105086021602922 0 0.43955725492658898 0.022692373359261799 0 0.41934248924032808 0.034645536609353857 0 0.43955725492658898 0.022692373359261799 0 0.41934248924032808 0.034645536609353857 0 0.43501066723391019 0.036105086021602922 0 0.43955725492658898 0.022692373359261799 0 0.41934248924032808 0.034645536609353857 0 0.4257576505595802 0.019175780584254089 0 0.41338291642589359 0.014099925906150281 0 0.39999075456705019 0.02934179217231617 0 0.41934248924032808 0.034645536609353857 0 0.41338291642589359 0.014099925906150281 0 0.41338291642589359 0.014099925906150281 0 0.43126462970226959 0.0049597644103186664 0 0.41302051867945477 -0.0059717909655199412 0 0.4257576505595802 0.019175780584254089 0 0.41338291642589359 0.014099925906150281 0 0.43126462970226959 0.0049597644103186664 0 0.4257576505595802 0.019175780584254089 0 0.43126462970226959 0.0049597644103186664 0 0.43955725492658898 0.022692373359261799 0 0.43126462970226959 0.0049597644103186664 0 0.43955725492658898 0.022692373359261799 0 0.43126462970226959 0.0049597644103186664 0 0.44723804234407388 3.3579200931159459e-05 0 0.43955725492658898 0.022692373359261799 0 0.44723804234407388 3.3579200931159459e-05 0 0.45209714725082439 0.01527742814463133 0 0.43955725492658898 0.022692373359261799 0 0.44723804234407388 3.3579200931159459e-05 0 0.43955725492658898 0.022692373359261799 0 0.43955725492658898 0.022692373359261799 0 0.45048795011224663 0.02686699417458235 0 0.44775983257206081 0.043224300740757428 0 0.45209714725082439 0.01527742814463133 0 0.43955725492658898 0.022692373359261799 0 0.45209714725082439 0.01527742814463133 0 0.43955725492658898 0.022692373359261799 0 0.45048795011224663 0.02686699417458235 0 0.45209714725082439 0.01527742814463133 0 0.45048795011224663 0.02686699417458235 0 0.47141119738310822 0.019676376630093188 0 0.45048795011224663 0.02686699417458235 0 0.47439059054789751 0.039259698530621841 0 0.47141119738310822 0.019676376630093188 0 0.45209714725082439 0.01527742814463133 0 0.46134943791370853 0.0047504983885005101 0 0.47141119738310822 0.019676376630093188 0 0.44723804234407388 3.3579200931159459e-05 0 0.45209714725082439 0.01527742814463133 0 0.46134943791370853 0.0047504983885005101 0 0.456247829584146 0.062914223478015868 0 0.44775983257206081 0.043224300740757428 0 0.456247829584146 0.062914223478015868 0 0.43751795476330879 0.055763835413043923 0 0.44775983257206081 0.043224300740757428 0 0.43955725492658898 0.022692373359261799 0 0.44775983257206081 0.043224300740757428 0 0.43501066723391019 0.036105086021602922 0 0.43751795476330879 0.055763835413043923 0 0.44775983257206081 0.043224300740757428 0 0.43501066723391019 0.036105086021602922 0 0.43955725492658898 0.022692373359261799 0 0.44775983257206081 0.043224300740757428 0 0.45048795011224663 0.02686699417458235 0 0.44775983257206081 0.043224300740757428 0 0.47439059054789751 0.039259698530621841 0 0.44775983257206081 0.043224300740757428 0 0.46616437142405159 0.053442746784946482 0 0.47439059054789751 0.039259698530621841 0 0.456247829584146 0.062914223478015868 0 0.44775983257206081 0.043224300740757428 0 0.46616437142405159 0.053442746784946482 0 0.47082514042836132 0.067971778439487388 0 0.456247829584146 0.062914223478015868 0 0.46616437142405159 0.053442746784946482 0 0.47082514042836132 0.067971778439487388 0 0.46616437142405159 0.053442746784946482 0 0.4819140069428729 0.062282020943584468 0 0.4819140069428729 0.062282020943584468 0 0.47439059054789751 0.039259698530621841 0 0.49639447329763597 0.054775641460008358 0 0.46616437142405159 0.053442746784946482 0 0.4819140069428729 0.062282020943584468 0 0.47439059054789751 0.039259698530621841 0 0.49639447329763597 0.054775641460008358 0 0.49819723664881632 0.026042594679582951 0 0.47439059054789751 0.039259698530621841 0 0.49639447329763597 0.054775641460008358 0 0.49819723664881632 0.026042594679582951 0 0.5 0.054160629848507218 0 0.49819723664881632 0.026042594679582951 0 0.5 0.02573508887383236 0 0.49639447329763597 0.054775641460008358 0 0.5 0.054160629848507218 0 0.49819723664881632 0.026042594679582951 0 0.46134943791370853 0.0047504983885005101 0 0.47464831310884248 0.00016796968758280909 0 0.47141119738310822 0.019676376630093188 0 0.47464831310884248 0.00016796968758280909 0 0.47141119738310822 0.019676376630093188 0 0.48696935039161432 0.011286432368040319 0 0.47439059054789751 0.039259698530621841 0 0.47141119738310822 0.019676376630093188 0 0.49819723664881632 0.026042594679582951 0 0.49819723664881632 0.026042594679582951 0 0.5 0.02573508887383236 0 0.49999999999999822 -0.0026904521008423552 0 0.47141119738310822 0.019676376630093188 0 0.49819723664881632 0.026042594679582951 0 0.48696935039161432 0.011286432368040319 0 0.49819723664881632 0.026042594679582951 0 0.49999999999999822 -0.0026904521008423552 0 0.47464831310884248 0.00016796968758280909 0 0.48696935039161432 0.011286432368040319 0 0.49999999999999822 -0.0026904521008423552 0 0.49819723664881632 0.026042594679582951 0 0.48696935039161432 0.011286432368040319 0 0.49999999999999822 -0.0026904521008423552 0 0.47464831310884248 0.00016796968758280909 0 0.49999999999999822 -0.0026904521008423552 0 0.4813541417851338 -0.018308582994744201 0 0.47464831310884248 0.00016796968758280909 0 0.4813541417851338 -0.018308582994744201 0 0.46459158969292969 -0.01055006048421395 0 0.4813541417851338 -0.018308582994744201 0 0.46459158969292969 -0.01055006048421395 0 0.46804077324426191 -0.027318612230154301 0 0.4813541417851338 -0.018308582994744201 0 0.47778280313533622 -0.039809065928519058 0 0.46804077324426191 -0.027318612230154301 0 0.4813541417851338 -0.018308582994744201 0 0.5 -0.027373799057003771 0 0.47778280313533622 -0.039809065928519058 0 0.49999999999999822 -0.0026904521008423552 0 0.4813541417851338 -0.018308582994744201 0 0.5 -0.027373799057003771 0 0.5 -0.027373799057003771 0 0.5 -0.052057146013165252 0 0.47778280313533622 -0.039809065928519058 0 0.5 -0.052057146013165252 0 0.4729148758540338 -0.049556000010722072 0 0.48271107741736552 -0.062998672759842944 0 0.5 -0.052057146013165252 0 0.4729148758540338 -0.049556000010722072 0 0.47778280313533622 -0.039809065928519058 0 0.4729148758540338 -0.049556000010722072 0 0.46652313559077879 -0.060063135576112009 0 0.48271107741736552 -0.062998672759842944 0 0.47778280313533622 -0.039809065928519058 0 0.46259961717904152 -0.045284009115730592 0 0.46804077324426191 -0.027318612230154301 0 0.4729148758540338 -0.049556000010722072 0 0.47778280313533622 -0.039809065928519058 0 0.46259961717904152 -0.045284009115730592 0 0.47778280313533622 -0.039809065928519058 0 0.46259961717904152 -0.045284009115730592 0 0.46259961717904152 -0.045284009115730592 0 0.44592774687565773 -0.038304174651733212 0 0.45491882976155767 -0.022625214957399699 0 0.46259961717904152 -0.045284009115730592 0 0.45491882976155767 -0.022625214957399699 0 0.46259961717904152 -0.045284009115730592 0 0.46804077324426191 -0.027318612230154301 0 0.45491882976155767 -0.022625214957399699 0 0.4729148758540338 -0.049556000010722072 0 0.46259961717904152 -0.045284009115730592 0 0.46652313559077879 -0.060063135576112009 0 0.46259961717904152 -0.045284009115730592 0 0.46652313559077879 -0.060063135576112009 0 0.45266952216988249 -0.059131787211089359 0 0.46259961717904152 -0.045284009115730592 0 0.43754712774115367 -0.054317749252053932 0 0.46259961717904152 -0.045284009115730592 0 0.43754712774115367 -0.054317749252053932 0 0.45266952216988249 -0.059131787211089359 0 0.46259961717904152 -0.045284009115730592 0 0.43754712774115367 -0.054317749252053932 0 0.44592774687565773 -0.038304174651733212 0 0.44592774687565773 -0.038304174651733212 0 0.45491882976155767 -0.022625214957399699 0 0.43280750031677678 -0.017797967147077941 0 0.44723804234407388 3.3579200931159459e-05 0 0.45491882976155767 -0.022625214957399699 0 0.44723804234407388 3.3579200931159459e-05 0 0.45491882976155767 -0.022625214957399699 0 0.43280750031677678 -0.017797967147077941 0 0.44723804234407388 3.3579200931159459e-05 0 0.46459158969292969 -0.01055006048421395 0 0.45491882976155767 -0.022625214957399699 0 0.44723804234407388 3.3579200931159459e-05 0 0.46134943791370853 0.0047504983885005101 0 0.46459158969292969 -0.01055006048421395 0 0.46134943791370853 0.0047504983885005101 0 0.47464831310884248 0.00016796968758280909 0 0.46459158969292969 -0.01055006048421395 0 0.46459158969292969 -0.01055006048421395 0 0.46804077324426191 -0.027318612230154301 0 0.45491882976155767 -0.022625214957399699 0 0.48050208680218681 -0.1182835017847277 0 0.46442503025909121 -0.10907969535257619 0 0.46385687996953689 -0.1282317786652073 0 0.48050208680218681 -0.1182835017847277 0 0.5 -0.1029626217301577 0 0.5 -0.12918475049098879 0 0.48050208680218681 -0.1182835017847277 0 0.5 -0.1029626217301577 0 0.48221251512954499 -0.092910094160951195 0 0.48221251512954499 -0.092910094160951195 0 0.4646281921197673 -0.089822745220971195 0 0.46442503025909121 -0.10907969535257619 0 0.48050208680218681 -0.1182835017847277 0 0.48221251512954499 -0.092910094160951195 0 0.46442503025909121 -0.10907969535257619 0 0.48221251512954499 -0.092910094160951195 0 0.46442503025909121 -0.10907969535257619 0 0.48221251512954499 -0.092910094160951195 0 0.47495621354787382 -0.07748337962591445 0 0.4646281921197673 -0.089822745220971195 0 0.5 -0.1029626217301577 0 0.48221251512954499 -0.092910094160951195 0 0.49999999999999922 -0.07674049296932671 0 0.48221251512954499 -0.092910094160951195 0 0.49999999999999922 -0.07674049296932671 0 0.47495621354787382 -0.07748337962591445 0 0.48221251512954499 -0.092910094160951195 0 0.49999999999999922 -0.07674049296932671 0 0.5 -0.052057146013165252 0 0.49999999999999922 -0.07674049296932671 0 0.48271107741736552 -0.062998672759842944 0 0.49999999999999922 -0.07674049296932671 0 0.47495621354787382 -0.07748337962591445 0 0.48271107741736552 -0.062998672759842944 0 0.46652313559077879 -0.060063135576112009 0 0.47495621354787382 -0.07748337962591445 0 0.48271107741736552 -0.062998672759842944 0 0.46652313559077879 -0.060063135576112009 0 0.47495621354787382 -0.07748337962591445 0 0.45602940751837667 -0.076007510552390078 0 0.46652313559077879 -0.060063135576112009 0 0.45266952216988249 -0.059131787211089359 0 0.45602940751837667 -0.076007510552390078 0 0.43754712774115367 -0.054317749252053932 0 0.45266952216988249 -0.059131787211089359 0 0.43219598881669108 -0.075029890540612376 0 0.45266952216988249 -0.059131787211089359 0 0.45602940751837667 -0.076007510552390078 0 0.43219598881669108 -0.075029890540612376 0 0.45602940751837667 -0.076007510552390078 0 0.44592873971488622 -0.092529291809570494 0 0.43219598881669108 -0.075029890540612376 0 0.47495621354787382 -0.07748337962591445 0 0.45602940751837667 -0.076007510552390078 0 0.4646281921197673 -0.089822745220971195 0 0.45602940751837667 -0.076007510552390078 0 0.44592873971488622 -0.092529291809570494 0 0.4646281921197673 -0.089822745220971195 0 0.44592873971488622 -0.092529291809570494 0 0.4646281921197673 -0.089822745220971195 0 0.46442503025909121 -0.10907969535257619 0 0.44592873971488622 -0.092529291809570494 0 0.46442503025909121 -0.10907969535257619 0 0.4366385058986238 -0.1086537713026329 0 0.46442503025909121 -0.10907969535257619 0 0.4366385058986238 -0.1086537713026329 0 0.44663754538863742 -0.12524929654420119 0 0.46442503025909121 -0.10907969535257619 0 0.44663754538863742 -0.12524929654420119 0 0.46442503025909121 -0.10907969535257619 0 0.46385687996953689 -0.1282317786652073 0 0.44663754538863742 -0.12524929654420119 0 0.40995839594710992 -0.1209134298594471 0 0.42598759425215799 -0.11940928524243399 0 0.4144689993270137 -0.1065021061289604 0 0.40995839594710992 -0.1209134298594471 0 0.42598759425215799 -0.11940928524243399 0 0.42268949967717462 -0.13218444754753181 0 0.42598759425215799 -0.11940928524243399 0 0.4366385058986238 -0.1086537713026329 0 0.44663754538863742 -0.12524929654420119 0 0.42598759425215799 -0.11940928524243399 0 0.4366385058986238 -0.1086537713026329 0 0.4144689993270137 -0.1065021061289604 0 0.4366385058986238 -0.1086537713026329 0 0.4144689993270137 -0.1065021061289604 0 0.42696575071785281 -0.093722877257969101 0 0.44592873971488622 -0.092529291809570494 0 0.4366385058986238 -0.1086537713026329 0 0.42696575071785281 -0.093722877257969101 0 0.4144689993270137 -0.1065021061289604 0 0.42696575071785281 -0.093722877257969101 0 0.4055965198320492 -0.085899326508069376 0 0.42696575071785281 -0.093722877257969101 0 0.43219598881669108 -0.075029890540612376 0 0.4055965198320492 -0.085899326508069376 0 0.44592873971488622 -0.092529291809570494 0 0.42696575071785281 -0.093722877257969101 0 0.43219598881669108 -0.075029890540612376 0 0.43754712774115367 -0.054317749252053932 0 0.43219598881669108 -0.075029890540612376 0 0.41249463830326588 -0.063351489388377549 0 0.43219598881669108 -0.075029890540612376 0 0.41249463830326588 -0.063351489388377549 0 0.4055965198320492 -0.085899326508069376 0 0.41249463830326588 -0.063351489388377549 0 0.3874421488653782 -0.072385229524701181 0 0.4055965198320492 -0.085899326508069376 0 0.41249463830326588 -0.063351489388377549 0 0.3874421488653782 -0.072385229524701181 0 0.3874421488653782 -0.072385229524701181 0 0.38068250715432339 -0.089956622118686991 0 0.36238965942749052 -0.081418969661024798 0 0.3874421488653782 -0.072385229524701181 0 0.38068250715432339 -0.089956622118686991 0 0.4055965198320492 -0.085899326508069376 0 0.38068250715432339 -0.089956622118686991 0 0.4055965198320492 -0.085899326508069376 0 0.39094517410344359 -0.1034688755680841 0 0.4144689993270137 -0.1065021061289604 0 0.4055965198320492 -0.085899326508069376 0 0.39094517410344359 -0.1034688755680841 0 0.38068250715432339 -0.089956622118686991 0 0.39094517410344359 -0.1034688755680841 0 0.37326840566133468 -0.1035330532126524 0 0.39094517410344359 -0.1034688755680841 0 0.37030972864660971 -0.12158277342734899 0 0.39094517410344359 -0.1034688755680841 0 0.39193838726317642 -0.1204903344663196 0 0.37030972864660971 -0.12158277342734899 0 0.39094517410344359 -0.1034688755680841 0 0.37030972864660971 -0.12158277342734899 0 0.37326840566133468 -0.1035330532126524 0 0.4144689993270137 -0.1065021061289604 0 0.39094517410344359 -0.1034688755680841 0 0.39193838726317642 -0.1204903344663196 0 0.40995839594710992 -0.1209134298594471 0 0.39193838726317642 -0.1204903344663196 0 0.40107417029805159 -0.12789820224764609 0 0.4144689993270137 -0.1065021061289604 0 0.39193838726317642 -0.1204903344663196 0 0.40995839594710992 -0.1209134298594471 0 0.4144689993270137 -0.1065021061289604 0 0.39193838726317642 -0.1204903344663196 0 0.4131021505695639 -0.026289618326543591 0 0.41302051867945477 -0.0059717909655199412 0 0.43280750031677678 -0.017797967147077941 0 0.4131021505695639 -0.026289618326543591 0 0.41302051867945477 -0.0059717909655199412 0 0.3979337366961847 -0.017690348169954039 0 0.43126462970226959 0.0049597644103186664 0 0.41302051867945477 -0.0059717909655199412 0 0.43280750031677678 -0.017797967147077941 0 0.43126462970226959 0.0049597644103186664 0 0.44723804234407388 3.3579200931159459e-05 0 0.43280750031677678 -0.017797967147077941 0 0.4131021505695639 -0.026289618326543591 0 0.43280750031677678 -0.017797967147077941 0 0.42228996955309661 -0.041780967336820997 0 0.43754712774115367 -0.054317749252053932 0 0.44592774687565773 -0.038304174651733212 0 0.42228996955309661 -0.041780967336820997 0 0.44592774687565773 -0.038304174651733212 0 0.43280750031677678 -0.017797967147077941 0 0.42228996955309661 -0.041780967336820997 0 0.43754712774115367 -0.054317749252053932 0 0.41249463830326588 -0.063351489388377549 0 0.42228996955309661 -0.041780967336820997 0 0.43754712774115367 -0.054317749252053932 0 0.41249463830326588 -0.063351489388377549 0 0.41249463830326588 -0.063351489388377549 0 0.42228996955309661 -0.041780967336820997 0 0.39690407580453108 -0.041858701070087052 0 0.4131021505695639 -0.026289618326543591 0 0.42228996955309661 -0.041780967336820997 0 0.39690407580453108 -0.041858701070087052 0 0.41249463830326588 -0.063351489388377549 0 0.3874421488653782 -0.072385229524701181 0 0.39690407580453108 -0.041858701070087052 0 0.3874421488653782 -0.072385229524701181 0 0.39690407580453108 -0.041858701070087052 0 0.36842423562054721 -0.046799910548135509 0 0.39690407580453108 -0.041858701070087052 0 0.37894640860271489 -0.02141934297465159 0 0.36842423562054721 -0.046799910548135509 0 0.39690407580453108 -0.041858701070087052 0 0.37894640860271489 -0.02141934297465159 0 0.3979337366961847 -0.017690348169954039 0 0.4131021505695639 -0.026289618326543591 0 0.39690407580453108 -0.041858701070087052 0 0.3979337366961847 -0.017690348169954039 0 0.38946858158488262 0.0039612245988322903 0 0.41302051867945477 -0.0059717909655199412 0 0.3979337366961847 -0.017690348169954039 0 0.38946858158488262 0.0039612245988322903 0 0.37894640860271489 -0.02141934297465159 0 0.38946858158488262 0.0039612245988322903 0 0.37894640860271489 -0.02141934297465159 0 0.3979337366961847 -0.017690348169954039 0 0.38946858158488262 0.0039612245988322903 0 0.37894640860271489 -0.02141934297465159 0 0.3738576177168153 -0.004268612177127571 0 0.36491130761458568 0.0093151723393397456 0 0.3738576177168153 -0.004268612177127571 0 0.35570265241411442 -0.0062775346211684721 0 0.37894640860271489 -0.02141934297465159 0 0.3738576177168153 -0.004268612177127571 0 0.35570265241411442 -0.0062775346211684721 0 0.37894640860271489 -0.02141934297465159 0 0.35131089734139281 -0.027856078465287631 0 0.35570265241411442 -0.0062775346211684721 0 0.35131089734139281 -0.027856078465287631 0 0.35570265241411442 -0.0062775346211684721 0 0.33710532586795711 -0.01556500750112098 0 0.33596272124369791 0.0001303567227463748 0 0.33710532586795711 -0.01556500750112098 0 0.32137195505421529 -0.015898243580391651 0 0.33596272124369791 0.0001303567227463748 0 0.35570265241411442 -0.0062775346211684721 0 0.33710532586795711 -0.01556500750112098 0 0.35131089734139281 -0.027856078465287631 0 0.33710532586795711 -0.01556500750112098 0 0.32425986246392052 -0.033691065944433669 0 0.32137195505421529 -0.015898243580391651 0 0.32425986246392052 -0.033691065944433669 0 0.30304225727946682 -0.02535223790687419 0 0.33710532586795711 -0.01556500750112098 0 0.32137195505421529 -0.015898243580391651 0 0.32425986246392052 -0.033691065944433669 0 0.33596272124369791 0.0001303567227463748 0 0.31968214520403521 0.01240594876365271 0 0.32137195505421529 -0.015898243580391651 0 0.31968214520403521 0.01240594876365271 0 0.32137195505421529 -0.015898243580391651 0 0.30331726517711732 -0.0052925995653069144 0 0.32030355653188702 -0.05725166213107484 0 0.32425986246392052 -0.033691065944433669 0 0.29867885146125989 -0.049668753681997399 0 0.32030355653188702 -0.05725166213107484 0 0.32425986246392052 -0.033691065944433669 0 0.34309779243078797 -0.048398593716100273 0 0.35131089734139281 -0.027856078465287631 0 0.32425986246392052 -0.033691065944433669 0 0.34309779243078797 -0.048398593716100273 0 0.32030355653188702 -0.05725166213107484 0 0.34309779243078797 -0.048398593716100273 0 0.33770070380708511 -0.071657215654201856 0 0.34309779243078797 -0.048398593716100273 0 0.35981090803025773 -0.064131983820832725 0 0.33770070380708511 -0.071657215654201856 0 0.34309779243078797 -0.048398593716100273 0 0.36842423562054721 -0.046799910548135509 0 0.35981090803025773 -0.064131983820832725 0 0.35131089734139281 -0.027856078465287631 0 0.34309779243078797 -0.048398593716100273 0 0.36842423562054721 -0.046799910548135509 0 0.37894640860271489 -0.02141934297465159 0 0.36842423562054721 -0.046799910548135509 0 0.37894640860271489 -0.02141934297465159 0 0.35131089734139281 -0.027856078465287631 0 0.36842423562054721 -0.046799910548135509 0 0.3874421488653782 -0.072385229524701181 0 0.36842423562054721 -0.046799910548135509 0 0.35981090803025773 -0.064131983820832725 0 0.3874421488653782 -0.072385229524701181 0 0.36238965942749052 -0.081418969661024798 0 0.3874421488653782 -0.072385229524701181 0 0.35981090803025773 -0.064131983820832725 0 0.36238965942749052 -0.081418969661024798 0 0.38068250715432339 -0.089956622118686991 0 0.36238965942749052 -0.081418969661024798 0 0.36409199720690433 -0.095681774737570238 0 0.36238965942749052 -0.081418969661024798 0 0.36409199720690433 -0.095681774737570238 0 0.34546968846554549 -0.095229354556319909 0 0.36238965942749052 -0.081418969661024798 0 0.34546968846554549 -0.095229354556319909 0 0.33770070380708511 -0.071657215654201856 0 0.35981090803025773 -0.064131983820832725 0 0.36238965942749052 -0.081418969661024798 0 0.33770070380708511 -0.071657215654201856 0 0.37030972864660971 -0.12158277342734899 0 0.35864972532582717 -0.1082708741391671 0 0.35270467429094532 -0.1221809499246168 0 0.37030972864660971 -0.12158277342734899 0 0.37326840566133468 -0.1035330532126524 0 0.35864972532582717 -0.1082708741391671 0 0.38068250715432339 -0.089956622118686991 0 0.37326840566133468 -0.1035330532126524 0 0.36409199720690433 -0.095681774737570238 0 0.37326840566133468 -0.1035330532126524 0 0.36409199720690433 -0.095681774737570238 0 0.35864972532582717 -0.1082708741391671 0 0.34546968846554549 -0.095229354556319909 0 0.35864972532582717 -0.1082708741391671 0 0.34294639117940018 -0.11280983110214531 0 0.36409199720690433 -0.095681774737570238 0 0.34546968846554549 -0.095229354556319909 0 0.35864972532582717 -0.1082708741391671 0 0.35270467429094532 -0.1221809499246168 0 0.34294639117940018 -0.11280983110214531 0 0.33957265430573391 -0.12882843274053801 0 0.35864972532582717 -0.1082708741391671 0 0.35270467429094532 -0.1221809499246168 0 0.34294639117940018 -0.11280983110214531 0 0.33016819469832481 -0.1208417154969389 0 0.34294639117940018 -0.11280983110214531 0 0.33957265430573391 -0.12882843274053801 0 0.33016819469832481 -0.1208417154969389 0 0.34294639117940018 -0.11280983110214531 0 0.32769568290445639 -0.1073333741862998 0 0.34546968846554549 -0.095229354556319909 0 0.32769568290445639 -0.1073333741862998 0 0.32263745585332132 -0.090347527371993988 0 0.34546968846554549 -0.095229354556319909 0 0.34294639117940018 -0.11280983110214531 0 0.32769568290445639 -0.1073333741862998 0 0.32769568290445639 -0.1073333741862998 0 0.32263745585332132 -0.090347527371993988 0 0.31044808981387351 -0.1023541886390722 0 0.32769568290445639 -0.1073333741862998 0 0.31612964921238501 -0.1196432655785709 0 0.31044808981387351 -0.1023541886390722 0 0.33016819469832481 -0.1208417154969389 0 0.32769568290445639 -0.1073333741862998 0 0.31612964921238501 -0.1196432655785709 0 0.34546968846554549 -0.095229354556319909 0 0.33770070380708511 -0.071657215654201856 0 0.32263745585332132 -0.090347527371993988 0 0.33770070380708511 -0.071657215654201856 0 0.32263745585332132 -0.090347527371993988 0 0.31744785123368657 -0.074342041775325371 0 0.32263745585332132 -0.090347527371993988 0 0.31744785123368657 -0.074342041775325371 0 0.30842090686536239 -0.08547218332314277 0 0.32263745585332132 -0.090347527371993988 0 0.30842090686536239 -0.08547218332314277 0 0.31044808981387351 -0.1023541886390722 0 0.32030355653188702 -0.05725166213107484 0 0.33770070380708511 -0.071657215654201856 0 0.31744785123368657 -0.074342041775325371 0 0.32030355653188702 -0.05725166213107484 0 0.31744785123368657 -0.074342041775325371 0 0.30084089948473991 -0.06971982864394019 0 0.31744785123368657 -0.074342041775325371 0 0.30084089948473991 -0.06971982864394019 0 0.30842090686536239 -0.08547218332314277 0 0.30842090686536239 -0.08547218332314277 0 0.29073023794119079 -0.090597330185382186 0 0.31044808981387351 -0.1023541886390722 0 0.30084089948473991 -0.06971982864394019 0 0.30842090686536239 -0.08547218332314277 0 0.29073023794119079 -0.090597330185382186 0 0.30084089948473991 -0.06971982864394019 0 0.29073023794119079 -0.090597330185382186 0 0.30084089948473991 -0.06971982864394019 0 0.28248876695596542 -0.072559449331426981 0 0.29867885146125989 -0.049668753681997399 0 0.30084089948473991 -0.06971982864394019 0 0.29073023794119079 -0.090597330185382186 0 0.28248876695596542 -0.072559449331426981 0 0.31612964921238501 -0.1196432655785709 0 0.29837461280501337 -0.11555904865269639 0 0.31612964921238501 -0.1196432655785709 0 0.29837461280501337 -0.11555904865269639 0 0.30506738055812971 -0.13323484281089171 0 0.31612964921238501 -0.1196432655785709 0 0.29837461280501337 -0.11555904865269639 0 0.31044808981387351 -0.1023541886390722 0 0.29073023794119079 -0.090597330185382186 0 0.29837461280501337 -0.11555904865269639 0 0.31044808981387351 -0.1023541886390722 0 0.29073023794119079 -0.090597330185382186 0 0.28061957639764129 -0.111474831726824 0 0.29073023794119079 -0.090597330185382186 0 0.28061957639764129 -0.111474831726824 0 0.27270611142763368 -0.097127294431259989 0 0.29073023794119079 -0.090597330185382186 0 0.29837461280501337 -0.11555904865269639 0 0.28061957639764129 -0.111474831726824 0 0.29837461280501337 -0.11555904865269639 0 0.28061957639764129 -0.111474831726824 0 0.29837461280501337 -0.11555904865269639 0 0.28061957639764129 -0.111474831726824 0 0.28814445963684759 -0.1289282632534639 0 0.28061957639764129 -0.111474831726824 0 0.26981366613272401 -0.13378795211373509 0 0.28814445963684759 -0.1289282632534639 0 0.28061957639764129 -0.111474831726824 0 0.25606864185944761 -0.11970051334451839 0 0.26981366613272401 -0.13378795211373509 0 0.28061957639764129 -0.111474831726824 0 0.26981366613272401 -0.13378795211373509 0 0.28061957639764129 -0.111474831726824 0 0.27270611142763368 -0.097127294431259989 0 0.25625738108487128 -0.10587076039939911 0 0.28061957639764129 -0.111474831726824 0 0.25625738108487128 -0.10587076039939911 0 0.28061957639764129 -0.111474831726824 0 0.25625738108487128 -0.10587076039939911 0 0.25476581338464049 -0.1098221843338807 0 0.27270611142763368 -0.097127294431259989 0 0.25625738108487128 -0.10587076039939911 0 0.26577571867695132 -0.080655017948012359 0 0.25625738108487128 -0.10587076039939911 0 0.25476581338464049 -0.1098221843338807 0 0.28061957639764129 -0.111474831726824 0 0.25476581338464049 -0.1098221843338807 0 0.25606864185944761 -0.11970051334451839 0 0.25606864185944761 -0.11970051334451839 0 0.25593704552769991 -0.12197827163917919 0 0.26577571867695132 -0.080655017948012359 0 0.26136864054719189 -0.063255566305099778 0 0.27529405626903147 -0.055439275496625549 0 0.26577571867695132 -0.080655017948012359 0 0.27529405626903147 -0.055439275496625549 0 0.28248876695596542 -0.072559449331426981 0 0.26577571867695132 -0.080655017948012359 0 0.27529405626903147 -0.055439275496625549 0 0.29073023794119079 -0.090597330185382186 0 0.27270611142763368 -0.097127294431259989 0 0.26577571867695132 -0.080655017948012359 0 0.29073023794119079 -0.090597330185382186 0 0.28248876695596542 -0.072559449331426981 0 0.26577571867695132 -0.080655017948012359 0 0.25625738108487128 -0.10587076039939911 0 0.26577571867695132 -0.080655017948012359 0 0.24869579831717939 -0.091408590214736116 0 0.25625738108487128 -0.10587076039939911 0 0.26577571867695132 -0.080655017948012359 0 0.26577571867695132 -0.080655017948012359 0 0.25346028161667972 -0.074294168239470521 0 0.24869579831717939 -0.091408590214736116 0 0.26577571867695132 -0.080655017948012359 0 0.25346028161667972 -0.074294168239470521 0 0.26136864054719189 -0.063255566305099778 0 0.25346028161667972 -0.074294168239470521 0 0.26136864054719189 -0.063255566305099778 0 0.24868712167772811 -0.061280815743001343 0 0.26362602449556938 -0.044608554098389132 0 0.24868712167772811 -0.061280815743001343 0 0.24713171562943309 -0.039117564013920858 0 0.26136864054719189 -0.063255566305099778 0 0.26362602449556938 -0.044608554098389132 0 0.24868712167772811 -0.061280815743001343 0 0.26136864054719189 -0.063255566305099778 0 0.27529405626903147 -0.055439275496625549 0 0.26362602449556938 -0.044608554098389132 0 0.27529405626903147 -0.055439275496625549 0 0.26362602449556938 -0.044608554098389132 0 0.28481239386111168 -0.030223533045238719 0 0.27529405626903147 -0.055439275496625549 0 0.28481239386111168 -0.030223533045238719 0 0.26362602449556938 -0.044608554098389132 0 0.26168992388074291 -0.028392337774540019 0 0.28481239386111168 -0.030223533045238719 0 0.26362602449556938 -0.044608554098389132 0 0.26168992388074291 -0.028392337774540019 0 0.24713171562943309 -0.039117564013920858 0 0.26362602449556938 -0.044608554098389132 0 0.26168992388074291 -0.028392337774540019 0 0.26168992388074291 -0.028392337774540019 0 0.25975382326591612 -0.01217612145069095 0 0.27111002849966293 -0.019043957977226779 0 0.26168992388074291 -0.028392337774540019 0 0.25975382326591612 -0.01217612145069095 0 0.24713171562943309 -0.039117564013920858 0 0.25975382326591612 -0.01217612145069095 0 0.24713171562943309 -0.039117564013920858 0 0.26168992388074291 -0.028392337774540019 0 0.25975382326591612 -0.01217612145069095 0 0.26912945415269579 0.0078358312520530049 0 0.25975382326591612 -0.01217612145069095 0 0.25742416126469281 0.0073364507183336647 0 0.25975382326591612 -0.01217612145069095 0 0.25742416126469281 0.0073364507183336647 0 0.25975382326591612 -0.01217612145069095 0 0.246759296357245 -0.002510635819166105 0 0.26912945415269579 0.0078358312520530049 0 0.25975382326591612 -0.01217612145069095 0 0.28055238580901859 -0.0097180551089432275 0 0.25975382326591612 -0.01217612145069095 0 0.28055238580901859 -0.0097180551089432275 0 0.27111002849966293 -0.019043957977226779 0 0.28055238580901859 -0.0097180551089432275 0 0.27111002849966293 -0.019043957977226779 0 0.28481239386111168 -0.030223533045238719 0 0.26168992388074291 -0.028392337774540019 0 0.27111002849966293 -0.019043957977226779 0 0.28481239386111168 -0.030223533045238719 0 0.28055238580901859 -0.0097180551089432275 0 0.28481239386111168 -0.030223533045238719 0 0.30304225727946682 -0.02535223790687419 0 0.28915807743379518 0.010654615332489851 0 0.28055238580901859 -0.0097180551089432275 0 0.30331726517711732 -0.0052925995653069144 0 0.28055238580901859 -0.0097180551089432275 0 0.30331726517711732 -0.0052925995653069144 0 0.30304225727946682 -0.02535223790687419 0 0.32137195505421529 -0.015898243580391651 0 0.30331726517711732 -0.0052925995653069144 0 0.30304225727946682 -0.02535223790687419 0 0.32425986246392052 -0.033691065944433669 0 0.30304225727946682 -0.02535223790687419 0 0.29867885146125989 -0.049668753681997399 0 0.32030355653188702 -0.05725166213107484 0 0.30084089948473991 -0.06971982864394019 0 0.29867885146125989 -0.049668753681997399 0 0.28248876695596542 -0.072559449331426981 0 0.27529405626903147 -0.055439275496625549 0 0.29867885146125989 -0.049668753681997399 0 0.27529405626903147 -0.055439275496625549 0 0.28481239386111168 -0.030223533045238719 0 0.29867885146125989 -0.049668753681997399 0 0.28481239386111168 -0.030223533045238719 0 0.30304225727946682 -0.02535223790687419 0 0.29867885146125989 -0.049668753681997399 0 0.29497532672148807 -0.20330004905006399 0 0.30572190681136868 -0.2127261397612748 0 0.28968512484027992 -0.22001324101018321 0 0.29497532672148807 -0.20330004905006399 0 0.28183488117348388 -0.205807002344982 0 0.28968512484027992 -0.22001324101018321 0 0.29497532672148807 -0.20330004905006399 0 0.28183488117348388 -0.205807002344982 0 0.28991896102056208 -0.1907833872724421 0 0.28183488117348388 -0.205807002344982 0 0.28991896102056208 -0.1907833872724421 0 0.27447219158370539 -0.19223384803060961 0 0.28991896102056208 -0.1907833872724421 0 0.30811922196755648 -0.19404612466760671 0 0.30236716118794171 -0.18018190632585501 0 0.29497532672148807 -0.20330004905006399 0 0.28991896102056208 -0.1907833872724421 0 0.30811922196755648 -0.19404612466760671 0 0.29497532672148807 -0.20330004905006399 0 0.30811922196755648 -0.19404612466760671 0 0.30572190681136868 -0.2127261397612748 0 0.30811922196755648 -0.19404612466760671 0 0.30572190681136868 -0.2127261397612748 0 0.32009740456185232 -0.20452606018481331 0 0.30572190681136868 -0.2127261397612748 0 0.30140725575014898 -0.2341096608688627 0 0.3182308647369525 -0.22497850976778511 0 0.30572190681136868 -0.2127261397612748 0 0.30140725575014898 -0.2341096608688627 0 0.28968512484027992 -0.22001324101018321 0 0.30140725575014898 -0.2341096608688627 0 0.31981317519911578 -0.24287448387094759 0 0.30089510905897687 -0.25399374763568749 0 0.30140725575014898 -0.2341096608688627 0 0.2833683716688068 -0.23780745418527879 0 0.30089510905897687 -0.25399374763568749 0 0.30140725575014898 -0.2341096608688627 0 0.2833683716688068 -0.23780745418527879 0 0.28968512484027992 -0.22001324101018321 0 0.2833683716688068 -0.23780745418527879 0 0.28968512484027992 -0.22001324101018321 0 0.27202042465755111 -0.22541088673943069 0 0.2833683716688068 -0.23780745418527879 0 0.27202042465755111 -0.22541088673943069 0 0.27202042465755111 -0.22541088673943069 0 0.26067247764629708 -0.21301431929358089 0 0.2833683716688068 -0.23780745418527879 0 0.27202042465755111 -0.22541088673943069 0 0.27189979870818792 -0.24802525381391011 0 0.2833683716688068 -0.23780745418527879 0 0.27189979870818792 -0.24802525381391011 0 0.28155802245106398 -0.26123087154921087 0 0.27202042465755111 -0.22541088673943069 0 0.27189979870818792 -0.24802525381391011 0 0.2589261248120231 -0.2398023966073263 0 0.27202042465755111 -0.22541088673943069 0 0.2589261248120231 -0.2398023966073263 0 0.26067247764629708 -0.21301431929358089 0 0.2589261248120231 -0.2398023966073263 0 0.26067247764629708 -0.21301431929358089 0 0.2589261248120231 -0.2398023966073263 0 0.26067247764629708 -0.21301431929358089 0 0.24847730535194609 -0.21581642753600219 0 0.26067247764629708 -0.21301431929358089 0 0.26169813641390283 -0.19728128652679949 0 0.26067247764629708 -0.21301431929358089 0 0.26169813641390283 -0.19728128652679949 0 0.25127085086622042 -0.20274392409661049 0 0.26067247764629708 -0.21301431929358089 0 0.26945204021131802 -0.20641380952294941 0 0.26169813641390283 -0.19728128652679949 0 0.25210222211090488 -0.21027452840459429 0 0.26067247764629708 -0.21301431929358089 0 0.24847730535194609 -0.21581642753600219 0 0.26067247764629708 -0.21301431929358089 0 0.25127085086622042 -0.20274392409661049 0 0.25210222211090488 -0.21027452840459429 0 0.26067247764629708 -0.21301431929358089 0 0.25127085086622042 -0.20274392409661049 0 0.25210222211090488 -0.21027452840459429 0 0.25127085086622042 -0.20274392409661049 0 0.24826203757697859 -0.20904635146702549 0 0.28183488117348388 -0.205807002344982 0 0.27202042465755111 -0.22541088673943069 0 0.26945204021131802 -0.20641380952294941 0 0.27202042465755111 -0.22541088673943069 0 0.26067247764629708 -0.21301431929358089 0 0.26945204021131802 -0.20641380952294941 0 0.28183488117348388 -0.205807002344982 0 0.28968512484027992 -0.22001324101018321 0 0.27202042465755111 -0.22541088673943069 0 0.27447219158370539 -0.19223384803060961 0 0.26169813641390283 -0.19728128652679949 0 0.26630342158388198 -0.18038007347436491 0 0.28183488117348388 -0.205807002344982 0 0.26945204021131802 -0.20641380952294941 0 0.27447219158370539 -0.19223384803060961 0 0.26945204021131802 -0.20641380952294941 0 0.27447219158370539 -0.19223384803060961 0 0.26169813641390283 -0.19728128652679949 0 0.25127085086622042 -0.20274392409661049 0 0.25282624908671331 -0.1758220399441334 0 0.26169813641390283 -0.19728128652679949 0 0.25127085086622042 -0.20274392409661049 0 0.25282624908671331 -0.1758220399441334 0 0.25282624908671331 -0.1758220399441334 0 0.262268654965153 -0.16286169691259811 0 0.26630342158388198 -0.18038007347436491 0 0.26169813641390283 -0.19728128652679949 0 0.25282624908671331 -0.1758220399441334 0 0.26630342158388198 -0.18038007347436491 0 0.25282624908671331 -0.1758220399441334 0 0.262268654965153 -0.16286169691259811 0 0.25438164730720608 -0.14890015579165641 0 0.25282624908671331 -0.1758220399441334 0 0.25438164730720608 -0.14890015579165641 0 0.262268654965153 -0.16286169691259811 0 0.28025187586993588 -0.17370149595768389 0 0.27443668267264693 -0.15454447875135899 0 0.27447219158370539 -0.19223384803060961 0 0.26630342158388198 -0.18038007347436491 0 0.28025187586993588 -0.17370149595768389 0 0.262268654965153 -0.16286169691259811 0 0.26630342158388198 -0.18038007347436491 0 0.28025187586993588 -0.17370149595768389 0 0.25593704552769991 -0.12197827163917919 0 0.26347723407631018 -0.14687204848618371 0 0.26981366613272401 -0.13378795211373509 0 0.25593704552769991 -0.12197827163917919 0 0.25438164730720608 -0.14890015579165641 0 0.25593704552769991 -0.12197827163917919 0 0.25438164730720608 -0.14890015579165641 0 0.26347723407631018 -0.14687204848618371 0 0.25606864185944761 -0.11970051334451839 0 0.25593704552769991 -0.12197827163917919 0 0.26981366613272401 -0.13378795211373509 0 0.25593704552769991 -0.12197827163917919 0 0.26981366613272401 -0.13378795211373509 0 0.262268654965153 -0.16286169691259811 0 0.25438164730720608 -0.14890015579165641 0 0.26347723407631018 -0.14687204848618371 0 0.26981366613272401 -0.13378795211373509 0 0.2921370271655151 -0.15278622038230039 0 0.26347723407631018 -0.14687204848618371 0 0.27443668267264693 -0.15454447875135899 0 0.26981366613272401 -0.13378795211373509 0 0.262268654965153 -0.16286169691259811 0 0.26347723407631018 -0.14687204848618371 0 0.27443668267264693 -0.15454447875135899 0 0.27443668267264693 -0.15454447875135899 0 0.26981366613272401 -0.13378795211373509 0 0.2921370271655151 -0.15278622038230039 0 0.26347723407631018 -0.14687204848618371 0 0.26981366613272401 -0.13378795211373509 0 0.26981366613272401 -0.13378795211373509 0 0.28814445963684759 -0.1289282632534639 0 0.2921370271655151 -0.15278622038230039 0 0.28814445963684759 -0.1289282632534639 0 0.2921370271655151 -0.15278622038230039 0 0.30506738055812971 -0.13323484281089171 0 0.2921370271655151 -0.15278622038230039 0 0.30506738055812971 -0.13323484281089171 0 0.3136509096799191 -0.14837727372465589 0 0.2921370271655151 -0.15278622038230039 0 0.31553194954252151 -0.16605881396654121 0 0.3136509096799191 -0.14837727372465589 0 0.29837461280501337 -0.11555904865269639 0 0.28814445963684759 -0.1289282632534639 0 0.30506738055812971 -0.13323484281089171 0 0.28991896102056208 -0.1907833872724421 0 0.28025187586993588 -0.17370149595768389 0 0.30236716118794171 -0.18018190632585501 0 0.28991896102056208 -0.1907833872724421 0 0.27447219158370539 -0.19223384803060961 0 0.28025187586993588 -0.17370149595768389 0 0.28025187586993588 -0.17370149595768389 0 0.27443668267264693 -0.15454447875135899 0 0.2921370271655151 -0.15278622038230039 0 0.28025187586993588 -0.17370149595768389 0 0.2921370271655151 -0.15278622038230039 0 0.30236716118794171 -0.18018190632585501 0 0.2921370271655151 -0.15278622038230039 0 0.30236716118794171 -0.18018190632585501 0 0.31553194954252151 -0.16605881396654121 0 0.30811922196755648 -0.19404612466760671 0 0.30236716118794171 -0.18018190632585501 0 0.32395291188944919 -0.181476487289704 0 0.30236716118794171 -0.18018190632585501 0 0.32395291188944919 -0.181476487289704 0 0.31553194954252151 -0.16605881396654121 0 0.32395291188944919 -0.181476487289704 0 0.31553194954252151 -0.16605881396654121 0 0.33718902950676821 -0.17139485115809061 0 0.31553194954252151 -0.16605881396654121 0 0.32903883773294201 -0.15781056914587871 0 0.3136509096799191 -0.14837727372465589 0 0.31553194954252151 -0.16605881396654121 0 0.32903883773294201 -0.15781056914587871 0 0.33718902950676821 -0.17139485115809061 0 0.32903883773294201 -0.15781056914587871 0 0.3435369671428446 -0.1614746897500825 0 0.33718902950676821 -0.17139485115809061 0 0.32395291188944919 -0.181476487289704 0 0.34408752785075158 -0.18504890046611741 0 0.32395291188944919 -0.181476487289704 0 0.33718902950676821 -0.17139485115809061 0 0.34408752785075158 -0.18504890046611741 0 0.33016819469832481 -0.1208417154969389 0 0.31612964921238501 -0.1196432655785709 0 0.32449659588964858 -0.13559367387714069 0 0.31612964921238501 -0.1196432655785709 0 0.30506738055812971 -0.13323484281089171 0 0.32449659588964858 -0.13559367387714069 0 0.30506738055812971 -0.13323484281089171 0 0.32449659588964858 -0.13559367387714069 0 0.3136509096799191 -0.14837727372465589 0 0.32903883773294201 -0.15781056914587871 0 0.32449659588964858 -0.13559367387714069 0 0.3136509096799191 -0.14837727372465589 0 0.32903883773294201 -0.15781056914587871 0 0.3435369671428446 -0.1614746897500825 0 0.34687716313550138 -0.1484667911410382 0 0.32903883773294201 -0.15781056914587871 0 0.3356955927795251 -0.14048233676254279 0 0.34967428318977589 -0.13969667128661381 0 0.32903883773294201 -0.15781056914587871 0 0.34967428318977589 -0.13969667128661381 0 0.32903883773294201 -0.15781056914587871 0 0.34967428318977589 -0.13969667128661381 0 0.34687716313550138 -0.1484667911410382 0 0.32903883773294201 -0.15781056914587871 0 0.32449659588964858 -0.13559367387714069 0 0.3356955927795251 -0.14048233676254279 0 0.32449659588964858 -0.13559367387714069 0 0.3356955927795251 -0.14048233676254279 0 0.33957265430573391 -0.12882843274053801 0 0.3356955927795251 -0.14048233676254279 0 0.33957265430573391 -0.12882843274053801 0 0.34967428318977589 -0.13969667128661381 0 0.33016819469832481 -0.1208417154969389 0 0.32449659588964858 -0.13559367387714069 0 0.33957265430573391 -0.12882843274053801 0 0.37030972864660971 -0.12158277342734899 0 0.35270467429094532 -0.1221809499246168 0 0.34967428318977589 -0.13969667128661381 0 0.35270467429094532 -0.1221809499246168 0 0.33957265430573391 -0.12882843274053801 0 0.34967428318977589 -0.13969667128661381 0 0.34967428318977589 -0.13969667128661381 0 0.34687716313550138 -0.1484667911410382 0 0.36940777519933887 -0.1344785628036789 0 0.34687716313550138 -0.1484667911410382 0 0.356292811919459 -0.14965866959245949 0 0.36940777519933887 -0.1344785628036789 0 0.34687716313550138 -0.1484667911410382 0 0.36940777519933887 -0.1344785628036789 0 0.3435369671428446 -0.1614746897500825 0 0.34687716313550138 -0.1484667911410382 0 0.35396421934632211 -0.15844110316285431 0 0.356292811919459 -0.14965866959245949 0 0.35396421934632211 -0.15844110316285431 0 0.36284663507048742 -0.15664710282366681 0 0.34687716313550138 -0.1484667911410382 0 0.356292811919459 -0.14965866959245949 0 0.35396421934632211 -0.15844110316285431 0 0.36956359185504972 -0.15266547680653689 0 0.36354925805501997 -0.14771545787473009 0 0.36284663507048742 -0.15664710282366681 0 0.356292811919459 -0.14965866959245949 0 0.36354925805501997 -0.14771545787473009 0 0.36284663507048742 -0.15664710282366681 0 0.37155692692458397 -0.1438425667155139 0 0.36354925805501997 -0.14771545787473009 0 0.36940777519933887 -0.1344785628036789 0 0.36956359185504972 -0.15266547680653689 0 0.37155692692458397 -0.1438425667155139 0 0.37799314034178988 -0.14776214853816699 0 0.36956359185504972 -0.15266547680653689 0 0.37155692692458397 -0.1438425667155139 0 0.36354925805501997 -0.14771545787473009 0 0.356292811919459 -0.14965866959245949 0 0.36354925805501997 -0.14771545787473009 0 0.36940777519933887 -0.1344785628036789 0 0.37030972864660971 -0.12158277342734899 0 0.34967428318977589 -0.13969667128661381 0 0.37030972864660971 -0.12158277342734899 0 0.34967428318977589 -0.13969667128661381 0 0.36940777519933887 -0.1344785628036789 0 0.37155692692458397 -0.1438425667155139 0 0.36940777519933887 -0.1344785628036789 0 0.38213642477486282 -0.13826493549022739 0 0.35211102374781728 -0.17880575375278929 0 0.34408752785075158 -0.18504890046611741 0 0.36249196295040781 -0.18602233996708181 0 0.34408752785075158 -0.18504890046611741 0 0.36422214381205398 -0.18862131364253101 0 0.34408752785075158 -0.18504890046611741 0 0.36249196295040781 -0.18602233996708181 0 0.36422214381205398 -0.18862131364253101 0 0.35211102374781728 -0.17880575375278929 0 0.35206398864105132 -0.1690887437355213 0 0.36327333895047148 -0.17705672819637569 0 0.35211102374781728 -0.17880575375278929 0 0.36327333895047148 -0.17705672819637569 0 0.36249196295040781 -0.18602233996708181 0 0.33718902950676821 -0.17139485115809061 0 0.35211102374781728 -0.17880575375278929 0 0.34408752785075158 -0.18504890046611741 0 0.33718902950676821 -0.17139485115809061 0 0.35211102374781728 -0.17880575375278929 0 0.35206398864105132 -0.1690887437355213 0 0.3435369671428446 -0.1614746897500825 0 0.33718902950676821 -0.17139485115809061 0 0.35206398864105132 -0.1690887437355213 0 0.3435369671428446 -0.1614746897500825 0 0.35396421934632211 -0.15844110316285431 0 0.35206398864105132 -0.1690887437355213 0 0.35396421934632211 -0.15844110316285431 0 0.35206398864105132 -0.1690887437355213 0 0.36256824895379502 -0.16616060911667641 0 0.35206398864105132 -0.1690887437355213 0 0.36256824895379502 -0.16616060911667641 0 0.36327333895047148 -0.17705672819637569 0 0.36256824895379502 -0.16616060911667641 0 0.37203696986797091 -0.17221914810896921 0 0.36327333895047148 -0.17705672819637569 0 0.36256824895379502 -0.16616060911667641 0 0.36284663507048742 -0.15664710282366681 0 0.37128338581303022 -0.16227477744690549 0 0.35396421934632211 -0.15844110316285431 0 0.36256824895379502 -0.16616060911667641 0 0.36284663507048742 -0.15664710282366681 0 0.36956359185504972 -0.15266547680653689 0 0.36284663507048742 -0.15664710282366681 0 0.37128338581303022 -0.16227477744690549 0 0.36956359185504972 -0.15266547680653689 0 0.37128338581303022 -0.16227477744690549 0 0.38086563525042011 -0.15704741439186479 0 0.37128338581303022 -0.16227477744690549 0 0.37203696986797091 -0.17221914810896921 0 0.38049079824853038 -0.16815705894046121 0 0.36256824895379502 -0.16616060911667641 0 0.37128338581303022 -0.16227477744690549 0 0.37203696986797091 -0.17221914810896921 0 0.37203696986797091 -0.17221914810896921 0 0.36327333895047148 -0.17705672819637569 0 0.37305375470337732 -0.18182414774985539 0 0.36327333895047148 -0.17705672819637569 0 0.36249196295040781 -0.18602233996708181 0 0.36576030010407762 -0.18338113238896089 0 0.36249196295040781 -0.18602233996708181 0 0.36576030010407762 -0.18338113238896089 0 0.36422214381205398 -0.18862131364253101 0 0.36249196295040781 -0.18602233996708181 0 0.36422214381205398 -0.18862131364253101 0 0.36327333895047148 -0.17705672819637569 0 0.36576030010407762 -0.18338113238896089 0 0.37305375470337732 -0.18182414774985539 0 0.36576030010407762 -0.18338113238896089 0 0.37305375470337732 -0.18182414774985539 0 0.36422214381205398 -0.18862131364253101 0 0.36422214381205398 -0.18862131364253101 0 0.36493458435682341 -0.2037469881303495 0 0.37899283140708939 -0.21080895256442941 0 0.36422214381205398 -0.18862131364253101 0 0.37899283140708939 -0.21080895256442941 0 0.36422214381205398 -0.18862131364253101 0 0.36493458435682341 -0.2037469881303495 0 0.35606677580972412 -0.1943028071708621 0 0.36493458435682341 -0.2037469881303495 0 0.34922596783028143 -0.21461489047404589 0 0.36446804948195888 -0.21913787461160869 0 0.36493458435682341 -0.2037469881303495 0 0.36446804948195888 -0.21913787461160869 0 0.37899283140708939 -0.21080895256442941 0 0.36493458435682341 -0.2037469881303495 0 0.34922596783028143 -0.21461489047404589 0 0.35102284721926769 -0.19979402644445041 0 0.34922596783028143 -0.21461489047404589 0 0.35102284721926769 -0.19979402644445041 0 0.33660333240971019 -0.20003882220559049 0 0.34408752785075158 -0.18504890046611741 0 0.36422214381205398 -0.18862131364253101 0 0.35606677580972412 -0.1943028071708621 0 0.36493458435682341 -0.2037469881303495 0 0.35606677580972412 -0.1943028071708621 0 0.35102284721926769 -0.19979402644445041 0 0.34408752785075158 -0.18504890046611741 0 0.35102284721926769 -0.19979402644445041 0 0.33660333240971019 -0.20003882220559049 0 0.34408752785075158 -0.18504890046611741 0 0.35606677580972412 -0.1943028071708621 0 0.35102284721926769 -0.19979402644445041 0 0.32395291188944919 -0.181476487289704 0 0.34408752785075158 -0.18504890046611741 0 0.33660333240971019 -0.20003882220559049 0 0.34922596783028143 -0.21461489047404589 0 0.33660333240971019 -0.20003882220559049 0 0.33201692624077139 -0.2148199648508759 0 0.33660333240971019 -0.20003882220559049 0 0.33201692624077139 -0.2148199648508759 0 0.32009740456185232 -0.20452606018481331 0 0.33201692624077139 -0.2148199648508759 0 0.32009740456185232 -0.20452606018481331 0 0.3182308647369525 -0.22497850976778511 0 0.30572190681136868 -0.2127261397612748 0 0.32009740456185232 -0.20452606018481331 0 0.3182308647369525 -0.22497850976778511 0 0.30811922196755648 -0.19404612466760671 0 0.32395291188944919 -0.181476487289704 0 0.32009740456185232 -0.20452606018481331 0 0.32395291188944919 -0.181476487289704 0 0.33660333240971019 -0.20003882220559049 0 0.32009740456185232 -0.20452606018481331 0 0.30140725575014898 -0.2341096608688627 0 0.31981317519911578 -0.24287448387094759 0 0.3182308647369525 -0.22497850976778511 0 0.31981317519911578 -0.24287448387094759 0 0.3182308647369525 -0.22497850976778511 0 0.33592706166506092 -0.22994154162214481 0 0.34922596783028143 -0.21461489047404589 0 0.33201692624077139 -0.2148199648508759 0 0.33592706166506092 -0.22994154162214481 0 0.33201692624077139 -0.2148199648508759 0 0.3182308647369525 -0.22497850976778511 0 0.33592706166506092 -0.22994154162214481 0 0.31981317519911578 -0.24287448387094759 0 0.33592706166506092 -0.22994154162214481 0 0.34198429267542441 -0.24930844878601471 0 0.33592706166506092 -0.22994154162214481 0 0.34198429267542441 -0.24930844878601471 0 0.36613640271634179 -0.2357918474831934 0 0.34198429267542441 -0.24930844878601471 0 0.36613640271634179 -0.2357918474831934 0 0.35473584003328418 -0.26401768568109518 0 0.34922596783028143 -0.21461489047404589 0 0.33592706166506092 -0.22994154162214481 0 0.36613640271634179 -0.2357918474831934 0 0.34922596783028143 -0.21461489047404589 0 0.36446804948195888 -0.21913787461160869 0 0.36613640271634179 -0.2357918474831934 0 0.36446804948195888 -0.21913787461160869 0 0.36613640271634179 -0.2357918474831934 0 0.37899283140708939 -0.21080895256442941 0 0.36613640271634179 -0.2357918474831934 0 0.39376351900212492 -0.23299659148632759 0 0.38932877852108783 -0.25195924155336757 0 0.39376351900212492 -0.23299659148632759 0 0.38932877852108783 -0.25195924155336757 0 0.4085342065971605 -0.25518423040822602 0 0.39376351900212492 -0.23299659148632759 0 0.4085342065971605 -0.25518423040822602 0 0.39376351900212492 -0.23299659148632759 0 0.39683934802637461 -0.21318700036231969 0 0.409189367054895 -0.22229414401634531 0 0.39376351900212492 -0.23299659148632759 0 0.37899283140708939 -0.21080895256442941 0 0.39376351900212492 -0.23299659148632759 0 0.37899283140708939 -0.21080895256442941 0 0.39683934802637461 -0.21318700036231969 0 0.36613640271634179 -0.2357918474831934 0 0.39376351900212492 -0.23299659148632759 0 0.37899283140708939 -0.21080895256442941 0 0.37899283140708939 -0.21080895256442941 0 0.39209673194548372 -0.19356700250624431 0 0.39683934802637461 -0.21318700036231969 0 0.36422214381205398 -0.18862131364253101 0 0.39209673194548372 -0.19356700250624431 0 0.36422214381205398 -0.18862131364253101 0 0.37899283140708939 -0.21080895256442941 0 0.39209673194548372 -0.19356700250624431 0 0.37305375470337732 -0.18182414774985539 0 0.36422214381205398 -0.18862131364253101 0 0.39209673194548372 -0.19356700250624431 0 0.39209673194548372 -0.19356700250624431 0 0.41997132007891341 -0.19851269136995781 0 0.39209673194548372 -0.19356700250624431 0 0.39683934802637461 -0.21318700036231969 0 0.40761713999187998 -0.20831248459928239 0 0.39683934802637461 -0.21318700036231969 0 0.40761713999187998 -0.20831248459928239 0 0.409189367054895 -0.22229414401634531 0 0.40761713999187998 -0.20831248459928239 0 0.41998893285373318 -0.2140015847415449 0 0.409189367054895 -0.22229414401634531 0 0.40761713999187998 -0.20831248459928239 0 0.41998893285373318 -0.2140015847415449 0 0.41997132007891341 -0.19851269136995781 0 0.39209673194548372 -0.19356700250624431 0 0.41997132007891341 -0.19851269136995781 0 0.40888276981438981 -0.18380101781738051 0 0.39209673194548372 -0.19356700250624431 0 0.40761713999187998 -0.20831248459928239 0 0.41997132007891341 -0.19851269136995781 0 0.41997132007891341 -0.19851269136995781 0 0.40888276981438981 -0.18380101781738051 0 0.42086253972432208 -0.18625469437091549 0 0.41997132007891341 -0.19851269136995781 0 0.43340986288514932 -0.19150472004611829 0 0.42086253972432208 -0.18625469437091549 0 0.41997132007891341 -0.19851269136995781 0 0.43340986288514932 -0.19150472004611829 0 0.43276884761356033 -0.2046115044174841 0 0.41998893285373318 -0.2140015847415449 0 0.43276884761356033 -0.2046115044174841 0 0.44200317102818432 -0.21952410527893221 0 0.41998893285373318 -0.2140015847415449 0 0.44200317102818432 -0.21952410527893221 0 0.41998893285373318 -0.2140015847415449 0 0.41997132007891341 -0.19851269136995781 0 0.43276884761356033 -0.2046115044174841 0 0.42870993676498859 -0.22587590916949571 0 0.43577041208285611 -0.23880669329599641 0 0.41682930855652378 -0.2376632684354088 0 0.42870993676498859 -0.22587590916949571 0 0.43577041208285611 -0.23880669329599641 0 0.44200317102818432 -0.21952410527893221 0 0.41998893285373318 -0.2140015847415449 0 0.42870993676498859 -0.22587590916949571 0 0.44200317102818432 -0.21952410527893221 0 0.43577041208285611 -0.23880669329599641 0 0.44379501503143759 -0.25204911479759817 0 0.42953765313752668 -0.2580892813130603 0 0.43577041208285611 -0.23880669329599641 0 0.42953765313752668 -0.2580892813130603 0 0.43577041208285611 -0.23880669329599641 0 0.41682930855652378 -0.2376632684354088 0 0.42953765313752668 -0.2580892813130603 0 0.39376351900212492 -0.23299659148632759 0 0.41682930855652378 -0.2376632684354088 0 0.4085342065971605 -0.25518423040822602 0 0.39376351900212492 -0.23299659148632759 0 0.41682930855652378 -0.2376632684354088 0 0.409189367054895 -0.22229414401634531 0 0.41998893285373318 -0.2140015847415449 0 0.42870993676498859 -0.22587590916949571 0 0.409189367054895 -0.22229414401634531 0 0.42870993676498859 -0.22587590916949571 0 0.41682930855652378 -0.2376632684354088 0 0.409189367054895 -0.22229414401634531 0 0.40107417029805159 -0.12789820224764609 0 0.39480498775326378 -0.13539537102475019 0 0.40759491022865629 -0.1347936736400672 0 0.40995839594710992 -0.1209134298594471 0 0.40107417029805159 -0.12789820224764609 0 0.40759491022865629 -0.1347936736400672 0 0.39480498775326378 -0.13539537102475019 0 0.39899828300566159 -0.14428187578032681 0 0.40759491022865629 -0.1347936736400672 0 0.39193838726317642 -0.1204903344663196 0 0.40107417029805159 -0.12789820224764609 0 0.39480498775326378 -0.13539537102475019 0 0.39193838726317642 -0.1204903344663196 0 0.36940777519933887 -0.1344785628036789 0 0.39193838726317642 -0.1204903344663196 0 0.37030972864660971 -0.12158277342734899 0 0.36940777519933887 -0.1344785628036789 0 0.39193838726317642 -0.1204903344663196 0 0.36940777519933887 -0.1344785628036789 0 0.38213642477486282 -0.13826493549022739 0 0.39193838726317642 -0.1204903344663196 0 0.39480498775326378 -0.13539537102475019 0 0.38213642477486282 -0.13826493549022739 0 0.39480498775326378 -0.13539537102475019 0 0.38213642477486282 -0.13826493549022739 0 0.38903051860953269 -0.1479189121569979 0 0.38213642477486282 -0.13826493549022739 0 0.38903051860953269 -0.1479189121569979 0 0.37799314034178988 -0.14776214853816699 0 0.37155692692458397 -0.1438425667155139 0 0.38213642477486282 -0.13826493549022739 0 0.37799314034178988 -0.14776214853816699 0 0.36956359185504972 -0.15266547680653689 0 0.37799314034178988 -0.14776214853816699 0 0.38086563525042011 -0.15704741439186479 0 0.38903051860953269 -0.1479189121569979 0 0.37799314034178988 -0.14776214853816699 0 0.38086563525042011 -0.15704741439186479 0 0.38903051860953269 -0.1479189121569979 0 0.38921139138230082 -0.15657158339527921 0 0.38086563525042011 -0.15704741439186479 0 0.38903051860953269 -0.1479189121569979 0 0.39778628264578869 -0.1571764879959919 0 0.38921139138230082 -0.15657158339527921 0 0.38903051860953269 -0.1479189121569979 0 0.39899828300566159 -0.14428187578032681 0 0.39778628264578869 -0.1571764879959919 0 0.39480498775326378 -0.13539537102475019 0 0.38903051860953269 -0.1479189121569979 0 0.39899828300566159 -0.14428187578032681 0 0.39899828300566159 -0.14428187578032681 0 0.40826600041827238 -0.14358100919115049 0 0.40759491022865629 -0.1347936736400672 0 0.39899828300566159 -0.14428187578032681 0 0.40485968958436258 -0.1488704754900966 0 0.40826600041827238 -0.14358100919115049 0 0.40485968958436258 -0.1488704754900966 0 0.39778628264578869 -0.1571764879959919 0 0.41010965119479942 -0.15585297321535829 0 0.39899828300566159 -0.14428187578032681 0 0.40485968958436258 -0.1488704754900966 0 0.39778628264578869 -0.1571764879959919 0 0.39778628264578869 -0.1571764879959919 0 0.38933550291534208 -0.16471816122531169 0 0.3989982544556453 -0.1741320479057259 0 0.39778628264578869 -0.1571764879959919 0 0.3989982544556453 -0.1741320479057259 0 0.40723242376154939 -0.16458839442427889 0 0.39778628264578869 -0.1571764879959919 0 0.40723242376154939 -0.16458839442427889 0 0.41010965119479942 -0.15585297321535829 0 0.38933550291534208 -0.16471816122531169 0 0.38869843533909371 -0.17487712534678521 0 0.3989982544556453 -0.1741320479057259 0 0.39778628264578869 -0.1571764879959919 0 0.38921139138230082 -0.15657158339527921 0 0.38933550291534208 -0.16471816122531169 0 0.38921139138230082 -0.15657158339527921 0 0.38086563525042011 -0.15704741439186479 0 0.38933550291534208 -0.16471816122531169 0 0.38086563525042011 -0.15704741439186479 0 0.38049079824853038 -0.16815705894046121 0 0.38933550291534208 -0.16471816122531169 0 0.37128338581303022 -0.16227477744690549 0 0.38086563525042011 -0.15704741439186479 0 0.38049079824853038 -0.16815705894046121 0 0.38049079824853038 -0.16815705894046121 0 0.38933550291534208 -0.16471816122531169 0 0.38869843533909371 -0.17487712534678521 0 0.39209673194548372 -0.19356700250624431 0 0.38869843533909371 -0.17487712534678521 0 0.38072486030532537 -0.17780572712293069 0 0.37305375470337732 -0.18182414774985539 0 0.39209673194548372 -0.19356700250624431 0 0.38072486030532537 -0.17780572712293069 0 0.38049079824853038 -0.16815705894046121 0 0.38869843533909371 -0.17487712534678521 0 0.38072486030532537 -0.17780572712293069 0 0.37203696986797091 -0.17221914810896921 0 0.37305375470337732 -0.18182414774985539 0 0.38072486030532537 -0.17780572712293069 0 0.37203696986797091 -0.17221914810896921 0 0.38049079824853038 -0.16815705894046121 0 0.38072486030532537 -0.17780572712293069 0 0.39209673194548372 -0.19356700250624431 0 0.38869843533909371 -0.17487712534678521 0 0.3989982544556453 -0.1741320479057259 0 0.39209673194548372 -0.19356700250624431 0 0.3989982544556453 -0.1741320479057259 0 0.40888276981438981 -0.18380101781738051 0 0.41259050747135212 -0.17354849852203491 0 0.42086253972432208 -0.18625469437091549 0 0.42827542751135977 -0.1755659678426047 0 0.3989982544556453 -0.1741320479057259 0 0.40888276981438981 -0.18380101781738051 0 0.41259050747135212 -0.17354849852203491 0 0.40888276981438981 -0.18380101781738051 0 0.41259050747135212 -0.17354849852203491 0 0.42086253972432208 -0.18625469437091549 0 0.43340986288514932 -0.19150472004611829 0 0.42086253972432208 -0.18625469437091549 0 0.42827542751135977 -0.1755659678426047 0 0.43340986288514932 -0.19150472004611829 0 0.42827542751135977 -0.1755659678426047 0 0.44846179877264092 -0.183406930301246 0 0.42827542751135977 -0.1755659678426047 0 0.43222250581474891 -0.1610129067731926 0 0.41913648989225588 -0.16267679192089071 0 0.43222250581474891 -0.1610129067731926 0 0.41913648989225588 -0.16267679192089071 0 0.42488315628620099 -0.15560748031394769 0 0.41913648989225588 -0.16267679192089071 0 0.41010965119479942 -0.15585297321535829 0 0.41868351144467408 -0.1535724696792273 0 0.41913648989225588 -0.16267679192089071 0 0.41868351144467408 -0.1535724696792273 0 0.42488315628620099 -0.15560748031394769 0 0.41259050747135212 -0.17354849852203491 0 0.42827542751135977 -0.1755659678426047 0 0.41913648989225588 -0.16267679192089071 0 0.3989982544556453 -0.1741320479057259 0 0.41259050747135212 -0.17354849852203491 0 0.40723242376154939 -0.16458839442427889 0 0.41259050747135212 -0.17354849852203491 0 0.41913648989225588 -0.16267679192089071 0 0.40723242376154939 -0.16458839442427889 0 0.41913648989225588 -0.16267679192089071 0 0.40723242376154939 -0.16458839442427889 0 0.41010965119479942 -0.15585297321535829 0 0.41010965119479942 -0.15585297321535829 0 0.4129595098401655 -0.14823321978166479 0 0.41868351144467408 -0.1535724696792273 0 0.40485968958436258 -0.1488704754900966 0 0.41010965119479942 -0.15585297321535829 0 0.4129595098401655 -0.14823321978166479 0 0.40485968958436258 -0.1488704754900966 0 0.40826600041827238 -0.14358100919115049 0 0.4129595098401655 -0.14823321978166479 0 0.40826600041827238 -0.14358100919115049 0 0.4129595098401655 -0.14823321978166479 0 0.41691760943251599 -0.14172580126359699 0 0.4129595098401655 -0.14823321978166479 0 0.41691760943251599 -0.14172580126359699 0 0.41904338830735371 -0.14735650544666981 0 0.41691760943251599 -0.14172580126359699 0 0.41904338830735371 -0.14735650544666981 0 0.42310348344701859 -0.14263257157531131 0 0.41904338830735371 -0.14735650544666981 0 0.41868351144467408 -0.1535724696792273 0 0.42418183730887182 -0.1494363177597324 0 0.4129595098401655 -0.14823321978166479 0 0.41904338830735371 -0.14735650544666981 0 0.41868351144467408 -0.1535724696792273 0 0.43222250581474891 -0.1610129067731926 0 0.42488315628620099 -0.15560748031394769 0 0.42831114605944909 -0.15141622938567059 0 0.41868351144467408 -0.1535724696792273 0 0.42488315628620099 -0.15560748031394769 0 0.42418183730887182 -0.1494363177597324 0 0.42488315628620099 -0.15560748031394769 0 0.42418183730887182 -0.1494363177597324 0 0.42831114605944909 -0.15141622938567059 0 0.42418183730887182 -0.1494363177597324 0 0.42831114605944909 -0.15141622938567059 0 0.42733753061622548 -0.1460751782137483 0 0.43222250581474891 -0.1610129067731926 0 0.42831114605944909 -0.15141622938567059 0 0.43224112574760482 -0.1454718746122009 0 0.43224112574760482 -0.1454718746122009 0 0.42885006051818347 -0.14141889773582619 0 0.42733753061622548 -0.1460751782137483 0 0.42885006051818347 -0.14141889773582619 0 0.42733753061622548 -0.1460751782137483 0 0.42310348344701859 -0.14263257157531131 0 0.42831114605944909 -0.15141622938567059 0 0.43224112574760482 -0.1454718746122009 0 0.42733753061622548 -0.1460751782137483 0 0.42418183730887182 -0.1494363177597324 0 0.42733753061622548 -0.1460751782137483 0 0.42310348344701859 -0.14263257157531131 0 0.41904338830735371 -0.14735650544666981 0 0.42418183730887182 -0.1494363177597324 0 0.42310348344701859 -0.14263257157531131 0 0.42885006051818347 -0.14141889773582619 0 0.42310348344701859 -0.14263257157531131 0 0.42268949967717462 -0.13218444754753181 0 0.42598759425215799 -0.11940928524243399 0 0.42268949967717462 -0.13218444754753181 0 0.44663754538863742 -0.12524929654420119 0 0.42885006051818347 -0.14141889773582619 0 0.42268949967717462 -0.13218444754753181 0 0.44663754538863742 -0.12524929654420119 0 0.43224112574760482 -0.1454718746122009 0 0.42885006051818347 -0.14141889773582619 0 0.44663754538863742 -0.12524929654420119 0 0.41691760943251599 -0.14172580126359699 0 0.42268949967717462 -0.13218444754753181 0 0.40759491022865629 -0.1347936736400672 0 0.41691760943251599 -0.14172580126359699 0 0.42310348344701859 -0.14263257157531131 0 0.42268949967717462 -0.13218444754753181 0 0.40826600041827238 -0.14358100919115049 0 0.41691760943251599 -0.14172580126359699 0 0.40759491022865629 -0.1347936736400672 0 0.40995839594710992 -0.1209134298594471 0 0.42268949967717462 -0.13218444754753181 0 0.40759491022865629 -0.1347936736400672 0 0.46385687996953689 -0.1282317786652073 0 0.45227261633931082 -0.14449657678228969 0 0.47544712105845832 -0.14404982286224169 0 0.46385687996953689 -0.1282317786652073 0 0.44663754538863742 -0.12524929654420119 0 0.45227261633931082 -0.14449657678228969 0 0.42885006051818347 -0.14141889773582619 0 0.44663754538863742 -0.12524929654420119 0 0.43224112574760482 -0.1454718746122009 0 0.44663754538863742 -0.12524929654420119 0 0.45227261633931082 -0.14449657678228969 0 0.43224112574760482 -0.1454718746122009 0 0.45250540264483391 -0.16666746655292189 0 0.43224112574760482 -0.1454718746122009 0 0.45227261633931082 -0.14449657678228969 0 0.45250540264483391 -0.16666746655292189 0 0.45227261633931082 -0.14449657678228969 0 0.45250540264483391 -0.16666746655292189 0 0.47544712105845832 -0.14404982286224169 0 0.42827542751135977 -0.1755659678426047 0 0.43222250581474891 -0.1610129067731926 0 0.45250540264483391 -0.16666746655292189 0 0.43222250581474891 -0.1610129067731926 0 0.43224112574760482 -0.1454718746122009 0 0.45250540264483391 -0.16666746655292189 0 0.42827542751135977 -0.1755659678426047 0 0.45250540264483391 -0.16666746655292189 0 0.44846179877264092 -0.183406930301246 0 0.45250540264483391 -0.16666746655292189 0 0.44846179877264092 -0.183406930301246 0 0.47276967954206273 -0.18786305849364249 0 0.45250540264483391 -0.16666746655292189 0 0.47276967954206273 -0.18786305849364249 0 0.45250540264483391 -0.16666746655292189 0 0.4806448387593304 -0.16963037666256761 0 0.47276967954206273 -0.18786305849364249 0 0.4806448387593304 -0.16963037666256761 0 0.47276967954206273 -0.18786305849364249 0 0.48833538920823139 -0.19326602942673651 0 0.5 -0.18162900801265119 0 0.4806448387593304 -0.16963037666256761 0 0.48833538920823139 -0.19326602942673651 0 0.4806448387593304 -0.16963037666256761 0 0.47544712105845832 -0.14404982286224169 0 0.5 -0.15540687925182001 0 0.5 -0.18162900801265119 0 0.4806448387593304 -0.16963037666256761 0 0.5 -0.15540687925182001 0 0.45250540264483391 -0.16666746655292189 0 0.4806448387593304 -0.16963037666256761 0 0.47544712105845832 -0.14404982286224169 0 0.47544712105845832 -0.14404982286224169 0 0.5 -0.15540687925182001 0 0.5 -0.12918475049098879 0 0.48050208680218681 -0.1182835017847277 0 0.47544712105845832 -0.14404982286224169 0 0.5 -0.12918475049098879 0 0.48050208680218681 -0.1182835017847277 0 0.46385687996953689 -0.1282317786652073 0 0.47544712105845832 -0.14404982286224169 0 0.45455925349782378 -0.2400900069645476 0 0.44200317102818432 -0.21952410527893221 0 0.47100158551409421 -0.22679868540662229 0 0.44200317102818432 -0.21952410527893221 0 0.47100158551409421 -0.22679868540662229 0 0.44200317102818432 -0.21952410527893221 0 0.45875525617209478 -0.21331086267871069 0 0.47100158551409421 -0.22679868540662229 0 0.45455925349782378 -0.2400900069645476 0 0.47100158551409421 -0.22679868540662229 0 0.47500016860264521 -0.25209104298406593 0 0.45455925349782378 -0.2400900069645476 0 0.47500016860264521 -0.25209104298406593 0 0.4585285156158021 -0.25681146088319362 0 0.43577041208285611 -0.23880669329599641 0 0.45455925349782378 -0.2400900069645476 0 0.44379501503143759 -0.25204911479759817 0 0.45455925349782378 -0.2400900069645476 0 0.4585285156158021 -0.25681146088319362 0 0.44379501503143759 -0.25204911479759817 0 0.43577041208285611 -0.23880669329599641 0 0.45455925349782378 -0.2400900069645476 0 0.44200317102818432 -0.21952410527893221 0 0.43577041208285611 -0.23880669329599641 0 0.44200317102818432 -0.21952410527893221 0 0.43276884761356033 -0.2046115044174841 0 0.44200317102818432 -0.21952410527893221 0 0.44847095122182079 -0.19951442065086711 0 0.44200317102818432 -0.21952410527893221 0 0.44847095122182079 -0.19951442065086711 0 0.45875525617209478 -0.21331086267871069 0 0.44200317102818432 -0.21952410527893221 0 0.44847095122182079 -0.19951442065086711 0 0.43340986288514932 -0.19150472004611829 0 0.43276884761356033 -0.2046115044174841 0 0.44847095122182079 -0.19951442065086711 0 0.43340986288514932 -0.19150472004611829 0 0.44846179877264092 -0.183406930301246 0 0.44847095122182079 -0.19951442065086711 0 0.44846179877264092 -0.183406930301246 0 0.44847095122182079 -0.19951442065086711 0 0.47276967954206273 -0.18786305849364249 0 0.44847095122182079 -0.19951442065086711 0 0.47354531692427998 -0.20740623937842109 0 0.47276967954206273 -0.18786305849364249 0 0.45875525617209478 -0.21331086267871069 0 0.47354531692427998 -0.20740623937842109 0 0.47100158551409421 -0.22679868540662229 0 0.44847095122182079 -0.19951442065086711 0 0.45875525617209478 -0.21331086267871069 0 0.47354531692427998 -0.20740623937842109 0 0.47354531692427998 -0.20740623937842109 0 0.49303395643929171 -0.20905865043436331 0 0.47100158551409421 -0.22679868540662229 0 0.47276967954206273 -0.18786305849364249 0 0.49303395643929171 -0.20905865043436331 0 0.47354531692427998 -0.20740623937842109 0 0.47276967954206273 -0.18786305849364249 0 0.49303395643929171 -0.20905865043436331 0 0.5 -0.18162900801265119 0 0.48833538920823139 -0.19326602942673651 0 0.5 -0.2078511367734823 0 0.47276967954206273 -0.18786305849364249 0 0.48833538920823139 -0.19326602942673651 0 0.49303395643929171 -0.20905865043436331 0 0.5 -0.2078511367734823 0 0.49303395643929171 -0.20905865043436331 0 0.50000000000000377 -0.23407326553431351 0 0.48833538920823139 -0.19326602942673651 0 0.5 -0.2078511367734823 0 0.49303395643929171 -0.20905865043436331 0 0.49303395643929171 -0.20905865043436331 0 0.50000000000000377 -0.23407326553431351 0 0.47100158551409421 -0.22679868540662229 0 0.50000000000000377 -0.23407326553431351 0 0.47100158551409421 -0.22679868540662229 0 0.50000000000000377 -0.23407326553431351 0 0.47100158551409421 -0.22679868540662229 0 0.47500016860264521 -0.25209104298406593 0 0.50000000000000377 -0.23407326553431351 0 0.49999999999999267 -0.25782986628892679 0 0.47500016860264521 -0.25209104298406593 0 0.49999999999999267 -0.25782986628892679 0 0.47824486246821152 -0.27810391492402159 0 0.47500016860264521 -0.25209104298406593 0 0.49999999999999267 -0.25782986628892679 0 0.47824486246821152 -0.27810391492402159 0 0.49999999999999267 -0.25782986628892679 0 0.47824486246821152 -0.27810391492402159 0 0.5 -0.28759794679673911 0 0.47824486246821152 -0.27810391492402159 0 0.47500016860264521 -0.25209104298406593 0 0.46214335765928372 -0.27323887624480381 0 0.47500016860264521 -0.25209104298406593 0 0.4585285156158021 -0.25681146088319362 0 0.46214335765928372 -0.27323887624480381 0 0.4585285156158021 -0.25681146088319362 0 0.46214335765928372 -0.27323887624480381 0 0.44497405652383859 -0.27491689543752068 0 0.44497405652383859 -0.27491689543752068 0 0.44379501503143759 -0.25204911479759817 0 0.42953765313752668 -0.2580892813130603 0 0.4585285156158021 -0.25681146088319362 0 0.44497405652383859 -0.27491689543752068 0 0.44379501503143759 -0.25204911479759817 0 0.45648972493643369 -0.29837796355912011 0 0.43473458740465593 -0.31865201219421868 0 0.43799261909993131 -0.29943488669070611 0 0.45648972493643369 -0.29837796355912011 0 0.43473458740465593 -0.31865201219421868 0 0.45648972493643369 -0.29837796355912011 0 0.45419627636937171 -0.31959205494333143 0 0.43473458740465593 -0.31865201219421868 0 0.44497405652383859 -0.27491689543752068 0 0.43799261909993131 -0.29943488669070611 0 0.45648972493643369 -0.29837796355912011 0 0.47824486246821152 -0.27810391492402159 0 0.45648972493643369 -0.29837796355912011 0 0.47824486246821152 -0.27810391492402159 0 0.46214335765928372 -0.27323887624480381 0 0.45648972493643369 -0.29837796355912011 0 0.46214335765928372 -0.27323887624480381 0 0.44497405652383859 -0.27491689543752068 0 0.45648972493643369 -0.29837796355912011 0 0.45648972493643369 -0.29837796355912011 0 0.45419627636937171 -0.31959205494333143 0 0.46872364959887042 -0.31636939876438602 0 0.45648972493643369 -0.29837796355912011 0 0.48162855918712522 -0.30454833521441638 0 0.46872364959887042 -0.31636939876438602 0 0.47824486246821152 -0.27810391492402159 0 0.45648972493643369 -0.29837796355912011 0 0.48162855918712522 -0.30454833521441638 0 0.47824486246821152 -0.27810391492402159 0 0.48162855918712522 -0.30454833521441638 0 0.5 -0.28759794679673911 0 0.48162855918712522 -0.30454833521441638 0 0.5 -0.28759794679673911 0 0.5 -0.31736602730455138 0 0.48162855918712522 -0.30454833521441638 0 0.5 -0.31736602730455138 0 0.48164353698453061 -0.32778979282067239 0 0.5 -0.31736602730455138 0 0.48164353698453061 -0.32778979282067239 0 0.5 -0.34713410781236381 0 0.48164353698453061 -0.32778979282067239 0 0.5 -0.34713410781236381 0 0.47465777358317007 -0.34940007558599051 0 0.48164353698453061 -0.32778979282067239 0 0.47465777358317007 -0.34940007558599051 0 0.46485123953801782 -0.33192081224232711 0 0.48162855918712522 -0.30454833521441638 0 0.48164353698453061 -0.32778979282067239 0 0.46872364959887042 -0.31636939876438602 0 0.48164353698453061 -0.32778979282067239 0 0.46872364959887042 -0.31636939876438602 0 0.46485123953801782 -0.33192081224232711 0 0.5 -0.34713410781236381 0 0.47879580736863459 -0.371049180350637 0 0.5 -0.37690218832017608 0 0.5 -0.34713410781236381 0 0.47465777358317007 -0.34940007558599051 0 0.47879580736863459 -0.371049180350637 0 0.47465777358317007 -0.34940007558599051 0 0.47879580736863459 -0.371049180350637 0 0.46074877569132722 -0.36451658648935648 0 0.47879580736863459 -0.371049180350637 0 0.46074877569132722 -0.36451658648935648 0 0.45556428736393301 -0.38720244263304793 0 0.47465777358317007 -0.34940007558599051 0 0.46074877569132722 -0.36451658648935648 0 0.45693450938015567 -0.34706808129118349 0 0.46074877569132722 -0.36451658648935648 0 0.45693450938015567 -0.34706808129118349 0 0.43837190756355088 -0.35479591210669292 0 0.45693450938015567 -0.34706808129118349 0 0.43837190756355088 -0.35479591210669292 0 0.44604285052471249 -0.3347070200315504 0 0.46074877569132722 -0.36451658648935648 0 0.43837190756355088 -0.35479591210669292 0 0.4434715783202316 -0.37390891700863782 0 0.45419627636937171 -0.31959205494333143 0 0.46872364959887042 -0.31636939876438602 0 0.46485123953801782 -0.33192081224232711 0 0.47465777358317007 -0.34940007558599051 0 0.45693450938015567 -0.34706808129118349 0 0.46485123953801782 -0.33192081224232711 0 0.45419627636937171 -0.31959205494333143 0 0.46485123953801782 -0.33192081224232711 0 0.44604285052471249 -0.3347070200315504 0 0.45693450938015567 -0.34706808129118349 0 0.46485123953801782 -0.33192081224232711 0 0.44604285052471249 -0.3347070200315504 0 0.43837190756355088 -0.35479591210669292 0 0.44604285052471249 -0.3347070200315504 0 0.42975219404958548 -0.33950780780095507 0 0.45419627636937171 -0.31959205494333143 0 0.44604285052471249 -0.3347070200315504 0 0.43473458740465593 -0.31865201219421868 0 0.43473458740465593 -0.31865201219421868 0 0.41209848157866102 -0.33974705283714651 0 0.42064260321988378 -0.32225511918081179 0 0.43473458740465593 -0.31865201219421868 0 0.42064260321988378 -0.32225511918081179 0 0.42428576763081749 -0.31063049362338963 0 0.44604285052471249 -0.3347070200315504 0 0.43473458740465593 -0.31865201219421868 0 0.42975219404958548 -0.33950780780095507 0 0.43473458740465593 -0.31865201219421868 0 0.41209848157866102 -0.33974705283714651 0 0.43473458740465593 -0.31865201219421868 0 0.42975219404958548 -0.33950780780095507 0 0.41209848157866102 -0.33974705283714651 0 0.42975219404958548 -0.33950780780095507 0 0.41209848157866102 -0.33974705283714651 0 0.42129091085500392 -0.34790342794311951 0 0.42975219404958548 -0.33950780780095507 0 0.41209848157866102 -0.33974705283714651 0 0.41209848157866102 -0.33974705283714651 0 0.42064260321988378 -0.32225511918081179 0 0.41209848157866102 -0.33974705283714651 0 0.41230635553038192 -0.32811511630288598 0 0.42064260321988378 -0.32225511918081179 0 0.41209848157866102 -0.33974705283714651 0 0.4090229085753801 -0.3355115614475761 0 0.39820777136252478 -0.33424059673082362 0 0.41209848157866102 -0.33974705283714651 0 0.4090229085753801 -0.3355115614475761 0 0.41230635553038192 -0.32811511630288598 0 0.4090229085753801 -0.3355115614475761 0 0.41230635553038192 -0.32811511630288598 0 0.40494262109434198 -0.32981628816661079 0 0.40701754919289679 -0.32496600817852039 0 0.41230635553038192 -0.32811511630288598 0 0.41049426071335471 -0.31700284592459049 0 0.40701754919289679 -0.32496600817852039 0 0.41230635553038192 -0.32811511630288598 0 0.40494262109434198 -0.32981628816661079 0 0.41049426071335471 -0.31700284592459049 0 0.42064260321988378 -0.32225511918081179 0 0.42428576763081749 -0.31063049362338963 0 0.41230635553038192 -0.32811511630288598 0 0.41049426071335471 -0.31700284592459049 0 0.42064260321988378 -0.32225511918081179 0 0.43837190756355088 -0.35479591210669292 0 0.4434715783202316 -0.37390891700863782 0 0.42783864511997288 -0.37279889010966938 0 0.43837190756355088 -0.35479591210669292 0 0.42783864511997288 -0.37279889010966938 0 0.42071732462199252 -0.36016022819819737 0 0.43837190756355088 -0.35479591210669292 0 0.42975219404958548 -0.33950780780095507 0 0.42129091085500392 -0.34790342794311951 0 0.43837190756355088 -0.35479591210669292 0 0.42129091085500392 -0.34790342794311951 0 0.42071732462199252 -0.36016022819819737 0 0.41209848157866102 -0.33974705283714651 0 0.40045021812584042 -0.36618299826713002 0 0.41209848157866102 -0.33974705283714651 0 0.41327527435031619 -0.35526130158583902 0 0.40045021812584042 -0.36618299826713002 0 0.41209848157866102 -0.33974705283714651 0 0.42129091085500392 -0.34790342794311951 0 0.41327527435031619 -0.35526130158583902 0 0.41327527435031619 -0.35526130158583902 0 0.42071732462199252 -0.36016022819819737 0 0.4113126980000163 -0.36231966805996008 0 0.42129091085500392 -0.34790342794311951 0 0.41327527435031619 -0.35526130158583902 0 0.42071732462199252 -0.36016022819819737 0 0.42071732462199252 -0.36016022819819737 0 0.4113126980000163 -0.36231966805996008 0 0.41364646977261621 -0.37218563018249418 0 0.4113126980000163 -0.36231966805996008 0 0.41364646977261621 -0.37218563018249418 0 0.40045021812584042 -0.36618299826713002 0 0.41327527435031619 -0.35526130158583902 0 0.4113126980000163 -0.36231966805996008 0 0.40045021812584042 -0.36618299826713002 0 0.42783864511997288 -0.37279889010966938 0 0.42071732462199252 -0.36016022819819737 0 0.41364646977261621 -0.37218563018249418 0 0.40045021812584042 -0.36618299826713002 0 0.38865817942383118 -0.36923274744768969 0 0.38429866423071068 -0.38063839360942903 0 0.41364646977261621 -0.37218563018249418 0 0.40045021812584042 -0.36618299826713002 0 0.40417453554799421 -0.38290446435925229 0 0.40045021812584042 -0.36618299826713002 0 0.39399410563914578 -0.35661888358378308 0 0.38865817942383118 -0.36923274744768969 0 0.41209848157866102 -0.33974705283714651 0 0.39399410563914578 -0.35661888358378308 0 0.41209848157866102 -0.33974705283714651 0 0.40045021812584042 -0.36618299826713002 0 0.39399410563914578 -0.35661888358378308 0 0.41209848157866102 -0.33974705283714651 0 0.39399410563914578 -0.35661888358378308 0 0.3974607722127132 -0.34773811595781512 0 0.3974607722127132 -0.34773811595781512 0 0.39319090152193148 -0.34535348197756133 0 0.39771233530658617 -0.34354327972786047 0 0.39399410563914578 -0.35661888358378308 0 0.3974607722127132 -0.34773811595781512 0 0.38988167286668901 -0.35005494811178661 0 0.3974607722127132 -0.34773811595781512 0 0.39319090152193148 -0.34535348197756133 0 0.38988167286668901 -0.35005494811178661 0 0.38988167286668901 -0.35005494811178661 0 0.36840262698596521 -0.36268104081258729 0 0.38988167286668901 -0.35005494811178661 0 0.38204203379785701 -0.36071139670964342 0 0.36840262698596521 -0.36268104081258729 0 0.38988167286668901 -0.35005494811178661 0 0.36840262698596521 -0.36268104081258729 0 0.37421559042340868 -0.34914018865551522 0 0.38988167286668901 -0.35005494811178661 0 0.38770882570173792 -0.34007758411278338 0 0.37421559042340868 -0.34914018865551522 0 0.39319090152193148 -0.34535348197756133 0 0.38988167286668901 -0.35005494811178661 0 0.38770882570173792 -0.34007758411278338 0 0.39399410563914578 -0.35661888358378308 0 0.38988167286668901 -0.35005494811178661 0 0.38204203379785701 -0.36071139670964342 0 0.39399410563914578 -0.35661888358378308 0 0.37588972969962792 -0.37349071433041681 0 0.39399410563914578 -0.35661888358378308 0 0.38204203379785701 -0.36071139670964342 0 0.37588972969962792 -0.37349071433041681 0 0.39399410563914578 -0.35661888358378308 0 0.37588972969962792 -0.37349071433041681 0 0.38865817942383118 -0.36923274744768969 0 0.38204203379785701 -0.36071139670964342 0 0.37588972969962792 -0.37349071433041681 0 0.36840262698596521 -0.36268104081258729 0 0.37588972969962792 -0.37349071433041681 0 0.38865817942383118 -0.36923274744768969 0 0.38429866423071068 -0.38063839360942903 0 0.41049426071335471 -0.31700284592459049 0 0.39763533441519477 -0.32482086843831193 0 0.3935598852731706 -0.31216692133113177 0 0.40701754919289679 -0.32496600817852039 0 0.41049426071335471 -0.31700284592459049 0 0.39763533441519477 -0.32482086843831193 0 0.40701754919289679 -0.32496600817852039 0 0.39763533441519477 -0.32482086843831193 0 0.40494262109434198 -0.32981628816661079 0 0.41209848157866102 -0.33974705283714651 0 0.39820777136252478 -0.33424059673082362 0 0.38770882570173792 -0.34007758411278338 0 0.41209848157866102 -0.33974705283714651 0 0.39771233530658617 -0.34354327972786047 0 0.38770882570173792 -0.34007758411278338 0 0.41209848157866102 -0.33974705283714651 0 0.38770882570173792 -0.34007758411278338 0 0.39763533441519477 -0.32482086843831193 0 0.40494262109434198 -0.32981628816661079 0 0.39820777136252478 -0.33424059673082362 0 0.4090229085753801 -0.3355115614475761 0 0.40494262109434198 -0.32981628816661079 0 0.39820777136252478 -0.33424059673082362 0 0.41209848157866102 -0.33974705283714651 0 0.3974607722127132 -0.34773811595781512 0 0.39771233530658617 -0.34354327972786047 0 0.39319090152193148 -0.34535348197756133 0 0.39771233530658617 -0.34354327972786047 0 0.38770882570173792 -0.34007758411278338 0 0.39763533441519477 -0.32482086843831193 0 0.39820777136252478 -0.33424059673082362 0 0.38811524130216929 -0.33069873403122713 0 0.39820777136252478 -0.33424059673082362 0 0.38811524130216929 -0.33069873403122713 0 0.38770882570173792 -0.34007758411278338 0 0.38811524130216929 -0.33069873403122713 0 0.38770882570173792 -0.34007758411278338 0 0.3633191698248146 -0.34040811538842569 0 0.38811524130216929 -0.33069873403122713 0 0.3795349150393289 -0.32407826915266419 0 0.3633191698248146 -0.34040811538842569 0 0.38770882570173792 -0.34007758411278338 0 0.3633191698248146 -0.34040811538842569 0 0.37421559042340868 -0.34914018865551522 0 0.38770882570173792 -0.34007758411278338 0 0.3633191698248146 -0.34040811538842569 0 0.3795349150393289 -0.32407826915266419 0 0.3935598852731706 -0.31216692133113177 0 0.36908857108534188 -0.31171233834703632 0 0.39763533441519477 -0.32482086843831193 0 0.38811524130216929 -0.33069873403122713 0 0.3795349150393289 -0.32407826915266419 0 0.39763533441519477 -0.32482086843831193 0 0.3795349150393289 -0.32407826915266419 0 0.3935598852731706 -0.31216692133113177 0 0.38813334639774177 -0.29687881615364298 0 0.3935598852731706 -0.31216692133113177 0 0.36908857108534188 -0.31171233834703632 0 0.38813334639774177 -0.29687881615364298 0 0.36908857108534188 -0.31171233834703632 0 0.38813334639774177 -0.29687881615364298 0 0.3935598852731706 -0.31216692133113177 0 0.41647288398806181 -0.29850838997054491 0 0.38813334639774177 -0.29687881615364298 0 0.38249229615847258 -0.27998617100482848 0 0.4013777343091201 -0.27664811973678899 0 0.38813334639774177 -0.29687881615364298 0 0.4013777343091201 -0.27664811973678899 0 0.41647288398806181 -0.29850838997054491 0 0.38813334639774177 -0.29687881615364298 0 0.38249229615847258 -0.27998617100482848 0 0.36187197490429501 -0.28780440654160111 0 0.36613640271634179 -0.2357918474831934 0 0.38932877852108783 -0.25195924155336757 0 0.37420173559392561 -0.26422388965182281 0 0.38249229615847258 -0.27998617100482848 0 0.38932877852108783 -0.25195924155336757 0 0.37420173559392561 -0.26422388965182281 0 0.38932877852108783 -0.25195924155336757 0 0.4013777343091201 -0.27664811973678899 0 0.4085342065971605 -0.25518423040822602 0 0.38249229615847258 -0.27998617100482848 0 0.38932877852108783 -0.25195924155336757 0 0.4013777343091201 -0.27664811973678899 0 0.4013777343091201 -0.27664811973678899 0 0.4085342065971605 -0.25518423040822602 0 0.42330489419219652 -0.27737186933012398 0 0.4085342065971605 -0.25518423040822602 0 0.42330489419219652 -0.27737186933012398 0 0.4085342065971605 -0.25518423040822602 0 0.42953765313752668 -0.2580892813130603 0 0.42330489419219652 -0.27737186933012398 0 0.41682930855652378 -0.2376632684354088 0 0.4085342065971605 -0.25518423040822602 0 0.42953765313752668 -0.2580892813130603 0 0.42953765313752668 -0.2580892813130603 0 0.42330489419219652 -0.27737186933012398 0 0.44497405652383859 -0.27491689543752068 0 0.42953765313752668 -0.2580892813130603 0 0.42330489419219652 -0.27737186933012398 0 0.44497405652383859 -0.27491689543752068 0 0.43799261909993131 -0.29943488669070611 0 0.42330489419219652 -0.27737186933012398 0 0.43799261909993131 -0.29943488669070611 0 0.42330489419219652 -0.27737186933012398 0 0.43799261909993131 -0.29943488669070611 0 0.42330489419219652 -0.27737186933012398 0 0.41647288398806181 -0.29850838997054491 0 0.43799261909993131 -0.29943488669070611 0 0.43473458740465593 -0.31865201219421868 0 0.42428576763081749 -0.31063049362338963 0 0.43799261909993131 -0.29943488669070611 0 0.42428576763081749 -0.31063049362338963 0 0.41647288398806181 -0.29850838997054491 0 0.41049426071335471 -0.31700284592459049 0 0.3935598852731706 -0.31216692133113177 0 0.41647288398806181 -0.29850838997054491 0 0.41049426071335471 -0.31700284592459049 0 0.42428576763081749 -0.31063049362338963 0 0.41647288398806181 -0.29850838997054491 0 0.4013777343091201 -0.27664811973678899 0 0.42330489419219652 -0.27737186933012398 0 0.41647288398806181 -0.29850838997054491 0 0.42330489419219652 -0.27737186933012398 0 0.41647288398806181 -0.29850838997054491 0 0.5 -0.5 0 0.47031118162960578 -0.48354129492005082 0 0.42463634431209618 -0.50000000000000233 0 0.44506717863437162 -0.47382767043639651 0 0.47031118162960578 -0.48354129492005082 0 0.42463634431209618 -0.50000000000000233 0 0.44506717863437162 -0.47382767043639651 0 0.47031118162960578 -0.48354129492005082 0 0.44506717863437162 -0.47382767043639651 0 0.45757761017621867 -0.46930123847325927 0 0.47031118162960578 -0.48354129492005082 0 0.45757761017621867 -0.46930123847325927 0 0.47878880508810873 -0.48263787441234218 0 0.5 -0.5 0 0.47031118162960578 -0.48354129492005082 0 0.47878880508810873 -0.48263787441234218 0 0.5 -0.5 0 0.49999999999999889 -0.4959745103514247 0 0.47878880508810873 -0.48263787441234218 0 0.49999999999999889 -0.4959745103514247 0 0.47878880508810873 -0.48263787441234218 0 0.49999999999999889 -0.4959745103514247 0 0.48718425520828162 -0.47156909403396902 0 0.5 -0.46620642984361249 0 0.49999999999999889 -0.4959745103514247 0 0.48718425520828162 -0.47156909403396902 0 0.47878880508810873 -0.48263787441234218 0 0.45757761017621867 -0.46930123847325927 0 0.47878880508810873 -0.48263787441234218 0 0.4766301845635294 -0.46253509853858749 0 0.45757761017621867 -0.46930123847325927 0 0.47031118162960578 -0.48354129492005082 0 0.47878880508810873 -0.48263787441234218 0 0.48718425520828162 -0.47156909403396902 0 0.47878880508810873 -0.48263787441234218 0 0.4766301845635294 -0.46253509853858749 0 0.48718425520828162 -0.47156909403396902 0 0.4766301845635294 -0.46253509853858749 0 0.48616815727895879 -0.45008685180869962 0 0.4766301845635294 -0.46253509853858749 0 0.46999319249194049 -0.4433411917856287 0 0.46526455940591888 -0.45792349759065709 0 0.48718425520828162 -0.47156909403396902 0 0.5 -0.46620642984361249 0 0.48616815727895879 -0.45008685180869962 0 0.5 -0.46620642984361249 0 0.48616815727895879 -0.45008685180869962 0 0.5 -0.43643834933580039 0 0.48616815727895879 -0.45008685180869962 0 0.46999319249194049 -0.4433411917856287 0 0.47950203530726399 -0.42317275499521051 0 0.4766301845635294 -0.46253509853858749 0 0.48616815727895879 -0.45008685180869962 0 0.46999319249194049 -0.4433411917856287 0 0.46999319249194049 -0.4433411917856287 0 0.45347116110744529 -0.43974209661634389 0 0.45697237835874482 -0.45233611381256761 0 0.46999319249194049 -0.4433411917856287 0 0.45697237835874482 -0.45233611381256761 0 0.46526455940591888 -0.45792349759065709 0 0.45757761017621867 -0.46930123847325927 0 0.45697237835874482 -0.45233611381256761 0 0.44785162162481551 -0.46197171880319249 0 0.45757761017621867 -0.46930123847325927 0 0.4766301845635294 -0.46253509853858749 0 0.46526455940591888 -0.45792349759065709 0 0.45757761017621867 -0.46930123847325927 0 0.45697237835874482 -0.45233611381256761 0 0.46526455940591888 -0.45792349759065709 0 0.45697237835874482 -0.45233611381256761 0 0.44785162162481551 -0.46197171880319249 0 0.44288544438084387 -0.4473336702312754 0 0.44506717863437162 -0.47382767043639651 0 0.45757761017621867 -0.46930123847325927 0 0.44785162162481551 -0.46197171880319249 0 0.44506717863437162 -0.47382767043639651 0 0.44785162162481551 -0.46197171880319249 0 0.43595574568289902 -0.45884820485818689 0 0.44785162162481551 -0.46197171880319249 0 0.44288544438084387 -0.4473336702312754 0 0.43595574568289902 -0.45884820485818689 0 0.45347116110744529 -0.43974209661634389 0 0.44288544438084387 -0.4473336702312754 0 0.4394124841841594 -0.43106242962264479 0 0.45347116110744529 -0.43974209661634389 0 0.45697237835874482 -0.45233611381256761 0 0.44288544438084387 -0.4473336702312754 0 0.45347116110744529 -0.43974209661634389 0 0.4394124841841594 -0.43106242962264479 0 0.45809230612153812 -0.42463707762960268 0 0.4394124841841594 -0.43106242962264479 0 0.44235453117967632 -0.40939887129468011 0 0.45809230612153812 -0.42463707762960268 0 0.46295662571977919 -0.4079176115459775 0 0.45809230612153812 -0.42463707762960268 0 0.47950203530726399 -0.42317275499521051 0 0.44235453117967632 -0.40939887129468011 0 0.46295662571977919 -0.4079176115459775 0 0.45809230612153812 -0.42463707762960268 0 0.46999319249194049 -0.4433411917856287 0 0.45347116110744529 -0.43974209661634389 0 0.45809230612153812 -0.42463707762960268 0 0.46999319249194049 -0.4433411917856287 0 0.45809230612153812 -0.42463707762960268 0 0.47950203530726399 -0.42317275499521051 0 0.47950203530726399 -0.42317275499521051 0 0.5 -0.43643834933580039 0 0.5 -0.40667026882798818 0 0.48616815727895879 -0.45008685180869962 0 0.47950203530726399 -0.42317275499521051 0 0.5 -0.43643834933580039 0 0.47950203530726399 -0.42317275499521051 0 0.5 -0.40667026882798818 0 0.47926996862648519 -0.39517691117734638 0 0.46295662571977919 -0.4079176115459775 0 0.47950203530726399 -0.42317275499521051 0 0.47926996862648519 -0.39517691117734638 0 0.5 -0.40667026882798818 0 0.47926996862648519 -0.39517691117734638 0 0.5 -0.37690218832017608 0 0.47879580736863459 -0.371049180350637 0 0.47926996862648519 -0.39517691117734638 0 0.5 -0.37690218832017608 0 0.47879580736863459 -0.371049180350637 0 0.47926996862648519 -0.39517691117734638 0 0.45556428736393301 -0.38720244263304793 0 0.46074877569132722 -0.36451658648935648 0 0.4434715783202316 -0.37390891700863782 0 0.45556428736393301 -0.38720244263304793 0 0.44235453117967632 -0.40939887129468011 0 0.46295662571977919 -0.4079176115459775 0 0.45556428736393301 -0.38720244263304793 0 0.46295662571977919 -0.4079176115459775 0 0.47926996862648519 -0.39517691117734638 0 0.45556428736393301 -0.38720244263304793 0 0.44235453117967632 -0.40939887129468011 0 0.45556428736393301 -0.38720244263304793 0 0.43407308599551869 -0.38924912837438103 0 0.4434715783202316 -0.37390891700863782 0 0.45556428736393301 -0.38720244263304793 0 0.43407308599551869 -0.38924912837438103 0 0.42783864511997288 -0.37279889010966938 0 0.43407308599551869 -0.38924912837438103 0 0.4167515044459279 -0.38649352478761362 0 0.4434715783202316 -0.37390891700863782 0 0.42783864511997288 -0.37279889010966938 0 0.43407308599551869 -0.38924912837438103 0 0.44235453117967632 -0.40939887129468011 0 0.43407308599551869 -0.38924912837438103 0 0.42041584323967057 -0.40437926962382398 0 0.43407308599551869 -0.38924912837438103 0 0.42041584323967057 -0.40437926962382398 0 0.4167515044459279 -0.38649352478761362 0 0.42041584323967057 -0.40437926962382398 0 0.40154155791007978 -0.39669900723957952 0 0.40453993784230219 -0.41079184761833748 0 0.42041584323967057 -0.40437926962382398 0 0.4167515044459279 -0.38649352478761362 0 0.40154155791007978 -0.39669900723957952 0 0.4167515044459279 -0.38649352478761362 0 0.40417453554799421 -0.38290446435925229 0 0.40154155791007978 -0.39669900723957952 0 0.42783864511997288 -0.37279889010966938 0 0.41364646977261621 -0.37218563018249418 0 0.4167515044459279 -0.38649352478761362 0 0.41364646977261621 -0.37218563018249418 0 0.4167515044459279 -0.38649352478761362 0 0.40417453554799421 -0.38290446435925229 0 0.40045021812584042 -0.36618299826713002 0 0.38429866423071068 -0.38063839360942903 0 0.3882952161029527 -0.39262581107347222 0 0.40045021812584042 -0.36618299826713002 0 0.40417453554799421 -0.38290446435925229 0 0.3882952161029527 -0.39262581107347222 0 0.40045021812584042 -0.36618299826713002 0 0.3882952161029527 -0.39262581107347222 0 0.38429866423071068 -0.38063839360942903 0 0.3795305321292457 -0.39441820674292433 0 0.3882952161029527 -0.39262581107347222 0 0.38429866423071068 -0.38063839360942903 0 0.3795305321292457 -0.39441820674292433 0 0.37387864180877861 -0.38745716214161741 0 0.37588972969962792 -0.37349071433041681 0 0.38429866423071068 -0.38063839360942903 0 0.37387864180877861 -0.38745716214161741 0 0.37682936137276718 -0.40244226119665438 0 0.3795305321292457 -0.39441820674292433 0 0.3880341780996121 -0.40392533724026908 0 0.37682936137276718 -0.40244226119665438 0 0.3795305321292457 -0.39441820674292433 0 0.37102649209293509 -0.39572002517640992 0 0.3795305321292457 -0.39441820674292433 0 0.3882952161029527 -0.39262581107347222 0 0.3880341780996121 -0.40392533724026908 0 0.3880341780996121 -0.40392533724026908 0 0.40154155791007978 -0.39669900723957952 0 0.40453993784230219 -0.41079184761833748 0 0.40417453554799421 -0.38290446435925229 0 0.3882952161029527 -0.39262581107347222 0 0.40154155791007978 -0.39669900723957952 0 0.3882952161029527 -0.39262581107347222 0 0.3880341780996121 -0.40392533724026908 0 0.40154155791007978 -0.39669900723957952 0 0.3880341780996121 -0.40392533724026908 0 0.40453993784230219 -0.41079184761833748 0 0.39340026586034138 -0.41625589756210413 0 0.40453993784230219 -0.41079184761833748 0 0.39340026586034138 -0.41625589756210413 0 0.40530321580792389 -0.42681389438465489 0 0.3880341780996121 -0.40392533724026908 0 0.39340026586034138 -0.41625589756210413 0 0.38077468981958412 -0.41258831954115521 0 0.38077468981958412 -0.41258831954115521 0 0.38847493175446868 -0.42793409468930471 0 0.37398111607042622 -0.4112063460154331 0 0.37524722658792992 -0.42474725551155812 0 0.38847493175446868 -0.42793409468930471 0 0.37398111607042622 -0.4112063460154331 0 0.38847493175446868 -0.42793409468930471 0 0.37398111607042622 -0.4112063460154331 0 0.38077468981958412 -0.41258831954115521 0 0.38847493175446868 -0.42793409468930471 0 0.39340026586034138 -0.41625589756210413 0 0.38077468981958412 -0.41258831954115521 0 0.38847493175446868 -0.42793409468930471 0 0.37682936137276718 -0.40244226119665438 0 0.3880341780996121 -0.40392533724026908 0 0.38077468981958412 -0.41258831954115521 0 0.37682936137276718 -0.40244226119665438 0 0.38077468981958412 -0.41258831954115521 0 0.37398111607042622 -0.4112063460154331 0 0.37744046437995221 -0.43597268986650012 0 0.38847493175446868 -0.42793409468930471 0 0.3959736546538476 -0.44287826352000659 0 0.37744046437995221 -0.43597268986650012 0 0.37524722658792992 -0.42474725551155812 0 0.38847493175446868 -0.42793409468930471 0 0.39340026586034138 -0.41625589756210413 0 0.38847493175446868 -0.42793409468930471 0 0.40530321580792389 -0.42681389438465489 0 0.38847493175446868 -0.42793409468930471 0 0.40414905369680287 -0.44602407032102359 0 0.38847493175446868 -0.42793409468930471 0 0.3959736546538476 -0.44287826352000659 0 0.38847493175446868 -0.42793409468930471 0 0.40530321580792389 -0.42681389438465489 0 0.40414905369680287 -0.44602407032102359 0 0.41958809419304682 -0.43200005290032317 0 0.41626887011588998 -0.41632871012763473 0 0.42792387590057318 -0.42076986699207253 0 0.40530321580792389 -0.42681389438465489 0 0.41958809419304682 -0.43200005290032317 0 0.41626887011588998 -0.41632871012763473 0 0.40530321580792389 -0.42681389438465489 0 0.41958809419304682 -0.43200005290032317 0 0.40414905369680287 -0.44602407032102359 0 0.42041584323967057 -0.40437926962382398 0 0.40453993784230219 -0.41079184761833748 0 0.41626887011588998 -0.41632871012763473 0 0.40453993784230219 -0.41079184761833748 0 0.40530321580792389 -0.42681389438465489 0 0.41626887011588998 -0.41632871012763473 0 0.42041584323967057 -0.40437926962382398 0 0.41626887011588998 -0.41632871012763473 0 0.42792387590057318 -0.42076986699207253 0 0.4394124841841594 -0.43106242962264479 0 0.44235453117967632 -0.40939887129468011 0 0.42792387590057318 -0.42076986699207253 0 0.44235453117967632 -0.40939887129468011 0 0.42041584323967057 -0.40437926962382398 0 0.42792387590057318 -0.42076986699207253 0 0.4394124841841594 -0.43106242962264479 0 0.41958809419304682 -0.43200005290032317 0 0.42792387590057318 -0.42076986699207253 0 0.4394124841841594 -0.43106242962264479 0 0.41958809419304682 -0.43200005290032317 0 0.42707130110276742 -0.4466553402507325 0 0.44288544438084387 -0.4473336702312754 0 0.4394124841841594 -0.43106242962264479 0 0.42707130110276742 -0.4466553402507325 0 0.44288544438084387 -0.4473336702312754 0 0.42707130110276742 -0.4466553402507325 0 0.43595574568289902 -0.45884820485818689 0 0.42707130110276742 -0.4466553402507325 0 0.43595574568289902 -0.45884820485818689 0 0.41982317563913712 -0.46411404595274258 0 0.44506717863437162 -0.47382767043639651 0 0.43595574568289902 -0.45884820485818689 0 0.41982317563913712 -0.46411404595274258 0 0.41982317563913712 -0.46411404595274258 0 0.40347237755322662 -0.4578224323507083 0 0.41405436093266101 -0.47891121617535548 0 0.41982317563913712 -0.46411404595274258 0 0.40414905369680287 -0.44602407032102359 0 0.41982317563913712 -0.46411404595274258 0 0.40347237755322662 -0.4578224323507083 0 0.41982317563913712 -0.46411404595274258 0 0.40414905369680287 -0.44602407032102359 0 0.40347237755322662 -0.4578224323507083 0 0.40347237755322662 -0.4578224323507083 0 0.41405436093266101 -0.47891121617535548 0 0.41958809419304682 -0.43200005290032317 0 0.42707130110276742 -0.4466553402507325 0 0.40414905369680287 -0.44602407032102359 0 0.42707130110276742 -0.4466553402507325 0 0.41982317563913712 -0.46411404595274258 0 0.40414905369680287 -0.44602407032102359 0 0.37855287918256508 -0.44823367380320961 0 0.40347237755322662 -0.4578224323507083 0 0.38847493175446868 -0.42793409468930471 0 0.40414905369680287 -0.44602407032102359 0 0.3959736546538476 -0.44287826352000659 0 0.3959736546538476 -0.44287826352000659 0 0.37855287918256508 -0.44823367380320961 0 0.40347237755322662 -0.4578224323507083 0 0.40414905369680287 -0.44602407032102359 0 0.3959736546538476 -0.44287826352000659 0 0.40347237755322662 -0.4578224323507083 0 0.3959736546538476 -0.44287826352000659 0 0.40347237755322662 -0.4578224323507083 0 0.37744046437995221 -0.43597268986650012 0 0.3959736546538476 -0.44287826352000659 0 0.37855287918256508 -0.44823367380320961 0 0.37855287918256508 -0.44823367380320961 0 0.38899289103674789 -0.46241189778278941 0 0.40347237755322662 -0.4578224323507083 0 0.37892988886631368 -0.45917268423389701 0 0.38385784901469611 -0.47056090294680308 0 0.37356552797971271 -0.46702760113094932 0 0.37855287918256508 -0.44823367380320961 0 0.37892988886631368 -0.45917268423389701 0 0.38899289103674789 -0.46241189778278941 0 0.37892988886631368 -0.45917268423389701 0 0.38899289103674789 -0.46241189778278941 0 0.38385784901469611 -0.47056090294680308 0 0.38899289103674789 -0.46241189778278941 0 0.40347237755322662 -0.4578224323507083 0 0.39978294723758551 -0.47233528250231649 0 0.40347237755322662 -0.4578224323507083 0 0.39978294723758551 -0.47233528250231649 0 0.41405436093266101 -0.47891121617535548 0 0.39978294723758551 -0.47233528250231649 0 0.39937467446932878 -0.48374092297980642 0 0.41405436093266101 -0.47891121617535548 0 0.39937467446932878 -0.48374092297980642 0 0.39051167965797068 -0.47752520330663828 0 0.39013759127753622 -0.48969306363371551 0 0.39978294723758551 -0.47233528250231649 0 0.39937467446932878 -0.48374092297980642 0 0.39051167965797068 -0.47752520330663828 0 0.38899289103674789 -0.46241189778278941 0 0.39978294723758551 -0.47233528250231649 0 0.39051167965797068 -0.47752520330663828 0 0.38385784901469611 -0.47056090294680308 0 0.39051167965797068 -0.47752520330663828 0 0.37891353410801443 -0.47737816935841099 0 0.38899289103674789 -0.46241189778278941 0 0.38385784901469611 -0.47056090294680308 0 0.39051167965797068 -0.47752520330663828 0 0.38415926932172062 -0.48354577396255682 0 0.39051167965797068 -0.47752520330663828 0 0.37891353410801443 -0.47737816935841099 0 0.38415926932172062 -0.48354577396255682 0 0.39051167965797068 -0.47752520330663828 0 0.39013759127753622 -0.48969306363371551 0 0.38415926932172062 -0.48354577396255682 0 0.37623156529086932 -0.4825149560410531 0 0.37891353410801443 -0.47737816935841099 0 0.37623156529086932 -0.4825149560410531 0 0.37891353410801443 -0.47737816935841099 0 0.37069762797868461 -0.47732604528733469 0 0.38385784901469611 -0.47056090294680308 0 0.37891353410801443 -0.47737816935841099 0 0.37356552797971271 -0.46702760113094932 0 0.37942044380511591 -0.50000000000000089 0 0.39013759127753622 -0.48969306363371551 0 0.40202839405860602 -0.5 0 0.37942044380511591 -0.50000000000000089 0 0.37847163082776858 -0.48908093867398228 0 0.39013759127753622 -0.48969306363371551 0 0.38415926932172062 -0.48354577396255682 0 0.37623156529086932 -0.4825149560410531 0 0.37847163082776858 -0.48908093867398228 0 0.37942044380511591 -0.50000000000000089 0 0.37847163082776858 -0.48908093867398228 0 0.36816687139173132 -0.48506764434511562 0 0.38415926932172062 -0.48354577396255682 0 0.37847163082776858 -0.48908093867398228 0 0.39013759127753622 -0.48969306363371551 0 0.39937467446932878 -0.48374092297980642 0 0.40202839405860602 -0.5 0 0.41405436093266101 -0.47891121617535548 0 0.39937467446932878 -0.48374092297980642 0 0.39013759127753622 -0.48969306363371551 0 0.40202839405860602 -0.5 0 0.41405436093266101 -0.47891121617535548 0 0.42463634431209618 -0.50000000000000233 0 0.40202839405860602 -0.5 0 0.41405436093266101 -0.47891121617535548 0 0.42463634431209618 -0.50000000000000233 0 0.44506717863437162 -0.47382767043639651 0 0.41982317563913712 -0.46411404595274258 0 0.43282459370515791 -0.47911937364238449 0 0.41982317563913712 -0.46411404595274258 0 0.41405436093266101 -0.47891121617535548 0 0.43282459370515791 -0.47911937364238449 0 0.44506717863437162 -0.47382767043639651 0 0.41982317563913712 -0.46411404595274258 0 0.44506717863437162 -0.47382767043639651 0 0.43282459370515791 -0.47911937364238449 0 0.42463634431209618 -0.50000000000000233 0 0.41982317563913712 -0.46411404595274258 0 0.43282459370515791 -0.47911937364238449 0 0.41405436093266101 -0.47891121617535548 0 0.43282459370515791 -0.47911937364238449 0 0.42463634431209618 -0.50000000000000233 0 0.31468262084599907 -0.48723281049029388 0 0.34016252588205548 -0.48620132501179292 0 0.31468262084599907 -0.48723281049029388 0 0.32856051566852429 -0.49287238610213291 0 0.34016252588205548 -0.48620132501179292 0 0.32393608328506329 -0.5 0 0.32856051566852429 -0.49287238610213291 0 0.30888161573923351 -0.49056834103546432 0 0.31468262084599907 -0.48723281049029388 0 0.32856051566852429 -0.49287238610213291 0 0.30888161573923351 -0.49056834103546432 0 0.32856051566852429 -0.49287238610213291 0 0.30888161573923351 -0.49056834103546432 0 0.31468262084599907 -0.48723281049029388 0 0.32771202996280491 -0.46996752595140212 0 0.31091668461349969 -0.46744320646936383 0 0.31468262084599907 -0.48723281049029388 0 0.32771202996280491 -0.46996752595140212 0 0.34016252588205548 -0.48620132501179292 0 0.32771202996280491 -0.46996752595140212 0 0.34016252588205548 -0.48620132501179292 0 0.34780025283372162 -0.46596515695408092 0 0.32856051566852429 -0.49287238610213291 0 0.34016252588205548 -0.48620132501179292 0 0.35167826354508958 -0.5 0 0.32393608328506329 -0.5 0 0.32856051566852429 -0.49287238610213291 0 0.35167826354508958 -0.5 0 0.34016252588205548 -0.48620132501179292 0 0.35167826354508958 -0.5 0 0.36564243091811183 -0.48516983953329079 0 0.34016252588205548 -0.48620132501179292 0 0.36564243091811183 -0.48516983953329079 0 0.37942044380511591 -0.50000000000000089 0 0.35167826354508958 -0.5 0 0.36564243091811183 -0.48516983953329079 0 0.36564243091811183 -0.48516983953329079 0 0.36816687139173132 -0.48506764434511562 0 0.37623156529086932 -0.4825149560410531 0 0.37847163082776858 -0.48908093867398228 0 0.36816687139173132 -0.48506764434511562 0 0.37942044380511591 -0.50000000000000089 0 0.36564243091811183 -0.48516983953329079 0 0.36816687139173132 -0.48506764434511562 0 0.37942044380511591 -0.50000000000000089 0 0.36564243091811183 -0.48516983953329079 0 0.37891353410801443 -0.47737816935841099 0 0.37069762797868461 -0.47732604528733469 0 0.37356552797971271 -0.46702760113094932 0 0.37069762797868461 -0.47732604528733469 0 0.36407338130147682 -0.47015225523720389 0 0.37356552797971271 -0.46702760113094932 0 0.36564243091811183 -0.48516983953329079 0 0.36816687139173132 -0.48506764434511562 0 0.37069762797868461 -0.47732604528733469 0 0.37623156529086932 -0.4825149560410531 0 0.36816687139173132 -0.48506764434511562 0 0.37069762797868461 -0.47732604528733469 0 0.36564243091811183 -0.48516983953329079 0 0.37069762797868461 -0.47732604528733469 0 0.36407338130147682 -0.47015225523720389 0 0.34016252588205548 -0.48620132501179292 0 0.36564243091811183 -0.48516983953329079 0 0.34780025283372162 -0.46596515695408092 0 0.36564243091811183 -0.48516983953329079 0 0.34780025283372162 -0.46596515695408092 0 0.36564243091811183 -0.48516983953329079 0 0.36407338130147682 -0.47015225523720389 0 0.34780025283372162 -0.46596515695408092 0 0.36407338130147682 -0.47015225523720389 0 0.34780025283372162 -0.46596515695408092 0 0.36266106679715299 -0.45527263328036482 0 0.34780025283372162 -0.46596515695408092 0 0.36266106679715299 -0.45527263328036482 0 0.34799339286268399 -0.44959230247788318 0 0.37892988886631368 -0.45917268423389701 0 0.36266106679715299 -0.45527263328036482 0 0.37356552797971271 -0.46702760113094932 0 0.37855287918256508 -0.44823367380320961 0 0.37892988886631368 -0.45917268423389701 0 0.36266106679715299 -0.45527263328036482 0 0.36407338130147682 -0.47015225523720389 0 0.36266106679715299 -0.45527263328036482 0 0.37356552797971271 -0.46702760113094932 0 0.37744046437995221 -0.43597268986650012 0 0.37855287918256508 -0.44823367380320961 0 0.36264295680085568 -0.44008101532189581 0 0.37855287918256508 -0.44823367380320961 0 0.36266106679715299 -0.45527263328036482 0 0.36264295680085568 -0.44008101532189581 0 0.36264295680085568 -0.44008101532189581 0 0.34799339286268399 -0.44959230247788318 0 0.34690731129989888 -0.43550523027356469 0 0.36266106679715299 -0.45527263328036482 0 0.36264295680085568 -0.44008101532189581 0 0.34799339286268399 -0.44959230247788318 0 0.34799339286268399 -0.44959230247788318 0 0.3370508210230802 -0.44371861688960462 0 0.34690731129989888 -0.43550523027356469 0 0.3370508210230802 -0.44371861688960462 0 0.32991475416931609 -0.43331159768803418 0 0.34690731129989888 -0.43550523027356469 0 0.3370508210230802 -0.44371861688960462 0 0.32673839825993289 -0.44743586489272957 0 0.32991475416931609 -0.43331159768803418 0 0.3370508210230802 -0.44371861688960462 0 0.33363230531743188 -0.45513145223054852 0 0.32673839825993289 -0.44743586489272957 0 0.34799339286268399 -0.44959230247788318 0 0.3370508210230802 -0.44371861688960462 0 0.33363230531743188 -0.45513145223054852 0 0.32771202996280491 -0.46996752595140212 0 0.34780025283372162 -0.46596515695408092 0 0.33363230531743188 -0.45513145223054852 0 0.34780025283372162 -0.46596515695408092 0 0.34799339286268399 -0.44959230247788318 0 0.33363230531743188 -0.45513145223054852 0 0.32771202996280491 -0.46996752595140212 0 0.32192815621354282 -0.4569017222087382 0 0.31091668461349969 -0.46744320646936383 0 0.32771202996280491 -0.46996752595140212 0 0.33363230531743188 -0.45513145223054852 0 0.32192815621354282 -0.4569017222087382 0 0.32192815621354282 -0.4569017222087382 0 0.31116595457629342 -0.44811593544672212 0 0.31091668461349969 -0.46744320646936383 0 0.33363230531743188 -0.45513145223054852 0 0.32192815621354282 -0.4569017222087382 0 0.32673839825993289 -0.44743586489272957 0 0.32673839825993289 -0.44743586489272957 0 0.32991475416931609 -0.43331159768803418 0 0.31116595457629342 -0.44811593544672212 0 0.32991475416931609 -0.43331159768803418 0 0.31116595457629342 -0.44811593544672212 0 0.32192815621354282 -0.4569017222087382 0 0.32673839825993289 -0.44743586489272957 0 0.31116595457629342 -0.44811593544672212 0 0.32991475416931609 -0.43331159768803418 0 0.30898519123413598 -0.43584039448191503 0 0.31116595457629342 -0.44811593544672212 0 0.32433308452736398 -0.42153738515279959 0 0.32991475416931609 -0.43331159768803418 0 0.30898519123413598 -0.43584039448191503 0 0.32433308452736398 -0.42153738515279959 0 0.30898519123413598 -0.43584039448191503 0 0.32433308452736398 -0.42153738515279959 0 0.3110477456066979 -0.42583950349905503 0 0.30898519123413598 -0.43584039448191503 0 0.31450066150828732 -0.42021999414434957 0 0.32433308452736398 -0.42153738515279959 0 0.3110477456066979 -0.42583950349905503 0 0.31450066150828732 -0.42021999414434957 0 0.31551528878785889 -0.41035173224172677 0 0.32433308452736398 -0.42153738515279959 0 0.31551528878785889 -0.41035173224172677 0 0.32433308452736398 -0.42153738515279959 0 0.33968097782059342 -0.40723437582368582 0 0.31551528878785889 -0.41035173224172677 0 0.33968097782059342 -0.40723437582368582 0 0.32349082209521313 -0.40430789485799429 0 0.31551528878785889 -0.41035173224172677 0 0.33968097782059342 -0.40723437582368582 0 0.31551528878785889 -0.41035173224172677 0 0.31581635322752072 -0.40246478915636758 0 0.30644597488888331 -0.40621587784777319 0 0.32433308452736398 -0.42153738515279959 0 0.33564809256990308 -0.4201476546484666 0 0.33968097782059342 -0.40723437582368582 0 0.32433308452736398 -0.42153738515279959 0 0.33968097782059342 -0.40723437582368582 0 0.33564809256990308 -0.4201476546484666 0 0.33968097782059342 -0.40723437582368582 0 0.34866355376233882 -0.41850725992934629 0 0.32991475416931609 -0.43331159768803418 0 0.34690731129989888 -0.43550523027356469 0 0.34866355376233882 -0.41850725992934629 0 0.33564809256990308 -0.4201476546484666 0 0.32991475416931609 -0.43331159768803418 0 0.34866355376233882 -0.41850725992934629 0 0.32991475416931609 -0.43331159768803418 0 0.34866355376233882 -0.41850725992934629 0 0.32433308452736398 -0.42153738515279959 0 0.33564809256990308 -0.4201476546484666 0 0.32991475416931609 -0.43331159768803418 0 0.34690731129989888 -0.43550523027356469 0 0.35792566663208553 -0.42597060513283941 0 0.34866355376233882 -0.41850725992934629 0 0.36264295680085568 -0.44008101532189581 0 0.34690731129989888 -0.43550523027356469 0 0.35792566663208553 -0.42597060513283941 0 0.36264295680085568 -0.44008101532189581 0 0.35792566663208553 -0.42597060513283941 0 0.36701991645165122 -0.43001997241890971 0 0.35792566663208553 -0.42597060513283941 0 0.36701991645165122 -0.43001997241890971 0 0.36886436799803102 -0.41883774688574471 0 0.37524722658792992 -0.42474725551155812 0 0.36701991645165122 -0.43001997241890971 0 0.36886436799803102 -0.41883774688574471 0 0.37744046437995221 -0.43597268986650012 0 0.37524722658792992 -0.42474725551155812 0 0.36701991645165122 -0.43001997241890971 0 0.37744046437995221 -0.43597268986650012 0 0.36264295680085568 -0.44008101532189581 0 0.36701991645165122 -0.43001997241890971 0 0.36794135224102958 -0.41231154193281833 0 0.37398111607042622 -0.4112063460154331 0 0.36741235335536171 -0.40370292217065851 0 0.37524722658792992 -0.42474725551155812 0 0.37398111607042622 -0.4112063460154331 0 0.36886436799803102 -0.41883774688574471 0 0.36794135224102958 -0.41231154193281833 0 0.37398111607042622 -0.4112063460154331 0 0.36886436799803102 -0.41883774688574471 0 0.36794135224102958 -0.41231154193281833 0 0.36886436799803102 -0.41883774688574471 0 0.36150757154029961 -0.41549915265943688 0 0.35792566663208553 -0.42597060513283941 0 0.36886436799803102 -0.41883774688574471 0 0.36150757154029961 -0.41549915265943688 0 0.36794135224102958 -0.41231154193281833 0 0.36150757154029961 -0.41549915265943688 0 0.36741235335536171 -0.40370292217065851 0 0.33968097782059342 -0.40723437582368582 0 0.34866355376233882 -0.41850725992934629 0 0.36741235335536171 -0.40370292217065851 0 0.36150757154029961 -0.41549915265943688 0 0.34866355376233882 -0.41850725992934629 0 0.36741235335536171 -0.40370292217065851 0 0.34866355376233882 -0.41850725992934629 0 0.36741235335536171 -0.40370292217065851 0 0.35792566663208553 -0.42597060513283941 0 0.36150757154029961 -0.41549915265943688 0 0.34866355376233882 -0.41850725992934629 0 0.33968097782059342 -0.40723437582368582 0 0.36741235335536171 -0.40370292217065851 0 0.35778535376010989 -0.39036254507705048 0 0.33968097782059342 -0.40723437582368582 0 0.35778535376010989 -0.39036254507705048 0 0.33968097782059342 -0.40723437582368582 0 0.35778535376010989 -0.39036254507705048 0 0.34147506015878631 -0.39101012526992079 0 0.33968097782059342 -0.40723437582368582 0 0.36741235335536171 -0.40370292217065851 0 0.37102649209293509 -0.39572002517640992 0 0.37387864180877861 -0.38745716214161741 0 0.35778535376010989 -0.39036254507705048 0 0.37102649209293509 -0.39572002517640992 0 0.36741235335536171 -0.40370292217065851 0 0.35778535376010989 -0.39036254507705048 0 0.3795305321292457 -0.39441820674292433 0 0.37102649209293509 -0.39572002517640992 0 0.37387864180877861 -0.38745716214161741 0 0.37682936137276718 -0.40244226119665438 0 0.36741235335536171 -0.40370292217065851 0 0.37682936137276718 -0.40244226119665438 0 0.37398111607042622 -0.4112063460154331 0 0.36741235335536171 -0.40370292217065851 0 0.37682936137276718 -0.40244226119665438 0 0.37102649209293509 -0.39572002517640992 0 0.36741235335536171 -0.40370292217065851 0 0.37588972969962792 -0.37349071433041681 0 0.35778535376010989 -0.39036254507705048 0 0.37588972969962792 -0.37349071433041681 0 0.37387864180877861 -0.38745716214161741 0 0.35778535376010989 -0.39036254507705048 0 0.37588972969962792 -0.37349071433041681 0 0.36147429384848168 -0.37547754349235413 0 0.35778535376010989 -0.39036254507705048 0 0.36147429384848168 -0.37547754349235413 0 0.35778535376010989 -0.39036254507705048 0 0.3469235811052413 -0.37530713351338812 0 0.35778535376010989 -0.39036254507705048 0 0.3469235811052413 -0.37530713351338812 0 0.34147506015878631 -0.39101012526992079 0 0.3469235811052413 -0.37530713351338812 0 0.32544453522451522 -0.38793322621418541 0 0.32727306647066151 -0.3726077453073382 0 0.3469235811052413 -0.37530713351338812 0 0.34147506015878631 -0.39101012526992079 0 0.32544453522451522 -0.38793322621418541 0 0.3469235811052413 -0.37530713351338812 0 0.32544453522451522 -0.38793322621418541 0 0.33968097782059342 -0.40723437582368582 0 0.33252284882477628 -0.39762140554144648 0 0.32349082209521313 -0.40430789485799429 0 0.33252284882477628 -0.39762140554144648 0 0.34147506015878631 -0.39101012526992079 0 0.32544453522451522 -0.38793322621418541 0 0.33968097782059342 -0.40723437582368582 0 0.33252284882477628 -0.39762140554144648 0 0.34147506015878631 -0.39101012526992079 0 0.33252284882477628 -0.39762140554144648 0 0.32349082209521313 -0.40430789485799429 0 0.32544453522451522 -0.38793322621418541 0 0.32349082209521313 -0.40430789485799429 0 0.32544453522451522 -0.38793322621418541 0 0.31581635322752072 -0.40246478915636758 0 0.32544453522451522 -0.38793322621418541 0 0.3030848737701326 -0.40107697383916813 0 0.32349082209521313 -0.40430789485799429 0 0.31581635322752072 -0.40246478915636758 0 0.32544453522451522 -0.38793322621418541 0 0.32544453522451522 -0.38793322621418541 0 0.3030848737701326 -0.40107697383916813 0 0.31551528878785889 -0.41035173224172677 0 0.32349082209521313 -0.40430789485799429 0 0.31581635322752072 -0.40246478915636758 0 0.31609323574347231 -0.37917961911983 0 0.32544453522451522 -0.38793322621418541 0 0.3030848737701326 -0.40107697383916813 0 0.31609323574347231 -0.37917961911983 0 0.32544453522451522 -0.38793322621418541 0 0.32727306647066151 -0.3726077453073382 0 0.32544453522451522 -0.38793322621418541 0 0.32727306647066151 -0.3726077453073382 0 0.31609323574347231 -0.37917961911983 0 0.29541963424779588 -0.38607455112945882 0 0.29441015217897798 -0.36987758136220678 0 0.31609323574347231 -0.37917961911983 0 0.3030848737701326 -0.40107697383916813 0 0.29541963424779588 -0.38607455112945882 0 0.31609323574347231 -0.37917961911983 0 0.3030848737701326 -0.40107697383916813 0 0.31581635322752072 -0.40246478915636758 0 0.30644597488888331 -0.40621587784777319 0 0.3030848737701326 -0.40107697383916813 0 0.30644597488888331 -0.40621587784777319 0 0.30156625409505677 -0.4036333105844907 0 0.3030848737701326 -0.40107697383916813 0 0.30156625409505677 -0.4036333105844907 0 0.3030848737701326 -0.40107697383916813 0 0.30156625409505677 -0.4036333105844907 0 0.3030848737701326 -0.40107697383916813 0 0.28410071072771531 -0.41223649199242968 0 0.28739419150820078 -0.39611190064968987 0 0.2764065152598294 -0.40251178647620012 0 0.28410071072771531 -0.41223649199242968 0 0.3030848737701326 -0.40107697383916813 0 0.28739419150820078 -0.39611190064968987 0 0.29541963424779588 -0.38607455112945882 0 0.3030848737701326 -0.40107697383916813 0 0.28739419150820078 -0.39611190064968987 0 0.28410071072771531 -0.41223649199242968 0 0.28739419150820078 -0.39611190064968987 0 0.29541963424779588 -0.38607455112945882 0 0.27611571803819601 -0.38412668067639888 0 0.27611571803819601 -0.38412668067639888 0 0.29441015217897798 -0.36987758136220678 0 0.29541963424779588 -0.38607455112945882 0 0.27611571803819601 -0.38412668067639888 0 0.29441015217897798 -0.36987758136220678 0 0.27611571803819601 -0.38412668067639888 0 0.26378115915558642 -0.37816521096439121 0 0.27750567465892112 -0.36728802176556619 0 0.27611571803819601 -0.38412668067639888 0 0.26378115915558642 -0.37816521096439121 0 0.25782128389741388 -0.39837577999059098 0 0.26378115915558642 -0.37816521096439121 0 0.25010456026361699 -0.387916426720539 0 0.25782128389741388 -0.39837577999059098 0 0.26378115915558642 -0.37816521096439121 0 0.25010456026361699 -0.387916426720539 0 0.25833414573906599 -0.36911141348233317 0 0.25010456026361699 -0.387916426720539 0 0.25296770532430862 -0.35870308311809379 0 0.24950796068259801 -0.38427177524635697 0 0.25010456026361699 -0.387916426720539 0 0.25410033919995512 -0.41232680522923187 0 0.25010456026361699 -0.387916426720539 0 0.25410033919995512 -0.41232680522923187 0 0.2476131968138508 -0.41333639495609542 0 0.25010456026361699 -0.387916426720539 0 0.25782128389741388 -0.39837577999059098 0 0.25410033919995512 -0.41232680522923187 0 0.25782128389741388 -0.39837577999059098 0 0.2764065152598294 -0.40251178647620012 0 0.26590256855232169 -0.40920077016707651 0 0.27611571803819601 -0.38412668067639888 0 0.25782128389741388 -0.39837577999059098 0 0.2764065152598294 -0.40251178647620012 0 0.27611571803819601 -0.38412668067639888 0 0.25782128389741388 -0.39837577999059098 0 0.28739419150820078 -0.39611190064968987 0 0.27611571803819601 -0.38412668067639888 0 0.2764065152598294 -0.40251178647620012 0 0.2764065152598294 -0.40251178647620012 0 0.27578916092687361 -0.41412194356695792 0 0.28410071072771531 -0.41223649199242968 0 0.27578916092687361 -0.41412194356695792 0 0.27638024230515279 -0.42381582568294091 0 0.28644658557021258 -0.42037204614270229 0 0.27578916092687361 -0.41412194356695792 0 0.26705413252411642 -0.42184873144073498 0 0.26590256855232169 -0.40920077016707651 0 0.27578916092687361 -0.41412194356695792 0 0.26705413252411642 -0.42184873144073498 0 0.27638024230515279 -0.42381582568294091 0 0.2764065152598294 -0.40251178647620012 0 0.27578916092687361 -0.41412194356695792 0 0.26590256855232169 -0.40920077016707651 0 0.25782128389741388 -0.39837577999059098 0 0.26590256855232169 -0.40920077016707651 0 0.25410033919995512 -0.41232680522923187 0 0.26705413252411642 -0.42184873144073498 0 0.26590256855232169 -0.40920077016707651 0 0.25410033919995512 -0.41232680522923187 0 0.25410033919995512 -0.41232680522923187 0 0.25809611813629257 -0.43673718373792492 0 0.25410033919995512 -0.41232680522923187 0 0.25809611813629257 -0.43673718373792492 0 0.24638556821694479 -0.43216753212437159 0 0.26705413252411642 -0.42184873144073498 0 0.25410033919995512 -0.41232680522923187 0 0.25809611813629257 -0.43673718373792492 0 0.25809611813629257 -0.43673718373792492 0 0.25630688252550488 -0.43787138044207902 0 0.24638556821694479 -0.43216753212437159 0 0.26705413252411642 -0.42184873144073498 0 0.25809611813629257 -0.43673718373792492 0 0.27205636602410282 -0.43488986026027771 0 0.26705413252411642 -0.42184873144073498 0 0.27205636602410282 -0.43488986026027771 0 0.27638024230515279 -0.42381582568294091 0 0.27205636602410282 -0.43488986026027771 0 0.27638024230515279 -0.42381582568294091 0 0.28475346520918599 -0.43052693302969303 0 0.27205636602410282 -0.43488986026027771 0 0.28475346520918599 -0.43052693302969303 0 0.28368913989066408 -0.44229009225966393 0 0.28475346520918599 -0.43052693302969303 0 0.29535514403257401 -0.43625337066439329 0 0.28368913989066408 -0.44229009225966393 0 0.28475346520918599 -0.43052693302969303 0 0.29535514403257401 -0.43625337066439329 0 0.29443277457323042 -0.42571022228682037 0 0.28475346520918599 -0.43052693302969303 0 0.29443277457323042 -0.42571022228682037 0 0.28644658557021258 -0.42037204614270229 0 0.27638024230515279 -0.42381582568294091 0 0.28475346520918599 -0.43052693302969303 0 0.28644658557021258 -0.42037204614270229 0 0.30156625409505677 -0.4036333105844907 0 0.28410071072771531 -0.41223649199242968 0 0.2913495997551242 -0.41346908865976528 0 0.3030848737701326 -0.40107697383916813 0 0.28410071072771531 -0.41223649199242968 0 0.27578916092687361 -0.41412194356695792 0 0.28644658557021258 -0.42037204614270229 0 0.28410071072771531 -0.41223649199242968 0 0.28644658557021258 -0.42037204614270229 0 0.28410071072771531 -0.41223649199242968 0 0.2913495997551242 -0.41346908865976528 0 0.28644658557021258 -0.42037204614270229 0 0.2913495997551242 -0.41346908865976528 0 0.29863730477000561 -0.41835414643387131 0 0.29443277457323042 -0.42571022228682037 0 0.28644658557021258 -0.42037204614270229 0 0.29863730477000561 -0.41835414643387131 0 0.31551528878785889 -0.41035173224172677 0 0.30644597488888331 -0.40621587784777319 0 0.2913495997551242 -0.41346908865976528 0 0.31551528878785889 -0.41035173224172677 0 0.29863730477000561 -0.41835414643387131 0 0.30544227516360212 -0.42186764283834127 0 0.31551528878785889 -0.41035173224172677 0 0.2913495997551242 -0.41346908865976528 0 0.31551528878785889 -0.41035173224172677 0 0.2913495997551242 -0.41346908865976528 0 0.29863730477000561 -0.41835414643387131 0 0.30644597488888331 -0.40621587784777319 0 0.30156625409505677 -0.4036333105844907 0 0.2913495997551242 -0.41346908865976528 0 0.31450066150828732 -0.42021999414434957 0 0.31551528878785889 -0.41035173224172677 0 0.30544227516360212 -0.42186764283834127 0 0.30544227516360212 -0.42186764283834127 0 0.3110477456066979 -0.42583950349905503 0 0.30197751560010011 -0.42973210087786923 0 0.31450066150828732 -0.42021999414434957 0 0.30544227516360212 -0.42186764283834127 0 0.3110477456066979 -0.42583950349905503 0 0.3110477456066979 -0.42583950349905503 0 0.30898519123413598 -0.43584039448191503 0 0.30197751560010011 -0.42973210087786923 0 0.29535514403257401 -0.43625337066439329 0 0.29443277457323042 -0.42571022228682037 0 0.30197751560010011 -0.42973210087786923 0 0.29535514403257401 -0.43625337066439329 0 0.30898519123413598 -0.43584039448191503 0 0.30197751560010011 -0.42973210087786923 0 0.29443277457323042 -0.42571022228682037 0 0.29863730477000561 -0.41835414643387131 0 0.30544227516360212 -0.42186764283834127 0 0.29443277457323042 -0.42571022228682037 0 0.30544227516360212 -0.42186764283834127 0 0.30197751560010011 -0.42973210087786923 0 0.30898519123413598 -0.43584039448191503 0 0.31116595457629342 -0.44811593544672212 0 0.29363729794090798 -0.45014340381103041 0 0.29535514403257401 -0.43625337066439329 0 0.30898519123413598 -0.43584039448191503 0 0.29363729794090798 -0.45014340381103041 0 0.30898519123413598 -0.43584039448191503 0 0.29363729794090798 -0.45014340381103041 0 0.31091668461349969 -0.46744320646936383 0 0.29241715498327059 -0.4629202732054099 0 0.29755845196310432 -0.47548808878589061 0 0.31116595457629342 -0.44811593544672212 0 0.31091668461349969 -0.46744320646936383 0 0.29241715498327059 -0.4629202732054099 0 0.31116595457629342 -0.44811593544672212 0 0.29241715498327059 -0.4629202732054099 0 0.31116595457629342 -0.44811593544672212 0 0.29241715498327059 -0.4629202732054099 0 0.29363729794090798 -0.45014340381103041 0 0.29241715498327059 -0.4629202732054099 0 0.28383406158675378 -0.45565392584942987 0 0.29363729794090798 -0.45014340381103041 0 0.29241715498327059 -0.4629202732054099 0 0.28383406158675378 -0.45565392584942987 0 0.28057308356280902 -0.47157985779558931 0 0.28383406158675378 -0.45565392584942987 0 0.29363729794090798 -0.45014340381103041 0 0.28368913989066408 -0.44229009225966393 0 0.29535514403257401 -0.43625337066439329 0 0.29363729794090798 -0.45014340381103041 0 0.28368913989066408 -0.44229009225966393 0 0.27205636602410282 -0.43488986026027771 0 0.28368913989066408 -0.44229009225966393 0 0.27249850455046032 -0.44627305994315902 0 0.28383406158675378 -0.45565392584942987 0 0.28368913989066408 -0.44229009225966393 0 0.27249850455046032 -0.44627305994315902 0 0.25809611813629257 -0.43673718373792492 0 0.27205636602410282 -0.43488986026027771 0 0.27249850455046032 -0.44627305994315902 0 0.25809611813629257 -0.43673718373792492 0 0.27249850455046032 -0.44627305994315902 0 0.26209189707263009 -0.46114756224661779 0 0.25809611813629257 -0.43673718373792492 0 0.25630688252550488 -0.43787138044207902 0 0.26209189707263009 -0.46114756224661779 0 0.25809611813629257 -0.43673718373792492 0 0.26209189707263009 -0.46114756224661779 0 0.25630688252550488 -0.43787138044207902 0 0.26209189707263009 -0.46114756224661779 0 0.24515793962003959 -0.45099866929264792 0 0.25630688252550488 -0.43787138044207902 0 0.24515793962003959 -0.45099866929264792 0 0.26209189707263009 -0.46114756224661779 0 0.25469622777451911 -0.47488630923039699 0 0.24411925922930011 -0.46693144648706147 0 0.26209189707263009 -0.46114756224661779 0 0.24411925922930011 -0.46693144648706147 0 0.24515793962003959 -0.45099866929264792 0 0.28383406158675378 -0.45565392584942987 0 0.26209189707263009 -0.46114756224661779 0 0.28057308356280902 -0.47157985779558931 0 0.28383406158675378 -0.45565392584942987 0 0.27249850455046032 -0.44627305994315902 0 0.26209189707263009 -0.46114756224661779 0 0.28057308356280902 -0.47157985779558931 0 0.26608767600896749 -0.48555794075531072 0 0.28920271580994272 -0.48826429596879528 0 0.26209189707263009 -0.46114756224661779 0 0.28057308356280902 -0.47157985779558931 0 0.26608767600896749 -0.48555794075531072 0 0.26209189707263009 -0.46114756224661779 0 0.25469622777451911 -0.47488630923039699 0 0.26608767600896749 -0.48555794075531072 0 0.25469622777451911 -0.47488630923039699 0 0.26608767600896749 -0.48555794075531072 0 0.2430805788385616 -0.48286422368147519 0 0.26209189707263009 -0.46114756224661779 0 0.26608767600896749 -0.48555794075531072 0 0.26608767600896749 -0.48555794075531072 0 0.2430805788385616 -0.48286422368147519 0 0.26608767600896749 -0.48555794075531072 0 0.26667993415996932 -0.48917607025424581 0 0.24260556593646451 -0.4901506563522503 0 0.26667993415996932 -0.48917607025424581 0 0.24260556593646451 -0.4901506563522503 0 0.2468149306897599 -0.5 0 0.26608767600896749 -0.48555794075531072 0 0.24260556593646451 -0.4901506563522503 0 0.2430805788385616 -0.48286422368147519 0 0.26667993415996932 -0.48917607025424581 0 0.24260556593646451 -0.4901506563522503 0 0.26845172276501089 -0.49999999999999989 0 0.26667993415996932 -0.48917607025424581 0 0.2468149306897599 -0.5 0 0.26845172276501089 -0.49999999999999989 0 0.26667993415996932 -0.48917607025424581 0 0.28920271580994272 -0.48826429596879528 0 0.26608767600896749 -0.48555794075531072 0 0.26667993415996932 -0.48917607025424581 0 0.28920271580994272 -0.48826429596879528 0 0.26667993415996932 -0.48917607025424581 0 0.28920271580994272 -0.48826429596879528 0 0.26608767600896749 -0.48555794075531072 0 0.28920271580994272 -0.48826429596879528 0 0.26845172276501089 -0.49999999999999989 0 0.26667993415996932 -0.48917607025424581 0 0.26608767600896749 -0.48555794075531072 0 0.26667993415996932 -0.48917607025424581 0 0.26845172276501089 -0.49999999999999989 0 0.28920271580994272 -0.48826429596879528 0 0.29619390302503712 -0.5 0 0.29241715498327059 -0.4629202732054099 0 0.28057308356280902 -0.47157985779558931 0 0.29755845196310432 -0.47548808878589061 0 0.28057308356280902 -0.47157985779558931 0 0.28920271580994272 -0.48826429596879528 0 0.29755845196310432 -0.47548808878589061 0 0.31468262084599907 -0.48723281049029388 0 0.28920271580994272 -0.48826429596879528 0 0.29755845196310432 -0.47548808878589061 0 0.31468262084599907 -0.48723281049029388 0 0.31091668461349969 -0.46744320646936383 0 0.29755845196310432 -0.47548808878589061 0 0.28920271580994272 -0.48826429596879528 0 0.30888161573923351 -0.49056834103546432 0 0.31468262084599907 -0.48723281049029388 0 0.28920271580994272 -0.48826429596879528 0 0.30888161573923351 -0.49056834103546432 0 0.32393608328506329 -0.5 0 0.29619390302503712 -0.5 0 0.30888161573923351 -0.49056834103546432 0 0.31468262084599907 -0.48723281049029388 0 0.28920271580994272 -0.48826429596879528 0 0.28920271580994272 -0.48826429596879528 0 0.29619390302503712 -0.5 0 0.30888161573923351 -0.49056834103546432 0 0.33577871697557132 -0.30131928103424588 0 0.31785586713234132 -0.28919991090604769 0 0.33888150482549778 -0.27531386491013038 0 0.33577871697557132 -0.30131928103424588 0 0.33888150482549778 -0.27531386491013038 0 0.33577871697557132 -0.30131928103424588 0 0.35214887558571528 -0.3089021305360431 0 0.34165533048416591 -0.31809438127256778 0 0.33577871697557132 -0.30131928103424588 0 0.31612386469132681 -0.31223064437234899 0 0.31785586713234132 -0.28919991090604769 0 0.31785586713234132 -0.28919991090604769 0 0.32043446730813152 -0.26491499454519102 0 0.29970881352845752 -0.27614372273596421 0 0.31785586713234132 -0.28919991090604769 0 0.32043446730813152 -0.26491499454519102 0 0.33888150482549778 -0.27531386491013038 0 0.31981317519911578 -0.24287448387094759 0 0.32043446730813152 -0.26491499454519102 0 0.30089510905897687 -0.25399374763568749 0 0.31981317519911578 -0.24287448387094759 0 0.34198429267542441 -0.24930844878601471 0 0.32043446730813152 -0.26491499454519102 0 0.34198429267542441 -0.24930844878601471 0 0.32043446730813152 -0.26491499454519102 0 0.33888150482549778 -0.27531386491013038 0 0.34198429267542441 -0.24930844878601471 0 0.33888150482549778 -0.27531386491013038 0 0.33888150482549778 -0.27531386491013038 0 0.35473584003328418 -0.26401768568109518 0 0.36187197490429501 -0.28780440654160111 0 0.34198429267542441 -0.24930844878601471 0 0.33888150482549778 -0.27531386491013038 0 0.35473584003328418 -0.26401768568109518 0 0.36613640271634179 -0.2357918474831934 0 0.35473584003328418 -0.26401768568109518 0 0.37420173559392561 -0.26422388965182281 0 0.35473584003328418 -0.26401768568109518 0 0.37420173559392561 -0.26422388965182281 0 0.36187197490429501 -0.28780440654160111 0 0.38249229615847258 -0.27998617100482848 0 0.37420173559392561 -0.26422388965182281 0 0.36187197490429501 -0.28780440654160111 0 0.33577871697557132 -0.30131928103424588 0 0.33888150482549778 -0.27531386491013038 0 0.36187197490429501 -0.28780440654160111 0 0.33577871697557132 -0.30131928103424588 0 0.36187197490429501 -0.28780440654160111 0 0.35214887558571528 -0.3089021305360431 0 0.38813334639774177 -0.29687881615364298 0 0.36187197490429501 -0.28780440654160111 0 0.36908857108534188 -0.31171233834703632 0 0.36187197490429501 -0.28780440654160111 0 0.35214887558571528 -0.3089021305360431 0 0.36908857108534188 -0.31171233834703632 0 0.36908857108534188 -0.31171233834703632 0 0.36473458986684182 -0.32576482210257662 0 0.35004379577294192 -0.3265458605404295 0 0.36908857108534188 -0.31171233834703632 0 0.35004379577294192 -0.3265458605404295 0 0.3795349150393289 -0.32407826915266419 0 0.36908857108534188 -0.31171233834703632 0 0.36473458986684182 -0.32576482210257662 0 0.3795349150393289 -0.32407826915266419 0 0.36473458986684182 -0.32576482210257662 0 0.3633191698248146 -0.34040811538842569 0 0.36473458986684182 -0.32576482210257662 0 0.3633191698248146 -0.34040811538842569 0 0.35004379577294192 -0.3265458605404295 0 0.3633191698248146 -0.34040811538842569 0 0.35129936791730187 -0.34920138015797769 0 0.33892951394789139 -0.34073864666406928 0 0.3633191698248146 -0.34040811538842569 0 0.35004379577294192 -0.3265458605404295 0 0.34258828382670958 -0.3345797327257074 0 0.3633191698248146 -0.34040811538842569 0 0.33892951394789139 -0.34073864666406928 0 0.3633191698248146 -0.34040811538842569 0 0.34258828382670958 -0.3345797327257074 0 0.33892951394789139 -0.34073864666406928 0 0.35214887558571528 -0.3089021305360431 0 0.35004379577294192 -0.3265458605404295 0 0.34165533048416591 -0.31809438127256778 0 0.35214887558571528 -0.3089021305360431 0 0.36908857108534188 -0.31171233834703632 0 0.35004379577294192 -0.3265458605404295 0 0.37588972969962792 -0.37349071433041681 0 0.36147429384848168 -0.37547754349235413 0 0.36840262698596521 -0.36268104081258729 0 0.36840262698596521 -0.36268104081258729 0 0.36162952593610059 -0.35206271314032561 0 0.35091087452901282 -0.35888284068712167 0 0.36840262698596521 -0.36268104081258729 0 0.36162952593610059 -0.35206271314032561 0 0.37421559042340868 -0.34914018865551522 0 0.3633191698248146 -0.34040811538842569 0 0.36162952593610059 -0.35206271314032561 0 0.37421559042340868 -0.34914018865551522 0 0.3633191698248146 -0.34040811538842569 0 0.36162952593610059 -0.35206271314032561 0 0.35129936791730187 -0.34920138015797769 0 0.35129936791730187 -0.34920138015797769 0 0.34157162454695328 -0.3534980431982786 0 0.33892951394789139 -0.34073864666406928 0 0.35091087452901282 -0.35888284068712167 0 0.33915614887373591 -0.36351560542132361 0 0.34157162454695328 -0.3534980431982786 0 0.35129936791730187 -0.34920138015797769 0 0.35091087452901282 -0.35888284068712167 0 0.34157162454695328 -0.3534980431982786 0 0.36162952593610059 -0.35206271314032561 0 0.35129936791730187 -0.34920138015797769 0 0.35091087452901282 -0.35888284068712167 0 0.3469235811052413 -0.37530713351338812 0 0.36840262698596521 -0.36268104081258729 0 0.36147429384848168 -0.37547754349235413 0 0.3469235811052413 -0.37530713351338812 0 0.36840262698596521 -0.36268104081258729 0 0.3469235811052413 -0.37530713351338812 0 0.36840262698596521 -0.36268104081258729 0 0.35091087452901282 -0.35888284068712167 0 0.3469235811052413 -0.37530713351338812 0 0.35091087452901282 -0.35888284068712167 0 0.33915614887373591 -0.36351560542132361 0 0.3469235811052413 -0.37530713351338812 0 0.33915614887373591 -0.36351560542132361 0 0.32727306647066151 -0.3726077453073382 0 0.33915614887373591 -0.36351560542132361 0 0.32910159771681102 -0.35728226440049149 0 0.32727306647066151 -0.3726077453073382 0 0.32910159771681102 -0.35728226440049149 0 0.32727306647066151 -0.3726077453073382 0 0.32910159771681102 -0.35728226440049149 0 0.34157162454695328 -0.3534980431982786 0 0.33892951394789139 -0.34073864666406928 0 0.32910159771681102 -0.35728226440049149 0 0.33892951394789139 -0.34073864666406928 0 0.32910159771681102 -0.35728226440049149 0 0.33099902046054253 -0.34137938273382351 0 0.33347378872887429 -0.34081258324707259 0 0.32910159771681102 -0.35728226440049149 0 0.33099902046054253 -0.34137938273382351 0 0.32910159771681102 -0.35728226440049149 0 0.33892951394789139 -0.34073864666406928 0 0.33347378872887429 -0.34081258324707259 0 0.33915614887373591 -0.36351560542132361 0 0.32910159771681102 -0.35728226440049149 0 0.34157162454695328 -0.3534980431982786 0 0.31270458631976 -0.35562848204801473 0 0.33099902046054253 -0.34137938273382351 0 0.32910159771681102 -0.35728226440049149 0 0.31270458631976 -0.35562848204801473 0 0.33099902046054253 -0.34137938273382351 0 0.31609323574347231 -0.37917961911983 0 0.32910159771681102 -0.35728226440049149 0 0.32727306647066151 -0.3726077453073382 0 0.31609323574347231 -0.37917961911983 0 0.32910159771681102 -0.35728226440049149 0 0.31609323574347231 -0.37917961911983 0 0.32910159771681102 -0.35728226440049149 0 0.31270458631976 -0.35562848204801473 0 0.33577871697557132 -0.30131928103424588 0 0.33267592912564398 -0.32732469715836132 0 0.34165533048416591 -0.31809438127256778 0 0.33577871697557132 -0.30131928103424588 0 0.33267592912564398 -0.32732469715836132 0 0.33577871697557132 -0.30131928103424588 0 0.31612386469132681 -0.31223064437234899 0 0.33267592912564398 -0.32732469715836132 0 0.33267592912564398 -0.32732469715836132 0 0.3376293349609566 -0.32637993709375912 0 0.33267592912564398 -0.32732469715836132 0 0.34165533048416591 -0.31809438127256778 0 0.3376293349609566 -0.32637993709375912 0 0.35004379577294192 -0.3265458605404295 0 0.34165533048416591 -0.31809438127256778 0 0.3376293349609566 -0.32637993709375912 0 0.35004379577294192 -0.3265458605404295 0 0.3376293349609566 -0.32637993709375912 0 0.33099902046054253 -0.34137938273382351 0 0.35004379577294192 -0.3265458605404295 0 0.33099902046054253 -0.34137938273382351 0 0.35004379577294192 -0.3265458605404295 0 0.34258828382670958 -0.3345797327257074 0 0.33099902046054253 -0.34137938273382351 0 0.34258828382670958 -0.3345797327257074 0 0.33892951394789139 -0.34073864666406928 0 0.33347378872887429 -0.34081258324707259 0 0.34258828382670958 -0.3345797327257074 0 0.33892951394789139 -0.34073864666406928 0 0.33892951394789139 -0.34073864666406928 0 0.33347378872887429 -0.34081258324707259 0 0.34258828382670958 -0.3345797327257074 0 0.33099902046054253 -0.34137938273382351 0 0.33347378872887429 -0.34081258324707259 0 0.33267592912564398 -0.32732469715836132 0 0.3376293349609566 -0.32637993709375912 0 0.33099902046054253 -0.34137938273382351 0 0.33267592912564398 -0.32732469715836132 0 0.33099902046054253 -0.34137938273382351 0 0.31270458631976 -0.35562848204801473 0 0.33099902046054253 -0.34137938273382351 0 0.30747881398948862 -0.33213052751331562 0 0.33267592912564398 -0.32732469715836132 0 0.33099902046054253 -0.34137938273382351 0 0.30747881398948862 -0.33213052751331562 0 0.33267592912564398 -0.32732469715836132 0 0.30747881398948862 -0.33213052751331562 0 0.31612386469132681 -0.31223064437234899 0 0.33267592912564398 -0.32732469715836132 0 0.30747881398948862 -0.33213052751331562 0 0.31612386469132681 -0.31223064437234899 0 0.30747881398948862 -0.33213052751331562 0 0.29247400163069548 -0.32191737542865018 0 0.30747881398948862 -0.33213052751331562 0 0.2822816988533336 -0.33693635786827209 0 0.29124128323799631 -0.35264708283784058 0 0.30747881398948862 -0.33213052751331562 0 0.2822816988533336 -0.33693635786827209 0 0.30747881398948862 -0.33213052751331562 0 0.2822816988533336 -0.33693635786827209 0 0.29247400163069548 -0.32191737542865018 0 0.2822816988533336 -0.33693635786827209 0 0.29247400163069548 -0.32191737542865018 0 0.27867517925260737 -0.32254335426841579 0 0.29247400163069548 -0.32191737542865018 0 0.27867517925260737 -0.32254335426841579 0 0.28329216639869992 -0.30626021185412039 0 0.31270458631976 -0.35562848204801473 0 0.29124128323799631 -0.35264708283784058 0 0.29441015217897798 -0.36987758136220678 0 0.31609323574347231 -0.37917961911983 0 0.31270458631976 -0.35562848204801473 0 0.29441015217897798 -0.36987758136220678 0 0.31270458631976 -0.35562848204801473 0 0.29441015217897798 -0.36987758136220678 0 0.31270458631976 -0.35562848204801473 0 0.30747881398948862 -0.33213052751331562 0 0.29124128323799631 -0.35264708283784058 0 0.2822816988533336 -0.33693635786827209 0 0.29124128323799631 -0.35264708283784058 0 0.27227523304957402 -0.35247829070858222 0 0.29124128323799631 -0.35264708283784058 0 0.29441015217897798 -0.36987758136220678 0 0.27750567465892112 -0.36728802176556619 0 0.27611571803819601 -0.38412668067639888 0 0.29441015217897798 -0.36987758136220678 0 0.27750567465892112 -0.36728802176556619 0 0.26378115915558642 -0.37816521096439121 0 0.27750567465892112 -0.36728802176556619 0 0.26531080538618101 -0.36272951821737021 0 0.27750567465892112 -0.36728802176556619 0 0.27227523304957402 -0.35247829070858222 0 0.26531080538618101 -0.36272951821737021 0 0.29124128323799631 -0.35264708283784058 0 0.27750567465892112 -0.36728802176556619 0 0.27227523304957402 -0.35247829070858222 0 0.27227523304957402 -0.35247829070858222 0 0.26175164727160932 -0.35186617390480579 0 0.26531080538618101 -0.36272951821737021 0 0.25296770532430862 -0.35870308311809379 0 0.26175164727160932 -0.35186617390480579 0 0.25708458371717863 -0.34174218822322872 0 0.25296770532430862 -0.35870308311809379 0 0.2558308503850007 -0.32948973951564853 0 0.25296770532430862 -0.35870308311809379 0 0.25090099589146247 -0.36290339301375862 0 0.25229403110032672 -0.34153501078116022 0 0.25090099589146247 -0.36290339301375862 0 0.25229403110032672 -0.34153501078116022 0 0.27227523304957402 -0.35247829070858222 0 0.26175164727160932 -0.35186617390480579 0 0.25708458371717863 -0.34174218822322872 0 0.25296770532430862 -0.35870308311809379 0 0.26175164727160932 -0.35186617390480579 0 0.25954965028229698 -0.35934880736544472 0 0.26175164727160932 -0.35186617390480579 0 0.25954965028229698 -0.35934880736544472 0 0.26531080538618101 -0.36272951821737021 0 0.25010456026361699 -0.387916426720539 0 0.25296770532430862 -0.35870308311809379 0 0.25296770532430862 -0.35870308311809379 0 0.25090099589146247 -0.36290339301375862 0 0.24950796068259801 -0.38427177524635697 0 0.25010456026361699 -0.387916426720539 0 0.25296770532430862 -0.35870308311809379 0 0.25833414573906599 -0.36911141348233317 0 0.25090099589146247 -0.36290339301375862 0 0.24950796068259801 -0.38427177524635697 0 0.25954965028229698 -0.35934880736544472 0 0.26531080538618101 -0.36272951821737021 0 0.25833414573906599 -0.36911141348233317 0 0.25296770532430862 -0.35870308311809379 0 0.25954965028229698 -0.35934880736544472 0 0.25833414573906599 -0.36911141348233317 0 0.26378115915558642 -0.37816521096439121 0 0.26531080538618101 -0.36272951821737021 0 0.25833414573906599 -0.36911141348233317 0 0.2687742388813546 -0.31561570719321552 0 0.27867517925260737 -0.32254335426841579 0 0.28329216639869992 -0.30626021185412039 0 0.2687742388813546 -0.31561570719321552 0 0.27867517925260737 -0.32254335426841579 0 0.26655379049895311 -0.33198711899782068 0 0.2822816988533336 -0.33693635786827209 0 0.27227523304957402 -0.35247829070858222 0 0.25708458371717863 -0.34174218822322872 0 0.2822816988533336 -0.33693635786827209 0 0.27867517925260737 -0.32254335426841579 0 0.26655379049895311 -0.33198711899782068 0 0.2822816988533336 -0.33693635786827209 0 0.25708458371717863 -0.34174218822322872 0 0.2822816988533336 -0.33693635786827209 0 0.26655379049895311 -0.33198711899782068 0 0.25708458371717863 -0.34174218822322872 0 0.26655379049895311 -0.33198711899782068 0 0.25708458371717863 -0.34174218822322872 0 0.2558308503850007 -0.32948973951564853 0 0.25296770532430862 -0.35870308311809379 0 0.25708458371717863 -0.34174218822322872 0 0.2558308503850007 -0.32948973951564853 0 0.25296770532430862 -0.35870308311809379 0 0.25229403110032672 -0.34153501078116022 0 0.2558308503850007 -0.32948973951564853 0 0.25229403110032672 -0.34153501078116022 0 0.25368706630918952 -0.3201666285485617 0 0.25229403110032672 -0.34153501078116022 0 0.25368706630918952 -0.3201666285485617 0 0.24604594819970951 -0.33053580797219689 0 0.25229403110032672 -0.34153501078116022 0 0.2558308503850007 -0.32948973951564853 0 0.25368706630918952 -0.3201666285485617 0 0.2687742388813546 -0.31561570719321552 0 0.26655379049895311 -0.33198711899782068 0 0.25368706630918952 -0.3201666285485617 0 0.26655379049895311 -0.33198711899782068 0 0.2558308503850007 -0.32948973951564853 0 0.25368706630918952 -0.3201666285485617 0 0.26655379049895311 -0.33198711899782068 0 0.25368706630918952 -0.3201666285485617 0 0.2687742388813546 -0.31561570719321552 0 0.25368706630918952 -0.3201666285485617 0 0.25543341914346818 -0.2933785512348166 0 0.25368706630918952 -0.3201666285485617 0 0.25543341914346818 -0.2933785512348166 0 0.25543341914346818 -0.2933785512348166 0 0.27977338257320672 -0.28412115714759639 0 0.25717977197774572 -0.26659047392107138 0 0.25543341914346818 -0.2933785512348166 0 0.27977338257320672 -0.28412115714759639 0 0.28329216639869992 -0.30626021185412039 0 0.2687742388813546 -0.31561570719321552 0 0.25543341914346818 -0.2933785512348166 0 0.28329216639869992 -0.30626021185412039 0 0.29247400163069548 -0.32191737542865018 0 0.28329216639869992 -0.30626021185412039 0 0.29820468265912131 -0.29831217040745461 0 0.27977338257320672 -0.28412115714759639 0 0.28329216639869992 -0.30626021185412039 0 0.29820468265912131 -0.29831217040745461 0 0.27977338257320672 -0.28412115714759639 0 0.29820468265912131 -0.29831217040745461 0 0.29970881352845752 -0.27614372273596421 0 0.31785586713234132 -0.28919991090604769 0 0.29820468265912131 -0.29831217040745461 0 0.29970881352845752 -0.27614372273596421 0 0.31612386469132681 -0.31223064437234899 0 0.31785586713234132 -0.28919991090604769 0 0.29820468265912131 -0.29831217040745461 0 0.31612386469132681 -0.31223064437234899 0 0.29247400163069548 -0.32191737542865018 0 0.29820468265912131 -0.29831217040745461 0 0.32043446730813152 -0.26491499454519102 0 0.30089510905897687 -0.25399374763568749 0 0.29970881352845752 -0.27614372273596421 0 0.27977338257320672 -0.28412115714759639 0 0.29970881352845752 -0.27614372273596421 0 0.28155802245106398 -0.26123087154921087 0 0.2833683716688068 -0.23780745418527879 0 0.30089510905897687 -0.25399374763568749 0 0.28155802245106398 -0.26123087154921087 0 0.30089510905897687 -0.25399374763568749 0 0.29970881352845752 -0.27614372273596421 0 0.28155802245106398 -0.26123087154921087 0 0.27189979870818792 -0.24802525381391011 0 0.28155802245106398 -0.26123087154921087 0 0.25717977197774572 -0.26659047392107138 0 0.27977338257320672 -0.28412115714759639 0 0.28155802245106398 -0.26123087154921087 0 0.25717977197774572 -0.26659047392107138 0 0.25543341914346818 -0.2933785512348166 0 0.25717977197774572 -0.26659047392107138 0 0.2589261248120231 -0.2398023966073263 0 0.25717977197774572 -0.26659047392107138 0 0.24378841454228789 -0.25769232034337658 0 0.2589261248120231 -0.2398023966073263 0 0.25717977197774572 -0.26659047392107138 0 0.27189979870818792 -0.24802525381391011 0 0.2589261248120231 -0.2398023966073263 0 0.25717977197774572 -0.26659047392107138 0 0.25543341914346818 -0.2933785512348166 0 0.25717977197774572 -0.26659047392107138 0 0.23182173417131721 -0.27622588722069202 0 0.25717977197774572 -0.26659047392107138 0 0.24378841454228789 -0.25769232034337658 0 0.23182173417131721 -0.27622588722069202 0 0.23182173417131721 -0.27622588722069202 0 0.21847476971357641 -0.26594943373541391 0 0.21387332288218919 -0.28359026559967188 0 0.23182173417131721 -0.27622588722069202 0 0.21847476971357641 -0.26594943373541391 0 0.22722602720806551 -0.24815052362441711 0 0.21094443410414671 -0.25630480773426262 0 0.21847476971357641 -0.26594943373541391 0 0.22722602720806551 -0.24815052362441711 0 0.24378841454228789 -0.25769232034337658 0 0.23182173417131721 -0.27622588722069202 0 0.22722602720806551 -0.24815052362441711 0 0.23182173417131721 -0.27622588722069202 0 0.22722602720806551 -0.24815052362441711 0 0.21094443410414671 -0.25630480773426262 0 0.19976316981452161 -0.25032016006862512 0 0.20052439762951149 -0.26411182609116229 0 0.21094443410414671 -0.25630480773426262 0 0.21095423108235589 -0.26748908329012772 0 0.20052439762951149 -0.26411182609116229 0 0.21094443410414671 -0.25630480773426262 0 0.21847476971357641 -0.26594943373541391 0 0.21095423108235589 -0.26748908329012772 0 0.21847476971357641 -0.26594943373541391 0 0.21095423108235589 -0.26748908329012772 0 0.21387332288218919 -0.28359026559967188 0 0.20011428004928891 -0.27095001373769317 0 0.20052439762951149 -0.26411182609116229 0 0.21387332288218919 -0.28359026559967188 0 0.21095423108235589 -0.26748908329012772 0 0.20052439762951149 -0.26411182609116229 0 0.21387332288218919 -0.28359026559967188 0 0.20052439762951149 -0.26411182609116229 0 0.21387332288218919 -0.28359026559967188 0 0.20011428004928891 -0.27095001373769317 0 0.21387332288218919 -0.28359026559967188 0 0.20011428004928891 -0.27095001373769317 0 0.1944210724241402 -0.27706237253929078 0 0.1940152984997269 -0.26573482485638089 0 0.20011428004928891 -0.27095001373769317 0 0.1944210724241402 -0.27706237253929078 0 0.21387332288218919 -0.28359026559967188 0 0.20011428004928891 -0.27095001373769317 0 0.1940152984997269 -0.26573482485638089 0 0.20052439762951149 -0.26411182609116229 0 0.1944210724241402 -0.27706237253929078 0 0.18784127001886031 -0.27191652533110527 0 0.19507685344024919 -0.28538964666960642 0 0.1944210724241402 -0.27706237253929078 0 0.18784127001886031 -0.27191652533110527 0 0.1940152984997269 -0.26573482485638089 0 0.18784127001886031 -0.27191652533110527 0 0.18717547237683341 -0.2446333865826531 0 0.20052439762951149 -0.26411182609116229 0 0.18717547237683341 -0.2446333865826531 0 0.1940152984997269 -0.26573482485638089 0 0.20052439762951149 -0.26411182609116229 0 0.18717547237683341 -0.2446333865826531 0 0.19976316981452161 -0.25032016006862512 0 0.20052439762951149 -0.26411182609116229 0 0.18717547237683341 -0.2446333865826531 0 0.18784127001886031 -0.27191652533110527 0 0.1940152984997269 -0.26573482485638089 0 0.18717547237683341 -0.2446333865826531 0 0.19876033989151529 -0.31173999801669999 0 0.1885070676608876 -0.29919966407955728 0 0.18917286530291491 -0.3264828028280094 0 0.19876033989151529 -0.31173999801669999 0 0.1885070676608876 -0.29919966407955728 0 0.20598582175089611 -0.29990146400367201 0 0.1944210724241402 -0.27706237253929078 0 0.19507685344024919 -0.28538964666960642 0 0.21387332288218919 -0.28359026559967188 0 0.18784127001886031 -0.27191652533110527 0 0.1885070676608876 -0.29919966407955728 0 0.18784127001886031 -0.27191652533110527 0 0.1885070676608876 -0.29919966407955728 0 0.19507685344024919 -0.28538964666960642 0 0.1885070676608876 -0.29919966407955728 0 0.19507685344024919 -0.28538964666960642 0 0.20598582175089611 -0.29990146400367201 0 0.21387332288218919 -0.28359026559967188 0 0.20598582175089611 -0.29990146400367201 0 0.22645562065924929 -0.30195006022653531 0 0.19507685344024919 -0.28538964666960642 0 0.21387332288218919 -0.28359026559967188 0 0.20598582175089611 -0.29990146400367201 0 0.20598582175089611 -0.29990146400367201 0 0.22645562065924929 -0.30195006022653531 0 0.21389881087266829 -0.3161881241744684 0 0.19876033989151529 -0.31173999801669999 0 0.20598582175089611 -0.29990146400367201 0 0.21389881087266829 -0.3161881241744684 0 0.22645562065924929 -0.30195006022653531 0 0.23641744113456931 -0.30430125081696702 0 0.23903791843630959 -0.32030985485339852 0 0.22645562065924929 -0.30195006022653531 0 0.23903791843630959 -0.32030985485339852 0 0.22514538200837919 -0.29394575820831947 0 0.23641744113456931 -0.30430125081696702 0 0.22645562065924929 -0.30195006022653531 0 0.22514538200837919 -0.29394575820831947 0 0.23641744113456931 -0.30430125081696702 0 0.23182173417131721 -0.27622588722069202 0 0.21387332288218919 -0.28359026559967188 0 0.22514538200837919 -0.29394575820831947 0 0.21387332288218919 -0.28359026559967188 0 0.22645562065924929 -0.30195006022653531 0 0.22514538200837919 -0.29394575820831947 0 0.23182173417131721 -0.27622588722069202 0 0.22514538200837919 -0.29394575820831947 0 0.23641744113456931 -0.30430125081696702 0 0.23182173417131721 -0.27622588722069202 0 0.23641744113456931 -0.30430125081696702 0 0.21387332288218919 -0.28359026559967188 0 0.22645562065924929 -0.30195006022653531 0 0.21387332288218919 -0.28359026559967188 0 0.22514538200837919 -0.29394575820831947 0 0.25543341914346818 -0.2933785512348166 0 0.23182173417131721 -0.27622588722069202 0 0.23641744113456931 -0.30430125081696702 0 0.25368706630918952 -0.3201666285485617 0 0.23641744113456931 -0.30430125081696702 0 0.23641744113456931 -0.30430125081696702 0 0.23903791843630959 -0.32030985485339852 0 0.25368706630918952 -0.3201666285485617 0 0.25543341914346818 -0.2933785512348166 0 0.23641744113456931 -0.30430125081696702 0 0.25368706630918952 -0.3201666285485617 0 0.23641744113456931 -0.30430125081696702 0 0.23903791843630959 -0.32030985485339852 0 0.23903791843630959 -0.32030985485339852 0 0.24604594819970951 -0.33053580797219689 0 0.25368706630918952 -0.3201666285485617 0 0.23903791843630959 -0.32030985485339852 0 0.24604594819970951 -0.33053580797219689 0 0.23903791843630959 -0.32030985485339852 0 0.2425279325184059 -0.34163049498438458 0 0.23903791843630959 -0.32030985485339852 0 0.24604594819970951 -0.33053580797219689 0 0.2425279325184059 -0.34163049498438458 0 0.25229403110032672 -0.34153501078116022 0 0.24604594819970951 -0.33053580797219689 0 0.2425279325184059 -0.34163049498438458 0 0.23903791843630959 -0.32030985485339852 0 0.2425279325184059 -0.34163049498438458 0 0.21577597599564249 -0.33865910315674291 0 0.23903791843630959 -0.32030985485339852 0 0.21389881087266829 -0.3161881241744684 0 0.21577597599564249 -0.33865910315674291 0 0.22645562065924929 -0.30195006022653531 0 0.23903791843630959 -0.32030985485339852 0 0.21389881087266829 -0.3161881241744684 0 0.24601794660050169 -0.3629511351153708 0 0.22725103062157381 -0.35804028399242271 0 0.2305000617456866 -0.38167510490534268 0 0.24601794660050169 -0.3629511351153708 0 0.24950796068259801 -0.38427177524635697 0 0.25090099589146247 -0.36290339301375862 0 0.24601794660050169 -0.3629511351153708 0 0.24950796068259801 -0.38427177524635697 0 0.2425279325184059 -0.34163049498438458 0 0.24601794660050169 -0.3629511351153708 0 0.25090099589146247 -0.36290339301375862 0 0.25229403110032672 -0.34153501078116022 0 0.24601794660050169 -0.3629511351153708 0 0.25229403110032672 -0.34153501078116022 0 0.2425279325184059 -0.34163049498438458 0 0.24601794660050169 -0.3629511351153708 0 0.2425279325184059 -0.34163049498438458 0 0.24601794660050169 -0.3629511351153708 0 0.22725103062157381 -0.35804028399242271 0 0.2425279325184059 -0.34163049498438458 0 0.22725103062157381 -0.35804028399242271 0 0.21577597599564249 -0.33865910315674291 0 0.22725103062157381 -0.35804028399242271 0 0.2172853919300913 -0.3730477324075861 0 0.2305000617456866 -0.38167510490534268 0 0.2172853919300913 -0.3730477324075861 0 0.20853482229137499 -0.35718713468473962 0 0.19050446058696949 -0.38104908032491352 0 0.22725103062157381 -0.35804028399242271 0 0.2172853919300913 -0.3730477324075861 0 0.20853482229137499 -0.35718713468473962 0 0.20853482229137499 -0.35718713468473962 0 0.1898386629449422 -0.35376594157646152 0 0.21577597599564249 -0.33865910315674291 0 0.22725103062157381 -0.35804028399242271 0 0.20853482229137499 -0.35718713468473962 0 0.21577597599564249 -0.33865910315674291 0 0.20853482229137499 -0.35718713468473962 0 0.1898386629449422 -0.35376594157646152 0 0.19050446058696949 -0.38104908032491352 0 0.1898386629449422 -0.35376594157646152 0 0.19050446058696949 -0.38104908032491352 0 0.21389881087266829 -0.3161881241744684 0 0.21577597599564249 -0.33865910315674291 0 0.18917286530291491 -0.3264828028280094 0 0.1898386629449422 -0.35376594157646152 0 0.18917286530291491 -0.3264828028280094 0 0.1898386629449422 -0.35376594157646152 0 0.21577597599564249 -0.33865910315674291 0 0.18917286530291491 -0.3264828028280094 0 0.19876033989151529 -0.31173999801669999 0 0.21389881087266829 -0.3161881241744684 0 0.18917286530291491 -0.3264828028280094 0 0.1885070676608876 -0.29919966407955728 0 0.18917286530291491 -0.3264828028280094 0 0.18917286530291491 -0.3264828028280094 0 0.17560895918961089 -0.32043428838946258 0 0.17205261566268659 -0.33071732470351622 0 0.18917286530291491 -0.3264828028280094 0 0.17560895918961089 -0.32043428838946258 0 0.1768424475536918 -0.30829461696665711 0 0.17560895918961089 -0.32043428838946258 0 0.16436790823915051 -0.31624240905966811 0 0.1768424475536918 -0.30829461696665711 0 0.18917286530291491 -0.3264828028280094 0 0.17205261566268659 -0.33071732470351622 0 0.17342060271213269 -0.3460346454148906 0 0.1898386629449422 -0.35376594157646152 0 0.18917286530291491 -0.3264828028280094 0 0.17342060271213269 -0.3460346454148906 0 0.17205261566268659 -0.33071732470351622 0 0.17342060271213269 -0.3460346454148906 0 0.15593985999258 -0.3384171980353875 0 0.17205261566268659 -0.33071732470351622 0 0.16436790823915051 -0.31624240905966811 0 0.15593985999258 -0.3384171980353875 0 0.16436790823915051 -0.31624240905966811 0 0.15593985999258 -0.3384171980353875 0 0.15593985999258 -0.3384171980353875 0 0.15818162103511341 -0.31029355491381522 0 0.16436790823915051 -0.31624240905966811 0 0.15593985999258 -0.3384171980353875 0 0.15818162103511341 -0.31029355491381522 0 0.17560895918961089 -0.32043428838946258 0 0.17205261566268659 -0.33071732470351622 0 0.16436790823915051 -0.31624240905966811 0 0.1898386629449422 -0.35376594157646152 0 0.17239265778975371 -0.36111752360865862 0 0.19050446058696949 -0.38104908032491352 0 0.17239265778975371 -0.36111752360865862 0 0.19050446058696949 -0.38104908032491352 0 0.1693694648050485 -0.3790764622666159 0 0.1898386629449422 -0.35376594157646152 0 0.17239265778975371 -0.36111752360865862 0 0.17342060271213269 -0.3460346454148906 0 0.16203047145981461 -0.35297418568495681 0 0.1538720553718686 -0.36435849958119593 0 0.15593985999258 -0.3384171980353875 0 0.17342060271213269 -0.3460346454148906 0 0.16203047145981461 -0.35297418568495681 0 0.15593985999258 -0.3384171980353875 0 0.17239265778975371 -0.36111752360865862 0 0.16203047145981461 -0.35297418568495681 0 0.16319251317569361 -0.36172511650679828 0 0.17239265778975371 -0.36111752360865862 0 0.17342060271213269 -0.3460346454148906 0 0.16203047145981461 -0.35297418568495681 0 0.16447486808133749 -0.36845025715238189 0 0.1538720553718686 -0.36435849958119593 0 0.1518042507511575 -0.39029980112700452 0 0.17239265778975371 -0.36111752360865862 0 0.16447486808133749 -0.36845025715238189 0 0.1693694648050485 -0.3790764622666159 0 0.17239265778975371 -0.36111752360865862 0 0.16319251317569361 -0.36172511650679828 0 0.16447486808133749 -0.36845025715238189 0 0.16319251317569361 -0.36172511650679828 0 0.16447486808133749 -0.36845025715238189 0 0.1538720553718686 -0.36435849958119593 0 0.16203047145981461 -0.35297418568495681 0 0.16319251317569361 -0.36172511650679828 0 0.1538720553718686 -0.36435849958119593 0 0.15092401100395719 -0.36503302930611969 0 0.14863114801676211 -0.35764693438793421 0 0.1413224360409438 -0.3768766707404807 0 0.15092401100395719 -0.36503302930611969 0 0.1538720553718686 -0.36435849958119593 0 0.1518042507511575 -0.39029980112700452 0 0.14863114801676211 -0.35764693438793421 0 0.1413224360409438 -0.3768766707404807 0 0.14863114801676211 -0.35764693438793421 0 0.1353589651969539 -0.36388609149607432 0 0.1413224360409438 -0.3768766707404807 0 0.15092401100395719 -0.36503302930611969 0 0.1538720553718686 -0.36435849958119593 0 0.14863114801676211 -0.35764693438793421 0 0.1538720553718686 -0.36435849958119593 0 0.15593985999258 -0.3384171980353875 0 0.14863114801676211 -0.35764693438793421 0 0.15593985999258 -0.3384171980353875 0 0.14863114801676211 -0.35764693438793421 0 0.13924532799420769 -0.35123449604484591 0 0.15593985999258 -0.3384171980353875 0 0.1538720553718686 -0.36435849958119593 0 0.14863114801676211 -0.35764693438793421 0 0.15593985999258 -0.3384171980353875 0 0.14863114801676211 -0.35764693438793421 0 0.13924532799420769 -0.35123449604484591 0 0.1353589651969539 -0.36388609149607432 0 0.13924532799420769 -0.35123449604484591 0 0.1353589651969539 -0.36388609149607432 0 0.12248595515394239 -0.35642412791690747 0 0.13924532799420769 -0.35123449604484591 0 0.13381071161080019 -0.33979812838792622 0 0.12248595515394239 -0.35642412791690747 0 0.1353589651969539 -0.36388609149607432 0 0.1260893951315552 -0.37593936819085799 0 0.12248595515394239 -0.35642412791690747 0 0.1353589651969539 -0.36388609149607432 0 0.1413224360409438 -0.3768766707404807 0 0.1260893951315552 -0.37593936819085799 0 0.14367120278738391 -0.32488375142681652 0 0.15593985999258 -0.3384171980353875 0 0.15818162103511341 -0.31029355491381522 0 0.14367120278738391 -0.32488375142681652 0 0.1406281024718144 -0.31149293614162032 0 0.15818162103511341 -0.31029355491381522 0 0.14367120278738391 -0.32488375142681652 0 0.15593985999258 -0.3384171980353875 0 0.13381071161080019 -0.33979812838792622 0 0.13924532799420769 -0.35123449604484591 0 0.15593985999258 -0.3384171980353875 0 0.13381071161080019 -0.33979812838792622 0 0.14367120278738391 -0.32488375142681652 0 0.13381071161080019 -0.33979812838792622 0 0.12903476628711669 -0.3237943888649345 0 0.12903476628711669 -0.3237943888649345 0 0.1406281024718144 -0.31149293614162032 0 0.1225359174670846 -0.30506289077601773 0 0.14367120278738391 -0.32488375142681652 0 0.12903476628711669 -0.3237943888649345 0 0.1406281024718144 -0.31149293614162032 0 0.1406281024718144 -0.31149293614162032 0 0.14546522257967379 -0.29512875132432959 0 0.1225359174670846 -0.30506289077601773 0 0.1406281024718144 -0.31149293614162032 0 0.14546522257967379 -0.29512875132432959 0 0.15818162103511341 -0.31029355491381522 0 0.14546522257967379 -0.29512875132432959 0 0.135084183588249 -0.27827906031696398 0 0.1604233820776472 -0.28216991179224288 0 0.14546522257967379 -0.29512875132432959 0 0.15818162103511341 -0.31029355491381522 0 0.1604233820776472 -0.28216991179224288 0 0.14546522257967379 -0.29512875132432959 0 0.135084183588249 -0.27827906031696398 0 0.1225359174670846 -0.30506289077601773 0 0.135084183588249 -0.27827906031696398 0 0.1225359174670846 -0.30506289077601773 0 0.135084183588249 -0.27827906031696398 0 0.14763244970941339 -0.2514952298579104 0 0.1168930510602708 -0.2540822323424185 0 0.14763244970941339 -0.2514952298579104 0 0.1546219651512746 -0.26782461435903221 0 0.1640065910196048 -0.26107049623052231 0 0.135084183588249 -0.27827906031696398 0 0.14763244970941339 -0.2514952298579104 0 0.135084183588249 -0.27827906031696398 0 0.1546219651512746 -0.26782461435903221 0 0.1604233820776472 -0.28216991179224288 0 0.135084183588249 -0.27827906031696398 0 0.14763244970941339 -0.2514952298579104 0 0.1546219651512746 -0.26782461435903221 0 0.1546219651512746 -0.26782461435903221 0 0.1660446019873596 -0.27202525797521682 0 0.1604233820776472 -0.28216991179224288 0 0.1546219651512746 -0.26782461435903221 0 0.1660446019873596 -0.27202525797521682 0 0.1640065910196048 -0.26107049623052231 0 0.1660446019873596 -0.27202525797521682 0 0.17540606040261941 -0.28118744145315983 0 0.1604233820776472 -0.28216991179224288 0 0.14763244970941339 -0.2514952298579104 0 0.1640065910196048 -0.26107049623052231 0 0.17145580717169789 -0.24988436124947211 0 0.1660446019873596 -0.27202525797521682 0 0.1640065910196048 -0.26107049623052231 0 0.17532163382949589 -0.26345291147035488 0 0.1640065910196048 -0.26107049623052231 0 0.17532163382949589 -0.26345291147035488 0 0.17145580717169789 -0.24988436124947211 0 0.17532163382949589 -0.26345291147035488 0 0.18717547237683341 -0.2446333865826531 0 0.17145580717169789 -0.24988436124947211 0 0.18784127001886031 -0.27191652533110527 0 0.17532163382949589 -0.26345291147035488 0 0.18717547237683341 -0.2446333865826531 0 0.1660446019873596 -0.27202525797521682 0 0.17532163382949589 -0.26345291147035488 0 0.17540606040261941 -0.28118744145315983 0 0.18784127001886031 -0.27191652533110527 0 0.17532163382949589 -0.26345291147035488 0 0.17540606040261941 -0.28118744145315983 0 0.1885070676608876 -0.29919966407955728 0 0.17540606040261941 -0.28118744145315983 0 0.1727959564857206 -0.29406762008394849 0 0.18784127001886031 -0.27191652533110527 0 0.1885070676608876 -0.29919966407955728 0 0.17540606040261941 -0.28118744145315983 0 0.1885070676608876 -0.29919966407955728 0 0.1727959564857206 -0.29406762008394849 0 0.1768424475536918 -0.30829461696665711 0 0.1885070676608876 -0.29919966407955728 0 0.18917286530291491 -0.3264828028280094 0 0.1768424475536918 -0.30829461696665711 0 0.16436790823915051 -0.31624240905966811 0 0.1727959564857206 -0.29406762008394849 0 0.15818162103511341 -0.31029355491381522 0 0.16436790823915051 -0.31624240905966811 0 0.1727959564857206 -0.29406762008394849 0 0.1768424475536918 -0.30829461696665711 0 0.16436790823915051 -0.31624240905966811 0 0.1727959564857206 -0.29406762008394849 0 0.1727959564857206 -0.29406762008394849 0 0.15818162103511341 -0.31029355491381522 0 0.1604233820776472 -0.28216991179224288 0 0.15818162103511341 -0.31029355491381522 0 0.1604233820776472 -0.28216991179224288 0 0.17540606040261941 -0.28118744145315983 0 0.1727959564857206 -0.29406762008394849 0 0.1604233820776472 -0.28216991179224288 0 0.1882053851113786 -0.4890360466717214 0 0.19695058600564691 -0.47746323161413212 0 0.20354134653925771 -0.50000000000000022 0 0.1882053851113786 -0.4890360466717214 0 0.20354134653925771 -0.50000000000000022 0 0.17472106542852739 -0.5 0 0.19695058600564691 -0.47746323161413212 0 0.1937108504237883 -0.46264916046221349 0 0.1776085424720823 -0.4786809550727531 0 0.1882053851113786 -0.4890360466717214 0 0.19695058600564691 -0.47746323161413212 0 0.1776085424720823 -0.4786809550727531 0 0.19695058600564691 -0.47746323161413212 0 0.2121905776972752 -0.46982268304261732 0 0.1937108504237883 -0.46264916046221349 0 0.19695058600564691 -0.47746323161413212 0 0.2203544960555803 -0.48020340833565073 0 0.19695058600564691 -0.47746323161413212 0 0.2121905776972752 -0.46982268304261732 0 0.2203544960555803 -0.48020340833565073 0 0.20354134653925771 -0.50000000000000022 0 0.2203544960555803 -0.48020340833565073 0 0.19695058600564691 -0.47746323161413212 0 0.20354134653925771 -0.50000000000000022 0 0.2203544960555803 -0.48020340833565073 0 0.20354134653925771 -0.50000000000000022 0 0.2174910264465845 -0.4911673509885211 0 0.22517813861450869 -0.5 0 0.20354134653925771 -0.50000000000000022 0 0.2174910264465845 -0.4911673509885211 0 0.2203544960555803 -0.48020340833565073 0 0.2174910264465845 -0.4911673509885211 0 0.24260556593646451 -0.4901506563522503 0 0.2174910264465845 -0.4911673509885211 0 0.24260556593646451 -0.4901506563522503 0 0.2203544960555803 -0.48020340833565073 0 0.2174910264465845 -0.4911673509885211 0 0.22517813861450869 -0.5 0 0.24260556593646451 -0.4901506563522503 0 0.22517813861450869 -0.5 0 0.2421762869239095 -0.4967355566952964 0 0.24260556593646451 -0.4901506563522503 0 0.22517813861450869 -0.5 0 0.2421762869239095 -0.4967355566952964 0 0.2468149306897599 -0.5 0 0.24260556593646451 -0.4901506563522503 0 0.2430805788385616 -0.48286422368147519 0 0.2203544960555803 -0.48020340833565073 0 0.24260556593646451 -0.4901506563522503 0 0.2430805788385616 -0.48286422368147519 0 0.2421762869239095 -0.4967355566952964 0 0.24260556593646451 -0.4901506563522503 0 0.2468149306897599 -0.5 0 0.2421762869239095 -0.4967355566952964 0 0.24260556593646451 -0.4901506563522503 0 0.25469622777451911 -0.47488630923039699 0 0.2430805788385616 -0.48286422368147519 0 0.24411925922930011 -0.46693144648706147 0 0.2430805788385616 -0.48286422368147519 0 0.24411925922930011 -0.46693144648706147 0 0.2430805788385616 -0.48286422368147519 0 0.23576228221085491 -0.47407101258531009 0 0.24411925922930011 -0.46693144648706147 0 0.23576228221085491 -0.47407101258531009 0 0.23275621783781139 -0.4656010388141506 0 0.24411925922930011 -0.46693144648706147 0 0.2121905776972752 -0.46982268304261732 0 0.2203544960555803 -0.48020340833565073 0 0.23275621783781139 -0.4656010388141506 0 0.23576228221085491 -0.47407101258531009 0 0.2203544960555803 -0.48020340833565073 0 0.23275621783781139 -0.4656010388141506 0 0.2430805788385616 -0.48286422368147519 0 0.23576228221085491 -0.47407101258531009 0 0.2203544960555803 -0.48020340833565073 0 0.2430805788385616 -0.48286422368147519 0 0.2203544960555803 -0.48020340833565073 0 0.2203544960555803 -0.48020340833565073 0 0.23275621783781139 -0.4656010388141506 0 0.23275621783781139 -0.4656010388141506 0 0.24515793962003959 -0.45099866929264792 0 0.22375577220656401 -0.45170897835014101 0 0.2121905776972752 -0.46982268304261732 0 0.23275621783781139 -0.4656010388141506 0 0.22375577220656401 -0.45170897835014101 0 0.24411925922930011 -0.46693144648706147 0 0.24515793962003959 -0.45099866929264792 0 0.23275621783781139 -0.4656010388141506 0 0.24411925922930011 -0.46693144648706147 0 0.24515793962003959 -0.45099866929264792 0 0.23275621783781139 -0.4656010388141506 0 0.24515793962003959 -0.45099866929264792 0 0.24515793962003959 -0.45099866929264792 0 0.23443530096073159 -0.43930459093211999 0 0.24638556821694479 -0.43216753212437159 0 0.24515793962003959 -0.45099866929264792 0 0.23443530096073159 -0.43930459093211999 0 0.22375577220656401 -0.45170897835014101 0 0.25630688252550488 -0.43787138044207902 0 0.24515793962003959 -0.45099866929264792 0 0.24638556821694479 -0.43216753212437159 0 0.24515793962003959 -0.45099866929264792 0 0.24638556821694479 -0.43216753212437159 0 0.23443530096073159 -0.43930459093211999 0 0.22375577220656401 -0.45170897835014101 0 0.2211437049775169 -0.43533643665235222 0 0.20742727770065211 -0.44899279855728219 0 0.20252123284356441 -0.43444577506210652 0 0.2211437049775169 -0.43533643665235222 0 0.22375577220656401 -0.45170897835014101 0 0.20742727770065211 -0.44899279855728219 0 0.2211437049775169 -0.43533643665235222 0 0.20742727770065211 -0.44899279855728219 0 0.2211437049775169 -0.43533643665235222 0 0.2121905776972752 -0.46982268304261732 0 0.22375577220656401 -0.45170897835014101 0 0.20742727770065211 -0.44899279855728219 0 0.2121905776972752 -0.46982268304261732 0 0.20742727770065211 -0.44899279855728219 0 0.1937108504237883 -0.46264916046221349 0 0.20742727770065211 -0.44899279855728219 0 0.1937108504237883 -0.46264916046221349 0 0.2121905776972752 -0.46982268304261732 0 0.1937108504237883 -0.46264916046221349 0 0.20742727770065211 -0.44899279855728219 0 0.1937108504237883 -0.46264916046221349 0 0.19353461090755689 -0.44876041828416502 0 0.19353461090755689 -0.44876041828416502 0 0.20252123284356441 -0.43444577506210652 0 0.18664369127951849 -0.43784491335514131 0 0.20742727770065211 -0.44899279855728219 0 0.19353461090755689 -0.44876041828416502 0 0.20252123284356441 -0.43444577506210652 0 0.20252123284356441 -0.43444577506210652 0 0.19372152631554551 -0.41793731517247301 0 0.18664369127951849 -0.43784491335514131 0 0.20252123284356441 -0.43444577506210652 0 0.19372152631554551 -0.41793731517247301 0 0.2120855734367523 -0.42069232624703279 0 0.19372152631554551 -0.41793731517247301 0 0.21461598640114971 -0.40238978938303421 0 0.1918065058114419 -0.3989674611878522 0 0.19372152631554551 -0.41793731517247301 0 0.2120855734367523 -0.42069232624703279 0 0.21461598640114971 -0.40238978938303421 0 0.2120855734367523 -0.42069232624703279 0 0.22676962065984069 -0.41612442591271909 0 0.21461598640114971 -0.40238978938303421 0 0.20252123284356441 -0.43444577506210652 0 0.2120855734367523 -0.42069232624703279 0 0.2211437049775169 -0.43533643665235222 0 0.2120855734367523 -0.42069232624703279 0 0.2211437049775169 -0.43533643665235222 0 0.22676962065984069 -0.41612442591271909 0 0.2211437049775169 -0.43533643665235222 0 0.23573351978259399 -0.42631133824108769 0 0.22676962065984069 -0.41612442591271909 0 0.23443530096073159 -0.43930459093211999 0 0.2211437049775169 -0.43533643665235222 0 0.23573351978259399 -0.42631133824108769 0 0.23443530096073159 -0.43930459093211999 0 0.23573351978259399 -0.42631133824108769 0 0.24638556821694479 -0.43216753212437159 0 0.24638556821694479 -0.43216753212437159 0 0.24720574428714279 -0.41958648919415409 0 0.23573351978259399 -0.42631133824108769 0 0.24638556821694479 -0.43216753212437159 0 0.24720574428714279 -0.41958648919415409 0 0.25410033919995512 -0.41232680522923187 0 0.24638556821694479 -0.43216753212437159 0 0.24720574428714279 -0.41958648919415409 0 0.2476131968138508 -0.41333639495609542 0 0.24720574428714279 -0.41958648919415409 0 0.23842808455760969 -0.41552490180771567 0 0.2476131968138508 -0.41333639495609542 0 0.24720574428714279 -0.41958648919415409 0 0.25410033919995512 -0.41232680522923187 0 0.2476131968138508 -0.41333639495609542 0 0.24720574428714279 -0.41958648919415409 0 0.23573351978259399 -0.42631133824108769 0 0.24720574428714279 -0.41958648919415409 0 0.23842808455760969 -0.41552490180771567 0 0.2476131968138508 -0.41333639495609542 0 0.23842808455760969 -0.41552490180771567 0 0.23502214657037959 -0.40227914709337942 0 0.23842808455760969 -0.41552490180771567 0 0.22676962065984069 -0.41612442591271909 0 0.23502214657037959 -0.40227914709337942 0 0.22676962065984069 -0.41612442591271909 0 0.23502214657037959 -0.40227914709337942 0 0.21461598640114971 -0.40238978938303421 0 0.23573351978259399 -0.42631133824108769 0 0.23842808455760969 -0.41552490180771567 0 0.22676962065984069 -0.41612442591271909 0 0.23502214657037959 -0.40227914709337942 0 0.2305000617456866 -0.38167510490534268 0 0.21461598640114971 -0.40238978938303421 0 0.2476131968138508 -0.41333639495609542 0 0.23502214657037959 -0.40227914709337942 0 0.24950796068259801 -0.38427177524635697 0 0.2476131968138508 -0.41333639495609542 0 0.24950796068259801 -0.38427177524635697 0 0.25010456026361699 -0.387916426720539 0 0.2476131968138508 -0.41333639495609542 0 0.25010456026361699 -0.387916426720539 0 0.2476131968138508 -0.41333639495609542 0 0.24950796068259801 -0.38427177524635697 0 0.23502214657037959 -0.40227914709337942 0 0.24950796068259801 -0.38427177524635697 0 0.2305000617456866 -0.38167510490534268 0 0.24601794660050169 -0.3629511351153708 0 0.24950796068259801 -0.38427177524635697 0 0.2305000617456866 -0.38167510490534268 0 0.25010456026361699 -0.387916426720539 0 0.24950796068259801 -0.38427177524635697 0 0.2305000617456866 -0.38167510490534268 0 0.20729189231124029 -0.38693688276623961 0 0.21461598640114971 -0.40238978938303421 0 0.2172853919300913 -0.3730477324075861 0 0.2305000617456866 -0.38167510490534268 0 0.20729189231124029 -0.38693688276623961 0 0.2172853919300913 -0.3730477324075861 0 0.20729189231124029 -0.38693688276623961 0 0.19050446058696949 -0.38104908032491352 0 0.20729189231124029 -0.38693688276623961 0 0.21461598640114971 -0.40238978938303421 0 0.1918065058114419 -0.3989674611878522 0 0.20729189231124029 -0.38693688276623961 0 0.1918065058114419 -0.3989674611878522 0 0.19050446058696949 -0.38104908032491352 0 0.19050446058696949 -0.38104908032491352 0 0.17144511859132019 -0.39449525348155118 0 0.1693694648050485 -0.3790764622666159 0 0.1918065058114419 -0.3989674611878522 0 0.19050446058696949 -0.38104908032491352 0 0.17144511859132019 -0.39449525348155118 0 0.1918065058114419 -0.3989674611878522 0 0.17144511859132019 -0.39449525348155118 0 0.17326005066242639 -0.41099644599890178 0 0.17144511859132019 -0.39449525348155118 0 0.1567185433267991 -0.40664314912596539 0 0.17326005066242639 -0.41099644599890178 0 0.17144511859132019 -0.39449525348155118 0 0.1518042507511575 -0.39029980112700452 0 0.1567185433267991 -0.40664314912596539 0 0.16447486808133749 -0.36845025715238189 0 0.1693694648050485 -0.3790764622666159 0 0.1518042507511575 -0.39029980112700452 0 0.17144511859132019 -0.39449525348155118 0 0.1693694648050485 -0.3790764622666159 0 0.1518042507511575 -0.39029980112700452 0 0.15092401100395719 -0.36503302930611969 0 0.1413224360409438 -0.3768766707404807 0 0.136123490857887 -0.38881565264171902 0 0.1538720553718686 -0.36435849958119593 0 0.1518042507511575 -0.39029980112700452 0 0.15092401100395719 -0.36503302930611969 0 0.1518042507511575 -0.39029980112700452 0 0.136123490857887 -0.38881565264171902 0 0.15092401100395719 -0.36503302930611969 0 0.136123490857887 -0.38881565264171902 0 0.1413224360409438 -0.3768766707404807 0 0.136123490857887 -0.38881565264171902 0 0.1260893951315552 -0.37593936819085799 0 0.136123490857887 -0.38881565264171902 0 0.1260893951315552 -0.37593936819085799 0 0.12006043517291939 -0.39193490038897888 0 0.136123490857887 -0.38881565264171902 0 0.14260057597421491 -0.40396160837582662 0 0.1213229707118169 -0.41259827597731807 0 0.136123490857887 -0.38881565264171902 0 0.1213229707118169 -0.41259827597731807 0 0.136123490857887 -0.38881565264171902 0 0.1213229707118169 -0.41259827597731807 0 0.12006043517291939 -0.39193490038897888 0 0.1518042507511575 -0.39029980112700452 0 0.14260057597421491 -0.40396160837582662 0 0.1567185433267991 -0.40664314912596539 0 0.1518042507511575 -0.39029980112700452 0 0.136123490857887 -0.38881565264171902 0 0.14260057597421491 -0.40396160837582662 0 0.14245315756731591 -0.41840778553681113 0 0.15874810641435999 -0.42169800023569731 0 0.1567185433267991 -0.40664314912596539 0 0.14260057597421491 -0.40396160837582662 0 0.14245315756731591 -0.41840778553681113 0 0.1567185433267991 -0.40664314912596539 0 0.14245315756731591 -0.41840778553681113 0 0.12948126747816921 -0.42381167033557832 0 0.1213229707118169 -0.41259827597731807 0 0.14260057597421491 -0.40396160837582662 0 0.14245315756731591 -0.41840778553681113 0 0.1213229707118169 -0.41259827597731807 0 0.1313577323748438 -0.43087918881387383 0 0.1270052889454984 -0.43675517163752348 0 0.13915076818517469 -0.43019788173319812 0 0.1313577323748438 -0.43087918881387383 0 0.12948126747816921 -0.42381167033557832 0 0.12257580504639499 -0.43503571970517152 0 0.1313577323748438 -0.43087918881387383 0 0.1270052889454984 -0.43675517163752348 0 0.12257580504639499 -0.43503571970517152 0 0.1313577323748438 -0.43087918881387383 0 0.12948126747816921 -0.42381167033557832 0 0.13915076818517469 -0.43019788173319812 0 0.14245315756731591 -0.41840778553681113 0 0.12948126747816921 -0.42381167033557832 0 0.13915076818517469 -0.43019788173319812 0 0.1270052889454984 -0.43675517163752348 0 0.15682449011250851 -0.43730004249633209 0 0.13915076818517469 -0.43019788173319812 0 0.14929413056983981 -0.42690092750050967 0 0.15682449011250851 -0.43730004249633209 0 0.1270052889454984 -0.43675517163752348 0 0.13915076818517469 -0.43019788173319812 0 0.15682449011250851 -0.43730004249633209 0 0.14245315756731591 -0.41840778553681113 0 0.14929413056983981 -0.42690092750050967 0 0.15874810641435999 -0.42169800023569731 0 0.14245315756731591 -0.41840778553681113 0 0.13915076818517469 -0.43019788173319812 0 0.14929413056983981 -0.42690092750050967 0 0.14929413056983981 -0.42690092750050967 0 0.15682449011250851 -0.43730004249633209 0 0.15874810641435999 -0.42169800023569731 0 0.15682449011250851 -0.43730004249633209 0 0.15874810641435999 -0.42169800023569731 0 0.17383957295687169 -0.42515534345170908 0 0.15874810641435999 -0.42169800023569731 0 0.1567185433267991 -0.40664314912596539 0 0.17326005066242639 -0.41099644599890178 0 0.15874810641435999 -0.42169800023569731 0 0.17326005066242639 -0.41099644599890178 0 0.17383957295687169 -0.42515534345170908 0 0.19372152631554551 -0.41793731517247301 0 0.17326005066242639 -0.41099644599890178 0 0.17383957295687169 -0.42515534345170908 0 0.19372152631554551 -0.41793731517247301 0 0.1918065058114419 -0.3989674611878522 0 0.17326005066242639 -0.41099644599890178 0 0.19372152631554551 -0.41793731517247301 0 0.17383957295687169 -0.42515534345170908 0 0.18664369127951849 -0.43784491335514131 0 0.15682449011250851 -0.43730004249633209 0 0.17383957295687169 -0.42515534345170908 0 0.18664369127951849 -0.43784491335514131 0 0.19353461090755689 -0.44876041828416502 0 0.18664369127951849 -0.43784491335514131 0 0.17147566326435809 -0.45401783085398412 0 0.1937108504237883 -0.46264916046221349 0 0.17147566326435809 -0.45401783085398412 0 0.1937108504237883 -0.46264916046221349 0 0.17147566326435809 -0.45401783085398412 0 0.1776085424720823 -0.4786809550727531 0 0.1937108504237883 -0.46264916046221349 0 0.19353461090755689 -0.44876041828416502 0 0.17147566326435809 -0.45401783085398412 0 0.17147566326435809 -0.45401783085398412 0 0.1588557010053521 -0.46434124415277939 0 0.1776085424720823 -0.4786809550727531 0 0.17147566326435809 -0.45401783085398412 0 0.1588557010053521 -0.46434124415277939 0 0.1492404761049281 -0.44538650124575418 0 0.15682449011250851 -0.43730004249633209 0 0.18664369127951849 -0.43784491335514131 0 0.15682449011250851 -0.43730004249633209 0 0.17147566326435809 -0.45401783085398412 0 0.1492404761049281 -0.44538650124575418 0 0.15682449011250851 -0.43730004249633209 0 0.18664369127951849 -0.43784491335514131 0 0.17147566326435809 -0.45401783085398412 0 0.17147566326435809 -0.45401783085398412 0 0.1492404761049281 -0.44538650124575418 0 0.1270052889454984 -0.43675517163752348 0 0.15682449011250851 -0.43730004249633209 0 0.1492404761049281 -0.44538650124575418 0 0.1492404761049281 -0.44538650124575418 0 0.13851493241255761 -0.44887074310061209 0 0.14582150915247091 -0.45850715141292958 0 0.1270052889454984 -0.43675517163752348 0 0.1319924554473329 -0.45483414810624112 0 0.1183406969131819 -0.44975868683030151 0 0.1270052889454984 -0.43675517163752348 0 0.13851493241255761 -0.44887074310061209 0 0.1319924554473329 -0.45483414810624112 0 0.1270052889454984 -0.43675517163752348 0 0.1492404761049281 -0.44538650124575418 0 0.13851493241255761 -0.44887074310061209 0 0.1270052889454984 -0.43675517163752348 0 0.1492404761049281 -0.44538650124575418 0 0.1319924554473329 -0.45483414810624112 0 0.1361524985449096 -0.46708790466801658 0 0.12301029640063919 -0.46641938673962818 0 0.1319924554473329 -0.45483414810624112 0 0.1361524985449096 -0.46708790466801658 0 0.14582150915247091 -0.45850715141292958 0 0.13851493241255761 -0.44887074310061209 0 0.1319924554473329 -0.45483414810624112 0 0.14582150915247091 -0.45850715141292958 0 0.1361524985449096 -0.46708790466801658 0 0.14582150915247091 -0.45850715141292958 0 0.14741170801641029 -0.4731145099008216 0 0.1588557010053521 -0.46434124415277939 0 0.1492404761049281 -0.44538650124575418 0 0.14582150915247091 -0.45850715141292958 0 0.1588557010053521 -0.46434124415277939 0 0.14582150915247091 -0.45850715141292958 0 0.14741170801641029 -0.4731145099008216 0 0.14741170801641029 -0.4731145099008216 0 0.13252652370769469 -0.4825643271804626 0 0.1493038849824459 -0.48591072586573458 0 0.1588557010053521 -0.46434124415277939 0 0.14741170801641029 -0.4731145099008216 0 0.1591741743499496 -0.479162042564095 0 0.14741170801641029 -0.4731145099008216 0 0.1493038849824459 -0.48591072586573458 0 0.1591741743499496 -0.479162042564095 0 0.1361524985449096 -0.46708790466801658 0 0.14741170801641029 -0.4731145099008216 0 0.13252652370769469 -0.4825643271804626 0 0.1361524985449096 -0.46708790466801658 0 0.13252652370769469 -0.4825643271804626 0 0.12301029640063919 -0.46641938673962818 0 0.13252652370769469 -0.4825643271804626 0 0.14590078431779741 -0.5 0 0.11708050320706739 -0.5 0 0.13252652370769469 -0.4825643271804626 0 0.14590078431779741 -0.5 0 0.1493038849824459 -0.48591072586573458 0 0.14590078431779741 -0.5 0 0.1493038849824459 -0.48591072586573458 0 0.1615062345203773 -0.49471274968329387 0 0.1615062345203773 -0.49471274968329387 0 0.1776085424720823 -0.4786809550727531 0 0.1615062345203773 -0.49471274968329387 0 0.1776085424720823 -0.4786809550727531 0 0.17472106542852739 -0.5 0 0.14590078431779741 -0.5 0 0.1615062345203773 -0.49471274968329387 0 0.17472106542852739 -0.5 0 0.1493038849824459 -0.48591072586573458 0 0.1615062345203773 -0.49471274968329387 0 0.1591741743499496 -0.479162042564095 0 0.1588557010053521 -0.46434124415277939 0 0.1591741743499496 -0.479162042564095 0 0.1776085424720823 -0.4786809550727531 0 0.1615062345203773 -0.49471274968329387 0 0.1591741743499496 -0.479162042564095 0 0.1776085424720823 -0.4786809550727531 0 0.1937108504237883 -0.46264916046221349 0 0.1776085424720823 -0.4786809550727531 0 0.1882053851113786 -0.4890360466717214 0 0.1776085424720823 -0.4786809550727531 0 0.17472106542852739 -0.5 0 0.07085911429374285 -0.49368751320736792 0 0.064060113245630546 -0.48418013049356778 0 0.059439940985607252 -0.49999999999999589 0 0.07085911429374285 -0.49368751320736792 0 0.088260222096337326 -0.5 0 0.059439940985607252 -0.49999999999999589 0 0.07085911429374285 -0.49368751320736792 0 0.079626331487580165 -0.47959966885023658 0 0.07085911429374285 -0.49368751320736792 0 0.064060113245630546 -0.48418013049356778 0 0.079626331487580165 -0.47959966885023658 0 0.079626331487580165 -0.47959966885023658 0 0.074549175998463432 -0.46592511650474 0 0.062443794655832371 -0.47139439119841758 0 0.064060113245630546 -0.48418013049356778 0 0.079626331487580165 -0.47959966885023658 0 0.062443794655832371 -0.47139439119841758 0 0.079626331487580165 -0.47959966885023658 0 0.098169322054237881 -0.48612736170348558 0 0.094784836812329465 -0.47219641848909633 0 0.079626331487580165 -0.47959966885023658 0 0.088393548681417577 -0.46551182449310552 0 0.074549175998463432 -0.46592511650474 0 0.079626331487580165 -0.47959966885023658 0 0.088393548681417577 -0.46551182449310552 0 0.079626331487580165 -0.47959966885023658 0 0.094784836812329465 -0.47219641848909633 0 0.088393548681417577 -0.46551182449310552 0 0.094784836812329465 -0.47219641848909633 0 0.088393548681417577 -0.46551182449310552 0 0.079626331487580165 -0.47959966885023658 0 0.088260222096337326 -0.5 0 0.098169322054237881 -0.48612736170348558 0 0.07085911429374285 -0.49368751320736792 0 0.079626331487580165 -0.47959966885023658 0 0.088260222096337326 -0.5 0 0.088260222096337326 -0.5 0 0.098169322054237881 -0.48612736170348558 0 0.11708050320706739 -0.5 0 0.098169322054237881 -0.48612736170348558 0 0.11708050320706739 -0.5 0 0.111094716667875 -0.47884072117809479 0 0.13252652370769469 -0.4825643271804626 0 0.11708050320706739 -0.5 0 0.111094716667875 -0.47884072117809479 0 0.13252652370769469 -0.4825643271804626 0 0.111094716667875 -0.47884072117809479 0 0.12301029640063919 -0.46641938673962818 0 0.111094716667875 -0.47884072117809479 0 0.10753895214897061 -0.46328616633905167 0 0.12301029640063919 -0.46641938673962818 0 0.098169322054237881 -0.48612736170348558 0 0.111094716667875 -0.47884072117809479 0 0.094784836812329465 -0.47219641848909633 0 0.111094716667875 -0.47884072117809479 0 0.094784836812329465 -0.47219641848909633 0 0.10753895214897061 -0.46328616633905167 0 0.094784836812329465 -0.47219641848909633 0 0.098184101523979786 -0.4622991607729251 0 0.10753895214897061 -0.46328616633905167 0 0.094784836812329465 -0.47219641848909633 0 0.098184101523979786 -0.4622991607729251 0 0.088393548681417577 -0.46551182449310552 0 0.098184101523979786 -0.4622991607729251 0 0.108012597325979 -0.45234376409414262 0 0.09745799962358212 -0.45094636190301141 0 0.098184101523979786 -0.4622991607729251 0 0.09745799962358212 -0.45094636190301141 0 0.088393548681417577 -0.46551182449310552 0 0.098184101523979786 -0.4622991607729251 0 0.10753895214897061 -0.46328616633905167 0 0.108012597325979 -0.45234376409414262 0 0.1319924554473329 -0.45483414810624112 0 0.12301029640063919 -0.46641938673962818 0 0.1183406969131819 -0.44975868683030151 0 0.10753895214897061 -0.46328616633905167 0 0.12301029640063919 -0.46641938673962818 0 0.1183406969131819 -0.44975868683030151 0 0.10753895214897061 -0.46328616633905167 0 0.1183406969131819 -0.44975868683030151 0 0.108012597325979 -0.45234376409414262 0 0.1270052889454984 -0.43675517163752348 0 0.1183406969131819 -0.44975868683030151 0 0.1065224505657448 -0.43638089931291602 0 0.1183406969131819 -0.44975868683030151 0 0.108012597325979 -0.45234376409414262 0 0.1065224505657448 -0.43638089931291602 0 0.09745799962358212 -0.45094636190301141 0 0.1065224505657448 -0.43638089931291602 0 0.108012597325979 -0.45234376409414262 0 0.09745799962358212 -0.45094636190301141 0 0.1065224505657448 -0.43638089931291602 0 0.09745799962358212 -0.45094636190301141 0 0.087813828156116158 -0.43603904632019119 0 0.1065224505657448 -0.43638089931291602 0 0.074625711049388463 -0.45111215999859933 0 0.076203070553098828 -0.43023339487344159 0 0.087813828156116158 -0.43603904632019119 0 0.086784301256018853 -0.4517754758832655 0 0.074625711049388463 -0.45111215999859933 0 0.087813828156116158 -0.43603904632019119 0 0.09745799962358212 -0.45094636190301141 0 0.086784301256018853 -0.4517754758832655 0 0.087813828156116158 -0.43603904632019119 0 0.09745799962358212 -0.45094636190301141 0 0.086784301256018853 -0.4517754758832655 0 0.088393548681417577 -0.46551182449310552 0 0.09745799962358212 -0.45094636190301141 0 0.088393548681417577 -0.46551182449310552 0 0.088393548681417577 -0.46551182449310552 0 0.074625711049388463 -0.45111215999859933 0 0.088393548681417577 -0.46551182449310552 0 0.074549175998463432 -0.46592511650474 0 0.074625711049388463 -0.45111215999859933 0 0.086784301256018853 -0.4517754758832655 0 0.088393548681417577 -0.46551182449310552 0 0.074625711049388463 -0.45111215999859933 0 0.074549175998463432 -0.46592511650474 0 0.064979411539042076 -0.45597318570335582 0 0.074625711049388463 -0.45111215999859933 0 0.074549175998463432 -0.46592511650474 0 0.064979411539042076 -0.45597318570335582 0 0.062443794655832371 -0.47139439119841758 0 0.064979411539042076 -0.45597318570335582 0 0.074625711049388463 -0.45111215999859933 0 0.060857873417358252 -0.4367124955040943 0 0.074625711049388463 -0.45111215999859933 0 0.076203070553098828 -0.43023339487344159 0 0.060857873417358252 -0.4367124955040943 0 0.074625711049388463 -0.45111215999859933 0 0.060857873417358252 -0.4367124955040943 0 0.076203070553098828 -0.43023339487344159 0 0.072874496260473598 -0.4110634388286355 0 0.060857873417358252 -0.4367124955040943 0 0.072874496260473598 -0.4110634388286355 0 0.060857873417358252 -0.4367124955040943 0 0.076203070553098828 -0.43023339487344159 0 0.072874496260473598 -0.4110634388286355 0 0.084581445095711902 -0.41965836983088561 0 0.084581445095711902 -0.41965836983088561 0 0.098951422729960894 -0.41756596384204642 0 0.087064407778910016 -0.4033900052901131 0 0.072874496260473598 -0.4110634388286355 0 0.084581445095711902 -0.41965836983088561 0 0.087064407778910016 -0.4033900052901131 0 0.076203070553098828 -0.43023339487344159 0 0.084581445095711902 -0.41965836983088561 0 0.087813828156116158 -0.43603904632019119 0 0.084581445095711902 -0.41965836983088561 0 0.087813828156116158 -0.43603904632019119 0 0.098951422729960894 -0.41756596384204642 0 0.1065224505657448 -0.43638089931291602 0 0.1213229707118169 -0.41259827597731807 0 0.098951422729960894 -0.41756596384204642 0 0.087813828156116158 -0.43603904632019119 0 0.1065224505657448 -0.43638089931291602 0 0.087813828156116158 -0.43603904632019119 0 0.1065224505657448 -0.43638089931291602 0 0.098951422729960894 -0.41756596384204642 0 0.1270052889454984 -0.43675517163752348 0 0.1065224505657448 -0.43638089931291602 0 0.1065224505657448 -0.43638089931291602 0 0.1213229707118169 -0.41259827597731807 0 0.12948126747816921 -0.42381167033557832 0 0.12257580504639499 -0.43503571970517152 0 0.1213229707118169 -0.41259827597731807 0 0.1065224505657448 -0.43638089931291602 0 0.12257580504639499 -0.43503571970517152 0 0.1213229707118169 -0.41259827597731807 0 0.1270052889454984 -0.43675517163752348 0 0.1065224505657448 -0.43638089931291602 0 0.12257580504639499 -0.43503571970517152 0 0.1270052889454984 -0.43675517163752348 0 0.12257580504639499 -0.43503571970517152 0 0.098951422729960894 -0.41756596384204642 0 0.1061414352850171 -0.40074772243605028 0 0.087064407778910016 -0.4033900052901131 0 0.1213229707118169 -0.41259827597731807 0 0.098951422729960894 -0.41756596384204642 0 0.1061414352850171 -0.40074772243605028 0 0.1061414352850171 -0.40074772243605028 0 0.09853138165739686 -0.38890245050408973 0 0.087064407778910016 -0.4033900052901131 0 0.1061414352850171 -0.40074772243605028 0 0.12006043517291939 -0.39193490038897888 0 0.1106248838783208 -0.38157348269894931 0 0.1213229707118169 -0.41259827597731807 0 0.1061414352850171 -0.40074772243605028 0 0.12006043517291939 -0.39193490038897888 0 0.1260893951315552 -0.37593936819085799 0 0.12006043517291939 -0.39193490038897888 0 0.1106248838783208 -0.38157348269894931 0 0.1260893951315552 -0.37593936819085799 0 0.1106248838783208 -0.38157348269894931 0 0.1141599048471436 -0.3681418826252098 0 0.1061414352850171 -0.40074772243605028 0 0.1106248838783208 -0.38157348269894931 0 0.09853138165739686 -0.38890245050408973 0 0.1106248838783208 -0.38157348269894931 0 0.09853138165739686 -0.38890245050408973 0 0.097439385224756148 -0.35863055169412428 0 0.09853138165739686 -0.38890245050408973 0 0.084891119103591969 -0.38541438215317808 0 0.097439385224756148 -0.35863055169412428 0 0.084891119103591969 -0.38541438215317808 0 0.087064407778910016 -0.4033900052901131 0 0.072874496260473598 -0.4110634388286355 0 0.084891119103591969 -0.38541438215317808 0 0.087064407778910016 -0.4033900052901131 0 0.072874496260473598 -0.4110634388286355 0 0.084891119103591969 -0.38541438215317808 0 0.09853138165739686 -0.38890245050408973 0 0.084891119103591969 -0.38541438215317808 0 0.087064407778910016 -0.4033900052901131 0 0.072874496260473598 -0.4110634388286355 0 0.084891119103591969 -0.38541438215317808 0 0.059506659754293457 -0.38381876071976878 0 0.084891119103591969 -0.38541438215317808 0 0.059506659754293457 -0.38381876071976878 0 0.06782406295469301 -0.36949420643551739 0 0.059506659754293457 -0.38381876071976878 0 0.047166974494413927 -0.39871749446037791 0 0.039433719932905509 -0.37976003089359689 0 0.072874496260473598 -0.4110634388286355 0 0.059506659754293457 -0.38381876071976878 0 0.047166974494413927 -0.39871749446037791 0 0.047166974494413927 -0.39871749446037791 0 0.039433719932905509 -0.37976003089359689 0 0.026835346187586189 -0.40112862311558012 0 0.039433719932905509 -0.37976003089359689 0 0.026835346187586189 -0.40112862311558012 0 0.01868347874252705 -0.39564611664606902 0 0.031974192648489289 -0.36888834736165232 0 0.0199608439284076 -0.37814746090732843 0 0.01387165182671897 -0.38566839530311881 0 0.01868347874252705 -0.39564611664606902 0 0.039433719932905509 -0.37976003089359689 0 0.01868347874252705 -0.39564611664606902 0 0.031974192648489289 -0.36888834736165232 0 0.0199608439284076 -0.37814746090732843 0 0.01868347874252705 -0.39564611664606902 0 0.031974192648489289 -0.36888834736165232 0 0.0199608439284076 -0.37814746090732843 0 0.01387165182671897 -0.38566839530311881 0 0.015100801928300231 -0.37404933528064849 0 0.01387165182671897 -0.38566839530311881 0 0.0044794117490076267 -0.37804111952204511 0 0.015100801928300231 -0.37404933528064849 0 0.01387165182671897 -0.38566839530311881 0 0.0037804335083421962 -0.38963603693425308 0 0.011479569322848941 -0.39407044752229348 0 0.01387165182671897 -0.38566839530311881 0 0.0037804335083421962 -0.38963603693425308 0 0.0044794117490076267 -0.37804111952204511 0 -0.0062166918575127291 -0.40030365906373799 0 0.0071354263379814938 -0.40056754572534953 0 0.0039723761283745511 -0.40959269182397551 0 0.0037804335083421962 -0.38963603693425308 0 0.0071354263379814938 -0.40056754572534953 0 0.011479569322848941 -0.39407044752229348 0 -0.0062166918575127291 -0.40030365906373799 0 0.0037804335083421962 -0.38963603693425308 0 0.0071354263379814938 -0.40056754572534953 0 0.0071354263379814938 -0.40056754572534953 0 0.011479569322848941 -0.39407044752229348 0 0.013926856198674981 -0.39883414300267689 0 0.01387165182671897 -0.38566839530311881 0 0.011479569322848941 -0.39407044752229348 0 0.01868347874252705 -0.39564611664606902 0 0.011479569322848941 -0.39407044752229348 0 0.013926856198674981 -0.39883414300267689 0 0.01868347874252705 -0.39564611664606902 0 0.013926856198674981 -0.39883414300267689 0 0.012251299651455589 -0.40402121372519773 0 0.01847729774566808 -0.4005311455213712 0 0.0071354263379814938 -0.40056754572534953 0 0.012251299651455589 -0.40402121372519773 0 0.01000116481580045 -0.40970568620821668 0 0.0071354263379814938 -0.40056754572534953 0 0.013926856198674981 -0.39883414300267689 0 0.012251299651455589 -0.40402121372519773 0 0.039433719932905509 -0.37976003089359689 0 0.023281668523015209 -0.39741186181586757 0 0.026835346187586189 -0.40112862311558012 0 0.039433719932905509 -0.37976003089359689 0 0.01868347874252705 -0.39564611664606902 0 0.023281668523015209 -0.39741186181586757 0 0.01659700719200817 -0.40572537402307418 0 0.01847729774566808 -0.4005311455213712 0 0.026835346187586189 -0.40112862311558012 0 0.01847729774566808 -0.4005311455213712 0 0.023281668523015209 -0.39741186181586757 0 0.026835346187586189 -0.40112862311558012 0 0.01659700719200817 -0.40572537402307418 0 0.026835346187586189 -0.40112862311558012 0 0.01501951664299879 -0.41177361501569071 0 0.012251299651455589 -0.40402121372519773 0 0.01659700719200817 -0.40572537402307418 0 0.01847729774566808 -0.4005311455213712 0 0.013926856198674981 -0.39883414300267689 0 0.01847729774566808 -0.4005311455213712 0 0.01868347874252705 -0.39564611664606902 0 0.01847729774566808 -0.4005311455213712 0 0.01868347874252705 -0.39564611664606902 0 0.023281668523015209 -0.39741186181586757 0 0.023281668523015209 -0.39741186181586757 0 0.026835346187586189 -0.40112862311558012 0 0.026835346187586189 -0.40112862311558012 0 0.01488559998590408 -0.42139705290674528 0 0.026835346187586189 -0.40112862311558012 0 0.01488559998590408 -0.42139705290674528 0 0.043846609802472777 -0.41892055930983652 0 0.026835346187586189 -0.40112862311558012 0 0.01501951664299879 -0.41177361501569071 0 0.01488559998590408 -0.42139705290674528 0 0.012251299651455589 -0.40402121372519773 0 0.01659700719200817 -0.40572537402307418 0 0.01000116481580045 -0.40970568620821668 0 0.01659700719200817 -0.40572537402307418 0 0.01000116481580045 -0.40970568620821668 0 0.01501951664299879 -0.41177361501569071 0 0.01000116481580045 -0.40970568620821668 0 0.0092044093069021185 -0.41355933396387262 0 0.01501951664299879 -0.41177361501569071 0 0.01237669434327165 -0.41697083150912179 0 0.01488559998590408 -0.42139705290674528 0 0.006479201153117565 -0.4171029746157574 0 0.01488559998590408 -0.42139705290674528 0 0.006479201153117565 -0.4171029746157574 0 0.0029090937296297561 -0.42498108175462468 0 0.0092044093069021185 -0.41355933396387262 0 0.01501951664299879 -0.41177361501569071 0 0.01237669434327165 -0.41697083150912179 0 0.01501951664299879 -0.41177361501569071 0 0.01237669434327165 -0.41697083150912179 0 0.01488559998590408 -0.42139705290674528 0 0.01237669434327165 -0.41697083150912179 0 0.01488559998590408 -0.42139705290674528 0 0.0092044093069021185 -0.41355933396387262 0 0.01237669434327165 -0.41697083150912179 0 0.006479201153117565 -0.4171029746157574 0 -0.001240350368216776 -0.41636033696578151 0 0.006479201153117565 -0.4171029746157574 0 0.0029090937296297561 -0.42498108175462468 0 -0.001240350368216776 -0.41636033696578151 0 0.006479201153117565 -0.4171029746157574 0 0.0039723761283745511 -0.40959269182397551 0 0.0071354263379814938 -0.40056754572534953 0 0.01000116481580045 -0.40970568620821668 0 0.0039723761283745511 -0.40959269182397551 0 0.01000116481580045 -0.40970568620821668 0 0.0092044093069021185 -0.41355933396387262 0 0.0039723761283745511 -0.40959269182397551 0 0.0092044093069021185 -0.41355933396387262 0 0.006479201153117565 -0.4171029746157574 0 0.0039723761283745511 -0.40959269182397551 0 -0.003588703389994073 -0.42857839893847371 0 0.0029090937296297561 -0.42498108175462468 0 0.00096222214801448651 -0.44501303615862597 0 0.01488559998590408 -0.42139705290674528 0 0.00096222214801448651 -0.44501303615862597 0 0.01488559998590408 -0.42139705290674528 0 0.0029090937296297561 -0.42498108175462468 0 0.00096222214801448651 -0.44501303615862597 0 0.01488559998590408 -0.42139705290674528 0 0.01478314531005985 -0.43990031533158092 0 0.00096222214801448651 -0.44501303615862597 0 0.01488559998590408 -0.42139705290674528 0 0.02943436585844381 -0.44706404401225419 0 0.01488559998590408 -0.42139705290674528 0 0.043846609802472777 -0.41892055930983652 0 0.02943436585844381 -0.44706404401225419 0 0.01488559998590408 -0.42139705290674528 0 0.02943436585844381 -0.44706404401225419 0 0.01478314531005985 -0.43990031533158092 0 0.043846609802472777 -0.41892055930983652 0 0.04663983791311159 -0.43935471603427823 0 0.02943436585844381 -0.44706404401225419 0 0.047166974494413927 -0.39871749446037791 0 0.026835346187586189 -0.40112862311558012 0 0.043846609802472777 -0.41892055930983652 0 0.026835346187586189 -0.40112862311558012 0 0.043846609802472777 -0.41892055930983652 0 0.072874496260473598 -0.4110634388286355 0 0.047166974494413927 -0.39871749446037791 0 0.043846609802472777 -0.41892055930983652 0 0.072874496260473598 -0.4110634388286355 0 0.043846609802472777 -0.41892055930983652 0 0.060857873417358252 -0.4367124955040943 0 0.043846609802472777 -0.41892055930983652 0 0.060857873417358252 -0.4367124955040943 0 0.043846609802472777 -0.41892055930983652 0 0.060857873417358252 -0.4367124955040943 0 0.04663983791311159 -0.43935471603427823 0 0.060857873417358252 -0.4367124955040943 0 0.052420502574170719 -0.45472176531092851 0 0.04663983791311159 -0.43935471603427823 0 0.064979411539042076 -0.45597318570335582 0 0.060857873417358252 -0.4367124955040943 0 0.052420502574170719 -0.45472176531092851 0 0.060857873417358252 -0.4367124955040943 0 0.052420502574170719 -0.45472176531092851 0 0.052420502574170719 -0.45472176531092851 0 0.04398313173098372 -0.4727310351177631 0 0.062443794655832371 -0.47139439119841758 0 0.064979411539042076 -0.45597318570335582 0 0.052420502574170719 -0.45472176531092851 0 0.062443794655832371 -0.47139439119841758 0 0.052420502574170719 -0.45472176531092851 0 0.04398313173098372 -0.4727310351177631 0 0.052420502574170719 -0.45472176531092851 0 0.02943436585844381 -0.44706404401225419 0 0.04398313173098372 -0.4727310351177631 0 0.02943436585844381 -0.44706404401225419 0 0.04398313173098372 -0.4727310351177631 0 0.02943436585844381 -0.44706404401225419 0 0.029585583271517019 -0.47135620468190959 0 0.04398313173098372 -0.4727310351177631 0 0.052420502574170719 -0.45472176531092851 0 0.04663983791311159 -0.43935471603427823 0 0.02943436585844381 -0.44706404401225419 0 0.02943436585844381 -0.44706404401225419 0 0.014702058574505751 -0.45024890697941738 0 0.020813286287566679 -0.45797447382212852 0 0.02943436585844381 -0.44706404401225419 0 0.01478314531005985 -0.43990031533158092 0 0.014702058574505751 -0.45024890697941738 0 0.01478314531005985 -0.43990031533158092 0 0.014702058574505751 -0.45024890697941738 0 0.00096222214801448651 -0.44501303615862597 0 0.014702058574505751 -0.45024890697941738 0 0.00096222214801448651 -0.44501303615862597 0 0.0075172732684439404 -0.46129266557249721 0 0.014702058574505751 -0.45024890697941738 0 0.0075172732684439404 -0.46129266557249721 0 0.020813286287566679 -0.45797447382212852 0 0.0075172732684439404 -0.46129266557249721 0 0.020813286287566679 -0.45797447382212852 0 0.017296221682923728 -0.47018573354811272 0 0.020813286287566679 -0.45797447382212852 0 0.029585583271517019 -0.47135620468190959 0 0.017296221682923728 -0.47018573354811272 0 0.02943436585844381 -0.44706404401225419 0 0.020813286287566679 -0.45797447382212852 0 0.029585583271517019 -0.47135620468190959 0 0.020813286287566679 -0.45797447382212852 0 0.029585583271517019 -0.47135620468190959 0 0.029585583271517019 -0.47135620468190959 0 0.021249872214924571 -0.4844809901537398 0 0.038357880255468241 -0.48473793554168998 0 0.029585583271517019 -0.47135620468190959 0 0.017296221682923728 -0.47018573354811272 0 0.021249872214924571 -0.4844809901537398 0 -0.01296115568987463 -0.46862901941050711 0 0.0075172732684439404 -0.46129266557249721 0 0.0061881552061334782 -0.47724208978353999 0 0.0075172732684439404 -0.46129266557249721 0 0.017296221682923728 -0.47018573354811272 0 0.0061881552061334782 -0.47724208978353999 0 0.017296221682923728 -0.47018573354811272 0 0.0061881552061334782 -0.47724208978353999 0 0.021249872214924571 -0.4844809901537398 0 0.0061881552061334782 -0.47724208978353999 0 0.0035359825922742778 -0.5 0 0.021249872214924571 -0.4844809901537398 0 0.0035359825922742778 -0.5 0 0.021249872214924571 -0.4844809901537398 0 0.031207579380019061 -0.49999999999992351 0 0.021249872214924571 -0.4844809901537398 0 0.031207579380019061 -0.49999999999992351 0 0.038357880255468241 -0.48473793554168998 0 0.031207579380019061 -0.49999999999992351 0 0.038357880255468241 -0.48473793554168998 0 0.031207579380019061 -0.49999999999992351 0 0.038357880255468241 -0.48473793554168998 0 0.048362816344780228 -0.50000000000000067 0 0.038357880255468241 -0.48473793554168998 0 0.048362816344780228 -0.50000000000000067 0 0.038357880255468241 -0.48473793554168998 0 0.048362816344780228 -0.50000000000000067 0 0.051711536358295743 -0.4863655175588793 0 0.029585583271517019 -0.47135620468190959 0 0.038357880255468241 -0.48473793554168998 0 0.029585583271517019 -0.47135620468190959 0 0.038357880255468241 -0.48473793554168998 0 0.04398313173098372 -0.4727310351177631 0 0.038357880255468241 -0.48473793554168998 0 0.04398313173098372 -0.4727310351177631 0 0.038357880255468241 -0.48473793554168998 0 0.04398313173098372 -0.4727310351177631 0 0.051711536358295743 -0.4863655175588793 0 0.04398313173098372 -0.4727310351177631 0 0.051711536358295743 -0.4863655175588793 0 0.04398313173098372 -0.4727310351177631 0 0.062443794655832371 -0.47139439119841758 0 0.051711536358295743 -0.4863655175588793 0 0.064060113245630546 -0.48418013049356778 0 0.062443794655832371 -0.47139439119841758 0 0.051711536358295743 -0.4863655175588793 0 0.064060113245630546 -0.48418013049356778 0 0.059439940985607252 -0.49999999999999589 0 0.051711536358295743 -0.4863655175588793 0 0.059439940985607252 -0.49999999999999589 0 0.051711536358295743 -0.4863655175588793 0 0.059439940985607252 -0.49999999999999589 0 0.048362816344780228 -0.50000000000000067 0 0.051711536358295743 -0.4863655175588793 0 0.083458616847570041 -0.29052142280857762 0 0.088153329091286176 -0.30138230501352442 0 0.094017819966508903 -0.28528550330257552 0 0.083458616847570041 -0.29052142280857762 0 0.072990303293129388 -0.28631192345104151 0 0.085244564389584498 -0.28052219255245919 0 0.083458616847570041 -0.29052142280857762 0 0.085244564389584498 -0.28052219255245919 0 0.094017819966508903 -0.28528550330257552 0 0.088153329091286176 -0.30138230501352442 0 0.078217872519126347 -0.31151569644733468 0 0.096005281744226623 -0.31663044985599548 0 0.083458616847570041 -0.29052142280857762 0 0.088153329091286176 -0.30138230501352442 0 0.076887067497341172 -0.29910518972328759 0 0.088153329091286176 -0.30138230501352442 0 0.078217872519126347 -0.31151569644733468 0 0.076887067497341172 -0.29910518972328759 0 0.078217872519126347 -0.31151569644733468 0 0.063817375317457431 -0.30477948600428351 0 0.066701558809471623 -0.32090873953307902 0 0.078217872519126347 -0.31151569644733468 0 0.076887067497341172 -0.29910518972328759 0 0.063817375317457431 -0.30477948600428351 0 0.076887067497341172 -0.29910518972328759 0 0.063817375317457431 -0.30477948600428351 0 0.072990303293129388 -0.28631192345104151 0 0.063817375317457431 -0.30477948600428351 0 0.072990303293129388 -0.28631192345104151 0 0.063817375317457431 -0.30477948600428351 0 0.072990303293129388 -0.28631192345104151 0 0.053814987747715877 -0.29060220818216709 0 0.072990303293129388 -0.28631192345104151 0 0.066130105263409497 -0.27823878320428241 0 0.053814987747715877 -0.29060220818216709 0 0.083458616847570041 -0.29052142280857762 0 0.076887067497341172 -0.29910518972328759 0 0.072990303293129388 -0.28631192345104151 0 0.066130105263409497 -0.27823878320428241 0 0.063817817577672978 -0.26399450254385359 0 0.082163231268801346 -0.26784436089779939 0 0.072990303293129388 -0.28631192345104151 0 0.066130105263409497 -0.27823878320428241 0 0.082163231268801346 -0.26784436089779939 0 0.072990303293129388 -0.28631192345104151 0 0.082163231268801346 -0.26784436089779939 0 0.063817817577672978 -0.26399450254385359 0 0.082163231268801346 -0.26784436089779939 0 0.07220013032856569 -0.24787832666269219 0 0.063817817577672978 -0.26399450254385359 0 0.055183696251658518 -0.25303663434309842 0 0.07220013032856569 -0.24787832666269219 0 0.082163231268801346 -0.26784436089779939 0 0.094718046961353636 -0.25671020857427151 0 0.07220013032856569 -0.24787832666269219 0 0.094718046961353636 -0.25671020857427151 0 0.07220013032856569 -0.24787832666269219 0 0.082163231268801346 -0.26784436089779939 0 0.093928326180574798 -0.27223699343790297 0 0.094718046961353636 -0.25671020857427151 0 0.072990303293129388 -0.28631192345104151 0 0.085244564389584498 -0.28052219255245919 0 0.082163231268801346 -0.26784436089779939 0 0.085244564389584498 -0.28052219255245919 0 0.093928326180574798 -0.27223699343790297 0 0.094017819966508903 -0.28528550330257552 0 0.085244564389584498 -0.28052219255245919 0 0.082163231268801346 -0.26784436089779939 0 0.093928326180574798 -0.27223699343790297 0 0.093928326180574798 -0.27223699343790297 0 0.11123065596315609 -0.27405963995519111 0 0.094017819966508903 -0.28528550330257552 0 0.093928326180574798 -0.27223699343790297 0 0.094718046961353636 -0.25671020857427151 0 0.11123065596315609 -0.27405963995519111 0 0.094718046961353636 -0.25671020857427151 0 0.1168930510602708 -0.2540822323424185 0 0.11123065596315609 -0.27405963995519111 0 0.135084183588249 -0.27827906031696398 0 0.1168930510602708 -0.2540822323424185 0 0.11123065596315609 -0.27405963995519111 0 0.11123065596315609 -0.27405963995519111 0 0.1031068341729993 -0.29742921947980439 0 0.1225359174670846 -0.30506289077601773 0 0.135084183588249 -0.27827906031696398 0 0.11123065596315609 -0.27405963995519111 0 0.1225359174670846 -0.30506289077601773 0 0.11123065596315609 -0.27405963995519111 0 0.094017819966508903 -0.28528550330257552 0 0.1031068341729993 -0.29742921947980439 0 0.088153329091286176 -0.30138230501352442 0 0.094017819966508903 -0.28528550330257552 0 0.1031068341729993 -0.29742921947980439 0 0.1031068341729993 -0.29742921947980439 0 0.1225359174670846 -0.30506289077601773 0 0.096005281744226623 -0.31663044985599548 0 0.088153329091286176 -0.30138230501352442 0 0.1031068341729993 -0.29742921947980439 0 0.096005281744226623 -0.31663044985599548 0 0.1225359174670846 -0.30506289077601773 0 0.1099876513459204 -0.33184672123507097 0 0.096005281744226623 -0.31663044985599548 0 0.1225359174670846 -0.30506289077601773 0 0.1099876513459204 -0.33184672123507097 0 0.12903476628711669 -0.3237943888649345 0 0.1225359174670846 -0.30506289077601773 0 0.1099876513459204 -0.33184672123507097 0 0.13381071161080019 -0.33979812838792622 0 0.1099876513459204 -0.33184672123507097 0 0.12248595515394239 -0.35642412791690747 0 0.13381071161080019 -0.33979812838792622 0 0.12903476628711669 -0.3237943888649345 0 0.1099876513459204 -0.33184672123507097 0 0.1099876513459204 -0.33184672123507097 0 0.097439385224756148 -0.35863055169412428 0 0.092363845615028917 -0.33992129721124231 0 0.1099876513459204 -0.33184672123507097 0 0.096005281744226623 -0.31663044985599548 0 0.092363845615028917 -0.33992129721124231 0 0.1260893951315552 -0.37593936819085799 0 0.1141599048471436 -0.3681418826252098 0 0.12248595515394239 -0.35642412791690747 0 0.1141599048471436 -0.3681418826252098 0 0.12248595515394239 -0.35642412791690747 0 0.097439385224756148 -0.35863055169412428 0 0.1099876513459204 -0.33184672123507097 0 0.12248595515394239 -0.35642412791690747 0 0.097439385224756148 -0.35863055169412428 0 0.1099876513459204 -0.33184672123507097 0 0.097439385224756148 -0.35863055169412428 0 0.1106248838783208 -0.38157348269894931 0 0.1141599048471436 -0.3681418826252098 0 0.097439385224756148 -0.35863055169412428 0 0.084891119103591969 -0.38541438215317808 0 0.097439385224756148 -0.35863055169412428 0 0.081316870879283631 -0.35585119535350818 0 0.084891119103591969 -0.38541438215317808 0 0.097439385224756148 -0.35863055169412428 0 0.084891119103591969 -0.38541438215317808 0 0.081316870879283631 -0.35585119535350818 0 0.097439385224756148 -0.35863055169412428 0 0.081316870879283631 -0.35585119535350818 0 0.092363845615028917 -0.33992129721124231 0 0.081316870879283631 -0.35585119535350818 0 0.064315356702640963 -0.350877254681356 0 0.06782406295469301 -0.36949420643551739 0 0.081316870879283631 -0.35585119535350818 0 0.064315356702640963 -0.350877254681356 0 0.068506724809757377 -0.33765957961285481 0 0.084891119103591969 -0.38541438215317808 0 0.081316870879283631 -0.35585119535350818 0 0.06782406295469301 -0.36949420643551739 0 0.078217872519126347 -0.31151569644733468 0 0.096005281744226623 -0.31663044985599548 0 0.077742622654975099 -0.32628800855383833 0 0.096005281744226623 -0.31663044985599548 0 0.092363845615028917 -0.33992129721124231 0 0.077742622654975099 -0.32628800855383833 0 0.081316870879283631 -0.35585119535350818 0 0.077742622654975099 -0.32628800855383833 0 0.081316870879283631 -0.35585119535350818 0 0.092363845615028917 -0.33992129721124231 0 0.077742622654975099 -0.32628800855383833 0 0.068506724809757377 -0.33765957961285481 0 0.066701558809471623 -0.32090873953307902 0 0.059642961455983037 -0.33095950216282582 0 0.081316870879283631 -0.35585119535350818 0 0.068506724809757377 -0.33765957961285481 0 0.077742622654975099 -0.32628800855383833 0 0.068506724809757377 -0.33765957961285481 0 0.066701558809471623 -0.32090873953307902 0 0.077742622654975099 -0.32628800855383833 0 0.064315356702640963 -0.350877254681356 0 0.068506724809757377 -0.33765957961285481 0 0.059432487380708249 -0.34040672863356802 0 0.068506724809757377 -0.33765957961285481 0 0.059642961455983037 -0.33095950216282582 0 0.059432487380708249 -0.34040672863356802 0 0.078217872519126347 -0.31151569644733468 0 0.066701558809471623 -0.32090873953307902 0 0.077742622654975099 -0.32628800855383833 0 0.063817375317457431 -0.30477948600428351 0 0.054644447341780589 -0.32324704855752312 0 0.054644447341780589 -0.32324704855752312 0 0.041499870232018253 -0.30296563316004782 0 0.063817375317457431 -0.30477948600428351 0 0.066701558809471623 -0.32090873953307902 0 0.054644447341780589 -0.32324704855752312 0 0.066701558809471623 -0.32090873953307902 0 0.054644447341780589 -0.32324704855752312 0 0.059642961455983037 -0.33095950216282582 0 0.054644447341780589 -0.32324704855752312 0 0.059642961455983037 -0.33095950216282582 0 0.054644447341780589 -0.32324704855752312 0 0.045264906554451603 -0.34213057807723551 0 0.054644447341780589 -0.32324704855752312 0 0.059642961455983037 -0.33095950216282582 0 0.045264906554451603 -0.34213057807723551 0 0.059642961455983037 -0.33095950216282582 0 0.059432487380708249 -0.34040672863356802 0 0.045264906554451603 -0.34213057807723551 0 0.054644447341780589 -0.32324704855752312 0 0.045264906554451603 -0.34213057807723551 0 0.040140744864733187 -0.32390902558463541 0 0.045264906554451603 -0.34213057807723551 0 0.040140744864733187 -0.32390902558463541 0 0.03058850917831683 -0.3353921702934794 0 0.045264906554451603 -0.34213057807723551 0 0.030521836224380629 -0.34950676597161212 0 0.03058850917831683 -0.3353921702934794 0 0.045264906554451603 -0.34213057807723551 0 0.03058850917831683 -0.3353921702934794 0 0.040140744864733187 -0.32390902558463541 0 0.02870599101710199 -0.31580969783488883 0 0.041499870232018253 -0.30296563316004782 0 0.040140744864733187 -0.32390902558463541 0 0.02870599101710199 -0.31580969783488883 0 0.03058850917831683 -0.3353921702934794 0 0.054644447341780589 -0.32324704855752312 0 0.040140744864733187 -0.32390902558463541 0 0.041499870232018253 -0.30296563316004782 0 0.064315356702640963 -0.350877254681356 0 0.06782406295469301 -0.36949420643551739 0 0.052032093678226449 -0.3583914386716146 0 0.059506659754293457 -0.38381876071976878 0 0.039433719932905509 -0.37976003089359689 0 0.052032093678226449 -0.3583914386716146 0 0.059506659754293457 -0.38381876071976878 0 0.06782406295469301 -0.36949420643551739 0 0.052032093678226449 -0.3583914386716146 0 0.064315356702640963 -0.350877254681356 0 0.045264906554451603 -0.34213057807723551 0 0.052032093678226449 -0.3583914386716146 0 0.064315356702640963 -0.350877254681356 0 0.045264906554451603 -0.34213057807723551 0 0.064315356702640963 -0.350877254681356 0 0.059432487380708249 -0.34040672863356802 0 0.045264906554451603 -0.34213057807723551 0 0.045264906554451603 -0.34213057807723551 0 0.052032093678226449 -0.3583914386716146 0 0.031974192648489289 -0.36888834736165232 0 0.045264906554451603 -0.34213057807723551 0 0.031974192648489289 -0.36888834736165232 0 0.030521836224380629 -0.34950676597161212 0 0.045264906554451603 -0.34213057807723551 0 0.031974192648489289 -0.36888834736165232 0 0.039433719932905509 -0.37976003089359689 0 0.052032093678226449 -0.3583914386716146 0 0.031974192648489289 -0.36888834736165232 0 0.039433719932905509 -0.37976003089359689 0 0.052032093678226449 -0.3583914386716146 0 0.0199608439284076 -0.37814746090732843 0 0.020174094496002468 -0.36648510994515349 0 0.015100801928300231 -0.37404933528064849 0 0.0199608439284076 -0.37814746090732843 0 0.031974192648489289 -0.36888834736165232 0 0.020174094496002468 -0.36648510994515349 0 0.031974192648489289 -0.36888834736165232 0 0.020174094496002468 -0.36648510994515349 0 0.023539323401478431 -0.35664888297460789 0 0.020174094496002468 -0.36648510994515349 0 0.023539323401478431 -0.35664888297460789 0 0.015097239775369821 -0.35550889693599341 0 0.031974192648489289 -0.36888834736165232 0 0.023539323401478431 -0.35664888297460789 0 0.030521836224380629 -0.34950676597161212 0 0.023539323401478431 -0.35664888297460789 0 0.015097239775369821 -0.35550889693599341 0 0.019929253863149959 -0.34285529465862807 0 0.023539323401478431 -0.35664888297460789 0 0.030521836224380629 -0.34950676597161212 0 0.019929253863149959 -0.34285529465862807 0 0.0093498372613402478 -0.34625115421367919 0 0.015097239775369821 -0.35550889693599341 0 0.019929253863149959 -0.34285529465862807 0 -0.0015223315641915371 -0.34974098354736799 0 0.0093498372613402478 -0.34625115421367919 0 0.001547595890080177 -0.34062457432859128 0 -0.0015223315641915371 -0.34974098354736799 0 0.0093498372613402478 -0.34625115421367919 0 0.005754466380193504 -0.3554018564948157 0 -0.0015223315641915371 -0.34974098354736799 0 -0.0028135983845018649 -0.3602934208782837 0 0.005754466380193504 -0.3554018564948157 0 0.0093498372613402478 -0.34625115421367919 0 0.005754466380193504 -0.3554018564948157 0 0.015097239775369821 -0.35550889693599341 0 0.005754466380193504 -0.3554018564948157 0 0.015097239775369821 -0.35550889693599341 0 0.00866118481295086 -0.36521482689875417 0 0.020174094496002468 -0.36648510994515349 0 0.015097239775369821 -0.35550889693599341 0 0.00866118481295086 -0.36521482689875417 0 -0.0028135983845018649 -0.3602934208782837 0 -0.0033357649270666289 -0.36992112802659999 0 0.00866118481295086 -0.36521482689875417 0 -0.0028135983845018649 -0.3602934208782837 0 0.005754466380193504 -0.3554018564948157 0 0.00866118481295086 -0.36521482689875417 0 -0.0033357649270666289 -0.36992112802659999 0 0.0044794117490076267 -0.37804111952204511 0 0.00866118481295086 -0.36521482689875417 0 0.0044794117490076267 -0.37804111952204511 0 0.00866118481295086 -0.36521482689875417 0 0.015100801928300231 -0.37404933528064849 0 0.020174094496002468 -0.36648510994515349 0 0.00866118481295086 -0.36521482689875417 0 0.015100801928300231 -0.37404933528064849 0 0.02870599101710199 -0.31580969783488883 0 0.015912111802181189 -0.32865376250972522 0 0.013541534959394591 -0.3120867980861658 0 0.02870599101710199 -0.31580969783488883 0 0.03058850917831683 -0.3353921702934794 0 0.015912111802181189 -0.32865376250972522 0 0.02870599101710199 -0.31580969783488883 0 0.015912111802181189 -0.32865376250972522 0 0.030521836224380629 -0.34950676597161212 0 0.03058850917831683 -0.3353921702934794 0 0.019929253863149959 -0.34285529465862807 0 0.03058850917831683 -0.3353921702934794 0 0.019929253863149959 -0.34285529465862807 0 0.015912111802181189 -0.32865376250972522 0 0.03058850917831683 -0.3353921702934794 0 0.015912111802181189 -0.32865376250972522 0 0.019929253863149959 -0.34285529465862807 0 0.015912111802181189 -0.32865376250972522 0 0.009450680032491901 -0.33514053998728371 0 -0.0067154017777816969 -0.33441449113079758 0 0.009450680032491901 -0.33514053998728371 0 0.001547595890080177 -0.34062457432859128 0 0.015912111802181189 -0.32865376250972522 0 0.009450680032491901 -0.33514053998728371 0 0.0093498372613402478 -0.34625115421367919 0 0.019929253863149959 -0.34285529465862807 0 0.009450680032491901 -0.33514053998728371 0 0.0093498372613402478 -0.34625115421367919 0 0.009450680032491901 -0.33514053998728371 0 0.001547595890080177 -0.34062457432859128 0 -0.0067861278665100116 -0.31823226798751969 0 0.015912111802181189 -0.32865376250972522 0 0.009450680032491901 -0.33514053998728371 0 -0.0067861278665100116 -0.31823226798751969 0 0.015912111802181189 -0.32865376250972522 0 0.013541534959394591 -0.3120867980861658 0 -0.0067861278665100116 -0.31823226798751969 0 0.015912111802181189 -0.32865376250972522 0 -0.0067861278665100116 -0.31823226798751969 0 0.013541534959394591 -0.3120867980861658 0 0.0064242334297343467 -0.29596416480486287 0 0.013541534959394591 -0.3120867980861658 0 0.0064242334297343467 -0.29596416480486287 0 0.023451466414464928 -0.30177409729383198 0 0.0064242334297343467 -0.29596416480486287 0 0.026916034486233451 -0.28046351472908271 0 0.0083501829783922451 -0.27651919851405921 0 -0.0096051494108007045 -0.28267180051718732 0 0.0064242334297343467 -0.29596416480486287 0 0.0083501829783922451 -0.27651919851405921 0 0.023451466414464928 -0.30177409729383198 0 0.041499870232018253 -0.30296563316004782 0 0.026916034486233451 -0.28046351472908271 0 0.0064242334297343467 -0.29596416480486287 0 0.023451466414464928 -0.30177409729383198 0 0.026916034486233451 -0.28046351472908271 0 0.02870599101710199 -0.31580969783488883 0 0.023451466414464928 -0.30177409729383198 0 0.041499870232018253 -0.30296563316004782 0 0.02870599101710199 -0.31580969783488883 0 0.013541534959394591 -0.3120867980861658 0 0.023451466414464928 -0.30177409729383198 0 0.02870599101710199 -0.31580969783488883 0 0.041499870232018253 -0.30296563316004782 0 0.041499870232018253 -0.30296563316004782 0 0.026916034486233451 -0.28046351472908271 0 0.053814987747715877 -0.29060220818216709 0 0.051633558407507552 -0.27594676249859312 0 0.026916034486233451 -0.28046351472908271 0 0.041499870232018253 -0.30296563316004782 0 0.053814987747715877 -0.29060220818216709 0 0.026916034486233451 -0.28046351472908271 0 0.041499870232018253 -0.30296563316004782 0 0.053814987747715877 -0.29060220818216709 0 0.066130105263409497 -0.27823878320428241 0 0.053814987747715877 -0.29060220818216709 0 0.051633558407507552 -0.27594676249859312 0 0.066130105263409497 -0.27823878320428241 0 0.053814987747715877 -0.29060220818216709 0 0.063817375317457431 -0.30477948600428351 0 0.054644447341780589 -0.32324704855752312 0 0.041499870232018253 -0.30296563316004782 0 0.063817375317457431 -0.30477948600428351 0 0.041499870232018253 -0.30296563316004782 0 0.053814987747715877 -0.29060220818216709 0 0.063817817577672978 -0.26399450254385359 0 0.055183696251658518 -0.25303663434309842 0 0.045640254096049049 -0.26379025991284488 0 0.063817817577672978 -0.26399450254385359 0 0.051633558407507552 -0.27594676249859312 0 0.045640254096049049 -0.26379025991284488 0 0.066130105263409497 -0.27823878320428241 0 0.063817817577672978 -0.26399450254385359 0 0.051633558407507552 -0.27594676249859312 0 0.032539781499751723 -0.25404075076945298 0 0.045640254096049049 -0.26379025991284488 0 0.026916034486233451 -0.28046351472908271 0 0.051633558407507552 -0.27594676249859312 0 0.045640254096049049 -0.26379025991284488 0 0.026916034486233451 -0.28046351472908271 0 0.055183696251658518 -0.25303663434309842 0 0.032539781499751723 -0.25404075076945298 0 0.045640254096049049 -0.26379025991284488 0 0.032539781499751723 -0.25404075076945298 0 0.026916034486233451 -0.28046351472908271 0 0.01233219874044964 -0.25796139629811699 0 0.032539781499751723 -0.25404075076945298 0 0.01233219874044964 -0.25796139629811699 0 0.016600620780175521 -0.2438261021663011 0 0.026916034486233451 -0.28046351472908271 0 0.01233219874044964 -0.25796139629811699 0 0.026916034486233451 -0.28046351472908271 0 0.0083501829783922451 -0.27651919851405921 0 0.01233219874044964 -0.25796139629811699 0 -0.011198362974849069 -0.26002926692598732 0 0.0083501829783922451 -0.27651919851405921 0 0.01233219874044964 -0.25796139629811699 0 -0.0022516370053341471 -0.23545927786715129 0 0.01233219874044964 -0.25796139629811699 0 0.016600620780175521 -0.2438261021663011 0 -0.0022516370053341471 -0.23545927786715129 0 0.01233219874044964 -0.25796139629811699 0 -0.0022516370053341471 -0.23545927786715129 0 0.013589907484996789 -0.23397368759022269 0 0.016600620780175521 -0.2438261021663011 0 0.00516441215593446 -0.22158586113786161 0 0.013589907484996789 -0.23397368759022269 0 0.027164297062989971 -0.23021456283953329 0 -0.0022516370053341471 -0.23545927786715129 0 0.00516441215593446 -0.22158586113786161 0 0.013589907484996789 -0.23397368759022269 0 0.013589907484996789 -0.23397368759022269 0 0.024069389822136269 -0.23437178289753319 0 0.027164297062989971 -0.23021456283953329 0 0.00516441215593446 -0.22158586113786161 0 0.027164297062989971 -0.23021456283953329 0 0.00516441215593446 -0.22158586113786161 0 0.027164297062989971 -0.23021456283953329 0 0.024747751308568371 -0.2138284276952333 0 0.024069389822136269 -0.23437178289753319 0 0.027164297062989971 -0.23021456283953329 0 0.032539781499751723 -0.25404075076945298 0 0.027391867337964931 -0.2409802321634914 0 0.016600620780175521 -0.2438261021663011 0 0.024069389822136269 -0.23437178289753319 0 0.027164297062989971 -0.23021456283953329 0 0.027391867337964931 -0.2409802321634914 0 0.013589907484996789 -0.23397368759022269 0 0.024069389822136269 -0.23437178289753319 0 0.018849388279327289 -0.238048008125437 0 0.027391867337964931 -0.2409802321634914 0 0.016600620780175521 -0.2438261021663011 0 0.018849388279327289 -0.238048008125437 0 0.024069389822136269 -0.23437178289753319 0 0.027391867337964931 -0.2409802321634914 0 0.018849388279327289 -0.238048008125437 0 0.013589907484996789 -0.23397368759022269 0 0.016600620780175521 -0.2438261021663011 0 0.018849388279327289 -0.238048008125437 0 -0.001925340291015288 -0.20597243848106289 0 0.0059444003428096122 -0.19443651352465419 0 0.01441767558215663 -0.20473410908836079 0 0.0059444003428096122 -0.19443651352465419 0 0.01441767558215663 -0.20473410908836079 0 0.020406164064357399 -0.1841802310791234 0 -0.0055764814704000994 -0.19390034300100201 0 0.0059444003428096122 -0.19443651352465419 0 0.002399983828949417 -0.1833954459737217 0 0.00516441215593446 -0.22158586113786161 0 0.01441767558215663 -0.20473410908836079 0 0.024747751308568371 -0.2138284276952333 0 -0.001925340291015288 -0.20597243848106289 0 0.00516441215593446 -0.22158586113786161 0 0.01441767558215663 -0.20473410908836079 0 0.01441767558215663 -0.20473410908836079 0 0.024747751308568371 -0.2138284276952333 0 0.03327679810861317 -0.20462546945421969 0 0.01441767558215663 -0.20473410908836079 0 0.03327679810861317 -0.20462546945421969 0 0.020406164064357399 -0.1841802310791234 0 0.03327679810861317 -0.20462546945421969 0 0.020406164064357399 -0.1841802310791234 0 0.043715573633147757 -0.20798213595619069 0 0.066433864224619443 -0.22955255322643911 0 0.075286666364776322 -0.21135119919371381 0 0.043715573633147757 -0.20798213595619069 0 0.075286666364776322 -0.21135119919371381 0 0.060266850203306632 -0.18574970907284891 0 0.043551400628142722 -0.1905827735090099 0 0.043715573633147757 -0.20798213595619069 0 0.03327679810861317 -0.20462546945421969 0 0.043551400628142722 -0.1905827735090099 0 0.03327679810861317 -0.20462546945421969 0 0.020406164064357399 -0.1841802310791234 0 0.027164297062989971 -0.23021456283953329 0 0.024747751308568371 -0.2138284276952333 0 0.043715573633147757 -0.20798213595619069 0 0.024747751308568371 -0.2138284276952333 0 0.043715573633147757 -0.20798213595619069 0 0.03327679810861317 -0.20462546945421969 0 0.043715573633147757 -0.20798213595619069 0 0.060266850203306632 -0.18574970907284891 0 0.043551400628142722 -0.1905827735090099 0 0.043715573633147757 -0.20798213595619069 0 0.060266850203306632 -0.18574970907284891 0 0.027164297062989971 -0.23021456283953329 0 0.049682213695777758 -0.239046444751113 0 0.055183696251658518 -0.25303663434309842 0 0.032539781499751723 -0.25404075076945298 0 0.049682213695777758 -0.239046444751113 0 0.032539781499751723 -0.25404075076945298 0 0.027391867337964931 -0.2409802321634914 0 0.049682213695777758 -0.239046444751113 0 0.027164297062989971 -0.23021456283953329 0 0.027391867337964931 -0.2409802321634914 0 0.049682213695777758 -0.239046444751113 0 0.027164297062989971 -0.23021456283953329 0 0.045524759639698327 -0.22602142180822399 0 0.049682213695777758 -0.239046444751113 0 0.027164297062989971 -0.23021456283953329 0 0.043715573633147757 -0.20798213595619069 0 0.045524759639698327 -0.22602142180822399 0 0.027164297062989971 -0.23021456283953329 0 0.043715573633147757 -0.20798213595619069 0 0.045524759639698327 -0.22602142180822399 0 0.049682213695777758 -0.239046444751113 0 0.066433864224619443 -0.22955255322643911 0 0.043715573633147757 -0.20798213595619069 0 0.045524759639698327 -0.22602142180822399 0 0.066433864224619443 -0.22955255322643911 0 0.055183696251658518 -0.25303663434309842 0 0.049682213695777758 -0.239046444751113 0 0.07220013032856569 -0.24787832666269219 0 0.049682213695777758 -0.239046444751113 0 0.07220013032856569 -0.24787832666269219 0 0.049682213695777758 -0.239046444751113 0 0.07220013032856569 -0.24787832666269219 0 0.066433864224619443 -0.22955255322643911 0 0.07220013032856569 -0.24787832666269219 0 0.084314214978317537 -0.2428693979819283 0 0.066433864224619443 -0.22955255322643911 0 0.094718046961353636 -0.25671020857427151 0 0.084314214978317537 -0.2428693979819283 0 0.095074496802440372 -0.23203108202832981 0 0.094718046961353636 -0.25671020857427151 0 0.07220013032856569 -0.24787832666269219 0 0.084314214978317537 -0.2428693979819283 0 0.084314214978317537 -0.2428693979819283 0 0.066433864224619443 -0.22955255322643911 0 0.095074496802440372 -0.23203108202832981 0 0.075286666364776322 -0.21135119919371381 0 0.097686837403892057 -0.21452992075073321 0 0.095074496802440372 -0.23203108202832981 0 0.066433864224619443 -0.22955255322643911 0 0.075286666364776322 -0.21135119919371381 0 0.095074496802440372 -0.23203108202832981 0 0.075286666364776322 -0.21135119919371381 0 0.087760926508662587 -0.19238387459730519 0 0.060266850203306632 -0.18574970907284891 0 0.075286666364776322 -0.21135119919371381 0 0.087760926508662587 -0.19238387459730519 0 0.097686837403892057 -0.21452992075073321 0 0.097686837403892057 -0.21452992075073321 0 0.1126936240065689 -0.20496527461247269 0 0.1176184733370121 -0.23191817332184439 0 0.087760926508662587 -0.19238387459730519 0 0.097686837403892057 -0.21452992075073321 0 0.1126936240065689 -0.20496527461247269 0 0.087760926508662587 -0.19238387459730519 0 0.1126936240065689 -0.20496527461247269 0 0.1064639977268812 -0.17416254832924741 0 0.12445294243825961 -0.18866003707216661 0 0.1126936240065689 -0.20496527461247269 0 0.1064639977268812 -0.17416254832924741 0 0.1126936240065689 -0.20496527461247269 0 0.1176184733370121 -0.23191817332184439 0 0.13828204630013549 -0.22505607868865191 0 0.1168930510602708 -0.2540822323424185 0 0.1176184733370121 -0.23191817332184439 0 0.095074496802440372 -0.23203108202832981 0 0.094718046961353636 -0.25671020857427151 0 0.1168930510602708 -0.2540822323424185 0 0.095074496802440372 -0.23203108202832981 0 0.097686837403892057 -0.21452992075073321 0 0.1176184733370121 -0.23191817332184439 0 0.095074496802440372 -0.23203108202832981 0 0.095876383054008335 -0.13791736622622169 0 0.093369403343623425 -0.141284855306164 0 0.095876383054008335 -0.13791736622622169 0 0.1038010533135581 -0.1284997878773107 0 0.12103757227390929 -0.13449858459586281 0 0.12103757227390929 -0.13449858459586281 0 0.093369403343623425 -0.141284855306164 0 0.095876383054008335 -0.13791736622622169 0 0.12103757227390929 -0.13449858459586281 0 0.093369403343623425 -0.141284855306164 0 0.1038010533135581 -0.1284997878773107 0 0.093114899591683717 -0.12922117103356251 0 0.097816358448213458 -0.1185436401303937 0 0.095876383054008335 -0.13791736622622169 0 0.1038010533135581 -0.1284997878773107 0 0.093114899591683717 -0.12922117103356251 0 0.1038010533135581 -0.1284997878773107 0 0.12103757227390929 -0.13449858459586281 0 0.11425079482998921 -0.1220801878969625 0 0.12103757227390929 -0.13449858459586281 0 0.11425079482998921 -0.1220801878969625 0 0.13313604000000179 -0.1187498414797455 0 0.12103757227390929 -0.13449858459586281 0 0.1196510837692747 -0.1546236582820544 0 0.093369403343623425 -0.141284855306164 0 0.1196510837692747 -0.1546236582820544 0 0.1064639977268812 -0.17416254832924741 0 0.13795597834963799 -0.17348837310841561 0 0.1196510837692747 -0.1546236582820544 0 0.1064639977268812 -0.17416254832924741 0 0.093369403343623425 -0.141284855306164 0 0.12445294243825961 -0.18866003707216661 0 0.1064639977268812 -0.17416254832924741 0 0.13795597834963799 -0.17348837310841561 0 0.1064639977268812 -0.17416254832924741 0 0.076818126773465584 -0.1635172821895069 0 0.093369403343623425 -0.141284855306164 0 0.087760926508662587 -0.19238387459730519 0 0.1064639977268812 -0.17416254832924741 0 0.076818126773465584 -0.1635172821895069 0 0.087760926508662587 -0.19238387459730519 0 0.076818126773465584 -0.1635172821895069 0 0.060266850203306632 -0.18574970907284891 0 0.06575547048096006 -0.17647732794910631 0 0.076818126773465584 -0.1635172821895069 0 0.060266850203306632 -0.18574970907284891 0 0.076818126773465584 -0.1635172821895069 0 0.060266850203306632 -0.18574970907284891 0 0.06575547048096006 -0.17647732794910631 0 0.076818126773465584 -0.1635172821895069 0 0.065206332211953641 -0.15160435205423409 0 0.06575547048096006 -0.17647732794910631 0 0.065206332211953641 -0.15160435205423409 0 0.058287276630413179 -0.16525613218557589 0 0.06575547048096006 -0.17647732794910631 0 0.065206332211953641 -0.15160435205423409 0 0.065206332211953641 -0.15160435205423409 0 0.082922905642224043 -0.14384710514477159 0 0.076796165647855436 -0.1366523813903586 0 0.076818126773465584 -0.1635172821895069 0 0.065206332211953641 -0.15160435205423409 0 0.082922905642224043 -0.14384710514477159 0 0.076818126773465584 -0.1635172821895069 0 0.093369403343623425 -0.141284855306164 0 0.076818126773465584 -0.1635172821895069 0 0.082922905642224043 -0.14384710514477159 0 0.093369403343623425 -0.141284855306164 0 0.082922905642224043 -0.14384710514477159 0 0.093369403343623425 -0.141284855306164 0 0.093114899591683717 -0.12922117103356251 0 0.088637787377492394 -0.1351454054907274 0 0.082556609064659892 -0.12593366810269829 0 0.095876383054008335 -0.13791736622622169 0 0.093114899591683717 -0.12922117103356251 0 0.088637787377492394 -0.1351454054907274 0 0.082922905642224043 -0.14384710514477159 0 0.093369403343623425 -0.141284855306164 0 0.088637787377492394 -0.1351454054907274 0 0.095876383054008335 -0.13791736622622169 0 0.093369403343623425 -0.141284855306164 0 0.088637787377492394 -0.1351454054907274 0 0.082922905642224043 -0.14384710514477159 0 0.088637787377492394 -0.1351454054907274 0 0.076796165647855436 -0.1366523813903586 0 0.088637787377492394 -0.1351454054907274 0 0.082556609064659892 -0.12593366810269829 0 0.076796165647855436 -0.1366523813903586 0 0.065206332211953641 -0.15160435205423409 0 0.064657193942947222 -0.12673137615936181 0 0.082556609064659892 -0.12593366810269829 0 0.064657193942947222 -0.12673137615936181 0 0.076796165647855436 -0.1366523813903586 0 0.065206332211953641 -0.15160435205423409 0 0.064657193942947222 -0.12673137615936181 0 0.076796165647855436 -0.1366523813903586 0 0.065206332211953641 -0.15160435205423409 0 0.064657193942947222 -0.12673137615936181 0 0.0497315053264063 -0.1394096352052617 0 0.064657193942947222 -0.12673137615936181 0 0.0497315053264063 -0.1394096352052617 0 0.047015136166289932 -0.1197336564685952 0 0.065206332211953641 -0.15160435205423409 0 0.0497315053264063 -0.1394096352052617 0 0.051584975912537398 -0.15850952596866441 0 0.0497315053264063 -0.1394096352052617 0 0.035550832476936987 -0.14675511144601541 0 0.051584975912537398 -0.15850952596866441 0 0.035550832476936987 -0.14675511144601541 0 0.037070716230217002 -0.16349682116873421 0 0.023949957001980909 -0.15295255365609969 0 0.0497315053264063 -0.1394096352052617 0 0.035550832476936987 -0.14675511144601541 0 0.035501928831764507 -0.13098017151552019 0 0.0497315053264063 -0.1394096352052617 0 0.035501928831764507 -0.13098017151552019 0 0.047015136166289932 -0.1197336564685952 0 0.043551400628142722 -0.1905827735090099 0 0.060266850203306632 -0.18574970907284891 0 0.050602327916201603 -0.17443332277029869 0 0.06575547048096006 -0.17647732794910631 0 0.050602327916201603 -0.17443332277029869 0 0.058287276630413179 -0.16525613218557589 0 0.06575547048096006 -0.17647732794910631 0 0.060266850203306632 -0.18574970907284891 0 0.050602327916201603 -0.17443332277029869 0 0.050602327916201603 -0.17443332277029869 0 0.058287276630413179 -0.16525613218557589 0 0.051584975912537398 -0.15850952596866441 0 0.065206332211953641 -0.15160435205423409 0 0.058287276630413179 -0.16525613218557589 0 0.051584975912537398 -0.15850952596866441 0 0.035550832476936987 -0.14675511144601541 0 0.051584975912537398 -0.15850952596866441 0 0.037070716230217002 -0.16349682116873421 0 0.050602327916201603 -0.17443332277029869 0 0.051584975912537398 -0.15850952596866441 0 0.037070716230217002 -0.16349682116873421 0 0.050602327916201603 -0.17443332277029869 0 0.037070716230217002 -0.16349682116873421 0 0.034803477327108548 -0.17601655121638721 0 0.037070716230217002 -0.16349682116873421 0 0.034803477327108548 -0.17601655121638721 0 0.022386777796624079 -0.16738960755476931 0 0.043551400628142722 -0.1905827735090099 0 0.050602327916201603 -0.17443332277029869 0 0.034803477327108548 -0.17601655121638721 0 0.043551400628142722 -0.1905827735090099 0 0.034803477327108548 -0.17601655121638721 0 0.020406164064357399 -0.1841802310791234 0 0.034803477327108548 -0.17601655121638721 0 0.020406164064357399 -0.1841802310791234 0 0.022386777796624079 -0.16738960755476931 0 0.020406164064357399 -0.1841802310791234 0 0.022386777796624079 -0.16738960755476931 0 0.0075355300201016672 -0.16373499270402719 0 0.037070716230217002 -0.16349682116873421 0 0.022386777796624079 -0.16738960755476931 0 0.023949957001980909 -0.15295255365609969 0 0.022386777796624079 -0.16738960755476931 0 0.00966990576636945 -0.16202334876295429 0 0.023949957001980909 -0.15295255365609969 0 0.00966990576636945 -0.16202334876295429 0 0.0075355300201016672 -0.16373499270402719 0 0.0075410892702097313 -0.15151417421736821 0 -0.0034622320605035388 -0.15995017327122979 0 -0.00059843098376162549 -0.1664542859823821 0 0.0075355300201016672 -0.16373499270402719 0 -0.00059843098376162549 -0.1664542859823821 0 0.0075355300201016672 -0.16373499270402719 0 0.0046798418731774814 -0.1740902648174221 0 0.022386777796624079 -0.16738960755476931 0 0.00966990576636945 -0.16202334876295429 0 0.0075355300201016672 -0.16373499270402719 0 0.020406164064357399 -0.1841802310791234 0 0.0046798418731774814 -0.1740902648174221 0 0.002399983828949417 -0.1833954459737217 0 0.020406164064357399 -0.1841802310791234 0 0.0075355300201016672 -0.16373499270402719 0 0.0046798418731774814 -0.1740902648174221 0 0.0059444003428096122 -0.19443651352465419 0 0.020406164064357399 -0.1841802310791234 0 0.002399983828949417 -0.1833954459737217 0 0.020406164064357399 -0.1841802310791234 0 0.0075355300201016672 -0.16373499270402719 0 -0.0042276626384493404 -0.17282719865605081 0 0.0046798418731774814 -0.1740902648174221 0 0.002399983828949417 -0.1833954459737217 0 0.035501928831764507 -0.13098017151552019 0 0.018294025318519591 -0.137008601073561 0 0.026918144870669729 -0.1119938533841677 0 0.035550832476936987 -0.14675511144601541 0 0.035501928831764507 -0.13098017151552019 0 0.018294025318519591 -0.137008601073561 0 0.035550832476936987 -0.14675511144601541 0 0.018294025318519591 -0.137008601073561 0 0.023949957001980909 -0.15295255365609969 0 0.00966990576636945 -0.16202334876295429 0 0.018294025318519591 -0.137008601073561 0 0.023949957001980909 -0.15295255365609969 0 -0.0053351040241528189 -0.1432897543289301 0 0.018294025318519591 -0.137008601073561 0 0.0075410892702097313 -0.15151417421736821 0 -0.0053351040241528189 -0.1432897543289301 0 0.0075355300201016672 -0.16373499270402719 0 0.00966990576636945 -0.16202334876295429 0 0.018294025318519591 -0.137008601073561 0 0.00966990576636945 -0.16202334876295429 0 0.018294025318519591 -0.137008601073561 0 0.0075410892702097313 -0.15151417421736821 0 -0.0053351040241528189 -0.1432897543289301 0 0.0075355300201016672 -0.16373499270402719 0 0.0075410892702097313 -0.15151417421736821 0 -0.0053351040241528189 -0.1432897543289301 0 0.018294025318519591 -0.137008601073561 0 0.0018285725693265691 -0.1158453776751463 0 0.018294025318519591 -0.137008601073561 0 0.026918144870669729 -0.1119938533841677 0 0.018294025318519591 -0.137008601073561 0 0.0018285725693265691 -0.1158453776751463 0 0.026918144870669729 -0.1119938533841677 0 0.026918144870669729 -0.1119938533841677 0 0.021538040343900711 -0.097475175783873297 0 0.035542264422819873 -0.086979105694774475 0 0.026918144870669729 -0.1119938533841677 0 0.035542264422819873 -0.086979105694774475 0 0.0018285725693265691 -0.1158453776751463 0 0.026918144870669729 -0.1119938533841677 0 0.021538040343900711 -0.097475175783873297 0 0.0018285725693265691 -0.1158453776751463 0 0.021538040343900711 -0.097475175783873297 0 0.0089922491628055441 -0.088401001021362557 0 0.0018285725693265691 -0.1158453776751463 0 0.0089922491628055441 -0.088401001021362557 0 -0.0033480317749526489 -0.083631419035902738 0 0.0089922491628055441 -0.088401001021362557 0 0.00059150691515684006 -0.073338185880521253 0 0.0089922491628055441 -0.088401001021362557 0 0.016155127557779449 -0.060959682302998502 0 -0.0090160515042696371 -0.060056871246355968 0 0.00059150691515684006 -0.073338185880521253 0 0.016155127557779449 -0.060959682302998502 0 0.0089922491628055441 -0.088401001021362557 0 0.00059150691515684006 -0.073338185880521253 0 0.016155127557779449 -0.060959682302998502 0 0.0089922491628055441 -0.088401001021362557 0 0.026580525248814341 -0.082835815484872177 0 0.016155127557779449 -0.060959682302998502 0 0.026580525248814341 -0.082835815484872177 0 0.016155127557779449 -0.060959682302998502 0 0.044166383974970191 -0.061964358005381331 0 0.0089922491628055441 -0.088401001021362557 0 0.026580525248814341 -0.082835815484872177 0 0.021538040343900711 -0.097475175783873297 0 0.0089922491628055441 -0.088401001021362557 0 0.026580525248814341 -0.082835815484872177 0 0.021538040343900711 -0.097475175783873297 0 0.026580525248814341 -0.082835815484872177 0 0.035542264422819873 -0.086979105694774475 0 0.035542264422819873 -0.086979105694774475 0 0.050119115213238211 -0.075546792739643986 0 0.050783312895200439 -0.088883092986381487 0 0.035542264422819873 -0.086979105694774475 0 0.050783312895200439 -0.088883092986381487 0 0.044844145198603982 -0.10213678687494469 0 0.035542264422819873 -0.086979105694774475 0 0.050119115213238211 -0.075546792739643986 0 0.044166383974970191 -0.061964358005381331 0 0.035542264422819873 -0.086979105694774475 0 0.044166383974970191 -0.061964358005381331 0 0.026580525248814341 -0.082835815484872177 0 0.035542264422819873 -0.086979105694774475 0 0.044166383974970191 -0.061964358005381331 0 0.050119115213238211 -0.075546792739643986 0 0.070197783827657942 -0.06289802247731667 0 0.063558917404934384 -0.076985424369617514 0 0.050119115213238211 -0.075546792739643986 0 0.044166383974970191 -0.061964358005381331 0 0.070197783827657942 -0.06289802247731667 0 0.050783312895200439 -0.088883092986381487 0 0.064108055673940803 -0.1018584002644896 0 0.063558917404934384 -0.076985424369617514 0 0.050119115213238211 -0.075546792739643986 0 0.050783312895200439 -0.088883092986381487 0 0.063558917404934384 -0.076985424369617514 0 0.047015136166289932 -0.1197336564685952 0 0.044844145198603982 -0.10213678687494469 0 0.064108055673940803 -0.1018584002644896 0 0.050783312895200439 -0.088883092986381487 0 0.044844145198603982 -0.10213678687494469 0 0.064108055673940803 -0.1018584002644896 0 0.064657193942947222 -0.12673137615936181 0 0.047015136166289932 -0.1197336564685952 0 0.064108055673940803 -0.1018584002644896 0 0.026918144870669729 -0.1119938533841677 0 0.047015136166289932 -0.1197336564685952 0 0.044844145198603982 -0.10213678687494469 0 0.035501928831764507 -0.13098017151552019 0 0.026918144870669729 -0.1119938533841677 0 0.047015136166289932 -0.1197336564685952 0 0.026918144870669729 -0.1119938533841677 0 0.035542264422819873 -0.086979105694774475 0 0.044844145198603982 -0.10213678687494469 0 0.03375457624651311 0.01395544178252218 0 0.01932606870023575 -0.0069925833104134546 0 0.033591006718873592 -0.0077061067195627808 0 0.01932606870023575 -0.0069925833104134546 0 0.025587927957985639 -0.024822187302329279 0 0.033591006718873592 -0.0077061067195627808 0 -0.0089960230977084721 -0.01103573319387138 0 0.01932606870023575 -0.0069925833104134546 0 0.0048975611539584241 -0.02794060840334903 0 -0.0089960230977084721 -0.01103573319387138 0 0.0045792914518202627 0.0040950445345904066 0 0.01932606870023575 -0.0069925833104134546 0 0.01932606870023575 -0.0069925833104134546 0 0.0048975611539584241 -0.02794060840334903 0 0.01932606870023575 -0.0069925833104134546 0 0.0048975611539584241 -0.02794060840334903 0 0.025587927957985639 -0.024822187302329279 0 0.025587927957985639 -0.024822187302329279 0 0.020871527757882331 -0.042890934802663878 0 0.025587927957985639 -0.024822187302329279 0 0.020871527757882331 -0.042890934802663878 0 0.037137593241085953 -0.037563091101880233 0 0.0048975611539584241 -0.02794060840334903 0 0.025587927957985639 -0.024822187302329279 0 0.020871527757882331 -0.042890934802663878 0 0.0048975611539584241 -0.02794060840334903 0 0.020871527757882331 -0.042890934802663878 0 0.006416996219338977 -0.04196135671321212 0 0.020871527757882331 -0.042890934802663878 0 0.006416996219338977 -0.04196135671321212 0 0.0048162015510652464 -0.051653981403253703 0 -0.0095309463923188946 -0.048888633496284598 0 0.0048975611539584241 -0.02794060840334903 0 0.006416996219338977 -0.04196135671321212 0 -0.0090160515042696371 -0.060056871246355968 0 0.016155127557779449 -0.060959682302998502 0 0.020871527757882331 -0.042890934802663878 0 0.0048162015510652464 -0.051653981403253703 0 0.016155127557779449 -0.060959682302998502 0 -0.0090160515042696371 -0.060056871246355968 0 0.0048162015510652464 -0.051653981403253703 0 0.016155127557779449 -0.060959682302998502 0 -0.0095309463923188946 -0.048888633496284598 0 0.006416996219338977 -0.04196135671321212 0 0.0048162015510652464 -0.051653981403253703 0 0.016155127557779449 -0.060959682302998502 0 0.044166383974970191 -0.061964358005381331 0 0.020871527757882331 -0.042890934802663878 0 0.016155127557779449 -0.060959682302998502 0 0.020871527757882331 -0.042890934802663878 0 0.016155127557779449 -0.060959682302998502 0 0.044166383974970191 -0.061964358005381331 0 0.020871527757882331 -0.042890934802663878 0 0.044166383974970191 -0.061964358005381331 0 0.037137593241085953 -0.037563091101880233 0 0.044166383974970191 -0.061964358005381331 0 0.052372507828567699 -0.038162030537126218 0 0.069309366202516598 -0.044747604553126603 0 0.044166383974970191 -0.061964358005381331 0 0.052372507828567699 -0.038162030537126218 0 0.044166383974970191 -0.061964358005381331 0 0.070197783827657942 -0.06289802247731667 0 0.044166383974970191 -0.061964358005381331 0 0.069309366202516598 -0.044747604553126603 0 0.070197783827657942 -0.06289802247731667 0 0.052372507828567699 -0.038162030537126218 0 0.037137593241085953 -0.037563091101880233 0 0.042689618686023882 -0.019975944861900422 0 0.044166383974970191 -0.061964358005381331 0 0.052372507828567699 -0.038162030537126218 0 0.037137593241085953 -0.037563091101880233 0 0.025587927957985639 -0.024822187302329279 0 0.042689618686023882 -0.019975944861900422 0 0.033591006718873592 -0.0077061067195627808 0 0.025587927957985639 -0.024822187302329279 0 0.037137593241085953 -0.037563091101880233 0 0.042689618686023882 -0.019975944861900422 0 0.052372507828567699 -0.038162030537126218 0 0.060578631682165429 -0.01435970306887116 0 0.052372507828567699 -0.038162030537126218 0 0.042689618686023882 -0.019975944861900422 0 0.060578631682165429 -0.01435970306887116 0 0.06175221594896229 0.0069685432474568291 0 0.060578631682165429 -0.01435970306887116 0 0.046596842003609563 -0.00069525990569292847 0 0.042689618686023882 -0.019975944861900422 0 0.060578631682165429 -0.01435970306887116 0 0.046596842003609563 -0.00069525990569292847 0 0.042689618686023882 -0.019975944861900422 0 0.046596842003609563 -0.00069525990569292847 0 0.033591006718873592 -0.0077061067195627808 0 0.07905212668422168 0.0023684285233401721 0 0.0878376211017112 -0.010387035779324091 0 0.079850089249152212 -0.023656780186833891 0 0.07905212668422168 0.0023684285233401721 0 0.079850089249152212 -0.023656780186833891 0 0.091770219455842267 0.0081801344681066215 0 0.0878376211017112 -0.010387035779324091 0 0.099403600792298777 -8.5827329185945826e-05 0 0.06175221594896229 0.0069685432474568291 0 0.060578631682165429 -0.01435970306887116 0 0.068077007432875786 -0.0040758889933961793 0 0.07905212668422168 0.0023684285233401721 0 0.068077007432875786 -0.0040758889933961793 0 0.079850089249152212 -0.023656780186833891 0 0.060578631682165429 -0.01435970306887116 0 0.068077007432875786 -0.0040758889933961793 0 0.079850089249152212 -0.023656780186833891 0 0.052372507828567699 -0.038162030537126218 0 0.060578631682165429 -0.01435970306887116 0 0.079850089249152212 -0.023656780186833891 0 0.079850089249152212 -0.023656780186833891 0 0.093452551583307744 -0.038232143076010063 0 0.1004915149496691 -0.015835179869576509 0 0.0878376211017112 -0.010387035779324091 0 0.079850089249152212 -0.023656780186833891 0 0.1004915149496691 -0.015835179869576509 0 0.093452551583307744 -0.038232143076010063 0 0.069309366202516598 -0.044747604553126603 0 0.08487423129009429 -0.054126406795680093 0 0.079850089249152212 -0.023656780186833891 0 0.093452551583307744 -0.038232143076010063 0 0.069309366202516598 -0.044747604553126603 0 0.052372507828567699 -0.038162030537126218 0 0.079850089249152212 -0.023656780186833891 0 0.069309366202516598 -0.044747604553126603 0 0.069309366202516598 -0.044747604553126603 0 0.08487423129009429 -0.054126406795680093 0 0.070197783827657942 -0.06289802247731667 0 0.093452551583307744 -0.038232143076010063 0 0.08487423129009429 -0.054126406795680093 0 0.101790782307975 -0.056028562541756539 0 0.08487423129009429 -0.054126406795680093 0 0.101790782307975 -0.056028562541756539 0 0.09133642436911879 -0.06680587925568085 0 0.08487423129009429 -0.054126406795680093 0 0.101790782307975 -0.056028562541756539 0 0.101790782307975 -0.056028562541756539 0 0.11870733332585549 -0.057930718287835727 0 0.1033743630189 -0.071012840815841485 0 0.101790782307975 -0.056028562541756539 0 0.1115129484222188 -0.05145827339333077 0 0.10815537919940781 -0.044094369270531758 0 0.101790782307975 -0.056028562541756539 0 0.11870733332585549 -0.057930718287835727 0 0.101790782307975 -0.056028562541756539 0 0.11870733332585549 -0.057930718287835727 0 0.1115129484222188 -0.05145827339333077 0 0.11870733332585549 -0.057930718287835727 0 0.11963376428373081 -0.050179178522606782 0 0.1115129484222188 -0.05145827339333077 0 0.11963376428373081 -0.050179178522606782 0 0.1115129484222188 -0.05145827339333077 0 0.10815537919940781 -0.044094369270531758 0 0.11963376428373081 -0.050179178522606782 0 0.12066274927404951 -0.037840447771590811 0 0.10815537919940781 -0.044094369270531758 0 0.12066274927404951 -0.037840447771590811 0 0.10815537919940781 -0.044094369270531758 0 0.1084017246938988 -0.030094057941113861 0 0.093452551583307744 -0.038232143076010063 0 0.101790782307975 -0.056028562541756539 0 0.10815537919940781 -0.044094369270531758 0 0.093452551583307744 -0.038232143076010063 0 0.10815537919940781 -0.044094369270531758 0 0.1084017246938988 -0.030094057941113861 0 0.1004915149496691 -0.015835179869576509 0 0.1084017246938988 -0.030094057941113861 0 0.1185313646404748 -0.010496561753845911 0 0.093452551583307744 -0.038232143076010063 0 0.1004915149496691 -0.015835179869576509 0 0.1084017246938988 -0.030094057941113861 0 0.1084017246938988 -0.030094057941113861 0 0.13206700845360439 -0.025376068865908329 0 0.12066274927404951 -0.037840447771590811 0 0.1084017246938988 -0.030094057941113861 0 0.13206700845360439 -0.025376068865908329 0 0.1084017246938988 -0.030094057941113861 0 0.1185313646404748 -0.010496561753845911 0 0.13206700845360439 -0.025376068865908329 0 0.1175995477600949 0.0093541612357724065 0 0.1185313646404748 -0.010496561753845911 0 0.110514703989132 -0.0008969358902345655 0 0.1004915149496691 -0.015835179869576509 0 0.1185313646404748 -0.010496561753845911 0 0.110514703989132 -0.0008969358902345655 0 0.0878376211017112 -0.010387035779324091 0 0.1004915149496691 -0.015835179869576509 0 0.099403600792298777 -8.5827329185945826e-05 0 0.1004915149496691 -0.015835179869576509 0 0.110514703989132 -0.0008969358902345655 0 0.099403600792298777 -8.5827329185945826e-05 0 0.080635332143348004 -0.1100757451680098 0 0.079939206759689227 -0.090181498018551409 0 0.098678959317019435 -0.1034246692662158 0 0.082556609064659892 -0.12593366810269829 0 0.080635332143348004 -0.1100757451680098 0 0.097816358448213458 -0.1185436401303937 0 0.080635332143348004 -0.1100757451680098 0 0.098678959317019435 -0.1034246692662158 0 0.097816358448213458 -0.1185436401303937 0 0.093114899591683717 -0.12922117103356251 0 0.082556609064659892 -0.12593366810269829 0 0.097816358448213458 -0.1185436401303937 0 0.064657193942947222 -0.12673137615936181 0 0.080635332143348004 -0.1100757451680098 0 0.064108055673940803 -0.1018584002644896 0 0.064657193942947222 -0.12673137615936181 0 0.064108055673940803 -0.1018584002644896 0 0.082556609064659892 -0.12593366810269829 0 0.064657193942947222 -0.12673137615936181 0 0.080635332143348004 -0.1100757451680098 0 0.080635332143348004 -0.1100757451680098 0 0.064108055673940803 -0.1018584002644896 0 0.079939206759689227 -0.090181498018551409 0 0.064108055673940803 -0.1018584002644896 0 0.063558917404934384 -0.076985424369617514 0 0.063558917404934384 -0.076985424369617514 0 0.07902663460751691 -0.072405652616505556 0 0.079939206759689227 -0.090181498018551409 0 0.064108055673940803 -0.1018584002644896 0 0.063558917404934384 -0.076985424369617514 0 0.079939206759689227 -0.090181498018551409 0 0.08487423129009429 -0.054126406795680093 0 0.070197783827657942 -0.06289802247731667 0 0.07902663460751691 -0.072405652616505556 0 0.070197783827657942 -0.06289802247731667 0 0.063558917404934384 -0.076985424369617514 0 0.07902663460751691 -0.072405652616505556 0 0.08487423129009429 -0.054126406795680093 0 0.07902663460751691 -0.072405652616505556 0 0.09133642436911879 -0.06680587925568085 0 0.07902663460751691 -0.072405652616505556 0 0.09133642436911879 -0.06680587925568085 0 0.090018158212179539 -0.078326825456073224 0 0.079939206759689227 -0.090181498018551409 0 0.090018158212179539 -0.078326825456073224 0 0.10085523861242079 -0.087461281386015749 0 0.07902663460751691 -0.072405652616505556 0 0.079939206759689227 -0.090181498018551409 0 0.090018158212179539 -0.078326825456073224 0 0.079939206759689227 -0.090181498018551409 0 0.10085523861242079 -0.087461281386015749 0 0.098678959317019435 -0.1034246692662158 0 0.10085523861242079 -0.087461281386015749 0 0.1033743630189 -0.071012840815841485 0 0.1171819573634876 -0.078527770980113876 0 0.090018158212179539 -0.078326825456073224 0 0.10085523861242079 -0.087461281386015749 0 0.1033743630189 -0.071012840815841485 0 0.101790782307975 -0.056028562541756539 0 0.09133642436911879 -0.06680587925568085 0 0.1033743630189 -0.071012840815841485 0 0.09133642436911879 -0.06680587925568085 0 0.090018158212179539 -0.078326825456073224 0 0.1033743630189 -0.071012840815841485 0 0.11870733332585549 -0.057930718287835727 0 0.1171819573634876 -0.078527770980113876 0 0.13900433180264679 -0.080103284860120388 0 0.11870733332585549 -0.057930718287835727 0 0.1033743630189 -0.071012840815841485 0 0.1171819573634876 -0.078527770980113876 0 0.1171819573634876 -0.078527770980113876 0 0.1180526585542975 -0.095202005782850069 0 0.13900433180264679 -0.080103284860120388 0 0.10085523861242079 -0.087461281386015749 0 0.1171819573634876 -0.078527770980113876 0 0.1180526585542975 -0.095202005782850069 0 0.1180526585542975 -0.095202005782850069 0 0.1154629501142632 -0.1101090854014997 0 0.13318449785964279 -0.1007848989791766 0 0.1180526585542975 -0.095202005782850069 0 0.098678959317019435 -0.1034246692662158 0 0.1154629501142632 -0.1101090854014997 0 0.10085523861242079 -0.087461281386015749 0 0.1180526585542975 -0.095202005782850069 0 0.098678959317019435 -0.1034246692662158 0 0.097816358448213458 -0.1185436401303937 0 0.11425079482998921 -0.1220801878969625 0 0.1154629501142632 -0.1101090854014997 0 0.1038010533135581 -0.1284997878773107 0 0.097816358448213458 -0.1185436401303937 0 0.11425079482998921 -0.1220801878969625 0 0.098678959317019435 -0.1034246692662158 0 0.097816358448213458 -0.1185436401303937 0 0.1154629501142632 -0.1101090854014997 0 0.11425079482998921 -0.1220801878969625 0 0.1154629501142632 -0.1101090854014997 0 0.13313604000000179 -0.1187498414797455 0 0.1154629501142632 -0.1101090854014997 0 0.13313604000000179 -0.1187498414797455 0 0.13318449785964279 -0.1007848989791766 0 0.13313604000000179 -0.1187498414797455 0 0.1576891209685635 -0.1005146640176918 0 0.14870574120419541 -0.12771231388556259 0 0.13313604000000179 -0.1187498414797455 0 0.13318449785964279 -0.1007848989791766 0 0.1576891209685635 -0.1005146640176918 0 0.13318449785964279 -0.1007848989791766 0 0.13900433180264679 -0.080103284860120388 0 0.1576891209685635 -0.1005146640176918 0 0.1180526585542975 -0.095202005782850069 0 0.13318449785964279 -0.1007848989791766 0 0.13900433180264679 -0.080103284860120388 0 0.13318449785964279 -0.1007848989791766 0 0.13900433180264679 -0.080103284860120388 0 0.11870733332585549 -0.057930718287835727 0 0.13900433180264679 -0.080103284860120388 0 0.14442981750459519 -0.060823043740712568 0 0.11870733332585549 -0.057930718287835727 0 0.13900433180264679 -0.080103284860120388 0 0.13900433180264679 -0.080103284860120388 0 0.14442981750459519 -0.060823043740712568 0 0.13900433180264679 -0.080103284860120388 0 0.1571344148438435 -0.074643088631041549 0 0.14442981750459519 -0.060823043740712568 0 0.13900433180264679 -0.080103284860120388 0 0.1576891209685635 -0.1005146640176918 0 0.13900433180264679 -0.080103284860120388 0 0.155922240487645 -0.08538025740243177 0 0.1571344148438435 -0.074643088631041549 0 0.13900433180264679 -0.080103284860120388 0 0.155922240487645 -0.08538025740243177 0 0.1576891209685635 -0.1005146640176918 0 0.155922240487645 -0.08538025740243177 0 0.1698610943355276 -0.086259992100872193 0 0.1576891209685635 -0.1005146640176918 0 0.155922240487645 -0.08538025740243177 0 0.1698610943355276 -0.086259992100872193 0 0.1571344148438435 -0.074643088631041549 0 0.1698610943355276 -0.086259992100872193 0 0.1571344148438435 -0.074643088631041549 0 0.17442830992508729 -0.064196178410477867 0 0.1571344148438435 -0.074643088631041549 0 0.17442830992508729 -0.064196178410477867 0 0.14442981750459519 -0.060823043740712568 0 0.17442830992508729 -0.064196178410477867 0 0.14442981750459519 -0.060823043740712568 0 0.17442830992508729 -0.064196178410477867 0 0.19011437931667929 -0.065959974529144816 0 0.1698610943355276 -0.086259992100872193 0 0.17442830992508729 -0.064196178410477867 0 0.18390796644326479 -0.067895926816733343 0 0.17442830992508729 -0.064196178410477867 0 0.19011437931667929 -0.065959974529144816 0 0.1698610943355276 -0.086259992100872193 0 0.17442830992508729 -0.064196178410477867 0 0.18124012763157521 -0.08095627160474371 0 0.18390796644326479 -0.067895926816733343 0 0.17442830992508729 -0.064196178410477867 0 0.18124012763157521 -0.08095627160474371 0 0.18390796644326479 -0.067895926816733343 0 0.18124012763157521 -0.08095627160474371 0 0.19614312263906181 -0.094865665874499239 0 0.1698610943355276 -0.086259992100872193 0 0.18124012763157521 -0.08095627160474371 0 0.18186014481493451 -0.09156359482113588 0 0.18124012763157521 -0.08095627160474371 0 0.18186014481493451 -0.09156359482113588 0 0.19614312263906181 -0.094865665874499239 0 0.18186014481493451 -0.09156359482113588 0 0.1812146074330783 -0.1054980827732325 0 0.19614312263906181 -0.094865665874499239 0 0.1698610943355276 -0.086259992100872193 0 0.1812146074330783 -0.1054980827732325 0 0.16504567748088811 -0.10855101181555971 0 0.1698610943355276 -0.086259992100872193 0 0.18186014481493451 -0.09156359482113588 0 0.1812146074330783 -0.1054980827732325 0 0.1763739101344812 -0.120926043175262 0 0.1926446153263375 -0.1169352691432826 0 0.1812146074330783 -0.1054980827732325 0 0.1763739101344812 -0.120926043175262 0 0.16504567748088811 -0.10855101181555971 0 0.1812146074330783 -0.1054980827732325 0 0.1763739101344812 -0.120926043175262 0 0.1926446153263375 -0.1169352691432826 0 0.1763739101344812 -0.120926043175262 0 0.1926446153263375 -0.1169352691432826 0 0.18709971216427301 -0.13264297559847851 0 0.1576891209685635 -0.1005146640176918 0 0.16504567748088811 -0.10855101181555971 0 0.14870574120419541 -0.12771231388556259 0 0.1763739101344812 -0.120926043175262 0 0.14870574120419541 -0.12771231388556259 0 0.1763739101344812 -0.120926043175262 0 0.16504567748088811 -0.10855101181555971 0 0.14870574120419541 -0.12771231388556259 0 0.1763739101344812 -0.120926043175262 0 0.16504567748088811 -0.10855101181555971 0 0.1698610943355276 -0.086259992100872193 0 0.1576891209685635 -0.1005146640176918 0 0.16504567748088811 -0.10855101181555971 0 0.1698610943355276 -0.086259992100872193 0 0.16504567748088811 -0.10855101181555971 0 0.1576891209685635 -0.1005146640176918 0 0.16504567748088811 -0.10855101181555971 0 0.14604617188552579 -0.01287754781404615 0 0.13968391278941569 -0.001332600437204217 0 0.1566002555707719 -0.007194885615248307 0 0.14604617188552579 -0.01287754781404615 0 0.15501684708015159 -0.016093515857470021 0 0.1566002555707719 -0.007194885615248307 0 0.14604617188552579 -0.01287754781404615 0 0.13968391278941569 -0.001332600437204217 0 0.13206700845360439 -0.025376068865908329 0 0.1185313646404748 -0.010496561753845911 0 0.13968391278941569 -0.001332600437204217 0 0.13206700845360439 -0.025376068865908329 0 0.1175995477600949 0.0093541612357724065 0 0.1185313646404748 -0.010496561753845911 0 0.13968391278941569 -0.001332600437204217 0 0.1557322922133092 -0.020658079790699779 0 0.14920658187182209 -0.043848126870565447 0 0.1608139511416434 -0.01964498349525054 0 0.14604617188552579 -0.01287754781404615 0 0.13206700845360439 -0.025376068865908329 0 0.1557322922133092 -0.020658079790699779 0 0.13206700845360439 -0.025376068865908329 0 0.1557322922133092 -0.020658079790699779 0 0.14311107440956861 -0.032324453793945093 0 0.13206700845360439 -0.025376068865908329 0 0.1557322922133092 -0.020658079790699779 0 0.14604617188552579 -0.01287754781404615 0 0.15501684708015159 -0.016093515857470021 0 0.1557322922133092 -0.020658079790699779 0 0.15481528256306151 -0.035918722731160459 0 0.14920658187182209 -0.043848126870565447 0 0.1608139511416434 -0.01964498349525054 0 0.1557322922133092 -0.020658079790699779 0 0.14920658187182209 -0.043848126870565447 0 0.1557322922133092 -0.020658079790699779 0 0.14920658187182209 -0.043848126870565447 0 0.14311107440956861 -0.032324453793945093 0 0.14920658187182209 -0.043848126870565447 0 0.1608139511416434 -0.01964498349525054 0 0.14920658187182209 -0.043848126870565447 0 0.13543841509953999 -0.039415539648607077 0 0.1461764141904881 -0.050166490759724541 0 0.14920658187182209 -0.043848126870565447 0 0.14311107440956861 -0.032324453793945093 0 0.13543841509953999 -0.039415539648607077 0 0.11963376428373081 -0.050179178522606782 0 0.12066274927404951 -0.037840447771590811 0 0.13543841509953999 -0.039415539648607077 0 0.11963376428373081 -0.050179178522606782 0 0.13543841509953999 -0.039415539648607077 0 0.1461764141904881 -0.050166490759724541 0 0.13206700845360439 -0.025376068865908329 0 0.14311107440956861 -0.032324453793945093 0 0.13543841509953999 -0.039415539648607077 0 0.12066274927404951 -0.037840447771590811 0 0.13206700845360439 -0.025376068865908329 0 0.13543841509953999 -0.039415539648607077 0 0.11870733332585549 -0.057930718287835727 0 0.14442981750459519 -0.060823043740712568 0 0.14304662005056629 -0.056692591079518753 0 0.11870733332585549 -0.057930718287835727 0 0.11963376428373081 -0.050179178522606782 0 0.14304662005056629 -0.056692591079518753 0 0.11963376428373081 -0.050179178522606782 0 0.14304662005056629 -0.056692591079518753 0 0.1461764141904881 -0.050166490759724541 0 0.11963376428373081 -0.050179178522606782 0 0.1461764141904881 -0.050166490759724541 0 0.11870733332585549 -0.057930718287835727 0 0.14442981750459519 -0.060823043740712568 0 0.14442981750459519 -0.060823043740712568 0 0.1461764141904881 -0.050166490759724541 0 0.17154245932575529 -0.050154365430600499 0 0.14920658187182209 -0.043848126870565447 0 0.1461764141904881 -0.050166490759724541 0 0.17154245932575529 -0.050154365430600499 0 0.14442981750459519 -0.060823043740712568 0 0.1461764141904881 -0.050166490759724541 0 0.14442981750459519 -0.060823043740712568 0 0.14304662005056629 -0.056692591079518753 0 0.1461764141904881 -0.050166490759724541 0 0.14920658187182209 -0.043848126870565447 0 0.1461764141904881 -0.050166490759724541 0 0.14304662005056629 -0.056692591079518753 0 0.1461764141904881 -0.050166490759724541 0 0.17442830992508729 -0.064196178410477867 0 0.14442981750459519 -0.060823043740712568 0 0.17154245932575529 -0.050154365430600499 0 0.1461764141904881 -0.050166490759724541 0 0.17154245932575529 -0.050154365430600499 0 0.17442830992508729 -0.064196178410477867 0 0.17154245932575529 -0.050154365430600499 0 0.17646736216325909 -0.054345697782664883 0 0.17442830992508729 -0.064196178410477867 0 0.17646736216325909 -0.054345697782664883 0 0.19011437931667929 -0.065959974529144816 0 0.17442830992508729 -0.064196178410477867 0 0.17646736216325909 -0.054345697782664883 0 0.18663622233881891 -0.05622197832891497 0 0.17733554234965329 -0.050151596254800888 0 0.19500126948928581 -0.050143151786826858 0 0.17733554234965329 -0.050151596254800888 0 0.19500126948928581 -0.050143151786826858 0 0.18663622233881891 -0.05622197832891497 0 0.17646736216325909 -0.054345697782664883 0 0.19011437931667929 -0.065959974529144816 0 0.17646736216325909 -0.054345697782664883 0 0.19011437931667929 -0.065959974529144816 0 0.18663622233881891 -0.05622197832891497 0 0.17733554234965329 -0.050151596254800888 0 0.17646736216325909 -0.054345697782664883 0 0.17733554234965329 -0.050151596254800888 0 0.17646736216325909 -0.054345697782664883 0 0.17154245932575529 -0.050154365430600499 0 0.17646736216325909 -0.054345697782664883 0 0.17154245932575529 -0.050154365430600499 0 0.17733554234965329 -0.050151596254800888 0 0.17646736216325909 -0.054345697782664883 0 0.17154245932575529 -0.050154365430600499 0 0.17733554234965329 -0.050151596254800888 0 0.17154245932575529 -0.050154365430600499 0 0.17733554234965329 -0.050151596254800888 0 0.16826773868660219 -0.037057018460376019 0 0.17733554234965329 -0.050151596254800888 0 0.18098447476396851 -0.032523927190442593 0 0.19500126948928581 -0.050143151786826858 0 0.17733554234965329 -0.050151596254800888 0 0.18098447476396851 -0.032523927190442593 0 0.17733554234965329 -0.050151596254800888 0 0.18098447476396851 -0.032523927190442593 0 0.16826773868660219 -0.037057018460376019 0 0.18098447476396851 -0.032523927190442593 0 0.16826773868660219 -0.037057018460376019 0 0.17367489294262489 -0.026030546818038441 0 0.15481528256306151 -0.035918722731160459 0 0.14920658187182209 -0.043848126870565447 0 0.17154245932575529 -0.050154365430600499 0 0.15481528256306151 -0.035918722731160459 0 0.17154245932575529 -0.050154365430600499 0 0.16826773868660219 -0.037057018460376019 0 0.15481528256306151 -0.035918722731160459 0 0.17154245932575529 -0.050154365430600499 0 0.15481528256306151 -0.035918722731160459 0 0.16826773868660219 -0.037057018460376019 0 0.1608139511416434 -0.01964498349525054 0 0.16826773868660219 -0.037057018460376019 0 0.1608139511416434 -0.01964498349525054 0 0.17367489294262489 -0.026030546818038441 0 0.1557322922133092 -0.020658079790699779 0 0.1608139511416434 -0.01964498349525054 0 0.15501684708015159 -0.016093515857470021 0 0.1557322922133092 -0.020658079790699779 0 0.1608139511416434 -0.01964498349525054 0 0.18098447476396851 -0.032523927190442593 0 0.18463340717828511 -0.01489625812608465 0 0.18098447476396851 -0.032523927190442593 0 0.18463340717828511 -0.01489625812608465 0 0.19583417174159859 -0.024819796854577861 0 0.1608139511416434 -0.01964498349525054 0 0.17367489294262489 -0.026030546818038441 0 0.18463340717828511 -0.01489625812608465 0 0.1608139511416434 -0.01964498349525054 0 0.18463340717828511 -0.01489625812608465 0 0.18098447476396851 -0.032523927190442593 0 0.17367489294262489 -0.026030546818038441 0 0.18463340717828511 -0.01489625812608465 0 0.18891566880757921 0.0057909682396340839 0 0.18463340717828511 -0.01489625812608465 0 0.18891566880757921 0.0057909682396340839 0 0.18463340717828511 -0.01489625812608465 0 0.16895049907619231 -0.002679034393242765 0 0.1608139511416434 -0.01964498349525054 0 0.16895049907619231 -0.002679034393242765 0 0.1608139511416434 -0.01964498349525054 0 0.18463340717828511 -0.01489625812608465 0 0.16895049907619231 -0.002679034393242765 0 0.1608139511416434 -0.01964498349525054 0 0.16895049907619231 -0.002679034393242765 0 0.1566002555707719 -0.007194885615248307 0 0.15501684708015159 -0.016093515857470021 0 0.1608139511416434 -0.01964498349525054 0 0.1566002555707719 -0.007194885615248307 0 0.20534203690460509 -0.01076771735711169 0 0.22605066663092499 -0.0066391765881388936 0 0.21642668838111401 0.0025320231582431768 0 0.20534203690460509 -0.01076771735711169 0 0.22605066663092499 -0.0066391765881388936 0 0.20536935462328429 0.0056862788303377806 0 0.21642668838111401 0.0025320231582431768 0 0.20534203690460509 -0.01076771735711169 0 0.20534203690460509 -0.01076771735711169 0 0.22144366545761671 -0.01945803814064961 0 0.22605066663092499 -0.0066391765881388936 0 0.18463340717828511 -0.01489625812608465 0 0.20534203690460509 -0.01076771735711169 0 0.18891566880757921 0.0057909682396340839 0 0.18463340717828511 -0.01489625812608465 0 0.20534203690460509 -0.01076771735711169 0 0.18463340717828511 -0.01489625812608465 0 0.20534203690460509 -0.01076771735711169 0 0.19583417174159859 -0.024819796854577861 0 0.19583417174159859 -0.024819796854577861 0 0.20961932550690329 -0.02843082889919726 0 0.19859161435423109 -0.037480252700053313 0 0.20534203690460509 -0.01076771735711169 0 0.20961932550690329 -0.02843082889919726 0 0.22144366545761671 -0.01945803814064961 0 0.20534203690460509 -0.01076771735711169 0 0.19583417174159859 -0.024819796854577861 0 0.20961932550690329 -0.02843082889919726 0 0.20961932550690329 -0.02843082889919726 0 0.21266699662891839 -0.050134707318852591 0 0.20961932550690329 -0.02843082889919726 0 0.21739803985743439 -0.03861944857335535 0 0.21266699662891839 -0.050134707318852591 0 0.20961932550690329 -0.02843082889919726 0 0.21739803985743439 -0.03861944857335535 0 0.22859315933973809 -0.033010244658626682 0 0.20961932550690329 -0.02843082889919726 0 0.19859161435423109 -0.037480252700053313 0 0.21266699662891839 -0.050134707318852591 0 0.21739803985743439 -0.03861944857335535 0 0.21266699662891839 -0.050134707318852591 0 0.2192209938281145 -0.050131574415292042 0 0.19859161435423109 -0.037480252700053313 0 0.19500126948928581 -0.050143151786826858 0 0.21266699662891839 -0.050134707318852591 0 0.18098447476396851 -0.032523927190442593 0 0.19583417174159859 -0.024819796854577861 0 0.19859161435423109 -0.037480252700053313 0 0.18098447476396851 -0.032523927190442593 0 0.19859161435423109 -0.037480252700053313 0 0.19500126948928581 -0.050143151786826858 0 0.18663622233881891 -0.05622197832891497 0 0.19500126948928581 -0.050143151786826858 0 0.19446714177886909 -0.059504574740308652 0 0.18663622233881891 -0.05622197832891497 0 0.19446714177886909 -0.059504574740308652 0 0.19011437931667929 -0.065959974529144816 0 0.19500126948928581 -0.050143151786826858 0 0.19446714177886909 -0.059504574740308652 0 0.20186662004426581 -0.058270461502229171 0 0.19446714177886909 -0.059504574740308652 0 0.20186662004426581 -0.058270461502229171 0 0.1987172177052958 -0.066927307554427495 0 0.21266699662891839 -0.050134707318852591 0 0.2192209938281145 -0.050131574415292042 0 0.21545936727074461 -0.07002047270707544 0 0.21266699662891839 -0.050134707318852591 0 0.20657865205276979 -0.064657211078961316 0 0.21545936727074461 -0.07002047270707544 0 0.20186662004426581 -0.058270461502229171 0 0.21266699662891839 -0.050134707318852591 0 0.20657865205276979 -0.064657211078961316 0 0.21266699662891839 -0.050134707318852591 0 0.21545936727074461 -0.07002047270707544 0 0.19500126948928581 -0.050143151786826858 0 0.20186662004426581 -0.058270461502229171 0 0.21266699662891839 -0.050134707318852591 0 0.19500126948928581 -0.050143151786826858 0 0.21266699662891839 -0.050134707318852591 0 0.21266699662891839 -0.050134707318852591 0 0.2192209938281145 -0.050131574415292042 0 0.2192209938281145 -0.050131574415292042 0 0.24713171562943309 -0.039117564013920858 0 0.23450960799295029 -0.066059006577151358 0 0.2192209938281145 -0.050131574415292042 0 0.21545936727074461 -0.07002047270707544 0 0.23450960799295029 -0.066059006577151358 0 0.24713171562943309 -0.039117564013920858 0 0.23450960799295029 -0.066059006577151358 0 0.24868712167772811 -0.061280815743001343 0 0.24713171562943309 -0.039117564013920858 0 0.23450960799295029 -0.066059006577151358 0 0.21739803985743439 -0.03861944857335535 0 0.2192209938281145 -0.050131574415292042 0 0.22859315933973809 -0.033010244658626682 0 0.2192209938281145 -0.050131574415292042 0 0.24713171562943309 -0.039117564013920858 0 0.22859315933973809 -0.033010244658626682 0 0.22859315933973809 -0.033010244658626682 0 0.22144366545761671 -0.01945803814064961 0 0.23761313890591201 -0.018442223200173549 0 0.20961932550690329 -0.02843082889919726 0 0.22859315933973809 -0.033010244658626682 0 0.22144366545761671 -0.01945803814064961 0 0.24713171562943309 -0.039117564013920858 0 0.22859315933973809 -0.033010244658626682 0 0.23761313890591201 -0.018442223200173549 0 0.25975382326591612 -0.01217612145069095 0 0.24713171562943309 -0.039117564013920858 0 0.23761313890591201 -0.018442223200173549 0 0.25975382326591612 -0.01217612145069095 0 0.23761313890591201 -0.018442223200173549 0 0.246759296357245 -0.002510635819166105 0 0.23761313890591201 -0.018442223200173549 0 0.246759296357245 -0.002510635819166105 0 0.22605066663092499 -0.0066391765881388936 0 0.23665614420463971 0.0061919762364166832 0 0.246759296357245 -0.002510635819166105 0 0.22605066663092499 -0.0066391765881388936 0 0.246759296357245 -0.002510635819166105 0 0.22605066663092499 -0.0066391765881388936 0 0.22144366545761671 -0.01945803814064961 0 0.23761313890591201 -0.018442223200173549 0 0.22605066663092499 -0.0066391765881388936 0 0.21081901435021441 -0.096665200820674535 0 0.20837827883485879 -0.12183540493226511 0 0.21942445850559081 -0.098257724903459048 0 0.21081901435021441 -0.096665200820674535 0 0.20837827883485879 -0.12183540493226511 0 0.19614312263906181 -0.094865665874499239 0 0.20837827883485879 -0.12183540493226511 0 0.22074480734754809 -0.1076605408865807 0 0.21942445850559081 -0.098257724903459048 0 0.21081901435021441 -0.096665200820674535 0 0.21825173791257069 -0.089906238095298241 0 0.21942445850559081 -0.098257724903459048 0 0.20837827883485879 -0.12183540493226511 0 0.21942445850559081 -0.098257724903459048 0 0.20837827883485879 -0.12183540493226511 0 0.22074480734754809 -0.1076605408865807 0 0.2256971892214488 -0.1230056778149491 0 0.20837827883485879 -0.12183540493226511 0 0.1926446153263375 -0.1169352691432826 0 0.1964870301298835 -0.1289433894239303 0 0.20837827883485879 -0.12183540493226511 0 0.1926446153263375 -0.1169352691432826 0 0.19614312263906181 -0.094865665874499239 0 0.1812146074330783 -0.1054980827732325 0 0.1926446153263375 -0.1169352691432826 0 0.19614312263906181 -0.094865665874499239 0 0.20837827883485879 -0.12183540493226511 0 0.19614312263906181 -0.094865665874499239 0 0.18390796644326479 -0.067895926816733343 0 0.19614312263906181 -0.094865665874499239 0 0.2041830586146246 -0.077933106312222028 0 0.18390796644326479 -0.067895926816733343 0 0.19614312263906181 -0.094865665874499239 0 0.18390796644326479 -0.067895926816733343 0 0.19011437931667929 -0.065959974529144816 0 0.2041830586146246 -0.077933106312222028 0 0.19446714177886909 -0.059504574740308652 0 0.19011437931667929 -0.065959974529144816 0 0.1987172177052958 -0.066927307554427495 0 0.19011437931667929 -0.065959974529144816 0 0.1987172177052958 -0.066927307554427495 0 0.19011437931667929 -0.065959974529144816 0 0.2041830586146246 -0.077933106312222028 0 0.19011437931667929 -0.065959974529144816 0 0.1987172177052958 -0.066927307554427495 0 0.2041830586146246 -0.077933106312222028 0 0.20186662004426581 -0.058270461502229171 0 0.1987172177052958 -0.066927307554427495 0 0.20657865205276979 -0.064657211078961316 0 0.1987172177052958 -0.066927307554427495 0 0.20657865205276979 -0.064657211078961316 0 0.2041830586146246 -0.077933106312222028 0 0.20657865205276979 -0.064657211078961316 0 0.2041830586146246 -0.077933106312222028 0 0.21545936727074461 -0.07002047270707544 0 0.21081901435021441 -0.096665200820674535 0 0.2041830586146246 -0.077933106312222028 0 0.21825173791257069 -0.089906238095298241 0 0.21081901435021441 -0.096665200820674535 0 0.19614312263906181 -0.094865665874499239 0 0.2041830586146246 -0.077933106312222028 0 0.21545936727074461 -0.07002047270707544 0 0.21825173791257069 -0.089906238095298241 0 0.2041830586146246 -0.077933106312222028 0 0.21545936727074461 -0.07002047270707544 0 0.21825173791257069 -0.089906238095298241 0 0.2041830586146246 -0.077933106312222028 0 0.21825173791257069 -0.089906238095298241 0 0.22188750035647581 -0.093000449140385341 0 0.23450960799295029 -0.066059006577151358 0 0.21825173791257069 -0.089906238095298241 0 0.22188750035647581 -0.093000449140385341 0 0.21942445850559081 -0.098257724903459048 0 0.21825173791257069 -0.089906238095298241 0 0.22188750035647581 -0.093000449140385341 0 0.23450960799295029 -0.066059006577151358 0 0.22188750035647581 -0.093000449140385341 0 0.23256452715304141 -0.088552504835684026 0 0.23450960799295029 -0.066059006577151358 0 0.21825173791257069 -0.089906238095298241 0 0.22188750035647581 -0.093000449140385341 0 0.21545936727074461 -0.07002047270707544 0 0.21825173791257069 -0.089906238095298241 0 0.23450960799295029 -0.066059006577151358 0 0.24868712167772811 -0.061280815743001343 0 0.24133719530436051 -0.081014374877977247 0 0.25346028161667972 -0.074294168239470521 0 0.24868712167772811 -0.061280815743001343 0 0.24133719530436051 -0.081014374877977247 0 0.24868712167772811 -0.061280815743001343 0 0.23450960799295029 -0.066059006577151358 0 0.24133719530436051 -0.081014374877977247 0 0.23256452715304141 -0.088552504835684026 0 0.23450960799295029 -0.066059006577151358 0 0.24133719530436051 -0.081014374877977247 0 0.24133719530436051 -0.081014374877977247 0 0.233987268930993 -0.10074793401295309 0 0.24133719530436051 -0.081014374877977247 0 0.24869579831717939 -0.091408590214736116 0 0.233987268930993 -0.10074793401295309 0 0.25346028161667972 -0.074294168239470521 0 0.24133719530436051 -0.081014374877977247 0 0.24869579831717939 -0.091408590214736116 0 0.23256452715304141 -0.088552504835684026 0 0.24133719530436051 -0.081014374877977247 0 0.233987268930993 -0.10074793401295309 0 0.25625738108487128 -0.10587076039939911 0 0.24869579831717939 -0.091408590214736116 0 0.233987268930993 -0.10074793401295309 0 0.25625738108487128 -0.10587076039939911 0 0.233987268930993 -0.10074793401295309 0 0.25476581338464049 -0.1098221843338807 0 0.233987268930993 -0.10074793401295309 0 0.23326609522571429 -0.1026841879611905 0 0.25625738108487128 -0.10587076039939911 0 0.25476581338464049 -0.1098221843338807 0 0.233987268930993 -0.10074793401295309 0 0.23256452715304141 -0.088552504835684026 0 0.2298810902459541 -0.09980338373993404 0 0.233987268930993 -0.10074793401295309 0 0.22188750035647581 -0.093000449140385341 0 0.23256452715304141 -0.088552504835684026 0 0.2298810902459541 -0.09980338373993404 0 0.2298810902459541 -0.09980338373993404 0 0.233987268930993 -0.10074793401295309 0 0.23326609522571429 -0.1026841879611905 0 0.2298810902459541 -0.09980338373993404 0 0.233987268930993 -0.10074793401295309 0 0.2298810902459541 -0.09980338373993404 0 0.23326609522571429 -0.1026841879611905 0 0.2298810902459541 -0.09980338373993404 0 0.23326609522571429 -0.1026841879611905 0 0.22074480734754809 -0.1076605408865807 0 0.233987268930993 -0.10074793401295309 0 0.23326609522571429 -0.1026841879611905 0 0.2298810902459541 -0.09980338373993404 0 0.22074480734754809 -0.1076605408865807 0 0.21942445850559081 -0.098257724903459048 0 0.22074480734754809 -0.1076605408865807 0 0.21942445850559081 -0.098257724903459048 0 0.22188750035647581 -0.093000449140385341 0 0.2298810902459541 -0.09980338373993404 0 0.21942445850559081 -0.098257724903459048 0 0.22188750035647581 -0.093000449140385341 0 0.2298810902459541 -0.09980338373993404 0 0.21825173791257069 -0.089906238095298241 0 0.21942445850559081 -0.098257724903459048 0 0.2298810902459541 -0.09980338373993404 0 0.21942445850559081 -0.098257724903459048 0 0.22188750035647581 -0.093000449140385341 0 0.21942445850559081 -0.098257724903459048 0 0.23326609522571429 -0.1026841879611905 0 0.2256971892214488 -0.1230056778149491 0 0.23326609522571429 -0.1026841879611905 0 0.22074480734754809 -0.1076605408865807 0 0.2256971892214488 -0.1230056778149491 0 0.25593704552769991 -0.12197827163917919 0 0.23326609522571429 -0.1026841879611905 0 0.2256971892214488 -0.1230056778149491 0 0.25476581338464049 -0.1098221843338807 0 0.25606864185944761 -0.11970051334451839 0 0.23326609522571429 -0.1026841879611905 0 0.25606864185944761 -0.11970051334451839 0 0.25593704552769991 -0.12197827163917919 0 0.23326609522571429 -0.1026841879611905 0 0.25593704552769991 -0.12197827163917919 0 0.23326609522571429 -0.1026841879611905 0 0.25593704552769991 -0.12197827163917919 0 0.2256971892214488 -0.1230056778149491 0 0.2365379203642981 -0.136764961259739 0 0.25593704552769991 -0.12197827163917919 0 0.25438164730720608 -0.14890015579165641 0 0.2365379203642981 -0.136764961259739 0 0.25438164730720608 -0.14890015579165641 0 0.2365379203642981 -0.136764961259739 0 0.22854543654795431 -0.1466135333842028 0 0.25438164730720608 -0.14890015579165641 0 0.22854543654795431 -0.1466135333842028 0 0.2380346068473895 -0.16155765861627799 0 0.2365379203642981 -0.136764961259739 0 0.22854543654795431 -0.1466135333842028 0 0.21812828321718319 -0.14332716766870779 0 0.22854543654795431 -0.1466135333842028 0 0.2257427877902356 -0.15869612564347019 0 0.2380346068473895 -0.16155765861627799 0 0.22854543654795431 -0.1466135333842028 0 0.21812828321718319 -0.14332716766870779 0 0.2257427877902356 -0.15869612564347019 0 0.2256971892214488 -0.1230056778149491 0 0.21812828321718319 -0.14332716766870779 0 0.2256971892214488 -0.1230056778149491 0 0.2365379203642981 -0.136764961259739 0 0.21812828321718319 -0.14332716766870779 0 0.20837827883485879 -0.12183540493226511 0 0.21812828321718319 -0.14332716766870779 0 0.20837827883485879 -0.12183540493226511 0 0.21812828321718319 -0.14332716766870779 0 0.1978255141940661 -0.14435990802169371 0 0.20837827883485879 -0.12183540493226511 0 0.2256971892214488 -0.1230056778149491 0 0.21812828321718319 -0.14332716766870779 0 0.21812828321718319 -0.14332716766870779 0 0.21198320906624871 -0.15982586139517191 0 0.21812828321718319 -0.14332716766870779 0 0.1978255141940661 -0.14435990802169371 0 0.21198320906624871 -0.15982586139517191 0 0.21812828321718319 -0.14332716766870779 0 0.21198320906624871 -0.15982586139517191 0 0.2257427877902356 -0.15869612564347019 0 0.1978255141940661 -0.14435990802169371 0 0.21198320906624871 -0.15982586139517191 0 0.1978255141940661 -0.14435990802169371 0 0.18130428759668141 -0.1471636482334234 0 0.18527724807290649 -0.17114373848074951 0 0.1978255141940661 -0.14435990802169371 0 0.18709971216427301 -0.13264297559847851 0 0.18130428759668141 -0.1471636482334234 0 0.20837827883485879 -0.12183540493226511 0 0.1978255141940661 -0.14435990802169371 0 0.1964870301298835 -0.1289433894239303 0 0.20837827883485879 -0.12183540493226511 0 0.1978255141940661 -0.14435990802169371 0 0.1978255141940661 -0.14435990802169371 0 0.18709971216427301 -0.13264297559847851 0 0.1978255141940661 -0.14435990802169371 0 0.1964870301298835 -0.1289433894239303 0 0.18709971216427301 -0.13264297559847851 0 0.1926446153263375 -0.1169352691432826 0 0.1964870301298835 -0.1289433894239303 0 0.18709971216427301 -0.13264297559847851 0 0.20096225611841029 -0.17892789997090119 0 0.19090639071788951 -0.187158071403219 0 0.18527724807290649 -0.17114373848074951 0 0.20096225611841029 -0.17892789997090119 0 0.19090639071788951 -0.187158071403219 0 0.20537566822062769 -0.1922307104034913 0 0.1978255141940661 -0.14435990802169371 0 0.21017288372178919 -0.164686340320225 0 0.18527724807290649 -0.17114373848074951 0 0.20096225611841029 -0.17892789997090119 0 0.21017288372178919 -0.164686340320225 0 0.18527724807290649 -0.17114373848074951 0 0.1978255141940661 -0.14435990802169371 0 0.18527724807290649 -0.17114373848074951 0 0.1978255141940661 -0.14435990802169371 0 0.21017288372178919 -0.164686340320225 0 0.21198320906624871 -0.15982586139517191 0 0.21017288372178919 -0.164686340320225 0 0.21198320906624871 -0.15982586139517191 0 0.23162702996623441 -0.1812848927458913 0 0.21017288372178919 -0.164686340320225 0 0.21198320906624871 -0.15982586139517191 0 0.20096225611841029 -0.17892789997090119 0 0.21017288372178919 -0.164686340320225 0 0.2139390412879516 -0.18164105831027419 0 0.21017288372178919 -0.164686340320225 0 0.2139390412879516 -0.18164105831027419 0 0.23162702996623441 -0.1812848927458913 0 0.20096225611841029 -0.17892789997090119 0 0.2139390412879516 -0.18164105831027419 0 0.20537566822062769 -0.1922307104034913 0 0.2139390412879516 -0.18164105831027419 0 0.23162702996623441 -0.1812848927458913 0 0.22074202105923499 -0.1937488421367537 0 0.23162702996623441 -0.1812848927458913 0 0.2257427877902356 -0.15869612564347019 0 0.2380346068473895 -0.16155765861627799 0 0.21198320906624871 -0.15982586139517191 0 0.23162702996623441 -0.1812848927458913 0 0.21198320906624871 -0.15982586139517191 0 0.23162702996623441 -0.1812848927458913 0 0.2257427877902356 -0.15869612564347019 0 0.25282624908671331 -0.1758220399441334 0 0.25438164730720608 -0.14890015579165641 0 0.2380346068473895 -0.16155765861627799 0 0.25127085086622042 -0.20274392409661049 0 0.25282624908671331 -0.1758220399441334 0 0.23162702996623441 -0.1812848927458913 0 0.25282624908671331 -0.1758220399441334 0 0.23162702996623441 -0.1812848927458913 0 0.2380346068473895 -0.16155765861627799 0 0.25127085086622042 -0.20274392409661049 0 0.23162702996623441 -0.1812848927458913 0 0.25127085086622042 -0.20274392409661049 0 0.23162702996623441 -0.1812848927458913 0 0.23360533010072371 -0.2017177583664142 0 0.24847730535194609 -0.21581642753600219 0 0.24210732721692441 -0.2079723720556674 0 0.23795352957396371 -0.22615044700104359 0 0.24210732721692441 -0.2079723720556674 0 0.22792827518596251 -0.21470707437850209 0 0.23795352957396371 -0.22615044700104359 0 0.25127085086622042 -0.20274392409661049 0 0.24826203757697859 -0.20904635146702549 0 0.24210732721692441 -0.2079723720556674 0 0.25127085086622042 -0.20274392409661049 0 0.24210732721692441 -0.2079723720556674 0 0.23360533010072371 -0.2017177583664142 0 0.24826203757697859 -0.20904635146702549 0 0.24847730535194609 -0.21581642753600219 0 0.24210732721692441 -0.2079723720556674 0 0.25210222211090488 -0.21027452840459429 0 0.24826203757697859 -0.20904635146702549 0 0.24847730535194609 -0.21581642753600219 0 0.24210732721692441 -0.2079723720556674 0 0.22792827518596251 -0.21470707437850209 0 0.23360533010072371 -0.2017177583664142 0 0.22792827518596251 -0.21470707437850209 0 0.22336375227494701 -0.20467079224431689 0 0.23360533010072371 -0.2017177583664142 0 0.22792827518596251 -0.21470707437850209 0 0.2192604617563326 -0.2114425871663293 0 0.21591617247806891 -0.22067902088207639 0 0.22792827518596251 -0.21470707437850209 0 0.2192604617563326 -0.2114425871663293 0 0.22336375227494701 -0.20467079224431689 0 0.2192604617563326 -0.2114425871663293 0 0.22336375227494701 -0.20467079224431689 0 0.21443274102007101 -0.20382666944347319 0 0.23162702996623441 -0.1812848927458913 0 0.22074202105923499 -0.1937488421367537 0 0.23360533010072371 -0.2017177583664142 0 0.22336375227494701 -0.20467079224431689 0 0.22074202105923499 -0.1937488421367537 0 0.23360533010072371 -0.2017177583664142 0 0.22336375227494701 -0.20467079224431689 0 0.22074202105923499 -0.1937488421367537 0 0.21443274102007101 -0.20382666944347319 0 0.2589261248120231 -0.2398023966073263 0 0.24378841454228789 -0.25769232034337658 0 0.22722602720806551 -0.24815052362441711 0 0.2589261248120231 -0.2398023966073263 0 0.23795352957396371 -0.22615044700104359 0 0.22722602720806551 -0.24815052362441711 0 0.2589261248120231 -0.2398023966073263 0 0.24847730535194609 -0.21581642753600219 0 0.23795352957396371 -0.22615044700104359 0 0.22792827518596251 -0.21470707437850209 0 0.22214733347817331 -0.23067821493665641 0 0.21591617247806891 -0.22067902088207639 0 0.22792827518596251 -0.21470707437850209 0 0.23795352957396371 -0.22615044700104359 0 0.22214733347817331 -0.23067821493665641 0 0.23795352957396371 -0.22615044700104359 0 0.22214733347817331 -0.23067821493665641 0 0.22722602720806551 -0.24815052362441711 0 0.22214733347817331 -0.23067821493665641 0 0.22722602720806551 -0.24815052362441711 0 0.21159500278731691 -0.24225290335080579 0 0.21094443410414671 -0.25630480773426262 0 0.22722602720806551 -0.24815052362441711 0 0.21159500278731691 -0.24225290335080579 0 0.21094443410414671 -0.25630480773426262 0 0.19976316981452161 -0.25032016006862512 0 0.21159500278731691 -0.24225290335080579 0 0.19976316981452161 -0.25032016006862512 0 0.21159500278731691 -0.24225290335080579 0 0.20051422879193009 -0.23816697192859279 0 0.21159500278731691 -0.24225290335080579 0 0.20860341735474361 -0.2298883538162142 0 0.20051422879193009 -0.23816697192859279 0 0.22214733347817331 -0.23067821493665641 0 0.21159500278731691 -0.24225290335080579 0 0.20860341735474361 -0.2298883538162142 0 0.22214733347817331 -0.23067821493665641 0 0.20860341735474361 -0.2298883538162142 0 0.21591617247806891 -0.22067902088207639 0 0.20860341735474361 -0.2298883538162142 0 0.21591617247806891 -0.22067902088207639 0 0.20421737519097791 -0.22101437766643289 0 0.20421737519097791 -0.22101437766643289 0 0.19651133810559579 -0.22585582100076659 0 0.19817526678082331 -0.2127492732727424 0 0.20860341735474361 -0.2298883538162142 0 0.20421737519097791 -0.22101437766643289 0 0.19651133810559579 -0.22585582100076659 0 0.19651133810559579 -0.22585582100076659 0 0.18641841265563011 -0.21361049898042089 0 0.1867969425162315 -0.229121942781537 0 0.19651133810559579 -0.22585582100076659 0 0.19277467390617481 -0.23646172739131219 0 0.1867969425162315 -0.229121942781537 0 0.19651133810559579 -0.22585582100076659 0 0.20051422879193009 -0.23816697192859279 0 0.19277467390617481 -0.23646172739131219 0 0.20860341735474361 -0.2298883538162142 0 0.19651133810559579 -0.22585582100076659 0 0.20051422879193009 -0.23816697192859279 0 0.20051422879193009 -0.23816697192859279 0 0.19277467390617481 -0.23646172739131219 0 0.19505688622236489 -0.2423955614927957 0 0.19277467390617481 -0.23646172739131219 0 0.19505688622236489 -0.2423955614927957 0 0.18717547237683341 -0.2446333865826531 0 0.19277467390617481 -0.23646172739131219 0 0.18717547237683341 -0.2446333865826531 0 0.1867969425162315 -0.229121942781537 0 0.19976316981452161 -0.25032016006862512 0 0.19505688622236489 -0.2423955614927957 0 0.18717547237683341 -0.2446333865826531 0 0.19976316981452161 -0.25032016006862512 0 0.20051422879193009 -0.23816697192859279 0 0.19505688622236489 -0.2423955614927957 0 0.20537566822062769 -0.1922307104034913 0 0.21443274102007101 -0.20382666944347319 0 0.20366314413378761 -0.20440061886232591 0 0.2139390412879516 -0.18164105831027419 0 0.22074202105923499 -0.1937488421367537 0 0.20537566822062769 -0.1922307104034913 0 0.22074202105923499 -0.1937488421367537 0 0.20537566822062769 -0.1922307104034913 0 0.21443274102007101 -0.20382666944347319 0 0.2192604617563326 -0.2114425871663293 0 0.21443274102007101 -0.20382666944347319 0 0.2091984249149654 -0.2124105136882633 0 0.2192604617563326 -0.2114425871663293 0 0.21591617247806891 -0.22067902088207639 0 0.2091984249149654 -0.2124105136882633 0 0.21591617247806891 -0.22067902088207639 0 0.20421737519097791 -0.22101437766643289 0 0.2091984249149654 -0.2124105136882633 0 0.20421737519097791 -0.22101437766643289 0 0.2091984249149654 -0.2124105136882633 0 0.19817526678082331 -0.2127492732727424 0 0.2091984249149654 -0.2124105136882633 0 0.20366314413378761 -0.20440061886232591 0 0.19817526678082331 -0.2127492732727424 0 0.21443274102007101 -0.20382666944347319 0 0.2091984249149654 -0.2124105136882633 0 0.20366314413378761 -0.20440061886232591 0 0.20366314413378761 -0.20440061886232591 0 0.19817526678082331 -0.2127492732727424 0 0.19190770208398589 -0.20000127734805631 0 0.19651133810559579 -0.22585582100076659 0 0.19817526678082331 -0.2127492732727424 0 0.18641841265563011 -0.21361049898042089 0 0.19817526678082331 -0.2127492732727424 0 0.19190770208398589 -0.20000127734805631 0 0.18641841265563011 -0.21361049898042089 0 0.20537566822062769 -0.1922307104034913 0 0.20366314413378761 -0.20440061886232591 0 0.19190770208398589 -0.20000127734805631 0 0.19090639071788951 -0.187158071403219 0 0.20537566822062769 -0.1922307104034913 0 0.19190770208398589 -0.20000127734805631 0 0.17272898195174219 -0.19792756893980309 0 0.14069816966995011 -0.20202395223853051 0 0.1618232650889703 -0.17648686736922331 0 0.19090639071788951 -0.187158071403219 0 0.19190770208398589 -0.20000127734805631 0 0.17272898195174219 -0.19792756893980309 0 0.17272898195174219 -0.19792756893980309 0 0.1601807158305778 -0.22471139939885679 0 0.14069816966995011 -0.20202395223853051 0 0.19190770208398589 -0.20000127734805631 0 0.17272898195174219 -0.19792756893980309 0 0.18641841265563011 -0.21361049898042089 0 0.17272898195174219 -0.19792756893980309 0 0.18641841265563011 -0.21361049898042089 0 0.17653688311554611 -0.22328879924491279 0 0.17272898195174219 -0.19792756893980309 0 0.1601807158305778 -0.22471139939885679 0 0.17272898195174219 -0.19792756893980309 0 0.17653688311554611 -0.22328879924491279 0 0.1601807158305778 -0.22471139939885679 0 0.18717547237683341 -0.2446333865826531 0 0.18201507470709061 -0.23710345500034941 0 0.17145580717169789 -0.24988436124947211 0 0.18717547237683341 -0.2446333865826531 0 0.1867969425162315 -0.229121942781537 0 0.18717547237683341 -0.2446333865826531 0 0.18201507470709061 -0.23710345500034941 0 0.1867969425162315 -0.229121942781537 0 0.18717547237683341 -0.2446333865826531 0 0.18201507470709061 -0.23710345500034941 0 0.18201507470709061 -0.23710345500034941 0 0.16856903894261929 -0.23728558649836021 0 0.17145580717169789 -0.24988436124947211 0 0.18201507470709061 -0.23710345500034941 0 0.17653688311554611 -0.22328879924491279 0 0.16856903894261929 -0.23728558649836021 0 0.18201507470709061 -0.23710345500034941 0 0.1867969425162315 -0.229121942781537 0 0.17653688311554611 -0.22328879924491279 0 0.18641841265563011 -0.21361049898042089 0 0.1867969425162315 -0.229121942781537 0 0.17653688311554611 -0.22328879924491279 0 0.18641841265563011 -0.21361049898042089 0 0.1867969425162315 -0.229121942781537 0 0.17653688311554611 -0.22328879924491279 0 0.1601807158305778 -0.22471139939885679 0 0.16856903894261929 -0.23728558649836021 0 0.14763244970941339 -0.2514952298579104 0 0.16856903894261929 -0.23728558649836021 0 0.17145580717169789 -0.24988436124947211 0 0.14763244970941339 -0.2514952298579104 0 0.1601807158305778 -0.22471139939885679 0 0.16856903894261929 -0.23728558649836021 0 0.14763244970941339 -0.2514952298579104 0 0.1601807158305778 -0.22471139939885679 0 0.14763244970941339 -0.2514952298579104 0 0.1601807158305778 -0.22471139939885679 0 0.13828204630013549 -0.22505607868865191 0 0.14763244970941339 -0.2514952298579104 0 0.1176184733370121 -0.23191817332184439 0 0.13828204630013549 -0.22505607868865191 0 0.14763244970941339 -0.2514952298579104 0 0.1168930510602708 -0.2540822323424185 0 0.1176184733370121 -0.23191817332184439 0 0.1601807158305778 -0.22471139939885679 0 0.13828204630013549 -0.22505607868865191 0 0.14069816966995011 -0.20202395223853051 0 0.1126936240065689 -0.20496527461247269 0 0.13828204630013549 -0.22505607868865191 0 0.14069816966995011 -0.20202395223853051 0 0.12445294243825961 -0.18866003707216661 0 0.14069816966995011 -0.20202395223853051 0 0.13795597834963799 -0.17348837310841561 0 0.12445294243825961 -0.18866003707216661 0 0.1126936240065689 -0.20496527461247269 0 0.14069816966995011 -0.20202395223853051 0 0.14069816966995011 -0.20202395223853051 0 0.13795597834963799 -0.17348837310841561 0 0.1618232650889703 -0.17648686736922331 0 0.13795597834963799 -0.17348837310841561 0 0.13942846715232171 -0.14968393007058331 0 0.1618232650889703 -0.17648686736922331 0 0.13942846715232171 -0.14968393007058331 0 0.16474793275107991 -0.15158124842180759 0 0.1618232650889703 -0.17648686736922331 0 0.1196510837692747 -0.1546236582820544 0 0.13795597834963799 -0.17348837310841561 0 0.13942846715232171 -0.14968393007058331 0 0.12103757227390929 -0.13449858459586281 0 0.1196510837692747 -0.1546236582820544 0 0.13942846715232171 -0.14968393007058331 0 0.12103757227390929 -0.13449858459586281 0 0.13942846715232171 -0.14968393007058331 0 0.14870574120419541 -0.12771231388556259 0 0.12103757227390929 -0.13449858459586281 0 0.13313604000000179 -0.1187498414797455 0 0.14870574120419541 -0.12771231388556259 0 0.12103757227390929 -0.13449858459586281 0 0.14870574120419541 -0.12771231388556259 0 0.13942846715232171 -0.14968393007058331 0 0.14870574120419541 -0.12771231388556259 0 0.16474793275107991 -0.15158124842180759 0 0.1763739101344812 -0.120926043175262 0 0.14870574120419541 -0.12771231388556259 0 0.1715710308010833 -0.13609037064438639 0 0.14870574120419541 -0.12771231388556259 0 0.16474793275107991 -0.15158124842180759 0 0.1715710308010833 -0.13609037064438639 0 0.1763739101344812 -0.120926043175262 0 0.1715710308010833 -0.13609037064438639 0 0.18709971216427301 -0.13264297559847851 0 0.1715710308010833 -0.13609037064438639 0 0.18709971216427301 -0.13264297559847851 0 0.18130428759668141 -0.1471636482334234 0 0.1763739101344812 -0.120926043175262 0 0.18709971216427301 -0.13264297559847851 0 0.16474793275107991 -0.15158124842180759 0 0.1715710308010833 -0.13609037064438639 0 0.18130428759668141 -0.1471636482334234 0 0.16474793275107991 -0.15158124842180759 0 0.18130428759668141 -0.1471636482334234 0 0.18527724807290649 -0.17114373848074951 0 0.17272898195174219 -0.19792756893980309 0 0.18527724807290649 -0.17114373848074951 0 0.17272898195174219 -0.19792756893980309 0 0.18527724807290649 -0.17114373848074951 0 0.1618232650889703 -0.17648686736922331 0 0.19090639071788951 -0.187158071403219 0 0.17272898195174219 -0.19792756893980309 0 0.18527724807290649 -0.17114373848074951 0 0.16474793275107991 -0.15158124842180759 0 0.18527724807290649 -0.17114373848074951 0 0.1618232650889703 -0.17648686736922331 0 
</DataArray>
</Points>
<Cells>
<DataArray type="UInt32" Name="connectivity" format="ascii">
0 1 2 3 4 5 6 7 8 9 10 11 12 13 14 15 16 17 18 19 20 21 22 23 24 25 26 27 28 29 30 31 32 33 34 35 36 37 38 39 40 41 42 43 44 45 46 47 48 49 50 51 52 53 54 55 56 57 58 59 60 61 62 63 64 65 66 67 68 69 70 71 72 73 74 75 76 77 78 79 80 81 82 83 84 85 86 87 88 89 90 91 92 93 94 95 96 97 98 99 100 101 102 103 104 105 106 107 108 109 110 111 112 113 114 115 116 117 118 119 120 121 122 123 124 125 126 127 128 129 130 131 132 133 134 135 136 137 138 139 140 141 142 143 144 145 146 147 148 149 150 151 152 153 154 155 156 157 158 159 160 161 162 163 164 165 166 167 168 169 170 171 172 173 174 175 176 177 178 179 180 181 182 183 184 185 186 187 188 189 190 191 192 193 194 195 196 197 198 199 200 201 202 203 204 205 206 207 208 209 210 211 212 213 214 215 216 217 218 219 220 221 222 223 224 225 226 227 228 229 230 231 232 233 234 235 236 237 238 239 240 241 242 243 244 245 246 247 248 249 250 251 252 253 254 255 256 257 258 259 260 261 262 263 264 265 266 267 268 269 270 271 272 273 274 275 276 277 278 279 280 281 282 283 284 285 286 287 288 289 290 291 292 293 294 295 296 297 298 299 300 301 302 303 304 305 306 307 308 309 310 311 312 313 314 315 316 317 318 319 320 321 322 323 324 325 326 327 328 329 330 331 332 333 334 335 336 337 338 339 340 341 342 343 344 345 346 347 348 349 350 351 352 353 354 355 356 357 358 359 360 361 362 363 364 365 366 367 368 369 370 371 372 373 374 375 376 377 378 379 380 381 382 383 384 385 386 387 388 389 390 391 392 393 394 395 396 397 398 399 400 401 402 403 404 405 406 407 408 409 410 411 412 413 414 415 416 417 418 419 420 421 422 423 424 425 426 427 428 429 430 431 432 433 434 435 436 437 438 439 440 441 442 443 444 445 446 447 448 449 450 451 452 453 454 455 456 457 458 459 460 461 462 463 464 465 466 467 468 469 470 471 472 473 474 475 476 477 478 479 480 481 482 483 484 485 486 487 488 489 490 491 492 493 494 495 496 497 498 499 500 501 502 503 504 505 506 507 508 509 510 511 512 513 514 515 516 517 518 519 520 521 522 523 524 525 526 527 528 529 530 531 532 533 534 535 536 537 538 539 540 541 542 543 544 545 546 547 548 549 550 551 552 553 554 555 556 557 558 559 560 561 562 563 564 565 566 567 568 569 570 571 572 573 574 575 576 577 578 579 580 581 582 583 584 585 586 587 588 589 590 591 592 593 594 595 596 597 598 599 600 601 602 603 604 605 606 607 608 609 610 611 612 613 614 615 616 617 618 619 620 621 622 623 624 625 626 627 628 629 630 631 632 633 634 635 636 637 638 639 640 641 642 643 644 645 646 647 648 649 650 651 652 653 654 655 656 657 658 659 660 661 662 663 664 665 666 667 668 669 670 671 672 673 674 675 676 677 678 679 680 681 682 683 684 685 686 687 688 689 690 691 692 693 694 695 696 697 698 699 700 701 702 703 704 705 706 707 708 709 710 711 712 713 714 715 716 717 718 719 720 721 722 723 724 725 726 727 728 729 730 731 732 733 734 735 736 737 738 739 740 741 742 743 744 745 746 747 748 749 750 751 752 753 754 755 756 757 758 759 760 761 762 763 764 765 766 767 768 769 770 771 772 773 774 775 776 777 778 779 780 781 782 783 784 785 786 787 788 789 790 791 792 793 794 795 796 797 798 799 800 801 802 803 804 805 806 807 808 809 810 811 812 813 814 815 816 817 818 819 820 821 822 823 824 825 826 827 828 829 830 831 832 833 834 835 836 837 838 839 840 841 842 843 844 845 846 847 848 849 850 851 852 853 854 855 856 857 858 859 860 861 862 863 864 865 866 867 868 869 870 871 872 873 874 875 876 877 878 879 880 881 882 883 884 885 886 887 888 889 890 891 892 893 894 895 896 897 898 899 900 901 902 903 904 905 906 907 908 909 910 911 912 913 914 915 916 917 918 919 920 921 922 923 924 925 926 927 928 929 930 931 932 933 934 935 936 937 938 939 940 941 942 943 944 945 946 947 948 949 950 951 952 953 954 955 956 957 958 959 960 961 962 963 964 965 966 967 968 969 970 971 972 973 974 975 976 977 978 979 980 981 982 983 984 985 986 987 988 989 990 991 992 993 994 995 996 997 998 999 1000 1001 1002 1003 1004 1005 1006 1007 1008 1009 1010 1011 1012 1013 1014 1015 1016 1017 1018 1019 1020 1021 1022 1023 1024 1025 1026 1027 1028 1029 1030 1031 1032 1033 1034 1035 1036 1037 1038 1039 1040 1041 1042 1043 1044 1045 1046 1047 1048 1049 1050 1051 1052 1053 1054 1055 1056 1057 1058 1059 1060 1061 1062 1063 1064 1065 1066 1067 1068 1069 1070 1071 1072 1073 1074 1075 1076 1077 1078 1079 1080 1081 1082 1083 1084 1085 1086 1087 1088 1089 1090 1091 1092 1093 1094 1095 1096 1097 1098 1099 1100 1101 1102 1103 1104 1105 1106 1107 1108 1109 1110 1111 1112 1113 1114 1115 1116 1117 1118 1119 1120 1121 1122 1123 1124 1125 1126 1127 1128 1129 1130 1131 1132 1133 1134 1135 1136 1137 1138 1139 1140 1141 1142 1143 1144 1145 1146 1147 1148 1149 1150 1151 1152 1153 1154 1155 1156 1157 1158 1159 1160 1161 1162 1163 1164 1165 1166 1167 1168 1169 1170 1171 1172 1173 1174 1175 1176 1177 1178 1179 1180 1181 1182 1183 1184 1185 1186 1187 1188 1189 1190 1191 1192 1193 1194 1195 1196 1197 1198 1199 1200 1201 1202 1203 1204 1205 1206 1207 1208 1209 1210 1211 1212 1213 1214 1215 1216 1217 1218 1219 1220 1221 1222 1223 1224 1225 1226 1227 1228 1229 1230 1231 1232 1233 1234 1235 1236 1237 1238 1239 1240 1241 1242 1243 1244 1245 1246 1247 1248 1249 1250 1251 1252 1253 1254 1255 1256 1257 1258 1259 1260 1261 1262 1263 1264 1265 1266 1267 1268 1269 1270 1271 1272 1273 1274 1275 1276 1277 1278 1279 1280 1281 1282 1283 1284 1285 1286 1287 1288 1289 1290 1291 1292 1293 1294 1295 1296 1297 1298 1299 1300 1301 1302 1303 1304 1305 1306 1307 1308 1309 1310 1311 1312 1313 1314 1315 1316 1317 1318 1319 1320 1321 1322 1323 1324 1325 1326 1327 1328 1329 1330 1331 1332 1333 1334 1335 1336 1337 1338 1339 1340 1341 1342 1343 1344 1345 1346 1347 1348 1349 1350 1351 1352 1353 1354 1355 1356 1357 1358 1359 1360 1361 1362 1363 1364 1365 1366 1367 1368 1369 1370 1371 1372 1373 1374 1375 1376 1377 1378 1379 1380 1381 1382 1383 1384 1385 1386 1387 1388 1389 1390 1391 1392 1393 1394 1395 1396 1397 1398 1399 1400 1401 1402 1403 1404 1405 1406 1407 1408 1409 1410 1411 1412 1413 1414 1415 1416 1417 1418 1419 1420 1421 1422 1423 1424 1425 1426 1427 1428 1429 1430 1431 1432 1433 1434 1435 1436 1437 1438 1439 1440 1441 1442 1443 1444 1445 1446 1447 1448 1449 1450 1451 1452 1453 1454 1455 1456 1457 1458 1459 1460 1461 1462 1463 1464 1465 1466 1467 1468 1469 1470 1471 1472 1473 1474 1475 1476 1477 1478 1479 1480 1481 1482 1483 1484 1485 1486 1487 1488 1489 1490 1491 1492 1493 1494 1495 1496 1497 1498 1499 1500 1501 1502 1503 1504 1505 1506 1507 1508 1509 1510 1511 1512 1513 1514 1515 1516 1517 1518 1519 1520 1521 1522 1523 1524 1525 1526 1527 1528 1529 1530 1531 1532 1533 1534 1535 1536 1537 1538 1539 1540 1541 1542 1543 1544 1545 1546 1547 1548 1549 1550 1551 1552 1553 1554 1555 1556 1557 1558 1559 1560 1561 1562 1563 1564 1565 1566 1567 1568 1569 1570 1571 1572 1573 1574 1575 1576 1577 1578 1579 1580 1581 1582 1583 1584 1585 1586 1587 1588 1589 1590 1591 1592 1593 1594 1595 1596 1597 1598 1599 1600 1601 1602 1603 1604 1605 1606 1607 1608 1609 1610 1611 1612 1613 1614 1615 1616 1617 1618 1619 1620 1621 1622 1623 1624 1625 1626 1627 1628 1629 1630 1631 1632 1633 1634 1635 1636 1637 1638 1639 1640 1641 1642 1643 1644 1645 1646 1647 1648 1649 1650 1651 1652 1653 1654 1655 1656 1657 1658 1659 1660 1661 1662 1663 1664 1665 1666 1667 1668 1669 1670 1671 1672 1673 1674 1675 1676 1677 1678 1679 1680 1681 1682 1683 1684 1685 1686 1687 1688 1689 1690 1691 1692 1693 1694 1695 1696 1697 1698 1699 1700 1701 1702 1703 1704 1705 1706 1707 1708 1709 1710 1711 1712 1713 1714 1715 1716 1717 1718 1719 1720 1721 1722 1723 1724 1725 1726 1727 1728 1729 1730 1731 1732 1733 1734 1735 1736 1737 1738 1739 1740 1741 1742 1743 1744 1745 1746 1747 1748 1749 1750 1751 1752 1753 1754 1755 1756 1757 1758 1759 1760 1761 1762 1763 1764 1765 1766 1767 1768 1769 1770 1771 1772 1773 1774 1775 1776 1777 1778 1779 1780 1781 1782 1783 1784 1785 1786 1787 1788 1789 1790 1791 1792 1793 1794 1795 1796 1797 1798 1799 1800 1801 1802 1803 1804 1805 1806 1807 1808 1809 1810 1811 1812 1813 1814 1815 1816 1817 1818 1819 1820 1821 1822 1823 1824 1825 1826 1827 1828 1829 1830 1831 1832 1833 1834 1835 1836 1837 1838 1839 1840 1841 1842 1843 1844 1845 1846 1847 1848 1849 1850 1851 1852 1853 1854 1855 1856 1857 1858 1859 1860 1861 1862 1863 1864 1865 1866 1867 1868 1869 1870 1871 1872 1873 1874 1875 1876 1877 1878 1879 1880 1881 1882 1883 1884 1885 1886 1887 1888 1889 1890 1891 1892 1893 1894 1895 1896 1897 1898 1899 1900 1901 1902 1903 1904 1905 1906 1907 1908 1909 1910 1911 1912 1913 1914 1915 1916 1917 1918 1919 1920 1921 1922 1923 1924 1925 1926 1927 1928 1929 1930 1931 1932 1933 1934 1935 1936 1937 1938 1939 1940 1941 1942 1943 1944 1945 1946 1947 1948 1949 1950 1951 1952 1953 1954 1955 1956 1957 1958 1959 1960 1961 1962 1963 1964 1965 1966 1967 1968 1969 1970 1971 1972 1973 1974 1975 1976 1977 1978 1979 1980 1981 1982 1983 1984 1985 1986 1987 1988 1989 1990 1991 1992 1993 1994 1995 1996 1997 1998 1999 2000 2001 2002 2003 2004 2005 2006 2007 2008 2009 2010 2011 2012 2013 2014 2015 2016 2017 2018 2019 2020 2021 2022 2023 2024 2025 2026 2027 2028 2029 2030 2031 2032 2033 2034 2035 2036 2037 2038 2039 2040 2041 2042 2043 2044 2045 2046 2047 2048 2049 2050 2051 2052 2053 2054 2055 2056 2057 2058 2059 2060 2061 2062 2063 2064 2065 2066 2067 2068 2069 2070 2071 2072 2073 2074 2075 2076 2077 2078 2079 2080 2081 2082 2083 2084 2085 2086 2087 2088 2089 2090 2091 2092 2093 2094 2095 2096 2097 2098 2099 2100 2101 2102 2103 2104 2105 2106 2107 2108 2109 2110 2111 2112 2113 2114 2115 2116 2117 2118 2119 2120 2121 2122 2123 2124 2125 2126 2127 2128 2129 2130 2131 2132 2133 2134 2135 2136 2137 2138 2139 2140 2141 2142 2143 2144 2145 2146 2147 2148 2149 2150 2151 2152 2153 2154 2155 2156 2157 2158 2159 2160 2161 2162 2163 2164 2165 2166 2167 2168 2169 2170 2171 2172 2173 2174 2175 2176 2177 2178 2179 2180 2181 2182 2183 2184 2185 2186 2187 2188 2189 2190 2191 2192 2193 2194 2195 2196 2197 2198 2199 2200 2201 2202 2203 2204 2205 2206 2207 2208 2209 2210 2211 2212 2213 2214 2215 2216 2217 2218 2219 2220 2221 2222 2223 2224 2225 2226 2227 2228 2229 2230 2231 2232 2233 2234 2235 2236 2237 2238 2239 2240 2241 2242 2243 2244 2245 2246 2247 2248 2249 2250 2251 2252 2253 2254 2255 2256 2257 2258 2259 2260 2261 2262 2263 2264 2265 2266 2267 2268 2269 2270 2271 2272 2273 2274 2275 2276 2277 2278 2279 2280 2281 2282 2283 2284 2285 2286 2287 2288 2289 2290 2291 2292 2293 2294 2295 2296 2297 2298 2299 2300 2301 2302 2303 2304 2305 2306 2307 2308 2309 2310 2311 2312 2313 2314 2315 2316 2317 2318 2319 2320 2321 2322 2323 2324 2325 2326 2327 2328 2329 2330 2331 2332 2333 2334 2335 2336 2337 2338 2339 2340 2341 2342 2343 2344 2345 2346 2347 2348 2349 2350 2351 2352 2353 2354 2355 2356 2357 2358 2359 2360 2361 2362 2363 2364 2365 2366 2367 2368 2369 2370 2371 2372 2373 2374 2375 2376 2377 2378 2379 2380 2381 2382 2383 2384 2385 2386 2387 2388 2389 2390 2391 2392 2393 2394 2395 2396 2397 2398 2399 2400 2401 2402 2403 2404 2405 2406 2407 2408 2409 2410 2411 2412 2413 2414 2415 2416 2417 2418 2419 2420 2421 2422 2423 2424 2425 2426 2427 2428 2429 2430 2431 2432 2433 2434 2435 2436 2437 2438 2439 2440 2441 2442 2443 2444 2445 2446 2447 2448 2449 2450 2451 2452 2453 2454 2455 2456 2457 2458 2459 2460 2461 2462 2463 2464 2465 2466 2467 2468 2469 2470 2471 2472 2473 2474 2475 2476 2477 2478 2479 2480 2481 2482 2483 2484 2485 2486 2487 2488 2489 2490 2491 2492 2493 2494 2495 2496 2497 2498 2499 2500 2501 2502 2503 2504 2505 2506 2507 2508 2509 2510 2511 2512 2513 2514 2515 2516 2517 2518 2519 2520 2521 2522 2523 2524 2525 2526 2527 2528 2529 2530 2531 2532 2533 2534 2535 2536 2537 2538 2539 2540 2541 2542 2543 2544 2545 2546 2547 2548 2549 2550 2551 2552 2553 2554 2555 2556 2557 2558 2559 2560 2561 2562 2563 2564 2565 2566 2567 2568 2569 2570 2571 2572 2573 2574 2575 2576 2577 2578 2579 2580 2581 2582 2583 2584 2585 2586 2587 2588 2589 2590 2591 2592 2593 2594 2595 2596 2597 2598 2599 2600 2601 2602 2603 2604 2605 2606 2607 2608 2609 2610 2611 2612 2613 2614 2615 2616 2617 2618 2619 2620 2621 2622 2623 2624 2625 2626 2627 2628 2629 2630 2631 2632 2633 2634 2635 2636 2637 2638 2639 2640 2641 2642 2643 2644 2645 2646 2647 2648 2649 2650 2651 2652 2653 2654 2655 2656 2657 2658 2659 2660 2661 2662 2663 2664 2665 2666 2667 2668 2669 2670 2671 2672 2673 2674 2675 2676 2677 2678 2679 2680 2681 2682 2683 2684 2685 2686 2687 2688 2689 2690 2691 2692 2693 2694 2695 2696 2697 2698 2699 2700 2701 2702 2703 2704 2705 2706 2707 2708 2709 2710 2711 2712 2713 2714 2715 2716 2717 2718 2719 2720 2721 2722 2723 2724 2725 2726 2727 2728 2729 2730 2731 2732 2733 2734 2735 2736 2737 2738 2739 2740 2741 2742 2743 2744 2745 2746 2747 2748 2749 2750 2751 2752 2753 2754 2755 2756 2757 2758 2759 2760 2761 2762 2763 2764 2765 2766 2767 2768 2769 2770 2771 2772 2773 2774 2775 2776 2777 2778 2779 2780 2781 2782 2783 2784 2785 2786 2787 2788 2789 2790 2791 2792 2793 2794 2795 2796 2797 2798 2799 2800 2801 2802 2803 2804 2805 2806 2807 2808 2809 2810 2811 2812 2813 2814 2815 2816 2817 2818 2819 2820 2821 2822 2823 2824 2825 2826 2827 2828 2829 2830 2831 2832 2833 2834 2835 2836 2837 2838 2839 2840 2841 2842 2843 2844 2845 2846 2847 2848 2849 2850 2851 2852 2853 2854 2855 2856 2857 2858 2859 2860 2861 2862 2863 2864 2865 2866 2867 2868 2869 2870 2871 2872 2873 2874 2875 2876 2877 2878 2879 2880 2881 2882 2883 2884 2885 2886 2887 2888 2889 2890 2891 2892 2893 2894 2895 2896 2897 2898 2899 2900 2901 2902 2903 2904 2905 2906 2907 2908 2909 2910 2911 2912 2913 2914 2915 2916 2917 2918 2919 2920 2921 2922 2923 2924 2925 2926 2927 2928 2929 2930 2931 2932 2933 2934 2935 2936 2937 2938 2939 2940 2941 2942 2943 2944 2945 2946 2947 2948 2949 2950 2951 2952 2953 2954 2955 2956 2957 2958 2959 2960 2961 2962 2963 2964 2965 2966 2967 2968 2969 2970 2971 2972 2973 2974 2975 2976 2977 2978 2979 2980 2981 2982 2983 2984 2985 2986 2987 2988 2989 2990 2991 2992 2993 2994 2995 2996 2997 2998 2999 3000 3001 3002 3003 3004 3005 3006 3007 3008 3009 3010 3011 3012 3013 3014 3015 3016 3017 3018 3019 3020 3021 3022 3023 3024 3025 3026 3027 3028 3029 3030 3031 3032 3033 3034 3035 3036 3037 3038 3039 3040 3041 3042 3043 3044 3045 3046 3047 3048 3049 3050 3051 3052 3053 3054 3055 3056 3057 3058 3059 3060 3061 3062 3063 3064 3065 3066 3067 3068 3069 3070 3071 3072 3073 3074 3075 3076 3077 3078 3079 3080 3081 3082 3083 3084 3085 3086 3087 3088 3089 3090 3091 3092 3093 3094 3095 3096 3097 3098 3099 3100 3101 3102 3103 3104 3105 3106 3107 3108 3109 3110 3111 3112 3113 3114 3115 3116 3117 3118 3119 3120 3121 3122 3123 3124 3125 3126 3127 3128 3129 3130 3131 3132 3133 3134 3135 3136 3137 3138 3139 3140 3141 3142 3143 3144 3145 3146 3147 3148 3149 3150 3151 3152 3153 3154 3155 3156 3157 3158 3159 3160 3161 3162 3163 3164 3165 3166 3167 3168 3169 3170 3171 3172 3173 3174 3175 3176 3177 3178 3179 3180 3181 3182 3183 3184 3185 3186 3187 3188 3189 3190 3191 3192 3193 3194 3195 3196 3197 3198 3199 3200 3201 3202 3203 3204 3205 3206 3207 3208 3209 3210 3211 3212 3213 3214 3215 3216 3217 3218 3219 3220 3221 3222 3223 3224 3225 3226 3227 3228 3229 3230 3231 3232 3233 3234 3235 3236 3237 3238 3239 3240 3241 3242 3243 3244 3245 3246 3247 3248 3249 3250 3251 3252 3253 3254 3255 3256 3257 3258 3259 3260 3261 3262 3263 3264 3265 3266 3267 3268 3269 3270 3271 3272 3273 3274 3275 3276 3277 3278 3279 3280 3281 3282 3283 3284 3285 3286 3287 3288 3289 3290 3291 3292 3293 3294 3295 3296 3297 3298 3299 3300 3301 3302 3303 3304 3305 3306 3307 3308 3309 3310 3311 3312 3313 3314 3315 3316 3317 3318 3319 3320 3321 3322 3323 3324 3325 3326 3327 3328 3329 3330 3331 3332 3333 3334 3335 3336 3337 3338 3339 3340 3341 3342 3343 3344 3345 3346 3347 3348 3349 3350 3351 3352 3353 3354 3355 3356 3357 3358 3359 3360 3361 3362 3363 3364 3365 3366 3367 3368 3369 3370 3371 3372 3373 3374 3375 3376 3377 3378 3379 3380 3381 3382 3383 3384 3385 3386 3387 3388 3389 3390 3391 3392 3393 3394 3395 3396 3397 3398 3399 3400 3401 3402 3403 3404 3405 3406 3407 3408 3409 3410 3411 3412 3413 3414 3415 3416 3417 3418 3419 3420 3421 3422 3423 3424 3425 3426 3427 3428 3429 3430 3431 3432 3433 3434 3435 3436 3437 3438 3439 3440 3441 3442 3443 3444 3445 3446 3447 3448 3449 3450 3451 3452 3453 3454 3455 3456 3457 3458 3459 3460 3461 3462 3463 3464 3465 3466 3467 3468 3469 3470 3471 3472 3473 3474 3475 3476 3477 3478 3479 3480 3481 3482 3483 3484 3485 3486 3487 3488 3489 3490 3491 3492 3493 3494 3495 3496 3497 3498 3499 3500 3501 3502 3503 3504 3505 3506 3507 3508 3509 3510 3511 3512 3513 3514 3515 3516 3517 3518 3519 3520 3521 3522 3523 3524 3525 3526 3527 3528 3529 3530 3531 3532 3533 3534 3535 3536 3537 3538 3539 3540 3541 3542 3543 3544 3545 3546 3547 3548 3549 3550 3551 3552 3553 3554 3555 3556 3557 3558 3559 3560 3561 3562 3563 3564 3565 3566 3567 3568 3569 3570 3571 3572 3573 3574 3575 3576 3577 3578 3579 3580 3581 3582 3583 3584 3585 3586 3587 3588 3589 3590 3591 3592 3593 3594 3595 3596 3597 3598 3599 3600 3601 3602 3603 3604 3605 3606 3607 3608 3609 3610 3611 3612 3613 3614 3615 3616 3617 3618 3619 3620 3621 3622 3623 3624 3625 3626 3627 3628 3629 3630 3631 3632 3633 3634 3635 3636 3637 3638 3639 3640 3641 3642 3643 3644 3645 3646 3647 3648 3649 3650 3651 3652 3653 3654 3655 3656 3657 3658 3659 3660 3661 3662 3663 3664 3665 3666 3667 3668 3669 3670 3671 3672 3673 3674 3675 3676 3677 3678 3679 3680 3681 3682 3683 3684 3685 3686 3687 3688 3689 3690 3691 3692 3693 3694 3695 3696 3697 3698 3699 3700 3701 3702 3703 3704 3705 3706 3707 3708 3709 3710 3711 3712 3713 3714 3715 3716 3717 3718 3719 3720 3721 3722 3723 3724 3725 3726 3727 3728 3729 3730 3731 3732 3733 3734 3735 3736 3737 3738 3739 3740 3741 3742 3743 3744 3745 3746 3747 3748 3749 3750 3751 3752 3753 3754 3755 3756 3757 3758 3759 3760 3761 3762 3763 3764 3765 3766 3767 3768 3769 3770 3771 3772 3773 3774 3775 3776 3777 3778 3779 3780 3781 3782 3783 3784 3785 3786 3787 3788 3789 3790 3791 3792 3793 3794 3795 3796 3797 3798 3799 3800 3801 3802 3803 3804 3805 3806 3807 3808 3809 3810 3811 3812 3813 3814 3815 3816 3817 3818 3819 3820 3821 3822 3823 3824 3825 3826 3827 3828 3829 3830 3831 3832 3833 3834 3835 3836 3837 3838 3839 3840 3841 3842 3843 3844 3845 3846 3847 3848 3849 3850 3851 3852 3853 3854 3855 3856 3857 3858 3859 3860 3861 3862 3863 3864 3865 3866 3867 3868 3869 3870 3871 3872 3873 3874 3875 3876 3877 3878 3879 3880 3881 3882 3883 3884 3885 3886 3887 3888 3889 3890 3891 3892 3893 3894 3895 3896 3897 3898 3899 3900 3901 3902 3903 3904 3905 3906 3907 3908 3909 3910 3911 3912 3913 3914 3915 3916 3917 3918 3919 3920 3921 3922 3923 3924 3925 3926 3927 3928 3929 3930 3931 3932 3933 3934 3935 3936 3937 3938 3939 3940 3941 3942 3943 3944 3945 3946 3947 3948 3949 3950 3951 3952 3953 3954 3955 3956 3957 3958 3959 3960 3961 3962 3963 3964 3965 3966 3967 3968 3969 3970 3971 3972 3973 3974 3975 3976 3977 3978 3979 3980 3981 3982 3983 3984 3985 3986 3987 3988 3989 3990 3991 3992 3993 3994 3995 3996 3997 3998 3999 4000 4001 4002 4003 4004 4005 4006 4007 4008 4009 4010 4011 4012 4013 4014 4015 4016 4017 4018 4019 4020 4021 4022 4023 4024 4025 4026 4027 4028 4029 4030 4031 4032 4033 4034 4035 4036 4037 4038 4039 4040 4041 4042 4043 4044 4045 4046 4047 4048 4049 4050 4051 4052 4053 4054 4055 4056 4057 4058 4059 4060 4061 4062 4063 4064 4065 4066 4067 4068 4069 4070 4071 4072 4073 4074 4075 4076 4077 4078 4079 4080 4081 4082 4083 4084 4085 4086 4087 4088 4089 4090 4091 4092 4093 4094 4095 4096 4097 4098 4099 4100 4101 4102 4103 4104 4105 4106 4107 4108 4109 4110 4111 4112 4113 4114 4115 4116 4117 4118 4119 4120 4121 4122 4123 4124 4125 4126 4127 4128 4129 4130 4131 4132 4133 4134 4135 4136 4137 4138 4139 4140 4141 4142 4143 4144 4145 4146 4147 4148 4149 4150 4151 4152 4153 4154 4155 4156 4157 4158 4159 4160 4161 4162 4163 4164 4165 4166 4167 4168 4169 4170 4171 4172 4173 4174 4175 4176 4177 4178 4179 4180 4181 4182 4183 4184 4185 4186 4187 4188 4189 4190 4191 4192 4193 4194 4195 4196 4197 4198 4199 4200 4201 4202 4203 4204 4205 4206 4207 4208 4209 4210 4211 4212 4213 4214 4215 4216 4217 4218 4219 4220 4221 4222 4223 4224 4225 4226 4227 4228 4229 4230 4231 4232 4233 4234 4235 4236 4237 4238 4239 4240 4241 4242 4243 4244 4245 4246 4247 4248 4249 4250 4251 4252 4253 4254 4255 4256 4257 4258 4259 4260 4261 4262 4263 4264 4265 4266 4267 4268 4269 4270 4271 4272 4273 4274 4275 4276 4277 4278 4279 4280 4281 4282 4283 4284 4285 4286 4287 4288 4289 4290 4291 4292 4293 4294 4295 4296 4297 4298 4299 4300 4301 4302 4303 4304 4305 4306 4307 4308 4309 4310 4311 4312 4313 4314 4315 4316 4317 4318 4319 4320 4321 4322 4323 4324 4325 4326 4327 4328 4329 4330 4331 4332 4333 4334 4335 4336 4337 4338 4339 4340 4341 4342 4343 4344 4345 4346 4347 4348 4349 4350 4351 4352 4353 4354 4355 4356 4357 4358 4359 4360 4361 4362 4363 4364 4365 4366 4367 4368 4369 4370 4371 4372 4373 4374 4375 4376 4377 4378 4379 4380 4381 4382 4383 4384 4385 4386 4387 4388 4389 4390 4391 4392 4393 4394 4395 4396 4397 4398 4399 4400 4401 4402 4403 4404 4405 4406 4407 4408 4409 4410 4411 4412 4413 4414 4415 4416 4417 4418 4419 4420 4421 4422 4423 4424 4425 4426 4427 4428 4429 4430 4431 4432 4433 4434 4435 4436 4437 4438 4439 4440 4441 4442 4443 4444 4445 4446 4447 4448 4449 4450 4451 4452 4453 4454 4455 4456 4457 4458 4459 4460 4461 4462 4463 4464 4465 4466 4467 4468 4469 4470 4471 4472 4473 4474 4475 4476 4477 4478 4479 4480 4481 4482 4483 4484 4485 4486 4487 4488 4489 4490 4491 4492 4493 4494 4495 4496 4497 4498 4499 4500 4501 4502 4503 4504 4505 4506 4507 4508 4509 4510 4511 4512 4513 4514 4515 4516 4517 4518 4519 4520 4521 4522 4523 4524 4525 4526 4527 4528 4529 4530 4531 4532 4533 4534 4535 4536 4537 4538 4539 4540 4541 4542 4543 4544 4545 4546 4547 4548 4549 4550 4551 4552 4553 4554 4555 4556 4557 4558 4559 4560 4561 4562 4563 4564 4565 4566 4567 4568 4569 4570 4571 4572 4573 4574 4575 4576 4577 4578 4579 4580 4581 4582 4583 4584 4585 4586 4587 4588 4589 4590 4591 4592 4593 4594 4595 4596 4597 4598 4599 4600 4601 4602 4603 4604 4605 4606 4607 4608 4609 4610 4611 4612 4613 4614 4615 4616 4617 4618 4619 4620 4621 4622 4623 4624 4625 4626 4627 4628 4629 4630 4631 4632 4633 4634 4635 4636 4637 4638 4639 4640 4641 4642 4643 4644 4645 4646 4647 4648 4649 4650 4651 4652 4653 4654 4655 4656 4657 4658 4659 4660 4661 4662 4663 4664 4665 4666 4667 4668 4669 4670 4671 4672 4673 4674 4675 4676 4677 4678 4679 4680 4681 4682 4683 4684 4685 4686 4687 4688 4689 4690 4691 4692 4693 4694 4695 4696 4697 4698 4699 4700 4701 4702 4703 4704 4705 4706 4707 4708 4709 4710 4711 4712 4713 4714 4715 4716 4717 4718 4719 4720 4721 4722 4723 4724 4725 4726 4727 4728 4729 4730 4731 4732 4733 4734 4735 4736 4737 4738 4739 4740 4741 4742 4743 4744 4745 4746 4747 4748 4749 4750 4751 4752 4753 4754 4755 4756 4757 4758 4759 4760 4761 4762 4763 4764 4765 4766 4767 4768 4769 4770 4771 4772 4773 4774 4775 4776 4777 4778 4779 4780 4781 4782 4783 4784 4785 4786 4787 4788 4789 4790 4791 4792 4793 4794 4795 4796 4797 4798 4799 4800 4801 4802 4803 4804 4805 4806 4807 4808 4809 4810 4811 4812 4813 4814 4815 4816 4817 4818 4819 4820 4821 4822 4823 4824 4825 4826 4827 4828 4829 4830 4831 4832 4833 4834 4835 4836 4837 4838 4839 4840 4841 4842 4843 4844 4845 4846 4847 4848 4849 4850 4851 4852 4853 4854 4855 4856 4857 4858 4859 4860 4861 4862 4863 4864 4865 4866 4867 4868 4869 4870 4871 4872 4873 4874 4875 4876 4877 4878 4879 4880 4881 4882 4883 4884 4885 4886 4887 4888 4889 4890 4891 4892 4893 4894 4895 4896 4897 4898 4899 4900 4901 4902 4903 4904 4905 4906 4907 4908 4909 4910 4911 4912 4913 4914 4915 4916 4917 4918 4919 4920 4921 4922 4923 4924 4925 4926 4927 4928 4929 4930 4931 4932 4933 4934 4935 4936 4937 4938 4939 4940 4941 4942 4943 4944 4945 4946 4947 4948 4949 4950 4951 4952 4953 4954 4955 4956 4957 4958 4959 4960 4961 4962 4963 4964 4965 4966 4967 4968 4969 4970 4971 4972 4973 4974 4975 4976 4977 4978 4979 4980 4981 4982 4983 4984 4985 4986 4987 4988 4989 4990 4991 4992 4993 4994 4995 4996 4997 4998 4999 5000 5001 5002 5003 5004 5005 5006 5007 5008 5009 5010 5011 5012 5013 5014 5015 5016 5017 5018 5019 5020 5021 5022 5023 5024 5025 5026 5027 5028 5029 5030 5031 5032 5033 5034 5035 5036 5037 5038 5039 5040 5041 5042 5043 5044 5045 5046 5047 5048 5049 5050 5051 5052 5053 5054 5055 5056 5057 5058 5059 5060 5061 5062 5063 5064 5065 5066 5067 5068 5069 5070 5071 5072 5073 5074 5075 5076 5077 5078 5079 5080 5081 5082 5083 5084 5085 5086 5087 5088 5089 5090 5091 5092 5093 5094 5095 5096 5097 5098 5099 5100 5101 5102 5103 5104 5105 5106 5107 5108 5109 5110 5111 5112 5113 5114 5115 5116 5117 5118 5119 5120 5121 5122 5123 5124 5125 5126 5127 5128 5129 5130 5131 5132 5133 5134 5135 5136 5137 5138 5139 5140 5141 5142 5143 5144 5145 5146 5147 5148 5149 5150 5151 5152 5153 5154 5155 5156 5157 5158 5159 5160 5161 5162 5163 5164 5165 5166 5167 5168 5169 5170 5171 5172 5173 5174 5175 5176 5177 5178 5179 5180 5181 5182 5183 5184 5185 5186 5187 5188 5189 5190 5191 5192 5193 5194 5195 5196 5197 5198 5199 5200 5201 5202 5203 5204 5205 5206 5207 5208 5209 5210 5211 5212 5213 5214 5215 5216 5217 5218 5219 5220 5221 5222 5223 5224 5225 5226 5227 5228 5229 5230 5231 5232 5233 5234 5235 5236 5237 5238 5239 5240 5241 5242 5243 5244 5245 5246 5247 5248 5249 5250 5251 5252 5253 5254 5255 5256 5257 5258 5259 5260 5261 5262 5263 5264 5265 5266 5267 5268 5269 5270 5271 5272 5273 5274 5275 5276 5277 5278 5279 5280 5281 5282 5283 5284 5285 5286 5287 5288 5289 5290 5291 5292 5293 5294 5295 5296 5297 5298 5299 5300 5301 5302 5303 5304 5305 5306 5307 5308 5309 5310 5311 5312 5313 5314 5315 5316 5317 5318 5319 5320 5321 5322 5323 5324 5325 5326 5327 5328 5329 5330 5331 5332 5333 5334 5335 5336 5337 5338 5339 5340 5341 5342 5343 5344 5345 5346 5347 5348 5349 5350 5351 5352 5353 5354 5355 5356 5357 5358 5359 5360 5361 5362 5363 5364 5365 5366 5367 5368 5369 5370 5371 5372 5373 5374 5375 5376 5377 5378 5379 5380 5381 5382 5383 5384 5385 5386 5387 5388 5389 5390 5391 5392 5393 5394 5395 5396 5397 5398 5399 5400 5401 5402 5403 5404 5405 5406 5407 5408 5409 5410 5411 5412 5413 5414 5415 5416 5417 5418 5419 5420 5421 5422 5423 5424 5425 5426 5427 5428 5429 5430 5431 5432 5433 5434 5435 5436 5437 5438 5439 5440 5441 5442 5443 5444 5445 5446 5447 5448 5449 5450 5451 5452 5453 5454 5455 5456 5457 5458 5459 5460 5461 5462 5463 5464 5465 5466 5467 5468 5469 5470 5471 5472 5473 5474 5475 5476 5477 5478 5479 5480 5481 5482 5483 5484 5485 5486 5487 5488 5489 5490 5491 5492 5493 5494 5495 5496 5497 5498 5499 5500 5501 5502 5503 5504 5505 5506 5507 5508 5509 5510 5511 5512 5513 5514 5515 5516 5517 5518 5519 5520 5521 5522 5523 5524 5525 5526 5527 5528 5529 5530 5531 5532 5533 5534 5535 5536 5537 5538 5539 5540 5541 5542 5543 5544 5545 5546 5547 5548 5549 5550 5551 5552 5553 5554 5555 5556 5557 5558 5559 5560 5561 5562 5563 5564 5565 5566 5567 5568 5569 5570 5571 5572 5573 5574 5575 5576 5577 5578 5579 5580 5581 5582 5583 5584 5585 5586 5587 5588 5589 5590 5591 5592 5593 5594 5595 5596 5597 5598 5599 5600 5601 5602 5603 5604 5605 5606 5607 5608 5609 5610 5611 5612 5613 5614 5615 5616 5617 5618 5619 5620 5621 5622 5623 5624 5625 5626 5627 5628 5629 5630 5631 5632 5633 5634 5635 5636 5637 5638 5639 5640 5641 5642 5643 5644 5645 5646 5647 5648 5649 5650 5651 5652 5653 5654 5655 5656 5657 5658 5659 5660 5661 5662 5663 5664 5665 5666 5667 5668 5669 5670 5671 5672 5673 5674 5675 5676 5677 5678 5679 5680 5681 5682 5683 5684 5685 5686 5687 5688 5689 5690 5691 5692 5693 5694 5695 5696 5697 5698 5699 5700 5701 5702 5703 5704 5705 5706 5707 5708 5709 5710 5711 5712 5713 5714 5715 5716 5717 5718 5719 5720 5721 5722 5723 5724 5725 5726 5727 5728 5729 5730 5731 5732 5733 5734 5735 5736 5737 5738 5739 5740 5741 5742 5743 5744 5745 5746 5747 5748 5749 5750 5751 5752 5753 5754 5755 5756 5757 5758 5759 5760 5761 5762 5763 5764 5765 5766 5767 5768 5769 5770 5771 5772 5773 5774 5775 5776 5777 5778 5779 5780 5781 5782 5783 5784 5785 5786 5787 5788 5789 5790 5791 5792 5793 5794 5795 5796 5797 5798 5799 5800 5801 5802 5803 5804 5805 5806 5807 5808 5809 5810 5811 5812 5813 5814 5815 5816 5817 5818 5819 5820 5821 5822 5823 5824 5825 5826 5827 5828 5829 5830 5831 5832 5833 5834 5835 5836 5837 5838 5839 5840 5841 5842 5843 5844 5845 5846 5847 5848 5849 5850 5851 5852 5853 5854 5855 5856 5857 5858 5859 5860 5861 5862 5863 5864 5865 5866 5867 5868 5869 5870 5871 5872 5873 5874 5875 5876 5877 5878 5879 5880 5881 5882 5883 5884 5885 5886 5887 5888 5889 5890 5891 5892 5893 5894 5895 5896 5897 5898 5899 5900 5901 5902 5903 5904 5905 5906 5907 5908 5909 5910 5911 5912 5913 5914 5915 5916 5917 5918 5919 5920 5921 5922 5923 5924 5925 5926 5927 5928 5929 5930 5931 5932 5933 5934 5935 5936 5937 5938 5939 5940 5941 5942 5943 5944 5945 5946 5947 5948 5949 5950 5951 5952 5953 5954 5955 5956 5957 5958 5959 5960 5961 5962 5963 5964 5965 5966 5967 5968 5969 5970 5971 5972 5973 5974 5975 5976 5977 5978 5979 5980 5981 5982 5983 5984 5985 5986 5987 5988 5989 5990 5991 5992 5993 5994 5995 5996 5997 5998 5999 6000 6001 6002 6003 6004 6005 6006 6007 6008 6009 6010 6011 6012 6013 6014 6015 6016 6017 6018 6019 6020 6021 6022 6023 6024 6025 6026 6027 6028 6029 6030 6031 6032 6033 6034 6035 6036 6037 6038 6039 6040 6041 6042 6043 6044 6045 6046 6047 6048 6049 6050 6051 6052 6053 6054 6055 6056 6057 6058 6059 6060 6061 6062 6063 6064 6065 6066 6067 6068 6069 6070 6071 6072 6073 6074 6075 6076 6077 6078 6079 6080 6081 6082 6083 6084 6085 6086 6087 6088 6089 6090 6091 6092 6093 6094 6095 6096 6097 6098 6099 6100 6101 6102 6103 6104 6105 6106 6107 6108 6109 6110 6111 6112 6113 6114 6115 6116 6117 6118 6119 6120 6121 6122 6123 6124 6125 6126 6127 6128 6129 6130 6131 6132 6133 6134 6135 6136 6137 6138 6139 6140 6141 6142 6143 6144 6145 6146 6147 6148 6149 6150 6151 6152 6153 6154 6155 6156 6157 6158 6159 6160 6161 6162 6163 6164 6165 6166 6167 6168 6169 6170 6171 6172 6173 6174 6175 6176 6177 6178 6179 6180 6181 6182 6183 6184 6185 6186 6187 6188 6189 6190 6191 6192 6193 6194 6195 6196 6197 6198 6199 6200 6201 6202 6203 6204 6205 6206 6207 6208 6209 6210 6211 6212 6213 6214 6215 6216 6217 6218 6219 6220 6221 6222 6223 6224 6225 6226 6227 6228 6229 6230 6231 6232 6233 6234 6235 6236 6237 6238 6239 6240 6241 6242 6243 6244 6245 6246 6247 6248 6249 6250 6251 6252 6253 6254 6255 6256 6257 6258 6259 6260 6261 6262 6263 6264 6265 6266 6267 6268 6269 6270 6271 6272 6273 6274 6275 6276 6277 6278 6279 6280 6281 6282 6283 6284 6285 6286 6287 6288 6289 6290 6291 6292 6293 6294 6295 6296 6297 6298 6299 6300 6301 6302 6303 6304 6305 6306 6307 6308 6309 6310 6311 6312 6313 6314 6315 6316 6317 6318 6319 6320 6321 6322 6323 6324 6325 6326 6327 6328 6329 6330 6331 6332 6333 6334 6335 6336 6337 6338 6339 6340 6341 6342 6343 6344 6345 6346 6347 6348 6349 6350 6351 6352 6353 6354 6355 6356 6357 6358 6359 6360 6361 6362 6363 6364 6365 6366 6367 6368 6369 6370 6371 6372 6373 6374 6375 6376 6377 6378 6379 6380 6381 6382 6383 6384 6385 6386 6387 6388 6389 6390 6391 6392 6393 6394 6395 6396 6397 6398 6399 6400 6401 6402 6403 6404 6405 6406 6407 6408 6409 6410 6411 6412 6413 6414 6415 6416 6417 6418 6419 6420 6421 6422 6423 6424 6425 6426 6427 6428 6429 6430 6431 6432 6433 6434 6435 6436 6437 6438 6439 6440 6441 6442 6443 6444 6445 6446 6447 6448 6449 6450 6451 6452 6453 6454 6455 6456 6457 6458 6459 6460 6461 6462 6463 6464 6465 6466 6467 6468 6469 6470 6471 6472 6473 6474 6475 6476 6477 6478 6479 6480 6481 6482 6483 6484 6485 6486 6487 6488 6489 6490 6491 6492 6493 6494 6495 6496 6497 6498 6499 6500 6501 6502 6503 6504 6505 6506 6507 6508 6509 6510 6511 6512 6513 6514 6515 6516 6517 6518 6519 6520 6521 6522 6523 6524 6525 6526 6527 6528 6529 6530 6531 6532 6533 6534 6535 6536 6537 6538 6539 6540 6541 6542 6543 6544 6545 6546 6547 6548 6549 6550 6551 6552 6553 6554 6555 6556 6557 6558 6559 6560 6561 6562 6563 6564 6565 6566 6567 6568 6569 6570 6571 6572 6573 6574 6575 6576 6577 6578 6579 6580 6581 6582 6583 6584 6585 6586 6587 6588 6589 6590 6591 6592 6593 6594 6595 6596 6597 6598 6599 6600 6601 6602 6603 6604 6605 6606 6607 6608 6609 6610 6611 6612 6613 6614 6615 6616 6617 6618 6619 6620 6621 6622 6623 6624 6625 6626 6627 6628 6629 6630 6631 6632 6633 6634 6635 6636 6637 6638 6639 6640 6641 6642 6643 6644 6645 6646 6647 6648 6649 6650 6651 6652 6653 6654 6655 6656 6657 6658 6659 6660 6661 6662 6663 6664 6665 6666 6667 6668 6669 6670 6671 6672 6673 6674 6675 6676 6677 6678 6679 6680 6681 6682 6683 6684 6685 6686 6687 6688 6689 6690 6691 6692 6693 6694 6695 6696 6697 6698 6699 6700 6701 6702 6703 6704 6705 6706 6707 6708 6709 6710 6711 6712 6713 6714 6715 6716 6717 6718 6719 6720 6721 6722 6723 6724 6725 6726 6727 6728 6729 6730 6731 6732 6733 6734 6735 6736 6737 6738 6739 6740 6741 6742 6743 6744 6745 6746 6747 6748 6749 6750 6751 6752 6753 6754 6755 6756 6757 6758 6759 6760 6761 6762 6763 6764 6765 6766 6767 6768 6769 6770 6771 6772 6773 6774 6775 6776 6777 6778 6779 6780 6781 6782 6783 6784 6785 6786 6787 6788 6789 6790 6791 6792 6793 6794 6795 6796 6797 6798 6799 6800 6801 6802 6803 6804 6805 6806 6807 6808 6809 6810 6811 6812 6813 6814 6815 6816 6817 6818 6819 6820 6821 6822 6823 6824 6825 6826 6827 6828 6829 6830 6831 6832 6833 6834 6835 6836 6837 6838 6839 6840 6841 6842 6843 6844 6845 6846 6847 6848 6849 6850 6851 6852 6853 6854 6855 6856 6857 6858 6859 6860 6861 6862 6863 6864 6865 6866 6867 6868 6869 6870 6871 6872 6873 6874 6875 6876 6877 6878 6879 6880 6881 6882 6883 6884 6885 6886 6887 6888 6889 6890 6891 6892 6893 6894 6895 6896 6897 6898 6899 6900 6901 6902 6903 6904 6905 6906 6907 6908 6909 6910 6911 6912 6913 6914 6915 6916 6917 6918 6919 6920 6921 6922 6923 6924 6925 6926 6927 6928 6929 6930 6931 6932 6933 6934 6935 6936 6937 6938 6939 6940 6941 6942 6943 6944 6945 6946 6947 6948 6949 6950 6951 6952 6953 6954 6955 6956 6957 6958 6959 6960 6961 6962 6963 6964 6965 6966 6967 6968 6969 6970 6971 6972 6973 6974 6975 6976 6977 6978 6979 6980 6981 6982 6983 6984 6985 6986 6987 6988 6989 6990 6991 6992 6993 6994 6995 6996 6997 6998 6999 7000 7001 7002 7003 7004 7005 7006 7007 7008 7009 7010 7011 7012 7013 7014 7015 7016 7017 7018 7019 7020 7021 7022 7023 7024 7025 7026 7027 7028 7029 7030 7031 7032 7033 7034 7035 7036 7037 7038 7039 7040 7041 7042 7043 7044 7045 7046 7047 7048 7049 7050 7051 7052 7053 7054 7055 7056 7057 7058 7059 7060 7061 7062 7063 7064 7065 7066 7067 7068 7069 7070 7071 7072 7073 7074 7075 7076 7077 7078 7079 7080 7081 7082 7083 7084 7085 7086 7087 7088 7089 7090 7091 7092 7093 7094 7095 7096 7097 7098 7099 7100 7101 7102 7103 7104 7105 7106 7107 7108 7109 7110 7111 7112 7113 7114 7115 7116 7117 7118 7119 7120 7121 7122 7123 7124 7125 7126 7127 7128 7129 7130 7131 7132 7133 7134 7135 7136 7137 7138 7139 7140 7141 7142 7143 7144 7145 7146 7147 7148 7149 7150 7151 7152 7153 7154 7155 7156 7157 7158 7159 7160 7161 7162 7163 7164 7165 7166 7167 7168 7169 7170 7171 7172 7173 7174 7175 7176 7177 7178 7179 7180 7181 7182 7183 7184 7185 7186 7187 7188 7189 7190 7191 7192 7193 7194 7195 7196 7197 7198 7199 7200 7201 7202 7203 7204 7205 7206 7207 7208 7209 7210 7211 7212 7213 7214 7215 7216 7217 7218 7219 7220 7221 7222 7223 7224 7225 7226 7227 7228 7229 7230 7231 7232 7233 7234 7235 7236 7237 7238 7239 7240 7241 7242 7243 7244 7245 7246 7247 7248 7249 7250 7251 7252 7253 7254 7255 7256 7257 7258 7259 7260 7261 7262 7263 7264 7265 7266 7267 7268 7269 7270 7271 7272 7273 7274 7275 7276 7277 7278 7279 7280 7281 7282 7283 7284 7285 7286 7287 7288 7289 7290 7291 7292 7293 7294 7295 7296 7297 7298 7299 7300 7301 7302 7303 7304 7305 7306 7307 7308 7309 7310 7311 7312 7313 7314 7315 7316 7317 7318 7319 7320 7321 7322 7323 7324 7325 7326 7327 7328 7329 7330 7331 7332 7333 7334 7335 7336 7337 7338 7339 7340 7341 7342 7343 7344 7345 7346 7347 7348 7349 7350 7351 7352 7353 7354 7355 7356 7357 7358 7359 7360 7361 7362 7363 7364 7365 7366 7367 7368 7369 7370 7371 7372 7373 7374 7375 7376 7377 7378 7379 7380 7381 7382 7383 7384 7385 7386 7387 7388 7389 7390 7391 7392 7393 7394 7395 7396 7397 7398 7399 7400 7401 7402 7403 7404 7405 7406 7407 7408 7409 7410 7411 7412 7413 7414 7415 7416 7417 7418 7419 7420 7421 7422 7423 7424 7425 7426 7427 7428 7429 7430 7431 7432 7433 7434 7435 7436 7437 7438 7439 7440 7441 7442 7443 7444 7445 7446 7447 7448 7449 7450 7451 7452 7453 7454 7455 7456 7457 7458 7459 7460 7461 7462 7463 7464 7465 7466 7467 7468 7469 7470 7471 7472 7473 7474 7475 7476 7477 7478 7479 7480 7481 7482 7483 7484 7485 7486 7487 7488 7489 7490 7491 7492 7493 7494 7495 7496 7497 7498 7499 7500 7501 7502 7503 7504 7505 7506 7507 7508 7509 7510 7511 7512 7513 7514 7515 7516 7517 7518 7519 7520 7521 7522 7523 7524 7525 7526 7527 7528 7529 7530 7531 7532 7533 7534 7535 7536 7537 7538 7539 7540 7541 7542 7543 7544 7545 7546 7547 7548 7549 7550 7551 7552 7553 7554 7555 7556 7557 7558 7559 7560 7561 7562 7563 7564 7565 7566 7567 7568 7569 7570 7571 7572 7573 7574 7575 7576 7577 7578 7579 7580 7581 7582 7583 7584 7585 7586 7587 7588 7589 7590 7591 7592 7593 7594 7595 7596 7597 7598 7599 7600 7601 7602 7603 7604 7605 7606 7607 7608 7609 7610 7611 7612 7613 7614 7615 7616 7617 7618 7619 7620 7621 7622 7623 7624 7625 7626 7627 7628 7629 7630 7631 7632 7633 7634 7635 7636 7637 7638 7639 7640 7641 7642 7643 7644 7645 7646 7647 7648 7649 7650 7651 7652 7653 7654 7655 7656 7657 7658 7659 7660 7661 7662 7663 7664 7665 7666 7667 7668 7669 7670 7671 7672 7673 7674 7675 7676 7677 7678 7679 7680 7681 7682 7683 7684 7685 7686 7687 7688 7689 7690 7691 7692 7693 7694 7695 7696 7697 7698 7699 7700 7701 7702 7703 7704 7705 7706 7707 7708 7709 7710 7711 7712 7713 7714 7715 7716 7717 7718 7719 7720 7721 7722 7723 7724 7725 7726 7727 7728 7729 7730 7731 7732 7733 7734 7735 7736 7737 7738 7739 7740 7741 7742 7743 7744 7745 7746 7747 7748 7749 7750 7751 7752 7753 7754 7755 7756 7757 7758 7759 7760 7761 7762 7763 7764 7765 7766 7767 7768 7769 7770 7771 7772 7773 7774 7775 7776 7777 7778 7779 7780 7781 7782 7783 7784 7785 7786 7787 7788 7789 7790 7791 7792 7793 7794 7795 7796 7797 7798 7799 7800 7801 7802 7803 7804 7805 7806 7807 7808 7809 7810 7811 7812 7813 7814 7815 7816 7817 7818 7819 7820 7821 7822 7823 7824 7825 7826 7827 7828 7829 7830 7831 7832 7833 7834 7835 7836 7837 7838 7839 7840 7841 7842 7843 7844 7845 7846 7847 7848 7849 7850 7851 7852 7853 7854 7855 7856 7857 7858 7859 7860 7861 7862 7863 7864 7865 7866 7867 7868 7869 7870 7871 7872 7873 7874 7875 7876 7877 7878 7879 7880 7881 7882 7883 7884 7885 7886 7887 7888 7889 7890 7891 7892 7893 7894 7895 7896 7897 7898 7899 7900 7901 7902 7903 7904 7905 7906 7907 7908 7909 7910 7911 7912 7913 7914 7915 7916 7917 7918 7919 7920 7921 7922 7923 7924 7925 7926 7927 7928 7929 7930 7931 7932 7933 7934 7935 7936 7937 7938 7939 7940 7941 7942 7943 7944 7945 7946 7947 7948 7949 7950 7951 7952 7953 7954 7955 7956 7957 7958 7959 7960 7961 7962 7963 7964 7965 7966 7967 7968 7969 7970 7971 7972 7973 7974 7975 7976 7977 7978 7979 7980 7981 7982 7983 7984 7985 7986 7987 7988 7989 7990 7991 7992 7993 7994 7995 7996 7997 7998 7999 8000 8001 8002 8003 8004 8005 8006 8007 8008 8009 8010 8011 8012 8013 8014 8015 8016 8017 8018 8019 8020 8021 8022 8023 8024 8025 8026 8027 8028 8029 8030 8031 8032 8033 8034 8035 8036 8037 8038 8039 8040 8041 8042 8043 8044 8045 8046 8047 8048 8049 8050 8051 8052 8053 8054 8055 8056 8057 8058 8059 8060 8061 8062 8063 8064 8065 8066 8067 8068 8069 8070 8071 8072 8073 8074 8075 8076 8077 8078 8079 8080 8081 8082 8083 8084 8085 8086 8087 8088 8089 8090 8091 8092 8093 8094 8095 8096 8097 8098 8099 8100 8101 8102 8103 8104 8105 8106 8107 8108 8109 8110 8111 8112 8113 8114 8115 8116 8117 8118 8119 8120 8121 8122 8123 8124 8125 8126 8127 8128 8129 8130 8131 8132 8133 8134 8135 8136 8137 8138 8139 8140 8141 8142 8143 8144 8145 8146 8147 8148 8149 8150 8151 8152 8153 8154 8155 8156 8157 8158 8159 8160 8161 8162 8163 8164 8165 8166 8167 8168 8169 8170 8171 8172 8173 8174 8175 8176 8177 8178 8179 8180 8181 8182 8183 8184 8185 8186 8187 8188 8189 8190 8191 8192 8193 8194 8195 8196 8197 8198 8199 8200 8201 8202 8203 8204 8205 8206 8207 8208 8209 8210 8211 8212 8213 8214 8215 8216 8217 8218 8219 8220 8221 8222 8223 8224 8225 8226 8227 8228 8229 8230 8231 8232 8233 8234 8235 8236 8237 8238 8239 8240 8241 8242 8243 8244 8245 8246 8247 8248 8249 8250 8251 8252 8253 8254 8255 8256 8257 8258 8259 8260 8261 8262 8263 8264 8265 8266 8267 8268 8269 8270 8271 8272 8273 8274 8275 8276 8277 8278 8279 8280 8281 8282 8283 8284 8285 8286 8287 8288 8289 8290 8291 8292 8293 8294 8295 8296 8297 8298 8299 8300 8301 8302 8303 8304 8305 8306 8307 8308 8309 8310 8311 8312 8313 8314 8315 8316 8317 8318 8319 8320 8321 8322 8323 8324 8325 8326 8327 8328 8329 8330 8331 8332 8333 8334 8335 8336 8337 8338 8339 8340 8341 8342 8343 8344 8345 8346 8347 8348 8349 8350 8351 8352 8353 8354 8355 8356 8357 8358 8359 8360 8361 8362 8363 8364 8365 8366 8367 8368 8369 8370 8371 8372 8373 8374 8375 8376 8377 8378 8379 8380 8381 8382 8383 8384 8385 8386 8387 8388 8389 8390 8391 8392 8393 8394 8395 8396 8397 8398 8399 8400 8401 8402 8403 8404 8405 8406 8407 8408 8409 8410 8411 8412 8413 8414 8415 8416 8417 8418 8419 8420 8421 8422 8423 8424 8425 8426 8427 8428 8429 8430 8431 8432 8433 8434 8435 8436 8437 8438 8439 8440 8441 8442 8443 8444 8445 8446 8447 8448 8449 8450 8451 8452 8453 8454 8455 8456 8457 8458 8459 8460 8461 8462 8463 8464 8465 8466 8467 8468 8469 8470 8471 8472 8473 8474 8475 8476 8477 8478 8479 8480 8481 8482 8483 8484 8485 8486 8487 8488 8489 8490 8491 8492 8493 8494 8495 8496 8497 8498 8499 8500 8501 8502 8503 8504 8505 8506 8507 8508 8509 8510 8511 8512 8513 8514 8515 8516 8517 8518 8519 8520 8521 8522 8523 8524 8525 8526 8527 8528 8529 8530 8531 8532 8533 8534 8535 8536 8537 8538 8539 8540 8541 8542 8543 8544 8545 8546 8547 8548 8549 8550 8551 8552 8553 8554 8555 8556 8557 8558 8559 8560 8561 8562 8563 8564 8565 8566 8567 8568 8569 8570 8571 8572 8573 8574 8575 8576 8577 8578 8579 8580 8581 8582 8583 8584 8585 8586 8587 8588 8589 8590 8591 8592 8593 8594 8595 8596 8597 8598 8599 8600 8601 8602 8603 8604 8605 8606 8607 8608 8609 8610 8611 8612 8613 8614 8615 8616 8617 8618 8619 8620 8621 8622 8623 8624 8625 8626 8627 8628 8629 8630 8631 8632 8633 8634 8635 8636 8637 8638 8639 8640 8641 8642 8643 8644 8645 8646 8647 8648 8649 8650 8651 8652 8653 8654 8655 8656 8657 8658 8659 8660 8661 8662 8663 8664 8665 8666 8667 8668 8669 8670 8671 8672 8673 8674 8675 8676 8677 8678 8679 8680 8681 8682 8683 8684 8685 8686 8687 8688 8689 8690 8691 8692 8693 8694 8695 8696 8697 8698 8699 8700 8701 8702 8703 8704 8705 8706 8707 8708 8709 8710 8711 8712 8713 8714 8715 8716 8717 8718 8719 8720 8721 8722 8723 8724 8725 8726 8727 8728 8729 8730 8731 8732 8733 8734 8735 8736 8737 8738 8739 8740 8741 8742 8743 8744 8745 8746 8747 8748 8749 8750 8751 8752 8753 8754 8755 8756 8757 8758 8759 8760 8761 8762 8763 8764 8765 8766 8767 8768 8769 8770 8771 8772 8773 8774 8775 8776 8777 8778 8779 8780 8781 8782 8783 8784 8785 8786 8787 8788 8789 8790 8791 8792 8793 8794 8795 8796 8797 8798 8799 8800 8801 8802 8803 8804 8805 8806 8807 8808 8809 8810 8811 8812 8813 8814 8815 8816 8817 8818 8819 8820 8821 8822 8823 8824 8825 8826 8827 8828 8829 8830 8831 8832 8833 8834 8835 8836 8837 8838 8839 8840 8841 8842 8843 8844 8845 8846 8847 8848 8849 8850 8851 8852 8853 8854 8855 8856 8857 8858 8859 8860 8861 8862 8863 8864 8865 8866 8867 8868 8869 8870 8871 8872 8873 8874 8875 8876 8877 8878 8879 8880 8881 8882 8883 8884 8885 8886 8887 8888 8889 8890 8891 8892 8893 8894 8895 8896 8897 8898 8899 8900 8901 8902 8903 8904 8905 8906 8907 8908 8909 8910 8911 8912 8913 8914 8915 8916 8917 8918 8919 8920 8921 8922 8923 8924 8925 8926 8927 8928 8929 8930 8931 8932 8933 8934 8935 8936 8937 8938 8939 8940 8941 8942 8943 8944 8945 8946 8947 8948 8949 8950 8951 8952 8953 8954 8955 8956 8957 8958 8959 8960 8961 8962 8963 8964 8965 8966 8967 8968 8969 8970 8971 8972 8973 8974 8975 8976 8977 8978 8979 8980 8981 8982 8983 8984 8985 8986 8987 8988 8989 8990 8991 8992 8993 8994 8995 8996 8997 8998 8999 9000 9001 9002 9003 9004 9005 9006 9007 9008 9009 9010 9011 9012 9013 9014 9015 9016 9017 9018 9019 9020 9021 9022 9023 9024 9025 9026 9027 9028 9029 9030 9031 9032 9033 9034 9035 9036 9037 9038 9039 9040 9041 9042 9043 9044 9045 9046 9047 9048 9049 9050 9051 9052 9053 9054 9055 9056 9057 9058 9059 9060 9061 9062 9063 9064 9065 9066 9067 9068 9069 9070 9071 9072 9073 9074 9075 9076 9077 9078 9079 9080 9081 9082 9083 9084 9085 9086 9087 9088 9089 9090 9091 9092 9093 9094 9095 9096 9097 9098 9099 9100 9101 9102 9103 9104 9105 9106 9107 9108 9109 9110 9111 9112 9113 9114 9115 9116 9117 9118 9119 9120 9121 9122 9123 9124 9125 9126 9127 9128 9129 9130 9131 9132 9133 9134 9135 9136 9137 9138 9139 9140 9141 9142 9143 9144 9145 9146 9147 9148 9149 9150 9151 9152 9153 9154 9155 9156 9157 9158 9159 9160 9161 9162 9163 9164 9165 9166 9167 9168 9169 9170 9171 9172 9173 9174 9175 9176 9177 9178 9179 9180 9181 9182 9183 9184 9185 9186 9187 9188 9189 9190 9191 9192 9193 9194 9195 9196 9197 9198 9199 9200 9201 9202 9203 9204 9205 9206 9207 9208 9209 9210 9211 9212 9213 9214 9215 9216 9217 9218 9219 9220 9221 9222 9223 9224 9225 9226 9227 9228 9229 9230 9231 9232 9233 9234 9235 9236 9237 9238 9239 9240 9241 9242 9243 9244 9245 9246 9247 9248 9249 9250 9251 9252 9253 9254 9255 9256 9257 9258 9259 9260 9261 9262 9263 9264 9265 9266 9267 9268 9269 9270 9271 9272 9273 9274 9275 9276 9277 9278 9279 9280 9281 9282 9283 9284 9285 9286 9287 9288 9289 9290 9291 9292 9293 9294 9295 9296 9297 9298 9299 9300 9301 9302 9303 9304 9305 9306 9307 9308 9309 9310 9311 9312 9313 9314 9315 9316 9317 9318 9319 9320 9321 9322 9323 9324 9325 9326 9327 9328 9329 9330 9331 9332 9333 9334 9335 9336 9337 9338 9339 9340 9341 9342 9343 9344 9345 9346 9347 9348 9349 9350 9351 9352 9353 9354 9355 9356 9357 9358 9359 9360 9361 9362 9363 9364 9365 9366 9367 9368 9369 9370 9371 9372 9373 9374 9375 9376 9377 9378 9379 9380 9381 9382 9383 9384 9385 9386 9387 9388 9389 9390 9391 9392 9393 9394 9395 9396 9397 9398 9399 9400 9401 9402 9403 9404 9405 9406 9407 9408 9409 9410 9411 9412 9413 9414 9415 9416 9417 9418 9419 9420 9421 9422 9423 9424 9425 9426 9427 9428 9429 9430 9431 9432 9433 9434 9435 9436 9437 9438 9439 9440 9441 9442 9443 9444 9445 9446 9447 9448 9449 9450 9451 9452 9453 9454 9455 9456 9457 9458 9459 9460 9461 9462 9463 9464 9465 9466 9467 9468 9469 9470 9471 9472 9473 9474 9475 9476 9477 9478 9479 9480 9481 9482 9483 9484 9485 9486 9487 9488 9489 9490 9491 9492 9493 9494 9495 9496 9497 9498 9499 9500 9501 9502 9503 9504 9505 9506 9507 9508 9509 9510 9511 9512 9513 9514 9515 9516 9517 9518 9519 9520 9521 9522 9523 9524 9525 9526 9527 9528 9529 9530 9531 9532 9533 9534 9535 9536 9537 9538 9539 9540 9541 9542 9543 9544 9545 9546 9547 9548 9549 9550 9551 9552 9553 9554 9555 9556 9557 9558 9559 9560 9561 9562 9563 9564 9565 9566 9567 9568 9569 9570 9571 9572 9573 9574 9575 9576 9577 9578 9579 9580 9581 9582 9583 9584 9585 9586 9587 9588 9589 9590 9591 9592 9593 9594 9595 9596 9597 9598 9599 9600 9601 9602 9603 9604 9605 9606 9607 9608 9609 9610 9611 9612 9613 9614 9615 9616 9617 9618 9619 9620 9621 9622 9623 9624 9625 9626 9627 9628 9629 9630 9631 9632 9633 9634 9635 9636 9637 9638 9639 9640 9641 9642 9643 9644 9645 9646 9647 9648 9649 9650 9651 9652 9653 9654 9655 9656 9657 9658 9659 9660 9661 9662 9663 9664 9665 9666 9667 9668 9669 9670 9671 9672 9673 9674 9675 9676 9677 9678 9679 9680 9681 9682 9683 9684 9685 9686 9687 9688 9689 9690 9691 9692 9693 9694 9695 9696 9697 9698 9699 9700 9701 9702 9703 9704 9705 9706 9707 9708 9709 9710 9711 9712 9713 9714 9715 9716 9717 9718 9719 9720 9721 9722 9723 9724 9725 9726 9727 9728 9729 9730 9731 9732 9733 9734 9735 9736 9737 9738 9739 9740 9741 9742 9743 9744 9745 9746 9747 9748 9749 9750 9751 9752 9753 9754 9755 9756 9757 9758 9759 9760 9761 9762 9763 9764 9765 9766 9767 9768 9769 9770 9771 9772 9773 9774 9775 9776 9777 9778 9779 9780 9781 9782 9783 9784 9785 9786 9787 9788 9789 9790 9791 9792 9793 9794 9795 9796 9797 9798 9799 9800 9801 9802 9803 9804 9805 9806 9807 9808 9809 9810 9811 9812 9813 9814 9815 9816 9817 9818 9819 9820 9821 9822 9823 9824 9825 9826 9827 9828 9829 9830 9831 9832 9833 9834 9835 9836 9837 9838 9839 9840 9841 9842 9843 9844 9845 9846 9847 9848 9849 9850 9851 9852 9853 9854 9855 9856 9857 9858 9859 9860 9861 9862 9863 9864 9865 9866 9867 9868 9869 9870 9871 9872 9873 9874 9875 9876 9877 9878 9879 9880 9881 9882 9883 9884 9885 9886 9887 9888 9889 9890 9891 9892 9893 9894 9895 9896 9897 9898 9899 9900 9901 9902 9903 9904 9905 9906 9907 9908 9909 9910 9911 9912 9913 9914 9915 9916 9917 9918 9919 9920 9921 9922 9923 9924 9925 9926 9927 9928 9929 9930 9931 9932 9933 9934 9935 9936 9937 9938 9939 9940 9941 9942 9943 9944 9945 9946 9947 9948 9949 9950 9951 9952 9953 9954 9955 9956 9957 9958 9959 9960 9961 9962 9963 9964 9965 9966 9967 9968 9969 9970 9971 9972 9973 9974 9975 9976 9977 9978 9979 9980 9981 9982 9983 9984 9985 9986 9987 9988 9989 9990 9991 9992 9993 9994 9995 9996 9997 9998 9999 10000 10001 10002 10003 10004 10005 10006 10007 10008 10009 10010 10011 10012 10013 10014 10015 10016 10017 10018 10019 10020 10021 10022 10023 10024 10025 10026 10027 10028 10029 10030 10031 10032 10033 10034 10035 10036 10037 10038 10039 10040 10041 10042 10043 10044 10045 10046 10047 10048 10049 10050 10051 10052 10053 10054 10055 10056 10057 10058 10059 10060 10061 10062 10063 10064 10065 10066 10067 10068 10069 10070 10071 10072 10073 10074 10075 10076 10077 10078 10079 10080 10081 10082 10083 10084 10085 10086 10087 10088 10089 10090 10091 10092 10093 10094 10095 10096 10097 10098 10099 10100 10101 10102 10103 10104 10105 10106 10107 10108 10109 10110 10111 10112 10113 10114 10115 10116 10117 10118 10119 10120 10121 10122 10123 10124 10125 10126 10127 10128 10129 10130 10131 10132 10133 10134 10135 10136 10137 10138 10139 10140 10141 10142 10143 10144 10145 10146 10147 10148 10149 10150 10151 10152 10153 10154 10155 10156 10157 10158 10159 10160 10161 10162 10163 10164 10165 10166 10167 10168 10169 10170 10171 10172 10173 10174 10175 10176 10177 10178 10179 10180 10181 10182 10183 10184 10185 10186 10187 10188 10189 10190 10191 10192 10193 10194 10195 10196 10197 10198 10199 10200 10201 10202 10203 10204 10205 10206 10207 10208 10209 10210 10211 10212 10213 10214 10215 10216 10217 10218 10219 10220 10221 10222 10223 10224 10225 10226 10227 10228 10229 10230 10231 10232 10233 10234 10235 10236 10237 10238 10239 10240 10241 10242 10243 10244 10245 10246 10247 10248 10249 10250 10251 10252 10253 10254 10255 10256 10257 10258 10259 10260 10261 10262 10263 10264 10265 10266 10267 10268 10269 10270 10271 10272 10273 10274 10275 10276 10277 10278 10279 10280 10281 10282 10283 10284 10285 10286 10287 10288 10289 10290 10291 10292 10293 10294 10295 10296 10297 10298 10299 10300 10301 10302 10303 10304 10305 10306 10307 10308 10309 10310 10311 10312 10313 10314 10315 10316 10317 10318 10319 10320 10321 10322 10323 10324 10325 10326 10327 10328 10329 10330 10331 10332 10333 10334 10335 10336 10337 10338 10339 10340 10341 10342 10343 10344 10345 10346 10347 10348 10349 10350 10351 10352 10353 10354 10355 10356 10357 10358 10359 10360 10361 10362 10363 10364 10365 10366 10367 10368 10369 10370 10371 10372 10373 10374 10375 10376 10377 10378 10379 10380 10381 10382 10383 10384 10385 10386 10387 10388 10389 10390 10391 10392 10393 10394 10395 10396 10397 10398 10399 10400 10401 10402 10403 10404 10405 10406 10407 10408 10409 10410 10411 10412 10413 10414 10415 10416 10417 10418 10419 10420 10421 10422 10423 10424 10425 10426 10427 10428 10429 10430 10431 10432 10433 10434 10435 10436 10437 10438 10439 10440 10441 10442 10443 10444 10445 10446 10447 10448 10449 10450 10451 10452 10453 10454 10455 10456 10457 10458 10459 10460 10461 10462 10463 10464 10465 10466 10467 10468 10469 10470 10471 10472 10473 10474 10475 10476 10477 10478 10479 10480 10481 10482 10483 10484 10485 10486 10487 10488 10489 10490 10491 10492 10493 10494 10495 10496 10497 10498 10499 10500 10501 10502 10503 10504 10505 10506 10507 10508 10509 10510 10511 10512 10513 10514 10515 10516 10517 10518 10519 10520 10521 10522 10523 10524 10525 10526 10527 10528 10529 10530 10531 10532 10533 10534 10535 10536 10537 10538 10539 10540 10541 10542 10543 10544 10545 10546 10547 10548 10549 10550 10551 10552 10553 10554 10555 10556 10557 10558 10559 10560 10561 10562 10563 10564 10565 10566 10567 10568 10569 10570 10571 10572 10573 10574 10575 10576 10577 10578 10579 10580 10581 10582 10583 10584 10585 10586 10587 10588 10589 10590 10591 10592 10593 10594 10595 10596 10597 10598 10599 10600 10601 10602 10603 10604 10605 10606 10607 10608 10609 10610 10611 10612 10613 10614 10615 10616 10617 10618 10619 10620 10621 10622 10623 10624 10625 10626 10627 10628 10629 10630 10631 10632 10633 10634 10635 10636 10637 10638 10639 10640 10641 10642 10643 10644 10645 10646 10647 10648 10649 10650 10651 10652 10653 10654 10655 10656 10657 10658 10659 10660 10661 10662 10663 10664 10665 10666 10667 10668 10669 10670 10671 10672 10673 10674 10675 10676 10677 10678 10679 10680 10681 10682 10683 10684 10685 10686 10687 10688 10689 10690 10691 10692 10693 10694 10695 10696 10697 10698 10699 10700 10701 10702 10703 10704 10705 10706 10707 10708 10709 10710 10711 10712 10713 10714 10715 10716 10717 10718 10719 10720 10721 10722 10723 10724 10725 10726 10727 10728 10729 10730 10731 10732 10733 10734 10735 10736 10737 10738 10739 10740 10741 10742 10743 10744 10745 10746 10747 10748 10749 10750 10751 10752 10753 10754 10755 10756 10757 10758 10759 10760 10761 10762 10763 10764 10765 10766 10767 10768 10769 10770 10771 10772 10773 10774 10775 10776 10777 10778 10779 10780 10781 10782 10783 10784 10785 10786 10787 10788 10789 10790 10791 10792 10793 10794 10795 10796 10797 10798 10799 10800 10801 10802 10803 10804 10805 10806 10807 10808 10809 10810 10811 10812 10813 10814 10815 10816 10817 10818 10819 10820 10821 10822 10823 10824 10825 10826 10827 10828 10829 10830 10831 10832 10833 10834 10835 10836 10837 10838 10839 10840 10841 10842 10843 10844 10845 10846 10847 10848 10849 10850 10851 10852 10853 10854 10855 10856 10857 10858 10859 10860 10861 10862 10863 10864 10865 10866 10867 10868 10869 10870 10871 10872 10873 10874 10875 10876 10877 10878 10879 10880 10881 10882 10883 10884 10885 10886 10887 10888 10889 10890 10891 10892 10893 10894 10895 10896 10897 10898 10899 10900 10901 10902 10903 10904 10905 10906 10907 10908 10909 10910 10911 10912 10913 10914 10915 10916 10917 10918 10919 10920 10921 10922 10923 10924 10925 10926 10927 10928 10929 10930 10931 10932 10933 10934 10935 10936 10937 10938 10939 10940 10941 10942 10943 10944 10945 10946 10947 10948 10949 10950 10951 10952 10953 10954 10955 10956 10957 10958 10959 10960 10961 10962 10963 10964 10965 10966 10967 10968 10969 10970 10971 10972 10973 10974 10975 10976 10977 10978 10979 10980 10981 10982 10983 10984 10985 10986 10987 10988 10989 10990 10991 10992 10993 10994 10995 10996 10997 10998 10999 11000 11001 11002 11003 11004 11005 11006 11007 11008 11009 11010 11011 11012 11013 11014 11015 11016 11017 11018 11019 11020 11021 11022 11023 11024 11025 11026 11027 11028 11029 11030 11031 11032 11033 11034 11035 11036 11037 11038 11039 11040 11041 11042 11043 11044 11045 11046 11047 11048 11049 11050 11051 11052 11053 11054 11055 11056 11057 11058 11059 11060 11061 11062 11063 11064 11065 11066 11067 11068 11069 11070 11071 11072 11073 11074 11075 11076 11077 11078 11079 11080 11081 11082 11083 11084 11085 11086 11087 11088 11089 11090 11091 11092 11093 11094 11095 11096 11097 11098 11099 11100 11101 11102 11103 11104 11105 11106 11107 11108 11109 11110 11111 11112 11113 11114 11115 11116 11117 11118 11119 11120 11121 11122 11123 11124 11125 11126 11127 11128 11129 11130 11131 11132 11133 11134 11135 11136 11137 11138 11139 11140 11141 11142 11143 11144 11145 11146 11147 11148 11149 11150 11151 11152 11153 11154 11155 11156 11157 11158 11159 11160 11161 11162 11163 11164 11165 11166 11167 11168 11169 11170 11171 11172 11173 11174 11175 11176 11177 11178 11179 11180 11181 11182 11183 11184 11185 11186 11187 11188 11189 11190 11191 11192 11193 11194 11195 11196 11197 11198 11199 11200 11201 11202 11203 11204 11205 11206 11207 11208 11209 11210 11211 11212 11213 11214 11215 11216 11217 11218 11219 11220 11221 11222 11223 11224 11225 11226 11227 11228 11229 11230 11231 11232 11233 11234 11235 11236 11237 11238 11239 11240 11241 11242 11243 11244 11245 11246 11247 11248 11249 11250 11251 11252 11253 11254 11255 11256 11257 11258 11259 11260 11261 11262 11263 11264 11265 11266 11267 11268 11269 11270 11271 11272 11273 11274 11275 11276 11277 11278 11279 11280 11281 11282 11283 11284 11285 11286 11287 11288 11289 11290 11291 11292 11293 11294 11295 11296 11297 11298 11299 11300 11301 11302 11303 11304 11305 11306 11307 11308 11309 11310 11311 11312 11313 11314 11315 11316 11317 11318 11319 11320 11321 11322 11323 11324 11325 11326 11327 11328 11329 11330 11331 11332 11333 11334 11335 11336 11337 11338 11339 11340 11341 11342 11343 11344 11345 11346 11347 11348 11349 11350 11351 11352 11353 11354 11355 11356 11357 11358 11359 11360 11361 11362 11363 11364 11365 11366 11367 11368 11369 11370 11371 11372 11373 11374 11375 11376 11377 11378 11379 11380 11381 11382 11383 11384 11385 11386 11387 11388 11389 11390 11391 11392 11393 11394 11395 11396 11397 11398 11399 11400 11401 11402 11403 11404 11405 11406 11407 11408 11409 11410 11411 11412 11413 11414 11415 11416 11417 11418 11419 11420 11421 11422 11423 11424 11425 11426 11427 11428 11429 11430 11431 11432 11433 11434 11435 11436 11437 11438 11439 11440 11441 11442 11443 11444 11445 11446 11447 11448 11449 11450 11451 11452 11453 11454 11455 11456 11457 11458 11459 11460 11461 11462 11463 11464 11465 11466 11467 11468 11469 11470 11471 11472 11473 11474 11475 11476 11477 11478 11479 11480 11481 11482 11483 11484 11485 11486 11487 11488 11489 11490 11491 11492 11493 11494 11495 11496 11497 11498 11499 11500 11501 11502 11503 11504 11505 11506 11507 11508 11509 11510 11511 11512 11513 11514 11515 11516 11517 11518 11519 11520 11521 11522 11523 11524 11525 11526 11527 11528 11529 11530 11531 11532 11533 11534 11535 11536 11537 11538 11539 11540 11541 11542 11543 11544 11545 11546 11547 11548 11549 11550 11551 11552 11553 11554 11555 11556 11557 11558 11559 11560 11561 11562 11563 11564 11565 11566 11567 11568 11569 11570 11571 11572 11573 11574 11575 11576 11577 11578 11579 11580 11581 11582 11583 11584 11585 11586 11587 11588 11589 11590 11591 11592 11593 11594 11595 11596 11597 11598 11599 11600 11601 11602 11603 11604 11605 11606 11607 11608 11609 11610 11611 11612 11613 11614 11615 11616 11617 11618 11619 11620 11621 11622 11623 11624 11625 11626 11627 11628 11629 11630 11631 11632 11633 11634 11635 11636 11637 11638 11639 11640 11641 11642 11643 11644 11645 11646 11647 11648 11649 11650 11651 11652 11653 11654 11655 11656 11657 11658 11659 11660 11661 11662 11663 11664 11665 11666 11667 11668 11669 11670 11671 11672 11673 11674 11675 11676 11677 11678 11679 11680 11681 11682 11683 11684 11685 11686 11687 11688 11689 11690 11691 11692 11693 11694 11695 11696 11697 11698 11699 11700 11701 11702 11703 11704 11705 11706 11707 11708 11709 11710 11711 11712 11713 11714 11715 11716 11717 11718 11719 11720 11721 11722 11723 11724 11725 11726 11727 11728 11729 11730 11731 11732 11733 11734 11735 11736 11737 11738 11739 11740 11741 11742 11743 11744 11745 11746 11747 11748 11749 11750 11751 11752 11753 11754 11755 11756 11757 11758 11759 11760 11761 11762 11763 11764 11765 11766 11767 11768 11769 11770 11771 11772 11773 11774 11775 11776 11777 11778 11779 11780 11781 11782 11783 11784 11785 11786 11787 11788 11789 11790 11791 11792 11793 11794 11795 11796 11797 11798 11799 11800 11801 11802 11803 11804 11805 11806 11807 11808 11809 11810 11811 11812 11813 11814 11815 11816 11817 11818 11819 11820 11821 11822 11823 11824 11825 11826 11827 11828 11829 11830 11831 11832 11833 11834 11835 11836 11837 11838 11839 11840 11841 11842 11843 11844 11845 11846 11847 11848 11849 11850 11851 11852 11853 11854 11855 11856 11857 11858 11859 11860 11861 11862 11863 11864 11865 11866 11867 11868 11869 11870 11871 11872 11873 11874 11875 11876 11877 11878 11879 11880 11881 11882 11883 11884 11885 11886 11887 11888 11889 11890 11891 11892 11893 11894 11895 11896 11897 11898 11899 11900 11901 11902 11903 11904 11905 11906 11907 11908 11909 11910 11911 11912 11913 11914 11915 11916 11917 11918 11919 11920 11921 11922 11923 11924 11925 11926 11927 11928 11929 11930 11931 11932 11933 11934 11935 11936 11937 11938 11939 11940 11941 11942 11943 11944 11945 11946 11947 11948 11949 11950 11951 11952 11953 11954 11955 11956 11957 11958 11959 11960 11961 11962 11963 11964 11965 11966 11967 11968 11969 11970 11971 11972 11973 11974 11975 11976 11977 11978 11979 11980 11981 11982 11983 11984 11985 11986 11987 11988 11989 11990 11991 11992 11993 11994 11995 11996 11997 11998 11999 12000 12001 12002 12003 12004 12005 12006 12007 12008 12009 12010 12011 12012 12013 12014 12015 12016 12017 12018 12019 12020 12021 12022 12023 12024 12025 12026 12027 12028 12029 12030 12031 12032 12033 12034 12035 12036 12037 12038 12039 12040 12041 12042 12043 12044 12045 12046 12047 12048 12049 12050 12051 12052 12053 12054 12055 12056 12057 12058 12059 12060 12061 12062 12063 12064 12065 12066 12067 12068 12069 12070 12071 12072 12073 12074 12075 12076 12077 12078 12079 12080 12081 12082 12083 12084 12085 12086 12087 12088 12089 12090 12091 12092 12093 12094 12095 12096 12097 12098 12099 12100 12101 12102 12103 12104 12105 12106 12107 12108 12109 12110 12111 12112 12113 12114 12115 12116 12117 12118 12119 12120 12121 12122 12123 12124 12125 12126 12127 12128 12129 12130 12131 12132 12133 12134 12135 12136 12137 12138 12139 12140 12141 12142 12143 12144 12145 12146 12147 12148 12149 12150 12151 12152 12153 12154 12155 12156 12157 12158 12159 12160 12161 12162 12163 12164 12165 12166 12167 12168 12169 12170 12171 12172 12173 12174 12175 12176 12177 12178 12179 12180 12181 12182 12183 12184 12185 12186 12187 12188 12189 12190 12191 12192 12193 12194 12195 12196 12197 12198 12199 12200 12201 12202 12203 12204 12205 12206 12207 12208 12209 12210 12211 12212 12213 12214 12215 12216 12217 12218 12219 12220 12221 12222 12223 12224 12225 12226 12227 12228 12229 12230 12231 12232 12233 12234 12235 12236 12237 12238 12239 12240 12241 12242 12243 12244 12245 12246 12247 12248 12249 12250 12251 12252 12253 12254 12255 12256 12257 12258 12259 12260 12261 12262 12263 12264 12265 12266 12267 12268 12269 12270 12271 12272 12273 12274 12275 12276 12277 12278 12279 12280 12281 12282 12283 12284 12285 12286 12287 12288 12289 12290 12291 12292 12293 12294 12295 12296 12297 12298 12299 12300 12301 12302 12303 12304 12305 12306 12307 12308 12309 12310 12311 12312 12313 12314 12315 12316 12317 12318 12319 12320 12321 12322 12323 12324 12325 12326 12327 12328 12329 12330 12331 12332 12333 12334 12335 12336 12337 12338 12339 12340 12341 12342 12343 12344 12345 12346 12347 12348 12349 12350 12351 12352 12353 12354 12355 12356 12357 12358 12359 12360 12361 12362 12363 12364 12365 12366 12367 12368 12369 12370 12371 12372 12373 12374 12375 12376 12377 12378 12379 12380 12381 12382 12383 12384 12385 12386 12387 12388 12389 12390 12391 12392 12393 12394 12395 12396 12397 12398 12399 12400 12401 12402 12403 12404 12405 12406 12407 12408 12409 12410 12411 12412 12413 12414 12415 12416 12417 12418 12419 12420 12421 12422 12423 12424 12425 12426 12427 12428 12429 12430 12431 12432 12433 12434 12435 12436 12437 12438 12439 12440 12441 12442 12443 12444 12445 12446 12447 12448 12449 12450 12451 12452 12453 12454 12455 12456 12457 12458 12459 12460 12461 12462 12463 12464 12465 12466 12467 12468 12469 12470 12471 12472 12473 12474 12475 12476 12477 12478 12479 12480 12481 12482 12483 12484 12485 12486 12487 12488 12489 12490 12491 12492 12493 12494 12495 12496 12497 12498 12499 12500 12501 12502 12503 12504 12505 12506 12507 12508 12509 12510 12511 12512 12513 12514 12515 12516 12517 12518 12519 12520 12521 12522 12523 12524 12525 12526 12527 12528 12529 12530 12531 12532 12533 12534 12535 12536 12537 12538 12539 12540 12541 12542 12543 12544 12545 12546 12547 12548 12549 12550 12551 12552 12553 12554 12555 12556 12557 12558 12559 12560 12561 12562 12563 12564 12565 12566 12567 12568 12569 12570 12571 12572 12573 12574 12575 12576 12577 12578 12579 12580 12581 12582 12583 12584 12585 12586 12587 12588 12589 12590 12591 12592 12593 12594 12595 12596 12597 12598 12599 12600 12601 12602 12603 12604 12605 12606 12607 12608 12609 12610 12611 12612 12613 12614 12615 12616 12617 12618 12619 12620 12621 12622 12623 12624 12625 12626 12627 12628 12629 12630 12631 12632 12633 12634 12635 12636 12637 12638 12639 12640 12641 12642 12643 12644 12645 12646 12647 12648 12649 12650 12651 12652 12653 12654 12655 12656 12657 12658 12659 12660 12661 12662 12663 12664 12665 12666 12667 12668 12669 12670 12671 12672 12673 12674 12675 12676 12677 12678 12679 12680 12681 12682 12683 12684 12685 12686 12687 12688 12689 12690 12691 12692 12693 12694 12695 12696 12697 12698 12699 12700 12701 12702 12703 12704 12705 12706 12707 12708 12709 12710 12711 12712 12713 12714 12715 12716 12717 12718 12719 12720 12721 12722 12723 12724 12725 12726 12727 12728 12729 12730 12731 12732 12733 12734 12735 12736 12737 12738 12739 12740 12741 12742 12743 12744 12745 12746 12747 12748 12749 12750 12751 12752 12753 12754 12755 12756 12757 12758 12759 12760 12761 12762 12763 12764 12765 12766 12767 12768 12769 12770 12771 12772 12773 12774 12775 12776 12777 12778 12779 12780 12781 12782 12783 12784 12785 12786 12787 12788 12789 12790 12791 12792 12793 12794 12795 12796 12797 12798 12799 12800 12801 12802 12803 12804 12805 12806 12807 12808 12809 12810 12811 12812 12813 12814 12815 12816 12817 12818 12819 12820 12821 12822 12823 12824 12825 12826 12827 12828 12829 12830 12831 12832 12833 12834 12835 12836 12837 12838 12839 12840 12841 12842 12843 12844 12845 12846 12847 12848 12849 12850 12851 12852 12853 12854 12855 12856 12857 12858 12859 12860 12861 12862 12863 12864 12865 12866 12867 12868 12869 12870 12871 12872 12873 12874 12875 12876 12877 12878 12879 12880 12881 12882 12883 12884 12885 12886 12887 12888 12889 12890 12891 12892 12893 12894 12895 12896 12897 12898 12899 12900 12901 12902 12903 12904 12905 12906 12907 12908 12909 12910 12911 12912 12913 12914 12915 12916 12917 12918 12919 12920 12921 12922 12923 12924 12925 12926 12927 12928 12929 12930 12931 12932 12933 12934 12935 12936 12937 12938 12939 12940 12941 12942 12943 12944 12945 12946 12947 12948 12949 12950 12951 12952 12953 12954 12955 12956 12957 12958 12959 12960 12961 12962 12963 12964 12965 12966 12967 12968 12969 12970 12971 12972 12973 12974 12975 12976 12977 12978 12979 12980 12981 12982 12983 12984 12985 12986 12987 12988 12989 12990 12991 12992 12993 12994 12995 12996 12997 12998 12999 13000 13001 13002 13003 13004 13005 13006 13007 13008 13009 13010 13011 13012 13013 13014 13015 13016 13017 13018 13019 13020 13021 13022 13023 13024 13025 13026 13027 13028 13029 13030 13031 13032 13033 13034 13035 13036 13037 13038 13039 13040 13041 13042 13043 13044 13045 13046 13047 13048 13049 13050 13051 13052 13053 13054 13055 13056 13057 13058 13059 13060 13061 13062 13063 13064 13065 13066 13067 13068 13069 13070 13071 13072 13073 13074 13075 13076 13077 13078 13079 13080 13081 13082 13083 13084 13085 13086 13087 13088 13089 13090 13091 13092 13093 13094 13095 13096 13097 13098 13099 13100 13101 13102 13103 13104 13105 13106 13107 13108 13109 13110 13111 13112 13113 13114 13115 13116 13117 13118 13119 13120 13121 13122 13123 13124 13125 13126 13127 13128 13129 13130 13131 13132 13133 13134 13135 13136 13137 13138 13139 13140 13141 13142 13143 13144 13145 13146 13147 13148 13149 13150 13151 13152 13153 13154 13155 13156 13157 13158 13159 13160 13161 13162 13163 13164 13165 13166 13167 13168 13169 13170 13171 13172 13173 13174 13175 13176 13177 13178 13179 13180 13181 13182 13183 13184 13185 13186 13187 13188 13189 13190 13191 13192 13193 13194 13195 13196 13197 13198 13199 13200 13201 13202 13203 13204 13205 13206 13207 13208 13209 13210 13211 13212 13213 13214 13215 13216 13217 13218 13219 13220 13221 13222 13223 13224 13225 13226 13227 13228 13229 13230 13231 13232 13233 13234 13235 13236 13237 13238 13239 13240 13241 13242 13243 13244 13245 13246 13247 13248 13249 13250 13251 13252 13253 13254 13255 13256 13257 13258 13259 13260 13261 13262 13263 13264 13265 13266 13267 13268 13269 13270 13271 13272 13273 13274 13275 13276 13277 13278 13279 13280 13281 13282 13283 13284 13285 13286 13287 13288 13289 13290 13291 13292 13293 13294 13295 13296 13297 13298 13299 13300 13301 13302 13303 13304 13305 13306 13307 13308 13309 13310 13311 13312 13313 13314 13315 13316 13317 13318 13319 13320 13321 13322 13323 13324 13325 13326 13327 13328 13329 13330 13331 13332 13333 13334 13335 13336 13337 13338 13339 13340 13341 13342 13343 13344 13345 13346 13347 13348 13349 13350 13351 13352 13353 13354 13355 13356 13357 13358 13359 13360 13361 13362 13363 13364 13365 13366 13367 13368 13369 13370 13371 13372 13373 13374 13375 13376 13377 13378 13379 13380 13381 13382 13383 13384 13385 13386 13387 13388 13389 13390 13391 13392 13393 13394 13395 13396 13397 13398 13399 13400 13401 13402 13403 13404 13405 13406 13407 13408 13409 13410 13411 13412 13413 13414 13415 13416 13417 13418 13419 13420 13421 13422 13423 13424 13425 13426 13427 13428 13429 13430 13431 13432 13433 13434 13435 13436 13437 13438 13439 13440 13441 13442 13443 13444 13445 13446 13447 13448 13449 13450 13451 13452 13453 13454 13455 13456 13457 13458 13459 13460 13461 13462 13463 13464 13465 13466 13467 13468 13469 13470 13471 13472 13473 13474 13475 13476 13477 13478 13479 13480 13481 13482 13483 13484 13485 13486 13487 13488 13489 13490 13491 13492 13493 13494 13495 13496 13497 13498 13499 13500 13501 13502 13503 13504 13505 13506 13507 13508 13509 13510 13511 13512 13513 13514 13515 13516 13517 13518 13519 13520 13521 13522 13523 13524 13525 13526 13527 13528 13529 13530 13531 13532 13533 13534 13535 13536 13537 13538 13539 13540 13541 13542 13543 13544 13545 13546 13547 13548 13549 13550 13551 13552 13553 13554 13555 13556 13557 13558 13559 13560 13561 13562 13563 13564 13565 13566 13567 13568 13569 13570 13571 13572 13573 13574 13575 13576 13577 13578 13579 13580 13581 13582 13583 13584 13585 13586 13587 13588 13589 13590 13591 13592 13593 13594 13595 13596 13597 13598 13599 13600 13601 13602 13603 13604 13605 13606 13607 13608 13609 13610 13611 13612 13613 13614 13615 13616 13617 13618 13619 13620 13621 13622 13623 13624 13625 13626 13627 13628 13629 13630 13631 13632 13633 13634 13635 13636 13637 13638 13639 13640 13641 13642 13643 13644 13645 13646 13647 13648 13649 13650 13651 13652 13653 13654 13655 13656 13657 13658 13659 13660 13661 13662 13663 13664 13665 13666 13667 13668 13669 13670 13671 13672 13673 13674 13675 13676 13677 13678 13679 13680 13681 13682 13683 13684 13685 13686 13687 13688 13689 13690 13691 13692 13693 13694 13695 13696 13697 13698 13699 13700 13701 13702 13703 13704 13705 13706 13707 13708 13709 13710 13711 13712 13713 13714 13715 13716 13717 13718 13719 13720 13721 13722 13723 13724 13725 13726 13727 13728 13729 13730 13731 13732 13733 13734 13735 13736 13737 13738 13739 13740 13741 13742 13743 13744 13745 13746 13747 13748 13749 13750 13751 13752 13753 13754 13755 13756 13757 13758 13759 13760 13761 13762 13763 13764 13765 13766 13767 13768 13769 13770 13771 13772 13773 13774 13775 13776 13777 13778 13779 13780 13781 13782 13783 13784 13785 13786 13787 13788 13789 13790 13791 13792 13793 13794 13795 13796 13797 13798 13799 13800 13801 13802 13803 13804 13805 13806 13807 13808 13809 13810 13811 13812 13813 13814 13815 13816 13817 13818 13819 13820 13821 13822 13823 13824 13825 13826 13827 13828 13829 13830 13831 13832 13833 13834 13835 13836 13837 13838 13839 13840 13841 13842 13843 13844 13845 13846 13847 13848 13849 13850 13851 13852 13853 13854 13855 13856 13857 13858 13859 13860 13861 13862 13863 13864 13865 13866 13867 13868 13869 13870 13871 13872 13873 13874 13875 13876 13877 13878 13879 13880 13881 13882 13883 13884 13885 13886 13887 13888 13889 13890 13891 13892 13893 13894 13895 13896 13897 13898 13899 13900 13901 13902 13903 13904 13905 13906 13907 13908 13909 13910 13911 13912 13913 13914 13915 13916 13917 13918 13919 13920 13921 13922 13923 13924 13925 13926 13927 13928 13929 13930 13931 13932 13933 13934 13935 13936 13937 13938 13939 13940 13941 13942 13943 13944 13945 13946 13947 13948 13949 13950 13951 13952 13953 13954 13955 13956 13957 13958 13959 13960 13961 13962 13963 13964 13965 13966 13967 13968 13969 13970 13971 13972 13973 13974 13975 13976 13977 13978 13979 13980 13981 13982 13983 13984 13985 13986 13987 13988 13989 13990 13991 13992 13993 13994 13995 13996 13997 13998 13999 14000 14001 14002 14003 14004 14005 14006 14007 14008 14009 14010 14011 14012 14013 14014 14015 14016 14017 14018 14019 14020 14021 14022 14023 14024 14025 14026 14027 14028 14029 14030 14031 14032 14033 14034 14035 14036 14037 14038 14039 14040 14041 14042 14043 14044 14045 14046 14047 14048 14049 14050 14051 14052 14053 14054 14055 14056 14057 14058 14059 14060 14061 14062 14063 14064 14065 14066 14067 14068 14069 14070 14071 14072 14073 14074 14075 14076 14077 14078 14079 14080 14081 14082 14083 14084 14085 14086 14087 14088 14089 14090 14091 14092 14093 14094 14095 14096 14097 14098 14099 14100 14101 14102 14103 14104 14105 14106 14107 14108 14109 14110 14111 14112 14113 14114 14115 14116 14117 14118 14119 14120 14121 14122 14123 14124 14125 14126 14127 14128 14129 14130 14131 14132 14133 14134 14135 14136 14137 14138 14139 14140 14141 14142 14143 14144 14145 14146 14147 14148 14149 14150 14151 14152 14153 14154 14155 14156 14157 14158 14159 14160 14161 14162 14163 14164 14165 14166 14167 14168 14169 14170 14171 14172 14173 14174 14175 14176 14177 14178 14179 14180 14181 14182 14183 14184 14185 14186 14187 14188 14189 14190 14191 14192 14193 14194 14195 14196 14197 14198 14199 14200 14201 14202 14203 14204 14205 14206 14207 14208 14209 14210 14211 14212 14213 14214 14215 14216 14217 14218 14219 14220 14221 14222 14223 14224 14225 14226 14227 14228 14229 14230 14231 14232 14233 14234 14235 14236 14237 14238 14239 14240 14241 14242 14243 14244 14245 14246 14247 14248 14249 14250 14251 14252 14253 14254 14255 14256 14257 14258 14259 14260 14261 14262 14263 14264 14265 14266 14267 14268 14269 14270 14271 14272 14273 14274 14275 14276 14277 14278 14279 14280 14281 14282 14283 14284 14285 14286 14287 14288 14289 14290 14291 14292 14293 14294 14295 14296 14297 14298 14299 14300 14301 14302 14303 14304 14305 14306 14307 14308 14309 14310 14311 14312 14313 14314 14315 14316 14317 14318 14319 14320 14321 14322 14323 14324 14325 14326 14327 14328 14329 14330 14331 14332 14333 14334 14335 14336 14337 14338 14339 14340 14341 14342 14343 14344 14345 14346 14347 14348 14349 14350 14351 14352 14353 14354 14355 14356 14357 14358 14359 14360 14361 14362 14363 14364 14365 14366 14367 14368 14369 14370 14371 14372 14373 14374 14375 14376 14377 14378 14379 14380 14381 14382 14383 14384 14385 14386 14387 14388 14389 14390 14391 14392 14393 14394 14395 14396 14397 14398 14399 14400 14401 14402 14403 14404 14405 14406 14407 14408 14409 14410 14411 14412 14413 14414 14415 14416 14417 14418 14419 14420 14421 14422 14423 14424 14425 14426 14427 14428 14429 14430 14431 14432 14433 14434 14435 14436 14437 14438 14439 14440 14441 14442 14443 14444 14445 14446 14447 14448 14449 14450 14451 14452 14453 14454 14455 14456 14457 14458 14459 14460 14461 14462 14463 14464 14465 14466 14467 14468 14469 14470 14471 14472 14473 14474 14475 14476 14477 14478 14479 14480 14481 14482 14483 14484 14485 14486 14487 14488 14489 14490 14491 14492 14493 14494 14495 14496 14497 14498 14499 14500 14501 14502 14503 14504 14505 14506 14507 14508 14509 14510 14511 14512 14513 14514 14515 14516 14517 14518 14519 14520 14521 14522 14523 14524 14525 14526 14527 14528 14529 14530 14531 14532 14533 14534 14535 14536 14537 14538 14539 14540 14541 14542 14543 14544 14545 14546 14547 14548 14549 14550 14551 14552 14553 14554 14555 14556 14557 14558 14559 14560 14561 14562 14563 14564 14565 14566 14567 14568 14569 14570 14571 14572 14573 14574 14575 14576 14577 14578 14579 14580 14581 14582 14583 14584 14585 14586 14587 14588 14589 14590 14591 14592 14593 14594 14595 14596 14597 14598 14599 14600 14601 14602 14603 14604 14605 14606 14607 14608 14609 14610 14611 14612 14613 14614 14615 14616 14617 14618 14619 14620 14621 14622 14623 14624 14625 14626 14627 14628 14629 14630 14631 14632 14633 14634 14635 14636 14637 14638 14639 14640 14641 14642 14643 14644 14645 14646 14647 14648 14649 14650 14651 14652 14653 14654 14655 14656 14657 14658 14659 14660 14661 14662 14663 14664 14665 14666 14667 14668 14669 14670 14671 14672 14673 14674 14675 14676 14677 14678 14679 14680 14681 14682 14683 14684 14685 14686 14687 14688 14689 14690 14691 14692 14693 14694 14695 14696 14697 14698 14699 14700 14701 14702 14703 14704 14705 14706 14707 14708 14709 14710 14711 14712 14713 14714 14715 14716 14717 14718 14719 14720 14721 14722 14723 14724 14725 14726 14727 14728 14729 14730 14731 14732 14733 14734 14735 14736 14737 14738 14739 14740 14741 14742 14743 14744 14745 14746 14747 14748 14749 14750 14751 14752 14753 14754 14755 14756 14757 14758 14759 14760 14761 14762 14763 14764 14765 14766 14767 14768 14769 14770 14771 14772 14773 14774 14775 14776 14777 14778 14779 14780 14781 14782 14783 14784 14785 14786 14787 14788 14789 14790 14791 14792 14793 14794 14795 14796 14797 14798 14799 14800 14801 14802 14803 14804 14805 14806 14807 14808 14809 14810 14811 14812 14813 14814 14815 14816 14817 14818 14819 14820 14821 14822 14823 14824 14825 14826 14827 14828 14829 14830 14831 14832 14833 14834 14835 14836 14837 14838 14839 14840 14841 14842 14843 14844 14845 14846 14847 14848 14849 14850 14851 14852 14853 14854 14855 14856 14857 14858 14859 14860 14861 14862 14863 14864 14865 14866 14867 14868 14869 14870 14871 14872 14873 14874 14875 14876 14877 14878 14879 14880 14881 14882 14883 14884 14885 14886 14887 14888 14889 14890 14891 14892 14893 14894 14895 14896 14897 14898 14899 14900 14901 14902 14903 14904 14905 14906 14907 14908 14909 14910 14911 14912 14913 14914 14915 14916 14917 14918 14919 14920 14921 14922 14923 14924 14925 14926 14927 14928 14929 14930 14931 14932 14933 14934 14935 14936 14937 14938 14939 14940 14941 14942 14943 14944 14945 14946 14947 14948 14949 14950 14951 14952 14953 14954 14955 14956 14957 14958 14959 14960 14961 14962 14963 14964 14965 14966 14967 14968 14969 14970 14971 14972 14973 14974 14975 14976 14977 14978 14979 14980 14981 14982 14983 14984 14985 14986 14987 14988 14989 14990 14991 14992 14993 14994 14995 14996 14997 14998 14999 15000 15001 15002 15003 15004 15005 15006 15007 15008 15009 15010 15011 15012 15013 15014 15015 15016 15017 15018 15019 15020 15021 15022 15023 15024 15025 15026 15027 15028 15029 15030 15031 15032 15033 15034 15035 15036 15037 15038 15039 15040 15041 15042 15043 15044 15045 15046 15047 15048 15049 15050 15051 15052 15053 15054 15055 15056 15057 15058 15059 15060 15061 15062 15063 15064 15065 15066 15067 15068 15069 15070 15071 15072 15073 15074 15075 15076 15077 15078 15079 15080 15081 15082 15083 15084 15085 15086 15087 15088 15089 15090 15091 15092 15093 15094 15095 15096 15097 15098 15099 15100 15101 15102 15103 15104 15105 15106 15107 15108 15109 15110 15111 15112 15113 15114 15115 15116 15117 15118 15119 15120 15121 15122 15123 15124 15125 15126 15127 15128 15129 15130 15131 15132 15133 15134 15135 15136 15137 15138 15139 15140 15141 15142 15143 15144 15145 15146 15147 15148 15149 15150 15151 15152 15153 15154 15155 15156 15157 15158 15159 15160 15161 15162 15163 15164 15165 15166 15167 15168 15169 15170 15171 15172 15173 15174 15175 15176 15177 15178 15179 15180 15181 15182 15183 15184 15185 15186 15187 15188 15189 15190 15191 15192 15193 15194 15195 15196 15197 15198 15199 15200 15201 15202 15203 15204 15205 15206 15207 15208 15209 15210 15211 15212 15213 15214 15215 15216 15217 15218 15219 15220 15221 15222 15223 15224 15225 15226 15227 15228 15229 15230 15231 15232 15233 15234 15235 15236 15237 15238 15239 15240 15241 15242 15243 15244 15245 15246 15247 15248 15249 15250 15251 15252 15253 15254 15255 15256 15257 15258 15259 15260 15261 15262 15263 15264 15265 15266 15267 15268 15269 15270 15271 15272 15273 15274 15275 15276 15277 15278 15279 15280 15281 15282 15283 15284 15285 15286 15287 15288 15289 15290 15291 15292 15293 15294 15295 15296 15297 15298 15299 15300 15301 15302 15303 15304 15305 15306 15307 15308 15309 15310 15311 15312 15313 15314 15315 15316 15317 15318 15319 15320 15321 15322 15323 15324 15325 15326 15327 15328 15329 15330 15331 15332 15333 15334 15335 15336 15337 15338 15339 15340 15341 15342 15343 15344 15345 15346 15347 15348 15349 15350 15351 15352 15353 15354 15355 15356 15357 15358 15359 15360 15361 15362 15363 15364 15365 15366 15367 15368 15369 15370 15371 15372 15373 15374 15375 15376 15377 15378 15379 15380 15381 15382 15383 15384 15385 15386 15387 15388 15389 15390 15391 15392 15393 15394 15395 15396 15397 15398 15399 15400 15401 15402 15403 15404 15405 15406 15407 15408 15409 15410 15411 15412 15413 15414 15415 15416 15417 15418 15419 15420 15421 15422 15423 15424 15425 15426 15427 15428 15429 15430 15431 15432 15433 15434 15435 15436 15437 15438 15439 15440 15441 15442 15443 15444 15445 15446 15447 15448 15449 15450 15451 15452 15453 15454 15455 15456 15457 15458 15459 15460 15461 15462 15463 15464 15465 15466 15467 15468 15469 15470 15471 15472 15473 15474 15475 15476 15477 15478 15479 15480 15481 15482 15483 15484 15485 15486 15487 15488 15489 15490 15491 15492 15493 15494 15495 15496 15497 15498 15499 15500 15501 15502 15503 15504 15505 15506 15507 15508 15509 15510 15511 15512 15513 15514 15515 15516 15517 15518 15519 15520 15521 15522 15523 15524 15525 15526 15527 15528 15529 15530 15531 15532 15533 15534 15535 15536 15537 15538 15539 15540 15541 15542 15543 15544 15545 15546 15547 15548 15549 15550 15551 15552 15553 15554 15555 15556 15557 15558 15559 15560 15561 15562 15563 15564 15565 15566 15567 15568 15569 15570 15571 15572 15573 15574 15575 15576 15577 15578 15579 15580 15581 15582 15583 15584 15585 15586 15587 15588 15589 15590 15591 15592 15593 15594 15595 15596 15597 15598 15599 15600 15601 15602 15603 15604 15605 15606 15607 15608 15609 15610 15611 15612 15613 15614 15615 15616 15617 15618 15619 15620 15621 15622 15623 15624 15625 15626 15627 15628 15629 15630 15631 15632 15633 15634 15635 15636 15637 15638 15639 15640 15641 15642 15643 15644 15645 15646 15647 15648 15649 15650 15651 15652 15653 15654 15655 15656 15657 15658 15659 15660 15661 15662 15663 15664 15665 15666 15667 15668 15669 15670 15671 15672 15673 15674 15675 15676 15677 15678 15679 15680 15681 15682 15683 15684 15685 15686 15687 15688 15689 15690 15691 15692 15693 15694 15695 15696 15697 15698 15699 15700 15701 15702 15703 15704 15705 15706 15707 15708 15709 15710 15711 15712 15713 15714 15715 15716 15717 15718 15719 15720 15721 15722 15723 15724 15725 15726 15727 15728 15729 15730 15731 15732 15733 15734 15735 15736 15737 15738 15739 15740 15741 15742 15743 15744 15745 15746 15747 15748 15749 15750 15751 15752 15753 15754 15755 15756 15757 15758 15759 15760 15761 15762 15763 15764 15765 15766 15767 15768 15769 15770 15771 15772 15773 15774 15775 15776 15777 15778 15779 15780 15781 15782 15783 15784 15785 15786 15787 15788 15789 15790 15791 15792 15793 15794 15795 15796 15797 15798 15799 15800 15801 15802 15803 15804 15805 15806 15807 15808 15809 15810 15811 15812 15813 15814 15815 15816 15817 15818 15819 15820 15821 15822 15823 15824 15825 15826 15827 15828 15829 15830 15831 15832 15833 15834 15835 15836 15837 15838 15839 15840 15841 15842 15843 15844 15845 15846 15847 15848 15849 15850 15851 15852 15853 15854 15855 15856 15857 15858 15859 15860 15861 15862 15863 15864 15865 15866 15867 15868 15869 15870 15871 15872 15873 15874 15875 15876 15877 15878 15879 15880 15881 15882 15883 15884 15885 15886 15887 15888 15889 15890 15891 15892 15893 15894 15895 15896 15897 15898 15899 15900 15901 15902 15903 15904 15905 15906 15907 15908 15909 15910 15911 15912 15913 15914 15915 15916 15917 15918 15919 15920 15921 15922 15923 15924 15925 15926 15927 15928 15929 15930 15931 15932 15933 15934 15935 15936 15937 15938 15939 15940 15941 15942 15943 15944 15945 15946 15947 15948 15949 15950 15951 15952 15953 15954 15955 15956 15957 15958 15959 15960 15961 15962 15963 15964 15965 15966 15967 15968 15969 15970 15971 15972 15973 15974 15975 15976 15977 15978 15979 15980 15981 15982 15983 15984 15985 15986 15987 15988 15989 15990 15991 15992 15993 15994 15995 15996 15997 15998 15999 16000 16001 16002 16003 16004 16005 16006 16007 16008 16009 16010 16011 16012 16013 16014 16015 16016 16017 16018 16019 16020 16021 16022 16023 16024 16025 16026 16027 16028 16029 16030 16031 16032 16033 16034 16035 16036 16037 16038 16039 16040 16041 16042 16043 16044 16045 16046 16047 16048 16049 16050 16051 16052 16053 16054 16055 16056 16057 16058 16059 16060 16061 16062 16063 16064 16065 16066 16067 16068 16069 16070 16071 16072 16073 16074 16075 16076 16077 16078 16079 16080 16081 16082 16083 16084 16085 16086 16087 16088 16089 16090 16091 16092 16093 16094 16095 16096 16097 16098 16099 16100 16101 16102 16103 16104 16105 16106 16107 16108 16109 16110 16111 16112 16113 16114 16115 16116 16117 16118 16119 16120 16121 16122 16123 16124 16125 16126 16127 16128 16129 16130 16131 16132 16133 16134 16135 16136 16137 16138 16139 16140 16141 16142 16143 16144 16145 16146 16147 16148 16149 16150 16151 16152 16153 16154 16155 16156 16157 16158 16159 16160 16161 16162 16163 16164 16165 16166 16167 16168 16169 16170 16171 16172 16173 16174 16175 16176 16177 16178 16179 16180 16181 16182 16183 16184 16185 16186 16187 16188 16189 16190 16191 16192 16193 16194 16195 16196 16197 16198 16199 16200 16201 16202 16203 16204 16205 16206 16207 16208 16209 16210 16211 16212 16213 16214 16215 16216 16217 16218 16219 16220 16221 16222 16223 16224 16225 16226 16227 16228 16229 16230 16231 16232 16233 16234 16235 16236 16237 16238 16239 16240 16241 16242 16243 16244 16245 16246 16247 16248 16249 16250 16251 16252 16253 16254 16255 16256 16257 16258 16259 16260 16261 16262 16263 16264 16265 16266 16267 16268 16269 16270 16271 16272 16273 16274 16275 16276 16277 16278 16279 16280 16281 16282 16283 16284 16285 16286 16287 16288 16289 16290 16291 16292 16293 16294 16295 16296 16297 16298 16299 16300 16301 16302 16303 16304 16305 16306 16307 16308 16309 16310 16311 16312 16313 16314 16315 16316 16317 16318 16319 16320 16321 16322 16323 16324 16325 16326 16327 16328 16329 16330 16331 16332 16333 16334 16335 16336 16337 16338 16339 16340 16341 16342 16343 16344 16345 16346 16347 16348 16349 16350 16351 16352 16353 16354 16355 16356 16357 16358 16359 16360 16361 16362 16363 16364 16365 16366 16367 16368 16369 16370 16371 16372 16373 16374 16375 16376 16377 16378 16379 16380 16381 16382 16383 16384 16385 16386 16387 16388 16389 16390 16391 16392 16393 16394 16395 16396 16397 16398 16399 16400 16401 16402 16403 16404 16405 16406 16407 16408 16409 16410 16411 16412 16413 16414 16415 16416 16417 16418 16419 16420 16421 16422 16423 16424 16425 16426 16427 16428 16429 16430 16431 16432 16433 16434 16435 16436 16437 16438 16439 16440 16441 16442 16443 16444 16445 16446 16447 16448 16449 16450 16451 16452 16453 16454 16455 16456 16457 16458 16459 16460 16461 16462 16463 16464 16465 16466 16467 16468 16469 16470 16471 16472 16473 16474 16475 16476 16477 16478 16479 16480 16481 16482 16483 16484 16485 16486 16487 16488 16489 16490 16491 16492 16493 16494 16495 16496 16497 16498 16499 16500 16501 16502 16503 16504 16505 16506 16507 16508 16509 16510 16511 16512 16513 16514 16515 16516 16517 16518 16519 16520 16521 16522 16523 16524 16525 16526 16527 16528 16529 16530 16531 16532 16533 16534 16535 16536 16537 16538 16539 16540 16541 16542 16543 16544 16545 16546 16547 16548 16549 16550 16551 16552 16553 16554 16555 16556 16557 16558 16559 16560 16561 16562 16563 16564 16565 16566 16567 16568 16569 16570 16571 16572 16573 16574 16575 16576 16577 16578 16579 16580 16581 16582 16583 16584 16585 16586 16587 16588 16589 16590 16591 16592 16593 16594 16595 16596 16597 16598 16599 16600 16601 16602 16603 16604 16605 16606 16607 16608 16609 16610 16611 16612 16613 16614 16615 16616 16617 16618 16619 16620 16621 16622 16623 16624 16625 16626 16627 16628 16629 16630 16631 16632 16633 16634 16635 16636 16637 16638 16639 16640 16641 16642 16643 16644 16645 16646 16647 16648 16649 16650 16651 16652 16653 16654 16655 16656 16657 16658 16659 16660 16661 16662 16663 16664 16665 16666 16667 16668 16669 16670 16671 16672 16673 16674 16675 16676 16677 16678 16679 16680 16681 16682 16683 16684 16685 16686 16687 16688 16689 16690 16691 16692 16693 16694 16695 16696 16697 16698 16699 16700 16701 16702 16703 16704 16705 16706 16707 16708 16709 16710 16711 16712 16713 16714 16715 16716 16717 16718 16719 16720 16721 16722 16723 16724 16725 16726 16727 16728 16729 16730 16731 16732 16733 16734 16735 16736 16737 16738 16739 16740 16741 16742 16743 16744 16745 16746 16747 16748 16749 16750 16751 16752 16753 16754 16755 16756 16757 16758 16759 16760 16761 16762 16763 16764 16765 16766 16767 16768 16769 16770 16771 16772 16773 16774 16775 16776 16777 16778 16779 16780 16781 16782 16783 16784 16785 16786 16787 16788 16789 16790 16791 16792 16793 16794 16795 16796 16797 16798 16799 16800 16801 16802 16803 16804 16805 16806 16807 16808 16809 16810 16811 16812 16813 16814 16815 16816 16817 16818 16819 16820 16821 16822 16823 16824 16825 16826 16827 16828 16829 16830 16831 16832 16833 16834 16835 16836 16837 16838 16839 16840 16841 16842 16843 16844 16845 16846 16847 16848 16849 16850 16851 16852 16853 16854 16855 16856 16857 16858 16859 16860 16861 16862 16863 16864 16865 16866 16867 16868 16869 16870 16871 16872 16873 16874 16875 16876 16877 16878 16879 16880 16881 16882 16883 16884 16885 16886 16887 16888 16889 16890 16891 16892 16893 16894 16895 16896 16897 16898 16899 16900 16901 16902 16903 16904 16905 16906 16907 16908 16909 16910 16911 16912 16913 16914 16915 16916 16917 16918 16919 16920 16921 16922 16923 16924 16925 16926 16927 16928 16929 16930 16931 16932 16933 16934 16935 16936 16937 16938 16939 16940 16941 16942 16943 16944 16945 16946 16947 16948 16949 16950 16951 16952 16953 16954 16955 16956 16957 16958 16959 16960 16961 16962 16963 16964 16965 16966 16967 16968 16969 16970 16971 16972 16973 16974 16975 16976 16977 16978 16979 16980 16981 16982 16983 16984 16985 16986 16987 16988 16989 16990 16991 16992 16993 16994 16995 16996 16997 16998 16999 17000 17001 17002 17003 17004 17005 17006 17007 17008 17009 17010 17011 17012 17013 17014 17015 17016 17017 17018 17019 17020 17021 17022 17023 17024 17025 17026 17027 17028 17029 17030 17031 17032 17033 17034 17035 17036 17037 17038 17039 17040 17041 17042 17043 17044 17045 17046 17047 17048 17049 17050 17051 17052 17053 17054 17055 17056 17057 17058 17059 17060 17061 17062 17063 17064 17065 17066 17067 17068 17069 17070 17071 17072 17073 17074 17075 17076 17077 17078 17079 17080 17081 17082 17083 17084 17085 17086 17087 17088 17089 17090 17091 17092 17093 17094 17095 17096 17097 17098 17099 17100 17101 17102 17103 17104 17105 17106 17107 17108 17109 17110 17111 17112 17113 17114 17115 17116 17117 17118 17119 17120 17121 17122 17123 17124 17125 17126 17127 17128 17129 17130 17131 17132 17133 17134 17135 17136 17137 17138 17139 17140 17141 17142 17143 17144 17145 17146 17147 17148 17149 17150 17151 17152 17153 17154 17155 17156 17157 17158 17159 17160 17161 17162 17163 17164 17165 17166 17167 17168 17169 17170 17171 17172 17173 17174 17175 17176 17177 17178 17179 17180 17181 17182 17183 17184 17185 17186 17187 17188 17189 17190 17191 17192 17193 17194 17195 17196 17197 17198 17199 17200 17201 17202 17203 17204 17205 17206 17207 17208 17209 17210 17211 17212 17213 17214 17215 17216 17217 17218 17219 17220 17221 17222 17223 17224 17225 17226 17227 17228 17229 17230 17231 17232 17233 17234 17235 17236 17237 17238 17239 17240 17241 17242 17243 17244 17245 17246 17247 17248 17249 17250 17251 17252 17253 17254 17255 17256 17257 17258 17259 17260 17261 17262 17263 17264 17265 17266 17267 17268 17269 17270 17271 17272 17273 17274 17275 17276 17277 17278 17279 17280 17281 17282 17283 17284 17285 17286 17287 17288 17289 17290 17291 17292 17293 17294 17295 17296 17297 17298 17299 17300 17301 17302 17303 17304 17305 17306 17307 17308 17309 17310 17311 17312 17313 17314 17315 17316 17317 17318 17319 17320 17321 17322 17323 17324 17325 17326 17327 17328 17329 17330 17331 17332 17333 17334 17335 17336 17337 17338 17339 17340 17341 17342 17343 17344 17345 17346 17347 17348 17349 17350 17351 17352 17353 17354 17355 17356 17357 17358 17359 17360 17361 17362 17363 17364 17365 17366 17367 17368 17369 17370 17371 17372 17373 17374 17375 17376 17377 17378 17379 17380 17381 17382 17383 17384 17385 17386 17387 17388 17389 17390 17391 17392 17393 17394 17395 17396 17397 17398 17399 17400 17401 17402 17403 17404 17405 17406 17407 17408 17409 17410 17411 17412 17413 17414 17415 17416 17417 17418 17419 17420 17421 17422 17423 17424 17425 17426 17427 17428 17429 17430 17431 17432 17433 17434 17435 17436 17437 17438 17439 17440 17441 17442 17443 17444 17445 17446 17447 17448 17449 17450 17451 17452 17453 17454 17455 17456 17457 17458 17459 17460 17461 17462 17463 17464 17465 17466 17467 17468 17469 17470 17471 17472 17473 17474 17475 17476 17477 17478 17479 17480 17481 17482 17483 17484 17485 17486 17487 17488 17489 17490 17491 17492 17493 17494 17495 17496 17497 17498 17499 17500 17501 17502 17503 17504 17505 17506 17507 17508 17509 17510 17511 17512 17513 17514 17515 17516 17517 17518 17519 17520 17521 17522 17523 17524 17525 17526 17527 17528 17529 17530 17531 17532 17533 17534 17535 17536 17537 17538 17539 17540 17541 17542 17543 17544 17545 17546 17547 17548 17549 17550 17551 17552 17553 17554 17555 17556 17557 17558 17559 17560 17561 17562 17563 17564 17565 17566 17567 17568 17569 17570 17571 17572 17573 17574 17575 17576 17577 17578 17579 17580 17581 17582 17583 17584 17585 17586 17587 17588 17589 17590 17591 17592 17593 17594 17595 17596 17597 17598 17599 17600 17601 17602 17603 17604 17605 17606 17607 17608 17609 17610 17611 17612 17613 17614 17615 17616 17617 17618 17619 17620 17621 17622 17623 17624 17625 17626 17627 17628 17629 17630 17631 17632 17633 17634 17635 17636 17637 17638 17639 17640 17641 17642 17643 17644 17645 17646 17647 17648 17649 17650 17651 17652 17653 17654 17655 17656 17657 17658 17659 17660 17661 17662 17663 17664 17665 17666 17667 17668 17669 17670 17671 17672 17673 17674 17675 17676 17677 17678 17679 17680 17681 17682 17683 17684 17685 17686 17687 17688 17689 17690 17691 17692 17693 17694 17695 17696 17697 17698 17699 17700 17701 17702 17703 17704 17705 17706 17707 17708 17709 17710 17711 17712 17713 17714 17715 17716 17717 17718 17719 17720 17721 17722 17723 17724 17725 17726 17727 17728 17729 17730 17731 17732 17733 17734 17735 17736 17737 17738 17739 17740 17741 17742 17743 17744 17745 17746 17747 17748 17749 17750 17751 17752 17753 17754 17755 17756 17757 17758 17759 17760 17761 17762 17763 17764 17765 17766 17767 17768 17769 17770 17771 17772 17773 17774 17775 17776 17777 17778 17779 17780 17781 17782 17783 17784 17785 17786 17787 17788 17789 17790 17791 17792 17793 17794 17795 17796 17797 17798 17799 17800 17801 17802 17803 17804 17805 17806 17807 17808 17809 17810 17811 17812 17813 17814 17815 17816 17817 17818 17819 17820 17821 17822 17823 17824 17825 17826 17827 17828 17829 17830 17831 17832 17833 17834 17835 17836 17837 17838 17839 17840 17841 17842 17843 17844 17845 17846 17847 17848 17849 17850 17851 17852 17853 17854 17855 17856 17857 17858 17859 17860 17861 17862 17863 17864 17865 17866 17867 17868 17869 17870 17871 17872 17873 17874 17875 17876 17877 17878 17879 17880 17881 17882 17883 17884 17885 17886 17887 17888 17889 17890 17891 17892 17893 17894 17895 17896 17897 17898 17899 17900 17901 17902 17903 17904 17905 17906 17907 17908 17909 17910 17911 17912 17913 17914 17915 17916 17917 17918 17919 17920 17921 17922 17923 17924 17925 17926 17927 17928 17929 17930 17931 17932 17933 17934 17935 17936 17937 17938 17939 17940 17941 17942 17943 17944 17945 17946 17947 17948 17949 17950 17951 17952 17953 17954 17955 17956 17957 17958 17959 17960 17961 17962 17963 17964 17965 17966 17967 17968 17969 17970 17971 17972 17973 17974 17975 17976 17977 17978 17979 17980 17981 17982 17983 17984 17985 17986 17987 17988 17989 17990 17991 17992 17993 17994 17995 17996 17997 17998 17999 18000 18001 18002 18003 18004 18005 18006 18007 18008 18009 18010 18011 18012 18013 18014 18015 18016 18017 18018 18019 18020 18021 18022 18023 18024 18025 18026 18027 18028 18029 18030 18031 18032 18033 18034 18035 18036 18037 18038 18039 18040 18041 18042 18043 18044 18045 18046 18047 18048 18049 18050 18051 18052 18053 18054 18055 18056 18057 18058 18059 18060 18061 18062 18063 18064 18065 18066 18067 18068 18069 18070 18071 18072 18073 18074 18075 18076 18077 18078 18079 18080 18081 18082 18083 18084 18085 18086 18087 18088 18089 18090 18091 18092 18093 18094 18095 18096 18097 18098 18099 18100 18101 18102 18103 18104 18105 18106 18107 18108 18109 18110 18111 18112 18113 18114 18115 18116 18117 18118 18119 18120 18121 18122 18123 18124 18125 18126 18127 18128 18129 18130 18131 18132 18133 18134 18135 18136 18137 18138 18139 18140 18141 18142 18143 18144 18145 18146 18147 18148 18149 18150 18151 18152 18153 18154 18155 18156 18157 18158 18159 18160 18161 18162 18163 18164 18165 18166 18167 18168 18169 18170 18171 18172 18173 18174 18175 18176 18177 18178 18179 18180 18181 18182 18183 18184 18185 18186 18187 18188 18189 18190 18191 18192 18193 18194 18195 18196 18197 18198 18199 18200 18201 18202 18203 18204 18205 18206 18207 18208 18209 18210 18211 18212 18213 18214 18215 18216 18217 18218 18219 18220 18221 18222 18223 18224 18225 18226 18227 18228 18229 18230 18231 18232 18233 18234 18235 18236 18237 18238 18239 18240 18241 18242 18243 18244 18245 18246 18247 18248 18249 18250 18251 18252 18253 18254 18255 18256 18257 18258 18259 18260 18261 18262 18263 18264 18265 18266 18267 18268 18269 18270 18271 18272 18273 18274 18275 18276 18277 18278 18279 18280 18281 18282 18283 18284 18285 18286 18287 18288 18289 18290 18291 18292 18293 18294 18295 18296 18297 18298 18299 18300 18301 18302 18303 18304 18305 18306 18307 18308 18309 18310 18311 18312 18313 18314 18315 18316 18317 18318 18319 18320 18321 18322 18323 18324 18325 18326 18327 18328 18329 18330 18331 18332 18333 18334 18335 18336 18337 18338 18339 18340 18341 18342 18343 18344 18345 18346 18347 18348 18349 18350 18351 18352 18353 18354 18355 18356 18357 18358 18359 18360 18361 18362 18363 18364 18365 18366 18367 18368 18369 18370 18371 18372 18373 18374 18375 18376 18377 18378 18379 18380 18381 18382 18383 18384 18385 18386 18387 18388 18389 18390 18391 18392 18393 18394 18395 18396 18397 18398 18399 18400 18401 18402 18403 18404 18405 18406 18407 18408 18409 18410 18411 18412 18413 18414 18415 18416 18417 18418 18419 18420 18421 18422 18423 18424 18425 18426 18427 18428 18429 18430 18431 18432 18433 18434 18435 18436 18437 18438 18439 18440 18441 18442 18443 18444 18445 18446 18447 18448 18449 18450 18451 18452 18453 18454 18455 18456 18457 18458 18459 18460 18461 18462 18463 18464 18465 18466 18467 18468 18469 18470 18471 18472 18473 18474 18475 18476 18477 18478 18479 18480 18481 18482 18483 18484 18485 18486 18487 18488 18489 18490 18491 18492 18493 18494 18495 18496 18497 18498 18499 18500 18501 18502 18503 18504 18505 18506 18507 18508 18509 18510 18511 18512 18513 18514 18515 18516 18517 18518 18519 18520 18521 18522 18523 18524 18525 18526 18527 18528 18529 18530 18531 18532 18533 18534 18535 18536 18537 18538 18539 18540 18541 18542 18543 18544 18545 18546 18547 18548 18549 18550 18551 18552 18553 18554 18555 18556 18557 18558 18559 18560 18561 18562 18563 18564 18565 18566 18567 18568 18569 18570 18571 18572 18573 18574 18575 18576 18577 18578 18579 18580 18581 18582 18583 18584 18585 18586 18587 18588 18589 18590 18591 18592 18593 18594 18595 18596 18597 18598 18599 18600 18601 18602 18603 18604 18605 18606 18607 18608 18609 18610 18611 18612 18613 18614 18615 18616 18617 18618 18619 18620 18621 18622 18623 18624 18625 18626 18627 18628 18629 18630 18631 18632 18633 18634 18635 18636 18637 18638 18639 18640 18641 18642 18643 18644 18645 18646 18647 18648 18649 18650 18651 18652 18653 18654 18655 18656 18657 18658 18659 18660 18661 18662 18663 18664 18665 18666 18667 18668 18669 18670 18671 18672 18673 18674 18675 18676 18677 18678 18679 18680 18681 18682 18683 18684 18685 18686 18687 18688 18689 18690 18691 18692 18693 18694 18695 18696 18697 18698 18699 18700 18701 18702 18703 18704 18705 18706 18707 18708 18709 18710 18711 18712 18713 18714 18715 18716 18717 18718 18719 18720 18721 18722 18723 18724 18725 18726 18727 18728 18729 18730 18731 18732 18733 18734 18735 18736 18737 18738 18739 18740 18741 18742 18743 18744 18745 18746 18747 18748 18749 18750 18751 18752 18753 18754 18755 18756 18757 18758 18759 18760 18761 18762 18763 18764 18765 18766 18767 18768 18769 18770 18771 18772 18773 18774 18775 18776 18777 18778 18779 18780 18781 18782 18783 18784 18785 18786 18787 18788 18789 18790 18791 18792 18793 18794 18795 18796 18797 18798 18799 18800 18801 18802 18803 18804 18805 18806 18807 18808 18809 18810 18811 18812 18813 18814 18815 18816 18817 18818 18819 18820 18821 18822 18823 18824 18825 18826 18827 18828 18829 18830 18831 18832 18833 18834 18835 18836 18837 18838 18839 18840 18841 18842 18843 18844 18845 18846 18847 18848 18849 18850 18851 18852 18853 18854 18855 18856 18857 18858 18859 18860 18861 18862 18863 18864 18865 18866 18867 18868 18869 18870 18871 18872 18873 18874 18875 18876 18877 18878 18879 18880 18881 18882 18883 18884 18885 18886 18887 18888 18889 18890 18891 18892 18893 18894 18895 18896 18897 18898 18899 18900 18901 18902 18903 18904 18905 18906 18907 18908 18909 18910 18911 18912 18913 18914 18915 18916 18917 18918 18919 18920 18921 18922 18923 18924 18925 18926 18927 18928 18929 18930 18931 18932 18933 18934 18935 18936 18937 18938 18939 18940 18941 18942 18943 18944 18945 18946 18947 18948 18949 18950 18951 18952 18953 18954 18955 18956 18957 18958 18959 18960 18961 18962 18963 18964 18965 18966 18967 18968 18969 18970 18971 18972 18973 18974 18975 18976 18977 18978 18979 18980 18981 18982 18983 18984 18985 18986 18987 18988 18989 18990 18991 18992 18993 18994 18995 18996 18997 18998 18999 19000 19001 19002 19003 19004 19005 19006 19007 19008 19009 19010 19011 19012 19013 19014 19015 19016 19017 19018 19019 19020 19021 19022 19023 19024 19025 19026 19027 19028 19029 19030 19031 19032 19033 19034 19035 19036 19037 19038 19039 19040 19041 19042 19043 19044 19045 19046 19047 19048 19049 19050 19051 19052 19053 19054 19055 19056 19057 19058 19059 19060 19061 19062 19063 19064 19065 19066 19067 19068 19069 19070 19071 19072 19073 19074 19075 19076 19077 19078 19079 19080 19081 19082 19083 19084 19085 19086 19087 19088 19089 19090 19091 19092 19093 19094 19095 19096 19097 19098 19099 19100 19101 19102 19103 19104 19105 19106 19107 19108 19109 19110 19111 19112 19113 19114 19115 19116 19117 19118 19119 19120 19121 19122 19123 19124 19125 19126 19127 19128 19129 19130 19131 19132 19133 19134 19135 19136 19137 19138 19139 19140 19141 19142 19143 19144 19145 19146 19147 19148 19149 19150 19151 19152 19153 19154 19155 19156 19157 19158 19159 19160 19161 19162 19163 19164 19165 19166 19167 19168 19169 19170 19171 19172 19173 19174 19175 19176 19177 19178 19179 19180 19181 19182 19183 19184 19185 19186 19187 19188 19189 19190 19191 19192 19193 19194 19195 19196 19197 19198 19199 19200 19201 19202 19203 19204 19205 19206 19207 19208 19209 19210 19211 19212 19213 19214 19215 19216 19217 19218 19219 19220 19221 19222 19223 19224 19225 19226 19227 19228 19229 19230 19231 19232 19233 19234 19235 19236 19237 19238 19239 19240 19241 19242 19243 19244 19245 19246 19247 19248 19249 19250 19251 19252 19253 19254 19255 19256 19257 19258 19259 19260 19261 19262 19263 19264 19265 19266 19267 19268 19269 19270 19271 19272 19273 19274 19275 19276 19277 19278 19279 19280 19281 19282 19283 19284 19285 19286 19287 19288 19289 19290 19291 19292 19293 19294 19295 19296 19297 19298 19299 19300 19301 19302 19303 19304 19305 19306 19307 19308 19309 19310 19311 19312 19313 19314 19315 19316 19317 19318 19319 19320 19321 19322 19323 19324 19325 19326 19327 19328 19329 19330 19331 19332 19333 19334 19335 19336 19337 19338 19339 19340 19341 19342 19343 19344 19345 19346 19347 19348 19349 19350 19351 19352 19353 19354 19355 19356 19357 19358 19359 19360 19361 19362 19363 19364 19365 19366 19367 19368 19369 19370 19371 19372 19373 19374 19375 19376 19377 19378 19379 19380 19381 19382 19383 19384 19385 19386 19387 19388 19389 19390 19391 19392 19393 19394 19395 19396 19397 19398 19399 19400 19401 19402 19403 19404 19405 19406 19407 19408 19409 19410 19411 19412 19413 19414 19415 19416 19417 19418 19419 19420 19421 19422 19423 19424 19425 19426 19427 19428 19429 19430 19431 19432 19433 19434 19435 19436 19437 19438 19439 19440 19441 19442 19443 19444 19445 19446 19447 19448 19449 19450 19451 19452 19453 19454 19455 19456 19457 19458 19459 19460 19461 19462 19463 19464 19465 19466 19467 19468 19469 19470 19471 19472 19473 19474 19475 19476 19477 19478 19479 19480 19481 19482 19483 19484 19485 19486 19487 19488 19489 19490 19491 19492 19493 19494 19495 19496 19497 19498 19499 19500 19501 19502 19503 19504 19505 19506 19507 19508 19509 19510 19511 19512 19513 19514 19515 19516 19517 19518 19519 19520 19521 19522 19523 19524 19525 19526 19527 19528 19529 19530 19531 19532 19533 19534 19535 19536 19537 19538 19539 19540 19541 19542 19543 19544 19545 19546 19547 19548 19549 19550 19551 19552 19553 19554 19555 19556 19557 19558 19559 19560 19561 19562 19563 19564 19565 19566 19567 19568 19569 19570 19571 19572 19573 19574 19575 19576 19577 19578 19579 19580 19581 19582 19583 19584 19585 19586 19587 19588 19589 19590 19591 19592 19593 19594 19595 19596 19597 19598 19599 19600 19601 19602 19603 19604 19605 19606 19607 19608 19609 19610 19611 19612 19613 19614 19615 19616 19617 19618 19619 19620 19621 19622 19623 19624 19625 19626 19627 19628 19629 19630 19631 19632 19633 19634 19635 19636 19637 19638 19639 19640 19641 19642 19643 19644 19645 19646 19647 19648 19649 19650 19651 19652 19653 19654 19655 19656 19657 19658 19659 19660 19661 19662 19663 19664 19665 19666 19667 19668 19669 19670 19671 19672 19673 19674 19675 19676 19677 19678 19679 19680 19681 19682 19683 19684 19685 19686 19687 19688 19689 19690 19691 19692 19693 19694 19695 19696 19697 19698 19699 19700 19701 19702 19703 19704 19705 19706 19707 19708 19709 19710 19711 19712 19713 19714 19715 19716 19717 19718 19719 19720 19721 19722 19723 19724 19725 19726 19727 19728 19729 19730 19731 19732 19733 19734 19735 19736 19737 19738 19739 19740 19741 19742 19743 19744 19745 19746 19747 19748 19749 19750 19751 19752 19753 19754 19755 19756 19757 19758 19759 19760 19761 19762 19763 19764 19765 19766 19767 19768 19769 19770 19771 19772 19773 19774 19775 19776 19777 19778 19779 19780 19781 19782 19783 19784 19785 19786 19787 19788 19789 19790 19791 19792 19793 19794 19795 19796 19797 19798 19799 19800 19801 19802 19803 19804 19805 19806 19807 19808 19809 19810 19811 19812 19813 19814 19815 19816 19817 19818 19819 19820 19821 19822 19823 19824 19825 19826 19827 19828 19829 19830 19831 19832 19833 19834 19835 19836 19837 19838 19839 19840 19841 19842 19843 19844 19845 19846 19847 19848 19849 19850 19851 19852 19853 19854 19855 19856 19857 19858 19859 19860 19861 19862 19863 19864 19865 19866 19867 19868 19869 19870 19871 19872 19873 19874 19875 19876 19877 19878 19879 19880 19881 19882 19883 19884 19885 19886 19887 19888 19889 19890 19891 19892 19893 19894 19895 19896 19897 19898 19899 19900 19901 19902 19903 19904 19905 19906 19907 19908 19909 19910 19911 19912 19913 19914 19915 19916 19917 19918 19919 19920 19921 19922 19923 19924 19925 19926 19927 19928 19929 19930 19931 19932 19933 19934 19935 19936 19937 19938 19939 19940 19941 19942 19943 19944 19945 19946 19947 19948 19949 19950 19951 19952 19953 19954 19955 19956 19957 19958 19959 19960 19961 19962 19963 19964 19965 19966 19967 19968 19969 19970 19971 19972 19973 19974 19975 19976 19977 19978 19979 19980 19981 19982 19983 19984 19985 19986 19987 19988 19989 19990 19991 19992 19993 19994 19995 19996 19997 19998 19999 20000 20001 20002 20003 20004 20005 20006 20007 20008 20009 20010 20011 20012 20013 20014 20015 20016 20017 20018 20019 20020 20021 20022 20023 20024 20025 20026 20027 20028 20029 20030 20031 20032 20033 20034 20035 20036 20037 20038 20039 20040 20041 20042 20043 20044 20045 20046 20047 20048 20049 20050 20051 20052 20053 20054 20055 20056 20057 20058 20059 20060 20061 20062 20063 20064 20065 20066 20067 20068 20069 20070 20071 20072 20073 20074 20075 20076 20077 20078 20079 20080 20081 20082 20083 20084 20085 20086 20087 20088 20089 20090 20091 20092 20093 20094 20095 20096 20097 20098 20099 20100 20101 20102 20103 20104 20105 20106 20107 20108 20109 20110 20111 20112 20113 20114 20115 20116 20117 20118 20119 20120 20121 20122 20123 20124 20125 20126 20127 20128 20129 20130 20131 20132 20133 20134 20135 20136 20137 20138 20139 20140 20141 20142 20143 20144 20145 20146 20147 20148 20149 20150 20151 20152 20153 20154 20155 20156 20157 20158 20159 20160 20161 20162 20163 20164 20165 20166 20167 20168 20169 20170 20171 20172 20173 20174 20175 20176 20177 20178 20179 20180 20181 20182 20183 20184 20185 20186 20187 20188 20189 20190 20191 20192 20193 20194 20195 20196 20197 20198 20199 20200 20201 20202 20203 20204 20205 20206 20207 20208 20209 20210 20211 20212 20213 20214 20215 20216 20217 20218 20219 20220 20221 20222 20223 20224 20225 20226 20227 20228 20229 20230 20231 20232 20233 20234 20235 20236 20237 20238 20239 20240 20241 20242 20243 20244 20245 20246 20247 20248 20249 20250 20251 20252 20253 20254 20255 20256 20257 20258 20259 20260 20261 20262 20263 20264 20265 20266 20267 20268 20269 20270 20271 20272 20273 20274 20275 20276 20277 20278 20279 20280 20281 20282 20283 20284 20285 20286 20287 20288 20289 20290 20291 20292 20293 20294 20295 20296 20297 20298 20299 20300 20301 20302 20303 20304 20305 20306 20307 20308 20309 20310 20311 20312 20313 20314 20315 20316 20317 20318 20319 20320 20321 20322 20323 20324 20325 20326 20327 20328 20329 20330 20331 20332 20333 20334 20335 20336 20337 20338 20339 20340 20341 20342 20343 20344 20345 20346 20347 20348 20349 20350 20351 20352 20353 20354 20355 20356 20357 20358 20359 20360 20361 20362 20363 20364 20365 20366 20367 20368 20369 20370 20371 20372 20373 20374 20375 20376 20377 20378 20379 20380 20381 20382 20383 20384 20385 20386 20387 20388 20389 20390 20391 20392 20393 20394 20395 20396 20397 20398 20399 20400 20401 20402 20403 20404 20405 20406 20407 20408 20409 20410 20411 20412 20413 20414 20415 20416 20417 20418 20419 20420 20421 20422 20423 20424 20425 20426 20427 20428 20429 20430 20431 20432 20433 20434 20435 20436 20437 20438 20439 20440 20441 20442 20443 20444 20445 20446 20447 20448 20449 20450 20451 20452 20453 20454 20455 20456 20457 20458 20459 20460 20461 20462 20463 20464 20465 20466 20467 20468 20469 20470 20471 20472 20473 20474 20475 20476 20477 20478 20479 20480 20481 20482 20483 20484 20485 20486 20487 20488 20489 20490 20491 20492 20493 20494 20495 20496 20497 20498 20499 20500 20501 20502 20503 20504 20505 20506 20507 20508 20509 20510 20511 20512 20513 20514 20515 20516 20517 20518 20519 20520 20521 20522 20523 20524 20525 20526 20527 20528 20529 20530 20531 20532 20533 20534 20535 20536 20537 20538 20539 20540 20541 20542 20543 20544 20545 20546 20547 20548 20549 20550 20551 20552 20553 20554 20555 20556 20557 20558 20559 20560 20561 20562 20563 20564 20565 20566 20567 20568 20569 20570 20571 20572 20573 20574 20575 20576 20577 20578 20579 20580 20581 20582 20583 20584 20585 20586 20587 20588 20589 20590 20591 20592 20593 20594 20595 20596 20597 20598 20599 20600 20601 20602 20603 20604 20605 20606 20607 20608 20609 20610 20611 20612 20613 20614 20615 20616 20617 20618 20619 20620 20621 20622 20623 20624 20625 20626 20627 20628 20629 20630 20631 20632 20633 20634 20635 20636 20637 20638 20639 20640 20641 20642 20643 20644 20645 20646 20647 20648 20649 20650 20651 20652 20653 20654 20655 20656 20657 20658 20659 20660 20661 20662 20663 20664 20665 20666 20667 20668 20669 20670 20671 20672 20673 20674 20675 20676 20677 20678 20679 20680 20681 20682 20683 20684 20685 20686 20687 20688 20689 20690 20691 20692 20693 20694 20695 20696 20697 20698 20699 20700 20701 20702 20703 20704 20705 20706 20707 20708 20709 20710 20711 20712 20713 20714 20715 20716 20717 20718 20719 20720 20721 20722 20723 20724 20725 20726 20727 20728 20729 20730 20731 20732 20733 20734 20735 20736 20737 20738 20739 20740 20741 20742 20743 20744 20745 20746 20747 20748 20749 20750 20751 20752 20753 20754 20755 20756 20757 20758 20759 20760 20761 20762 20763 20764 20765 20766 20767 20768 20769 20770 20771 20772 20773 20774 20775 20776 20777 20778 20779 20780 20781 20782 20783 20784 20785 20786 20787 20788 20789 20790 20791 20792 20793 20794 20795 20796 20797 20798 20799 20800 20801 20802 20803 20804 20805 20806 20807 20808 20809 20810 20811 20812 20813 20814 20815 20816 20817 20818 20819 20820 20821 20822 20823 20824 20825 20826 20827 20828 20829 20830 20831 20832 20833 20834 20835 20836 20837 20838 20839 20840 20841 20842 20843 20844 20845 20846 20847 20848 20849 20850 20851 20852 20853 20854 20855 20856 20857 20858 20859 20860 20861 20862 20863 20864 20865 20866 20867 20868 20869 20870 20871 20872 20873 20874 20875 20876 20877 20878 20879 20880 20881 20882 20883 20884 20885 20886 20887 20888 20889 20890 20891 20892 20893 20894 20895 20896 20897 20898 20899 20900 20901 20902 20903 20904 20905 20906 20907 20908 20909 20910 20911 20912 20913 20914 20915 20916 20917 20918 20919 20920 20921 20922 20923 20924 20925 20926 20927 20928 20929 20930 20931 20932 20933 20934 20935 20936 20937 20938 20939 20940 20941 20942 20943 20944 20945 20946 20947 20948 20949 20950 20951 20952 20953 20954 20955 20956 20957 20958 20959 20960 20961 20962 20963 20964 20965 20966 20967 20968 20969 20970 20971 20972 20973 20974 20975 20976 20977 20978 20979 20980 20981 20982 20983 20984 20985 20986 20987 20988 20989 20990 20991 20992 20993 20994 20995 20996 20997 20998 20999 21000 21001 21002 21003 21004 21005 21006 21007 21008 21009 21010 21011 21012 21013 21014 21015 21016 21017 21018 21019 21020 21021 21022 21023 21024 21025 21026 21027 21028 21029 21030 21031 21032 21033 21034 21035 21036 21037 21038 21039 21040 21041 21042 21043 21044 21045 21046 21047 21048 21049 21050 21051 21052 21053 21054 21055 21056 21057 21058 21059 21060 21061 21062 21063 21064 21065 21066 21067 21068 21069 21070 21071 21072 21073 21074 21075 21076 21077 21078 21079 21080 21081 21082 21083 21084 21085 21086 21087 21088 21089 21090 21091 21092 21093 21094 21095 21096 21097 21098 21099 21100 21101 21102 21103 21104 21105 21106 21107 21108 21109 21110 21111 21112 21113 21114 21115 21116 21117 21118 21119 21120 21121 21122 21123 21124 21125 21126 21127 21128 21129 21130 21131 21132 21133 21134 21135 21136 21137 21138 21139 21140 21141 21142 21143 21144 21145 21146 21147 21148 21149 21150 21151 21152 21153 21154 21155 21156 21157 21158 21159 21160 21161 21162 21163 21164 21165 21166 21167 21168 21169 21170 21171 21172 21173 21174 21175 21176 21177 21178 21179 21180 21181 21182 21183 21184 21185 21186 21187 21188 21189 21190 21191 21192 21193 21194 21195 21196 21197 21198 21199 21200 21201 21202 21203 21204 21205 21206 21207 21208 21209 21210 21211 21212 21213 21214 21215 21216 21217 21218 21219 21220 21221 21222 21223 21224 21225 21226 21227 21228 21229 21230 21231 21232 21233 21234 21235 21236 21237 21238 21239 21240 21241 21242 21243 21244 21245 21246 21247 21248 21249 21250 21251 21252 21253 21254 21255 21256 21257 21258 21259 21260 21261 21262 21263 21264 21265 21266 21267 21268 21269 21270 21271 21272 21273 21274 21275 21276 21277 21278 21279 21280 21281 21282 21283 21284 21285 21286 21287 21288 21289 21290 21291 21292 21293 21294 21295 21296 21297 21298 21299 21300 21301 21302 21303 21304 21305 21306 21307 21308 21309 21310 21311 21312 21313 21314 21315 21316 21317 21318 21319 21320 21321 21322 21323 21324 21325 21326 21327 21328 21329 21330 21331 21332 21333 21334 21335 21336 21337 21338 21339 21340 21341 21342 21343 21344 21345 21346 21347 21348 21349 21350 21351 21352 21353 21354 21355 21356 21357 21358 21359 21360 21361 21362 21363 21364 21365 21366 21367 21368 21369 21370 21371 21372 21373 21374 21375 21376 21377 21378 21379 21380 21381 21382 21383 21384 21385 21386 21387 21388 21389 21390 21391 21392 21393 21394 21395 21396 21397 21398 21399 21400 21401 21402 21403 21404 21405 21406 21407 21408 21409 21410 21411 21412 21413 21414 21415 21416 21417 21418 21419 21420 21421 21422 21423 21424 21425 21426 21427 21428 21429 21430 21431 21432 21433 21434 21435 21436 21437 21438 21439 21440 21441 21442 21443 21444 21445 21446 21447 21448 21449 21450 21451 21452 21453 21454 21455 21456 21457 21458 21459 21460 21461 21462 21463 21464 21465 21466 21467 21468 21469 21470 21471 21472 21473 21474 21475 21476 21477 21478 21479 21480 21481 21482 21483 21484 21485 21486 21487 21488 21489 21490 21491 21492 21493 21494 21495 21496 21497 21498 21499 21500 21501 21502 21503 21504 21505 21506 21507 21508 21509 21510 21511 21512 21513 21514 21515 21516 21517 21518 21519 21520 21521 21522 21523 21524 21525 21526 21527 21528 21529 21530 21531 21532 21533 21534 21535 21536 21537 21538 21539 21540 21541 21542 21543 21544 21545 21546 21547 21548 21549 21550 21551 21552 21553 21554 21555 21556 21557 21558 21559 21560 21561 21562 21563 21564 21565 21566 21567 21568 21569 21570 21571 21572 21573 21574 21575 21576 21577 21578 21579 21580 21581 21582 21583 21584 21585 21586 21587 21588 21589 21590 21591 21592 21593 21594 21595 21596 21597 21598 21599 21600 21601 21602 21603 21604 21605 21606 21607 21608 21609 21610 21611 21612 21613 21614 21615 21616 21617 21618 21619 21620 21621 21622 21623 21624 21625 21626 21627 21628 21629 21630 21631 21632 21633 21634 21635 21636 21637 21638 21639 21640 21641 21642 21643 21644 21645 21646 21647 21648 21649 21650 21651 21652 21653 21654 21655 21656 21657 21658 21659 21660 21661 21662 21663 21664 21665 21666 21667 21668 21669 21670 21671 21672 21673 21674 21675 21676 21677 21678 21679 21680 21681 21682 21683 21684 21685 21686 21687 21688 21689 21690 21691 21692 21693 21694 21695 21696 21697 21698 21699 21700 21701 21702 21703 21704 21705 21706 21707 21708 21709 21710 21711 21712 21713 21714 21715 21716 21717 21718 21719 21720 21721 21722 21723 21724 21725 21726 21727 21728 21729 21730 21731 21732 21733 21734 21735 21736 21737 21738 21739 21740 21741 21742 21743 21744 21745 21746 21747 21748 21749 21750 21751 21752 21753 21754 21755 21756 21757 21758 21759 21760 21761 21762 21763 21764 21765 21766 21767 21768 21769 21770 21771 21772 21773 21774 21775 21776 21777 21778 21779 21780 21781 21782 21783 21784 21785 21786 21787 21788 21789 21790 21791 21792 21793 21794 21795 21796 21797 21798 21799 21800 21801 21802 21803 21804 21805 21806 21807 21808 21809 21810 21811 21812 21813 21814 21815 21816 21817 21818 21819 21820 21821 21822 21823 21824 21825 21826 21827 21828 21829 21830 21831 21832 21833 21834 21835 21836 21837 21838 21839 21840 21841 21842 21843 21844 21845 21846 21847 21848 21849 21850 21851 21852 21853 21854 21855 21856 21857 21858 21859 21860 21861 21862 21863 21864 21865 21866 21867 21868 21869 21870 21871 21872 21873 21874 21875 21876 21877 21878 21879 21880 21881 21882 21883 21884 21885 21886 21887 21888 21889 21890 21891 21892 21893 21894 21895 21896 21897 21898 21899 21900 21901 21902 21903 21904 21905 21906 21907 21908 21909 21910 21911 21912 21913 21914 21915 21916 21917 21918 21919 21920 21921 21922 21923 21924 21925 21926 21927 21928 21929 21930 21931 21932 21933 21934 21935 21936 21937 21938 21939 21940 21941 21942 21943 21944 21945 21946 21947 21948 21949 21950 21951 21952 21953 21954 21955 21956 21957 21958 21959 21960 21961 21962 21963 21964 21965 21966 21967 21968 21969 21970 21971 21972 21973 21974 21975 21976 21977 21978 21979 21980 21981 21982 21983 21984 21985 21986 21987 21988 21989 21990 21991 21992 21993 21994 21995 21996 21997 21998 21999 22000 22001 22002 22003 22004 22005 22006 22007 22008 22009 22010 22011 22012 22013 22014 22015 22016 22017 22018 22019 22020 22021 22022 22023 22024 22025 22026 22027 22028 22029 22030 22031 22032 22033 22034 22035 22036 22037 22038 22039 22040 22041 22042 22043 22044 22045 22046 22047 22048 22049 22050 22051 22052 22053 22054 22055 22056 22057 22058 22059 22060 22061 22062 22063 22064 22065 22066 22067 22068 22069 22070 22071 22072 22073 22074 22075 22076 22077 22078 22079 22080 22081 22082 22083 22084 22085 22086 22087 22088 22089 22090 22091 22092 22093 22094 22095 22096 22097 22098 22099 22100 22101 22102 22103 22104 22105 22106 22107 22108 22109 22110 22111 22112 22113 22114 22115 22116 22117 22118 22119 22120 22121 22122 22123 22124 22125 22126 22127 22128 22129 22130 22131 22132 22133 22134 22135 22136 22137 22138 22139 22140 22141 22142 22143 22144 22145 22146 22147 22148 22149 22150 22151 22152 22153 22154 22155 22156 22157 22158 22159 22160 22161 22162 22163 22164 22165 22166 22167 22168 22169 22170 22171 22172 22173 22174 22175 22176 22177 22178 22179 22180 22181 22182 22183 22184 22185 22186 22187 22188 22189 22190 22191 22192 22193 22194 22195 22196 22197 22198 22199 22200 22201 22202 22203 22204 22205 22206 22207 22208 22209 22210 22211 22212 22213 22214 22215 22216 22217 22218 22219 22220 22221 22222 22223 22224 22225 22226 22227 22228 22229 22230 22231 22232 22233 22234 22235 22236 22237 22238 22239 22240 22241 22242 22243 22244 22245 22246 22247 22248 22249 22250 22251 22252 22253 22254 22255 22256 22257 22258 22259 22260 22261 22262 22263 22264 22265 22266 22267 22268 22269 22270 22271 22272 22273 22274 22275 22276 22277 22278 22279 22280 22281 22282 22283 22284 22285 22286 22287 22288 22289 22290 22291 22292 22293 22294 22295 22296 22297 22298 22299 22300 22301 22302 22303 22304 22305 22306 22307 22308 22309 22310 22311 22312 22313 22314 22315 22316 22317 22318 22319 22320 22321 22322 22323 22324 22325 22326 22327 22328 22329 22330 22331 22332 22333 22334 22335 22336 22337 22338 22339 22340 22341 22342 22343 22344 22345 22346 22347 22348 22349 22350 22351 22352 22353 22354 22355 22356 22357 22358 22359 22360 22361 22362 22363 22364 22365 22366 22367 22368 22369 22370 22371 22372 22373 22374 22375 22376 22377 22378 22379 22380 22381 22382 22383 22384 22385 22386 22387 22388 22389 22390 22391 22392 22393 22394 22395 22396 22397 22398 22399 22400 22401 22402 22403 22404 22405 22406 22407 22408 22409 22410 22411 22412 22413 22414 22415 22416 22417 22418 22419 22420 22421 22422 22423 22424 22425 22426 22427 22428 22429 22430 22431 22432 22433 22434 22435 22436 22437 22438 22439 22440 22441 22442 22443 22444 22445 22446 22447 22448 22449 22450 22451 22452 22453 22454 22455 22456 22457 22458 22459 22460 22461 22462 22463 22464 22465 22466 22467 22468 22469 22470 22471 22472 22473 22474 22475 22476 22477 22478 22479 22480 22481 22482 22483 22484 22485 22486 22487 22488 22489 22490 22491 22492 22493 22494 22495 22496 22497 22498 22499 22500 22501 22502 22503 22504 22505 22506 22507 22508 22509 22510 22511 22512 22513 22514 22515 22516 22517 22518 22519 22520 22521 22522 22523 22524 22525 22526 22527 22528 22529 22530 22531 22532 22533 22534 22535 22536 22537 22538 22539 22540 22541 22542 22543 22544 22545 22546 22547 22548 22549 22550 22551 22552 22553 22554 22555 22556 22557 22558 22559 22560 22561 22562 22563 22564 22565 22566 22567 22568 22569 22570 22571 22572 22573 22574 22575 22576 22577 22578 22579 22580 22581 22582 22583 22584 22585 22586 22587 22588 22589 22590 22591 22592 22593 22594 22595 22596 22597 22598 22599 22600 22601 22602 22603 22604 22605 22606 22607 22608 22609 22610 22611 22612 22613 22614 22615 22616 22617 22618 22619 22620 22621 22622 22623 22624 22625 22626 22627 22628 22629 22630 22631 22632 22633 22634 22635 22636 22637 22638 22639 22640 22641 22642 22643 22644 22645 22646 22647 22648 22649 22650 22651 22652 22653 22654 22655 22656 22657 22658 22659 22660 22661 22662 22663 22664 22665 22666 22667 22668 22669 22670 22671 22672 22673 22674 22675 22676 22677 22678 22679 22680 22681 22682 22683 22684 22685 22686 22687 22688 22689 22690 22691 22692 22693 22694 22695 22696 22697 22698 22699 22700 22701 22702 22703 22704 22705 22706 22707 22708 22709 22710 22711 22712 22713 22714 22715 22716 22717 22718 22719 22720 22721 22722 22723 22724 22725 22726 22727 22728 22729 22730 22731 22732 22733 22734 22735 22736 22737 22738 22739 22740 22741 22742 22743 22744 22745 22746 22747 22748 22749 22750 22751 22752 22753 22754 22755 22756 22757 22758 22759 22760 22761 22762 22763 22764 22765 22766 22767 22768 22769 22770 22771 22772 22773 22774 22775 22776 22777 22778 22779 22780 22781 22782 22783 22784 22785 22786 22787 22788 22789 22790 22791 22792 22793 22794 22795 22796 22797 22798 22799 22800 22801 22802 22803 22804 22805 22806 22807 22808 22809 22810 22811 22812 22813 22814 22815 22816 22817 22818 22819 22820 22821 22822 22823 22824 22825 22826 22827 22828 22829 22830 22831 22832 22833 22834 22835 22836 22837 22838 22839 22840 22841 22842 22843 22844 22845 22846 22847 22848 22849 22850 22851 22852 22853 22854 22855 22856 22857 22858 22859 22860 22861 22862 22863 22864 22865 22866 22867 22868 22869 22870 22871 22872 22873 22874 22875 22876 22877 22878 22879 22880 22881 22882 22883 22884 22885 22886 22887 22888 22889 22890 22891 22892 22893 22894 22895 22896 22897 22898 22899 22900 22901 22902 22903 22904 22905 22906 22907 22908 22909 22910 22911 22912 22913 22914 22915 22916 22917 22918 22919 22920 22921 22922 22923 22924 22925 22926 22927 22928 22929 22930 22931 22932 22933 22934 22935 22936 22937 22938 22939 22940 22941 22942 22943 22944 22945 22946 22947 22948 22949 22950 22951 22952 22953 22954 22955 22956 22957 22958 22959 22960 22961 22962 22963 22964 22965 22966 22967 22968 22969 22970 22971 22972 22973 22974 22975 22976 22977 22978 22979 22980 22981 22982 22983 22984 22985 22986 22987 22988 22989 22990 22991 22992 22993 22994 22995 22996 22997 22998 22999 23000 23001 23002 23003 23004 23005 23006 23007 23008 23009 23010 23011 23012 23013 23014 23015 23016 23017 23018 23019 23020 23021 23022 23023 23024 23025 23026 23027 23028 23029 23030 23031 23032 23033 23034 23035 23036 23037 23038 23039 23040 23041 23042 23043 23044 23045 23046 23047 23048 23049 23050 23051 23052 23053 23054 23055 23056 23057 23058 23059 23060 23061 23062 23063 23064 23065 23066 23067 23068 23069 23070 23071 23072 23073 23074 23075 23076 23077 23078 23079 23080 23081 23082 23083 23084 23085 23086 23087 23088 23089 23090 23091 23092 23093 23094 23095 23096 23097 23098 23099 23100 23101 23102 23103 23104 23105 23106 23107 23108 23109 23110 23111 23112 23113 23114 23115 23116 23117 23118 23119 23120 23121 23122 23123 23124 23125 23126 23127 23128 23129 23130 23131 23132 23133 23134 23135 23136 23137 23138 23139 23140 23141 23142 23143 23144 23145 23146 23147 23148 23149 23150 23151 23152 23153 23154 23155 23156 23157 23158 23159 23160 23161 23162 23163 23164 23165 23166 23167 23168 23169 23170 23171 23172 23173 23174 23175 23176 23177 23178 23179 23180 23181 23182 23183 23184 23185 23186 23187 23188 23189 23190 23191 23192 23193 23194 23195 23196 23197 23198 23199 23200 23201 23202 23203 23204 23205 23206 23207 23208 23209 23210 23211 23212 23213 23214 23215 23216 23217 23218 23219 23220 23221 23222 23223 23224 23225 23226 23227 23228 23229 23230 23231 23232 23233 23234 23235 23236 23237 23238 23239 23240 23241 23242 23243 23244 23245 23246 23247 23248 23249 23250 23251 23252 23253 23254 23255 23256 23257 23258 23259 23260 23261 23262 23263 23264 23265 23266 23267 23268 23269 23270 23271 23272 23273 23274 23275 23276 23277 23278 23279 23280 23281 23282 23283 23284 23285 23286 23287 23288 23289 23290 23291 23292 23293 23294 23295 23296 23297 23298 23299 23300 23301 23302 23303 23304 23305 23306 23307 23308 23309 23310 23311 23312 23313 23314 23315 23316 23317 23318 23319 23320 23321 23322 23323 23324 23325 23326 23327 23328 23329 23330 23331 23332 23333 23334 23335 23336 23337 23338 23339 23340 23341 23342 23343 23344 23345 23346 23347 23348 23349 23350 23351 23352 23353 23354 23355 23356 23357 23358 23359 23360 23361 23362 23363 23364 23365 23366 23367 23368 23369 23370 23371 23372 23373 23374 23375 23376 23377 23378 23379 23380 23381 23382 23383 23384 23385 23386 23387 23388 23389 23390 23391 23392 23393 23394 23395 23396 23397 23398 23399 23400 23401 23402 23403 23404 23405 23406 23407 23408 23409 23410 23411 23412 23413 23414 23415 23416 23417 23418 23419 23420 23421 23422 23423 23424 23425 23426 23427 23428 23429 23430 23431 23432 23433 23434 23435 23436 23437 23438 23439 23440 23441 23442 23443 23444 23445 23446 23447 23448 23449 23450 23451 23452 23453 23454 23455 23456 23457 23458 23459 23460 23461 23462 23463 23464 23465 23466 23467 23468 23469 23470 23471 23472 23473 23474 23475 23476 23477 23478 23479 23480 23481 23482 23483 23484 23485 23486 23487 23488 23489 23490 23491 23492 23493 23494 23495 23496 23497 23498 23499 23500 23501 23502 23503 23504 23505 23506 23507 23508 23509 23510 23511 23512 23513 23514 23515 23516 23517 23518 23519 23520 23521 23522 23523 23524 23525 23526 23527 23528 23529 23530 23531 23532 23533 23534 23535 23536 23537 23538 23539 23540 23541 23542 23543 23544 23545 23546 23547 23548 23549 23550 23551 23552 23553 23554 23555 23556 23557 23558 23559 23560 23561 23562 23563 23564 23565 23566 23567 23568 23569 23570 23571 23572 23573 23574 23575 23576 23577 23578 23579 23580 23581 23582 23583 23584 23585 23586 23587 23588 23589 23590 23591 23592 23593 23594 23595 23596 23597 23598 23599 23600 23601 23602 23603 23604 23605 23606 23607 23608 23609 23610 23611 23612 23613 23614 23615 23616 23617 23618 23619 23620 23621 23622 23623 23624 23625 23626 23627 23628 23629 23630 23631 23632 23633 23634 23635 23636 23637 23638 23639 23640 23641 23642 23643 23644 23645 23646 23647 23648 23649 23650 23651 23652 23653 23654 23655 23656 23657 23658 23659 23660 23661 23662 23663 23664 23665 23666 23667 23668 23669 23670 23671 23672 23673 23674 23675 23676 23677 23678 23679 23680 23681 23682 23683 23684 23685 23686 23687 23688 23689 23690 23691 23692 23693 23694 23695 23696 23697 23698 23699 23700 23701 23702 23703 23704 23705 23706 23707 23708 23709 23710 23711 23712 23713 23714 23715 23716 23717 23718 23719 23720 23721 23722 23723 23724 23725 23726 23727 23728 23729 23730 23731 23732 23733 23734 23735 23736 23737 23738 23739 23740 23741 23742 23743 23744 23745 23746 23747 23748 23749 23750 23751 23752 23753 23754 23755 23756 23757 23758 23759 23760 23761 23762 23763 23764 23765 23766 23767 23768 23769 23770 23771 23772 23773 23774 23775 23776 23777 23778 23779 23780 23781 23782 23783 23784 23785 23786 23787 23788 23789 23790 23791 23792 23793 23794 23795 23796 23797 23798 23799 23800 23801 23802 23803 23804 23805 23806 23807 23808 23809 23810 23811 23812 23813 23814 23815 23816 23817 23818 23819 23820 23821 23822 23823 23824 23825 23826 23827 23828 23829 23830 23831 23832 23833 23834 23835 23836 23837 23838 23839 23840 23841 23842 23843 23844 23845 23846 23847 23848 23849 23850 23851 23852 23853 23854 23855 23856 23857 23858 23859 23860 23861 23862 23863 23864 23865 23866 23867 23868 23869 23870 23871 23872 23873 23874 23875 23876 23877 23878 23879 23880 23881 23882 23883 23884 23885 23886 23887 23888 23889 23890 23891 23892 23893 23894 23895 23896 23897 23898 23899 23900 23901 23902 23903 23904 23905 23906 23907 23908 23909 23910 23911 23912 23913 23914 23915 23916 23917 23918 23919 23920 23921 23922 23923 23924 23925 23926 23927 23928 23929 23930 23931 23932 23933 23934 23935 23936 23937 23938 23939 23940 23941 23942 23943 23944 23945 23946 23947 23948 23949 23950 23951 23952 23953 23954 23955 23956 23957 23958 23959 23960 23961 23962 23963 23964 23965 23966 23967 23968 23969 23970 23971 23972 23973 23974 23975 23976 23977 23978 23979 23980 23981 23982 23983 23984 23985 23986 23987 23988 23989 23990 23991 23992 23993 23994 23995 23996 23997 23998 23999 24000 24001 24002 24003 24004 24005 24006 24007 24008 24009 24010 24011 24012 24013 24014 24015 24016 24017 24018 24019 24020 24021 24022 24023 24024 24025 24026 24027 24028 24029 24030 24031 24032 24033 24034 24035 24036 24037 24038 24039 24040 24041 24042 24043 24044 24045 24046 24047 24048 24049 24050 24051 24052 24053 24054 24055 24056 24057 24058 24059 24060 24061 24062 24063 24064 24065 24066 24067 24068 24069 24070 24071 24072 24073 24074 24075 24076 24077 24078 24079 24080 24081 24082 24083 24084 24085 24086 24087 24088 24089 24090 24091 24092 24093 24094 24095 24096 24097 24098 24099 24100 24101 24102 24103 24104 24105 24106 24107 24108 24109 24110 24111 24112 24113 24114 24115 24116 24117 24118 24119 24120 24121 24122 24123 24124 24125 24126 24127 24128 24129 24130 24131 24132 24133 24134 24135 24136 24137 24138 24139 24140 24141 24142 24143 24144 24145 24146 24147 24148 24149 24150 24151 24152 24153 24154 24155 24156 24157 24158 24159 24160 24161 24162 24163 24164 24165 24166 24167 24168 24169 24170 24171 24172 24173 24174 24175 24176 24177 24178 24179 24180 24181 24182 24183 24184 24185 24186 24187 24188 24189 24190 24191 24192 24193 24194 24195 24196 24197 24198 24199 24200 24201 24202 24203 24204 24205 24206 24207 24208 24209 24210 24211 24212 24213 24214 24215 24216 24217 24218 24219 24220 24221 24222 24223 24224 24225 24226 24227 24228 24229 24230 24231 24232 24233 24234 24235 24236 24237 24238 24239 24240 24241 24242 24243 24244 24245 24246 24247 24248 24249 24250 24251 24252 24253 24254 24255 24256 24257 24258 24259 24260 24261 24262 24263 24264 24265 24266 24267 24268 24269 24270 24271 24272 24273 24274 24275 24276 24277 24278 24279 24280 24281 24282 24283 24284 24285 24286 24287 24288 24289 24290 24291 24292 24293 24294 24295 24296 24297 24298 24299 24300 24301 24302 24303 24304 24305 24306 24307 24308 24309 24310 24311 24312 24313 24314 24315 24316 24317 24318 24319 24320 24321 24322 24323 24324 24325 24326 24327 24328 24329 24330 24331 24332 24333 24334 24335 24336 24337 24338 24339 24340 24341 24342 24343 24344 24345 24346 24347 24348 24349 24350 24351 24352 24353 24354 24355 24356 24357 24358 24359 24360 24361 24362 24363 24364 24365 24366 24367 24368 24369 24370 24371 24372 24373 24374 24375 24376 24377 24378 24379 24380 24381 24382 24383 24384 24385 24386 24387 24388 24389 24390 24391 24392 24393 24394 24395 24396 24397 24398 24399 24400 24401 24402 24403 24404 24405 24406 24407 24408 24409 24410 24411 24412 24413 24414 24415 24416 24417 24418 24419 24420 24421 24422 24423 24424 24425 24426 24427 24428 24429 24430 24431 24432 24433 24434 24435 24436 24437 24438 24439 24440 24441 24442 24443 24444 24445 24446 24447 24448 24449 24450 24451 24452 24453 24454 24455 24456 24457 24458 24459 24460 24461 24462 24463 24464 24465 24466 24467 24468 24469 24470 24471 24472 24473 24474 24475 24476 24477 24478 24479 24480 24481 24482 24483 24484 24485 24486 24487 24488 24489 24490 24491 24492 24493 24494 24495 24496 24497 24498 24499 24500 24501 24502 24503 24504 24505 24506 24507 24508 24509 24510 24511 24512 24513 24514 24515 24516 24517 24518 24519 24520 24521 24522 24523 24524 24525 24526 24527 24528 24529 24530 24531 24532 24533 24534 24535 24536 24537 24538 24539 24540 24541 24542 24543 24544 24545 24546 24547 24548 24549 24550 24551 24552 24553 24554 24555 24556 24557 24558 24559 24560 24561 24562 24563 24564 24565 24566 24567 24568 24569 24570 24571 24572 24573 24574 24575 24576 24577 24578 24579 24580 24581 24582 24583 24584 24585 24586 24587 24588 24589 24590 24591 24592 24593 24594 24595 24596 24597 24598 24599 24600 24601 24602 24603 24604 24605 24606 24607 24608 24609 24610 24611 24612 24613 24614 24615 24616 24617 24618 24619 24620 24621 24622 24623 24624 24625 24626 24627 24628 24629 24630 24631 24632 24633 24634 24635 24636 24637 24638 24639 24640 24641 24642 24643 24644 24645 24646 24647 24648 24649 24650 24651 24652 24653 24654 24655 24656 24657 24658 24659 24660 24661 24662 24663 24664 24665 24666 24667 24668 24669 24670 24671 24672 24673 24674 24675 24676 24677 24678 24679 24680 24681 24682 24683 24684 24685 24686 24687 24688 24689 24690 24691 24692 24693 24694 24695 24696 24697 24698 24699 24700 24701 24702 24703 24704 24705 24706 24707 24708 24709 24710 24711 24712 24713 24714 24715 24716 24717 24718 24719 24720 24721 24722 24723 24724 24725 24726 24727 24728 24729 24730 24731 24732 24733 24734 24735 24736 24737 24738 24739 24740 24741 24742 24743 24744 24745 24746 24747 24748 24749 24750 24751 24752 24753 24754 24755 24756 24757 24758 24759 24760 24761 24762 24763 24764 24765 24766 24767 24768 24769 24770 24771 24772 24773 24774 24775 24776 24777 24778 24779 24780 24781 24782 24783 24784 24785 24786 24787 24788 24789 24790 24791 24792 24793 24794 24795 24796 24797 24798 24799 24800 24801 24802 24803 24804 24805 24806 24807 24808 24809 24810 24811 24812 24813 24814 24815 24816 24817 24818 24819 24820 24821 24822 24823 24824 24825 24826 24827 24828 24829 24830 24831 24832 24833 24834 24835 24836 24837 24838 24839 24840 24841 24842 24843 24844 24845 24846 24847 24848 24849 24850 24851 24852 24853 24854 24855 24856 24857 24858 24859 24860 24861 24862 24863 24864 24865 24866 24867 24868 24869 24870 24871 24872 24873 24874 24875 24876 24877 24878 24879 24880 24881 24882 24883 24884 24885 24886 24887 24888 24889 24890 24891 24892 24893 24894 24895 24896 24897 24898 24899 24900 24901 24902 24903 24904 24905 24906 24907 24908 24909 24910 24911 24912 24913 24914 24915 24916 24917 24918 24919 24920 24921 24922 24923 24924 24925 24926 24927 24928 24929 24930 24931 24932 24933 24934 24935 24936 24937 24938 24939 24940 24941 24942 24943 24944 24945 24946 24947 24948 24949 24950 24951 24952 24953 24954 24955 24956 24957 24958 24959 24960 24961 24962 24963 24964 24965 24966 24967 24968 24969 24970 24971 24972 24973 24974 24975 24976 24977 24978 24979 24980 24981 24982 24983 24984 24985 24986 24987 24988 24989 24990 24991 24992 24993 24994 24995 24996 24997 24998 24999 25000 25001 25002 25003 25004 25005 25006 25007 25008 25009 25010 25011 25012 25013 25014 25015 25016 25017 25018 25019 25020 25021 25022 25023 25024 25025 25026 25027 25028 25029 25030 25031 25032 25033 25034 25035 25036 25037 25038 25039 25040 25041 25042 25043 25044 25045 25046 25047 25048 25049 25050 25051 25052 25053 25054 25055 25056 25057 25058 25059 25060 25061 25062 25063 25064 25065 25066 25067 25068 25069 25070 25071 25072 25073 25074 25075 25076 25077 25078 25079 25080 25081 25082 25083 25084 25085 25086 25087 25088 25089 25090 25091 25092 25093 25094 25095 25096 25097 25098 25099 25100 25101 25102 25103 25104 25105 25106 25107 25108 25109 25110 25111 25112 25113 25114 25115 25116 25117 25118 25119 25120 25121 25122 25123 25124 25125 25126 25127 25128 25129 25130 25131 25132 25133 25134 25135 25136 25137 25138 25139 25140 25141 25142 25143 25144 25145 25146 25147 25148 25149 25150 25151 25152 25153 25154 25155 25156 25157 25158 25159 25160 25161 25162 25163 25164 25165 25166 25167 25168 25169 25170 25171 25172 25173 25174 25175 25176 25177 25178 25179 25180 25181 25182 25183 25184 25185 25186 25187 25188 25189 25190 25191 25192 25193 25194 25195 25196 25197 25198 25199 25200 25201 25202 25203 25204 25205 25206 25207 25208 25209 25210 25211 25212 25213 25214 25215 25216 25217 25218 25219 25220 25221 25222 25223 25224 25225 25226 25227 25228 25229 25230 25231 25232 25233 25234 25235 25236 25237 25238 25239 25240 25241 25242 25243 25244 25245 25246 25247 25248 25249 25250 25251 25252 25253 25254 25255 25256 25257 25258 25259 25260 25261 25262 25263 25264 25265 25266 25267 25268 25269 25270 25271 25272 25273 25274 25275 25276 25277 25278 25279 25280 25281 25282 25283 25284 25285 25286 25287 25288 25289 25290 25291 25292 25293 25294 25295 25296 25297 25298 25299 25300 25301 25302 25303 25304 25305 25306 25307 25308 25309 25310 25311 25312 25313 25314 25315 25316 25317 25318 25319 25320 25321 25322 25323 25324 25325 25326 25327 25328 25329 25330 25331 25332 25333 25334 25335 25336 25337 25338 25339 25340 25341 25342 25343 25344 25345 25346 25347 25348 25349 25350 25351 25352 25353 25354 25355 25356 25357 25358 25359 25360 25361 25362 25363 25364 25365 25366 25367 25368 25369 25370 25371 25372 25373 25374 25375 25376 25377 25378 25379 25380 25381 25382 25383 25384 25385 25386 25387 25388 25389 25390 25391 25392 25393 25394 25395 25396 25397 25398 25399 25400 25401 25402 25403 25404 25405 25406 25407 25408 25409 25410 25411 25412 25413 25414 25415 25416 25417 25418 25419 25420 25421 25422 25423 25424 25425 25426 25427 25428 25429 25430 25431 25432 25433 25434 25435 25436 25437 25438 25439 25440 25441 25442 25443 25444 25445 25446 25447 25448 25449 25450 25451 25452 25453 25454 25455 25456 25457 25458 25459 25460 25461 25462 25463 25464 25465 25466 25467 25468 25469 25470 25471 25472 25473 25474 25475 25476 25477 25478 25479 25480 25481 25482 25483 25484 25485 25486 25487 25488 25489 25490 25491 25492 25493 25494 25495 25496 25497 25498 25499 25500 25501 25502 25503 25504 25505 25506 25507 25508 25509 25510 25511 25512 25513 25514 25515 25516 25517 25518 25519 25520 25521 25522 25523 25524 25525 25526 25527 25528 25529 25530 25531 25532 25533 25534 25535 25536 25537 25538 25539 25540 25541 25542 25543 25544 25545 25546 25547 25548 25549 25550 25551 25552 25553 25554 25555 25556 25557 25558 25559 25560 25561 25562 25563 25564 25565 25566 25567 25568 25569 25570 25571 25572 25573 25574 25575 25576 25577 25578 25579 25580 25581 25582 25583 25584 25585 25586 25587 25588 25589 25590 25591 25592 25593 25594 25595 25596 25597 25598 25599 25600 25601 25602 25603 25604 25605 25606 25607 25608 25609 25610 25611 25612 25613 25614 25615 25616 25617 25618 25619 25620 25621 25622 25623 25624 25625 25626 25627 25628 25629 25630 25631 25632 25633 25634 25635 25636 25637 25638 25639 25640 25641 25642 25643 25644 25645 25646 25647 25648 25649 25650 25651 25652 25653 25654 25655 25656 25657 25658 25659 25660 25661 25662 25663 25664 25665 25666 25667 25668 25669 25670 25671 25672 25673 25674 25675 25676 25677 25678 25679 25680 25681 25682 25683 25684 25685 25686 25687 25688 25689 25690 25691 25692 25693 25694 25695 25696 25697 25698 25699 25700 25701 25702 25703 25704 25705 25706 25707 25708 25709 25710 25711 25712 25713 25714 25715 25716 25717 25718 25719 25720 25721 25722 25723 25724 25725 25726 25727 25728 25729 25730 25731 25732 25733 25734 25735 25736 25737 25738 25739 25740 25741 25742 25743 25744 25745 25746 25747 25748 25749 25750 25751 25752 25753 25754 25755 25756 25757 25758 25759 25760 25761 25762 25763 25764 25765 25766 25767 25768 25769 25770 25771 25772 25773 25774 25775 25776 25777 25778 25779 25780 25781 25782 25783 25784 25785 25786 25787 25788 25789 25790 25791 25792 25793 25794 25795 25796 25797 25798 25799 25800 25801 25802 25803 25804 25805 25806 25807 25808 25809 25810 25811 25812 25813 25814 25815 25816 25817 25818 25819 25820 25821 25822 25823 25824 25825 25826 25827 25828 25829 25830 25831 25832 25833 25834 25835 25836 25837 25838 25839 25840 25841 25842 25843 25844 25845 25846 25847 25848 25849 25850 25851 25852 25853 25854 25855 25856 25857 25858 25859 25860 25861 25862 25863 25864 25865 25866 25867 25868 25869 25870 25871 25872 25873 25874 25875 25876 25877 25878 25879 25880 25881 25882 25883 25884 25885 25886 25887 25888 25889 25890 25891 25892 25893 25894 25895 25896 25897 25898 25899 25900 25901 25902 25903 25904 25905 25906 25907 25908 25909 25910 25911 25912 25913 25914 25915 25916 25917 25918 25919 25920 25921 25922 25923 25924 25925 25926 25927 25928 25929 25930 25931 25932 25933 25934 25935 25936 25937 25938 25939 25940 25941 25942 25943 25944 25945 25946 25947 25948 25949 25950 25951 25952 25953 25954 25955 25956 25957 25958 25959 25960 25961 25962 25963 25964 25965 25966 25967 25968 25969 25970 25971 25972 25973 25974 25975 25976 25977 25978 25979 25980 25981 25982 25983 25984 25985 25986 25987 25988 25989 25990 25991 25992 25993 25994 25995 25996 25997 25998 25999 26000 26001 26002 26003 26004 26005 26006 26007 26008 26009 26010 26011 26012 26013 26014 26015 26016 26017 26018 26019 26020 26021 26022 26023 26024 26025 26026 26027 26028 26029 26030 26031 26032 26033 26034 26035 26036 26037 26038 26039 26040 26041 26042 26043 26044 26045 26046 26047 26048 26049 26050 26051 26052 26053 26054 26055 26056 26057 26058 26059 26060 26061 26062 26063 26064 26065 26066 26067 26068 26069 26070 26071 26072 26073 26074 26075 26076 26077 26078 26079 26080 26081 26082 26083 26084 26085 26086 26087 26088 26089 26090 26091 26092 26093 26094 26095 26096 26097 26098 26099 26100 26101 26102 26103 26104 26105 26106 26107 26108 26109 26110 26111 26112 26113 26114 26115 26116 26117 26118 26119 26120 26121 26122 26123 26124 26125 26126 26127 26128 26129 26130 26131 26132 26133 26134 26135 26136 26137 26138 26139 26140 26141 26142 26143 26144 26145 26146 26147 26148 26149 26150 26151 26152 26153 26154 26155 26156 26157 26158 26159 26160 26161 26162 26163 26164 26165 26166 26167 26168 26169 26170 26171 26172 26173 26174 26175 26176 26177 26178 26179 26180 26181 26182 26183 26184 26185 26186 26187 26188 26189 26190 26191 26192 26193 26194 26195 26196 26197 26198 26199 26200 26201 26202 26203 26204 26205 26206 26207 26208 26209 26210 26211 26212 26213 26214 26215 26216 26217 26218 26219 26220 26221 26222 26223 26224 26225 26226 26227 26228 26229 26230 26231 26232 26233 26234 26235 26236 26237 26238 26239 26240 26241 26242 26243 26244 26245 26246 26247 26248 26249 26250 26251 26252 26253 26254 26255 26256 26257 26258 26259 26260 26261 26262 26263 26264 26265 26266 26267 26268 26269 26270 26271 26272 26273 26274 26275 26276 26277 26278 26279 26280 26281 26282 26283 26284 26285 26286 26287 26288 26289 26290 26291 26292 26293 26294 26295 26296 26297 26298 26299 26300 26301 26302 26303 26304 26305 26306 26307 26308 26309 26310 26311 26312 26313 26314 26315 26316 26317 26318 26319 26320 26321 26322 26323 26324 26325 26326 26327 26328 26329 26330 26331 26332 26333 26334 26335 26336 26337 26338 26339 26340 26341 26342 26343 26344 26345 26346 26347 26348 26349 26350 26351 26352 26353 26354 26355 26356 26357 26358 26359 26360 26361 26362 26363 26364 26365 26366 26367 26368 26369 26370 26371 26372 26373 26374 26375 26376 26377 26378 26379 26380 26381 26382 26383 26384 26385 26386 26387 26388 26389 26390 26391 26392 26393 26394 26395 26396 26397 26398 26399 26400 26401 26402 26403 26404 26405 26406 26407 26408 26409 26410 26411 26412 26413 26414 26415 26416 26417 26418 26419 26420 26421 26422 26423 26424 26425 26426 26427 26428 26429 26430 26431 26432 26433 26434 26435 26436 26437 26438 26439 26440 26441 26442 26443 26444 26445 26446 26447 26448 26449 26450 26451 26452 26453 26454 26455 26456 26457 26458 26459 26460 26461 26462 26463 26464 26465 26466 26467 26468 26469 26470 26471 26472 26473 26474 26475 26476 26477 26478 26479 26480 26481 26482 26483 26484 26485 26486 26487 26488 26489 26490 26491 26492 26493 26494 26495 26496 26497 26498 26499 26500 26501 26502 26503 26504 26505 26506 26507 26508 26509 26510 26511 26512 26513 26514 26515 26516 26517 26518 26519 26520 26521 26522 26523 26524 26525 26526 26527 26528 26529 26530 26531 26532 26533 26534 26535 26536 26537 26538 26539 26540 26541 26542 26543 26544 26545 26546 26547 26548 26549 26550 26551 26552 26553 26554 26555 26556 26557 26558 26559 26560 26561 26562 26563 26564 26565 26566 26567 26568 26569 26570 26571 26572 26573 26574 26575 26576 26577 26578 26579 26580 26581 26582 26583 26584 26585 26586 26587 26588 26589 26590 26591 26592 26593 26594 26595 26596 26597 26598 26599 26600 26601 26602 26603 26604 26605 26606 26607 26608 26609 26610 26611 26612 26613 26614 26615 26616 26617 26618 26619 26620 26621 26622 26623 26624 26625 26626 26627 26628 26629 26630 26631 26632 26633 26634 26635 26636 26637 26638 26639 26640 26641 26642 26643 26644 26645 26646 26647 26648 26649 26650 26651 26652 26653 26654 26655 26656 26657 26658 26659 26660 26661 26662 26663 26664 26665 26666 26667 26668 26669 26670 26671 26672 26673 26674 26675 26676 26677 26678 26679 26680 26681 26682 26683 26684 26685 26686 26687 26688 26689 26690 26691 26692 26693 26694 26695 26696 26697 26698 26699 26700 26701 26702 26703 26704 26705 26706 26707 26708 26709 26710 26711 26712 26713 26714 26715 26716 26717 26718 26719 26720 26721 26722 26723 26724 26725 26726 26727 26728 26729 26730 26731 26732 26733 26734 26735 26736 26737 26738 26739 26740 26741 26742 26743 26744 26745 26746 26747 26748 26749 26750 26751 26752 26753 26754 26755 26756 26757 26758 26759 26760 26761 26762 26763 26764 26765 26766 26767 26768 26769 26770 26771 26772 26773 26774 26775 26776 26777 26778 26779 26780 26781 26782 26783 26784 26785 26786 26787 26788 26789 26790 26791 26792 26793 26794 26795 26796 26797 26798 26799 26800 26801 26802 26803 26804 26805 26806 26807 26808 26809 26810 26811 26812 26813 26814 26815 26816 26817 26818 26819 26820 26821 26822 26823 26824 26825 26826 26827 26828 26829 26830 26831 26832 26833 26834 26835 26836 26837 26838 26839 26840 26841 26842 26843 26844 26845 26846 26847 26848 26849 26850 26851 26852 26853 26854 26855 26856 26857 26858 26859 26860 26861 26862 26863 26864 26865 26866 26867 26868 26869 26870 26871 26872 26873 26874 26875 26876 26877 26878 26879 26880 26881 26882 26883 26884 26885 26886 26887 26888 26889 26890 26891 26892 26893 26894 26895 26896 26897 26898 26899 26900 26901 26902 26903 26904 26905 26906 26907 26908 26909 26910 26911 26912 26913 26914 26915 26916 26917 26918 26919 26920 26921 26922 26923 26924 26925 26926 26927 26928 26929 26930 26931 26932 26933 26934 26935 26936 26937 26938 26939 26940 26941 26942 26943 26944 26945 26946 26947 26948 26949 26950 26951 26952 26953 26954 26955 26956 26957 26958 26959 26960 26961 26962 26963 26964 26965 26966 26967 26968 26969 26970 26971 26972 26973 26974 26975 26976 26977 26978 26979 26980 26981 26982 26983 26984 26985 26986 26987 26988 26989 26990 26991 26992 26993 26994 26995 26996 26997 26998 26999 27000 27001 27002 27003 27004 27005 27006 27007 27008 27009 27010 27011 27012 27013 27014 27015 27016 27017 27018 27019 27020 27021 27022 27023 27024 27025 27026 27027 27028 27029 27030 27031 27032 27033 27034 27035 27036 27037 27038 27039 27040 27041 27042 27043 27044 27045 27046 27047 27048 27049 27050 27051 27052 27053 27054 27055 27056 27057 27058 27059 27060 27061 27062 27063 27064 27065 27066 27067 27068 27069 27070 27071 27072 27073 27074 27075 27076 27077 27078 27079 27080 27081 27082 27083 27084 27085 27086 27087 27088 27089 27090 27091 27092 27093 27094 27095 27096 27097 27098 27099 27100 27101 27102 27103 27104 27105 27106 27107 27108 27109 27110 27111 27112 27113 27114 27115 27116 27117 27118 27119 27120 27121 27122 27123 27124 27125 27126 27127 27128 27129 27130 27131 27132 27133 27134 27135 27136 27137 27138 27139 27140 27141 27142 27143 27144 27145 27146 27147 27148 27149 27150 27151 27152 27153 27154 27155 27156 27157 27158 27159 27160 27161 27162 27163 27164 27165 27166 27167 27168 27169 27170 27171 27172 27173 27174 27175 27176 27177 27178 27179 27180 27181 27182 27183 27184 27185 27186 27187 27188 27189 27190 27191 27192 27193 27194 27195 27196 27197 27198 27199 27200 27201 27202 27203 27204 27205 27206 27207 27208 27209 27210 27211 27212 27213 27214 27215 27216 27217 27218 27219 27220 27221 27222 27223 27224 27225 27226 27227 27228 27229 27230 27231 27232 27233 27234 27235 27236 27237 27238 27239 27240 27241 27242 27243 27244 27245 27246 27247 27248 27249 27250 27251 27252 27253 27254 27255 27256 27257 27258 27259 27260 27261 27262 27263 27264 27265 27266 27267 27268 27269 27270 27271 27272 27273 27274 27275 27276 27277 27278 27279 27280 27281 27282 27283 27284 27285 27286 27287 27288 27289 27290 27291 27292 27293 27294 27295 27296 27297 27298 27299 27300 27301 27302 27303 27304 27305 27306 27307 27308 27309 27310 27311 27312 27313 27314 27315 27316 27317 27318 27319 27320 27321 27322 27323 27324 27325 27326 27327 27328 27329 27330 27331 27332 27333 27334 27335 27336 27337 27338 27339 27340 27341 27342 27343 27344 27345 27346 27347 27348 27349 27350 27351 27352 27353 27354 27355 27356 27357 27358 27359 27360 27361 27362 27363 27364 27365 27366 27367 27368 27369 27370 27371 27372 27373 27374 27375 27376 27377 27378 27379 27380 27381 27382 27383 27384 27385 27386 27387 27388 27389 27390 27391 27392 27393 27394 27395 27396 27397 27398 27399 27400 27401 27402 27403 27404 27405 27406 27407 27408 27409 27410 27411 27412 27413 27414 27415 27416 27417 27418 27419 27420 27421 27422 27423 27424 27425 27426 27427 27428 27429 27430 27431 27432 27433 27434 27435 27436 27437 27438 27439 27440 27441 27442 27443 27444 27445 27446 27447 27448 27449 27450 27451 27452 27453 27454 27455 27456 27457 27458 27459 27460 27461 27462 27463 27464 27465 27466 27467 27468 27469 27470 27471 27472 27473 27474 27475 27476 27477 27478 27479 27480 27481 27482 27483 27484 27485 27486 27487 27488 27489 27490 27491 27492 27493 27494 27495 27496 27497 27498 27499 27500 27501 27502 27503 27504 27505 27506 27507 27508 27509 27510 27511 27512 27513 27514 27515 27516 27517 27518 27519 27520 27521 27522 27523 27524 27525 27526 27527 27528 27529 27530 27531 27532 27533 27534 27535 27536 27537 27538 27539 27540 27541 27542 27543 27544 27545 27546 27547 27548 27549 27550 27551 27552 27553 27554 27555 27556 27557 27558 27559 27560 27561 27562 27563 27564 27565 27566 27567 27568 27569 27570 27571 27572 27573 27574 27575 27576 27577 27578 27579 27580 27581 27582 27583 27584 27585 27586 27587 27588 27589 27590 27591 27592 27593 27594 27595 27596 27597 27598 27599 27600 27601 27602 27603 27604 27605 27606 27607 27608 27609 27610 27611 27612 27613 27614 27615 27616 27617 27618 27619 27620 27621 27622 27623 27624 27625 27626 27627 27628 27629 27630 27631 27632 27633 27634 27635 27636 27637 27638 27639 27640 27641 27642 27643 27644 27645 27646 27647 27648 27649 27650 27651 27652 27653 27654 27655 27656 27657 27658 27659 27660 27661 27662 27663 27664 27665 27666 27667 27668 27669 27670 27671 27672 27673 27674 27675 27676 27677 27678 27679 27680 27681 27682 27683 27684 27685 27686 27687 27688 27689 27690 27691 27692 27693 27694 27695 27696 27697 27698 27699 27700 27701 27702 27703 27704 27705 27706 27707 27708 27709 27710 27711 27712 27713 27714 27715 27716 27717 27718 27719 27720 27721 27722 27723 27724 27725 27726 27727 27728 27729 27730 27731 27732 27733 27734 27735 27736 27737 27738 27739 27740 27741 27742 27743 27744 27745 27746 27747 27748 27749 27750 27751 27752 27753 27754 27755 27756 27757 27758 27759 27760 27761 27762 27763 27764 27765 27766 27767 27768 27769 27770 27771 27772 27773 27774 27775 27776 27777 27778 27779 27780 27781 27782 27783 27784 27785 27786 27787 27788 27789 27790 27791 27792 27793 27794 27795 27796 27797 27798 27799 27800 27801 27802 27803 27804 27805 27806 27807 27808 27809 27810 27811 27812 27813 27814 27815 27816 27817 27818 27819 27820 27821 27822 27823 27824 27825 27826 27827 27828 27829 27830 27831 27832 27833 27834 27835 27836 27837 27838 27839 27840 27841 27842 27843 27844 27845 27846 27847 27848 27849 27850 27851 27852 27853 27854 27855 27856 27857 27858 27859 27860 27861 27862 27863 27864 27865 27866 27867 27868 27869 27870 27871 27872 27873 27874 27875 27876 27877 27878 27879 27880 27881 27882 27883 27884 27885 27886 27887 27888 27889 27890 27891 27892 27893 27894 27895 27896 27897 27898 27899 27900 27901 27902 27903 27904 27905 27906 27907 27908 27909 27910 27911 27912 27913 27914 27915 27916 27917 27918 27919 27920 27921 27922 27923 27924 27925 27926 27927 27928 27929 27930 27931 27932 27933 27934 27935 27936 27937 27938 27939 27940 27941 27942 27943 27944 27945 27946 27947 27948 27949 27950 27951 27952 27953 27954 27955 27956 27957 27958 27959 27960 27961 27962 27963 27964 27965 27966 27967 27968 27969 27970 27971 27972 27973 27974 27975 27976 27977 27978 27979 27980 27981 27982 27983 27984 27985 27986 27987 27988 27989 27990 27991 27992 27993 27994 27995 27996 27997 27998 27999 28000 28001 28002 28003 28004 28005 28006 28007 28008 28009 28010 28011 28012 28013 28014 28015 28016 28017 28018 28019 28020 28021 28022 28023 28024 28025 28026 28027 28028 28029 28030 28031 28032 28033 28034 28035 28036 28037 28038 28039 28040 28041 28042 28043 28044 28045 28046 28047 28048 28049 28050 28051 28052 28053 28054 28055 28056 28057 28058 28059 28060 28061 28062 28063 28064 28065 28066 28067 28068 28069 28070 28071 28072 28073 28074 28075 28076 28077 28078 28079 28080 28081 28082 28083 28084 28085 28086 28087 28088 28089 28090 28091 28092 28093 28094 28095 28096 28097 28098 28099 28100 28101 28102 28103 28104 28105 28106 28107 28108 28109 28110 28111 28112 28113 28114 28115 28116 28117 28118 28119 28120 28121 28122 28123 28124 28125 28126 28127 28128 28129 28130 28131 28132 28133 28134 28135 28136 28137 28138 28139 28140 28141 28142 28143 28144 28145 28146 28147 28148 28149 28150 28151 28152 28153 28154 28155 28156 28157 28158 28159 28160 28161 28162 28163 28164 28165 28166 28167 28168 28169 28170 28171 28172 28173 28174 28175 28176 28177 28178 28179 28180 28181 28182 28183 28184 28185 28186 28187 28188 28189 28190 28191 28192 28193 28194 28195 28196 28197 28198 28199 28200 28201 28202 28203 28204 28205 28206 28207 28208 28209 28210 28211 28212 28213 28214 28215 28216 28217 28218 28219 28220 28221 28222 28223 28224 28225 28226 28227 28228 28229 28230 28231 28232 28233 28234 28235 28236 28237 28238 28239 28240 28241 28242 28243 28244 28245 28246 28247 28248 28249 28250 28251 28252 28253 28254 28255 28256 28257 28258 28259 28260 28261 28262 28263 28264 28265 28266 28267 28268 28269 28270 28271 28272 28273 28274 28275 28276 28277 28278 28279 28280 28281 28282 28283 28284 28285 28286 28287 28288 28289 28290 28291 28292 28293 28294 28295 28296 28297 28298 28299 28300 28301 28302 28303 28304 28305 28306 28307 28308 28309 28310 28311 28312 28313 28314 28315 28316 28317 28318 28319 28320 28321 28322 28323 28324 28325 28326 28327 28328 28329 28330 28331 28332 28333 28334 28335 28336 28337 28338 28339 28340 28341 28342 28343 28344 28345 28346 28347 28348 28349 28350 28351 28352 28353 28354 28355 28356 28357 28358 28359 28360 28361 28362 28363 28364 28365 28366 28367 28368 28369 28370 28371 28372 28373 28374 28375 28376 28377 28378 28379 28380 28381 28382 28383 28384 28385 28386 28387 28388 28389 28390 28391 28392 28393 28394 28395 28396 28397 28398 28399 28400 28401 28402 28403 28404 28405 28406 28407 28408 28409 28410 28411 28412 28413 28414 28415 28416 28417 28418 28419 28420 28421 28422 28423 28424 28425 28426 28427 28428 28429 28430 28431 28432 28433 28434 28435 28436 28437 28438 28439 28440 28441 28442 28443 28444 28445 28446 28447 28448 28449 28450 28451 28452 28453 28454 28455 28456 28457 28458 28459 28460 28461 28462 28463 28464 28465 28466 28467 28468 28469 28470 28471 28472 28473 28474 28475 28476 28477 28478 28479 28480 28481 28482 28483 28484 28485 28486 28487 28488 28489 28490 28491 28492 28493 28494 28495 28496 28497 28498 28499 28500 28501 28502 28503 28504 28505 28506 28507 28508 28509 28510 28511 28512 28513 28514 28515 28516 28517 28518 28519 28520 28521 28522 28523 28524 28525 28526 28527 28528 28529 28530 28531 28532 28533 28534 28535 28536 28537 28538 28539 28540 28541 28542 28543 28544 28545 28546 28547 28548 28549 28550 28551 28552 28553 28554 28555 28556 28557 28558 28559 28560 28561 28562 28563 28564 28565 28566 28567 28568 28569 28570 28571 28572 28573 28574 28575 28576 28577 28578 28579 28580 28581 28582 28583 28584 28585 28586 28587 28588 28589 28590 28591 28592 28593 28594 28595 28596 28597 28598 28599 28600 28601 28602 28603 28604 28605 28606 28607 28608 28609 28610 28611 28612 28613 28614 28615 28616 28617 28618 28619 28620 28621 28622 28623 28624 28625 28626 28627 28628 28629 28630 28631 28632 28633 28634 28635 28636 28637 28638 28639 28640 28641 28642 28643 28644 28645 28646 28647 28648 28649 28650 28651 28652 28653 28654 28655 28656 28657 28658 28659 28660 28661 28662 28663 28664 28665 28666 28667 28668 28669 28670 28671 28672 28673 28674 28675 28676 28677 28678 28679 28680 28681 28682 28683 28684 28685 28686 28687 28688 28689 28690 28691 28692 28693 28694 28695 28696 28697 28698 28699 28700 28701 28702 28703 28704 28705 28706 28707 28708 28709 28710 28711 28712 28713 28714 28715 28716 28717 28718 28719 28720 28721 28722 28723 28724 28725 28726 28727 28728 28729 28730 28731 28732 28733 28734 28735 28736 28737 28738 28739 28740 28741 28742 28743 28744 28745 28746 28747 28748 28749 28750 28751 28752 28753 28754 28755 28756 28757 28758 28759 28760 28761 28762 28763 28764 28765 28766 28767 28768 28769 28770 28771 28772 28773 28774 28775 28776 28777 28778 28779 28780 28781 28782 28783 28784 28785 28786 28787 28788 28789 28790 28791 28792 28793 28794 28795 28796 28797 28798 28799 28800 28801 28802 28803 28804 28805 28806 28807 28808 28809 28810 28811 28812 28813 28814 28815 28816 28817 28818 28819 28820 28821 28822 28823 28824 28825 28826 28827 28828 28829 28830 28831 28832 28833 28834 28835 28836 28837 28838 28839 28840 28841 28842 28843 28844 28845 28846 28847 28848 28849 28850 28851 28852 28853 28854 28855 28856 28857 28858 28859 28860 28861 28862 28863 28864 28865 28866 28867 28868 28869 28870 28871 28872 28873 28874 28875 28876 28877 28878 28879 28880 28881 28882 28883 28884 28885 28886 28887 28888 28889 28890 28891 28892 28893 28894 28895 28896 28897 28898 28899 28900 28901 28902 28903 28904 28905 28906 28907 28908 28909 28910 28911 28912 28913 28914 28915 28916 28917 28918 28919 28920 28921 28922 28923 28924 28925 28926 28927 28928 28929 28930 28931 28932 28933 28934 28935 28936 28937 28938 28939 28940 28941 28942 28943 28944 28945 28946 28947 28948 28949 28950 28951 28952 28953 28954 28955 28956 28957 28958 28959 28960 28961 28962 28963 28964 28965 28966 28967 28968 28969 28970 28971 28972 28973 28974 28975 28976 28977 28978 28979 28980 28981 28982 28983 28984 28985 28986 28987 28988 28989 28990 28991 28992 28993 28994 28995 28996 28997 28998 28999 29000 29001 29002 29003 29004 29005 29006 29007 29008 29009 29010 29011 29012 29013 29014 29015 29016 29017 29018 29019 29020 29021 29022 29023 29024 29025 29026 29027 29028 29029 29030 29031 29032 29033 29034 29035 29036 29037 29038 29039 29040 29041 29042 29043 29044 29045 29046 29047 29048 29049 29050 29051 29052 29053 29054 29055 29056 29057 29058 29059 29060 29061 29062 29063 29064 29065 29066 29067 29068 29069 29070 29071 29072 29073 29074 29075 29076 29077 29078 29079 29080 29081 29082 29083 29084 29085 29086 29087 29088 29089 29090 29091 29092 29093 29094 29095 29096 29097 29098 29099 29100 29101 29102 29103 29104 29105 29106 29107 29108 29109 29110 29111 29112 29113 29114 29115 29116 29117 29118 29119 29120 29121 29122 29123 29124 29125 29126 29127 29128 29129 29130 29131 29132 29133 29134 29135 29136 29137 29138 29139 29140 29141 29142 29143 29144 29145 29146 29147 29148 29149 29150 29151 29152 29153 29154 29155 29156 29157 29158 29159 29160 29161 29162 29163 29164 29165 29166 29167 29168 29169 29170 29171 29172 29173 29174 29175 29176 29177 29178 29179 29180 29181 29182 29183 29184 29185 29186 29187 29188 29189 29190 29191 29192 29193 29194 29195 29196 29197 29198 29199 29200 29201 29202 29203 29204 29205 29206 29207 29208 29209 29210 29211 29212 29213 29214 29215 29216 29217 29218 29219 29220 29221 29222 29223 29224 29225 29226 29227 29228 29229 29230 29231 29232 29233 29234 29235 29236 29237 29238 29239 29240 29241 29242 29243 29244 29245 29246 29247 29248 29249 29250 29251 29252 29253 29254 29255 29256 29257 29258 29259 29260 29261 29262 29263 29264 29265 29266 29267 29268 29269 29270 29271 29272 29273 29274 29275 29276 29277 29278 29279 29280 29281 29282 29283 29284 29285 29286 29287 29288 29289 29290 29291 29292 29293 29294 29295 29296 29297 29298 29299 29300 29301 29302 29303 29304 29305 29306 29307 29308 29309 29310 29311 29312 29313 29314 29315 29316 29317 29318 29319 29320 29321 29322 29323 29324 29325 29326 29327 29328 29329 29330 29331 29332 29333 29334 29335 29336 29337 29338 29339 29340 29341 29342 29343 29344 29345 29346 29347 29348 29349 29350 29351 29352 29353 29354 29355 29356 29357 29358 29359 29360 29361 29362 29363 29364 29365 29366 29367 29368 29369 29370 29371 29372 29373 29374 29375 29376 29377 29378 29379 29380 29381 29382 29383 29384 29385 29386 29387 29388 29389 29390 29391 29392 29393 29394 29395 29396 29397 29398 29399 29400 29401 29402 29403 29404 29405 29406 29407 29408 29409 29410 29411 29412 29413 29414 29415 29416 29417 29418 29419 29420 29421 29422 29423 29424 29425 29426 29427 29428 29429 29430 29431 29432 29433 29434 29435 29436 29437 29438 29439 29440 29441 29442 29443 29444 29445 29446 29447 29448 29449 29450 29451 29452 29453 29454 29455 29456 29457 29458 29459 29460 29461 29462 29463 29464 29465 29466 29467 29468 29469 29470 29471 29472 29473 29474 29475 29476 29477 29478 29479 29480 29481 29482 29483 29484 29485 29486 29487 29488 29489 29490 29491 29492 29493 29494 29495 29496 29497 29498 29499 29500 29501 29502 29503 29504 29505 29506 29507 29508 29509 29510 29511 29512 29513 29514 29515 29516 29517 29518 29519 29520 29521 29522 29523 29524 29525 29526 29527 29528 29529 29530 29531 29532 29533 29534 29535 29536 29537 29538 29539 29540 29541 29542 29543 29544 29545 29546 29547 29548 29549 29550 29551 29552 29553 29554 29555 29556 29557 29558 29559 29560 29561 29562 29563 29564 29565 29566 29567 29568 29569 29570 29571 29572 29573 29574 29575 29576 29577 29578 29579 29580 29581 29582 29583 29584 29585 29586 29587 29588 29589 29590 29591 29592 29593 29594 29595 29596 29597 29598 29599 29600 29601 29602 29603 29604 29605 29606 29607 29608 29609 29610 29611 29612 29613 29614 29615 29616 29617 29618 29619 29620 29621 29622 29623 29624 29625 29626 29627 29628 29629 29630 29631 29632 29633 29634 29635 29636 29637 29638 29639 29640 29641 29642 29643 29644 29645 29646 29647 29648 29649 29650 29651 29652 29653 29654 29655 29656 29657 29658 29659 29660 29661 29662 29663 29664 29665 29666 29667 29668 29669 29670 29671 29672 29673 29674 29675 29676 29677 29678 29679 29680 29681 29682 29683 29684 29685 29686 29687 29688 29689 29690 29691 29692 29693 29694 29695 29696 29697 29698 29699 29700 29701 29702 29703 29704 29705 29706 29707 29708 29709 29710 29711 29712 29713 29714 29715 29716 29717 29718 29719 29720 29721 29722 29723 29724 29725 29726 29727 29728 29729 29730 29731 29732 29733 29734 29735 29736 29737 29738 29739 29740 29741 29742 29743 29744 29745 29746 29747 29748 29749 29750 29751 29752 29753 29754 29755 29756 29757 29758 29759 29760 29761 29762 29763 29764 29765 29766 29767 29768 29769 29770 29771 29772 29773 29774 29775 29776 29777 29778 29779 29780 29781 29782 29783 29784 29785 29786 29787 29788 29789 29790 29791 29792 29793 29794 29795 29796 29797 29798 29799 29800 29801 29802 29803 29804 29805 29806 29807 29808 29809 29810 29811 29812 29813 29814 29815 29816 29817 29818 29819 29820 29821 29822 29823 29824 29825 29826 29827 29828 29829 29830 29831 29832 29833 29834 29835 29836 29837 29838 29839 29840 29841 29842 29843 29844 29845 29846 29847 29848 29849 29850 29851 29852 29853 29854 29855 29856 29857 29858 29859 29860 29861 29862 29863 29864 29865 29866 29867 29868 29869 29870 29871 29872 29873 29874 29875 29876 29877 29878 29879 29880 29881 29882 29883 29884 29885 29886 29887 29888 29889 29890 29891 29892 29893 29894 29895 29896 29897 29898 29899 29900 29901 29902 29903 29904 29905 29906 29907 29908 29909 29910 29911 29912 29913 29914 29915 29916 29917 29918 29919 29920 29921 29922 29923 29924 29925 29926 29927 29928 29929 29930 29931 29932 29933 29934 29935 29936 29937 29938 29939 29940 29941 29942 29943 29944 29945 29946 29947 29948 29949 29950 29951 29952 29953 29954 29955 29956 29957 29958 29959 29960 29961 29962 29963 29964 29965 29966 29967 29968 29969 29970 29971 29972 29973 29974 29975 29976 29977 29978 29979 29980 29981 29982 29983 29984 29985 29986 29987 29988 29989 29990 29991 29992 29993 29994 29995 29996 29997 29998 29999 30000 30001 30002 30003 30004 30005 30006 30007 30008 30009 30010 30011 30012 30013 30014 30015 30016 30017 30018 30019 30020 30021 30022 30023 30024 30025 30026 30027 30028 30029 30030 30031 30032 30033 30034 30035 30036 30037 30038 30039 30040 30041 30042 30043 30044 30045 30046 30047 30048 30049 30050 30051 30052 30053 30054 30055 30056 30057 30058 30059 30060 30061 30062 30063 30064 30065 30066 30067 30068 30069 30070 30071 30072 30073 30074 30075 30076 30077 30078 30079 30080 30081 30082 30083 30084 30085 30086 30087 30088 30089 30090 30091 30092 30093 30094 30095 30096 30097 30098 30099 30100 30101 30102 30103 30104 30105 30106 30107 30108 30109 30110 30111 30112 30113 30114 30115 30116 30117 30118 30119 30120 30121 30122 30123 30124 30125 30126 30127 30128 30129 30130 30131 30132 30133 30134 30135 30136 30137 30138 30139 30140 30141 30142 30143 30144 30145 30146 30147 30148 30149 30150 30151 30152 30153 30154 30155 30156 30157 30158 30159 30160 30161 30162 30163 30164 30165 30166 30167 30168 30169 30170 30171 30172 30173 30174 30175 30176 30177 30178 30179 30180 30181 30182 30183 30184 30185 30186 30187 30188 30189 30190 30191 30192 30193 30194 30195 30196 30197 30198 30199 30200 30201 30202 30203 30204 30205 30206 30207 30208 30209 30210 30211 30212 30213 30214 30215 30216 30217 30218 30219 30220 30221 30222 30223 30224 30225 30226 30227 30228 30229 30230 30231 30232 30233 30234 30235 30236 30237 30238 30239 30240 30241 30242 30243 30244 30245 30246 30247 30248 30249 30250 30251 30252 30253 30254 30255 30256 30257 30258 30259 30260 30261 30262 30263 30264 30265 30266 30267 30268 30269 30270 30271 30272 30273 30274 30275 30276 30277 30278 30279 30280 30281 30282 30283 30284 30285 30286 30287 30288 30289 30290 30291 30292 30293 30294 30295 30296 30297 30298 30299 30300 30301 30302 30303 30304 30305 30306 30307 30308 30309 30310 30311 30312 30313 30314 30315 30316 30317 30318 30319 30320 30321 30322 30323 30324 30325 30326 30327 30328 30329 30330 30331 30332 30333 30334 30335 30336 30337 30338 30339 30340 30341 30342 30343 30344 30345 30346 30347 30348 30349 30350 30351 30352 30353 30354 30355 30356 30357 30358 30359 30360 30361 30362 30363 30364 30365 30366 30367 30368 30369 30370 30371 30372 30373 30374 30375 30376 30377 30378 30379 30380 30381 30382 30383 30384 30385 30386 30387 30388 30389 30390 30391 30392 30393 30394 30395 30396 30397 30398 30399 30400 30401 30402 30403 30404 30405 30406 30407 30408 30409 30410 30411 30412 30413 30414 30415 30416 30417 30418 30419 30420 30421 30422 30423 30424 30425 30426 30427 30428 30429 30430 30431 30432 30433 30434 30435 30436 30437 30438 30439 30440 30441 30442 30443 30444 30445 30446 30447 30448 30449 30450 30451 30452 30453 30454 30455 30456 30457 30458 30459 30460 30461 30462 30463 30464 30465 30466 30467 30468 30469 30470 30471 30472 30473 30474 30475 30476 30477 30478 30479 30480 30481 30482 30483 30484 30485 30486 30487 30488 30489 30490 30491 30492 30493 30494 30495 30496 30497 30498 30499 30500 30501 30502 30503 30504 30505 30506 30507 30508 30509 30510 30511 30512 30513 30514 30515 30516 30517 30518 30519 30520 30521 30522 30523 30524 30525 30526 30527 30528 30529 30530 30531 30532 30533 30534 30535 30536 30537 30538 30539 30540 30541 30542 30543 30544 30545 30546 30547 30548 30549 30550 30551 30552 30553 30554 30555 30556 30557 30558 30559 30560 30561 30562 30563 30564 30565 30566 30567 30568 30569 30570 30571 30572 30573 30574 30575 30576 30577 30578 30579 30580 30581 30582 30583 30584 30585 30586 30587 30588 30589 30590 30591 30592 30593 30594 30595 30596 30597 30598 30599 30600 30601 30602 30603 30604 30605 30606 30607 30608 30609 30610 30611 30612 30613 30614 30615 30616 30617 30618 30619 30620 30621 30622 30623 30624 30625 30626 30627 30628 30629 30630 30631 30632 30633 30634 30635 30636 30637 30638 30639 30640 30641 30642 30643 30644 30645 30646 30647 30648 30649 30650 30651 30652 30653 30654 30655 30656 30657 30658 30659 30660 30661 30662 30663 30664 30665 30666 30667 30668 30669 30670 30671 30672 30673 30674 30675 30676 30677 30678 30679 30680 30681 30682 30683 30684 30685 30686 30687 30688 30689 30690 30691 30692 30693 30694 30695 30696 30697 30698 30699 30700 30701 30702 30703 30704 30705 30706 30707 30708 30709 30710 30711 30712 30713 30714 30715 30716 30717 30718 30719 30720 30721 30722 30723 30724 30725 30726 30727 30728 30729 30730 30731 30732 30733 30734 30735 30736 30737 30738 30739 30740 30741 30742 30743 30744 30745 30746 30747 30748 30749 30750 30751 30752 30753 30754 30755 30756 30757 30758 30759 30760 30761 30762 30763 30764 30765 30766 30767 30768 30769 30770 30771 30772 30773 30774 30775 30776 30777 30778 30779 30780 30781 30782 30783 30784 30785 30786 30787 30788 30789 30790 30791 30792 30793 30794 30795 30796 30797 30798 30799 30800 30801 30802 30803 30804 30805 30806 30807 30808 30809 30810 30811 30812 30813 30814 30815 30816 30817 30818 30819 30820 30821 30822 30823 30824 30825 30826 30827 30828 30829 30830 30831 30832 30833 30834 30835 30836 30837 30838 30839 30840 30841 30842 30843 30844 30845 30846 30847 30848 30849 30850 30851 30852 30853 30854 30855 30856 30857 30858 30859 30860 30861 30862 30863 30864 30865 30866 30867 30868 30869 30870 30871 30872 30873 30874 30875 30876 30877 30878 30879 30880 30881 30882 30883 30884 30885 30886 30887 30888 30889 30890 30891 30892 30893 30894 30895 30896 30897 30898 30899 30900 30901 30902 30903 30904 30905 30906 30907 30908 30909 30910 30911 30912 30913 30914 30915 30916 30917 30918 30919 30920 30921 30922 30923 30924 30925 30926 30927 30928 30929 30930 30931 30932 30933 30934 30935 30936 30937 30938 30939 30940 30941 30942 30943 30944 30945 30946 30947 30948 30949 30950 30951 30952 30953 30954 30955 30956 30957 30958 30959 30960 30961 30962 30963 30964 30965 30966 30967 30968 30969 30970 30971 30972 30973 30974 30975 30976 30977 30978 30979 30980 30981 30982 30983 30984 30985 30986 30987 30988 30989 30990 30991 30992 30993 30994 30995 30996 30997 30998 30999 31000 31001 31002 31003 31004 31005 31006 31007 31008 31009 31010 31011 31012 31013 31014 31015 31016 31017 31018 31019 31020 31021 31022 31023 31024 31025 31026 31027 31028 31029 31030 31031 31032 31033 31034 31035 31036 31037 31038 31039 31040 31041 31042 31043 31044 31045 31046 31047 31048 31049 31050 31051 31052 31053 31054 31055 31056 31057 31058 31059 31060 31061 31062 31063 31064 31065 31066 31067 31068 31069 31070 31071 31072 31073 31074 31075 31076 31077 31078 31079 31080 31081 31082 31083 31084 31085 31086 31087 31088 31089 31090 31091 31092 31093 31094 31095 31096 31097 31098 31099 31100 31101 31102 31103 31104 31105 31106 31107 31108 31109 31110 31111 31112 31113 31114 31115 31116 31117 31118 31119 31120 31121 31122 31123 31124 31125 31126 31127 31128 31129 31130 31131 31132 31133 31134 31135 31136 31137 31138 31139 31140 31141 31142 31143 31144 31145 31146 31147 31148 31149 31150 31151 31152 31153 31154 31155 31156 31157 31158 31159 31160 31161 31162 31163 31164 31165 31166 31167 31168 31169 31170 31171 31172 31173 31174 31175 31176 31177 31178 31179 31180 31181 31182 31183 31184 31185 31186 31187 31188 31189 31190 31191 31192 31193 31194 31195 31196 31197 31198 31199 31200 31201 31202 31203 31204 31205 31206 31207 31208 31209 31210 31211 31212 31213 31214 31215 31216 31217 31218 31219 31220 31221 31222 31223 31224 31225 31226 31227 31228 31229 31230 31231 31232 31233 31234 31235 31236 31237 31238 31239 31240 31241 31242 31243 31244 31245 31246 31247 31248 31249 31250 31251 31252 31253 31254 31255 31256 31257 31258 31259 31260 31261 31262 31263 31264 31265 31266 31267 31268 31269 31270 31271 31272 31273 31274 31275 31276 31277 31278 31279 31280 31281 31282 31283 31284 31285 31286 31287 31288 31289 31290 31291 31292 31293 31294 31295 31296 31297 31298 31299 31300 31301 31302 31303 31304 31305 31306 31307 31308 31309 31310 31311 31312 31313 31314 31315 31316 31317 31318 31319 31320 31321 31322 31323 31324 31325 31326 31327 31328 31329 31330 31331 31332 31333 31334 31335 31336 31337 31338 31339 31340 31341 31342 31343 31344 31345 31346 31347 31348 31349 31350 31351 31352 31353 31354 31355 31356 31357 31358 31359 31360 31361 31362 31363 31364 31365 31366 31367 31368 31369 31370 31371 31372 31373 31374 31375 31376 31377 31378 31379 31380 31381 31382 31383 31384 31385 31386 31387 31388 31389 31390 31391 31392 31393 31394 31395 31396 31397 31398 31399 31400 31401 31402 31403 31404 31405 31406 31407 31408 31409 31410 31411 31412 31413 31414 31415 31416 31417 31418 31419 31420 31421 31422 31423 31424 31425 31426 31427 31428 31429 31430 31431 31432 31433 31434 31435 31436 31437 31438 31439 31440 31441 31442 31443 31444 31445 31446 31447 31448 31449 31450 31451 31452 31453 31454 31455 31456 31457 31458 31459 31460 31461 31462 31463 31464 31465 31466 31467 31468 31469 31470 31471 31472 31473 31474 31475 31476 31477 31478 31479 31480 31481 31482 31483 31484 31485 31486 31487 31488 31489 31490 31491 31492 31493 31494 31495 31496 31497 31498 31499 31500 31501 31502 31503 31504 31505 31506 31507 31508 31509 31510 31511 31512 31513 31514 31515 31516 31517 31518 31519 31520 31521 31522 31523 31524 31525 31526 31527 31528 31529 31530 31531 31532 31533 31534 31535 31536 31537 31538 31539 31540 31541 31542 31543 31544 31545 31546 31547 31548 31549 31550 31551 31552 31553 31554 31555 31556 31557 31558 31559 31560 31561 31562 31563 31564 31565 31566 31567 31568 31569 31570 31571 31572 31573 31574 31575 31576 31577 31578 31579 31580 31581 31582 31583 31584 31585 31586 31587 31588 31589 31590 31591 31592 31593 31594 31595 31596 31597 31598 31599 31600 31601 31602 31603 31604 31605 31606 31607 31608 31609 31610 31611 31612 31613 31614 31615 31616 31617 31618 31619 31620 31621 31622 31623 
</DataArray>
<DataArray type="UInt32" Name="offsets" format="ascii">
3 6 9 12 14 17 20 23 26 29 32 35 37 40 43 46 49 51 54 57 60 63 66 68 71 74 77 80 83 85 88 91 94 96 99 102 104 107 110 113 116 118 121 124 127 130 132 135 137 140 143 146 149 152 155 158 161 164 166 169 172 175 178 181 184 186 189 192 195 198 201 204 206 209 212 215 218 221 223 226 229 231 234 237 240 243 246 249 252 255 258 260 263 266 269 271 274 277 280 283 286 289 292 295 298 301 304 307 310 313 316 319 322 325 328 331 334 337 340 342 345 348 351 354 357 359 362 365 367 370 373 376 379 382 385 388 391 394 397 400 403 406 409 412 414 417 420 423 426 429 432 435 437 440 443 446 449 452 455 457 459 462 465 468 471 474 477 480 482 485 488 491 494 497 499 502 505 508 511 514 517 520 523 526 529 532 535 538 540 543 546 549 551 554 556 559 562 565 568 571 574 576 579 582 584 587 590 593 596 599 601 604 607 610 613 616 619 622 624 627 629 632 635 638 641 644 647 650 653 656 659 661 664 667 669 672 674 677 679 682 685 688 691 693 695 698 701 704 707 709 712 715 717 720 722 725 728 731 733 736 739 742 745 748 751 754 757 760 763 765 768 770 773 776 779 782 785 788 791 794 797 800 803 806 809 812 815 818 821 824 827 830 833 836 839 842 845 848 851 854 857 860 863 866 869 872 875 878 881 884 887 890 893 896 899 902 905 908 911 914 917 920 923 926 929 932 935 938 941 944 947 950 953 956 959 962 965 968 971 974 977 980 983 986 988 991 994 997 1000 1003 1005 1008 1011 1014 1017 1020 1023 1026 1029 1032 1034 1037 1039 1042 1045 1048 1050 1053 1055 1058 1061 1064 1067 1070 1073 1076 1079 1082 1085 1088 1091 1094 1097 1100 1103 1106 1109 1112 1115 1118 1121 1124 1127 1130 1133 1136 1139 1142 1145 1148 1151 1154 1157 1160 1163 1166 1169 1172 1175 1178 1181 1184 1187 1190 1193 1196 1199 1202 1205 1208 1211 1213 1216 1219 1221 1224 1226 1229 1232 1235 1238 1241 1244 1247 1250 1253 1256 1259 1262 1265 1268 1271 1274 1277 1280 1283 1286 1289 1292 1294 1297 1299 1302 1305 1308 1311 1314 1317 1320 1322 1325 1328 1331 1334 1337 1340 1343 1346 1349 1352 1355 1358 1361 1364 1367 1370 1373 1375 1378 1381 1383 1386 1389 1392 1395 1398 1401 1404 1407 1410 1413 1415 1418 1421 1424 1427 1430 1433 1436 1439 1442 1445 1447 1450 1452 1455 1457 1459 1462 1465 1468 1471 1473 1476 1479 1482 1485 1488 1490 1493 1496 1499 1502 1505 1508 1511 1514 1517 1519 1522 1525 1527 1530 1532 1535 1538 1541 1544 1547 1550 1553 1556 1559 1562 1565 1568 1570 1573 1576 1579 1581 1584 1587 1590 1593 1596 1598 1601 1604 1606 1609 1612 1615 1618 1620 1623 1625 1628 1631 1634 1637 1640 1643 1646 1649 1652 1655 1658 1661 1663 1666 1669 1672 1675 1678 1680 1683 1686 1688 1691 1694 1696 1699 1702 1705 1708 1711 1714 1716 1719 1722 1725 1728 1730 1733 1735 1738 1740 1743 1746 1749 1752 1755 1758 1761 1764 1767 1770 1773 1776 1779 1782 1784 1787 1790 1793 1796 1799 1802 1805 1808 1811 1814 1817 1820 1823 1826 1829 1832 1835 1838 1841 1844 1847 1850 1853 1856 1859 1862 1865 1868 1871 1874 1877 1880 1883 1886 1889 1892 1895 1898 1901 1904 1907 1910 1913 1916 1919 1922 1925 1928 1931 1934 1937 1940 1943 1946 1949 1952 1955 1958 1961 1964 1967 1970 1973 1976 1979 1982 1985 1988 1991 1993 1995 1998 2001 2004 2007 2009 2012 2015 2017 2020 2023 2026 2029 2032 2034 2037 2040 2043 2046 2049 2052 2054 2057 2059 2062 2065 2068 2071 2073 2076 2079 2082 2084 2087 2089 2092 2095 2098 2101 2104 2107 2110 2112 2115 2118 2121 2123 2126 2129 2132 2135 2138 2141 2144 2147 2150 2153 2156 2159 2162 2165 2168 2171 2174 2177 2180 2183 2186 2189 2192 2194 2197 2200 2203 2206 2209 2212 2214 2217 2220 2223 2226 2228 2231 2233 2236 2239 2242 2245 2248 2251 2254 2257 2260 2263 2266 2269 2272 2274 2277 2280 2283 2286 2289 2292 2295 2298 2301 2304 2307 2310 2313 2316 2319 2322 2325 2328 2331 2334 2337 2340 2343 2346 2349 2352 2355 2358 2361 2364 2367 2370 2373 2375 2378 2381 2383 2386 2388 2391 2394 2397 2400 2402 2405 2408 2411 2414 2416 2419 2422 2425 2428 2431 2433 2436 2439 2442 2445 2448 2450 2453 2456 2458 2461 2464 2467 2470 2473 2476 2479 2481 2484 2487 2489 2492 2495 2498 2501 2503 2506 2509 2512 2515 2518 2521 2524 2527 2530 2533 2536 2539 2542 2545 2548 2551 2554 2557 2560 2563 2566 2569 2572 2575 2578 2581 2584 2587 2590 2593 2596 2599 2602 2605 2608 2611 2614 2617 2620 2623 2626 2629 2632 2634 2637 2640 2643 2646 2649 2652 2655 2658 2661 2664 2667 2670 2673 2676 2678 2681 2684 2687 2690 2693 2696 2699 2701 2704 2707 2710 2713 2716 2718 2721 2724 2727 2730 2732 2735 2738 2741 2744 2747 2750 2752 2755 2758 2760 2763 2766 2768 2771 2773 2776 2778 2781 2784 2787 2790 2792 2794 2797 2800 2802 2805 2808 2811 2813 2816 2819 2822 2824 2827 2830 2833 2836 2839 2842 2845 2848 2851 2854 2857 2860 2863 2866 2869 2871 2874 2877 2880 2883 2886 2889 2892 2895 2898 2900 2903 2906 2909 2912 2915 2918 2920 2922 2925 2928 2931 2934 2937 2940 2943 2946 2948 2951 2954 2957 2960 2963 2965 2968 2971 2974 2976 2979 2982 2985 2987 2990 2993 2996 2999 3002 3005 3008 3011 3014 3017 3020 3023 3026 3029 3032 3035 3038 3040 3043 3046 3049 3052 3055 3058 3061 3064 3066 3069 3072 3075 3078 3081 3084 3087 3090 3093 3095 3098 3101 3104 3107 3110 3113 3116 3119 3121 3124 3127 3130 3133 3135 3138 3141 3144 3147 3150 3153 3156 3159 3162 3165 3167 3170 3173 3176 3178 3180 3183 3185 3188 3191 3194 3196 3198 3200 3203 3206 3209 3212 3215 3218 3221 3223 3226 3229 3232 3234 3236 3239 3242 3244 3246 3249 3252 3255 3257 3260 3263 3266 3269 3272 3274 3277 3280 3283 3286 3289 3292 3295 3298 3301 3304 3306 3309 3312 3315 3318 3321 3324 3327 3330 3333 3336 3339 3342 3345 3348 3351 3354 3357 3360 3363 3366 3368 3371 3374 3377 3380 3382 3385 3388 3391 3394 3397 3400 3403 3406 3409 3412 3415 3418 3421 3423 3426 3429 3432 3435 3438 3441 3444 3446 3449 3452 3455 3458 3461 3464 3467 3470 3473 3476 3479 3482 3485 3488 3491 3494 3497 3500 3502 3505 3508 3511 3514 3517 3520 3522 3525 3528 3531 3534 3537 3540 3543 3545 3548 3551 3554 3557 3559 3562 3565 3568 3571 3574 3576 3579 3582 3585 3587 3590 3593 3595 3598 3601 3604 3607 3609 3612 3614 3617 3620 3623 3626 3629 3632 3635 3638 3641 3644 3647 3650 3652 3655 3658 3661 3664 3667 3670 3673 3676 3679 3681 3684 3687 3690 3693 3696 3699 3701 3704 3707 3710 3713 3716 3719 3722 3725 3728 3730 3733 3735 3738 3741 3744 3747 3750 3752 3754 3757 3760 3763 3766 3769 3772 3775 3778 3781 3784 3787 3790 3793 3796 3799 3802 3805 3808 3811 3814 3817 3820 3822 3825 3828 3831 3834 3837 3840 3843 3846 3849 3852 3855 3858 3861 3864 3867 3870 3873 3876 3879 3882 3885 3888 3891 3894 3897 3900 3903 3906 3909 3912 3915 3918 3921 3924 3927 3930 3933 3936 3939 3942 3945 3948 3951 3954 3957 3960 3963 3966 3969 3972 3975 3978 3981 3984 3987 3990 3993 3996 3999 4002 4004 4007 4009 4012 4015 4018 4021 4024 4027 4030 4033 4036 4039 4042 4045 4048 4050 4053 4056 4059 4062 4064 4067 4070 4073 4076 4079 4082 4085 4088 4091 4094 4097 4100 4103 4106 4109 4112 4115 4118 4121 4124 4126 4129 4132 4135 4138 4141 4144 4147 4150 4153 4156 4159 4162 4165 4168 4171 4174 4177 4180 4183 4186 4189 4192 4195 4198 4201 4204 4207 4210 4213 4216 4219 4222 4225 4228 4231 4234 4237 4240 4243 4246 4249 4252 4255 4257 4260 4263 4266 4269 4272 4275 4278 4281 4284 4286 4288 4290 4292 4295 4298 4301 4304 4307 4310 4313 4316 4319 4322 4325 4328 4331 4334 4337 4339 4342 4345 4348 4351 4354 4357 4360 4363 4366 4368 4371 4374 4377 4380 4383 4386 4389 4391 4394 4397 4400 4403 4406 4409 4411 4414 4417 4420 4423 4425 4428 4431 4434 4437 4440 4442 4445 4448 4451 4454 4457 4460 4463 4465 4468 4471 4474 4477 4480 4483 4486 4489 4492 4494 4497 4500 4502 4504 4507 4510 4513 4516 4518 4521 4524 4526 4529 4532 4535 4538 4541 4543 4545 4548 4551 4554 4557 4560 4563 4566 4569 4572 4575 4578 4581 4584 4587 4590 4593 4596 4599 4602 4605 4608 4611 4614 4617 4620 4623 4626 4629 4632 4635 4638 4641 4644 4647 4650 4653 4656 4659 4662 4665 4668 4671 4674 4677 4680 4683 4686 4689 4692 4695 4698 4701 4704 4707 4710 4713 4716 4719 4722 4725 4728 4731 4734 4737 4740 4743 4746 4749 4752 4755 4758 4761 4764 4767 4770 4773 4776 4779 4782 4785 4787 4790 4793 4796 4799 4802 4805 4808 4810 4812 4815 4817 4820 4823 4826 4829 4832 4835 4838 4840 4843 4846 4849 4852 4855 4858 4861 4864 4867 4870 4872 4875 4878 4880 4883 4886 4889 4892 4895 4898 4901 4904 4907 4910 4913 4915 4918 4921 4924 4927 4930 4933 4936 4939 4942 4945 4948 4951 4954 4956 4958 4961 4964 4967 4970 4973 4976 4979 4982 4985 4988 4991 4994 4997 5000 5003 5006 5009 5012 5015 5018 5021 5024 5027 5030 5033 5036 5039 5042 5045 5048 5051 5054 5057 5060 5063 5066 5069 5072 5075 5078 5081 5083 5086 5089 5092 5095 5098 5100 5103 5106 5109 5112 5115 5118 5121 5124 5127 5130 5133 5136 5139 5142 5145 5148 5150 5152 5155 5158 5161 5164 5167 5169 5172 5175 5178 5181 5183 5186 5189 5192 5195 5198 5201 5203 5206 5208 5211 5214 5217 5220 5223 5226 5229 5232 5235 5237 5240 5243 5246 5249 5252 5254 5257 5260 5262 5265 5268 5271 5274 5277 5280 5283 5286 5289 5291 5294 5296 5299 5301 5304 5307 5310 5312 5315 5318 5320 5323 5325 5327 5330 5332 5335 5337 5340 5343 5346 5349 5352 5355 5358 5361 5363 5366 5369 5371 5374 5377 5380 5383 5386 5389 5391 5393 5396 5398 5401 5404 5407 5409 5412 5415 5418 5421 5423 5426 5428 5431 5434 5437 5440 5442 5444 5447 5450 5453 5456 5459 5462 5465 5468 5471 5474 5477 5480 5483 5486 5489 5492 5495 5498 5501 5503 5505 5507 5509 5512 5515 5517 5520 5522 5525 5528 5531 5533 5536 5538 5541 5543 5545 5547 5550 5553 5556 5559 5562 5564 5567 5570 5573 5576 5579 5581 5584 5586 5589 5592 5594 5597 5599 5602 5604 5607 5610 5613 5616 5618 5621 5624 5626 5629 5632 5635 5637 5639 5641 5643 5646 5648 5651 5653 5656 5659 5662 5664 5666 5668 5671 5673 5676 5678 5681 5684 5686 5688 5691 5694 5696 5699 5702 5704 5707 5709 5712 5715 5718 5721 5724 5726 5729 5731 5734 5736 5738 5741 5744 5746 5749 5751 5753 5756 5759 5762 5764 5767 5769 5772 5775 5778 5780 5783 5786 5789 5792 5794 5797 5799 5802 5805 5808 5811 5814 5817 5820 5823 5826 5828 5830 5833 5835 5838 5840 5843 5846 5848 5851 5854 5857 5860 5863 5866 5869 5872 5875 5878 5881 5884 5887 5890 5893 5896 5898 5900 5903 5906 5909 5912 5915 5918 5921 5924 5927 5930 5933 5936 5939 5942 5945 5948 5951 5954 5957 5960 5963 5966 5969 5972 5975 5978 5981 5983 5986 5989 5991 5994 5997 6000 6003 6006 6009 6011 6014 6017 6020 6022 6024 6027 6029 6032 6035 6037 6040 6043 6045 6048 6051 6053 6056 6058 6061 6064 6067 6070 6073 6076 6078 6081 6084 6087 6090 6093 6096 6099 6102 6105 6107 6110 6113 6116 6119 6122 6125 6127 6129 6132 6135 6138 6141 6143 6146 6149 6152 6155 6158 6161 6164 6167 6169 6172 6174 6177 6179 6182 6185 6188 6191 6194 6197 6200 6202 6205 6207 6209 6212 6215 6218 6221 6224 6227 6230 6233 6235 6238 6241 6244 6247 6249 6252 6254 6257 6260 6262 6265 6268 6270 6273 6276 6279 6282 6285 6288 6291 6294 6297 6300 6303 6306 6309 6312 6315 6318 6320 6323 6326 6329 6331 6334 6337 6340 6343 6346 6349 6352 6355 6358 6361 6364 6366 6369 6372 6375 6378 6380 6382 6385 6388 6391 6394 6397 6399 6402 6405 6408 6410 6413 6416 6419 6422 6425 6427 6430 6433 6436 6439 6442 6445 6448 6450 6453 6455 6457 6460 6462 6465 6468 6471 6474 6476 6478 6481 6484 6487 6489 6492 6494 6497 6499 6502 6505 6508 6510 6513 6516 6519 6521 6524 6527 6529 6532 6534 6536 6538 6541 6544 6546 6549 6551 6554 6556 6559 6562 6564 6566 6569 6572 6575 6577 6580 6583 6585 6588 6591 6594 6597 6600 6603 6606 6608 6611 6614 6617 6620 6623 6626 6629 6632 6635 6638 6641 6644 6647 6650 6653 6656 6659 6662 6665 6668 6671 6673 6676 6679 6681 6684 6687 6690 6693 6695 6698 6700 6703 6706 6709 6712 6715 6718 6721 6724 6727 6730 6733 6736 6739 6742 6745 6748 6751 6754 6757 6760 6763 6766 6769 6772 6775 6778 6781 6784 6787 6789 6792 6795 6798 6801 6804 6807 6809 6812 6815 6818 6821 6824 6827 6830 6833 6836 6839 6842 6845 6848 6851 6854 6856 6859 6862 6865 6867 6870 6872 6875 6878 6880 6883 6886 6889 6892 6894 6897 6900 6902 6905 6907 6909 6911 6914 6917 6920 6922 6925 6928 6930 6933 6935 6938 6941 6944 6947 6950 6953 6956 6959 6962 6965 6968 6971 6974 6976 6979 6982 6985 6988 6991 6994 6997 7000 7003 7006 7009 7012 7015 7018 7021 7024 7027 7030 7033 7036 7039 7042 7045 7048 7051 7054 7056 7059 7061 7064 7067 7070 7073 7076 7078 7081 7084 7087 7090 7093 7096 7099 7102 7105 7108 7111 7114 7117 7120 7123 7125 7128 7130 7133 7136 7138 7141 7144 7147 7150 7153 7156 7159 7162 7165 7168 7171 7174 7177 7180 7183 7186 7189 7192 7195 7197 7200 7203 7206 7209 7212 7215 7218 7221 7223 7226 7228 7231 7234 7237 7240 7242 7244 7247 7250 7253 7256 7259 7261 7263 7266 7269 7272 7275 7278 7280 7282 7285 7288 7291 7294 7297 7300 7302 7305 7308 7311 7314 7317 7320 7323 7326 7329 7332 7335 7338 7340 7343 7346 7349 7352 7355 7358 7361 7364 7367 7370 7373 7376 7379 7382 7385 7388 7391 7394 7397 7400 7403 7406 7408 7411 7414 7416 7419 7421 7424 7427 7430 7433 7435 7438 7441 7444 7447 7450 7453 7456 7459 7462 7465 7468 7471 7474 7477 7480 7483 7486 7489 7492 7495 7498 7501 7504 7507 7510 7513 7516 7519 7521 7524 7527 7529 7532 7535 7538 7540 7543 7546 7549 7552 7555 7557 7560 7563 7566 7569 7571 7574 7577 7580 7583 7586 7589 7592 7595 7598 7601 7604 7607 7610 7613 7616 7619 7622 7625 7628 7631 7634 7637 7640 7643 7646 7649 7651 7654 7657 7660 7662 7665 7667 7670 7672 7674 7677 7680 7683 7685 7688 7690 7692 7695 7698 7701 7703 7706 7709 7711 7714 7717 7720 7723 7726 7729 7731 7734 7737 7740 7743 7746 7749 7752 7755 7758 7760 7763 7766 7769 7772 7775 7777 7780 7783 7786 7789 7792 7795 7798 7801 7804 7806 7809 7812 7814 7817 7819 7822 7825 7828 7831 7834 7837 7840 7843 7846 7849 7852 7854 7857 7860 7863 7866 7869 7872 7874 7877 7880 7883 7886 7888 7890 7893 7895 7898 7901 7904 7906 7908 7911 7913 7916 7919 7921 7924 7927 7930 7933 7936 7939 7942 7945 7948 7951 7954 7957 7960 7963 7966 7969 7972 7975 7978 7981 7984 7987 7990 7993 7996 7999 8002 8005 8008 8011 8014 8017 8020 8023 8026 8029 8032 8035 8038 8041 8044 8047 8050 8053 8056 8059 8062 8065 8068 8071 8074 8077 8080 8083 8086 8089 8092 8095 8098 8101 8104 8107 8110 8113 8116 8119 8121 8124 8127 8130 8133 8136 8139 8142 8145 8148 8151 8154 8157 8160 8163 8166 8169 8171 8174 8177 8180 8183 8186 8189 8191 8194 8196 8198 8201 8204 8207 8210 8212 8215 8217 8220 8223 8226 8229 8231 8234 8237 8240 8242 8245 8247 8250 8253 8256 8259 8262 8264 8267 8269 8272 8275 8278 8280 8283 8286 8289 8292 8295 8298 8301 8304 8306 8309 8312 8315 8318 8320 8322 8325 8328 8331 8334 8336 8338 8341 8344 8347 8350 8353 8356 8359 8362 8364 8366 8369 8371 8374 8377 8380 8383 8385 8388 8391 8394 8396 8399 8402 8405 8408 8411 8414 8417 8420 8423 8426 8429 8432 8434 8437 8440 8443 8446 8449 8452 8455 8458 8461 8464 8467 8470 8473 8475 8478 8481 8484 8487 8490 8493 8496 8498 8501 8504 8507 8510 8513 8516 8519 8522 8525 8528 8531 8534 8537 8539 8542 8545 8548 8551 8554 8557 8560 8563 8566 8569 8572 8575 8578 8580 8583 8585 8588 8591 8594 8597 8600 8603 8606 8609 8612 8615 8618 8621 8624 8627 8630 8633 8636 8639 8642 8645 8648 8651 8654 8657 8660 8663 8666 8669 8672 8675 8678 8681 8684 8687 8690 8693 8696 8699 8702 8705 8708 8711 8714 8717 8720 8723 8726 8729 8732 8735 8738 8741 8744 8747 8750 8753 8756 8759 8762 8765 8768 8771 8774 8777 8780 8783 8786 8789 8792 8795 8798 8801 8804 8807 8810 8813 8816 8819 8822 8825 8828 8831 8834 8837 8840 8843 8846 8849 8852 8855 8858 8861 8864 8867 8870 8873 8876 8879 8882 8885 8888 8891 8894 8897 8900 8903 8906 8909 8912 8915 8918 8921 8924 8927 8930 8933 8936 8939 8942 8945 8948 8951 8954 8956 8959 8962 8965 8968 8971 8974 8976 8979 8982 8985 8988 8991 8993 8996 8999 9002 9005 9008 9010 9013 9016 9018 9021 9024 9027 9029 9032 9035 9038 9041 9044 9046 9049 9052 9055 9058 9061 9064 9067 9069 9072 9075 9078 9081 9084 9087 9090 9093 9096 9099 9102 9105 9108 9111 9114 9117 9120 9123 9126 9128 9131 9134 9137 9140 9143 9146 9149 9151 9154 9157 9160 9163 9166 9169 9171 9174 9176 9179 9182 9185 9187 9190 9193 9195 9198 9201 9204 9207 9210 9213 9216 9219 9222 9225 9227 9230 9233 9236 9239 9242 9245 9248 9251 9254 9257 9260 9263 9266 9269 9272 9274 9277 9280 9282 9285 9288 9291 9294 9297 9300 9303 9306 9309 9312 9315 9318 9321 9324 9327 9330 9332 9335 9338 9341 9344 9347 9350 9353 9356 9359 9362 9365 9368 9371 9374 9377 9379 9382 9385 9388 9391 9394 9397 9400 9403 9405 9408 9411 9414 9417 9420 9423 9426 9429 9432 9435 9438 9440 9443 9446 9449 9452 9455 9457 9460 9463 9466 9469 9472 9475 9478 9481 9483 9486 9489 9492 9495 9497 9500 9503 9505 9508 9511 9514 9517 9520 9523 9526 9528 9531 9534 9536 9539 9542 9544 9547 9550 9553 9556 9559 9562 9565 9568 9571 9574 9577 9580 9583 9585 9588 9591 9594 9597 9600 9603 9606 9609 9612 9615 9618 9621 9623 9626 9629 9631 9634 9637 9639 9642 9645 9648 9650 9653 9656 9659 9662 9665 9668 9671 9674 9677 9680 9683 9685 9688 9691 9694 9697 9700 9703 9706 9709 9712 9715 9718 9720 9723 9726 9729 9732 9735 9738 9741 9744 9747 9750 9753 9756 9759 9762 9765 9768 9771 9774 9777 9779 9782 9785 9788 9791 9794 9797 9800 9803 9806 9809 9812 9814 9817 9819 9822 9824 9827 9830 9833 9836 9838 9841 9844 9847 9850 9853 9856 9859 9862 9865 9868 9871 9874 9877 9880 9883 9886 9889 9892 9895 9898 9901 9904 9907 9910 9913 9916 9919 9922 9924 9927 9930 9933 9936 9938 9941 9944 9947 9949 9952 9955 9958 9960 9963 9966 9969 9972 9974 9977 9979 9982 9985 9987 9989 9992 9995 9998 10000 10003 10005 10008 10011 10013 10016 10018 10021 10024 10027 10029 10032 10035 10037 10040 10042 10045 10048 10051 10053 10056 10058 10061 10064 10066 10068 10071 10074 10077 10079 10081 10084 10087 10089 10092 10095 10098 10101 10104 10107 10110 10113 10116 10119 10122 10124 10126 10129 10132 10135 10138 10141 10144 10146 10149 10151 10154 10156 10159 10162 10164 10167 10170 10172 10175 10177 10180 10183 10186 10189 10192 10195 10198 10201 10204 10207 10210 10213 10216 10219 10222 10225 10228 10231 10234 10236 10239 10242 10245 10248 10251 10254 10257 10260 10263 10266 10269 10272 10275 10278 10281 10284 10287 10290 10293 10296 10299 10302 10305 10308 10311 10314 10317 10320 10323 10326 10329 10332 10334 10336 10339 10342 10345 10347 10350 10352 10355 10357 10360 10362 10365 10368 10371 10374 10376 10379 10382 10385 10388 10391 10394 10397 10399 10402 10405 10408 10411 10414 10417 10420 10423 10426 10429 10432 10435 10438 10441 10444 10446 10449 10452 10455 10458 10461 10463 10466 10469 10472 10475 10478 10481 10484 10486 10489 10492 10495 10498 10500 10503 10506 10509 10512 10515 10517 10520 10523 10526 10528 10531 10533 10536 10539 10542 10544 10547 10549 10552 10554 10557 10560 10562 10565 10568 10571 10573 10576 10579 10582 10585 10588 10590 10593 10596 10599 10601 10604 10607 10609 10612 10615 10617 10620 10623 10626 10629 10632 10635 10638 10641 10644 10647 10650 10653 10656 10659 10662 10665 10667 10670 10673 10675 10678 10681 10684 10687 10689 10692 10695 10698 10701 10704 10707 10710 10713 10716 10719 10722 10725 10728 10731 10734 10737 10740 10743 10745 10747 10750 10753 10756 10759 10762 10765 10768 10771 10774 10777 10780 10783 10786 10788 10791 10793 10796 10798 10800 10802 10805 10808 10811 10814 10817 10820 10823 10826 10829 10831 10834 10837 10839 10842 10845 10848 10851 10854 10857 10859 10862 10865 10868 10870 10873 10876 10878 10881 10884 10887 10890 10893 10896 10898 10900 10903 10906 10909 10912 10914 10917 10920 10922 10924 10927 10930 10933 10936 10939 10942 10945 10947 10949 10952 10955 10958 10961 10964 10966 10969 10971 10974 10977 10979 10982 10985 10987 10989 10992 10994 10997 11000 11003 11006 11008 11010 11013 11016 11019 11022 11024 11027 11030 11032 11035 11038 11040 11043 11046 11048 11051 11054 11057 11060 11063 11066 11069 11072 11075 11078 11081 11084 11087 11090 11093 11096 11099 11102 11105 11108 11111 11113 11116 11118 11120 11123 11126 11128 11131 11134 11137 11140 11143 11146 11149 11152 11155 11157 11160 11163 11166 11169 11172 11175 11178 11180 11183 11186 11189 11192 11195 11198 11201 11204 11207 11210 11213 11216 11219 11222 11225 11227 11230 11233 11236 11239 11242 11244 11246 11249 11252 11254 11256 11258 11261 11264 11267 11270 11273 11276 11278 11281 11283 11286 11289 11292 11295 11298 11301 11303 11306 11308 11311 11314 11317 11319 11322 11325 11328 11331 11334 11337 11340 11343 11346 11349 11351 11354 11357 11360 11363 11366 11369 11372 11375 11378 11381 11384 11387 11390 11393 11396 11399 11402 11405 11408 11411 11414 11417 11420 11423 11425 11428 11431 11434 11437 11440 11443 11446 11448 11450 11453 11456 11458 11460 11463 11466 11469 11472 11475 11478 11481 11484 11487 11490 11493 11496 11499 11502 11505 11508 11511 11514 11517 11520 11523 11526 11529 11532 11535 11538 11540 11543 11546 11549 11551 11554 11557 11559 11562 11565 11568 11571 11574 11577 11580 11583 11586 11589 11592 11595 11598 11601 11604 11607 11610 11613 11616 11619 11622 11625 11628 11631 11634 11637 11640 11643 11646 11649 11652 11655 11658 11661 11664 11667 11670 11673 11676 11679 11682 11685 11688 11691 11694 11697 11700 11703 11706 11709 11712 11714 11717 11720 11723 11726 11729 11732 11735 11738 11741 11744 11747 11749 11751 11754 11757 11760 11762 11765 11768 11771 11774 11777 11780 11783 11786 11789 11791 11794 11797 11800 11803 11805 11808 11811 11814 11817 11820 11823 11826 11829 11831 11833 11836 11839 11842 11845 11847 11850 11853 11856 11859 11862 11865 11867 11870 11873 11876 11879 11882 11884 11887 11890 11893 11895 11898 11901 11903 11906 11909 11911 11914 11917 11920 11923 11926 11929 11931 11934 11937 11940 11943 11946 11949 11952 11955 11958 11961 11964 11967 11970 11973 11976 11979 11982 11985 11988 11991 11994 11997 12000 12003 12006 12009 12012 12015 12018 12021 12024 12027 12030 12033 12036 12039 12042 12045 12048 12051 12054 12057 12060 12063 12066 12069 12072 12075 12078 12081 12084 12086 12089 12092 12095 12098 12101 12103 12106 12109 12112 12115 12117 12120 12123 12126 12129 12132 12135 12138 12141 12144 12147 12149 12151 12154 12157 12160 12163 12165 12168 12170 12173 12176 12179 12182 12185 12188 12191 12194 12197 12200 12203 12206 12209 12212 12215 12218 12221 12224 12227 12230 12233 12236 12239 12241 12244 12247 12250 12253 12256 12259 12262 12264 12267 12270 12273 12275 12278 12280 12283 12286 12289 12292 12295 12298 12301 12304 12307 12310 12313 12316 12319 12322 12325 12328 12331 12334 12337 12340 12343 12346 12349 12352 12355 12358 12361 12363 12366 12369 12372 12375 12378 12381 12384 12387 12390 12393 12396 12399 12402 12405 12408 12410 12413 12415 12418 12421 12424 12427 12429 12432 12435 12438 12441 12443 12446 12449 12452 12455 12458 12461 12464 12467 12470 12472 12475 12478 12481 12484 12487 12490 12493 12496 12498 12501 12504 12506 12509 12512 12514 12517 12520 12523 12526 12529 12532 12535 12538 12541 12543 12546 12549 12552 12555 12558 12561 12564 12567 12570 12573 12575 12578 12581 12584 12587 12589 12592 12595 12598 12601 12604 12607 12610 12613 12616 12619 12622 12625 12628 12631 12634 12637 12640 12643 12646 12649 12651 12654 12656 12659 12662 12665 12668 12671 12674 12677 12680 12683 12686 12689 12691 12694 12697 12699 12701 12704 12707 12710 12712 12715 12718 12720 12723 12726 12729 12732 12735 12738 12740 12743 12746 12748 12751 12753 12756 12759 12762 12765 12768 12771 12774 12776 12779 12781 12784 12786 12788 12791 12794 12797 12800 12803 12805 12807 12809 12812 12815 12818 12821 12823 12825 12828 12831 12834 12837 12839 12842 12845 12847 12850 12853 12855 12858 12861 12864 12867 12870 12873 12876 12879 12882 12885 12888 12891 12894 12897 12900 12903 12905 12907 12910 12913 12915 12918 12921 12924 12927 12929 12932 12935 12938 12941 12943 12946 12948 12951 12954 12957 12960 12963 12966 12969 12971 12973 12976 12979 12982 12985 12987 12990 12992 12994 12997 13000 13003 13006 13009 13012 13015 13018 13021 13024 13027 13030 13033 13036 13039 13042 13045 13048 13051 13054 13057 13060 13062 13065 13067 13070 13073 13075 13078 13081 13083 13085 13088 13091 13094 13097 13100 13103 13106 13109 13112 13114 13117 13120 13122 13124 13126 13129 13131 13134 13137 13140 13142 13144 13147 13150 13153 13155 13157 13160 13163 13166 13168 13170 13173 13175 13178 13180 13183 13186 13189 13191 13194 13196 13199 13202 13205 13207 13210 13213 13216 13219 13222 13225 13228 13231 13234 13237 13240 13242 13244 13247 13250 13252 13255 13258 13261 13263 13266 13268 13271 13274 13277 13279 13282 13285 13288 13291 13294 13297 13300 13303 13306 13309 13311 13314 13317 13320 13323 13326 13329 13331 13334 13337 13339 13342 13345 13348 13351 13354 13357 13360 13363 13366 13369 13372 13374 13377 13380 13383 13386 13389 13392 13395 13398 13401 13404 13407 13409 13411 13414 13416 13419 13422 13425 13428 13430 13432 13435 13438 13441 13444 13447 13450 13452 13455 13458 13461 13464 13467 13470 13472 13475 13478 13481 13483 13486 13488 13491 13494 13497 13500 13502 13505 13508 13510 13512 13515 13518 13520 13523 13526 13528 13531 13534 13537 13539 13542 13545 13548 13551 13554 13557 13560 13562 13564 13567 13570 13573 13576 13579 13582 13585 13588 13590 13592 13595 13598 13600 13603 13606 13609 13612 13615 13618 13620 13623 13626 13629 13632 13635 13638 13641 13644 13646 13649 13651 13654 13657 13660 13663 13665 13668 13671 13674 13677 13680 13683 13686 13689 13692 13695 13698 13700 13703 13705 13707 13710 13713 13715 13718 13721 13724 13727 13730 13732 13735 13737 13740 13743 13746 13749 13751 13754 13757 13760 13763 13766 13769 13772 13775 13778 13781 13783 13786 13789 13792 13795 13798 13801 13804 13807 13810 13813 13816 13819 13821 13824 13827 13830 13833 13835 13838 13841 13843 13846 13849 13852 13855 13858 13861 13864 13867 13870 13873 13876 13879 13882 13885 13887 13890 13893 13896 13899 13902 13905 13908 13911 13914 13917 13920 13923 13925 13928 13931 13934 13937 13940 13943 13945 13948 13951 13954 13957 13959 13961 13964 13967 13969 13972 13975 13977 13980 13983 13986 13989 13991 13994 13997 14000 14003 14006 14008 14011 14014 14017 14019 14022 14025 14028 14031 14034 14036 14039 14041 14044 14046 14048 14050 14053 14056 14059 14062 14065 14068 14071 14074 14076 14079 14082 14084 14087 14090 14093 14096 14099 14102 14105 14108 14111 14113 14116 14119 14122 14125 14128 14131 14134 14137 14140 14143 14146 14149 14152 14155 14158 14161 14164 14167 14170 14173 14176 14179 14182 14185 14188 14191 14194 14197 14200 14203 14205 14208 14210 14213 14216 14219 14221 14224 14227 14229 14232 14234 14236 14239 14241 14244 14246 14249 14252 14255 14258 14261 14264 14267 14270 14272 14275 14277 14280 14283 14285 14288 14290 14293 14295 14298 14301 14304 14307 14310 14313 14316 14319 14321 14323 14326 14329 14332 14334 14337 14339 14342 14344 14346 14349 14352 14355 14358 14361 14364 14367 14370 14373 14375 14378 14381 14383 14386 14389 14392 14395 14398 14401 14404 14407 14409 14412 14415 14417 14420 14423 14426 14429 14432 14435 14438 14441 14443 14446 14448 14451 14454 14457 14460 14463 14466 14469 14471 14474 14477 14480 14483 14486 14489 14492 14495 14498 14501 14503 14506 14509 14511 14513 14516 14518 14520 14522 14525 14528 14530 14533 14536 14538 14541 14544 14547 14550 14552 14555 14558 14561 14564 14567 14570 14573 14576 14579 14582 14585 14588 14591 14594 14597 14600 14603 14606 14609 14612 14615 14618 14621 14623 14626 14629 14632 14634 14637 14640 14643 14646 14648 14651 14654 14657 14660 14663 14666 14669 14672 14675 14678 14681 14683 14686 14689 14692 14695 14698 14701 14704 14707 14710 14713 14716 14719 14722 14725 14728 14731 14733 14736 14739 14742 14744 14747 14750 14753 14756 14759 14761 14764 14767 14770 14773 14775 14778 14781 14784 14787 14790 14793 14795 14798 14801 14804 14807 14810 14812 14815 14818 14820 14823 14826 14829 14831 14834 14837 14840 14842 14845 14848 14851 14853 14856 14859 14862 14865 14868 14871 14874 14876 14879 14882 14885 14888 14891 14893 14896 14899 14902 14904 14907 14910 14913 14916 14919 14921 14923 14926 14929 14932 14935 14938 14941 14944 14947 14949 14951 14954 14957 14960 14962 14965 14967 14970 14973 14976 14979 14982 14985 14988 14990 14993 14995 14998 15001 15004 15007 15009 15012 15014 15017 15019 15022 15025 15028 15031 15034 15037 15039 15042 15045 15048 15050 15053 15056 15059 15062 15065 15067 15070 15073 15076 15079 15082 15085 15088 15091 15094 15097 15100 15103 15106 15109 15112 15115 15118 15121 15124 15127 15130 15133 15135 15138 15140 15143 15146 15148 15151 15154 15157 15160 15163 15166 15168 15171 15174 15176 15179 15182 15185 15188 15191 15194 15197 15200 15203 15206 15209 15212 15215 15218 15221 15224 15227 15230 15233 15236 15239 15242 15245 15248 15250 15253 15256 15259 15262 15264 15267 15270 15273 15276 15279 15282 15285 15288 15291 15294 15297 15300 15303 15305 15308 15310 15313 15316 15319 15322 15325 15327 15330 15333 15336 15339 15342 15345 15348 15351 15354 15357 15360 15363 15366 15369 15372 15375 15378 15381 15384 15387 15389 15391 15394 15397 15400 15403 15406 15409 15412 15415 15418 15421 15424 15427 15430 15432 15435 15438 15441 15444 15447 15450 15453 15456 15459 15462 15465 15468 15471 15474 15477 15480 15483 15486 15488 15491 15494 15497 15500 15503 15506 15509 15512 15515 15518 15521 15524 15527 15530 15533 15536 15539 15542 15545 15548 15551 15553 15556 15559 15562 15565 15568 15570 15573 15576 15579 15582 15585 15588 15591 15594 15597 15600 15602 15605 15607 15610 15613 15616 15619 15622 15625 15628 15631 15634 15637 15640 15642 15645 15648 15650 15653 15656 15659 15662 15665 15668 15670 15672 15675 15678 15681 15683 15686 15689 15692 15695 15698 15701 15704 15707 15710 15713 15716 15719 15722 15725 15728 15731 15734 15737 15740 15743 15746 15749 15752 15755 15758 15761 15764 15767 15770 15773 15776 15779 15782 15785 15788 15791 15794 15797 15800 15802 15805 15808 15811 15814 15817 15820 15823 15826 15829 15832 15835 15838 15841 15844 15847 15850 15853 15856 15859 15862 15865 15868 15871 15874 15877 15880 15883 15885 15888 15891 15893 15896 15899 15902 15905 15907 15910 15913 15916 15918 15921 15924 15927 15930 15933 15936 15939 15942 15945 15948 15951 15954 15957 15960 15963 15965 15968 15971 15973 15976 15979 15982 15985 15988 15991 15994 15997 15999 16002 16005 16008 16011 16014 16017 16020 16022 16025 16028 16031 16034 16037 16040 16043 16046 16049 16052 16055 16058 16061 16064 16067 16070 16073 16076 16079 16082 16085 16088 16091 16094 16097 16100 16102 16105 16108 16111 16114 16117 16120 16123 16126 16129 16132 16135 16138 16141 16144 16146 16149 16152 16155 16158 16160 16163 16166 16169 16172 16175 16178 16181 16184 16187 16190 16193 16196 16199 16202 16205 16208 16211 16214 16217 16220 16223 16226 16229 16232 16235 16238 16241 16244 16246 16249 16252 16255 16257 16260 16263 16266 16269 16272 16275 16278 16280 16283 16286 16289 16292 16294 16297 16300 16302 16305 16308 16311 16314 16317 16319 16322 16324 16326 16329 16332 16335 16338 16341 16344 16347 16350 16353 16356 16359 16362 16365 16368 16371 16374 16377 16380 16383 16386 16389 16392 16395 16398 16401 16404 16407 16410 16413 16415 16418 16421 16424 16427 16430 16433 16435 16438 16441 16444 16446 16449 16452 16455 16457 16460 16463 16466 16468 16471 16474 16477 16480 16483 16486 16488 16491 16494 16497 16500 16503 16506 16508 16511 16514 16517 16520 16523 16526 16529 16532 16535 16538 16540 16543 16546 16549 16552 16555 16558 16561 16564 16567 16570 16573 16575 16578 16581 16584 16587 16589 16592 16595 16598 16600 16603 16606 16609 16612 16615 16618 16621 16624 16627 16630 16633 16636 16639 16642 16645 16648 16651 16654 16657 16660 16663 16666 16669 16672 16675 16678 16681 16684 16687 16690 16693 16696 16699 16702 16705 16708 16711 16714 16717 16720 16722 16724 16727 16730 16733 16736 16739 16742 16745 16748 16751 16753 16756 16758 16760 16763 16766 16769 16771 16773 16776 16779 16782 16785 16788 16791 16794 16797 16800 16803 16806 16808 16811 16814 16816 16818 16821 16824 16827 16830 16833 16836 16839 16842 16845 16848 16851 16854 16857 16860 16863 16866 16869 16872 16875 16878 16881 16884 16886 16889 16891 16894 16897 16900 16902 16904 16907 16910 16913 16916 16919 16921 16923 16925 16927 16930 16933 16936 16939 16942 16945 16948 16950 16953 16956 16959 16962 16965 16968 16971 16973 16976 16979 16981 16984 16987 16989 16992 16995 16998 17001 17004 17007 17010 17013 17016 17019 17022 17025 17028 17031 17034 17037 17040 17043 17045 17048 17051 17054 17057 17059 17062 17065 17068 17071 17074 17077 17080 17083 17086 17089 17092 17095 17098 17101 17104 17107 17110 17113 17116 17119 17121 17124 17127 17130 17132 17135 17138 17141 17144 17147 17150 17153 17156 17159 17162 17165 17168 17171 17173 17175 17178 17180 17183 17186 17189 17192 17194 17197 17200 17203 17206 17208 17211 17214 17217 17220 17223 17226 17229 17231 17234 17237 17240 17242 17245 17248 17251 17254 17257 17260 17263 17266 17269 17271 17273 17276 17279 17282 17284 17287 17290 17293 17296 17298 17301 17304 17306 17308 17311 17313 17316 17318 17321 17323 17326 17329 17332 17334 17337 17340 17343 17346 17349 17352 17355 17358 17361 17363 17366 17369 17372 17375 17377 17380 17382 17385 17388 17390 17393 17396 17399 17402 17405 17408 17411 17414 17417 17420 17423 17426 17429 17432 17435 17438 17440 17443 17446 17449 17452 17455 17458 17460 17463 17466 17468 17471 17474 17477 17480 17483 17486 17489 17492 17495 17498 17501 17504 17506 17509 17512 17515 17517 17520 17522 17525 17527 17530 17533 17536 17539 17541 17544 17547 17550 17553 17556 17559 17562 17564 17566 17569 17572 17575 17578 17581 17584 17587 17590 17593 17596 17599 17602 17605 17608 17611 17614 17617 17620 17623 17626 17629 17632 17635 17638 17641 17643 17646 17649 17652 17655 17658 17661 17663 17666 17669 17672 17675 17678 17681 17683 17686 17689 17692 17695 17698 17701 17704 17707 17710 17713 17716 17719 17722 17725 17727 17729 17731 17734 17737 17740 17743 17746 17749 17752 17755 17757 17760 17763 17766 17769 17771 17774 17777 17780 17783 17785 17788 17791 17794 17797 17800 17803 17805 17808 17811 17814 17816 17819 17822 17825 17828 17831 17834 17837 17840 17843 17846 17849 17852 17855 17858 17861 17864 17867 17870 17873 17876 17879 17882 17885 17888 17891 17894 17896 17899 17902 17905 17908 17910 17913 17916 17919 17922 17925 17928 17931 17933 17936 17939 17942 17945 17947 17950 17953 17956 17959 17962 17965 17968 17971 17974 17977 17979 17982 17985 17987 17990 17993 17996 17999 18002 18005 18008 18011 18014 18017 18020 18023 18026 18029 18032 18035 18038 18040 18043 18046 18049 18052 18055 18058 18061 18064 18067 18070 18073 18076 18079 18082 18085 18087 18090 18093 18095 18098 18101 18104 18107 18110 18113 18116 18119 18122 18125 18128 18131 18134 18137 18140 18143 18146 18149 18152 18155 18158 18160 18163 18166 18168 18171 18174 18177 18180 18183 18186 18189 18192 18195 18197 18200 18203 18206 18208 18211 18214 18217 18220 18223 18226 18229 18232 18235 18238 18241 18244 18247 18250 18253 18256 18259 18262 18265 18267 18270 18273 18276 18279 18281 18284 18287 18290 18293 18296 18299 18302 18305 18308 18311 18314 18317 18319 18322 18325 18328 18331 18334 18337 18340 18343 18346 18349 18352 18355 18358 18361 18364 18367 18370 18373 18376 18379 18382 18385 18388 18391 18394 18397 18400 18403 18406 18409 18412 18415 18418 18421 18424 18427 18430 18433 18436 18438 18440 18443 18446 18449 18452 18455 18458 18461 18464 18467 18469 18472 18475 18478 18481 18484 18487 18490 18493 18496 18499 18502 18504 18507 18510 18513 18516 18519 18521 18523 18526 18529 18532 18535 18537 18540 18543 18546 18548 18551 18554 18557 18560 18563 18566 18569 18572 18575 18577 18580 18583 18586 18589 18592 18595 18598 18601 18603 18605 18607 18610 18613 18615 18618 18621 18624 18627 18630 18633 18636 18639 18642 18645 18648 18651 18653 18656 18659 18662 18665 18668 18671 18674 18677 18680 18683 18686 18689 18691 18694 18697 18700 18703 18706 18709 18712 18714 18717 18720 18723 18726 18729 18732 18735 18738 18741 18744 18747 18750 18752 18755 18757 18760 18763 18766 18769 18772 18774 18777 18780 18783 18786 18789 18792 18795 18797 18800 18803 18806 18809 18812 18815 18818 18821 18824 18826 18829 18832 18834 18837 18840 18843 18846 18849 18852 18855 18858 18861 18864 18867 18870 18873 18876 18879 18882 18885 18887 18890 18893 18895 18898 18901 18904 18907 18910 18913 18916 18919 18922 18925 18928 18931 18934 18937 18940 18943 18946 18949 18952 18955 18958 18961 18964 18967 18970 18973 18976 18978 18981 18983 18986 18989 18992 18995 18998 19001 19004 19007 19010 19013 19015 19018 19021 19024 19027 19030 19033 19036 19039 19042 19045 19048 19051 19054 19057 19060 19063 19066 19069 19072 19075 19078 19081 19084 19087 19090 19093 19096 19099 19102 19105 19108 19111 19114 19117 19120 19123 19126 19129 19132 19135 19138 19141 19144 19147 19150 19152 19155 19158 19160 19163 19166 19168 19171 19174 19177 19180 19183 19185 19188 19191 19194 19197 19200 19203 19205 19208 19211 19213 19216 19219 19221 19223 19225 19228 19230 19232 19235 19238 19241 19244 19247 19249 19252 19255 19258 19260 19263 19266 19269 19272 19275 19277 19280 19282 19285 19288 19291 19294 19297 19299 19302 19305 19308 19311 19313 19316 19318 19321 19324 19327 19330 19333 19335 19338 19340 19343 19345 19348 19351 19354 19356 19359 19362 19365 19368 19370 19373 19376 19379 19382 19385 19388 19391 19394 19397 19400 19403 19406 19409 19412 19415 19418 19421 19424 19427 19430 19433 19436 19439 19441 19444 19447 19449 19452 19455 19458 19461 19463 19466 19469 19472 19475 19478 19481 19483 19486 19488 19491 19494 19497 19500 19503 19506 19509 19512 19515 19517 19519 19521 19524 19527 19529 19532 19535 19538 19541 19544 19547 19550 19553 19556 19559 19561 19563 19565 19568 19571 19574 19577 19580 19583 19586 19588 19591 19593 19596 19598 19601 19604 19607 19610 19612 19615 19618 19621 19623 19626 19629 19632 19635 19637 19640 19643 19645 19648 19651 19654 19657 19660 19663 19666 19669 19671 19674 19677 19680 19683 19685 19688 19691 19693 19696 19699 19702 19705 19708 19710 19713 19716 19719 19722 19725 19728 19731 19734 19737 19740 19743 19746 19749 19752 19755 19758 19761 19764 19767 19770 19773 19776 19779 19781 19784 19786 19789 19792 19795 19798 19800 19803 19806 19809 19811 19814 19816 19819 19822 19825 19828 19831 19834 19837 19840 19843 19845 19848 19850 19852 19855 19858 19861 19863 19866 19869 19872 19875 19878 19881 19884 19887 19890 19893 19896 19899 19902 19905 19908 19911 19914 19916 19919 19921 19924 19927 19930 19933 19936 19939 19942 19945 19948 19951 19954 19957 19960 19963 19966 19969 19972 19975 19978 19981 19984 19987 19990 19993 19996 19999 20002 20005 20008 20011 20014 20017 20020 20023 20026 20029 20032 20035 20038 20041 20044 20047 20050 20053 20055 20058 20061 20064 20067 20070 20073 20076 20079 20082 20085 20087 20090 20093 20096 20098 20101 20104 20107 20110 20113 20116 20119 20122 20124 20127 20130 20133 20135 20138 20141 20143 20146 20149 20152 20155 20158 20161 20164 20167 20169 20172 20175 20178 20181 20183 20186 20189 20192 20195 20198 20201 20204 20207 20209 20212 20215 20218 20221 20224 20227 20230 20233 20236 20239 20242 20245 20247 20249 20251 20254 20257 20260 20262 20265 20268 20270 20272 20275 20277 20280 20282 20285 20288 20291 20294 20296 20299 20302 20305 20308 20311 20314 20316 20319 20321 20324 20327 20330 20332 20335 20338 20341 20344 20346 20348 20351 20354 20357 20360 20363 20365 20368 20371 20374 20376 20379 20381 20383 20386 20389 20392 20395 20398 20400 20403 20406 20408 20411 20414 20416 20419 20422 20425 20428 20431 20434 20437 20440 20443 20446 20449 20452 20455 20458 20461 20464 20467 20470 20473 20476 20479 20481 20484 20486 20489 20492 20495 20498 20501 20504 20506 20509 20512 20515 20518 20521 20524 20527 20529 20532 20535 20538 20541 20544 20547 20550 20553 20556 20559 20562 20565 20568 20571 20574 20577 20580 20582 20585 20588 20590 20593 20596 20599 20602 20605 20608 20611 20614 20617 20620 20623 20626 20629 20632 20634 20637 20640 20642 20645 20648 20651 20654 20657 20659 20662 20664 20667 20670 20673 20675 20678 20681 20684 20687 20690 20693 20695 20698 20701 20704 20707 20709 20712 20715 20718 20721 20724 20726 20729 20732 20735 20738 20741 20744 20747 20750 20753 20756 20759 20762 20764 20767 20769 20772 20775 20778 20781 20784 20786 20789 20792 20795 20798 20801 20804 20807 20810 20813 20816 20818 20821 20824 20827 20830 20833 20836 20839 20842 20845 20848 20851 20854 20856 20859 20862 20865 20868 20870 20873 20876 20879 20882 20885 20888 20891 20894 20897 20899 20902 20904 20907 20910 20913 20916 20919 20922 20925 20927 20930 20932 20935 20937 20940 20943 20946 20949 20952 20955 20957 20960 20963 20966 20969 20972 20975 20978 20981 20984 20986 20989 20992 20995 20997 21000 21002 21005 21008 21011 21014 21016 21019 21022 21024 21027 21030 21033 21036 21039 21041 21044 21047 21050 21053 21056 21059 21062 21065 21068 21071 21074 21077 21080 21083 21085 21088 21091 21094 21097 21100 21103 21106 21109 21112 21115 21118 21120 21123 21126 21129 21132 21134 21137 21139 21142 21145 21148 21150 21153 21156 21158 21161 21163 21166 21169 21172 21175 21178 21181 21184 21186 21189 21192 21195 21198 21201 21204 21207 21210 21213 21216 21219 21222 21225 21228 21231 21234 21237 21240 21243 21246 21248 21251 21254 21256 21259 21261 21264 21267 21269 21272 21275 21278 21280 21282 21285 21288 21291 21294 21296 21298 21301 21304 21307 21309 21311 21314 21316 21319 21322 21324 21327 21330 21333 21336 21338 21341 21344 21347 21350 21353 21356 21359 21361 21364 21367 21370 21372 21374 21376 21379 21382 21385 21387 21389 21391 21394 21397 21400 21403 21405 21408 21411 21414 21417 21420 21422 21425 21428 21431 21434 21437 21440 21443 21446 21449 21451 21454 21457 21460 21463 21465 21467 21470 21473 21476 21479 21482 21485 21488 21491 21493 21496 21499 21502 21505 21508 21510 21513 21516 21518 21520 21523 21526 21529 21532 21534 21536 21539 21542 21544 21547 21550 21553 21556 21559 21562 21565 21568 21570 21573 21576 21579 21582 21585 21588 21591 21594 21596 21599 21602 21605 21607 21610 21613 21616 21619 21622 21625 21627 21630 21632 21635 21637 21640 21643 21645 21648 21651 21654 21657 21660 21662 21664 21667 21670 21673 21676 21678 21681 21684 21687 21690 21693 21695 21697 21700 21703 21705 21708 21710 21713 21716 21718 21721 21723 21726 21729 21732 21735 21738 21741 21743 21746 21748 21751 21754 21757 21759 21762 21765 21768 21770 21773 21776 21779 21782 21785 21788 21791 21794 21797 21800 21803 21806 21808 21811 21814 21817 21820 21823 21826 21829 21832 21835 21838 21841 21843 21846 21849 21852 21855 21858 21861 21864 21867 21870 21873 21876 21879 21882 21885 21888 21891 21893 21896 21899 21902 21905 21907 21910 21913 21915 21918 21921 21924 21927 21930 21933 21936 21938 21941 21944 21946 21949 21952 21955 21957 21960 21963 21966 21969 21972 21974 21977 21979 21982 21984 21987 21990 21993 21996 21998 22000 22002 22005 22007 22010 22013 22016 22019 22022 22025 22028 22031 22034 22037 22039 22042 22045 22047 22049 22052 22055 22057 22059 22062 22065 22068 22071 22073 22076 22079 22082 22084 22086 22089 22092 22094 22097 22099 22102 22104 22107 22110 22113 22115 22118 22121 22124 22127 22130 22132 22135 22138 22141 22144 22147 22150 22152 22154 22157 22160 22163 22166 22169 22172 22175 22178 22181 22184 22187 22190 22193 22195 22198 22201 22204 22207 22210 22212 22215 22218 22221 22224 22227 22230 22233 22236 22238 22241 22244 22246 22249 22251 22254 22257 22260 22263 22266 22269 22272 22275 22277 22280 22282 22285 22288 22291 22293 22295 22298 22301 22303 22305 22308 22310 22313 22315 22317 22320 22322 22325 22328 22330 22333 22336 22338 22341 22344 22347 22350 22352 22355 22358 22360 22363 22366 22369 22372 22375 22378 22381 22384 22387 22389 22392 22395 22398 22401 22404 22407 22410 22413 22415 22418 22421 22423 22426 22429 22432 22435 22437 22440 22443 22446 22449 22452 22455 22458 22461 22463 22465 22468 22471 22474 22476 22479 22481 22484 22486 22489 22492 22495 22498 22501 22504 22507 22510 22513 22515 22518 22521 22524 22526 22529 22532 22535 22537 22540 22543 22545 22548 22551 22554 22557 22560 22562 22564 22567 22569 22572 22575 22578 22581 22584 22587 22590 22593 22596 22599 22602 22605 22607 22610 22613 22615 22618 22620 22623 22626 22629 22632 22634 22637 22639 22642 22644 22647 22650 22653 22656 22659 22661 22664 22667 22669 22672 22675 22678 22680 22683 22685 22688 22691 22693 22696 22699 22701 22704 22707 22710 22713 22715 22718 22720 22723 22725 22728 22731 22733 22735 22737 22740 22743 22746 22749 22752 22755 22758 22761 22764 22767 22770 22773 22776 22779 22782 22785 22788 22790 22793 22796 22799 22802 22805 22808 22811 22814 22817 22820 22822 22825 22828 22831 22834 22837 22840 22843 22846 22849 22852 22855 22858 22861 22864 22867 22870 22873 22876 22879 22882 22885 22888 22891 22894 22897 22900 22903 22906 22909 22912 22915 22918 22921 22924 22927 22930 22933 22936 22939 22942 22945 22948 22951 22954 22956 22959 22962 22965 22968 22971 22974 22977 22979 22982 22985 22988 22991 22994 22997 23000 23002 23005 23008 23010 23013 23016 23019 23022 23025 23028 23031 23033 23036 23039 23041 23044 23046 23049 23052 23055 23057 23060 23063 23066 23069 23072 23075 23078 23081 23084 23087 23090 23093 23096 23098 23101 23104 23107 23109 23111 23114 23116 23119 23122 23125 23128 23131 23134 23137 23140 23143 23146 23149 23152 23155 23158 23161 23164 23167 23170 23173 23175 23178 23181 23183 23186 23189 23192 23195 23197 23200 23203 23206 23209 23212 23215 23218 23220 23223 23226 23229 23232 23234 23237 23240 23242 23245 23248 23250 23253 23256 23259 23261 23264 23267 23270 23272 23275 23278 23281 23284 23287 23290 23293 23296 23299 23302 23305 23308 23310 23313 23316 23318 23321 23324 23326 23329 23332 23335 23337 23340 23343 23345 23348 23351 23354 23357 23359 23362 23365 23368 23371 23373 23376 23378 23380 23383 23385 23387 23390 23393 23396 23399 23401 23404 23407 23410 23412 23415 23418 23420 23423 23426 23429 23432 23434 23437 23440 23443 23446 23449 23451 23454 23457 23459 23462 23464 23466 23469 23472 23475 23477 23480 23482 23485 23488 23491 23494 23497 23499 23501 23504 23506 23509 23512 23515 23518 23521 23524 23527 23530 23533 23536 23539 23542 23545 23548 23551 23553 23556 23559 23561 23563 23566 23568 23571 23574 23577 23580 23583 23586 23589 23592 23595 23597 23600 23603 23606 23609 23612 23615 23618 23621 23624 23627 23630 23633 23635 23638 23640 23643 23646 23649 23652 23655 23657 23660 23662 23665 23667 23670 23673 23676 23678 23681 23684 23687 23690 23692 23695 23698 23700 23703 23705 23708 23711 23713 23716 23719 23721 23724 23727 23729 23732 23735 23738 23741 23744 23747 23750 23753 23756 23759 23762 23764 23767 23770 23773 23775 23778 23780 23783 23786 23789 23792 23795 23797 23800 23803 23806 23808 23811 23814 23817 23820 23823 23826 23829 23832 23834 23837 23840 23843 23846 23849 23851 23854 23857 23860 23863 23866 23869 23872 23875 23878 23881 23884 23887 23890 23893 23896 23899 23902 23905 23908 23911 23913 23916 23919 23922 23924 23927 23930 23933 23936 23939 23941 23944 23947 23949 23952 23955 23958 23960 23963 23966 23969 23972 23975 23978 23981 23983 23985 23988 23991 23994 23997 24000 24002 24005 24008 24010 24013 24016 24019 24022 24024 24027 24030 24033 24036 24038 24041 24044 24047 24050 24053 24056 24059 24062 24065 24068 24071 24074 24077 24080 24083 24086 24089 24092 24095 24098 24101 24104 24107 24110 24113 24116 24119 24122 24124 24127 24130 24133 24136 24138 24141 24144 24147 24150 24153 24156 24158 24161 24164 24167 24170 24172 24175 24178 24180 24183 24186 24189 24192 24195 24197 24200 24203 24206 24208 24211 24214 24217 24219 24222 24224 24227 24230 24233 24236 24239 24242 24245 24247 24250 24252 24255 24258 24261 24263 24266 24269 24271 24274 24276 24279 24282 24285 24288 24291 24293 24296 24299 24302 24305 24308 24311 24314 24316 24319 24322 24325 24327 24330 24332 24335 24337 24340 24342 24345 24347 24350 24353 24356 24359 24362 24365 24368 24371 24374 24377 24380 24382 24385 24388 24391 24394 24396 24399 24402 24405 24408 24410 24413 24416 24419 24422 24425 24428 24431 24434 24437 24440 24443 24446 24449 24452 24455 24457 24460 24462 24465 24468 24471 24473 24476 24479 24482 24485 24488 24490 24493 24496 24499 24501 24504 24507 24510 24513 24515 24517 24520 24523 24526 24528 24531 24534 24537 24540 24543 24546 24549 24552 24554 24557 24560 24563 24566 24569 24572 24574 24577 24580 24583 24586 24589 24592 24595 24598 24600 24602 24605 24608 24611 24614 24617 24620 24622 24625 24628 24630 24633 24635 24638 24641 24644 24647 24650 24652 24655 24657 24660 24663 24666 24669 24672 24675 24678 24681 24684 24686 24689 24692 24695 24698 24701 24704 24707 24710 24712 24715 24718 24721 24724 24727 24730 24733 24736 24739 24742 24745 24748 24751 24754 24756 24759 24761 24764 24767 24770 24772 24775 24778 24781 24783 24786 24789 24792 24795 24798 24801 24804 24807 24810 24813 24815 24818 24821 24824 24826 24829 24832 24835 24838 24841 24844 24847 24850 24853 24856 24859 24862 24865 24867 24870 24873 24876 24879 24882 24885 24888 24891 24894 24897 24900 24903 24906 24908 24911 24914 24917 24920 24923 24925 24928 24931 24934 24937 24939 24942 24945 24948 24951 24954 24957 24960 24963 24966 24968 24971 24974 24977 24980 24983 24986 24989 24992 24994 24997 25000 25003 25006 25009 25012 25015 25018 25021 25024 25027 25030 25033 25036 25039 25042 25045 25048 25051 25054 25056 25059 25062 25064 25067 25070 25073 25076 25079 25082 25085 25088 25091 25094 25097 25100 25103 25106 25109 25112 25115 25118 25121 25124 25127 25130 25133 25136 25139 25142 25145 25148 25151 25153 25156 25159 25161 25164 25167 25170 25172 25175 25178 25180 25183 25186 25189 25191 25194 25196 25199 25202 25204 25207 25209 25212 25214 25217 25220 25223 25226 25228 25231 25234 25237 25240 25243 25246 25249 25251 25254 25257 25259 25262 25265 25267 25269 25271 25273 25276 25279 25282 25285 25288 25291 25294 25297 25300 25303 25306 25309 25312 25315 25318 25321 25324 25327 25330 25333 25336 25339 25342 25345 25348 25351 25354 25357 25359 25361 25364 25367 25370 25373 25375 25378 25380 25383 25386 25389 25391 25394 25397 25400 25403 25406 25409 25412 25415 25417 25420 25423 25426 25429 25431 25434 25437 25440 25443 25445 25448 25451 25453 25456 25458 25461 25464 25467 25469 25472 25475 25478 25481 25484 25487 25490 25493 25496 25499 25502 25505 25508 25511 25514 25517 25519 25522 25525 25528 25531 25534 25537 25540 25542 25545 25548 25551 25554 25557 25560 25563 25566 25569 25571 25574 25577 25580 25583 25586 25589 25592 25595 25598 25600 25603 25606 25609 25611 25614 25617 25620 25623 25626 25629 25632 25635 25638 25641 25644 25647 25650 25653 25656 25659 25662 25665 25668 25670 25673 25676 25679 25681 25684 25687 25690 25693 25696 25699 25702 25705 25708 25711 25714 25717 25720 25723 25726 25729 25732 25735 25738 25741 25744 25747 25750 25753 25756 25759 25762 25765 25767 25770 25772 25775 25778 25781 25783 25786 25789 25791 25794 25797 25800 25803 25806 25809 25812 25815 25818 25821 25823 25826 25829 25832 25835 25838 25840 25843 25846 25849 25852 25855 25858 25861 25864 25867 25869 25872 25875 25878 25881 25884 25887 25890 25893 25896 25899 25902 25905 25908 25911 25914 25917 25920 25923 25926 25929 25932 25935 25938 25941 25944 25947 25950 25953 25956 25959 25962 25965 25968 25971 25974 25977 25980 25983 25986 25989 25992 25995 25998 26001 26004 26007 26010 26013 26016 26019 26022 26025 26028 26031 26034 26037 26040 26043 26046 26049 26052 26055 26058 26061 26064 26067 26070 26073 26076 26079 26082 26085 26088 26090 26093 26095 26098 26101 26104 26107 26110 26113 26115 26118 26121 26124 26127 26130 26133 26136 26139 26142 26145 26147 26150 26153 26156 26159 26162 26165 26167 26170 26173 26175 26178 26181 26184 26187 26190 26193 26196 26198 26201 26204 26207 26210 26213 26216 26218 26221 26224 26227 26229 26232 26235 26238 26241 26244 26247 26249 26252 26255 26258 26260 26263 26266 26269 26272 26275 26278 26281 26284 26287 26290 26293 26296 26299 26302 26305 26308 26311 26314 26317 26320 26323 26326 26329 26332 26335 26338 26341 26344 26347 26350 26352 26355 26358 26360 26362 26365 26368 26371 26374 26377 26380 26383 26386 26389 26392 26395 26398 26400 26403 26406 26409 26412 26415 26418 26421 26424 26427 26430 26433 26435 26438 26441 26444 26447 26450 26452 26455 26458 26461 26464 26467 26469 26472 26475 26478 26481 26484 26487 26490 26493 26496 26498 26501 26504 26507 26510 26513 26516 26519 26522 26525 26527 26530 26533 26536 26539 26541 26544 26547 26550 26553 26556 26559 26562 26565 26568 26570 26573 26576 26578 26581 26584 26586 26589 26592 26595 26598 26601 26604 26606 26609 26612 26614 26617 26619 26622 26625 26627 26630 26633 26636 26639 26642 26645 26648 26651 26654 26657 26660 26663 26666 26669 26672 26675 26678 26681 26684 26687 26690 26693 26696 26699 26702 26705 26708 26711 26714 26717 26720 26723 26726 26729 26732 26735 26738 26741 26744 26747 26750 26753 26756 26759 26762 26765 26768 26771 26774 26777 26780 26782 26785 26788 26791 26794 26797 26800 26803 26806 26809 26812 26815 26818 26821 26824 26826 26828 26831 26834 26837 26840 26843 26846 26848 26850 26853 26856 26859 26862 26865 26868 26871 26874 26877 26880 26883 26886 26889 26892 26895 26898 26900 26902 26905 26907 26910 26913 26915 26918 26921 26924 26926 26929 26932 26935 26938 26941 26944 26947 26950 26953 26956 26959 26962 26965 26968 26971 26974 26977 26980 26983 26986 26989 26992 26995 26998 27001 27003 27006 27009 27012 27014 27017 27019 27022 27024 27027 27030 27033 27035 27038 27041 27044 27047 27050 27053 27055 27058 27060 27063 27066 27068 27071 27074 27077 27080 27083 27086 27088 27091 27094 27097 27100 27103 27106 27109 27112 27115 27118 27121 27124 27127 27130 27133 27136 27139 27142 27145 27148 27151 27154 27156 27159 27162 27165 27167 27170 27173 27176 27179 27182 27184 27187 27190 27192 27195 27198 27201 27203 27206 27209 27212 27215 27218 27221 27224 27227 27230 27233 27236 27239 27242 27245 27248 27251 27253 27256 27259 27261 27264 27266 27269 27272 27275 27277 27280 27283 27285 27288 27291 27294 27297 27300 27303 27305 27308 27311 27314 27317 27319 27322 27325 27327 27330 27333 27336 27338 27341 27344 27346 27349 27352 27354 27357 27360 27363 27366 27369 27371 27374 27377 27380 27383 27386 27389 27391 27394 27397 27400 27403 27405 27408 27411 27414 27417 27420 27423 27426 27429 27431 27434 27437 27440 27443 27446 27449 27452 27455 27458 27461 27464 27467 27469 27472 27475 27478 27481 27484 27487 27489 27492 27495 27498 27501 27504 27507 27510 27513 27516 27519 27522 27525 27527 27530 27533 27535 27538 27541 27544 27547 27550 27553 27556 27559 27562 27565 27567 27570 27572 27575 27578 27581 27584 27587 27590 27593 27596 27598 27600 27603 27606 27609 27611 27614 27617 27620 27622 27624 27626 27628 27631 27634 27637 27640 27643 27645 27648 27651 27653 27656 27659 27661 27664 27667 27670 27673 27676 27679 27682 27684 27687 27690 27693 27696 27699 27702 27705 27708 27711 27714 27716 27719 27722 27725 27728 27731 27733 27736 27739 27742 27745 27748 27751 27754 27757 27760 27763 27766 27769 27771 27774 27777 27780 27783 27786 27788 27791 27793 27796 27798 27801 27804 27806 27809 27812 27814 27817 27820 27822 27825 27827 27830 27833 27836 27838 27841 27844 27846 27848 27851 27854 27856 27859 27862 27864 27867 27870 27873 27875 27878 27881 27884 27887 27890 27892 27895 27898 27901 27904 27907 27910 27913 27916 27919 27921 27924 27926 27929 27932 27935 27937 27940 27943 27945 27948 27951 27954 27957 27960 27963 27966 27968 27971 27974 27977 27980 27982 27985 27988 27991 27994 27996 27999 28001 28004 28007 28010 28013 28016 28019 28022 28025 28028 28031 28034 28037 28040 28043 28046 28048 28051 28053 28056 28059 28062 28065 28068 28071 28074 28076 28079 28082 28085 28088 28091 28094 28096 28098 28101 28104 28107 28110 28113 28115 28117 28120 28123 28126 28129 28132 28135 28137 28140 28143 28146 28149 28152 28155 28158 28160 28162 28165 28168 28171 28174 28176 28178 28180 28183 28185 28187 28190 28193 28195 28198 28200 28203 28206 28209 28212 28215 28218 28220 28223 28225 28228 28231 28234 28237 28240 28243 28246 28249 28252 28255 28257 28260 28262 28265 28268 28270 28273 28276 28279 28282 28285 28288 28291 28293 28295 28298 28301 28304 28307 28310 28313 28316 28319 28322 28325 28328 28331 28334 28337 28340 28343 28345 28348 28351 28353 28355 28358 28361 28364 28367 28370 28373 28376 28379 28382 28385 28388 28391 28394 28397 28400 28403 28406 28409 28412 28414 28417 28420 28422 28425 28428 28431 28434 28437 28440 28443 28446 28449 28452 28455 28458 28461 28464 28467 28470 28473 28476 28478 28481 28483 28486 28489 28492 28495 28498 28501 28503 28506 28508 28511 28514 28517 28519 28522 28525 28528 28531 28534 28536 28539 28541 28544 28546 28549 28552 28555 28558 28561 28563 28565 28568 28571 28573 28576 28578 28581 28584 28587 28589 28592 28595 28598 28600 28603 28606 28608 28610 28613 28616 28619 28622 28625 28628 28631 28634 28637 28640 28643 28646 28649 28651 28654 28657 28660 28662 28665 28668 28671 28674 28677 28680 28683 28686 28688 28690 28693 28696 28699 28701 28704 28707 28710 28713 28716 28719 28722 28725 28728 28731 28734 28737 28740 28742 28745 28747 28750 28753 28756 28758 28761 28764 28767 28770 28773 28776 28779 28782 28785 28788 28791 28794 28796 28799 28802 28805 28808 28811 28814 28817 28820 28823 28826 28829 28832 28835 28837 28840 28843 28846 28849 28851 28854 28857 28859 28862 28865 28868 28871 28874 28876 28879 28882 28885 28888 28891 28894 28897 28900 28903 28906 28909 28912 28915 28918 28920 28923 28926 28929 28932 28935 28937 28940 28943 28946 28948 28951 28954 28957 28960 28963 28965 28968 28970 28973 28976 28979 28982 28985 28988 28991 28994 28997 29000 29003 29006 29009 29012 29015 29018 29021 29024 29027 29029 29032 29035 29038 29041 29044 29047 29049 29051 29054 29057 29060 29063 29066 29069 29071 29074 29076 29079 29082 29085 29088 29091 29094 29096 29099 29101 29103 29106 29109 29112 29114 29117 29120 29123 29126 29129 29132 29135 29138 29141 29144 29146 29149 29151 29154 29157 29160 29163 29166 29169 29171 29173 29176 29179 29182 29185 29188 29191 29194 29197 29200 29203 29206 29209 29212 29215 29218 29221 29224 29227 29230 29233 29236 29239 29242 29245 29247 29249 29252 29255 29258 29261 29264 29267 29270 29273 29276 29278 29281 29284 29287 29290 29293 29296 29299 29301 29304 29307 29309 29312 29315 29318 29321 29323 29326 29329 29331 29334 29337 29340 29342 29345 29348 29350 29353 29355 29358 29361 29364 29367 29370 29373 29376 29379 29382 29385 29387 29390 29393 29396 29399 29402 29405 29408 29411 29413 29416 29418 29421 29423 29426 29428 29431 29433 29436 29439 29442 29444 29447 29450 29453 29456 29459 29462 29465 29468 29471 29474 29476 29479 29482 29485 29488 29491 29493 29496 29499 29502 29504 29507 29510 29513 29516 29519 29522 29525 29528 29531 29534 29537 29540 29543 29546 29549 29551 29554 29557 29560 29563 29566 29569 29572 29575 29577 29580 29583 29585 29587 29590 29593 29596 29599 29602 29605 29607 29610 29613 29616 29619 29622 29625 29628 29630 29632 29635 29638 29640 29642 29645 29648 29651 29654 29657 29659 29662 29665 29668 29671 29674 29677 29680 29682 29685 29688 29691 29693 29696 29698 29701 29704 29707 29710 29713 29716 29719 29722 29725 29728 29731 29734 29737 29740 29743 29746 29749 29752 29755 29758 29761 29763 29766 29769 29771 29774 29777 29779 29782 29785 29788 29791 29793 29796 29799 29802 29805 29808 29811 29814 29817 29819 29821 29824 29827 29829 29832 29834 29837 29840 29843 29846 29849 29852 29855 29858 29861 29864 29866 29869 29872 29875 29877 29880 29883 29886 29889 29891 29894 29896 29899 29902 29905 29908 29911 29914 29917 29920 29923 29926 29929 29932 29935 29937 29940 29943 29946 29949 29952 29955 29957 29960 29962 29965 29968 29971 29974 29977 29979 29982 29985 29988 29990 29993 29996 29999 30002 30005 30008 30011 30014 30017 30020 30023 30026 30029 30032 30035 30038 30041 30043 30046 30048 30051 30054 30057 30060 30063 30066 30069 30072 30075 30078 30081 30084 30087 30089 30092 30095 30097 30100 30103 30105 30108 30110 30113 30116 30119 30122 30125 30128 30130 30133 30136 30139 30142 30145 30148 30151 30154 30157 30160 30163 30166 30169 30172 30175 30178 30181 30184 30187 30190 30193 30196 30199 30202 30205 30208 30211 30214 30217 30220 30223 30225 30228 30231 30234 30237 30240 30243 30245 30247 30250 30253 30256 30258 30261 30264 30266 30269 30272 30274 30277 30279 30282 30285 30288 30291 30293 30296 30299 30302 30305 30308 30310 30313 30316 30319 30322 30325 30328 30331 30334 30337 30340 30343 30346 30349 30352 30355 30357 30360 30362 30365 30368 30371 30374 30377 30379 30382 30385 30388 30390 30392 30395 30398 30401 30403 30405 30408 30411 30414 30417 30420 30422 30425 30428 30431 30434 30437 30439 30442 30445 30448 30451 30454 30457 30460 30463 30466 30469 30472 30475 30478 30480 30483 30486 30488 30491 30494 30497 30500 30503 30506 30509 30512 30515 30517 30520 30523 30526 30529 30532 30535 30538 30541 30544 30547 30550 30552 30555 30558 30560 30563 30566 30569 30572 30575 30578 30581 30584 30587 30590 30593 30596 30599 30602 30605 30608 30611 30614 30617 30620 30623 30626 30629 30632 30635 30638 30641 30644 30647 30649 30652 30654 30656 30659 30661 30664 30667 30670 30673 30676 30679 30681 30683 30685 30688 30691 30694 30697 30700 30703 30706 30709 30712 30714 30717 30720 30723 30726 30728 30731 30733 30736 30738 30740 30743 30746 30749 30752 30755 30758 30761 30764 30766 30769 30772 30774 30777 30779 30782 30785 30788 30791 30794 30797 30800 30803 30806 30808 30810 30813 30816 30818 30821 30823 30825 30828 30830 30833 30836 30838 30841 30843 30846 30848 30851 30853 30855 30858 30860 30863 30866 30868 30871 30874 30877 30880 30882 30885 30888 30890 30893 30895 30898 30901 30903 30906 30908 30911 30913 30916 30919 30922 30924 30927 30930 30933 30935 30938 30941 30944 30947 30950 30952 30955 30958 30961 30964 30967 30970 30973 30976 30979 30982 30985 30988 30991 30994 30996 30999 31001 31003 31006 31009 31011 31014 31017 31020 31023 31026 31029 31032 31035 31038 31041 31043 31046 31049 31052 31055 31058 31060 31063 31066 31069 31072 31074 31077 31079 31082 31085 31087 31089 31092 31095 31098 31101 31104 31107 31109 31112 31114 31116 31119 31122 31125 31127 31130 31132 31135 31138 31141 31143 31146 31149 31152 31155 31157 31160 31163 31166 31169 31172 31174 31176 31179 31181 31184 31186 31189 31191 31193 31195 31197 31199 31202 31205 31208 31211 31213 31216 31219 31222 31225 31228 31231 31234 31236 31239 31241 31244 31247 31249 31252 31255 31257 31260 31263 31266 31268 31270 31273 31276 31279 31282 31285 31288 31290 31293 31296 31298 31301 31304 31307 31310 31313 31315 31318 31321 31324 31327 31329 31332 31335 31338 31341 31344 31347 31350 31353 31356 31359 31362 31365 31368 31371 31374 31377 31380 31383 31386 31389 31392 31395 31398 31401 31404 31407 31410 31413 31416 31419 31422 31425 31428 31431 31434 31437 31440 31443 31446 31449 31452 31455 31458 31461 31464 31467 31470 31473 31476 31479 31482 31485 31488 31491 31494 31497 31500 31503 31506 31508 31511 31514 31516 31519 31521 31524 31527 31530 31533 31535 31538 31541 31544 31546 31549 31552 31555 31558 31561 31564 31567 31570 31573 31576 31579 31582 31585 31588 31590 31593 31596 31599 31602 31605 31607 31610 31613 31615 31618 31621 31624 
</DataArray>
<DataArray type="UInt32" Name="types" format="ascii">
5 5 5 5 3 5 5 5 5 5 5 5 3 5 5 5 5 3 5 5 5 5 5 3 5 5 5 5 5 3 5 5 5 3 5 5 3 5 5 5 5 3 5 5 5 5 3 5 3 5 5 5 5 5 5 5 5 5 3 5 5 5 5 5 5 3 5 5 5 5 5 5 3 5 5 5 5 5 3 5 5 3 5 5 5 5 5 5 5 5 5 3 5 5 5 3 5 5 5 5 5 5 5 5 5 5 5 5 5 5 5 5 5 5 5 5 5 5 5 3 5 5 5 5 5 3 5 5 3 5 5 5 5 5 5 5 5 5 5 5 5 5 5 5 3 5 5 5 5 5 5 5 3 5 5 5 5 5 5 3 3 5 5 5 5 5 5 5 3 5 5 5 5 5 3 5 5 5 5 5 5 5 5 5 5 5 5 5 3 5 5 5 3 5 3 5 5 5 5 5 5 3 5 5 3 5 5 5 5 5 3 5 5 5 5 5 5 5 3 5 3 5 5 5 5 5 5 5 5 5 5 3 5 5 3 5 3 5 3 5 5 5 5 3 3 5 5 5 5 3 5 5 3 5 3 5 5 5 3 5 5 5 5 5 5 5 5 5 5 3 5 3 5 5 5 5 5 5 5 5 5 5 5 5 5 5 5 5 5 5 5 5 5 5 5 5 5 5 5 5 5 5 5 5 5 5 5 5 5 5 5 5 5 5 5 5 5 5 5 5 5 5 5 5 5 5 5 5 5 5 5 5 5 5 5 5 5 5 5 5 5 5 5 5 3 5 5 5 5 5 3 5 5 5 5 5 5 5 5 5 3 5 3 5 5 5 3 5 3 5 5 5 5 5 5 5 5 5 5 5 5 5 5 5 5 5 5 5 5 5 5 5 5 5 5 5 5 5 5 5 5 5 5 5 5 5 5 5 5 5 5 5 5 5 5 5 5 5 5 5 5 3 5 5 3 5 3 5 5 5 5 5 5 5 5 5 5 5 5 5 5 5 5 5 5 5 5 5 5 3 5 3 5 5 5 5 5 5 5 3 5 5 5 5 5 5 5 5 5 5 5 5 5 5 5 5 5 3 5 5 3 5 5 5 5 5 5 5 5 5 5 3 5 5 5 5 5 5 5 5 5 5 3 5 3 5 3 3 5 5 5 5 3 5 5 5 5 5 3 5 5 5 5 5 5 5 5 5 3 5 5 3 5 3 5 5 5 5 5 5 5 5 5 5 5 5 3 5 5 5 3 5 5 5 5 5 3 5 5 3 5 5 5 5 3 5 3 5 5 5 5 5 5 5 5 5 5 5 5 3 5 5 5 5 5 3 5 5 3 5 5 3 5 5 5 5 5 5 3 5 5 5 5 3 5 3 5 3 5 5 5 5 5 5 5 5 5 5 5 5 5 5 3 5 5 5 5 5 5 5 5 5 5 5 5 5 5 5 5 5 5 5 5 5 5 5 5 5 5 5 5 5 5 5 5 5 5 5 5 5 5 5 5 5 5 5 5 5 5 5 5 5 5 5 5 5 5 5 5 5 5 5 5 5 5 5 5 5 5 5 5 5 3 3 5 5 5 5 3 5 5 3 5 5 5 5 5 3 5 5 5 5 5 5 3 5 3 5 5 5 5 3 5 5 5 3 5 3 5 5 5 5 5 5 5 3 5 5 5 3 5 5 5 5 5 5 5 5 5 5 5 5 5 5 5 5 5 5 5 5 5 5 5 3 5 5 5 5 5 5 3 5 5 5 5 3 5 3 5 5 5 5 5 5 5 5 5 5 5 5 5 3 5 5 5 5 5 5 5 5 5 5 5 5 5 5 5 5 5 5 5 5 5 5 5 5 5 5 5 5 5 5 5 5 5 3 5 5 3 5 3 5 5 5 5 3 5 5 5 5 3 5 5 5 5 5 3 5 5 5 5 5 3 5 5 3 5 5 5 5 5 5 5 3 5 5 3 5 5 5 5 3 5 5 5 5 5 5 5 5 5 5 5 5 5 5 5 5 5 5 5 5 5 5 5 5 5 5 5 5 5 5 5 5 5 5 5 5 5 5 5 5 5 5 5 3 5 5 5 5 5 5 5 5 5 5 5 5 5 5 3 5 5 5 5 5 5 5 3 5 5 5 5 5 3 5 5 5 5 3 5 5 5 5 5 5 3 5 5 3 5 5 3 5 3 5 3 5 5 5 5 3 3 5 5 3 5 5 5 3 5 5 5 3 5 5 5 5 5 5 5 5 5 5 5 5 5 5 5 3 5 5 5 5 5 5 5 5 5 3 5 5 5 5 5 5 3 3 5 5 5 5 5 5 5 5 3 5 5 5 5 5 3 5 5 5 3 5 5 5 3 5 5 5 5 5 5 5 5 5 5 5 5 5 5 5 5 5 3 5 5 5 5 5 5 5 5 3 5 5 5 5 5 5 5 5 5 3 5 5 5 5 5 5 5 5 3 5 5 5 5 3 5 5 5 5 5 5 5 5 5 5 3 5 5 5 3 3 5 3 5 5 5 3 3 3 5 5 5 5 5 5 5 3 5 5 5 3 3 5 5 3 3 5 5 5 3 5 5 5 5 5 3 5 5 5 5 5 5 5 5 5 5 3 5 5 5 5 5 5 5 5 5 5 5 5 5 5 5 5 5 5 5 5 3 5 5 5 5 3 5 5 5 5 5 5 5 5 5 5 5 5 5 3 5 5 5 5 5 5 5 3 5 5 5 5 5 5 5 5 5 5 5 5 5 5 5 5 5 5 3 5 5 5 5 5 5 3 5 5 5 5 5 5 5 3 5 5 5 5 3 5 5 5 5 5 3 5 5 5 3 5 5 3 5 5 5 5 3 5 3 5 5 5 5 5 5 5 5 5 5 5 5 3 5 5 5 5 5 5 5 5 5 3 5 5 5 5 5 5 3 5 5 5 5 5 5 5 5 5 3 5 3 5 5 5 5 5 3 3 5 5 5 5 5 5 5 5 5 5 5 5 5 5 5 5 5 5 5 5 5 5 3 5 5 5 5 5 5 5 5 5 5 5 5 5 5 5 5 5 5 5 5 5 5 5 5 5 5 5 5 5 5 5 5 5 5 5 5 5 5 5 5 5 5 5 5 5 5 5 5 5 5 5 5 5 5 5 5 5 5 5 5 3 5 3 5 5 5 5 5 5 5 5 5 5 5 5 5 3 5 5 5 5 3 5 5 5 5 5 5 5 5 5 5 5 5 5 5 5 5 5 5 5 5 3 5 5 5 5 5 5 5 5 5 5 5 5 5 5 5 5 5 5 5 5 5 5 5 5 5 5 5 5 5 5 5 5 5 5 5 5 5 5 5 5 5 5 5 3 5 5 5 5 5 5 5 5 5 3 3 3 3 5 5 5 5 5 5 5 5 5 5 5 5 5 5 5 3 5 5 5 5 5 5 5 5 5 3 5 5 5 5 5 5 5 3 5 5 5 5 5 5 3 5 5 5 5 3 5 5 5 5 5 3 5 5 5 5 5 5 5 3 5 5 5 5 5 5 5 5 5 3 5 5 3 3 5 5 5 5 3 5 5 3 5 5 5 5 5 3 3 5 5 5 5 5 5 5 5 5 5 5 5 5 5 5 5 5 5 5 5 5 5 5 5 5 5 5 5 5 5 5 5 5 5 5 5 5 5 5 5 5 5 5 5 5 5 5 5 5 5 5 5 5 5 5 5 5 5 5 5 5 5 5 5 5 5 5 5 5 5 5 5 5 5 5 5 5 5 5 5 3 5 5 5 5 5 5 5 3 3 5 3 5 5 5 5 5 5 5 3 5 5 5 5 5 5 5 5 5 5 3 5 5 3 5 5 5 5 5 5 5 5 5 5 5 3 5 5 5 5 5 5 5 5 5 5 5 5 5 3 3 5 5 5 5 5 5 5 5 5 5 5 5 5 5 5 5 5 5 5 5 5 5 5 5 5 5 5 5 5 5 5 5 5 5 5 5 5 5 5 5 5 3 5 5 5 5 5 3 5 5 5 5 5 5 5 5 5 5 5 5 5 5 5 5 3 3 5 5 5 5 5 3 5 5 5 5 3 5 5 5 5 5 5 3 5 3 5 5 5 5 5 5 5 5 5 3 5 5 5 5 5 3 5 5 3 5 5 5 5 5 5 5 5 5 3 5 3 5 3 5 5 5 3 5 5 3 5 3 3 5 3 5 3 5 5 5 5 5 5 5 5 3 5 5 3 5 5 5 5 5 5 3 3 5 3 5 5 5 3 5 5 5 5 3 5 3 5 5 5 5 3 3 5 5 5 5 5 5 5 5 5 5 5 5 5 5 5 5 5 5 5 3 3 3 3 5 5 3 5 3 5 5 5 3 5 3 5 3 3 3 5 5 5 5 5 3 5 5 5 5 5 3 5 3 5 5 3 5 3 5 3 5 5 5 5 3 5 5 3 5 5 5 3 3 3 3 5 3 5 3 5 5 5 3 3 3 5 3 5 3 5 5 3 3 5 5 3 5 5 3 5 3 5 5 5 5 5 3 5 3 5 3 3 5 5 3 5 3 3 5 5 5 3 5 3 5 5 5 3 5 5 5 5 3 5 3 5 5 5 5 5 5 5 5 5 3 3 5 3 5 3 5 5 3 5 5 5 5 5 5 5 5 5 5 5 5 5 5 5 5 3 3 5 5 5 5 5 5 5 5 5 5 5 5 5 5 5 5 5 5 5 5 5 5 5 5 5 5 5 3 5 5 3 5 5 5 5 5 5 3 5 5 5 3 3 5 3 5 5 3 5 5 3 5 5 3 5 3 5 5 5 5 5 5 3 5 5 5 5 5 5 5 5 5 3 5 5 5 5 5 5 3 3 5 5 5 5 3 5 5 5 5 5 5 5 5 3 5 3 5 3 5 5 5 5 5 5 5 3 5 3 3 5 5 5 5 5 5 5 5 3 5 5 5 5 3 5 3 5 5 3 5 5 3 5 5 5 5 5 5 5 5 5 5 5 5 5 5 5 5 3 5 5 5 3 5 5 5 5 5 5 5 5 5 5 5 3 5 5 5 5 3 3 5 5 5 5 5 3 5 5 5 3 5 5 5 5 5 3 5 5 5 5 5 5 5 3 5 3 3 5 3 5 5 5 5 3 3 5 5 5 3 5 3 5 3 5 5 5 3 5 5 5 3 5 5 3 5 3 3 3 5 5 3 5 3 5 3 5 5 3 3 5 5 5 3 5 5 3 5 5 5 5 5 5 5 3 5 5 5 5 5 5 5 5 5 5 5 5 5 5 5 5 5 5 5 5 5 3 5 5 3 5 5 5 5 3 5 3 5 5 5 5 5 5 5 5 5 5 5 5 5 5 5 5 5 5 5 5 5 5 5 5 5 5 5 5 5 3 5 5 5 5 5 5 3 5 5 5 5 5 5 5 5 5 5 5 5 5 5 5 3 5 5 5 3 5 3 5 5 3 5 5 5 5 3 5 5 3 5 3 3 3 5 5 5 3 5 5 3 5 3 5 5 5 5 5 5 5 5 5 5 5 5 5 3 5 5 5 5 5 5 5 5 5 5 5 5 5 5 5 5 5 5 5 5 5 5 5 5 5 5 3 5 3 5 5 5 5 5 3 5 5 5 5 5 5 5 5 5 5 5 5 5 5 5 3 5 3 5 5 3 5 5 5 5 5 5 5 5 5 5 5 5 5 5 5 5 5 5 5 3 5 5 5 5 5 5 5 5 3 5 3 5 5 5 5 3 3 5 5 5 5 5 3 3 5 5 5 5 5 3 3 5 5 5 5 5 5 3 5 5 5 5 5 5 5 5 5 5 5 5 3 5 5 5 5 5 5 5 5 5 5 5 5 5 5 5 5 5 5 5 5 5 5 3 5 5 3 5 3 5 5 5 5 3 5 5 5 5 5 5 5 5 5 5 5 5 5 5 5 5 5 5 5 5 5 5 5 5 5 5 5 5 3 5 5 3 5 5 5 3 5 5 5 5 5 3 5 5 5 5 3 5 5 5 5 5 5 5 5 5 5 5 5 5 5 5 5 5 5 5 5 5 5 5 5 5 5 3 5 5 5 3 5 3 5 3 3 5 5 5 3 5 3 3 5 5 5 3 5 5 3 5 5 5 5 5 5 3 5 5 5 5 5 5 5 5 5 3 5 5 5 5 5 3 5 5 5 5 5 5 5 5 5 3 5 5 3 5 3 5 5 5 5 5 5 5 5 5 5 5 3 5 5 5 5 5 5 3 5 5 5 5 3 3 5 3 5 5 5 3 3 5 3 5 5 3 5 5 5 5 5 5 5 5 5 5 5 5 5 5 5 5 5 5 5 5 5 5 5 5 5 5 5 5 5 5 5 5 5 5 5 5 5 5 5 5 5 5 5 5 5 5 5 5 5 5 5 5 5 5 5 5 5 5 5 5 5 5 5 5 5 5 3 5 5 5 5 5 5 5 5 5 5 5 5 5 5 5 5 3 5 5 5 5 5 5 3 5 3 3 5 5 5 5 3 5 3 5 5 5 5 3 5 5 5 3 5 3 5 5 5 5 5 3 5 3 5 5 5 3 5 5 5 5 5 5 5 5 3 5 5 5 5 3 3 5 5 5 5 3 3 5 5 5 5 5 5 5 5 3 3 5 3 5 5 5 5 3 5 5 5 3 5 5 5 5 5 5 5 5 5 5 5 5 3 5 5 5 5 5 5 5 5 5 5 5 5 5 3 5 5 5 5 5 5 5 3 5 5 5 5 5 5 5 5 5 5 5 5 5 3 5 5 5 5 5 5 5 5 5 5 5 5 5 3 5 3 5 5 5 5 5 5 5 5 5 5 5 5 5 5 5 5 5 5 5 5 5 5 5 5 5 5 5 5 5 5 5 5 5 5 5 5 5 5 5 5 5 5 5 5 5 5 5 5 5 5 5 5 5 5 5 5 5 5 5 5 5 5 5 5 5 5 5 5 5 5 5 5 5 5 5 5 5 5 5 5 5 5 5 5 5 5 5 5 5 5 5 5 5 5 5 5 5 5 5 5 5 5 5 5 5 5 5 5 5 5 5 5 5 5 5 5 5 5 5 5 5 5 5 3 5 5 5 5 5 5 3 5 5 5 5 5 3 5 5 5 5 5 3 5 5 3 5 5 5 3 5 5 5 5 5 3 5 5 5 5 5 5 5 3 5 5 5 5 5 5 5 5 5 5 5 5 5 5 5 5 5 5 5 3 5 5 5 5 5 5 5 3 5 5 5 5 5 5 3 5 3 5 5 5 3 5 5 3 5 5 5 5 5 5 5 5 5 5 3 5 5 5 5 5 5 5 5 5 5 5 5 5 5 5 3 5 5 3 5 5 5 5 5 5 5 5 5 5 5 5 5 5 5 5 3 5 5 5 5 5 5 5 5 5 5 5 5 5 5 5 3 5 5 5 5 5 5 5 5 3 5 5 5 5 5 5 5 5 5 5 5 3 5 5 5 5 5 3 5 5 5 5 5 5 5 5 3 5 5 5 5 3 5 5 3 5 5 5 5 5 5 5 3 5 5 3 5 5 3 5 5 5 5 5 5 5 5 5 5 5 5 5 3 5 5 5 5 5 5 5 5 5 5 5 5 3 5 5 3 5 5 3 5 5 5 3 5 5 5 5 5 5 5 5 5 5 5 3 5 5 5 5 5 5 5 5 5 5 5 3 5 5 5 5 5 5 5 5 5 5 5 5 5 5 5 5 5 5 5 3 5 5 5 5 5 5 5 5 5 5 5 3 5 3 5 3 5 5 5 5 3 5 5 5 5 5 5 5 5 5 5 5 5 5 5 5 5 5 5 5 5 5 5 5 5 5 5 5 5 3 5 5 5 5 3 5 5 5 3 5 5 5 3 5 5 5 5 3 5 3 5 5 3 3 5 5 5 3 5 3 5 5 3 5 3 5 5 5 3 5 5 3 5 3 5 5 5 3 5 3 5 5 3 3 5 5 5 3 3 5 5 3 5 5 5 5 5 5 5 5 5 5 5 3 3 5 5 5 5 5 5 3 5 3 5 3 5 5 3 5 5 3 5 3 5 5 5 5 5 5 5 5 5 5 5 5 5 5 5 5 5 5 5 3 5 5 5 5 5 5 5 5 5 5 5 5 5 5 5 5 5 5 5 5 5 5 5 5 5 5 5 5 5 5 5 5 3 3 5 5 5 3 5 3 5 3 5 3 5 5 5 5 3 5 5 5 5 5 5 5 3 5 5 5 5 5 5 5 5 5 5 5 5 5 5 5 3 5 5 5 5 5 3 5 5 5 5 5 5 5 3 5 5 5 5 3 5 5 5 5 5 3 5 5 5 3 5 3 5 5 5 3 5 3 5 3 5 5 3 5 5 5 3 5 5 5 5 5 3 5 5 5 3 5 5 3 5 5 3 5 5 5 5 5 5 5 5 5 5 5 5 5 5 5 5 3 5 5 3 5 5 5 5 3 5 5 5 5 5 5 5 5 5 5 5 5 5 5 5 5 5 5 3 3 5 5 5 5 5 5 5 5 5 5 5 5 5 3 5 3 5 3 3 3 5 5 5 5 5 5 5 5 5 3 5 5 3 5 5 5 5 5 5 3 5 5 5 3 5 5 3 5 5 5 5 5 5 3 3 5 5 5 5 3 5 5 3 3 5 5 5 5 5 5 5 3 3 5 5 5 5 5 3 5 3 5 5 3 5 5 3 3 5 3 5 5 5 5 3 3 5 5 5 5 3 5 5 3 5 5 3 5 5 3 5 5 5 5 5 5 5 5 5 5 5 5 5 5 5 5 5 5 5 5 5 3 5 3 3 5 5 3 5 5 5 5 5 5 5 5 5 3 5 5 5 5 5 5 5 3 5 5 5 5 5 5 5 5 5 5 5 5 5 5 5 3 5 5 5 5 5 3 3 5 5 3 3 3 5 5 5 5 5 5 3 5 3 5 5 5 5 5 5 3 5 3 5 5 5 3 5 5 5 5 5 5 5 5 5 5 3 5 5 5 5 5 5 5 5 5 5 5 5 5 5 5 5 5 5 5 5 5 5 5 5 3 5 5 5 5 5 5 5 3 3 5 5 3 3 5 5 5 5 5 5 5 5 5 5 5 5 5 5 5 5 5 5 5 5 5 5 5 5 5 5 3 5 5 5 3 5 5 3 5 5 5 5 5 5 5 5 5 5 5 5 5 5 5 5 5 5 5 5 5 5 5 5 5 5 5 5 5 5 5 5 5 5 5 5 5 5 5 5 5 5 5 5 5 5 5 5 5 5 5 3 5 5 5 5 5 5 5 5 5 5 5 3 3 5 5 5 3 5 5 5 5 5 5 5 5 5 3 5 5 5 5 3 5 5 5 5 5 5 5 5 3 3 5 5 5 5 3 5 5 5 5 5 5 3 5 5 5 5 5 3 5 5 5 3 5 5 3 5 5 3 5 5 5 5 5 5 3 5 5 5 5 5 5 5 5 5 5 5 5 5 5 5 5 5 5 5 5 5 5 5 5 5 5 5 5 5 5 5 5 5 5 5 5 5 5 5 5 5 5 5 5 5 5 5 5 5 5 5 3 5 5 5 5 5 3 5 5 5 5 3 5 5 5 5 5 5 5 5 5 5 3 3 5 5 5 5 3 5 3 5 5 5 5 5 5 5 5 5 5 5 5 5 5 5 5 5 5 5 5 5 5 5 3 5 5 5 5 5 5 5 3 5 5 5 3 5 3 5 5 5 5 5 5 5 5 5 5 5 5 5 5 5 5 5 5 5 5 5 5 5 5 5 5 5 3 5 5 5 5 5 5 5 5 5 5 5 5 5 5 5 3 5 3 5 5 5 5 3 5 5 5 5 3 5 5 5 5 5 5 5 5 5 3 5 5 5 5 5 5 5 5 3 5 5 3 5 5 3 5 5 5 5 5 5 5 5 5 3 5 5 5 5 5 5 5 5 5 5 3 5 5 5 5 3 5 5 5 5 5 5 5 5 5 5 5 5 5 5 5 5 5 5 5 5 3 5 3 5 5 5 5 5 5 5 5 5 5 5 3 5 5 3 3 5 5 5 3 5 5 3 5 5 5 5 5 5 3 5 5 3 5 3 5 5 5 5 5 5 5 3 5 3 5 3 3 5 5 5 5 5 3 3 3 5 5 5 5 3 3 5 5 5 5 3 5 5 3 5 5 3 5 5 5 5 5 5 5 5 5 5 5 5 5 5 5 5 3 3 5 5 3 5 5 5 5 3 5 5 5 5 3 5 3 5 5 5 5 5 5 5 3 3 5 5 5 5 3 5 3 3 5 5 5 5 5 5 5 5 5 5 5 5 5 5 5 5 5 5 5 5 5 5 3 5 3 5 5 3 5 5 3 3 5 5 5 5 5 5 5 5 5 3 5 5 3 3 3 5 3 5 5 5 3 3 5 5 5 3 3 5 5 5 3 3 5 3 5 3 5 5 5 3 5 3 5 5 5 3 5 5 5 5 5 5 5 5 5 5 5 3 3 5 5 3 5 5 5 3 5 3 5 5 5 3 5 5 5 5 5 5 5 5 5 5 3 5 5 5 5 5 5 3 5 5 3 5 5 5 5 5 5 5 5 5 5 5 3 5 5 5 5 5 5 5 5 5 5 5 3 3 5 3 5 5 5 5 3 3 5 5 5 5 5 5 3 5 5 5 5 5 5 3 5 5 5 3 5 3 5 5 5 5 3 5 5 3 3 5 5 3 5 5 3 5 5 5 3 5 5 5 5 5 5 5 3 3 5 5 5 5 5 5 5 5 3 3 5 5 3 5 5 5 5 5 5 3 5 5 5 5 5 5 5 5 3 5 3 5 5 5 5 3 5 5 5 5 5 5 5 5 5 5 5 3 5 3 3 5 5 3 5 5 5 5 5 3 5 3 5 5 5 5 3 5 5 5 5 5 5 5 5 5 5 3 5 5 5 5 5 5 5 5 5 5 5 5 3 5 5 5 5 3 5 5 3 5 5 5 5 5 5 5 5 5 5 5 5 5 5 3 5 5 5 5 5 5 5 5 5 5 5 5 3 5 5 5 5 5 5 3 5 5 5 5 3 3 5 5 3 5 5 3 5 5 5 5 3 5 5 5 5 5 3 5 5 5 3 5 5 5 5 5 3 5 3 5 3 3 3 5 5 5 5 5 5 5 5 3 5 5 3 5 5 5 5 5 5 5 5 5 3 5 5 5 5 5 5 5 5 5 5 5 5 5 5 5 5 5 5 5 5 5 5 5 5 5 5 5 5 5 5 3 5 3 5 5 5 3 5 5 3 5 3 3 5 3 5 3 5 5 5 5 5 5 5 5 3 5 3 5 5 3 5 3 5 3 5 5 5 5 5 5 5 5 3 3 5 5 5 3 5 3 5 3 3 5 5 5 5 5 5 5 5 5 3 5 5 3 5 5 5 5 5 5 5 5 3 5 5 3 5 5 5 5 5 5 5 5 3 5 3 5 5 5 5 5 5 5 3 5 5 5 5 5 5 5 5 5 5 3 5 5 3 3 5 3 3 3 5 5 3 5 5 3 5 5 5 5 3 5 5 5 5 5 5 5 5 5 5 5 5 5 5 5 5 5 5 5 5 5 5 5 3 5 5 5 3 5 5 5 5 3 5 5 5 5 5 5 5 5 5 5 5 3 5 5 5 5 5 5 5 5 5 5 5 5 5 5 5 5 3 5 5 5 3 5 5 5 5 5 3 5 5 5 5 3 5 5 5 5 5 5 3 5 5 5 5 5 3 5 5 3 5 5 5 3 5 5 5 3 5 5 5 3 5 5 5 5 5 5 5 3 5 5 5 5 5 3 5 5 5 3 5 5 5 5 5 3 3 5 5 5 5 5 5 5 5 3 3 5 5 5 3 5 3 5 5 5 5 5 5 5 3 5 3 5 5 5 5 3 5 3 5 3 5 5 5 5 5 5 3 5 5 5 3 5 5 5 5 5 3 5 5 5 5 5 5 5 5 5 5 5 5 5 5 5 5 5 5 5 5 5 5 3 5 3 5 5 3 5 5 5 5 5 5 3 5 5 3 5 5 5 5 5 5 5 5 5 5 5 5 5 5 5 5 5 5 5 5 5 5 5 5 3 5 5 5 5 3 5 5 5 5 5 5 5 5 5 5 5 5 5 3 5 3 5 5 5 5 5 3 5 5 5 5 5 5 5 5 5 5 5 5 5 5 5 5 5 5 5 5 3 3 5 5 5 5 5 5 5 5 5 5 5 5 5 3 5 5 5 5 5 5 5 5 5 5 5 5 5 5 5 5 5 5 3 5 5 5 5 5 5 5 5 5 5 5 5 5 5 5 5 5 5 5 5 5 3 5 5 5 5 5 3 5 5 5 5 5 5 5 5 5 5 3 5 3 5 5 5 5 5 5 5 5 5 5 5 3 5 5 3 5 5 5 5 5 5 3 3 5 5 5 3 5 5 5 5 5 5 5 5 5 5 5 5 5 5 5 5 5 5 5 5 5 5 5 5 5 5 5 5 5 5 5 5 5 5 5 5 5 5 5 3 5 5 5 5 5 5 5 5 5 5 5 5 5 5 5 5 5 5 5 5 5 5 5 5 5 5 5 3 5 5 3 5 5 5 5 3 5 5 5 3 5 5 5 5 5 5 5 5 5 5 5 5 5 5 5 3 5 5 3 5 5 5 5 5 5 5 5 3 5 5 5 5 5 5 5 3 5 5 5 5 5 5 5 5 5 5 5 5 5 5 5 5 5 5 5 5 5 5 5 5 5 5 3 5 5 5 5 5 5 5 5 5 5 5 5 5 5 3 5 5 5 5 3 5 5 5 5 5 5 5 5 5 5 5 5 5 5 5 5 5 5 5 5 5 5 5 5 5 5 5 5 3 5 5 5 3 5 5 5 5 5 5 5 3 5 5 5 5 3 5 5 3 5 5 5 5 5 3 5 3 3 5 5 5 5 5 5 5 5 5 5 5 5 5 5 5 5 5 5 5 5 5 5 5 5 5 5 5 5 5 3 5 5 5 5 5 5 3 5 5 5 3 5 5 5 3 5 5 5 3 5 5 5 5 5 5 3 5 5 5 5 5 5 3 5 5 5 5 5 5 5 5 5 5 3 5 5 5 5 5 5 5 5 5 5 5 3 5 5 5 5 3 5 5 5 3 5 5 5 5 5 5 5 5 5 5 5 5 5 5 5 5 5 5 5 5 5 5 5 5 5 5 5 5 5 5 5 5 5 5 5 5 5 5 5 5 3 3 5 5 5 5 5 5 5 5 5 3 5 3 3 5 5 5 3 3 5 5 5 5 5 5 5 5 5 5 5 3 5 5 3 3 5 5 5 5 5 5 5 5 5 5 5 5 5 5 5 5 5 5 5 5 5 5 3 5 3 5 5 5 3 3 5 5 5 5 5 3 3 3 3 5 5 5 5 5 5 5 3 5 5 5 5 5 5 5 3 5 5 3 5 5 3 5 5 5 5 5 5 5 5 5 5 5 5 5 5 5 5 5 5 3 5 5 5 5 3 5 5 5 5 5 5 5 5 5 5 5 5 5 5 5 5 5 5 5 5 3 5 5 5 3 5 5 5 5 5 5 5 5 5 5 5 5 5 3 3 5 3 5 5 5 5 3 5 5 5 5 3 5 5 5 5 5 5 5 3 5 5 5 3 5 5 5 5 5 5 5 5 5 3 3 5 5 5 3 5 5 5 5 3 5 5 3 3 5 3 5 3 5 3 5 5 5 3 5 5 5 5 5 5 5 5 5 3 5 5 5 5 3 5 3 5 5 3 5 5 5 5 5 5 5 5 5 5 5 5 5 5 5 5 3 5 5 5 5 5 5 3 5 5 3 5 5 5 5 5 5 5 5 5 5 5 5 3 5 5 5 3 5 3 5 3 5 5 5 5 3 5 5 5 5 5 5 5 3 3 5 5 5 5 5 5 5 5 5 5 5 5 5 5 5 5 5 5 5 5 5 5 5 5 5 3 5 5 5 5 5 5 3 5 5 5 5 5 5 3 5 5 5 5 5 5 5 5 5 5 5 5 5 5 3 3 3 5 5 5 5 5 5 5 5 3 5 5 5 5 3 5 5 5 5 3 5 5 5 5 5 5 3 5 5 5 3 5 5 5 5 5 5 5 5 5 5 5 5 5 5 5 5 5 5 5 5 5 5 5 5 5 5 3 5 5 5 5 3 5 5 5 5 5 5 5 3 5 5 5 5 3 5 5 5 5 5 5 5 5 5 5 3 5 5 3 5 5 5 5 5 5 5 5 5 5 5 5 5 5 5 5 5 3 5 5 5 5 5 5 5 5 5 5 5 5 5 5 5 3 5 5 3 5 5 5 5 5 5 5 5 5 5 5 5 5 5 5 5 5 5 5 5 5 3 5 5 3 5 5 5 5 5 5 5 5 5 3 5 5 5 3 5 5 5 5 5 5 5 5 5 5 5 5 5 5 5 5 5 5 5 3 5 5 5 5 3 5 5 5 5 5 5 5 5 5 5 5 5 3 5 5 5 5 5 5 5 5 5 5 5 5 5 5 5 5 5 5 5 5 5 5 5 5 5 5 5 5 5 5 5 5 5 5 5 5 5 5 5 3 3 5 5 5 5 5 5 5 5 5 3 5 5 5 5 5 5 5 5 5 5 5 3 5 5 5 5 5 3 3 5 5 5 5 3 5 5 5 3 5 5 5 5 5 5 5 5 5 3 5 5 5 5 5 5 5 5 3 3 3 5 5 3 5 5 5 5 5 5 5 5 5 5 5 5 3 5 5 5 5 5 5 5 5 5 5 5 5 3 5 5 5 5 5 5 5 3 5 5 5 5 5 5 5 5 5 5 5 5 3 5 3 5 5 5 5 5 3 5 5 5 5 5 5 5 3 5 5 5 5 5 5 5 5 5 3 5 5 3 5 5 5 5 5 5 5 5 5 5 5 5 5 5 5 5 5 3 5 5 3 5 5 5 5 5 5 5 5 5 5 5 5 5 5 5 5 5 5 5 5 5 5 5 5 5 5 5 3 5 3 5 5 5 5 5 5 5 5 5 5 3 5 5 5 5 5 5 5 5 5 5 5 5 5 5 5 5 5 5 5 5 5 5 5 5 5 5 5 5 5 5 5 5 5 5 5 5 5 5 5 5 5 5 5 5 5 3 5 5 3 5 5 3 5 5 5 5 5 3 5 5 5 5 5 5 3 5 5 3 5 5 3 3 3 5 3 3 5 5 5 5 5 3 5 5 5 3 5 5 5 5 5 3 5 3 5 5 5 5 5 3 5 5 5 5 3 5 3 5 5 5 5 5 3 5 3 5 3 5 5 5 3 5 5 5 5 3 5 5 5 5 5 5 5 5 5 5 5 5 5 5 5 5 5 5 5 5 5 5 5 3 5 5 3 5 5 5 5 3 5 5 5 5 5 5 3 5 3 5 5 5 5 5 5 5 5 5 3 3 3 5 5 3 5 5 5 5 5 5 5 5 5 5 3 3 3 5 5 5 5 5 5 5 3 5 3 5 3 5 5 5 5 3 5 5 5 3 5 5 5 5 3 5 5 3 5 5 5 5 5 5 5 5 3 5 5 5 5 3 5 5 3 5 5 5 5 5 3 5 5 5 5 5 5 5 5 5 5 5 5 5 5 5 5 5 5 5 5 5 5 5 3 5 3 5 5 5 5 3 5 5 5 3 5 3 5 5 5 5 5 5 5 5 5 3 5 3 3 5 5 5 3 5 5 5 5 5 5 5 5 5 5 5 5 5 5 5 5 5 3 5 3 5 5 5 5 5 5 5 5 5 5 5 5 5 5 5 5 5 5 5 5 5 5 5 5 5 5 5 5 5 5 5 5 5 5 5 5 5 5 5 5 5 5 5 5 3 5 5 5 5 5 5 5 5 5 5 3 5 5 5 3 5 5 5 5 5 5 5 5 3 5 5 5 3 5 5 3 5 5 5 5 5 5 5 5 3 5 5 5 5 3 5 5 5 5 5 5 5 5 3 5 5 5 5 5 5 5 5 5 5 5 5 3 3 3 5 5 5 3 5 5 3 3 5 3 5 3 5 5 5 5 3 5 5 5 5 5 5 3 5 3 5 5 5 3 5 5 5 5 3 3 5 5 5 5 5 3 5 5 5 3 5 3 3 5 5 5 5 5 3 5 5 3 5 5 3 5 5 5 5 5 5 5 5 5 5 5 5 5 5 5 5 5 5 5 5 5 3 5 3 5 5 5 5 5 5 3 5 5 5 5 5 5 5 3 5 5 5 5 5 5 5 5 5 5 5 5 5 5 5 5 5 3 5 5 3 5 5 5 5 5 5 5 5 5 5 5 5 5 5 3 5 5 3 5 5 5 5 5 3 5 3 5 5 5 3 5 5 5 5 5 5 3 5 5 5 5 3 5 5 5 5 5 3 5 5 5 5 5 5 5 5 5 5 5 5 3 5 3 5 5 5 5 5 3 5 5 5 5 5 5 5 5 5 5 3 5 5 5 5 5 5 5 5 5 5 5 5 3 5 5 5 5 3 5 5 5 5 5 5 5 5 5 3 5 3 5 5 5 5 5 5 5 3 5 3 5 3 5 5 5 5 5 5 3 5 5 5 5 5 5 5 5 5 3 5 5 5 3 5 3 5 5 5 5 3 5 5 3 5 5 5 5 5 3 5 5 5 5 5 5 5 5 5 5 5 5 5 5 3 5 5 5 5 5 5 5 5 5 5 5 3 5 5 5 5 3 5 3 5 5 5 3 5 5 3 5 3 5 5 5 5 5 5 5 3 5 5 5 5 5 5 5 5 5 5 5 5 5 5 5 5 5 5 5 5 3 5 5 3 5 3 5 5 3 5 5 5 3 3 5 5 5 5 3 3 5 5 5 3 3 5 3 5 5 3 5 5 5 5 3 5 5 5 5 5 5 5 3 5 5 5 3 3 3 5 5 5 3 3 3 5 5 5 5 3 5 5 5 5 5 3 5 5 5 5 5 5 5 5 5 3 5 5 5 5 3 3 5 5 5 5 5 5 5 5 3 5 5 5 5 5 3 5 5 3 3 5 5 5 5 3 3 5 5 3 5 5 5 5 5 5 5 5 3 5 5 5 5 5 5 5 5 3 5 5 5 3 5 5 5 5 5 5 3 5 3 5 3 5 5 3 5 5 5 5 5 3 3 5 5 5 5 3 5 5 5 5 5 3 3 5 5 3 5 3 5 5 3 5 3 5 5 5 5 5 5 3 5 3 5 5 5 3 5 5 5 3 5 5 5 5 5 5 5 5 5 5 5 5 3 5 5 5 5 5 5 5 5 5 5 5 3 5 5 5 5 5 5 5 5 5 5 5 5 5 5 5 5 3 5 5 5 5 3 5 5 3 5 5 5 5 5 5 5 3 5 5 3 5 5 5 3 5 5 5 5 5 3 5 3 5 3 5 5 5 5 3 3 3 5 3 5 5 5 5 5 5 5 5 5 5 3 5 5 3 3 5 5 3 3 5 5 5 5 3 5 5 5 3 3 5 5 3 5 3 5 3 5 5 5 3 5 5 5 5 5 3 5 5 5 5 5 5 3 3 5 5 5 5 5 5 5 5 5 5 5 5 5 3 5 5 5 5 5 3 5 5 5 5 5 5 5 5 3 5 5 3 5 3 5 5 5 5 5 5 5 5 3 5 3 5 5 5 3 3 5 5 3 3 5 3 5 3 3 5 3 5 5 3 5 5 3 5 5 5 5 3 5 5 3 5 5 5 5 5 5 5 5 5 3 5 5 5 5 5 5 5 5 3 5 5 3 5 5 5 5 3 5 5 5 5 5 5 5 5 3 3 5 5 5 3 5 3 5 3 5 5 5 5 5 5 5 5 5 3 5 5 5 3 5 5 5 3 5 5 3 5 5 5 5 5 3 3 5 3 5 5 5 5 5 5 5 5 5 5 5 5 3 5 5 3 5 3 5 5 5 5 3 5 3 5 3 5 5 5 5 5 3 5 5 3 5 5 5 3 5 3 5 5 3 5 5 3 5 5 5 5 3 5 3 5 3 5 5 3 3 3 5 5 5 5 5 5 5 5 5 5 5 5 5 5 5 5 5 3 5 5 5 5 5 5 5 5 5 5 3 5 5 5 5 5 5 5 5 5 5 5 5 5 5 5 5 5 5 5 5 5 5 5 5 5 5 5 5 5 5 5 5 5 5 5 5 5 5 5 5 5 5 5 5 3 5 5 5 5 5 5 5 3 5 5 5 5 5 5 5 3 5 5 3 5 5 5 5 5 5 5 3 5 5 3 5 3 5 5 5 3 5 5 5 5 5 5 5 5 5 5 5 5 5 3 5 5 5 3 3 5 3 5 5 5 5 5 5 5 5 5 5 5 5 5 5 5 5 5 5 5 3 5 5 3 5 5 5 5 3 5 5 5 5 5 5 5 3 5 5 5 5 3 5 5 3 5 5 3 5 5 5 3 5 5 5 3 5 5 5 5 5 5 5 5 5 5 5 5 3 5 5 3 5 5 3 5 5 5 3 5 5 3 5 5 5 5 3 5 5 5 5 3 5 3 3 5 3 3 5 5 5 5 3 5 5 5 3 5 5 3 5 5 5 5 3 5 5 5 5 5 3 5 5 3 5 3 3 5 5 5 3 5 3 5 5 5 5 5 3 3 5 3 5 5 5 5 5 5 5 5 5 5 5 5 5 5 5 3 5 5 3 3 5 3 5 5 5 5 5 5 5 5 5 3 5 5 5 5 5 5 5 5 5 5 5 5 3 5 3 5 5 5 5 5 3 5 3 5 3 5 5 5 3 5 5 5 5 3 5 5 3 5 3 5 5 3 5 5 3 5 5 3 5 5 5 5 5 5 5 5 5 5 5 3 5 5 5 3 5 3 5 5 5 5 5 3 5 5 5 3 5 5 5 5 5 5 5 5 3 5 5 5 5 5 3 5 5 5 5 5 5 5 5 5 5 5 5 5 5 5 5 5 5 5 5 3 5 5 5 3 5 5 5 5 5 3 5 5 3 5 5 5 3 5 5 5 5 5 5 5 3 3 5 5 5 5 5 3 5 5 3 5 5 5 5 3 5 5 5 5 3 5 5 5 5 5 5 5 5 5 5 5 5 5 5 5 5 5 5 5 5 5 5 5 5 5 5 5 5 3 5 5 5 5 3 5 5 5 5 5 5 3 5 5 5 5 3 5 5 3 5 5 5 5 5 3 5 5 5 3 5 5 5 3 5 3 5 5 5 5 5 5 5 3 5 3 5 5 5 3 5 5 3 5 3 5 5 5 5 5 3 5 5 5 5 5 5 5 3 5 5 5 3 5 3 5 3 5 3 5 3 5 5 5 5 5 5 5 5 5 5 5 3 5 5 5 5 3 5 5 5 5 3 5 5 5 5 5 5 5 5 5 5 5 5 5 5 5 3 5 3 5 5 5 3 5 5 5 5 5 3 5 5 5 3 5 5 5 5 3 3 5 5 5 3 5 5 5 5 5 5 5 5 3 5 5 5 5 5 5 3 5 5 5 5 5 5 5 5 3 3 5 5 5 5 5 5 3 5 5 3 5 3 5 5 5 5 5 3 5 3 5 5 5 5 5 5 5 5 5 3 5 5 5 5 5 5 5 5 3 5 5 5 5 5 5 5 5 5 5 5 5 5 5 3 5 3 5 5 5 3 5 5 5 3 5 5 5 5 5 5 5 5 5 5 3 5 5 5 3 5 5 5 5 5 5 5 5 5 5 5 5 5 3 5 5 5 5 5 5 5 5 5 5 5 5 5 3 5 5 5 5 5 3 5 5 5 5 3 5 5 5 5 5 5 5 5 5 3 5 5 5 5 5 5 5 5 3 5 5 5 5 5 5 5 5 5 5 5 5 5 5 5 5 5 5 5 5 3 5 5 3 5 5 5 5 5 5 5 5 5 5 5 5 5 5 5 5 5 5 5 5 5 5 5 5 5 5 5 5 5 3 5 5 3 5 5 5 3 5 5 3 5 5 5 3 5 3 5 5 3 5 3 5 3 5 5 5 5 3 5 5 5 5 5 5 5 3 5 5 3 5 5 3 3 3 3 5 5 5 5 5 5 5 5 5 5 5 5 5 5 5 5 5 5 5 5 5 5 5 5 5 5 5 5 3 3 5 5 5 5 3 5 3 5 5 5 3 5 5 5 5 5 5 5 5 3 5 5 5 5 3 5 5 5 5 3 5 5 3 5 3 5 5 5 3 5 5 5 5 5 5 5 5 5 5 5 5 5 5 5 5 3 5 5 5 5 5 5 5 3 5 5 5 5 5 5 5 5 5 3 5 5 5 5 5 5 5 5 5 3 5 5 5 3 5 5 5 5 5 5 5 5 5 5 5 5 5 5 5 5 5 5 5 3 5 5 5 3 5 5 5 5 5 5 5 5 5 5 5 5 5 5 5 5 5 5 5 5 5 5 5 5 5 5 5 5 3 5 3 5 5 5 3 5 5 3 5 5 5 5 5 5 5 5 5 5 3 5 5 5 5 5 3 5 5 5 5 5 5 5 5 5 3 5 5 5 5 5 5 5 5 5 5 5 5 5 5 5 5 5 5 5 5 5 5 5 5 5 5 5 5 5 5 5 5 5 5 5 5 5 5 5 5 5 5 5 5 5 5 5 5 5 5 5 5 5 5 5 5 5 5 5 5 5 5 5 5 5 5 5 5 5 5 5 5 5 3 5 3 5 5 5 5 5 5 3 5 5 5 5 5 5 5 5 5 5 3 5 5 5 5 5 5 3 5 5 3 5 5 5 5 5 5 5 3 5 5 5 5 5 5 3 5 5 5 3 5 5 5 5 5 5 3 5 5 5 3 5 5 5 5 5 5 5 5 5 5 5 5 5 5 5 5 5 5 5 5 5 5 5 5 5 5 5 5 5 5 3 5 5 3 3 5 5 5 5 5 5 5 5 5 5 5 5 3 5 5 5 5 5 5 5 5 5 5 5 3 5 5 5 5 5 3 5 5 5 5 5 3 5 5 5 5 5 5 5 5 5 3 5 5 5 5 5 5 5 5 5 3 5 5 5 5 3 5 5 5 5 5 5 5 5 5 3 5 5 3 5 5 3 5 5 5 5 5 5 3 5 5 3 5 3 5 5 3 5 5 5 5 5 5 5 5 5 5 5 5 5 5 5 5 5 5 5 5 5 5 5 5 5 5 5 5 5 5 5 5 5 5 5 5 5 5 5 5 5 5 5 5 5 5 5 5 5 5 5 3 5 5 5 5 5 5 5 5 5 5 5 5 5 5 3 3 5 5 5 5 5 5 3 3 5 5 5 5 5 5 5 5 5 5 5 5 5 5 5 5 3 3 5 3 5 5 3 5 5 5 3 5 5 5 5 5 5 5 5 5 5 5 5 5 5 5 5 5 5 5 5 5 5 5 5 5 3 5 5 5 3 5 3 5 3 5 5 5 3 5 5 5 5 5 5 3 5 3 5 5 3 5 5 5 5 5 5 3 5 5 5 5 5 5 5 5 5 5 5 5 5 5 5 5 5 5 5 5 5 5 3 5 5 5 3 5 5 5 5 5 3 5 5 3 5 5 5 3 5 5 5 5 5 5 5 5 5 5 5 5 5 5 5 5 3 5 5 3 5 3 5 5 5 3 5 5 3 5 5 5 5 5 5 3 5 5 5 5 3 5 5 3 5 5 5 3 5 5 3 5 5 3 5 5 5 5 5 3 5 5 5 5 5 5 3 5 5 5 5 3 5 5 5 5 5 5 5 5 3 5 5 5 5 5 5 5 5 5 5 5 5 3 5 5 5 5 5 5 3 5 5 5 5 5 5 5 5 5 5 5 5 3 5 5 3 5 5 5 5 5 5 5 5 5 5 3 5 3 5 5 5 5 5 5 5 5 3 3 5 5 5 3 5 5 5 3 3 3 3 5 5 5 5 5 3 5 5 3 5 5 3 5 5 5 5 5 5 5 3 5 5 5 5 5 5 5 5 5 5 3 5 5 5 5 5 3 5 5 5 5 5 5 5 5 5 5 5 5 3 5 5 5 5 5 3 5 3 5 3 5 5 3 5 5 3 5 5 3 5 3 5 5 5 3 5 5 3 3 5 5 3 5 5 3 5 5 5 3 5 5 5 5 5 3 5 5 5 5 5 5 5 5 5 3 5 3 5 5 5 3 5 5 3 5 5 5 5 5 5 5 3 5 5 5 5 3 5 5 5 5 3 5 3 5 5 5 5 5 5 5 5 5 5 5 5 5 5 5 3 5 3 5 5 5 5 5 5 5 3 5 5 5 5 5 5 3 3 5 5 5 5 5 3 3 5 5 5 5 5 5 3 5 5 5 5 5 5 5 3 3 5 5 5 5 3 3 3 5 3 3 5 5 3 5 3 5 5 5 5 5 5 3 5 3 5 5 5 5 5 5 5 5 5 5 3 5 3 5 5 3 5 5 5 5 5 5 5 3 3 5 5 5 5 5 5 5 5 5 5 5 5 5 5 5 5 3 5 5 3 3 5 5 5 5 5 5 5 5 5 5 5 5 5 5 5 5 5 5 5 3 5 5 3 5 5 5 5 5 5 5 5 5 5 5 5 5 5 5 5 5 5 3 5 3 5 5 5 5 5 5 3 5 3 5 5 5 3 5 5 5 5 5 3 5 3 5 3 5 5 5 5 5 3 3 5 5 3 5 3 5 5 5 3 5 5 5 3 5 5 3 3 5 5 5 5 5 5 5 5 5 5 5 5 5 3 5 5 5 3 5 5 5 5 5 5 5 5 3 3 5 5 5 3 5 5 5 5 5 5 5 5 5 5 5 5 5 3 5 3 5 5 5 3 5 5 5 5 5 5 5 5 5 5 5 5 3 5 5 5 5 5 5 5 5 5 5 5 5 5 3 5 5 5 5 3 5 5 3 5 5 5 5 5 3 5 5 5 5 5 5 5 5 5 5 5 5 5 5 3 5 5 5 5 5 3 5 5 5 3 5 5 5 5 5 3 5 3 5 5 5 5 5 5 5 5 5 5 5 5 5 5 5 5 5 5 5 3 5 5 5 5 5 5 3 3 5 5 5 5 5 5 3 5 3 5 5 5 5 5 5 3 5 3 3 5 5 5 3 5 5 5 5 5 5 5 5 5 5 3 5 3 5 5 5 5 5 5 3 3 5 5 5 5 5 5 5 5 5 5 5 5 5 5 5 5 5 5 5 5 5 5 5 5 3 3 5 5 5 5 5 5 5 5 5 3 5 5 5 5 5 5 5 3 5 5 3 5 5 5 5 3 5 5 3 5 5 5 3 5 5 3 5 3 5 5 5 5 5 5 5 5 5 5 3 5 5 5 5 5 5 5 5 3 5 3 5 3 5 3 5 3 5 5 5 3 5 5 5 5 5 5 5 5 5 5 3 5 5 5 5 5 3 5 5 5 3 5 5 5 5 5 5 5 5 5 5 5 5 5 5 5 3 5 5 5 5 5 5 5 5 3 5 5 3 3 5 5 5 5 5 5 3 5 5 5 5 5 5 5 3 3 5 5 3 3 5 5 5 5 5 3 5 5 5 5 5 5 5 3 5 5 5 3 5 3 5 5 5 5 5 5 5 5 5 5 5 5 5 5 5 5 5 5 5 5 5 3 5 5 3 5 5 3 5 5 5 5 3 5 5 5 5 5 5 5 5 3 3 5 5 3 5 3 5 5 5 5 5 5 5 5 5 5 3 5 5 5 3 5 5 5 5 3 5 3 5 5 5 5 5 5 5 5 5 5 5 5 5 3 5 5 5 5 5 5 3 5 3 5 5 5 5 5 3 5 5 5 3 5 5 5 5 5 5 5 5 5 5 5 5 5 5 5 5 5 3 5 3 5 5 5 5 5 5 5 5 5 5 5 5 5 3 5 5 3 5 5 3 5 3 5 5 5 5 5 5 3 5 5 5 5 5 5 5 5 5 5 5 5 5 5 5 5 5 5 5 5 5 5 5 5 5 5 5 5 5 5 5 3 5 5 5 5 5 5 3 3 5 5 5 3 5 5 3 5 5 3 5 3 5 5 5 5 3 5 5 5 5 5 3 5 5 5 5 5 5 5 5 5 5 5 5 5 5 5 3 5 3 5 5 5 5 5 3 5 5 5 3 3 5 5 5 3 3 5 5 5 5 5 3 5 5 5 5 5 3 5 5 5 5 5 5 5 5 5 5 5 5 5 3 5 5 3 5 5 5 5 5 5 5 5 5 3 5 5 5 5 5 5 5 5 5 5 5 3 5 5 3 5 5 5 5 5 5 5 5 5 5 5 5 5 5 5 5 5 5 5 5 5 5 5 5 5 5 5 5 5 3 5 3 3 5 3 5 5 5 5 5 5 3 3 3 5 5 5 5 5 5 5 5 5 3 5 5 5 5 3 5 3 5 3 3 5 5 5 5 5 5 5 5 3 5 5 3 5 3 5 5 5 5 5 5 5 5 5 3 3 5 5 3 5 3 3 5 3 5 5 3 5 3 5 3 5 3 3 5 3 5 5 3 5 5 5 5 3 5 5 3 5 3 5 5 3 5 3 5 3 5 5 5 3 5 5 5 3 5 5 5 5 5 3 5 5 5 5 5 5 5 5 5 5 5 5 5 5 3 5 3 3 5 5 3 5 5 5 5 5 5 5 5 5 5 3 5 5 5 5 5 3 5 5 5 5 3 5 3 5 5 3 3 5 5 5 5 5 5 3 5 3 3 5 5 5 3 5 3 5 5 5 3 5 5 5 5 3 5 5 5 5 5 3 3 5 3 5 3 5 3 3 3 3 3 5 5 5 5 3 5 5 5 5 5 5 5 3 5 3 5 5 3 5 5 3 5 5 5 3 3 5 5 5 5 5 5 3 5 5 3 5 5 5 5 5 3 5 5 5 5 3 5 5 5 5 5 5 5 5 5 5 5 5 5 5 5 5 5 5 5 5 5 5 5 5 5 5 5 5 5 5 5 5 5 5 5 5 5 5 5 5 5 5 5 5 5 5 5 5 5 5 5 5 5 5 5 5 5 5 5 3 5 5 3 5 3 5 5 5 5 3 5 5 5 3 5 5 5 5 5 5 5 5 5 5 5 5 5 5 3 5 5 5 5 5 3 5 5 3 5 5 5 
</DataArray>
</Cells>
<PointData Scalars="" Vectors="displacement," Tensors="">
<DataArray type="Float64" Name="displacement" NumberOfComponents="3" format="ascii">
0.054993472025895759 2.3959160150154494e-06 0 0.05152943540165239 -3.8496871387688496e-06 0 0.053949030656225423 -0.0001308327157242243 0 0.054993472025895759 2.3959160150154494e-06 0 0.053949030656225423 -0.0001308327157242243 0 0.054668829721627822 2.8991077078529432e-05 0 0.054993472025895759 2.3959160150154494e-06 0 0.054668829721627822 2.8991077078529432e-05 0 0.055001051012476772 -5.4675872149617853e-07 0 0.051513012670747094 -2.5670277487350963e-06 0 0.047829561117496672 -0.00047803747508403229 0 0.048112100194746106 0.00028101321913083971 0 0.051517887548300861 -6.8537495225776985e-08 0 0.050792176365925729 -0.00027670265046904043 0 0.047829561117496672 -0.00047803747508403229 0 0.047723732158397661 0.00010628163536170012 0 0.048112100194746106 0.00028101321913083971 0 0.047723732158397661 0.00010628163536170012 0 0.047686060814858655 0.00029340753601947108 0 0.048112100194746106 0.00028101321913083971 0 0.047686060814858655 0.00029340753601947108 0 0.048112100194746106 0.00028101321913083971 0 0.047445983264152856 0.00030990047632920568 0 0.051513012670747094 -2.5670277487350963e-06 0 0.048112100194746106 0.00028101321913083971 0 0.049013738713715692 1.3530460932716638e-06 0 0.048112100194746106 0.00028101321913083971 0 0.049013738713715692 1.3530460932716638e-06 0 0.047424113092069599 0.0002227216596943113 0 0.047949114962015676 0.00011422067204966569 0 0.047693045121614763 0.0003645892648455446 0 0.047947023429425903 0.00054946685268906505 0 0.048166750241245705 0.000352436449229734 0 0.047949114962015676 0.00011422067204966569 0 0.047947023429425903 0.00054946685268906505 0 0.047528789112016641 4.8285921945186849e-05 0 0.051174786524725013 -7.0870573030135472e-05 0 0.047829561117496672 -0.00047803747508403229 0 0.047723732158397661 0.00010628163536170012 0 0.04738150701978576 0.00021823924300697753 0 0.047829561117496672 -0.00047803747508403229 0 0.04738150701978576 0.00021823924300697753 0 0.046996646969229811 -0.00015741585529093941 0 0.047686060814858655 0.00029340753601947108 0 0.04738150701978576 0.00021823924300697753 0 0.047709997889064486 0.00026925823768430174 0 0.047723732158397661 0.00010628163536170012 0 0.047686060814858655 0.00029340753601947108 0 0.04738150701978576 0.00021823924300697753 0 0.050792176365925729 -0.00027670265046904043 0 0.051174786524725013 -7.0870573030135472e-05 0 0.053949030656225423 -0.0001308327157242243 0 0.054704475087871615 -0.00033265218696567684 0 0.054668829721627822 2.8991077078529432e-05 0 0.054704475087871615 -0.00033265218696567684 0 0.054668829721627822 2.8991077078529432e-05 0 0.054860896618951209 -0.00012730661443357709 0 0.054668829721627822 2.8991077078529432e-05 0 0.054951976168571282 -2.1922675484237871e-05 0 0.054860896618951209 -0.00012730661443357709 0 0.054668829721627822 2.8991077078529432e-05 0 0.055001051012476772 -5.4675872149617853e-07 0 0.054951976168571282 -2.1922675484237871e-05 0 0.054951976168571282 -2.1922675484237871e-05 0 0.054859570809503981 1.1300010318503947e-05 0 0.054907228143317902 -2.8120866647586837e-06 0 0.054799717485583724 -0.00013782581969748348 0 0.055270865825530147 0.00020861239381410793 0 0.055001051012476772 -5.4675872149617853e-07 0 0.054927060677435191 -6.9560683905050647e-06 0 0.054999336065603761 1.6699542345093029e-07 0 0.055001051012476772 -5.4675872149617853e-07 0 0.054951976168571282 -2.1922675484237871e-05 0 0.054927060677435191 -6.9560683905050647e-06 0 0.054951976168571282 -2.1922675484237871e-05 0 0.054927060677435191 -6.9560683905050647e-06 0 0.054906393466225958 1.9095465281891534e-06 0 0.054927060677435191 -6.9560683905050647e-06 0 0.054906393466225958 1.9095465281891534e-06 0 0.054820597914620565 2.6872806490027219e-05 0 0.054906393466225958 1.9095465281891534e-06 0 0.054860460635856555 4.6869851984863899e-05 0 0.05488175712861372 -1.5696661655390989e-05 0 0.051300318051660063 0.00027090765762105405 0 0.05105742757672737 0.00013384953108587261 0 0.046766034238032238 0.00049615019321069711 0 0.047365743957268204 0.00022595069442889605 0 0.047070712569990653 0.00044204686693782473 0 0.046766034238032238 0.00049615019321069711 0 0.047070712569990653 0.00044204686693782473 0 0.046748460424059016 0.00050521327240992764 0 0.054906393466225958 1.9095465281891534e-06 0 0.054860460635856555 4.6869851984863899e-05 0 0.054820597914620565 2.6872806490027219e-05 0 0.051300318051660063 0.00027090765762105405 0 0.048657144208505726 -0.00024148940416029199 0 0.054860460635856555 4.6869851984863899e-05 0 0.054820597914620565 2.6872806490027219e-05 0 0.054714703197256902 9.6886849058462122e-05 0 0.05476694330006425 -2.7896540185615347e-05 0 0.054859570809503981 1.1300010318503947e-05 0 0.05488175712861372 -1.5696661655390989e-05 0 0.051174786524725013 -7.0870573030135472e-05 0 0.055270865825530147 0.00020861239381410793 0 0.054951976168571282 -2.1922675484237871e-05 0 0.054906393466225958 1.9095465281891534e-06 0 0.054907228143317902 -2.8120866647586837e-06 0 0.054906393466225958 1.9095465281891534e-06 0 0.054907228143317902 -2.8120866647586837e-06 0 0.05488175712861372 -1.5696661655390989e-05 0 0.054859570809503981 1.1300010318503947e-05 0 0.054907228143317902 -2.8120866647586837e-06 0 0.05488175712861372 -1.5696661655390989e-05 0 0.047365743957268204 0.00022595069442889605 0 0.047070712569990653 0.00044204686693782473 0 0.047393796970294437 0.00057267212974666261 0 0.051174786524725013 -7.0870573030135472e-05 0 0.05105742757672737 0.00013384953108587261 0 0.047949114962015676 0.00011422067204966569 0 0.047365743957268204 0.00022595069442889605 0 0.047693045121614763 0.0003645892648455446 0 0.047365743957268204 0.00022595069442889605 0 0.047693045121614763 0.0003645892648455446 0 0.047393796970294437 0.00057267212974666261 0 0.047693045121614763 0.0003645892648455446 0 0.047393796970294437 0.00057267212974666261 0 0.047947023429425903 0.00054946685268906505 0 0.045809889832897834 0.00026109776537722417 0 0.046046118096264993 0.00049384295016593517 0 0.045553487339521796 0.00034224160860805736 0 0.046728888945605333 0.0005223619739467254 0 0.046734626114328083 0.00043790982010449115 0 0.045809889832897834 0.00026109776537722417 0 0.046046118096264993 0.00049384295016593517 0 0.04606895953793895 0.00018878273029061511 0 0.046728888945605333 0.0005223619739467254 0 0.046743248901291432 0.00051300572952748126 0 0.047070712569990653 0.00044204686693782473 0 0.047393796970294437 0.00057267212974666261 0 0.046748460424059016 0.00050521327240992764 0 0.046046118096264993 0.00049384295016593517 0 0.046748460424059016 0.00050521327240992764 0 0.046403180979826007 0.00031610207869841439 0 0.046046118096264993 0.00049384295016593517 0 0.046199390921037385 0.00029293904178239361 0 0.046403180979826007 0.00031610207869841439 0 0.046199390921037385 0.00029293904178239361 0 0.046280669482397861 0.00018459478820289605 0 0.046403180979826007 0.00031610207869841439 0 0.046046118096264993 0.00049384295016593517 0 0.046199390921037385 0.00029293904178239361 0 0.04606895953793895 0.00018878273029061511 0 0.046263585251644437 4.8005605639494405e-06 0 0.046002315206442275 -1.9694077204885048e-05 0 0.046315875049569841 -3.9533845040589582e-05 0 0.046199390921037385 0.00029293904178239361 0 0.04606895953793895 0.00018878273029061511 0 0.046280669482397861 0.00018459478820289605 0 0.046280669482397861 0.00018459478820289605 0 0.046263585251644437 4.8005605639494405e-06 0 0.046475831501399494 0.00016336717175612545 0 0.04606895953793895 0.00018878273029061511 0 0.046280669482397861 0.00018459478820289605 0 0.046263585251644437 4.8005605639494405e-06 0 0.044152332217026476 -0.00042771930913140164 0 0.042895489953964715 0.00010992630667347717 0 0.04606895953793895 0.00018878273029061511 0 0.046263585251644437 4.8005605639494405e-06 0 0.046002315206442275 -1.9694077204885048e-05 0 0.046002315206442275 -1.9694077204885048e-05 0 0.045740822473131888 8.8676866546737648e-05 0 0.045903342907837284 0.00012860722740625202 0 0.045809889832897834 0.00026109776537722417 0 0.045740822473131888 8.8676866546737648e-05 0 0.045903342907837284 0.00012860722740625202 0 0.045809889832897834 0.00026109776537722417 0 0.045740822473131888 8.8676866546737648e-05 0 0.04560829574475881 0.00021771349849227103 0 0.04606895953793895 0.00018878273029061511 0 0.046002315206442275 -1.9694077204885048e-05 0 0.045903342907837284 0.00012860722740625202 0 0.045809889832897834 0.00026109776537722417 0 0.04606895953793895 0.00018878273029061511 0 0.045903342907837284 0.00012860722740625202 0 0.045735208891721266 0.00025325821588238545 0 0.048657144208505726 -0.00024148940416029199 0 0.046868495676437867 0.00024318959280699671 0 0.046748460424059016 0.00050521327240992764 0 0.047165906814729264 0.00045514100306592653 0 0.046766034238032238 0.00049615019321069711 0 0.046748460424059016 0.00050521327240992764 0 0.047165906814729264 0.00045514100306592653 0 0.046868495676437867 0.00024318959280699671 0 0.046634707665530975 0.00031762665715819743 0 0.046475831501399494 0.00016336717175612545 0 0.046868495676437867 0.00024318959280699671 0 0.046634707665530975 0.00031762665715819743 0 0.046748460424059016 0.00050521327240992764 0 0.046634707665530975 0.00031762665715819743 0 0.046748460424059016 0.00050521327240992764 0 0.046403180979826007 0.00031610207869841439 0 0.046634707665530975 0.00031762665715819743 0 0.046403180979826007 0.00031610207869841439 0 0.046475831501399494 0.00016336717175612545 0 0.045735208891721266 0.00025325821588238545 0 0.042895489953964715 0.00010992630667347717 0 0.046868495676437867 0.00024318959280699671 0 0.046475831501399494 0.00016336717175612545 0 0.046365957134070983 -6.9514336259249719e-05 0 0.044581321368681114 0.00013554897438188793 0 0.044972686310665179 0.00039977601827940399 0 0.044679677075061347 0.00064629085457827869 0 0.046280669482397861 0.00018459478820289605 0 0.046403180979826007 0.00031610207869841439 0 0.046475831501399494 0.00016336717175612545 0 0.046263585251644437 4.8005605639494405e-06 0 0.046475831501399494 0.00016336717175612545 0 0.046365957134070983 -6.9514336259249719e-05 0 0.044581321368681114 0.00013554897438188793 0 0.044679677075061347 0.00064629085457827869 0 0.044245327311420633 0.00034749121974352157 0 0.040432457558243706 0.00021690980953552173 0 0.04058094801797018 0.00039664002752487617 0 0.044679677075061347 0.00064629085457827869 0 0.044334087984912986 0.00069616095363318092 0 0.044271122293168624 0.0013199678813220997 0 0.044679677075061347 0.00064629085457827869 0 0.044334087984912986 0.00069616095363318092 0 0.044245327311420633 0.00034749121974352157 0 0.042895489953964715 0.00010992630667347717 0 0.040432457558243706 0.00021690980953552173 0 0.037063065081211495 -0.00071090801050868399 0 0.036770958247670238 -0.00049722797749530913 0 0.03702405931997816 -0.00033964463576247798 0 0.036770958247670238 -0.00049722797749530913 0 0.036814200203694726 -0.00017213338444687168 0 0.03702405931997816 -0.00033964463576247798 0 0.036814200203694726 -0.00017213338444687168 0 0.03702405931997816 -0.00033964463576247798 0 0.036930226198621657 -6.4420269061088456e-05 0 0.036770958247670238 -0.00049722797749530913 0 0.036529065410123997 -0.00029652790236640977 0 0.036601777157499529 -9.866371057890507e-05 0 0.036770958247670238 -0.00049722797749530913 0 0.036814200203694726 -0.00017213338444687168 0 0.036601777157499529 -9.866371057890507e-05 0 0.045740822473131888 8.8676866546737648e-05 0 0.045903648376485341 -0.00019824077201813085 0 0.045626149537072523 -6.9686976628854593e-05 0 0.046002315206442275 -1.9694077204885048e-05 0 0.045740822473131888 8.8676866546737648e-05 0 0.045903648376485341 -0.00019824077201813085 0 0.046002315206442275 -1.9694077204885048e-05 0 0.046315875049569841 -3.9533845040589582e-05 0 0.045903648376485341 -0.00019824077201813085 0 0.037063065081211495 -0.00071090801050868399 0 0.037390669383808382 -0.0005232222477177769 0 0.03702405931997816 -0.00033964463576247798 0 0.042895489953964715 0.00010992630667347717 0 0.041364097208915193 -0.00051085519893554095 0 0.037390669383808382 -0.0005232222477177769 0 0.03702405931997816 -0.00033964463576247798 0 0.037192465983610395 -0.00014308678474375739 0 0.03702405931997816 -0.00033964463576247798 0 0.037192465983610395 -0.00014308678474375739 0 0.036930226198621657 -6.4420269061088456e-05 0 0.037390669383808382 -0.0005232222477177769 0 0.037831014208428541 -0.00030061288970102961 0 0.037192465983610395 -0.00014308678474375739 0 0.041364097208915193 -0.00051085519893554095 0 0.042063343326549769 -0.00030919901656571404 0 0.045634338682846783 -0.00043317387967780946 0 0.045626149537072523 -6.9686976628854593e-05 0 0.045293072755812312 -0.00016708604678471734 0 0.045903648376485341 -0.00019824077201813085 0 0.045634338682846783 -0.00043317387967780946 0 0.045626149537072523 -6.9686976628854593e-05 0 0.045626149537072523 -6.9686976628854593e-05 0 0.045433972935953075 6.4899784228607499e-05 0 0.045293072755812312 -0.00016708604678471734 0 0.045248133072730616 0.00013476887961809807 0 0.045433972935953075 6.4899784228607499e-05 0 0.045293072755812312 -0.00016708604678471734 0 0.045248133072730616 0.00013476887961809807 0 0.045293072755812312 -0.00016708604678471734 0 0.04495901703472039 3.0256260427516882e-05 0 0.045293072755812312 -0.00016708604678471734 0 0.044761569170992659 -0.00043269549675301153 0 0.045037774363506068 -0.001092277959965071 0 0.045634338682846783 -0.00043317387967780946 0 0.045293072755812312 -0.00016708604678471734 0 0.045037774363506068 -0.001092277959965071 0 0.044761569170992659 -0.00043269549675301153 0 0.044015976250775017 4.3050789968510612e-05 0 0.044041677032444146 -0.0010862055768169889 0 0.044761569170992659 -0.00043269549675301153 0 0.044015976250775017 4.3050789968510612e-05 0 0.04495901703472039 3.0256260427516882e-05 0 0.045293072755812312 -0.00016708604678471734 0 0.044761569170992659 -0.00043269549675301153 0 0.04495901703472039 3.0256260427516882e-05 0 0.041500961247915469 -2.9262611234474167e-06 0 0.044015976250775017 4.3050789968510612e-05 0 0.044002029054986055 1.5131861382234412e-06 0 0.041500961247915469 -2.9262611234474167e-06 0 0.044015976250775017 4.3050789968510612e-05 0 0.044041677032444146 -0.0010862055768169889 0 0.044015976250775017 4.3050789968510612e-05 0 0.044002029054986055 1.5131861382234412e-06 0 0.045093023586242141 0.00019777972958307725 0 0.044015976250775017 4.3050789968510612e-05 0 0.04495901703472039 3.0256260427516882e-05 0 0.045093023586242141 0.00019777972958307725 0 0.045248133072730616 0.00013476887961809807 0 0.04495901703472039 3.0256260427516882e-05 0 0.045093023586242141 0.00019777972958307725 0 0.045248133072730616 0.00013476887961809807 0 0.045093023586242141 0.00019777972958307725 0 0.045418987670084628 0.00020268275815995163 0 0.045093023586242141 0.00019777972958307725 0 0.046092074139152672 0.00013513955305934029 0 0.045418987670084628 0.00020268275815995163 0 0.044002029054986055 1.5131861382234412e-06 0 0.045093023586242141 0.00019777972958307725 0 0.046092074139152672 0.00013513955305934029 0 0.044002029054986055 1.5131861382234412e-06 0 0.046092074139152672 0.00013513955305934029 0 0.046507051759592175 -1.5585315447302914e-07 0 0.046092074139152672 0.00013513955305934029 0 0.046507051759592175 -1.5585315447302914e-07 0 0.047424113092069599 0.0002227216596943113 0 0.049013738713715692 1.3530460932716638e-06 0 0.046507051759592175 -1.5585315447302914e-07 0 0.047424113092069599 0.0002227216596943113 0 0.046092074139152672 0.00013513955305934029 0 0.045418987670084628 0.00020268275815995163 0 0.045439769052699461 2.9100834459277965e-05 0 0.046092074139152672 0.00013513955305934029 0 0.047424113092069599 0.0002227216596943113 0 0.047445983264152856 0.00030990047632920568 0 0.046127698048115985 6.828297308287374e-05 0 0.04705131209754209 0.00030447725135358746 0 0.046092074139152672 0.00013513955305934029 0 0.047445983264152856 0.00030990047632920568 0 0.047709997889064486 0.00026925823768430174 0 0.048112100194746106 0.00028101321913083971 0 0.047424113092069599 0.0002227216596943113 0 0.047445983264152856 0.00030990047632920568 0 0.047445983264152856 0.00030990047632920568 0 0.047709997889064486 0.00026925823768430174 0 0.047635923993313782 0.00028571784009652311 0 0.047686060814858655 0.00029340753601947108 0 0.047445983264152856 0.00030990047632920568 0 0.047635923993313782 0.00028571784009652311 0 0.047686060814858655 0.00029340753601947108 0 0.047709997889064486 0.00026925823768430174 0 0.047635923993313782 0.00028571784009652311 0 0.047528789112016641 4.8285921945186849e-05 0 0.04705131209754209 0.00030447725135358746 0 0.048166750241245705 0.000352436449229734 0 0.048376788303976043 0.00054688883420212289 0 0.047947023429425903 0.00054946685268906505 0 0.045439769052699461 2.9100834459277965e-05 0 0.045447442331075477 0.00018052201586368248 0 0.045553487339521796 0.00034224160860805736 0 0.04705131209754209 0.00030447725135358746 0 0.046734626114328083 0.00043790982010449115 0 0.045418987670084628 0.00020268275815995163 0 0.045439769052699461 2.9100834459277965e-05 0 0.045447442331075477 0.00018052201586368248 0 0.045809889832897834 0.00026109776537722417 0 0.045553487339521796 0.00034224160860805736 0 0.04560829574475881 0.00021771349849227103 0 0.045447442331075477 0.00018052201586368248 0 0.045553487339521796 0.00034224160860805736 0 0.04560829574475881 0.00021771349849227103 0 0.045447442331075477 0.00018052201586368248 0 0.04560829574475881 0.00021771349849227103 0 0.045531565013894881 0.00014568956125354798 0 0.045740822473131888 8.8676866546737648e-05 0 0.04560829574475881 0.00021771349849227103 0 0.045531565013894881 0.00014568956125354798 0 0.045740822473131888 8.8676866546737648e-05 0 0.045626149537072523 -6.9686976628854593e-05 0 0.045531565013894881 0.00014568956125354798 0 0.045626149537072523 -6.9686976628854593e-05 0 0.045433972935953075 6.4899784228607499e-05 0 0.045531565013894881 0.00014568956125354798 0 0.045433972935953075 6.4899784228607499e-05 0 0.045531565013894881 0.00014568956125354798 0 0.04540559700004998 0.00016330764255763895 0 0.045248133072730616 0.00013476887961809807 0 0.045433972935953075 6.4899784228607499e-05 0 0.04540559700004998 0.00016330764255763895 0 0.045248133072730616 0.00013476887961809807 0 0.045418987670084628 0.00020268275815995163 0 0.04540559700004998 0.00016330764255763895 0 0.045418987670084628 0.00020268275815995163 0 0.045447442331075477 0.00018052201586368248 0 0.04540559700004998 0.00016330764255763895 0 0.045447442331075477 0.00018052201586368248 0 0.045531565013894881 0.00014568956125354798 0 0.04540559700004998 0.00016330764255763895 0 0.055000101405439879 -4.9700344942882513e-08 0 0.05495751767376527 1.2876882823562238e-05 0 0.054999336065603761 1.6699542345093029e-07 0 0.054419919688741041 -0.00056186230432345976 0 0.053835559633115322 -0.00010356248295789046 0 0.052955850149577682 -0.00034365763493571976 0 0.052331000530741051 0.00013062830455540827 0 0.052955850149577682 -0.00034365763493571976 0 0.052480818703336679 8.2023183135266728e-05 0 0.053423749630201342 -0.00027896863050892989 0 0.05298722223856734 -0.00030616192902616616 0 0.054076615611690436 0.00012095917624403061 0 0.053835559633115322 -0.00010356248295789046 0 0.053305288347560154 1.1585533046100264e-05 0 0.053835559633115322 -0.00010356248295789046 0 0.053305288347560154 1.1585533046100264e-05 0 0.052955850149577682 -0.00034365763493571976 0 0.054076615611690436 0.00012095917624403061 0 0.053835559633115322 -0.00010356248295789046 0 0.054379317756165342 -5.8434965905352983e-06 0 0.054419919688741041 -0.00056186230432345976 0 0.053835559633115322 -0.00010356248295789046 0 0.054379317756165342 -5.8434965905352983e-06 0 0.054076615611690436 0.00012095917624403061 0 0.054539320123339112 0.00022145485956820166 0 0.054557933083000131 0.00025708141433317073 0 0.054076615611690436 0.00012095917624403061 0 0.054379317756165342 -5.8434965905352983e-06 0 0.054557933083000131 0.00025708141433317073 0 0.055000200843460786 2.9953200808781172e-08 0 0.054955527444937667 3.1609393246380407e-05 0 0.055031034404419116 0.00011062815502245197 0 0.05499991758941325 6.2853904410266546e-08 0 0.054783775428898319 0.00021566871915411513 0 0.054999233668012668 -5.4655694336632709e-08 0 0.054539320123339112 0.00022145485956820166 0 0.054557933083000131 0.00025708141433317073 0 0.054999233668012668 -5.4655694336632709e-08 0 0.054539320123339112 0.00022145485956820166 0 0.054998596386815139 9.8656574973119331e-07 0 0.054539320123339112 0.00022145485956820166 0 0.054998596386815139 9.8656574973119331e-07 0 0.053578792508877877 0.00046257430577885188 0 0.054076615611690436 0.00012095917624403061 0 0.054539320123339112 0.00022145485956820166 0 0.053578792508877877 0.00046257430577885188 0 0.054076615611690436 0.00012095917624403061 0 0.053578792508877877 0.00046257430577885188 0 0.053305288347560154 1.1585533046100264e-05 0 0.05495751767376527 1.2876882823562238e-05 0 0.054901472368740226 1.297729785572854e-05 0 0.054876937136016463 2.3581235385386424e-05 0 0.054999550445883331 -4.9929678575593802e-08 0 0.054255563485355311 0.00017609643238558132 0 0.054255563485355311 0.00017609643238558132 0 0.053423392196131618 -5.0850646847002762e-05 0 0.052191583909523172 0.00014106441624454048 0 0.052320644316315612 -7.7975191361102509e-06 0 0.051530321361700313 9.8583805425530118e-05 0 0.053578792508877877 0.00046257430577885188 0 0.052191583909523172 0.00014106441624454048 0 0.052320644316315612 -7.7975191361102509e-06 0 0.052320644316315612 -7.7975191361102509e-06 0 0.053305288347560154 1.1585533046100264e-05 0 0.052807759250994207 -0.00022626247318555256 0 0.053578792508877877 0.00046257430577885188 0 0.052320644316315612 -7.7975191361102509e-06 0 0.053305288347560154 1.1585533046100264e-05 0 0.053305288347560154 1.1585533046100264e-05 0 0.052807759250994207 -0.00022626247318555256 0 0.052955850149577682 -0.00034365763493571976 0 0.052955850149577682 -0.00034365763493571976 0 0.052756901402390671 -0.00028319561841912301 0 0.052638709136758929 -3.9803610722516123e-05 0 0.052807759250994207 -0.00022626247318555256 0 0.052955850149577682 -0.00034365763493571976 0 0.052756901402390671 -0.00028319561841912301 0 0.052206509390445681 -5.0971504196603194e-05 0 0.052244575893287473 0.00041279501559837847 0 0.052320644316315612 -7.7975191361102509e-06 0 0.051223276972107386 0.00021021232116172074 0 0.051530321361700313 9.8583805425530118e-05 0 0.052320644316315612 -7.7975191361102509e-06 0 0.052807759250994207 -0.00022626247318555256 0 0.052756901402390671 -0.00028319561841912301 0 0.054807345237161721 2.4569123040822097e-05 0 0.054876937136016463 2.3581235385386424e-05 0 0.054734114842403009 4.604074176753282e-05 0 0.054807345237161721 2.4569123040822097e-05 0 0.054734114842403009 4.604074176753282e-05 0 0.0546347747235085 5.0269357809085471e-05 0 0.054876937136016463 2.3581235385386424e-05 0 0.054837894636894542 1.7726385930955948e-05 0 0.054734114842403009 4.604074176753282e-05 0 0.053423392196131618 -5.0850646847002762e-05 0 0.053918548804659017 0.00042455408904735386 0 0.054901472368740226 1.297729785572854e-05 0 0.054807345237161721 2.4569123040822097e-05 0 0.054876937136016463 2.3581235385386424e-05 0 0.05495751767376527 1.2876882823562238e-05 0 0.054876937136016463 2.3581235385386424e-05 0 0.054999336065603761 1.6699542345093029e-07 0 0.054927060677435191 -6.9560683905050647e-06 0 0.054999336065603761 1.6699542345093029e-07 0 0.054837894636894542 1.7726385930955948e-05 0 0.054876937136016463 2.3581235385386424e-05 0 0.054999336065603761 1.6699542345093029e-07 0 0.054837894636894542 1.7726385930955948e-05 0 0.054820597914620565 2.6872806490027219e-05 0 0.054837894636894542 1.7726385930955948e-05 0 0.054745217971745599 4.556033822154561e-05 0 0.054927060677435191 -6.9560683905050647e-06 0 0.054820597914620565 2.6872806490027219e-05 0 0.054837894636894542 1.7726385930955948e-05 0 0.054837894636894542 1.7726385930955948e-05 0 0.054745217971745599 4.556033822154561e-05 0 0.054734114842403009 4.604074176753282e-05 0 0.054734114842403009 4.604074176753282e-05 0 0.054693062207449968 6.5123663280418673e-05 0 0.05461629236645716 8.7813474902736162e-05 0 0.054745217971745599 4.556033822154561e-05 0 0.054734114842403009 4.604074176753282e-05 0 0.054693062207449968 6.5123663280418673e-05 0 0.054745217971745599 4.556033822154561e-05 0 0.054693062207449968 6.5123663280418673e-05 0 0.054714703197256902 9.6886849058462122e-05 0 0.054820597914620565 2.6872806490027219e-05 0 0.054745217971745599 4.556033822154561e-05 0 0.054714703197256902 9.6886849058462122e-05 0 0.044581321368681114 0.00013554897438188793 0 0.044379764509004362 3.8759324398879469e-05 0 0.044288275657456619 0.00017477832318143799 0 0.044379764509004362 3.8759324398879469e-05 0 0.044315339438933531 0.000107450406578221 0 0.044288275657456619 0.00017477832318143799 0 0.048657144208505726 -0.00024148940416029199 0 0.04978356642179059 -3.0095106679035721e-05 0 0.054693062207449968 6.5123663280418673e-05 0 0.054714703197256902 9.6886849058462122e-05 0 0.05461629236645716 8.7813474902736162e-05 0 0.054734114842403009 4.604074176753282e-05 0 0.05461629236645716 8.7813474902736162e-05 0 0.0546347747235085 5.0269357809085471e-05 0 0.044315339438933531 0.000107450406578221 0 0.04411461216285683 0.00025453284930716054 0 0.044333425221399061 0.00012532078661791032 0 0.04978356642179059 -3.0095106679035721e-05 0 0.047976744749705987 -4.4844565140611459e-05 0 0.044315339438933531 0.000107450406578221 0 0.04411461216285683 0.00025453284930716054 0 0.044288275657456619 0.00017477832318143799 0 0.04258043802514986 -0.00064618002973746238 0 0.047976744749705987 -4.4844565140611459e-05 0 0.044581321368681114 0.00013554897438188793 0 0.044288275657456619 0.00017477832318143799 0 0.044245327311420633 0.00034749121974352157 0 0.04411461216285683 0.00025453284930716054 0 0.044288275657456619 0.00017477832318143799 0 0.044245327311420633 0.00034749121974352157 0 0.044334087984912986 0.00069616095363318092 0 0.044245327311420633 0.00034749121974352157 0 0.043815197473852555 0.00066692694851742875 0 0.04411461216285683 0.00025453284930716054 0 0.044245327311420633 0.00034749121974352157 0 0.043815197473852555 0.00066692694851742875 0 0.044334087984912986 0.00069616095363318092 0 0.043815197473852555 0.00066692694851742875 0 0.044271122293168624 0.0013199678813220997 0 0.036529065410123997 -0.00029652790236640977 0 0.0363133749131666 -0.0001139156292663532 0 0.036601777157499529 -9.866371057890507e-05 0 0.04058094801797018 0.00039664002752487617 0 0.03861853548806387 0.0017515874756251818 0 0.044271122293168624 0.0013199678813220997 0 0.043394403093930341 0.001456176157841878 0 0.042845337353456296 0.0026733228342463149 0 0.043815197473852555 0.00066692694851742875 0 0.044271122293168624 0.0013199678813220997 0 0.043394403093930341 0.001456176157841878 0 0.042232312683998435 0.0017630126864446344 0 0.03861853548806387 0.0017515874756251818 0 0.041113366841386591 0.0027504043380781745 0 0.040828064453918976 0.00088731553079880331 0 0.042182977846794437 0.0033194824389662669 0 0.042560450002294185 0.0011931576824969455 0 0.040828064453918976 0.00088731553079880331 0 0.042845337353456296 0.0026733228342463149 0 0.043394403093930341 0.001456176157841878 0 0.042560450002294185 0.0011931576824969455 0 0.042845337353456296 0.0026733228342463149 0 0.043815197473852555 0.00066692694851742875 0 0.043394403093930341 0.001456176157841878 0 0.042560450002294185 0.0011931576824969455 0 0.042260557795055366 -0.00072545126280942418 0 0.043815197473852555 0.00066692694851742875 0 0.042005322891681268 0.00029130336342691245 0 0.04258043802514986 -0.00064618002973746238 0 0.044007503565966014 0.00083167338403875089 0 0.043815197473852555 0.00066692694851742875 0 0.042560450002294185 0.0011931576824969455 0 0.042005322891681268 0.00029130336342691245 0 0.042560450002294185 0.0011931576824969455 0 0.042005322891681268 0.00029130336342691245 0 0.040828064453918976 0.00088731553079880331 0 0.042260557795055366 -0.00072545126280942418 0 0.042005322891681268 0.00029130336342691245 0 0.040942470460875291 -0.00031461161476194449 0 0.042005322891681268 0.00029130336342691245 0 0.040828064453918976 0.00088731553079880331 0 0.040942470460875291 -0.00031461161476194449 0 0.040828064453918976 0.00088731553079880331 0 0.040272809589091851 0.0007032099476847319 0 0.040942470460875291 -0.00031461161476194449 0 0.041113366841386591 0.0027504043380781745 0 0.040828064453918976 0.00088731553079880331 0 0.039984332403415555 0.0014312526527702357 0 0.041113366841386591 0.0027504043380781745 0 0.031718260817159172 0.0024050524865950346 0 0.036539763284222281 0.004054573105408992 0 0.040968710493197794 0.0027110779389333782 0 0.035816292674420318 0.0020951318575190706 0 0.031718260817159172 0.0024050524865950346 0 0.028783803898187674 0.0029235796144207234 0 0.033443480505009317 0.0046062486098109312 0 0.028609175238665071 0.0030762862961492532 0 0.030378401435614006 0.0042946386141052926 0 0.028783803898187674 0.0029235796144207234 0 0.02691255165745083 0.0041306782302259959 0 0.027800386192208839 0.0036189520424530675 0 0.031718260817159172 0.0024050524865950346 0 0.033443480505009317 0.0046062486098109312 0 0.036539763284222281 0.004054573105408992 0 0.040828064453918976 0.00088731553079880331 0 0.039984332403415555 0.0014312526527702357 0 0.040272809589091851 0.0007032099476847319 0 0.039984332403415555 0.0014312526527702357 0 0.039600751059955502 0.00064088015904315108 0 0.040272809589091851 0.0007032099476847319 0 0.039600751059955502 0.00064088015904315108 0 0.040272809589091851 0.0007032099476847319 0 0.040042050899478689 4.6879921320159679e-05 0 0.040272809589091851 0.0007032099476847319 0 0.040042050899478689 4.6879921320159679e-05 0 0.040942470460875291 -0.00031461161476194449 0 0.040042050899478689 4.6879921320159679e-05 0 0.04041502711308647 -0.0013156221396252491 0 0.03974605746204761 -0.00060144433411509217 0 0.040042050899478689 4.6879921320159679e-05 0 0.040942470460875291 -0.00031461161476194449 0 0.04041502711308647 -0.0013156221396252491 0 0.040942470460875291 -0.00031461161476194449 0 0.041349790749717986 -0.0016361116927459246 0 0.04041502711308647 -0.0013156221396252491 0 0.042260557795055366 -0.00072545126280942418 0 0.040942470460875291 -0.00031461161476194449 0 0.041349790749717986 -0.0016361116927459246 0 0.053918548804659017 0.00042455408904735386 0 0.047976744749705987 -4.4844565140611459e-05 0 0.051223276972107386 0.00021021232116172074 0 0.051530321361700313 9.8583805425530118e-05 0 0.05116428555917215 0.00072636256740705118 0 0.051530321361700313 9.8583805425530118e-05 0 0.05172670929031372 0.00059065252557818069 0 0.05116428555917215 0.00072636256740705118 0 0.047976744749705987 -4.4844565140611459e-05 0 0.045358420553735512 -0.00017434266143292329 0 0.051223276972107386 0.00021021232116172074 0 0.05116428555917215 0.00072636256740705118 0 0.050405651672367352 0.00098838770853763619 0 0.052244575893287473 0.00041279501559837847 0 0.045841487290497529 -0.001417514698383427 0 0.052756901402390671 -0.00028319561841912301 0 0.052638709136758929 -3.9803610722516123e-05 0 0.052556962602525653 9.2696214136971428e-05 0 0.045841487290497529 -0.001417514698383427 0 0.046372694842599448 -0.0028951967189010238 0 0.040734431972532778 -0.0058678828682035807 0 0.040436667964942441 -0.0057706334646660832 0 0.040395530674111162 -0.0057616596941979176 0 0.040734431972532778 -0.0058678828682035807 0 0.040395530674111162 -0.0057616596941979176 0 0.040510985896838374 -0.0057788227617053996 0 0.052638709136758929 -3.9803610722516123e-05 0 0.052556962602525653 9.2696214136971428e-05 0 0.052332675717131558 0.0002279675718807615 0 0.039499069955882045 -0.0010525080770283958 0 0.03974605746204761 -0.00060144433411509217 0 0.039002629656359478 -1.2997999688394634e-05 0 0.045358420553735512 -0.00017434266143292329 0 0.045841487290497529 -0.001417514698383427 0 0.045841487290497529 -0.001417514698383427 0 0.039780254201337122 -0.0036613409125014454 0 0.04041502711308647 -0.0013156221396252491 0 0.039499069955882045 -0.0010525080770283958 0 0.03974605746204761 -0.00060144433411509217 0 0.039600751059955502 0.00064088015904315108 0 0.039002629656359478 -1.2997999688394634e-05 0 0.038719063878765489 0.00098428324592699803 0 0.040042050899478689 4.6879921320159679e-05 0 0.03974605746204761 -0.00060144433411509217 0 0.039002629656359478 -1.2997999688394634e-05 0 0.039600751059955502 0.00064088015904315108 0 0.040042050899478689 4.6879921320159679e-05 0 0.039002629656359478 -1.2997999688394634e-05 0 0.039780254201337122 -0.0036613409125014454 0 0.033854931793627224 0.00042214803806176355 0 0.039984332403415555 0.0014312526527702357 0 0.039600751059955502 0.00064088015904315108 0 0.038719063878765489 0.00098428324592699803 0 0.031718260817159172 0.0024050524865950346 0 0.026230391940055466 0.0025090099936565893 0 0.028783803898187674 0.0029235796144207234 0 0.035816292674420318 0.0020951318575190706 0 0.033854931793627224 0.00042214803806176355 0 0.026230391940055466 0.0025090099936565893 0 0.027806826510939874 0.0037227058099709551 0 0.027351405154999286 0.0037154330360827091 0 0.033854931793627224 0.00042214803806176355 0 0.028922125619391718 0.0041963417923616417 0 0.026230391940055466 0.0025090099936565893 0 0.028783803898187674 0.0029235796144207234 0 0.027806826510939874 0.0037227058099709551 0 0.028783803898187674 0.0029235796144207234 0 0.027806826510939874 0.0037227058099709551 0 0.027800386192208839 0.0036189520424530675 0 0.02764841319568773 0.0044251060478446109 0 0.028027372026853337 0.0039606422309051851 0 0.028788884506086593 0.0045928402799071313 0 0.033854931793627224 0.00042214803806176355 0 0.034754276931782291 -0.00068550996610319869 0 0.02764841319568773 0.0044251060478446109 0 0.028027372026853337 0.0039606422309051851 0 0.027351405154999286 0.0037154330360827091 0 0.040436667964942441 -0.0057706334646660832 0 0.04009634855938389 -0.0058124156933461457 0 0.040395530674111162 -0.0057616596941979176 0 0.04009634855938389 -0.0058124156933461457 0 0.040395530674111162 -0.0057616596941979176 0 0.04030864760211772 -0.0057926779736807285 0 0.04030864760211772 -0.0057926779736807285 0 0.040452851975759277 -0.0057267025130334258 0 0.040510985896838374 -0.0057788227617053996 0 0.040395530674111162 -0.0057616596941979176 0 0.04030864760211772 -0.0057926779736807285 0 0.040510985896838374 -0.0057788227617053996 0 0.028788884506086593 0.0045928402799071313 0 0.029273678255710905 0.0040398975814961496 0 0.028479567257960595 0.0036588520042625163 0 0.028027372026853337 0.0039606422309051851 0 0.028788884506086593 0.0045928402799071313 0 0.028479567257960595 0.0036588520042625163 0 0.028788884506086593 0.0045928402799071313 0 0.029273678255710905 0.0040398975814961496 0 0.029792544311288572 0.0048255646676567451 0 0.040452851975759277 -0.0057267025130334258 0 0.040510985896838374 -0.0057788227617053996 0 0.040525627228326408 -0.0056617519990286216 0 0.04030864760211772 -0.0057926779736807285 0 0.040452851975759277 -0.0057267025130334258 0 0.040516536796326059 -0.0057032168186173619 0 0.034754276931782291 -0.00068550996610319869 0 0.034074606945140862 -0.00055995187574474576 0 0.040452851975759277 -0.0057267025130334258 0 0.040525627228326408 -0.0056617519990286216 0 0.040516536796326059 -0.0057032168186173619 0 0.046372694842599448 -0.0028951967189010238 0 0.047625757371126259 -0.003120003605930113 0 0.052332675717131558 0.0002279675718807615 0 0.052341535055947283 0.00020168086979308801 0 0.052339642924330965 0.00026509003231840826 0 0.052638709136758929 -3.9803610722516123e-05 0 0.052332675717131558 0.0002279675718807615 0 0.052480818703336679 8.2023183135266728e-05 0 0.052955850149577682 -0.00034365763493571976 0 0.052638709136758929 -3.9803610722516123e-05 0 0.052480818703336679 8.2023183135266728e-05 0 0.052332675717131558 0.0002279675718807615 0 0.052480818703336679 8.2023183135266728e-05 0 0.052341535055947283 0.00020168086979308801 0 0.052331000530741051 0.00013062830455540827 0 0.052480818703336679 8.2023183135266728e-05 0 0.052341535055947283 0.00020168086979308801 0 0.029020615819716423 0.0014018455967399475 0 0.029170581544290863 0.0020311773339354187 0 0.029615301333570324 0.0017266502269826808 0 0.029020615819716423 0.0014018455967399475 0 0.028467416265905314 0.0020111667950356493 0 0.029170581544290863 0.0020311773339354187 0 0.029020615819716423 0.0014018455967399475 0 0.028467416265905314 0.0020111667950356493 0 0.028412203173112896 0.0013074894904488695 0 0.028467416265905314 0.0020111667950356493 0 0.028003477888827368 0.0017044935289175743 0 0.027655823065330622 0.0022626398690043324 0 0.028467416265905314 0.0020111667950356493 0 0.028003477888827368 0.0017044935289175743 0 0.028412203173112896 0.0013074894904488695 0 0.028467416265905314 0.0020111667950356493 0 0.02812468130163992 0.0026102827421923326 0 0.028644668949392691 0.0026456346930356003 0 0.028467416265905314 0.0020111667950356493 0 0.02812468130163992 0.0026102827421923326 0 0.027655823065330622 0.0022626398690043324 0 0.029170581544290863 0.0020311773339354187 0 0.029339908870621104 0.0027158224806008669 0 0.028644668949392691 0.0026456346930356003 0 0.028467416265905314 0.0020111667950356493 0 0.029170581544290863 0.0020311773339354187 0 0.028644668949392691 0.0026456346930356003 0 0.029339908870621104 0.0027158224806008669 0 0.028937681747841313 0.0032301967631988403 0 0.029853843104222479 0.0033967758489001319 0 0.029339908870621104 0.0027158224806008669 0 0.028937681747841313 0.0032301967631988403 0 0.028644668949392691 0.0026456346930356003 0 0.029273678255710905 0.0040398975814961496 0 0.028937681747841313 0.0032301967631988403 0 0.029853843104222479 0.0033967758489001319 0 0.029273678255710905 0.0040398975814961496 0 0.028937681747841313 0.0032301967631988403 0 0.028479567257960595 0.0036588520042625163 0 0.028937681747841313 0.0032301967631988403 0 0.028479567257960595 0.0036588520042625163 0 0.028257041828078783 0.0030890069206313958 0 0.028937681747841313 0.0032301967631988403 0 0.028257041828078783 0.0030890069206313958 0 0.028644668949392691 0.0026456346930356003 0 0.02812468130163992 0.0026102827421923326 0 0.028257041828078783 0.0030890069206313958 0 0.028644668949392691 0.0026456346930356003 0 0.02812468130163992 0.0026102827421923326 0 0.028257041828078783 0.0030890069206313958 0 0.027676789015197652 0.0029504593000829224 0 0.027676789015197652 0.0029504593000829224 0 0.027735368101825648 0.003458088657858723 0 0.027362845904451774 0.0032819105933979392 0 0.028257041828078783 0.0030890069206313958 0 0.027676789015197652 0.0029504593000829224 0 0.027735368101825648 0.003458088657858723 0 0.028027372026853337 0.0039606422309051851 0 0.028479567257960595 0.0036588520042625163 0 0.027735368101825648 0.003458088657858723 0 0.028479567257960595 0.0036588520042625163 0 0.028257041828078783 0.0030890069206313958 0 0.027735368101825648 0.003458088657858723 0 0.028027372026853337 0.0039606422309051851 0 0.027735368101825648 0.003458088657858723 0 0.027351405154999286 0.0037154330360827091 0 0.027806826510939874 0.0037227058099709551 0 0.027529728442830161 0.0036060584439445804 0 0.027800386192208839 0.0036189520424530675 0 0.027806826510939874 0.0037227058099709551 0 0.027520531964385368 0.0036053713078780785 0 0.027529728442830161 0.0036060584439445804 0 0.027735368101825648 0.003458088657858723 0 0.027351405154999286 0.0037154330360827091 0 0.027520531964385368 0.0036053713078780785 0 0.027806826510939874 0.0037227058099709551 0 0.027351405154999286 0.0037154330360827091 0 0.027520531964385368 0.0036053713078780785 0 0.027735368101825648 0.003458088657858723 0 0.027520531964385368 0.0036053713078780785 0 0.027362845904451774 0.0032819105933979392 0 0.027529728442830161 0.0036060584439445804 0 0.027362845904451774 0.0032819105933979392 0 0.02704629363444935 0.0033486526602860521 0 0.027520531964385368 0.0036053713078780785 0 0.027529728442830161 0.0036060584439445804 0 0.027362845904451774 0.0032819105933979392 0 0.027362845904451774 0.0032819105933979392 0 0.026885508879791749 0.0029509427424060982 0 0.02704629363444935 0.0033486526602860521 0 0.027676789015197652 0.0029504593000829224 0 0.027362845904451774 0.0032819105933979392 0 0.027181206975571061 0.0026766824546139885 0 0.027362845904451774 0.0032819105933979392 0 0.027181206975571061 0.0026766824546139885 0 0.026885508879791749 0.0029509427424060982 0 0.027181206975571061 0.0026766824546139885 0 0.026607638382007356 0.0024957642080984696 0 0.026885508879791749 0.0029509427424060982 0 0.027181206975571061 0.0026766824546139885 0 0.027655823065330622 0.0022626398690043324 0 0.026768399844749415 0.0020727471086185957 0 0.027181206975571061 0.0026766824546139885 0 0.026768399844749415 0.0020727471086185957 0 0.026607638382007356 0.0024957642080984696 0 0.02812468130163992 0.0026102827421923326 0 0.027676789015197652 0.0029504593000829224 0 0.027655823065330622 0.0022626398690043324 0 0.027676789015197652 0.0029504593000829224 0 0.027181206975571061 0.0026766824546139885 0 0.027655823065330622 0.0022626398690043324 0 0.028003477888827368 0.0017044935289175743 0 0.027655823065330622 0.0022626398690043324 0 0.027306748972143909 0.0015681712952062647 0 0.027306748972143909 0.0015681712952062647 0 0.026768399844749415 0.0020727471086185957 0 0.026421232512915987 0.0014092516008100573 0 0.027655823065330622 0.0022626398690043324 0 0.027306748972143909 0.0015681712952062647 0 0.026768399844749415 0.0020727471086185957 0 0.026768399844749415 0.0020727471086185957 0 0.025964087181885802 0.0017063314375756827 0 0.026421232512915987 0.0014092516008100573 0 0.025893489642406849 0.0021132201173096107 0 0.025964087181885802 0.0017063314375756827 0 0.025016269116352744 0.0015919199558027009 0 0.025964087181885802 0.0017063314375756827 0 0.025016269116352744 0.0015919199558027009 0 0.025430781838090635 0.0012178585265153236 0 0.026768399844749415 0.0020727471086185957 0 0.025893489642406849 0.0021132201173096107 0 0.025964087181885802 0.0017063314375756827 0 0.025893489642406849 0.0021132201173096107 0 0.025016269116352744 0.0015919199558027009 0 0.024940029403737081 0.0020323206098286956 0 0.025016269116352744 0.0015919199558027009 0 0.024940029403737081 0.0020323206098286956 0 0.024309048575668801 0.0017605773657898439 0 0.025893489642406849 0.0021132201173096107 0 0.024940029403737081 0.0020323206098286956 0 0.025614187436423193 0.0024215171989200412 0 0.024940029403737081 0.0020323206098286956 0 0.025614187436423193 0.0024215171989200412 0 0.025124101080336615 0.0025233451737830138 0 0.025614187436423193 0.0024215171989200412 0 0.025124101080336615 0.0025233451737830138 0 0.025854909975237685 0.0028284287606373287 0 0.025614187436423193 0.0024215171989200412 0 0.026241287474624283 0.0026282726168038212 0 0.025854909975237685 0.0028284287606373287 0 0.026768399844749415 0.0020727471086185957 0 0.025893489642406849 0.0021132201173096107 0 0.026607638382007356 0.0024957642080984696 0 0.025893489642406849 0.0021132201173096107 0 0.026241287474624283 0.0026282726168038212 0 0.026607638382007356 0.0024957642080984696 0 0.025893489642406849 0.0021132201173096107 0 0.025614187436423193 0.0024215171989200412 0 0.026241287474624283 0.0026282726168038212 0 0.026241287474624283 0.0026282726168038212 0 0.026607638382007356 0.0024957642080984696 0 0.026885508879791749 0.0029509427424060982 0 0.026241287474624283 0.0026282726168038212 0 0.026885508879791749 0.0029509427424060982 0 0.026482375864832125 0.003085277212360525 0 0.026241287474624283 0.0026282726168038212 0 0.026482375864832125 0.003085277212360525 0 0.025854909975237685 0.0028284287606373287 0 0.026482375864832125 0.003085277212360525 0 0.02704629363444935 0.0033486526602860521 0 0.026627070403070399 0.0034541543944212071 0 0.026482375864832125 0.003085277212360525 0 0.026627070403070399 0.0034541543944212071 0 0.026045561885600987 0.0032177500429269152 0 0.026885508879791749 0.0029509427424060982 0 0.026482375864832125 0.003085277212360525 0 0.02704629363444935 0.0033486526602860521 0 0.027529728442830161 0.0036060584439445804 0 0.02704629363444935 0.0033486526602860521 0 0.027176813643134245 0.003642699650620806 0 0.02704629363444935 0.0033486526602860521 0 0.027176813643134245 0.003642699650620806 0 0.026627070403070399 0.0034541543944212071 0 0.027176813643134245 0.003642699650620806 0 0.026627070403070399 0.0034541543944212071 0 0.02644387771757125 0.0037915211919208017 0 0.027176813643134245 0.003642699650620806 0 0.02691255165745083 0.0041306782302259959 0 0.027800386192208839 0.0036189520424530675 0 0.027176813643134245 0.003642699650620806 0 0.02691255165745083 0.0041306782302259959 0 0.02644387771757125 0.0037915211919208017 0 0.027529728442830161 0.0036060584439445804 0 0.027176813643134245 0.003642699650620806 0 0.027800386192208839 0.0036189520424530675 0 0.033443480505009317 0.0046062486098109312 0 0.036539763284222281 0.004054573105408992 0 0.039921196993873247 0.0065202576004481571 0 0.02691255165745083 0.0041306782302259959 0 0.02644387771757125 0.0037915211919208017 0 0.025606925304479541 0.0039579824988606105 0 0.030378401435614006 0.0042946386141052926 0 0.031706852543268535 0.0037156502401971946 0 0.041113366841386591 0.0027504043380781745 0 0.036539763284222281 0.004054573105408992 0 0.039921196993873247 0.0065202576004481571 0 0.026627070403070399 0.0034541543944212071 0 0.02644387771757125 0.0037915211919208017 0 0.026241563344310277 0.0035447349148614161 0 0.02644387771757125 0.0037915211919208017 0 0.026241563344310277 0.0035447349148614161 0 0.02583888560501903 0.0037098658941376347 0 0.02644387771757125 0.0037915211919208017 0 0.02583888560501903 0.0037098658941376347 0 0.025606925304479541 0.0039579824988606105 0 0.02583888560501903 0.0037098658941376347 0 0.025409642109076969 0.0039686097985189087 0 0.025462372712936054 0.0032537453898776889 0 0.02839428440457005 0.0049468105817247138 0 0.031706852543268535 0.0037156502401971946 0 0.02583888560501903 0.0037098658941376347 0 0.025462372712936054 0.0032537453898776889 0 0.026045561885600987 0.0032177500429269152 0 0.026241563344310277 0.0035447349148614161 0 0.02583888560501903 0.0037098658941376347 0 0.026045561885600987 0.0032177500429269152 0 0.026627070403070399 0.0034541543944212071 0 0.026241563344310277 0.0035447349148614161 0 0.026045561885600987 0.0032177500429269152 0 0.026482375864832125 0.003085277212360525 0 0.026045561885600987 0.0032177500429269152 0 0.025854909975237685 0.0028284287606373287 0 0.025462372712936054 0.0032537453898776889 0 0.026045561885600987 0.0032177500429269152 0 0.025854909975237685 0.0028284287606373287 0 0.025124101080336615 0.0025233451737830138 0 0.025462372712936054 0.0032537453898776889 0 0.025854909975237685 0.0028284287606373287 0 0.025124101080336615 0.0025233451737830138 0 0.025462372712936054 0.0032537453898776889 0 0.024700655449829904 0.0029492601046165368 0 0.025409642109076969 0.0039686097985189087 0 0.025462372712936054 0.0032537453898776889 0 0.024700655449829904 0.0029492601046165368 0 0.025409642109076969 0.0039686097985189087 0 0.024700655449829904 0.0029492601046165368 0 0.023968769019966654 0.0033268565000955977 0 0.031706852543268535 0.0037156502401971946 0 0.026961971196527323 0.0020770490096186818 0 0.033896784202996855 0.0022292769106490909 0 0.032879117573827311 0.0029518724098162919 0 0.032064200399018285 0.0012988903692831267 0 0.031706852543268535 0.0037156502401971946 0 0.03861853548806387 0.0017515874756251818 0 0.041113366841386591 0.0027504043380781745 0 0.039921196993873247 0.0065202576004481571 0 0.042182977846794437 0.0033194824389662669 0 0.032879117573827311 0.0029518724098162919 0 0.031551771594439261 0.0016625296048075125 0 0.032064200399018285 0.0012988903692831267 0 0.0363133749131666 -0.0001139156292663532 0 0.03648022482044827 6.4260834760406196e-05 0 0.036601777157499529 -9.866371057890507e-05 0 0.03861853548806387 0.0017515874756251818 0 0.033826845897872403 0.0007283496024024196 0 0.031551771594439261 0.0016625296048075125 0 0.032064200399018285 0.0012988903692831267 0 0.03024855868223511 0.00037149896441233482 0 0.026961971196527323 0.0020770490096186818 0 0.030797157510718813 0.0003165947540177674 0 0.023968769019966654 0.0033268565000955977 0 0.023820783067834084 0.0025206047829834854 0 0.023035370558996824 0.0026487950001066471 0 0.024700655449829904 0.0029492601046165368 0 0.023968769019966654 0.0033268565000955977 0 0.023820783067834084 0.0025206047829834854 0 0.023820783067834084 0.0025206047829834854 0 0.023821478164994612 0.0019420056478992984 0 0.023261145675882965 0.0020673219641663657 0 0.023820783067834084 0.0025206047829834854 0 0.024468712115132355 0.0023276477010842848 0 0.023821478164994612 0.0019420056478992984 0 0.024700655449829904 0.0029492601046165368 0 0.023820783067834084 0.0025206047829834854 0 0.024468712115132355 0.0023276477010842848 0 0.025124101080336615 0.0025233451737830138 0 0.024700655449829904 0.0029492601046165368 0 0.024468712115132355 0.0023276477010842848 0 0.024940029403737081 0.0020323206098286956 0 0.025124101080336615 0.0025233451737830138 0 0.024468712115132355 0.0023276477010842848 0 0.024468712115132355 0.0023276477010842848 0 0.024309048575668801 0.0017605773657898439 0 0.023821478164994612 0.0019420056478992984 0 0.024940029403737081 0.0020323206098286956 0 0.024468712115132355 0.0023276477010842848 0 0.024309048575668801 0.0017605773657898439 0 0.025016269116352744 0.0015919199558027009 0 0.024309048575668801 0.0017605773657898439 0 0.024156416821414065 0.0012946061227550451 0 0.024309048575668801 0.0017605773657898439 0 0.023752961395523704 0.0014769338082009202 0 0.023821478164994612 0.0019420056478992984 0 0.024309048575668801 0.0017605773657898439 0 0.023752961395523704 0.0014769338082009202 0 0.024156416821414065 0.0012946061227550451 0 0.023752961395523704 0.0014769338082009202 0 0.023384765752364037 0.0015602652693523626 0 0.023821478164994612 0.0019420056478992984 0 0.023384765752364037 0.0015602652693523626 0 0.023821478164994612 0.0019420056478992984 0 0.023261145675882965 0.0020673219641663657 0 0.023568931213256789 0.001049504173419518 0 0.023120674842770608 0.0010409624337644272 0 0.023400425744456183 0.0012755692725289786 0 0.023568931213256789 0.001049504173419518 0 0.023120674842770608 0.0010409624337644272 0 0.023216004677392724 0.00070110954823319777 0 0.023120674842770608 0.0010409624337644272 0 0.023188634685037054 0.0013378401500261981 0 0.023400425744456183 0.0012755692725289786 0 0.023384765752364037 0.0015602652693523626 0 0.023188634685037054 0.0013378401500261981 0 0.023400425744456183 0.0012755692725289786 0 0.023120674842770608 0.0010409624337644272 0 0.023188634685037054 0.0013378401500261981 0 0.023021938086655341 0.0012804747501820545 0 0.023752961395523704 0.0014769338082009202 0 0.023568931213256789 0.001049504173419518 0 0.023400425744456183 0.0012755692725289786 0 0.023752961395523704 0.0014769338082009202 0 0.023384765752364037 0.0015602652693523626 0 0.023400425744456183 0.0012755692725289786 0 0.023752961395523704 0.0014769338082009202 0 0.023568931213256789 0.001049504173419518 0 0.024156416821414065 0.0012946061227550451 0 0.024156416821414065 0.0012946061227550451 0 0.023903194553870393 0.00088989201882844996 0 0.024459349662005102 0.0010023882111446329 0 0.023568931213256789 0.001049504173419518 0 0.024156416821414065 0.0012946061227550451 0 0.023903194553870393 0.00088989201882844996 0 0.023568931213256789 0.001049504173419518 0 0.023903194553870393 0.00088989201882844996 0 0.023473317201349195 0.00062656769499119694 0 0.023903194553870393 0.00088989201882844996 0 0.023473317201349195 0.00062656769499119694 0 0.023871256769976656 0.00053225986524807738 0 0.023903194553870393 0.00088989201882844996 0 0.023871256769976656 0.00053225986524807738 0 0.024459349662005102 0.0010023882111446329 0 0.023871256769976656 0.00053225986524807738 0 0.023337013911668189 0.00030187697781169692 0 0.023653724601241662 8.0802880436197503e-05 0 0.023473317201349195 0.00062656769499119694 0 0.023871256769976656 0.00053225986524807738 0 0.023337013911668189 0.00030187697781169692 0 0.023473317201349195 0.00062656769499119694 0 0.023337013911668189 0.00030187697781169692 0 0.022995924295168158 0.00033197835800204031 0 0.023337013911668189 0.00030187697781169692 0 0.022995924295168158 0.00033197835800204031 0 0.022737924309951193 -5.1234688415797211e-05 0 0.023473317201349195 0.00062656769499119694 0 0.022995924295168158 0.00033197835800204031 0 0.023216004677392724 0.00070110954823319777 0 0.022995924295168158 0.00033197835800204031 0 0.023216004677392724 0.00070110954823319777 0 0.022837622270025577 0.0004862489246314588 0 0.023568931213256789 0.001049504173419518 0 0.023473317201349195 0.00062656769499119694 0 0.023216004677392724 0.00070110954823319777 0 0.023120674842770608 0.0010409624337644272 0 0.023216004677392724 0.00070110954823319777 0 0.022837622270025577 0.0004862489246314588 0 0.022995924295168158 0.00033197835800204031 0 0.022645978972911287 0.00018037231957782632 0 0.022650743637780326 6.5557523230691341e-05 0 0.022995924295168158 0.00033197835800204031 0 0.022837622270025577 0.0004862489246314588 0 0.022645978972911287 0.00018037231957782632 0 0.022650743637780326 6.5557523230691341e-05 0 0.022447348216951428 -6.8593345090953479e-05 0 0.022491424089105209 2.395178461280793e-05 0 0.022645978972911287 0.00018037231957782632 0 0.022650743637780326 6.5557523230691341e-05 0 0.022491424089105209 2.395178461280793e-05 0 0.022650743637780326 6.5557523230691341e-05 0 0.022737924309951193 -5.1234688415797211e-05 0 0.022447348216951428 -6.8593345090953479e-05 0 0.022995924295168158 0.00033197835800204031 0 0.022650743637780326 6.5557523230691341e-05 0 0.022737924309951193 -5.1234688415797211e-05 0 0.022737924309951193 -5.1234688415797211e-05 0 0.022447348216951428 -6.8593345090953479e-05 0 0.022268808783696265 -0.00024930987167525468 0 0.022268808783696265 -0.00024930987167525468 0 0.022168896755618412 0.00020416980918083532 0 0.021771365108797115 -0.00066741015813928553 0 0.022447348216951428 -6.8593345090953479e-05 0 0.022268808783696265 -0.00024930987167525468 0 0.022343445135808899 1.1895945895048645e-05 0 0.022268808783696265 -0.00024930987167525468 0 0.022343445135808899 1.1895945895048645e-05 0 0.022168896755618412 0.00020416980918083532 0 0.02268737993192127 -0.00033386125703039276 0 0.024087706518820137 -0.00087731715479683655 0 0.021771365108797115 -0.00066741015813928553 0 0.022268808783696265 -0.00024930987167525468 0 0.02268737993192127 -0.00033386125703039276 0 0.021771365108797115 -0.00066741015813928553 0 0.023337013911668189 0.00030187697781169692 0 0.022737924309951193 -5.1234688415797211e-05 0 0.023653724601241662 8.0802880436197503e-05 0 0.022737924309951193 -5.1234688415797211e-05 0 0.02268737993192127 -0.00033386125703039276 0 0.023653724601241662 8.0802880436197503e-05 0 0.022737924309951193 -5.1234688415797211e-05 0 0.022268808783696265 -0.00024930987167525468 0 0.02268737993192127 -0.00033386125703039276 0 0.02268737993192127 -0.00033386125703039276 0 0.023653724601241662 8.0802880436197503e-05 0 0.024087706518820137 -0.00087731715479683655 0 0.023653724601241662 8.0802880436197503e-05 0 0.024087706518820137 -0.00087731715479683655 0 0.025118153208752568 0.00013870712012617229 0 0.021227002893230144 -0.0014185018872090273 0 0.02203613726393323 -0.00071780976846959473 0 0.017284766637166497 -0.0025062980991928572 0 0.017936612457470316 -0.00061291245053858676 0 0.017016975199436207 -0.00037363215414590426 0 0.019213835287189764 -0.0017454229158911192 0 0.017284766637166497 -0.0025062980991928572 0 0.017936612457470316 -0.00061291245053858676 0 0.021227002893230144 -0.0014185018872090273 0 0.023444900354762377 -0.00059151336221761289 0 0.025899769660788365 -0.0010400534045879822 0 0.025118153208752568 0.00013870712012617229 0 0.026449106186974193 0.00019825070030613981 0 0.023444900354762377 -0.00059151336221761289 0 0.025473524569067096 -0.00029284091019528882 0 0.024087706518820137 -0.00087731715479683655 0 0.025348732690088163 -0.00058455443085743441 0 0.025118153208752568 0.00013870712012617229 0 0.025118153208752568 0.00013870712012617229 0 0.025881312626397632 0.00078215002721691265 0 0.026449106186974193 0.00019825070030613981 0 0.025118153208752568 0.00013870712012617229 0 0.025881312626397632 0.00078215002721691265 0 0.024717153157379358 0.00062248200380711494 0 0.023653724601241662 8.0802880436197503e-05 0 0.025118153208752568 0.00013870712012617229 0 0.024717153157379358 0.00062248200380711494 0 0.023871256769976656 0.00053225986524807738 0 0.023653724601241662 8.0802880436197503e-05 0 0.024717153157379358 0.00062248200380711494 0 0.023871256769976656 0.00053225986524807738 0 0.024717153157379358 0.00062248200380711494 0 0.024459349662005102 0.0010023882111446329 0 0.024717153157379358 0.00062248200380711494 0 0.024459349662005102 0.0010023882111446329 0 0.025430781838090635 0.0012178585265153236 0 0.025016269116352744 0.0015919199558027009 0 0.024156416821414065 0.0012946061227550451 0 0.024459349662005102 0.0010023882111446329 0 0.025016269116352744 0.0015919199558027009 0 0.024459349662005102 0.0010023882111446329 0 0.025430781838090635 0.0012178585265153236 0 0.025881312626397632 0.00078215002721691265 0 0.024717153157379358 0.00062248200380711494 0 0.025430781838090635 0.0012178585265153236 0 0.025964087181885802 0.0017063314375756827 0 0.025430781838090635 0.0012178585265153236 0 0.026421232512915987 0.0014092516008100573 0 0.025881312626397632 0.00078215002721691265 0 0.025430781838090635 0.0012178585265153236 0 0.026421232512915987 0.0014092516008100573 0 0.025881312626397632 0.00078215002721691265 0 0.026996845600007566 0.00095240839387094245 0 0.026421232512915987 0.0014092516008100573 0 0.027306748972143909 0.0015681712952062647 0 0.026996845600007566 0.00095240839387094245 0 0.026421232512915987 0.0014092516008100573 0 0.027306748972143909 0.0015681712952062647 0 0.026996845600007566 0.00095240839387094245 0 0.027946006049015547 0.00093738014885078134 0 0.028003477888827368 0.0017044935289175743 0 0.027306748972143909 0.0015681712952062647 0 0.027946006049015547 0.00093738014885078134 0 0.027364448160432309 0.00041381134647212051 0 0.027980919043488203 0.00013347117421360084 0 0.027946006049015547 0.00093738014885078134 0 0.026996845600007566 0.00095240839387094245 0 0.027364448160432309 0.00041381134647212051 0 0.027946006049015547 0.00093738014885078134 0 0.025881312626397632 0.00078215002721691265 0 0.026996845600007566 0.00095240839387094245 0 0.026449106186974193 0.00019825070030613981 0 0.027364448160432309 0.00041381134647212051 0 0.026449106186974193 0.00019825070030613981 0 0.027073237986865999 -0.00047984106704091178 0 0.026996845600007566 0.00095240839387094245 0 0.027364448160432309 0.00041381134647212051 0 0.026449106186974193 0.00019825070030613981 0 0.025899769660788365 -0.0010400534045879822 0 0.026449106186974193 0.00019825070030613981 0 0.027073237986865999 -0.00047984106704091178 0 0.023444900354762377 -0.00059151336221761289 0 0.02775367345647994 -5.7429726268858044e-05 0 0.017284766637166497 -0.0025062980991928572 0 0.015950803686891325 -0.00011229278622277286 0 0.017016975199436207 -0.00037363215414590426 0 0.023444900354762377 -0.00059151336221761289 0 0.021510963153757032 -0.00058817758334770841 0 0.026954839632345594 -0.00018960567977457018 0 0.027621627907837738 -0.00043464123320727217 0 0.027479252994897632 5.9945883550936661e-06 0 0.026954839632345594 -0.00018960567977457018 0 0.027621627907837738 -0.00043464123320727217 0 0.02737556434266139 -0.00083311145760381735 0 0.027621627907837738 -0.00043464123320727217 0 0.027905111768736675 -0.00017588191138561576 0 0.028121313161514599 -0.00048511868754383056 0 0.027621627907837738 -0.00043464123320727217 0 0.028121313161514599 -0.00048511868754383056 0 0.027888257998806482 -0.00094632947674673311 0 0.027621627907837738 -0.00043464123320727217 0 0.027905111768736675 -0.00017588191138561576 0 0.027479252994897632 5.9945883550936661e-06 0 0.027905111768736675 -0.00017588191138561576 0 0.027479252994897632 5.9945883550936661e-06 0 0.027980919043488203 0.00013347117421360084 0 0.027364448160432309 0.00041381134647212051 0 0.027073237986865999 -0.00047984106704091178 0 0.027980919043488203 0.00013347117421360084 0 0.02775367345647994 -5.7429726268858044e-05 0 0.027726490024777187 4.9950147666144394e-06 0 0.027980919043488203 0.00013347117421360084 0 0.028367489875093559 -0.0001073546463849593 0 0.028707036333273071 0.00030986792734461155 0 0.027905111768736675 -0.00017588191138561576 0 0.027980919043488203 0.00013347117421360084 0 0.028367489875093559 -0.0001073546463849593 0 0.027905111768736675 -0.00017588191138561576 0 0.028367489875093559 -0.0001073546463849593 0 0.028121313161514599 -0.00048511868754383056 0 0.028367489875093559 -0.0001073546463849593 0 0.028121313161514599 -0.00048511868754383056 0 0.028667995964063397 -0.00034868186309727073 0 0.028121313161514599 -0.00048511868754383056 0 0.028667995964063397 -0.00034868186309727073 0 0.028431169530496282 -0.00078322192593404218 0 0.028667995964063397 -0.00034868186309727073 0 0.028431169530496282 -0.00078322192593404218 0 0.028923684848476707 -0.00064509423706180045 0 0.028367489875093559 -0.0001073546463849593 0 0.028667995964063397 -0.00034868186309727073 0 0.028887567028420155 2.3419595805248495e-05 0 0.028887567028420155 2.3419595805248495e-05 0 0.028707036333273071 0.00030986792734461155 0 0.029257429794302337 0.00037196988807622968 0 0.028367489875093559 -0.0001073546463849593 0 0.028887567028420155 2.3419595805248495e-05 0 0.028707036333273071 0.00030986792734461155 0 0.028707036333273071 0.00030986792734461155 0 0.029120972157890303 0.00081101417698915801 0 0.029257429794302337 0.00037196988807622968 0 0.028707036333273071 0.00030986792734461155 0 0.028544135632114529 0.00078615975683928008 0 0.029120972157890303 0.00081101417698915801 0 0.027980919043488203 0.00013347117421360084 0 0.028707036333273071 0.00030986792734461155 0 0.028544135632114529 0.00078615975683928008 0 0.027980919043488203 0.00013347117421360084 0 0.028544135632114529 0.00078615975683928008 0 0.027946006049015547 0.00093738014885078134 0 0.028003477888827368 0.0017044935289175743 0 0.027946006049015547 0.00093738014885078134 0 0.028412203173112896 0.0013074894904488695 0 0.028544135632114529 0.00078615975683928008 0 0.027946006049015547 0.00093738014885078134 0 0.028412203173112896 0.0013074894904488695 0 0.029020615819716423 0.0014018455967399475 0 0.028544135632114529 0.00078615975683928008 0 0.029120972157890303 0.00081101417698915801 0 0.029020615819716423 0.0014018455967399475 0 0.028544135632114529 0.00078615975683928008 0 0.028412203173112896 0.0013074894904488695 0 0.036420005259111612 0.00034867552307042498 0 0.03635030182851489 0.00015736417889716041 0 0.037424139391268062 0.00042643147164879354 0 0.037972137498984454 0.00013617076151431381 0 0.037775619329759626 0.00015922863164158721 0 0.037424139391268062 0.00042643147164879354 0 0.037775619329759626 0.00015922863164158721 0 0.037356195273274363 6.3260393193036304e-05 0 0.036420005259111612 0.00034867552307042498 0 0.036663909478787379 0.0003851880791502963 0 0.037424139391268062 0.00042643147164879354 0 0.037356195273274363 6.3260393193036304e-05 0 0.037054527713096093 0.00015531511811207001 0 0.035408298643000179 0.00034100856528622919 0 0.036125589005659271 8.5189503954602035e-05 0 0.036697449568729022 0.00037323055856001357 0 0.037424139391268062 0.00042643147164879354 0 0.037054527713096093 0.00015531511811207001 0 0.036697449568729022 0.00037323055856001357 0 0.035408298643000179 0.00034100856528622919 0 0.036125589005659271 8.5189503954602035e-05 0 0.035562971215824885 -0.00032710833094532242 0 0.036125589005659271 8.5189503954602035e-05 0 0.036796485345595466 4.9811811651829183e-05 0 0.035562971215824885 -0.00032710833094532242 0 0.035408298643000179 0.00034100856528622919 0 0.034755757318242174 0.00013602823024076412 0 0.035122326657485582 -0.00011593070482623803 0 0.035408298643000179 0.00034100856528622919 0 0.035122326657485582 -0.00011593070482623803 0 0.035562971215824885 -0.00032710833094532242 0 0.034649573082720243 0.00021516076588767698 0 0.034755757318242174 0.00013602823024076412 0 0.035122326657485582 -0.00011593070482623803 0 0.035780967555818693 8.5890645043320234e-07 0 0.034649573082720243 0.00021516076588767698 0 0.034755757318242174 0.00013602823024076412 0 0.035780967555818693 8.5890645043320234e-07 0 0.034649573082720243 0.00021516076588767698 0 0.03298172657889293 -9.94700991174358e-07 0 0.03578760509515836 5.0518036832779442e-08 0 0.03635030182851489 0.00015736417889716041 0 0.035791107875018567 -1.0997203913039491e-06 0 0.037560623171090192 0.00026037936618360892 0 0.037972137498984454 0.00013617076151431381 0 0.035791107875018567 -1.0997203913039491e-06 0 0.037560623171090192 0.00026037936618360892 0 0.038641975098374512 1.5075443368626121e-06 0 0.037972137498984454 0.00013617076151431381 0 0.037976314460519918 0.00026548978672272819 0 0.037775619329759626 0.00015922863164158721 0 0.037560623171090192 0.00026037936618360892 0 0.037972137498984454 0.00013617076151431381 0 0.037976314460519918 0.00026548978672272819 0 0.037775619329759626 0.00015922863164158721 0 0.038565311588344676 0.00011728104978009296 0 0.037688042233935681 -0.00045162678830909482 0 0.037976314460519918 0.00026548978672272819 0 0.037775619329759626 0.00015922863164158721 0 0.038565311588344676 0.00011728104978009296 0 0.037560623171090192 0.00026037936618360892 0 0.038641975098374512 1.5075443368626121e-06 0 0.038565311588344676 0.00011728104978009296 0 0.037560623171090192 0.00026037936618360892 0 0.037976314460519918 0.00026548978672272819 0 0.038565311588344676 0.00011728104978009296 0 0.041492716761325703 -1.7510168102405794e-06 0 0.038641975098374512 1.5075443368626121e-06 0 0.038565311588344676 0.00011728104978009296 0 0.041492716761325703 -1.7510168102405794e-06 0 0.038565311588344676 0.00011728104978009296 0 0.039305248803476855 -0.00015105868602513945 0 0.041496249676226692 -2.2641494886466791e-07 0 0.042037833128365384 -0.00060399286572321255 0 0.038565311588344676 0.00011728104978009296 0 0.039305248803476855 -0.00015105868602513945 0 0.039333544860882176 -0.0001571843435171884 0 0.042037833128365384 -0.00060399286572321255 0 0.039982865154673461 -0.0002023454766700569 0 0.044761569170992659 -0.00043269549675301153 0 0.044041677032444146 -0.0010862055768169889 0 0.045037774363506068 -0.001092277959965071 0 0.038053572796841323 -5.7719808389119961e-05 0 0.039982865154673461 -0.0002023454766700569 0 0.042063343326549769 -0.00030919901656571404 0 0.039982865154673461 -0.0002023454766700569 0 0.037688042233935681 -0.00045162678830909482 0 0.037356195273274363 6.3260393193036304e-05 0 0.036936822564655837 -6.9165709238141137e-05 0 0.037775619329759626 0.00015922863164158721 0 0.037688042233935681 -0.00045162678830909482 0 0.037356195273274363 6.3260393193036304e-05 0 0.037356195273274363 6.3260393193036304e-05 0 0.037054527713096093 0.00015531511811207001 0 0.036936822564655837 -6.9165709238141137e-05 0 0.037831014208428541 -0.00030061288970102961 0 0.038332846586105224 5.6576962855712924e-06 0 0.037630272081110146 0.00016829628082923846 0 0.039982865154673461 -0.0002023454766700569 0 0.036837691328036749 9.2132558023897562e-05 0 0.037630272081110146 0.00016829628082923846 0 0.037192465983610395 -0.00014308678474375739 0 0.036904272102843125 0.00021918187264683897 0 0.037831014208428541 -0.00030061288970102961 0 0.037630272081110146 0.00016829628082923846 0 0.037192465983610395 -0.00014308678474375739 0 0.037192465983610395 -0.00014308678474375739 0 0.036904272102843125 0.00021918187264683897 0 0.036930226198621657 -6.4420269061088456e-05 0 0.036904272102843125 0.00021918187264683897 0 0.036825139568183764 0.000199899892224565 0 0.03687082814724852 0.00023638122227349534 0 0.036904272102843125 0.00021918187264683897 0 0.03683204661362139 0.00021604777528781116 0 0.03687082814724852 0.00023638122227349534 0 0.036837691328036749 9.2132558023897562e-05 0 0.037134566589209071 0.00016841183364775487 0 0.036936822564655837 -6.9165709238141137e-05 0 0.036904272102843125 0.00021918187264683897 0 0.036825139568183764 0.000199899892224565 0 0.037054527713096093 0.00015531511811207001 0 0.036936822564655837 -6.9165709238141137e-05 0 0.036825139568183764 0.000199899892224565 0 0.03648022482044827 6.4260834760406196e-05 0 0.036601777157499529 -9.866371057890507e-05 0 0.036757499834772583 7.4221553753419698e-05 0 0.036814200203694726 -0.00017213338444687168 0 0.036601777157499529 -9.866371057890507e-05 0 0.036757499834772583 7.4221553753419698e-05 0 0.036904272102843125 0.00021918187264683897 0 0.036930226198621657 -6.4420269061088456e-05 0 0.036757499834772583 7.4221553753419698e-05 0 0.036814200203694726 -0.00017213338444687168 0 0.036930226198621657 -6.4420269061088456e-05 0 0.036757499834772583 7.4221553753419698e-05 0 0.036757499834772583 7.4221553753419698e-05 0 0.03683204661362139 0.00021604777528781116 0 0.036655060985321994 0.00023276472914964626 0 0.036904272102843125 0.00021918187264683897 0 0.036757499834772583 7.4221553753419698e-05 0 0.03683204661362139 0.00021604777528781116 0 0.03648022482044827 6.4260834760406196e-05 0 0.036757499834772583 7.4221553753419698e-05 0 0.036655060985321994 0.00023276472914964626 0 0.033826845897872403 0.0007283496024024196 0 0.030797157510718813 0.0003165947540177674 0 0.023035370558996824 0.0026487950001066471 0 0.023261145675882965 0.0020673219641663657 0 0.022605559113764894 0.001905433921714633 0 0.023820783067834084 0.0025206047829834854 0 0.023035370558996824 0.0026487950001066471 0 0.023261145675882965 0.0020673219641663657 0 0.030797157510718813 0.0003165947540177674 0 0.02754459584728498 0.00019068348322927469 0 0.03683204661362139 0.00021604777528781116 0 0.036655060985321994 0.00023276472914964626 0 0.03688171705990595 0.00026076103089774593 0 0.030797157510718813 0.0003165947540177674 0 0.035964367137640799 -0.00053793187089239548 0 0.032455150862419728 -0.0019501318867601136 0 0.033743769336360391 -0.0014017119063653224 0 0.03345878177901343 -0.0010964560377227258 0 0.03683204661362139 0.00021604777528781116 0 0.03688171705990595 0.00026076103089774593 0 0.03687082814724852 0.00023638122227349534 0 0.033743769336360391 -0.0014017119063653224 0 0.03345878177901343 -0.0010964560377227258 0 0.034109077446651745 -0.00093471247819586212 0 0.022605559113764894 0.001905433921714633 0 0.023022087705518564 0.0015665227105587506 0 0.022782784534615793 0.0014811531438726395 0 0.022605559113764894 0.001905433921714633 0 0.022782784534615793 0.0014811531438726395 0 0.022626873460712391 0.0014253388726483212 0 0.023261145675882965 0.0020673219641663657 0 0.022605559113764894 0.001905433921714633 0 0.023022087705518564 0.0015665227105587506 0 0.023384765752364037 0.0015602652693523626 0 0.023188634685037054 0.0013378401500261981 0 0.023022087705518564 0.0015665227105587506 0 0.023384765752364037 0.0015602652693523626 0 0.023261145675882965 0.0020673219641663657 0 0.023022087705518564 0.0015665227105587506 0 0.037054527713096093 0.00015531511811207001 0 0.036825139568183764 0.000199899892224565 0 0.036697449568729022 0.00037323055856001357 0 0.036697449568729022 0.00037323055856001357 0 0.036830072662397233 0.00024737196279903183 0 0.036796485345595466 4.9811811651829183e-05 0 0.036825139568183764 0.000199899892224565 0 0.036697449568729022 0.00037323055856001357 0 0.036830072662397233 0.00024737196279903183 0 0.036825139568183764 0.000199899892224565 0 0.036830072662397233 0.00024737196279903183 0 0.03687082814724852 0.00023638122227349534 0 0.035964367137640799 -0.00053793187089239548 0 0.03563827955380628 -0.00042894945473168522 0 0.03688171705990595 0.00026076103089774593 0 0.036830072662397233 0.00024737196279903183 0 0.036796485345595466 4.9811811651829183e-05 0 0.03688171705990595 0.00026076103089774593 0 0.036830072662397233 0.00024737196279903183 0 0.03687082814724852 0.00023638122227349534 0 0.03345878177901343 -0.0010964560377227258 0 0.034109077446651745 -0.00093471247819586212 0 0.034381120247963352 -0.00038324209633484744 0 0.02754459584728498 0.00019068348322927469 0 0.028770215580740166 0.00076862338524131982 0 0.022605559113764894 0.001905433921714633 0 0.022495927861689868 0.0014808177422118429 0 0.022626873460712391 0.0014253388726483212 0 0.033743769336360391 -0.0014017119063653224 0 0.034109077446651745 -0.00093471247819586212 0 0.034822182423877024 -0.00086133672962515661 0 0.034109077446651745 -0.00093471247819586212 0 0.034822182423877024 -0.00086133672962515661 0 0.034381120247963352 -0.00038324209633484744 0 0.034822182423877024 -0.00086133672962515661 0 0.034970712893335754 -0.00035776151809489658 0 0.034381120247963352 -0.00038324209633484744 0 0.034822182423877024 -0.00086133672962515661 0 0.034970712893335754 -0.00035776151809489658 0 0.035562971215824885 -0.00032710833094532242 0 0.03563827955380628 -0.00042894945473168522 0 0.035658738973027376 -0.00033286253896356856 0 0.036125589005659271 8.5189503954602035e-05 0 0.036697449568729022 0.00037323055856001357 0 0.036796485345595466 4.9811811651829183e-05 0 0.022495927861689868 0.0014808177422118429 0 0.022517342485767276 0.001392802956114771 0 0.022500514782100044 0.0013308545615817997 0 0.028770215580740166 0.00076862338524131982 0 0.027266971592753288 0.00012992034456019085 0 0.034970712893335754 -0.00035776151809489658 0 0.034381120247963352 -0.00038324209633484744 0 0.035104031185106993 -1.5439027365138929e-05 0 0.022517342485767276 0.001392802956114771 0 0.02253078137827972 0.0013384681977108754 0 0.022500514782100044 0.0013308545615817997 0 0.022495927861689868 0.0014808177422118429 0 0.022517342485767276 0.001392802956114771 0 0.022626873460712391 0.0014253388726483212 0 0.022517342485767276 0.001392802956114771 0 0.02253078137827972 0.0013384681977108754 0 0.022626873460712391 0.0014253388726483212 0 0.021893262549540268 -0.00028233780735532557 0 0.023537342824382884 -0.0011032235871024226 0 0.022767628661483696 -0.00054669826428549234 0 0.023128835632692631 -0.00046522833030546504 0 0.023474101162966204 -0.00088322863088110691 0 0.021893262549540268 -0.00028233780735532557 0 0.027266971592753288 0.00012992034456019085 0 0.022767628661483696 -0.00054669826428549234 0 0.022881124304612047 -0.00037198268926813652 0 0.023128835632692631 -0.00046522833030546504 0 0.023522845275480049 0.0002196384692436418 0 0.022811495671091375 0.00050242376076794159 0 0.026342425194103725 0.00030089713871957869 0 0.023522845275480049 0.0002196384692436418 0 0.022811495671091375 0.00050242376076794159 0 0.020769015786749577 0.00022890703404160803 0 0.022767628661483696 -0.00054669826428549234 0 0.022733118901999826 -0.00036777730493138441 0 0.022881124304612047 -0.00037198268926813652 0 0.022767628661483696 -0.00054669826428549234 0 0.022733118901999826 -0.00036777730493138441 0 0.022614172778275234 -0.00027356062480106863 0 0.022733118901999826 -0.00036777730493138441 0 0.022697008354484363 -0.00026915773547928496 0 0.022881124304612047 -0.00037198268926813652 0 0.022697008354484363 -0.00026915773547928496 0 0.022881124304612047 -0.00037198268926813652 0 0.022869174590118575 -0.00014512145240565871 0 0.022697008354484363 -0.00026915773547928496 0 0.022660801594870685 -7.3993175498364628e-05 0 0.022869174590118575 -0.00014512145240565871 0 0.023032278444571137 -0.00030575060413117107 0 0.023188143252264884 -0.00015466857988532775 0 0.022869174590118575 -0.00014512145240565871 0 0.022881124304612047 -0.00037198268926813652 0 0.023128835632692631 -0.00046522833030546504 0 0.023032278444571137 -0.00030575060413117107 0 0.022881124304612047 -0.00037198268926813652 0 0.023032278444571137 -0.00030575060413117107 0 0.022869174590118575 -0.00014512145240565871 0 0.023128835632692631 -0.00046522833030546504 0 0.023032278444571137 -0.00030575060413117107 0 0.023188143252264884 -0.00015466857988532775 0 0.022524490267770522 0.0007788887250994651 0 0.027266971592753288 0.00012992034456019085 0 0.021926281226411257 -0.0014776222004910231 0 0.023788833985975168 -0.0016509872104656389 0 0.02331903521001295 -0.0013389777640056746 0 0.024065103960626884 -0.001407322068762107 0 0.02331903521001295 -0.0013389777640056746 0 0.024774775152272388 -0.0012046924857930491 0 0.023128835632692631 -0.00046522833030546504 0 0.023549344150328978 -0.00039988765521287633 0 0.023188143252264884 -0.00015466857988532775 0 0.024035712074289246 -0.00060151663631310786 0 0.023474101162966204 -0.00088322863088110691 0 0.024774775152272388 -0.0012046924857930491 0 0.023128835632692631 -0.00046522833030546504 0 0.023549344150328978 -0.00039988765521287633 0 0.023474101162966204 -0.00088322863088110691 0 0.023537342824382884 -0.0011032235871024226 0 0.024611121321049392 -0.0011342522550917115 0 0.023549344150328978 -0.00039988765521287633 0 0.024035712074289246 -0.00060151663631310786 0 0.023474101162966204 -0.00088322863088110691 0 0.024065103960626884 -0.001407322068762107 0 0.023788833985975168 -0.0016509872104656389 0 0.02331903521001295 -0.0013389777640056746 0 0.025749789750947365 -0.0010532464653416774 0 0.027266971592753288 0.00012992034456019085 0 0.023120674842770608 0.0010409624337644272 0 0.022837622270025577 0.0004862489246314588 0 0.02166711243237705 0.00080625654642727809 0 0.023120674842770608 0.0010409624337644272 0 0.023021938086655341 0.0012804747501820545 0 0.022874692215507541 0.0012398895803122265 0 0.02305882702643524 0.0010702804751788269 0 0.022317487158405886 0.0009257715156997039 0 0.023188634685037054 0.0013378401500261981 0 0.023022087705518564 0.0015665227105587506 0 0.023021938086655341 0.0012804747501820545 0 0.023022087705518564 0.0015665227105587506 0 0.023021938086655341 0.0012804747501820545 0 0.022892627430540453 0.0013418647848836482 0 0.023022087705518564 0.0015665227105587506 0 0.022892627430540453 0.0013418647848836482 0 0.022782784534615793 0.0014811531438726395 0 0.023021938086655341 0.0012804747501820545 0 0.022892627430540453 0.0013418647848836482 0 0.022874692215507541 0.0012398895803122265 0 0.02253078137827972 0.0013384681977108754 0 0.022626873460712391 0.0014253388726483212 0 0.022737655230552385 0.0012544827685200038 0 0.022892627430540453 0.0013418647848836482 0 0.022874692215507541 0.0012398895803122265 0 0.022777776050397991 0.00134876729772095 0 0.022317487158405886 0.0009257715156997039 0 0.021829830453836407 0.00066998547996736241 0 0.022874692215507541 0.0012398895803122265 0 0.022777776050397991 0.00134876729772095 0 0.022737655230552385 0.0012544827685200038 0 0.022777776050397991 0.00134876729772095 0 0.022782784534615793 0.0014811531438726395 0 0.022626873460712391 0.0014253388726483212 0 0.022892627430540453 0.0013418647848836482 0 0.022777776050397991 0.00134876729772095 0 0.022782784534615793 0.0014811531438726395 0 0.022777776050397991 0.00134876729772095 0 0.022626873460712391 0.0014253388726483212 0 0.022737655230552385 0.0012544827685200038 0 0.021893262549540268 -0.00028233780735532557 0 0.022057692363477696 0.00028454238941088677 0 0.020848596741946387 0.00063051002593537042 0 0.021364503263316372 0.00070024398583388634 0 0.021601069207956246 0.00057836162194267455 0 0.022524490267770522 0.0007788887250994651 0 0.021829830453836407 0.00066998547996736241 0 0.022767628661483696 -0.00054669826428549234 0 0.022614172778275234 -0.00027356062480106863 0 0.022380058487198585 -4.066536741262025e-05 0 0.021893262549540268 -0.00028233780735532557 0 0.021829830453836407 0.00066998547996736241 0 0.022733118901999826 -0.00036777730493138441 0 0.022697008354484363 -0.00026915773547928496 0 0.022614172778275234 -0.00027356062480106863 0 0.022697008354484363 -0.00026915773547928496 0 0.022614172778275234 -0.00027356062480106863 0 0.022587389111389578 -0.00015713995810985674 0 0.022697008354484363 -0.00026915773547928496 0 0.022587389111389578 -0.00015713995810985674 0 0.022660801594870685 -7.3993175498364628e-05 0 0.022587389111389578 -0.00015713995810985674 0 0.022575990645469505 -5.7527829668980721e-05 0 0.022660801594870685 -7.3993175498364628e-05 0 0.022587389111389578 -0.00015713995810985674 0 0.022495840462694081 -6.416176031930663e-05 0 0.022575990645469505 -5.7527829668980721e-05 0 0.022614172778275234 -0.00027356062480106863 0 0.022587389111389578 -0.00015713995810985674 0 0.02250563113875036 -0.00013249872636739309 0 0.02250563113875036 -0.00013249872636739309 0 0.022495840462694081 -6.416176031930663e-05 0 0.022445778752174451 -4.9366534758325235e-05 0 0.022587389111389578 -0.00015713995810985674 0 0.02250563113875036 -0.00013249872636739309 0 0.022495840462694081 -6.416176031930663e-05 0 0.022495840462694081 -6.416176031930663e-05 0 0.022445928601552815 -6.9893279957776984e-06 0 0.022483810961297722 1.8578354787582706e-05 0 0.022495840462694081 -6.416176031930663e-05 0 0.022445778752174451 -4.9366534758325235e-05 0 0.022445928601552815 -6.9893279957776984e-06 0 0.022614172778275234 -0.00027356062480106863 0 0.02250563113875036 -0.00013249872636739309 0 0.022380058487198585 -4.066536741262025e-05 0 0.02250563113875036 -0.00013249872636739309 0 0.022445778752174451 -4.9366534758325235e-05 0 0.022380058487198585 -4.066536741262025e-05 0 0.02166711243237705 0.00080625654642727809 0 0.021364503263316372 0.00070024398583388634 0 0.021601069207956246 0.00057836162194267455 0 0.022837622270025577 0.0004862489246314588 0 0.02166711243237705 0.00080625654642727809 0 0.021601069207956246 0.00057836162194267455 0 0.022785347964802333 0.00041356501045142853 0 0.022057692363477696 0.00028454238941088677 0 0.022837622270025577 0.0004862489246314588 0 0.022380058487198585 -4.066536741262025e-05 0 0.022552944771307478 0.00014085615077203634 0 0.022380058487198585 -4.066536741262025e-05 0 0.02245280182005617 2.1067801522241685e-05 0 0.022552944771307478 0.00014085615077203634 0 0.022445778752174451 -4.9366534758325235e-05 0 0.022380058487198585 -4.066536741262025e-05 0 0.02245280182005617 2.1067801522241685e-05 0 0.022445928601552815 -6.9893279957776984e-06 0 0.02249935436860874 6.8856933261046506e-05 0 0.022441565141192641 2.1679717814363234e-05 0 0.02245280182005617 2.1067801522241685e-05 0 0.022445928601552815 -6.9893279957776984e-06 0 0.02249935436860874 6.8856933261046506e-05 0 0.022445778752174451 -4.9366534758325235e-05 0 0.02245280182005617 2.1067801522241685e-05 0 0.022445928601552815 -6.9893279957776984e-06 0 0.02245280182005617 2.1067801522241685e-05 0 0.022552944771307478 0.00014085615077203634 0 0.02249935436860874 6.8856933261046506e-05 0 0.022645978972911287 0.00018037231957782632 0 0.02249935436860874 6.8856933261046506e-05 0 0.022491424089105209 2.395178461280793e-05 0 0.022837622270025577 0.0004862489246314588 0 0.022645978972911287 0.00018037231957782632 0 0.022552944771307478 0.00014085615077203634 0 0.022645978972911287 0.00018037231957782632 0 0.022552944771307478 0.00014085615077203634 0 0.02249935436860874 6.8856933261046506e-05 0 0.022447348216951428 -6.8593345090953479e-05 0 0.022414915560254257 1.9885056621121796e-05 0 0.022491424089105209 2.395178461280793e-05 0 0.022447348216951428 -6.8593345090953479e-05 0 0.022414915560254257 1.9885056621121796e-05 0 0.022343445135808899 1.1895945895048645e-05 0 0.022414915560254257 1.9885056621121796e-05 0 0.022491424089105209 2.395178461280793e-05 0 0.022441565141192641 2.1679717814363234e-05 0 0.02249935436860874 6.8856933261046506e-05 0 0.022491424089105209 2.395178461280793e-05 0 0.022441565141192641 2.1679717814363234e-05 0 0.022441565141192641 2.1679717814363234e-05 0 0.022448805382038105 6.8858853758358942e-05 0 0.022483810961297722 1.8578354787582706e-05 0 0.022445928601552815 -6.9893279957776984e-06 0 0.022441565141192641 2.1679717814363234e-05 0 0.022483810961297722 1.8578354787582706e-05 0 0.022414915560254257 1.9885056621121796e-05 0 0.022441565141192641 2.1679717814363234e-05 0 0.022448805382038105 6.8858853758358942e-05 0 0.022414915560254257 1.9885056621121796e-05 0 0.022448805382038105 6.8858853758358942e-05 0 0.022434000037068517 0.00014084115634264128 0 0.022448805382038105 6.8858853758358942e-05 0 0.022525558537408161 0.0001597819631526158 0 0.022434000037068517 0.00014084115634264128 0 0.022448805382038105 6.8858853758358942e-05 0 0.022525558537408161 0.0001597819631526158 0 0.022483810961297722 1.8578354787582706e-05 0 0.022525558537408161 0.0001597819631526158 0 0.022483810961297722 1.8578354787582706e-05 0 0.022583125265490521 5.5598621911826757e-05 0 0.022495840462694081 -6.416176031930663e-05 0 0.022483810961297722 1.8578354787582706e-05 0 0.022575990645469505 -5.7527829668980721e-05 0 0.022583125265490521 5.5598621911826757e-05 0 0.022660801594870685 -7.3993175498364628e-05 0 0.022712380838592429 0.00014450712350987604 0 0.022483810961297722 1.8578354787582706e-05 0 0.022583125265490521 5.5598621911826757e-05 0 0.022575990645469505 -5.7527829668980721e-05 0 0.022583125265490521 5.5598621911826757e-05 0 0.022575990645469505 -5.7527829668980721e-05 0 0.022660801594870685 -7.3993175498364628e-05 0 0.022525558537408161 0.0001597819631526158 0 0.022583125265490521 5.5598621911826757e-05 0 0.022712380838592429 0.00014450712350987604 0 0.022525558537408161 0.0001597819631526158 0 0.022655609656706044 0.00034424716972260332 0 0.022712380838592429 0.00014450712350987604 0 0.022525558537408161 0.0001597819631526158 0 0.022655609656706044 0.00034424716972260332 0 0.022535232421376814 0.00034025539422113753 0 0.022655609656706044 0.00034424716972260332 0 0.022688970757117909 0.00059226498448499755 0 0.022535232421376814 0.00034025539422113753 0 0.022688970757117909 0.00059226498448499755 0 0.022582094270471784 0.00056235797720154579 0 0.022535232421376814 0.00034025539422113753 0 0.022688970757117909 0.00059226498448499755 0 0.022582094270471784 0.00056235797720154579 0 0.022732509216633754 0.00085637906079601286 0 0.022582094270471784 0.00056235797720154579 0 0.022535232421376814 0.00034025539422113753 0 0.022414521483639163 0.00028173872304909447 0 0.022525558537408161 0.0001597819631526158 0 0.022535232421376814 0.00034025539422113753 0 0.022434000037068517 0.00014084115634264128 0 0.022535232421376814 0.00034025539422113753 0 0.022434000037068517 0.00014084115634264128 0 0.022414521483639163 0.00028173872304909447 0 0.022434000037068517 0.00014084115634264128 0 0.022414521483639163 0.00028173872304909447 0 0.022343445135808899 1.1895945895048645e-05 0 0.022414915560254257 1.9885056621121796e-05 0 0.022434000037068517 0.00014084115634264128 0 0.022343445135808899 1.1895945895048645e-05 0 0.022414521483639163 0.00028173872304909447 0 0.022343445135808899 1.1895945895048645e-05 0 0.022168896755618412 0.00020416980918083532 0 0.023388452636554178 0.00043889816488447647 0 0.023446832747512612 -1.0107005807571487e-05 0 0.02303246742440598 0.0001506599067726603 0 0.023388452636554178 0.00043889816488447647 0 0.023962913713053563 -2.9159424964264346e-05 0 0.024225656767206671 0.00085395162101170054 0 0.023388452636554178 0.00043889816488447647 0 0.023962913713053563 -2.9159424964264346e-05 0 0.023446832747512612 -1.0107005807571487e-05 0 0.023549344150328978 -0.00039988765521287633 0 0.023962913713053563 -2.9159424964264346e-05 0 0.023446832747512612 -1.0107005807571487e-05 0 0.023549344150328978 -0.00039988765521287633 0 0.024035712074289246 -0.00060151663631310786 0 0.023962913713053563 -2.9159424964264346e-05 0 0.023549344150328978 -0.00039988765521287633 0 0.023446832747512612 -1.0107005807571487e-05 0 0.023188143252264884 -0.00015466857988532775 0 0.023188143252264884 -0.00015466857988532775 0 0.022869174590118575 -0.00014512145240565871 0 0.02303246742440598 0.0001506599067726603 0 0.023446832747512612 -1.0107005807571487e-05 0 0.023188143252264884 -0.00015466857988532775 0 0.02303246742440598 0.0001506599067726603 0 0.022869174590118575 -0.00014512145240565871 0 0.022712380838592429 0.00014450712350987604 0 0.02303246742440598 0.0001506599067726603 0 0.022660801594870685 -7.3993175498364628e-05 0 0.022869174590118575 -0.00014512145240565871 0 0.022712380838592429 0.00014450712350987604 0 0.022712380838592429 0.00014450712350987604 0 0.02303246742440598 0.0001506599067726603 0 0.022881287067344741 0.0005280323182812643 0 0.023388452636554178 0.00043889816488447647 0 0.02303246742440598 0.0001506599067726603 0 0.022881287067344741 0.0005280323182812643 0 0.022655609656706044 0.00034424716972260332 0 0.022688970757117909 0.00059226498448499755 0 0.022881287067344741 0.0005280323182812643 0 0.022655609656706044 0.00034424716972260332 0 0.022712380838592429 0.00014450712350987604 0 0.022881287067344741 0.0005280323182812643 0 0.022688970757117909 0.00059226498448499755 0 0.022881287067344741 0.0005280323182812643 0 0.022884341789529514 0.00095713386563692823 0 0.022881287067344741 0.0005280323182812643 0 0.023191050534369172 0.0010706384397595409 0 0.022884341789529514 0.00095713386563692823 0 0.023191050534369172 0.0010706384397595409 0 0.024225656767206671 0.00085395162101170054 0 0.023148628792843975 0.0019336530378797699 0 0.023388452636554178 0.00043889816488447647 0 0.023191050534369172 0.0010706384397595409 0 0.024225656767206671 0.00085395162101170054 0 0.023388452636554178 0.00043889816488447647 0 0.022881287067344741 0.0005280323182812643 0 0.023191050534369172 0.0010706384397595409 0 0.025706962735208564 0.001665273321242918 0 0.026356517652729842 0.00067531512230389553 0 0.028594417893408042 0.0015892027431921778 0 0.024225656767206671 0.00085395162101170054 0 0.025706962735208564 0.001665273321242918 0 0.026356517652729842 0.00067531512230389553 0 0.026356517652729842 0.00067531512230389553 0 0.02639623923829458 -0.00053995529725533943 0 0.028761502650784455 -1.0632633838267871e-05 0 0.026356517652729842 0.00067531512230389553 0 0.025105645538952379 -6.7767773520152109e-05 0 0.02639623923829458 -0.00053995529725533943 0 0.025105645538952379 -6.7767773520152109e-05 0 0.025416287125988972 -0.00088533472022423311 0 0.02639623923829458 -0.00053995529725533943 0 0.024225656767206671 0.00085395162101170054 0 0.026356517652729842 0.00067531512230389553 0 0.025105645538952379 -6.7767773520152109e-05 0 0.023962913713053563 -2.9159424964264346e-05 0 0.024225656767206671 0.00085395162101170054 0 0.025105645538952379 -6.7767773520152109e-05 0 0.025105645538952379 -6.7767773520152109e-05 0 0.024561169851768705 -0.00053064952282328283 0 0.025416287125988972 -0.00088533472022423311 0 0.023962913713053563 -2.9159424964264346e-05 0 0.025105645538952379 -6.7767773520152109e-05 0 0.024561169851768705 -0.00053064952282328283 0 0.024035712074289246 -0.00060151663631310786 0 0.023962913713053563 -2.9159424964264346e-05 0 0.024561169851768705 -0.00053064952282328283 0 0.024065103960626884 -0.001407322068762107 0 0.023772381009173022 -0.0016678524718332672 0 0.025761842896705224 -0.0018424765386030524 0 0.029050425323729413 3.8045606807366832e-05 0 0.031056058046334059 4.0602767824284522e-05 0 0.031059695347819542 -9.9503557267990704e-05 0 0.024065103960626884 -0.001407322068762107 0 0.024774775152272388 -0.0012046924857930491 0 0.025761842896705224 -0.0018424765386030524 0 0.027266971592753288 0.00012992034456019085 0 0.034183917359010746 -0.00024258604643866374 0 0.027266971592753288 0.00012992034456019085 0 0.028242924785011045 -0.00096439230027386253 0 0.024035712074289246 -0.00060151663631310786 0 0.024561169851768705 -0.00053064952282328283 0 0.024774775152272388 -0.0012046924857930491 0 0.024774775152272388 -0.0012046924857930491 0 0.025416287125988972 -0.00088533472022423311 0 0.025761842896705224 -0.0018424765386030524 0 0.024561169851768705 -0.00053064952282328283 0 0.024774775152272388 -0.0012046924857930491 0 0.025416287125988972 -0.00088533472022423311 0 0.031056058046334059 4.0602767824284522e-05 0 0.031059695347819542 -9.9503557267990704e-05 0 0.032209977311212966 2.3276019118016149e-05 0 0.028242924785011045 -0.00096439230027386253 0 0.030305843837102952 -0.00074332585118416946 0 0.02639623923829458 -0.00053995529725533943 0 0.025761842896705224 -0.0018424765386030524 0 0.028468883400756158 -0.0016951269104591063 0 0.025416287125988972 -0.00088533472022423311 0 0.02639623923829458 -0.00053995529725533943 0 0.025761842896705224 -0.0018424765386030524 0 0.034183917359010746 -0.00024258604643866374 0 0.033337497962810589 -0.00021834535287848451 0 0.035426042309381935 -0.00033084289597522481 0 0.035122326657485582 -0.00011593070482623803 0 0.035562971215824885 -0.00032710833094532242 0 0.035426042309381935 -0.00033084289597522481 0 0.035122326657485582 -0.00011593070482623803 0 0.034889861398948847 -0.00042729386206126388 0 0.035104031185106993 -1.5439027365138929e-05 0 0.035426042309381935 -0.00033084289597522481 0 0.035562971215824885 -0.00032710833094532242 0 0.034970712893335754 -0.00035776151809489658 0 0.035104031185106993 -1.5439027365138929e-05 0 0.035562971215824885 -0.00032710833094532242 0 0.032967812163543754 -9.5758743275094584e-07 0 0.032217035155844315 -8.7580188300849304e-05 0 0.03233500621028005 9.3821751077939087e-07 0 0.032975556279433028 -1.3521204100150867e-07 0 0.033337497962810589 -0.00021834535287848451 0 0.034649573082720243 0.00021516076588767698 0 0.03298172657889293 -9.94700991174358e-07 0 0.034889861398948847 -0.00042729386206126388 0 0.034649573082720243 0.00021516076588767698 0 0.035122326657485582 -0.00011593070482623803 0 0.034889861398948847 -0.00042729386206126388 0 0.02639623923829458 -0.00053995529725533943 0 0.028468883400756158 -0.0016951269104591063 0 0.028761502650784455 -1.0632633838267871e-05 0 0.031059695347819542 -9.9503557267990704e-05 0 0.032217035155844315 -8.7580188300849304e-05 0 0.032209977311212966 2.3276019118016149e-05 0 0.028468883400756158 -0.0016951269104591063 0 0.032321092103661762 -5.4107066291449603e-06 0 0.028761502650784455 -1.0632633838267871e-05 0 0.032217035155844315 -8.7580188300849304e-05 0 0.032209977311212966 2.3276019118016149e-05 0 0.03233500621028005 9.3821751077939087e-07 0 0.030305843837102952 -0.00074332585118416946 0 0.032326947966142681 -4.0317991673419471e-07 0 0.032321092103661762 -5.4107066291449603e-06 0 0.030587285321019182 4.1112092439407837e-06 0 0.028761502650784455 -1.0632633838267871e-05 0 0.03058107842947224 5.0586313916492103e-07 0 0.028500654992456114 0.00089578077990411134 0 0.030587285321019182 4.1112092439407837e-06 0 0.028761502650784455 -1.0632633838267871e-05 0 0.028594417893408042 0.0015892027431921778 0 0.026356517652729842 0.00067531512230389553 0 0.028761502650784455 -1.0632633838267871e-05 0 0.028594417893408042 0.0015892027431921778 0 0.027495178812306523 7.9005866824849265e-05 0 0.028176659580233233 1.0446810829525905e-06 0 0.027204710602015916 0.00015088736008361811 0 0.030579825613346469 -1.0852331347649907e-06 0 0.027495178812306523 7.9005866824849265e-05 0 0.028176659580233233 1.0446810829525905e-06 0 0.025072900926583132 -0.00026320476249099022 0 0.02577092265079527 -2.3662181714708035e-07 0 0.027495178812306523 7.9005866824849265e-05 0 0.027204710602015916 0.00015088736008361811 0 0.027377884594904634 -0.00012837307485608713 0 0.027204710602015916 0.00015088736008361811 0 0.027377884594904634 -0.00012837307485608713 0 0.025774152177745965 -9.7361841518029147e-07 0 0.028176659580233233 1.0446810829525905e-06 0 0.027204710602015916 0.00015088736008361811 0 0.025774152177745965 -9.7361841518029147e-07 0 0.025072900926583132 -0.00026320476249099022 0 0.024343518049991946 0.00095329093842613723 0 0.025706962735208564 0.001665273321242918 0 0.028594417893408042 0.0015892027431921778 0 0.026591359519656188 0.003226339953928182 0 0.028500654992456114 0.00089578077990411134 0 0.024343518049991946 0.00095329093842613723 0 0.027495178812306523 7.9005866824849265e-05 0 0.027377884594904634 -0.00012837307485608713 0 0.027488586888412006 -0.00010956677915996768 0 0.022728526578001704 -0.00068792370328718349 0 0.021680040815251191 0.00034664071905130456 0 0.022915028948112461 0.00027815826802452746 0 0.022728526578001704 -0.00068792370328718349 0 0.021680040815251191 0.00034664071905130456 0 0.021398634249262707 -0.00019041130850899125 0 0.021680040815251191 0.00034664071905130456 0 0.022915028948112461 0.00027815826802452746 0 0.02168328124057908 0.00046334735969738572 0 0.025766286594120634 -2.6433668517787381e-06 0 0.022915028948112461 0.00027815826802452746 0 0.022532900719419994 2.0245713090510931e-06 0 0.022728526578001704 -0.00068792370328718349 0 0.025766286594120634 -2.6433668517787381e-06 0 0.022915028948112461 0.00027815826802452746 0 0.024225656767206671 0.00085395162101170054 0 0.025706962735208564 0.001665273321242918 0 0.023148628792843975 0.0019336530378797699 0 0.022979160541865863 0.0023312083571188479 0 0.024343518049991946 0.00095329093842613723 0 0.025706962735208564 0.001665273321242918 0 0.023148628792843975 0.0019336530378797699 0 0.026591359519656188 0.003226339953928182 0 0.023148628792843975 0.0019336530378797699 0 0.020697066463324483 0.0012948096907838087 0 0.02116691677042698 0.0006982260910314398 0 0.021680040815251191 0.00034664071905130456 0 0.021398634249262707 -0.00019041130850899125 0 0.02116691677042698 0.0006982260910314398 0 0.024343518049991946 0.00095329093842613723 0 0.022192732379053347 0.0014382202073393914 0 0.021680040815251191 0.00034664071905130456 0 0.02116691677042698 0.0006982260910314398 0 0.021214726925996432 0.00063948086357001606 0 0.021722538331208796 0.00094024154264297697 0 0.021672934118449019 0.00083346053607711397 0 0.021214726925996432 0.00063948086357001606 0 0.02116691677042698 0.0006982260910314398 0 0.021722538331208796 0.00094024154264297697 0 0.021214726925996432 0.00063948086357001606 0 0.023148628792843975 0.0019336530378797699 0 0.021672934118449019 0.00083346053607711397 0 0.022464021492628012 0.0012566407004732816 0 0.023148628792843975 0.0019336530378797699 0 0.02116691677042698 0.0006982260910314398 0 0.021722538331208796 0.00094024154264297697 0 0.023148628792843975 0.0019336530378797699 0 0.021722538331208796 0.00094024154264297697 0 0.021672934118449019 0.00083346053607711397 0 0.021672934118449019 0.00083346053607711397 0 0.021307184168840611 0.00074223796202252639 0 0.022040404828553559 0.00091390676586476042 0 0.021672934118449019 0.00083346053607711397 0 0.022040404828553559 0.00091390676586476042 0 0.022464021492628012 0.0012566407004732816 0 0.021672934118449019 0.00083346053607711397 0 0.021307184168840611 0.00074223796202252639 0 0.020831461963729439 0.00062424134307288162 0 0.021214726925996432 0.00063948086357001606 0 0.020831461963729439 0.00062424134307288162 0 0.02168328124057908 0.00046334735969738572 0 0.021672934118449019 0.00083346053607711397 0 0.021214726925996432 0.00063948086357001606 0 0.020831461963729439 0.00062424134307288162 0 0.020831461963729439 0.00062424134307288162 0 0.020806913844531524 0.00059438737976359442 0 0.019500485174908166 0.00058653871431604365 0 0.020831461963729439 0.00062424134307288162 0 0.020788250263464786 0.00043082322415355844 0 0.019500485174908166 0.00058653871431604365 0 0.021307184168840611 0.00074223796202252639 0 0.020806913844531524 0.00059438737976359442 0 0.022040404828553559 0.00091390676586476042 0 0.021307184168840611 0.00074223796202252639 0 0.020831461963729439 0.00062424134307288162 0 0.020806913844531524 0.00059438737976359442 0 0.022532900719419994 2.0245713090510931e-06 0 0.02168328124057908 0.00046334735969738572 0 0.020788250263464786 0.00043082322415355844 0 0.022915028948112461 0.00027815826802452746 0 0.022532900719419994 2.0245713090510931e-06 0 0.02168328124057908 0.00046334735969738572 0 0.021680040815251191 0.00034664071905130456 0 0.021214726925996432 0.00063948086357001606 0 0.02168328124057908 0.00046334735969738572 0 0.020831461963729439 0.00062424134307288162 0 0.02168328124057908 0.00046334735969738572 0 0.020788250263464786 0.00043082322415355844 0 0.022532900719419994 2.0245713090510931e-06 0 0.020788250263464786 0.00043082322415355844 0 0.020141339629156395 0.00039253720888079698 0 0.019294507007136353 1.1483080251901547e-06 0 0.019504688334204091 0.00013188940572829493 0 0.020141339629156395 0.00039253720888079698 0 0.022532900719419994 2.0245713090510931e-06 0 0.019294507007136353 1.1483080251901547e-06 0 0.020141339629156395 0.00039253720888079698 0 0.019294507007136353 1.1483080251901547e-06 0 0.019504688334204091 0.00013188940572829493 0 0.01606068631885442 -1.6146733017672969e-06 0 0.017578979187031173 1.1063784512170622e-05 0 0.019163153379904162 0.00050140134881402373 0 0.015518088862547751 -0.00021862476495293276 0 0.019500485174908166 0.00058653871431604365 0 0.017013115429731971 -0.00037631543193123677 0 0.015518088862547751 -0.00021862476495293276 0 0.017013115429731971 -0.00037631543193123677 0 0.015241813414980114 -0.00043972685903885235 0 0.019504688334204091 0.00013188940572829493 0 0.020141339629156395 0.00039253720888079698 0 0.019500485174908166 0.00058653871431604365 0 0.020788250263464786 0.00043082322415355844 0 0.020141339629156395 0.00039253720888079698 0 0.019500485174908166 0.00058653871431604365 0 0.020806913844531524 0.00059438737976359442 0 0.019500485174908166 0.00058653871431604365 0 0.019833976979862684 -0.00027839322926787339 0 0.020806913844531524 0.00059438737976359442 0 0.019833976979862684 -0.00027839322926787339 0 0.02163012402581229 0.00042401582361492775 0 0.016283624435300577 -0.0011427201189920914 0 0.019692035337282299 0.0007514017185682243 0 0.013706488983972549 -0.0015257417022068777 0 0.013493114524834791 -0.0010574502324410199 0 0.013489964403412743 -0.0014633470561706209 0 0.019833976979862684 -0.00027839322926787339 0 0.017013115429731971 -0.00037631543193123677 0 0.015081533185815441 -0.00071189176764247105 0 0.019500485174908166 0.00058653871431604365 0 0.019833976979862684 -0.00027839322926787339 0 0.017013115429731971 -0.00037631543193123677 0 0.013706488983972549 -0.0015257417022068777 0 0.014010493427461104 -0.00072957096138810413 0 0.015081533185815441 -0.00071189176764247105 0 0.016283624435300577 -0.0011427201189920914 0 0.015599037343179066 -0.00050710274892863032 0 0.014010493427461104 -0.00072957096138810413 0 0.015081533185815441 -0.00071189176764247105 0 0.013744340292147274 -0.00013601755042886026 0 0.014120812015632114 -0.00068465389967355204 0 0.012825746865810273 -0.0010954406196221924 0 0.014010493427461104 -0.00072957096138810413 0 0.013264648083118905 -0.00029336946026446877 0 0.013040054790578015 -0.00080725048448003869 0 0.013706488983972549 -0.0015257417022068777 0 0.014010493427461104 -0.00072957096138810413 0 0.013493114524834791 -0.0010574502324410199 0 0.014010493427461104 -0.00072957096138810413 0 0.013264648083118905 -0.00029336946026446877 0 0.013744340292147274 -0.00013601755042886026 0 0.013224488858594284 2.2840896008565952e-05 0 0.013744340292147274 -0.00013601755042886026 0 0.013291241249681599 0.00018455521331850968 0 0.013264648083118905 -0.00029336946026446877 0 0.013224488858594284 2.2840896008565952e-05 0 0.013744340292147274 -0.00013601755042886026 0 0.013224488858594284 2.2840896008565952e-05 0 0.012980774130773087 -5.5241634696324945e-05 0 0.013005543260052606 9.2866050649431008e-05 0 0.013264648083118905 -0.00029336946026446877 0 0.013224488858594284 2.2840896008565952e-05 0 0.012980774130773087 -5.5241634696324945e-05 0 0.015081533185815441 -0.00071189176764247105 0 0.013744340292147274 -0.00013601755042886026 0 0.013851315996045631 9.6683997213122051e-05 0 0.013744340292147274 -0.00013601755042886026 0 0.013851315996045631 9.6683997213122051e-05 0 0.013291241249681599 0.00018455521331850968 0 0.013851315996045631 9.6683997213122051e-05 0 0.014663456089009364 -4.8235876476584888e-05 0 0.013718397179216812 9.4034691842891598e-05 0 0.015081533185815441 -0.00071189176764247105 0 0.013851315996045631 9.6683997213122051e-05 0 0.014663456089009364 -4.8235876476584888e-05 0 0.014663456089009364 -4.8235876476584888e-05 0 0.013718397179216812 9.4034691842891598e-05 0 0.013313522189161554 8.91994147292862e-07 0 0.014663456089009364 -4.8235876476584888e-05 0 0.016052002447556189 -1.6182392576085263e-06 0 0.013313522189161554 8.91994147292862e-07 0 0.017578979187031173 1.1063784512170622e-05 0 0.016057412461615891 1.6113112562756721e-07 0 0.015518088862547751 -0.00021862476495293276 0 0.016052002447556189 -1.6182392576085263e-06 0 0.015241813414980114 -0.00043972685903885235 0 0.014663456089009364 -4.8235876476584888e-05 0 0.016052002447556189 -1.6182392576085263e-06 0 0.015241813414980114 -0.00043972685903885235 0 0.017013115429731971 -0.00037631543193123677 0 0.015081533185815441 -0.00071189176764247105 0 0.015241813414980114 -0.00043972685903885235 0 0.015081533185815441 -0.00071189176764247105 0 0.014663456089009364 -4.8235876476584888e-05 0 0.015241813414980114 -0.00043972685903885235 0 0.013148104587592651 0.002515491257609373 0 0.013707988936779839 0.0023005581816480771 0 0.013576767505530316 0.0034319367103009422 0 0.013148104587592651 0.002515491257609373 0 0.012931048321593775 0.0027781687841203885 0 0.013576767505530316 0.0034319367103009422 0 0.013148104587592651 0.002515491257609373 0 0.013707988936779839 0.0023005581816480771 0 0.013072909946694727 0.0019836332063174053 0 0.013148104587592651 0.002515491257609373 0 0.013072909946694727 0.0019836332063174053 0 0.012733946933993674 0.002291905475497462 0 0.013148104587592651 0.002515491257609373 0 0.012931048321593775 0.0027781687841203885 0 0.012733946933993674 0.002291905475497462 0 0.014421342193963099 0.002757926711747607 0 0.013707988936779839 0.0023005581816480771 0 0.014089498469794438 0.0017566108164971405 0 0.014421342193963099 0.002757926711747607 0 0.013707988936779839 0.0023005581816480771 0 0.013576767505530316 0.0034319367103009422 0 0.013707988936779839 0.0023005581816480771 0 0.014089498469794438 0.0017566108164971405 0 0.013382449788134338 0.0015589239399138577 0 0.014089498469794438 0.0017566108164971405 0 0.014447457623064354 0.0010952813559657972 0 0.013776973874251305 0.001218668116079773 0 0.014089498469794438 0.0017566108164971405 0 0.013382449788134338 0.0015589239399138577 0 0.013776973874251305 0.001218668116079773 0 0.013707988936779839 0.0023005581816480771 0 0.013382449788134338 0.0015589239399138577 0 0.013072909946694727 0.0019836332063174053 0 0.013072909946694727 0.0019836332063174053 0 0.013002878377757449 0.0016426438318941998 0 0.012567036877531199 0.0018052192999376596 0 0.013382449788134338 0.0015589239399138577 0 0.013072909946694727 0.0019836332063174053 0 0.013002878377757449 0.0016426438318941998 0 0.013002878377757449 0.0016426438318941998 0 0.012567036877531199 0.0018052192999376596 0 0.013023822429710835 0.0013351657951162072 0 0.013382449788134338 0.0015589239399138577 0 0.013002878377757449 0.0016426438318941998 0 0.013023822429710835 0.0013351657951162072 0 0.012922065761191625 0.0007954290693666337 0 0.012947138276248367 0.0008291648163205491 0 0.013014096144938297 0.00096498364839188824 0 0.012922065761191625 0.0007954290693666337 0 0.012947138276248367 0.0008291648163205491 0 0.012940003156291421 0.00065292546493891045 0 0.012491327213482105 -9.9209974356672837e-05 0 0.01266676582669094 -3.1068101759366065e-05 0 0.012652642678891969 6.4692854531869104e-05 0 0.012491327213482105 -9.9209974356672837e-05 0 0.01266676582669094 -3.1068101759366065e-05 0 0.012705573081930389 -0.00017235697938666256 0 0.012491327213482105 -9.9209974356672837e-05 0 0.012705573081930389 -0.00017235697938666256 0 0.012697537717600254 -0.00044532046811833378 0 0.013072909946694727 0.0019836332063174053 0 0.012567036877531199 0.0018052192999376596 0 0.012733946933993674 0.002291905475497462 0 0.012980774130773087 -5.5241634696324945e-05 0 0.012789824000036578 -4.3539511412656097e-05 0 0.012903845979659314 -0.00027346895467787903 0 0.012980774130773087 -5.5241634696324945e-05 0 0.012789824000036578 -4.3539511412656097e-05 0 0.012873680060264269 9.3714550324003034e-05 0 0.012789824000036578 -4.3539511412656097e-05 0 0.012705573081930389 -0.00017235697938666256 0 0.012903845979659314 -0.00027346895467787903 0 0.012789824000036578 -4.3539511412656097e-05 0 0.01266676582669094 -3.1068101759366065e-05 0 0.012705573081930389 -0.00017235697938666256 0 0.012705573081930389 -0.00017235697938666256 0 0.012903845979659314 -0.00027346895467787903 0 0.012697537717600254 -0.00044532046811833378 0 0.013264648083118905 -0.00029336946026446877 0 0.012980774130773087 -5.5241634696324945e-05 0 0.012903845979659314 -0.00027346895467787903 0 0.012697537717600254 -0.00044532046811833378 0 0.013040054790578015 -0.00080725048448003869 0 0.012551611921458372 -0.00086892207958455103 0 0.013493114524834791 -0.0010574502324410199 0 0.013260019381536776 -0.0012179442735691967 0 0.013394228555098569 -0.0012769996365522129 0 0.012825746865810273 -0.0010954406196221924 0 0.015249525353491437 0.0010114591277466394 0 0.012903845979659314 -0.00027346895467787903 0 0.012697537717600254 -0.00044532046811833378 0 0.013040054790578015 -0.00080725048448003869 0 0.013264648083118905 -0.00029336946026446877 0 0.012903845979659314 -0.00027346895467787903 0 0.013040054790578015 -0.00080725048448003869 0 0.012435631078724717 0.00017420420622010755 0 0.015249525353491437 0.0010114591277466394 0 0.012567036877531199 0.0018052192999376596 0 0.012733946933993674 0.002291905475497462 0 0.012233098984809086 0.0028788852919502781 0 0.012485026434108657 0.0016036769133565461 0 0.015249525353491437 0.0010114591277466394 0 0.012491327213482105 -9.9209974356672837e-05 0 0.012697537717600254 -0.00044532046811833378 0 0.012551611921458372 -0.00086892207958455103 0 0.012931048321593775 0.0027781687841203885 0 0.012733946933993674 0.002291905475497462 0 0.012233098984809086 0.0028788852919502781 0 0.023543954124969971 0.0047508696416754398 0 0.023654116398923758 0.0044500725654789608 0 0.023122621106698729 0.0040476341991962754 0 0.023543954124969971 0.0047508696416754398 0 0.023122621106698729 0.0040476341991962754 0 0.02230488497401157 0.0044985339199606405 0 0.015249525353491437 0.0010114591277466394 0 0.017391481432151454 0.0012897335267768042 0 0.023654116398923758 0.0044500725654789608 0 0.023838334787215663 0.0039787587982645905 0 0.023122621106698729 0.0040476341991962754 0 0.013493114524834791 -0.0010574502324410199 0 0.013394228555098569 -0.0012769996365522129 0 0.013489964403412743 -0.0014633470561706209 0 0.013260019381536776 -0.0012179442735691967 0 0.013292637366099334 -0.0013334113421940271 0 0.013394228555098569 -0.0012769996365522129 0 0.013292637366099334 -0.0013334113421940271 0 0.013394228555098569 -0.0012769996365522129 0 0.013387691788031984 -0.0013977962525487074 0 0.017391481432151454 0.0012897335267768042 0 0.018486779784931892 0.0012401752078687112 0 0.013394228555098569 -0.0012769996365522129 0 0.013387691788031984 -0.0013977962525487074 0 0.013489964403412743 -0.0014633470561706209 0 0.013292637366099334 -0.0013334113421940271 0 0.013387691788031984 -0.0013977962525487074 0 0.013384483437169394 -0.0014982727653105757 0 0.013387691788031984 -0.0013977962525487074 0 0.013489964403412743 -0.0014633470561706209 0 0.013384483437169394 -0.0014982727653105757 0 0.013706488983972549 -0.0015257417022068777 0 0.013489964403412743 -0.0014633470561706209 0 0.013477748693956449 -0.0016503268056920913 0 0.013489964403412743 -0.0014633470561706209 0 0.013384483437169394 -0.0014982727653105757 0 0.013477748693956449 -0.0016503268056920913 0 0.018486779784931892 0.0012401752078687112 0 0.019692035337282299 0.0007514017185682243 0 0.023838334787215663 0.0039787587982645905 0 0.023491132314325591 0.0033582825068175226 0 0.024167537504516147 0.0031101307906638378 0 0.023122621106698729 0.0040476341991962754 0 0.023491132314325591 0.0033582825068175226 0 0.022659368191676431 0.003215236944019349 0 0.023838334787215663 0.0039787587982645905 0 0.023122621106698729 0.0040476341991962754 0 0.023491132314325591 0.0033582825068175226 0 0.02230488497401157 0.0044985339199606405 0 0.021779334421624955 0.0036241851686147739 0 0.022659368191676431 0.003215236944019349 0 0.023122621106698729 0.0040476341991962754 0 0.02230488497401157 0.0044985339199606405 0 0.022659368191676431 0.003215236944019349 0 0.015249525353491437 0.0010114591277466394 0 0.0186029649590887 0.0044559183518366931 0 0.012931048321593775 0.0027781687841203885 0 0.012233098984809086 0.0028788852919502781 0 0.013576767505530316 0.0034319367103009422 0 0.014421342193963099 0.002757926711747607 0 0.013576767505530316 0.0034319367103009422 0 0.015357654975253434 0.0040806908085059632 0 0.0186029649590887 0.0044559183518366931 0 0.017920155381232483 0.0041369358618001065 0 0.02230488497401157 0.0044985339199606405 0 0.021779334421624955 0.0036241851686147739 0 0.020862774917490678 0.0044549370712394874 0 0.021779334421624955 0.0036241851686147739 0 0.0218179114943697 0.0025060665455965969 0 0.022659368191676431 0.003215236944019349 0 0.022659368191676431 0.003215236944019349 0 0.022669617919989681 0.0022216138887698332 0 0.02366647540281688 0.0023840553393751317 0 0.0218179114943697 0.0025060665455965969 0 0.022659368191676431 0.003215236944019349 0 0.022669617919989681 0.0022216138887698332 0 0.022669617919989681 0.0022216138887698332 0 0.022350025154327314 0.0016351442175498816 0 0.023026314691393782 0.0014754158046125332 0 0.0218179114943697 0.0025060665455965969 0 0.022350025154327314 0.0016351442175498816 0 0.02153523595708676 0.0016215486232761867 0 0.0218179114943697 0.0025060665455965969 0 0.022669617919989681 0.0022216138887698332 0 0.022350025154327314 0.0016351442175498816 0 0.019692035337282299 0.0007514017185682243 0 0.0222822355470505 0.00058364737143438658 0 0.020806913844531524 0.00059438737976359442 0 0.02163012402581229 0.00042401582361492775 0 0.022040404828553559 0.00091390676586476042 0 0.022302243153599643 0.00025191227484893742 0 0.022773260849571288 0.00081427175035211582 0 0.022040404828553559 0.00091390676586476042 0 0.019692035337282299 0.0007514017185682243 0 0.023502008124468031 0.0019942400848199484 0 0.023491132314325591 0.0033582825068175226 0 0.022659368191676431 0.003215236944019349 0 0.02366647540281688 0.0023840553393751317 0 0.023491132314325591 0.0033582825068175226 0 0.024167537504516147 0.0031101307906638378 0 0.02366647540281688 0.0023840553393751317 0 0.022773260849571288 0.00081427175035211582 0 0.023026314691393782 0.0014754158046125332 0 0.022816502071500978 0.0014276346689254937 0 0.022669617919989681 0.0022216138887698332 0 0.02366647540281688 0.0023840553393751317 0 0.023026314691393782 0.0014754158046125332 0 0.023502008124468031 0.0019942400848199484 0 0.022938500917419724 0.0013352407744003849 0 0.022773260849571288 0.00081427175035211582 0 0.022040404828553559 0.00091390676586476042 0 0.022816502071500978 0.0014276346689254937 0 0.022040404828553559 0.00091390676586476042 0 0.022464021492628012 0.0012566407004732816 0 0.022816502071500978 0.0014276346689254937 0 0.023148628792843975 0.0019336530378797699 0 0.022816502071500978 0.0014276346689254937 0 0.022987914824427916 0.0014005236435748834 0 0.023148628792843975 0.0019336530378797699 0 0.022464021492628012 0.0012566407004732816 0 0.022816502071500978 0.0014276346689254937 0 0.023026314691393782 0.0014754158046125332 0 0.022816502071500978 0.0014276346689254937 0 0.022897136263014484 0.0012292743091990414 0 0.022816502071500978 0.0014276346689254937 0 0.022897136263014484 0.0012292743091990414 0 0.022987914824427916 0.0014005236435748834 0 0.022688970757117909 0.00059226498448499755 0 0.022884341789529514 0.00095713386563692823 0 0.022732509216633754 0.00085637906079601286 0 0.022897136263014484 0.0012292743091990414 0 0.022884341789529514 0.00095713386563692823 0 0.022732509216633754 0.00085637906079601286 0 0.023191050534369172 0.0010706384397595409 0 0.022884341789529514 0.00095713386563692823 0 0.022987914824427916 0.0014005236435748834 0 0.022897136263014484 0.0012292743091990414 0 0.022884341789529514 0.00095713386563692823 0 0.022987914824427916 0.0014005236435748834 0 0.023191050534369172 0.0010706384397595409 0 0.023148628792843975 0.0019336530378797699 0 0.022987914824427916 0.0014005236435748834 0 0.022350025154327314 0.0016351442175498816 0 0.022185169427440886 0.0010064264883211914 0 0.022690596404592197 0.0012095238854561102 0 0.022350025154327314 0.0016351442175498816 0 0.022185169427440886 0.0010064264883211914 0 0.02153523595708676 0.0016215486232761867 0 0.022185169427440886 0.0010064264883211914 0 0.022690596404592197 0.0012095238854561102 0 0.022552581643902184 0.00076127465040417067 0 0.022350025154327314 0.0016351442175498816 0 0.023026314691393782 0.0014754158046125332 0 0.022690596404592197 0.0012095238854561102 0 0.023026314691393782 0.0014754158046125332 0 0.022897136263014484 0.0012292743091990414 0 0.022690596404592197 0.0012095238854561102 0 0.022897136263014484 0.0012292743091990414 0 0.022552581643902184 0.00076127465040417067 0 0.022732509216633754 0.00085637906079601286 0 0.022897136263014484 0.0012292743091990414 0 0.022690596404592197 0.0012095238854561102 0 0.022552581643902184 0.00076127465040417067 0 0.022582094270471784 0.00056235797720154579 0 0.022414521483639163 0.00028173872304909447 0 0.022552581643902184 0.00076127465040417067 0 0.022582094270471784 0.00056235797720154579 0 0.022552581643902184 0.00076127465040417067 0 0.022732509216633754 0.00085637906079601286 0 0.022185169427440886 0.0010064264883211914 0 0.022552581643902184 0.00076127465040417067 0 0.022168896755618412 0.00020416980918083532 0 0.022414521483639163 0.00028173872304909447 0 0.022552581643902184 0.00076127465040417067 0 0.022168896755618412 0.00020416980918083532 0 0.022168896755618412 0.00020416980918083532 0 0.021462414153457714 0.00072716412184097772 0 0.021771365108797115 -0.00066741015813928553 0 0.022185169427440886 0.0010064264883211914 0 0.022168896755618412 0.00020416980918083532 0 0.021462414153457714 0.00072716412184097772 0 0.022185169427440886 0.0010064264883211914 0 0.021462414153457714 0.00072716412184097772 0 0.02153523595708676 0.0016215486232761867 0 0.021462414153457714 0.00072716412184097772 0 0.02153523595708676 0.0016215486232761867 0 0.020152992019277463 0.0018620528192995493 0 0.021462414153457714 0.00072716412184097772 0 0.020472176345742832 0.00035970880090799604 0 0.020152992019277463 0.0018620528192995493 0 0.021462414153457714 0.00072716412184097772 0 0.020472176345742832 0.00035970880090799604 0 0.021771365108797115 -0.00066741015813928553 0 0.019213835287189764 -0.0017454229158911192 0 0.020472176345742832 0.00035970880090799604 0 0.021771365108797115 -0.00066741015813928553 0 0.019213835287189764 -0.0017454229158911192 0 0.020472176345742832 0.00035970880090799604 0 0.018889748766296299 0.00070686667036908935 0 0.019213835287189764 -0.0017454229158911192 0 0.017936612457470316 -0.00061291245053858676 0 0.018889748766296299 0.00070686667036908935 0 0.017936612457470316 -0.00061291245053858676 0 0.017547476886726105 0.00042797739443954598 0 0.018889748766296299 0.00070686667036908935 0 0.017936612457470316 -0.00061291245053858676 0 0.017547476886726105 0.00042797739443954598 0 0.017016975199436207 -0.00037363215414590426 0 0.017829213641128775 0.0013604532988033733 0 0.018889748766296299 0.00070686667036908935 0 0.01864068938327065 0.0020384929388790186 0 0.017829213641128775 0.0013604532988033733 0 0.017601894028703404 0.0027998138719326159 0 0.016346471886511699 0.00068367192099150014 0 0.017547476886726105 0.00042797739443954598 0 0.017829213641128775 0.0013604532988033733 0 0.016346471886511699 0.00068367192099150014 0 0.017547476886726105 0.00042797739443954598 0 0.017829213641128775 0.0013604532988033733 0 0.018889748766296299 0.00070686667036908935 0 0.018889748766296299 0.00070686667036908935 0 0.01864068938327065 0.0020384929388790186 0 0.020152992019277463 0.0018620528192995493 0 0.020472176345742832 0.00035970880090799604 0 0.018889748766296299 0.00070686667036908935 0 0.020152992019277463 0.0018620528192995493 0 0.01864068938327065 0.0020384929388790186 0 0.018555819318916832 0.003241362103266923 0 0.020152992019277463 0.0018620528192995493 0 0.01864068938327065 0.0020384929388790186 0 0.017601894028703404 0.0027998138719326159 0 0.018555819318916832 0.003241362103266923 0 0.017829213641128775 0.0013604532988033733 0 0.01864068938327065 0.0020384929388790186 0 0.017601894028703404 0.0027998138719326159 0 0.017601894028703404 0.0027998138719326159 0 0.018555819318916832 0.003241362103266923 0 0.01837100366511276 0.0041283517483063983 0 0.016627989191311938 0.0019648589962545705 0 0.016730248124815984 0.0026642255745594119 0 0.01567753708277192 0.0012723075244023491 0 0.01544131873022136 0.0012644277326711779 0 0.015157002736169399 0.0012778532120407543 0 0.018555819318916832 0.003241362103266923 0 0.020330660635996457 0.0031373970061930024 0 0.018331381783445802 0.0042139924096148071 0 0.018555819318916832 0.003241362103266923 0 0.020330660635996457 0.0031373970061930024 0 0.020152992019277463 0.0018620528192995493 0 0.021779334421624955 0.0036241851686147739 0 0.0218179114943697 0.0025060665455965969 0 0.020330660635996457 0.0031373970061930024 0 0.0218179114943697 0.0025060665455965969 0 0.020330660635996457 0.0031373970061930024 0 0.02153523595708676 0.0016215486232761867 0 0.020330660635996457 0.0031373970061930024 0 0.02153523595708676 0.0016215486232761867 0 0.020152992019277463 0.0018620528192995493 0 0.028310521955144895 -0.0012745079426158554 0 0.028713091795783748 -0.0010225602876705621 0 0.028873157992439745 -0.001400694254966806 0 0.028310521955144895 -0.0012745079426158554 0 0.028431169530496282 -0.00078322192593404218 0 0.028713091795783748 -0.0010225602876705621 0 0.028310521955144895 -0.0012745079426158554 0 0.028481737412574624 -0.001577267829494494 0 0.028873157992439745 -0.001400694254966806 0 0.028431169530496282 -0.00078322192593404218 0 0.028713091795783748 -0.0010225602876705621 0 0.028923684848476707 -0.00064509423706180045 0 0.028310521955144895 -0.0012745079426158554 0 0.028431169530496282 -0.00078322192593404218 0 0.027888257998806482 -0.00094632947674673311 0 0.028121313161514599 -0.00048511868754383056 0 0.028431169530496282 -0.00078322192593404218 0 0.027888257998806482 -0.00094632947674673311 0 0.028310521955144895 -0.0012745079426158554 0 0.027888257998806482 -0.00094632947674673311 0 0.027770399999283314 -0.0014372723128069725 0 0.027888257998806482 -0.00094632947674673311 0 0.02737556434266139 -0.00083311145760381735 0 0.027770399999283314 -0.0014372723128069725 0 0.021510963153757032 -0.00058817758334770841 0 0.021607079162117834 -0.00016083253209727148 0 0.027621627907837738 -0.00043464123320727217 0 0.027888257998806482 -0.00094632947674673311 0 0.02737556434266139 -0.00083311145760381735 0 0.017547476886726105 0.00042797739443954598 0 0.017016975199436207 -0.00037363215414590426 0 0.016346471886511699 0.00068367192099150014 0 0.015950803686891325 -0.00011229278622277286 0 0.017016975199436207 -0.00037363215414590426 0 0.016346471886511699 0.00068367192099150014 0 0.015950803686891325 -0.00011229278622277286 0 0.016346471886511699 0.00068367192099150014 0 0.015461860052858359 0.0010858010265740144 0 0.016346471886511699 0.00068367192099150014 0 0.015793077220266634 0.0011275661646629972 0 0.015461860052858359 0.0010858010265740144 0 0.01567753708277192 0.0012723075244023491 0 0.015793077220266634 0.0011275661646629972 0 0.015549754233148359 0.0012453104045696375 0 0.01567753708277192 0.0012723075244023491 0 0.016346471886511699 0.00068367192099150014 0 0.015793077220266634 0.0011275661646629972 0 0.016627989191311938 0.0019648589962545705 0 0.016311993601812562 0.00071565262713620711 0 0.01567753708277192 0.0012723075244023491 0 0.015549754233148359 0.0012453104045696375 0 0.01544131873022136 0.0012644277326711779 0 0.015549754233148359 0.0012453104045696375 0 0.015541154196548359 0.001250741720475715 0 0.015486581112612981 0.0012278666853564964 0 0.015549754233148359 0.0012453104045696375 0 0.015486581112612981 0.0012278666853564964 0 0.01544131873022136 0.0012644277326711779 0 0.015549754233148359 0.0012453104045696375 0 0.015461860052858359 0.0010858010265740144 0 0.015541154196548359 0.001250741720475715 0 0.015793077220266634 0.0011275661646629972 0 0.015549754233148359 0.0012453104045696375 0 0.015461860052858359 0.0010858010265740144 0 0.021607079162117834 -0.00016083253209727148 0 0.022078507720302402 -0.00037160186658159809 0 0.027770399999283314 -0.0014372723128069725 0 0.028202232317223078 -0.0016115546687708265 0 0.028132582543477551 -0.0019141453939169177 0 0.028310521955144895 -0.0012745079426158554 0 0.027770399999283314 -0.0014372723128069725 0 0.028202232317223078 -0.0016115546687708265 0 0.028202232317223078 -0.0016115546687708265 0 0.028132582543477551 -0.0019141453939169177 0 0.028315112119875072 -0.0018382342530963692 0 0.028315112119875072 -0.0018382342530963692 0 0.028390127116002285 -0.0025843947699659997 0 0.028685293051644224 -0.0021742131814092795 0 0.028749366305185129 -0.0018004740865532446 0 0.025752827634102266 -0.0026024282401545451 0 0.028132582543477551 -0.0019141453939169177 0 0.028315112119875072 -0.0018382342530963692 0 0.028102410494162778 -0.0019736775214385361 0 0.028315112119875072 -0.0018382342530963692 0 0.028734801580494518 -0.0017704064616752304 0 0.028685293051644224 -0.0021742131814092795 0 0.028315112119875072 -0.0018382342530963692 0 0.028481737412574624 -0.001577267829494494 0 0.028734801580494518 -0.0017704064616752304 0 0.028202232317223078 -0.0016115546687708265 0 0.028315112119875072 -0.0018382342530963692 0 0.028481737412574624 -0.001577267829494494 0 0.028310521955144895 -0.0012745079426158554 0 0.028202232317223078 -0.0016115546687708265 0 0.028481737412574624 -0.001577267829494494 0 0.028481737412574624 -0.001577267829494494 0 0.028734801580494518 -0.0017704064616752304 0 0.028873157992439745 -0.001400694254966806 0 0.015498083817736983 0.00011416628757715183 0 0.0081341372156959937 0.0007697334858892842 0 0.012138915852899885 0.00027571044545319476 0 0.01196127322096641 0.0012281805142982242 0 0.01172827378244746 0.0006712553872163955 0 0.012138915852899885 0.00027571044545319476 0 0.012031197820115285 0.00020794425458815083 0 0.01172827378244746 0.0006712553872163955 0 0.016586265147837658 0.00022181401850781884 0 0.010058188615819539 0.0016673465093138965 0 0.015725434343147902 0.0010901053383286193 0 0.015735173541467105 0.0010225445042642781 0 0.015621154581224346 0.0010981859292824236 0 0.015735173541467105 0.0010225445042642781 0 0.015621154581224346 0.0010981859292824236 0 0.015575727361894999 0.0010385561810058149 0 0.020230998804369328 -0.00065247604528094613 0 0.016586265147837658 0.00022181401850781884 0 0.02125970132365676 -0.0011072833823804196 0 0.021162652909604646 -0.00096075185012504624 0 0.020777812938568764 -0.0012059218627965601 0 0.020230998804369328 -0.00065247604528094613 0 0.015498083817736983 0.00011416628757715183 0 0.018065021418012129 -0.00069153794008284142 0 0.017839436640664733 0.00085744145626241242 0 0.01731351990713215 0.00053139605020297064 0 0.015498083817736983 0.00011416628757715183 0 0.016586265147837658 0.00022181401850781884 0 0.028315112119875072 -0.0018382342530963692 0 0.028111402584622733 -0.0019736585950270299 0 0.028102410494162778 -0.0019736775214385361 0 0.015541154196548359 0.001250741720475715 0 0.015725434343147902 0.0010901053383286193 0 0.015576426721401207 0.0011678254574950661 0 0.028132582543477551 -0.0019141453939169177 0 0.028081655313223486 -0.0019967909207820067 0 0.028102410494162778 -0.0019736775214385361 0 0.02125970132365676 -0.0011072833823804196 0 0.021306509965034855 -0.0013498924490775953 0 0.020777812938568764 -0.0012059218627965601 0 0.022078507720302402 -0.00037160186658159809 0 0.020230998804369328 -0.00065247604528094613 0 0.020230998804369328 -0.00065247604528094613 0 0.025752827634102266 -0.0026024282401545451 0 0.028081655313223486 -0.0019967909207820067 0 0.028101101630090341 -0.0019746271874362528 0 0.028102410494162778 -0.0019736775214385361 0 0.015725434343147902 0.0010901053383286193 0 0.015621154581224346 0.0010981859292824236 0 0.015576426721401207 0.0011678254574950661 0 0.025752827634102266 -0.0026024282401545451 0 0.026112443278484922 -0.0025671530893861252 0 0.015621154581224346 0.0010981859292824236 0 0.015576426721401207 0.0011678254574950661 0 0.015463702192067899 0.0011547907229567784 0 0.015541154196548359 0.001250741720475715 0 0.015576426721401207 0.0011678254574950661 0 0.015486581112612981 0.0012278666853564964 0 0.015576426721401207 0.0011678254574950661 0 0.015463702192067899 0.0011547907229567784 0 0.015486581112612981 0.0012278666853564964 0 0.015498083817736983 0.00011416628757715183 0 0.014171665747869462 0.00051582917910324144 0 0.015463702192067899 0.0011547907229567784 0 0.015575727361894999 0.0010385561810058149 0 0.015491898629646715 0.00087437860428354202 0 0.015463702192067899 0.0011547907229567784 0 0.015363136068391141 0.0010990168765073513 0 0.015369856357518103 0.0010373951212600708 0 0.015735173541467105 0.0010225445042642781 0 0.015575727361894999 0.0010385561810058149 0 0.015491898629646715 0.00087437860428354202 0 0.015641156694181032 0.0012571958565128502 0 0.014171665747869462 0.00051582917910324144 0 0.015621154581224346 0.0010981859292824236 0 0.015463702192067899 0.0011547907229567784 0 0.015575727361894999 0.0010385561810058149 0 0.015363136068391141 0.0010990168765073513 0 0.015233825684540318 0.0011108941235369852 0 0.015257329374408112 0.0010145142712216701 0 0.015363136068391141 0.0010990168765073513 0 0.015382382624591788 0.0011873696345646744 0 0.015233825684540318 0.0011108941235369852 0 0.015463702192067899 0.0011547907229567784 0 0.015363136068391141 0.0010990168765073513 0 0.015382382624591788 0.0011873696345646744 0 0.015463702192067899 0.0011547907229567784 0 0.015486581112612981 0.0012278666853564964 0 0.015382382624591788 0.0011873696345646744 0 0.015486581112612981 0.0012278666853564964 0 0.015382382624591788 0.0011873696345646744 0 0.01544131873022136 0.0012644277326711779 0 0.015382382624591788 0.0011873696345646744 0 0.01544131873022136 0.0012644277326711779 0 0.015255266588184916 0.0011959316563906221 0 0.015255266588184916 0.0011959316563906221 0 0.015233825684540318 0.0011108941235369852 0 0.015049458617157863 0.0011275161368965647 0 0.015233825684540318 0.0011108941235369852 0 0.015103677881226959 0.0009903039695601109 0 0.015049458617157863 0.0011275161368965647 0 0.015382382624591788 0.0011873696345646744 0 0.015255266588184916 0.0011959316563906221 0 0.015233825684540318 0.0011108941235369852 0 0.015233825684540318 0.0011108941235369852 0 0.015103677881226959 0.0009903039695601109 0 0.015257329374408112 0.0010145142712216701 0 0.014946991063356374 0.00080149675523672056 0 0.015146518158107877 0.00087978807645801966 0 0.015075973952484195 0.00069073588715673462 0 0.015103677881226959 0.0009903039695601109 0 0.014946991063356374 0.00080149675523672056 0 0.014887081745132365 0.00093742806005460617 0 0.015103677881226959 0.0009903039695601109 0 0.014946991063356374 0.00080149675523672056 0 0.015146518158107877 0.00087978807645801966 0 0.015146518158107877 0.00087978807645801966 0 0.015244891299424978 0.00082840464031438716 0 0.015154807559220978 0.00072737304917165938 0 0.015130592187538299 0.00086557575197988401 0 0.015119987953901931 0.00071469805107972383 0 0.015146518158107877 0.00087978807645801966 0 0.015244891299424978 0.00082840464031438716 0 0.015299217633182739 0.00094063878303353085 0 0.015299217633182739 0.00094063878303353085 0 0.015257329374408112 0.0010145142712216701 0 0.015319580610410985 0.0010017975175348193 0 0.015146518158107877 0.00087978807645801966 0 0.015299217633182739 0.00094063878303353085 0 0.015257329374408112 0.0010145142712216701 0 0.015103677881226959 0.0009903039695601109 0 0.015146518158107877 0.00087978807645801966 0 0.015257329374408112 0.0010145142712216701 0 0.015363136068391141 0.0010990168765073513 0 0.01533790094033881 0.0010378941822758972 0 0.015369856357518103 0.0010373951212600708 0 0.015257329374408112 0.0010145142712216701 0 0.01533790094033881 0.0010378941822758972 0 0.015319580610410985 0.0010017975175348193 0 0.015363136068391141 0.0010990168765073513 0 0.015257329374408112 0.0010145142712216701 0 0.01533790094033881 0.0010378941822758972 0 0.012258654202320257 0.00030798872694184952 0 0.012180387593284134 0.00058041056114570071 0 0.01206383795249499 0.00039969155756350251 0 0.015299217633182739 0.00094063878303353085 0 0.015369856357518103 0.0010373951212600708 0 0.015345433569630767 0.00087047544205043305 0 0.014171665747869462 0.00051582917910324144 0 0.013913742158464948 0.00060061762594727872 0 0.01533790094033881 0.0010378941822758972 0 0.015319580610410985 0.0010017975175348193 0 0.015369856357518103 0.0010373951212600708 0 0.015299217633182739 0.00094063878303353085 0 0.015319580610410985 0.0010017975175348193 0 0.015369856357518103 0.0010373951212600708 0 0.015244891299424978 0.00082840464031438716 0 0.015345433569630767 0.00087047544205043305 0 0.015254633972147378 0.00072969766971043074 0 0.015244891299424978 0.00082840464031438716 0 0.015299217633182739 0.00094063878303353085 0 0.015345433569630767 0.00087047544205043305 0 0.012180387593284134 0.00058041056114570071 0 0.012001728786866214 0.0006134115416688104 0 0.012090816061438752 0.00085991691358741076 0 0.012180387593284134 0.00058041056114570071 0 0.012001728786866214 0.0006134115416688104 0 0.01206383795249499 0.00039969155756350251 0 0.0083562205470196754 0.00068605276489615925 0 0.0081341372156959937 0.0007697334858892842 0 0.0081341372156959937 0.0007697334858892842 0 0.0035262553428631284 0.0013903316006453393 0 0.0047934262794313365 0.00091817147236263974 0 0.0045713717214867899 0.00099369216900061408 0 0.0045257989497153976 0.00025258131465602025 0 0.0045713717214867899 0.00099369216900061408 0 0.0045257989497153976 0.00025258131465602025 0 0.0043354212107075745 0.001300016854569825 0 0.0047934262794313365 0.00091817147236263974 0 0.0045713717214867899 0.00099369216900061408 0 0.0046915805815056473 0.0012544061170676859 0 0.0045713717214867899 0.00099369216900061408 0 0.0045067885777344743 0.0012378315995546427 0 0.0043354212107075745 0.001300016854569825 0 0.0045713717214867899 0.00099369216900061408 0 0.0045067885777344743 0.0012378315995546427 0 0.0046915805815056473 0.0012544061170676859 0 0.011970676226439629 0.00012548384810727179 0 0.011909578646793104 0.00037436967008747042 0 0.01206383795249499 0.00039969155756350251 0 0.012001728786866214 0.0006134115416688104 0 0.011909578646793104 0.00037436967008747042 0 0.01206383795249499 0.00039969155756350251 0 0.011970676226439629 0.00012548384810727179 0 0.012258654202320257 0.00030798872694184952 0 0.01206383795249499 0.00039969155756350251 0 0.0081341372156959937 0.0007697334858892842 0 0.010058188615819539 0.0016673465093138965 0 0.016690635717682509 0.0033596284272385496 0 0.015357654975253434 0.0040806908085059632 0 0.015474699464661172 0.0024170226979985865 0 0.014421342193963099 0.002757926711747607 0 0.015357654975253434 0.0040806908085059632 0 0.015474699464661172 0.0024170226979985865 0 0.021779334421624955 0.0036241851686147739 0 0.020330660635996457 0.0031373970061930024 0 0.020862774917490678 0.0044549370712394874 0 0.020330660635996457 0.0031373970061930024 0 0.020862774917490678 0.0044549370712394874 0 0.018331381783445802 0.0042139924096148071 0 0.016690635717682509 0.0033596284272385496 0 0.015357654975253434 0.0040806908085059632 0 0.018331381783445802 0.0042139924096148071 0 0.017920155381232483 0.0041369358618001065 0 0.018321831569085061 0.0042493315805473188 0 0.018555819318916832 0.003241362103266923 0 0.018331381783445802 0.0042139924096148071 0 0.01837100366511276 0.0041283517483063983 0 0.01544131873022136 0.0012644277326711779 0 0.015255266588184916 0.0011959316563906221 0 0.015157002736169399 0.0012778532120407543 0 0.015255266588184916 0.0011959316563906221 0 0.015157002736169399 0.0012778532120407543 0 0.015049458617157863 0.0011275161368965647 0 0.016730248124815984 0.0026642255745594119 0 0.0160846356411718 0.001974700760139626 0 0.016690635717682509 0.0033596284272385496 0 0.018331381783445802 0.0042139924096148071 0 0.017477648585704501 0.0028215229967814876 0 0.018331381783445802 0.0042139924096148071 0 0.01837100366511276 0.0041283517483063983 0 0.017477648585704501 0.0028215229967814876 0 0.015157002736169399 0.0012778532120407543 0 0.015049458617157863 0.0011275161368965647 0 0.014705969802311789 0.0010868574473009475 0 0.0160846356411718 0.001974700760139626 0 0.015098687632156039 0.0010904705990647933 0 0.014705969802311789 0.0010868574473009475 0 0.014887081745132365 0.00093742806005460617 0 0.014635748552929307 0.00085329017784022338 0 0.015103677881226959 0.0009903039695601109 0 0.015049458617157863 0.0011275161368965647 0 0.014887081745132365 0.00093742806005460617 0 0.015049458617157863 0.0011275161368965647 0 0.014705969802311789 0.0010868574473009475 0 0.014887081745132365 0.00093742806005460617 0 0.014887081745132365 0.00093742806005460617 0 0.014635748552929307 0.00085329017784022338 0 0.014635872731094306 0.00067735242714610537 0 0.014946991063356374 0.00080149675523672056 0 0.014887081745132365 0.00093742806005460617 0 0.014635872731094306 0.00067735242714610537 0 0.014635748552929307 0.00085329017784022338 0 0.014334965931550769 0.00076778885677981034 0 0.014635872731094306 0.00067735242714610537 0 0.014705969802311789 0.0010868574473009475 0 0.014635748552929307 0.00085329017784022338 0 0.014334965931550769 0.00076778885677981034 0 0.016690635717682509 0.0033596284272385496 0 0.017477648585704501 0.0028215229967814876 0 0.015474699464661172 0.0024170226979985865 0 0.017477648585704501 0.0028215229967814876 0 0.015864853334789795 0.0013133446691053557 0 0.015474699464661172 0.0024170226979985865 0 0.014421342193963099 0.002757926711747607 0 0.014089498469794438 0.0017566108164971405 0 0.015474699464661172 0.0024170226979985865 0 0.015864853334789795 0.0013133446691053557 0 0.015474699464661172 0.0024170226979985865 0 0.014447457623064354 0.0010952813559657972 0 0.014089498469794438 0.0017566108164971405 0 0.015474699464661172 0.0024170226979985865 0 0.014447457623064354 0.0010952813559657972 0 0.014447457623064354 0.0010952813559657972 0 0.014165705873939621 0.00050872078119895345 0 0.013692100320559859 0.00077384057738693311 0 0.014165705873939621 0.00050872078119895345 0 0.013692100320559859 0.00077384057738693311 0 0.013392630869879551 0.0004421531895732116 0 0.014165705873939621 0.00050872078119895345 0 0.014297948592363366 0.0005071857447806027 0 0.014054454740864831 0.00034253270500674194 0 0.014334965931550769 0.00076778885677981034 0 0.014165705873939621 0.00050872078119895345 0 0.014297948592363366 0.0005071857447806027 0 0.015864853334789795 0.0013133446691053557 0 0.014447457623064354 0.0010952813559657972 0 0.014165705873939621 0.00050872078119895345 0 0.015098687632156039 0.0010904705990647933 0 0.014307938146841578 0.00055606854166716355 0 0.014334965931550769 0.00076778885677981034 0 0.014635872731094306 0.00067735242714610537 0 0.014297948592363366 0.0005071857447806027 0 0.014635872731094306 0.00067735242714610537 0 0.014541537056036124 0.00048824721166282017 0 0.014822436169320764 0.00058543284603835611 0 0.014635872731094306 0.00067735242714610537 0 0.014541537056036124 0.00048824721166282017 0 0.014297948592363366 0.0005071857447806027 0 0.014541537056036124 0.00048824721166282017 0 0.014297948592363366 0.0005071857447806027 0 0.014259133043393071 0.00029228170592191861 0 0.014297948592363366 0.0005071857447806027 0 0.014054454740864831 0.00034253270500674194 0 0.014259133043393071 0.00029228170592191861 0 0.014054454740864831 0.00034253270500674194 0 0.014259133043393071 0.00029228170592191861 0 0.013936861316830741 0.00015751034605517733 0 0.014054454740864831 0.00034253270500674194 0 0.013936861316830741 0.00015751034605517733 0 0.013689171042870731 0.00020759551782355685 0 0.014541537056036124 0.00048824721166282017 0 0.014259133043393071 0.00029228170592191861 0 0.014773330886065318 0.00032600523714535715 0 0.014287583396263697 0.00027897930415098857 0 0.01469042368722236 0.00042290341517548251 0 0.014259133043393071 0.00029228170592191861 0 0.014426911999550956 0.00041555691708182761 0 0.014339089338402281 0.00012923227225587685 0 0.014259133043393071 0.00029228170592191861 0 0.013936861316830741 0.00015751034605517733 0 0.014339089338402281 0.00012923227225587685 0 0.013936861316830741 0.00015751034605517733 0 0.014339089338402281 0.00012923227225587685 0 0.013993476304587792 -0.00021726835504454176 0 0.013936861316830741 0.00015751034605517733 0 0.013689171042870731 0.00020759551782355685 0 0.01346313008723285 1.7899962557533756e-05 0 0.013689171042870731 0.00020759551782355685 0 0.013178632800536553 -1.1738631196509043e-05 0 0.01346313008723285 1.7899962557533756e-05 0 0.013689171042870731 0.00020759551782355685 0 0.013178632800536553 -1.1738631196509043e-05 0 0.013400725263461167 0.00022352741175267119 0 0.014165705873939621 0.00050872078119895345 0 0.013689171042870731 0.00020759551782355685 0 0.013400725263461167 0.00022352741175267119 0 0.014165705873939621 0.00050872078119895345 0 0.013400725263461167 0.00022352741175267119 0 0.013392630869879551 0.0004421531895732116 0 0.014165705873939621 0.00050872078119895345 0 0.014054454740864831 0.00034253270500674194 0 0.013689171042870731 0.00020759551782355685 0 0.0064412112817075432 0.0015826386605452289 0 0.0038687519071910815 0.0016964646064499297 0 0.0042833119627197656 0.0013528874013192954 0 0.0043177852835932489 0.001293502122859166 0 0.0042805636240191769 0.0014321719887501042 0 0.0042833119627197656 0.0013528874013192954 0 0.004199341534590984 0.001414770803566762 0 0.0042263838671459351 0.0013468141439030835 0 0.0042833119627197656 0.0013528874013192954 0 0.0042970489775943487 0.0013134885959879975 0 0.0043177852835932489 0.001293502122859166 0 0.0042833119627197656 0.0013528874013192954 0 0.0042970489775943487 0.0013134885959879975 0 0.0042798890515974184 0.0013155570714884005 0 0.0042798890515974184 0.0013155570714884005 0 0.0043008621415675909 0.0013023793131026703 0 0.0042800004345770861 0.001283175805526415 0 0.0042970489775943487 0.0013134885959879975 0 0.0042798890515974184 0.0013155570714884005 0 0.0043008621415675909 0.0013023793131026703 0 0.0042833119627197656 0.0013528874013192954 0 0.0042798890515974184 0.0013155570714884005 0 0.0042263838671459351 0.0013468141439030835 0 0.0042798890515974184 0.0013155570714884005 0 0.0042800004345770861 0.001283175805526415 0 0.0042263838671459351 0.0013468141439030835 0 0.0083562205470196754 0.00068605276489615925 0 0.0094017367095847564 0.0010120583595174286 0 0.0047934262794313365 0.00091817147236263974 0 0.0046915805815056473 0.0012544061170676859 0 0.0051135961111878113 0.0015743797440633874 0 0.0043008621415675909 0.0013023793131026703 0 0.0043237643299281767 0.0013200559275099817 0 0.0042800004345770861 0.001283175805526415 0 0.0043237643299281767 0.0013200559275099817 0 0.0045769980317672022 0.0013771291092874026 0 0.0050815355629184444 0.001756024923045717 0 0.0043008621415675909 0.0013023793131026703 0 0.0043237643299281767 0.0013200559275099817 0 0.0043177852835932489 0.001293502122859166 0 0.003824193759847095 0.0011377254800891661 0 0.0064412112817075432 0.0015826386605452289 0 0.0043237643299281767 0.0013200559275099817 0 0.0045769980317672022 0.0013771291092874026 0 0.004424082034790452 0.0012931460400951794 0 0.0045769980317672022 0.0013771291092874026 0 0.0045067885777344743 0.0012378315995546427 0 0.004424082034790452 0.0012931460400951794 0 0.0045769980317672022 0.0013771291092874026 0 0.0045067885777344743 0.0012378315995546427 0 0.0046915805815056473 0.0012544061170676859 0 0.0045067885777344743 0.0012378315995546427 0 0.004424082034790452 0.0012931460400951794 0 0.0043354212107075745 0.001300016854569825 0 0.0043237643299281767 0.0013200559275099817 0 0.004424082034790452 0.0012931460400951794 0 0.0043354212107075745 0.001300016854569825 0 0.0046915805815056473 0.0012544061170676859 0 0.004865854729787975 0.0014861708145304656 0 0.0051135961111878113 0.0015743797440633874 0 0.0045769980317672022 0.0013771291092874026 0 0.0046915805815056473 0.0012544061170676859 0 0.004865854729787975 0.0014861708145304656 0 0.0045769980317672022 0.0013771291092874026 0 0.004865854729787975 0.0014861708145304656 0 0.0050815355629184444 0.001756024923045717 0 0.0042970489775943487 0.0013134885959879975 0 0.0043008621415675909 0.0013023793131026703 0 0.0043177852835932489 0.001293502122859166 0 0.0093161933122768836 0.00074453840151918963 0 0.0087381970956960688 0.00046534603355197782 0 0.0091776195291981815 0.001423901889100065 0 0.013913742158464948 0.00060061762594727872 0 0.0094017367095847564 0.0010120583595174286 0 0.015303688149899922 0.00066890049203409082 0 0.015326940534014614 0.00071017388677893504 0 0.015254633972147378 0.00072969766971043074 0 0.015345433569630767 0.00087047544205043305 0 0.015326940534014614 0.00071017388677893504 0 0.015254633972147378 0.00072969766971043074 0 0.015303688149899922 0.00066890049203409082 0 0.015254633972147378 0.00072969766971043074 0 0.015156431730824428 0.00059063191554782266 0 0.0064412112817075432 0.0015826386605452289 0 0.0091255274331194097 0.0015179384164044076 0 0.0091255274331194097 0.0015179384164044076 0 0.0094017367095847564 0.0010120583595174286 0 0.004865854729787975 0.0014861708145304656 0 0.0050815355629184444 0.001756024923045717 0 0.0051135961111878113 0.0015743797440633874 0 0.0064412112817075432 0.0015826386605452289 0 0.0094017367095847564 0.0010120583595174286 0 0.0038405345160882325 0.0022576587156457454 0 0.0036498125463209426 0.0019189866866466576 0 0.0039582302379756575 0.0017925963896188969 0 0.0095850993241369861 0.00094994697605647698 0 0.0097475391658174409 0.0010155516581910298 0 0.0096447943887067334 0.0010779147786901917 0 0.0039030939063349267 0.002286077379766928 0 0.0038405345160882325 0.0022576587156457454 0 0.0039582302379756575 0.0017925963896188969 0 0.0091255274331194097 0.0015179384164044076 0 0.0064399518282136628 0.0013496583564089986 0 0.0091255274331194097 0.0015179384164044076 0 0.014287924956721855 0.00040900781821163052 0 0.014287924956721855 0.00040900781821163052 0 0.015119987953901931 0.00071469805107972383 0 0.01507925902858109 0.00044187181660877722 0 0.015075973952484195 0.00069073588715673462 0 0.014822436169320764 0.00058543284603835611 0 0.015254633972147378 0.00072969766971043074 0 0.015156431730824428 0.00059063191554782266 0 0.015154807559220978 0.00072737304917165938 0 0.015244891299424978 0.00082840464031438716 0 0.015254633972147378 0.00072969766971043074 0 0.015154807559220978 0.00072737304917165938 0 0.014946991063356374 0.00080149675523672056 0 0.014635872731094306 0.00067735242714610537 0 0.014822436169320764 0.00058543284603835611 0 0.014946991063356374 0.00080149675523672056 0 0.015075973952484195 0.00069073588715673462 0 0.014822436169320764 0.00058543284603835611 0 0.014541537056036124 0.00048824721166282017 0 0.014822436169320764 0.00058543284603835611 0 0.014773330886065318 0.00032600523714535715 0 0.01507925902858109 0.00044187181660877722 0 0.014822436169320764 0.00058543284603835611 0 0.014773330886065318 0.00032600523714535715 0 0.014287924956721855 0.00040900781821163052 0 0.01469042368722236 0.00042290341517548251 0 0.014426911999550956 0.00041555691708182761 0 0.014339089338402281 0.00012923227225587685 0 0.014734781913531045 0.00016304244207242862 0 0.014339089338402281 0.00012923227225587685 0 0.014734781913531045 0.00016304244207242862 0 0.014653006778655078 -0.00029326120758586593 0 0.0034803383455346199 0.001491247041147939 0 0.0034765764746368002 0.0015468866605322365 0 0.0034407925532436807 0.0014361645282046978 0 0.0078172140909263839 0.001115795315540655 0 0.0091601995947594283 0.00056608052307933988 0 0.0078172140909263839 0.001115795315540655 0 0.003459465199294319 0.0016211343825763415 0 0.0034803383455346199 0.001491247041147939 0 0.0034765764746368002 0.0015468866605322365 0 0.0036623361425065682 0.0016166358120815649 0 0.0097475391658174409 0.0010155516581910298 0 0.0096897860830613674 0.0012049800299972003 0 0.0096447943887067334 0.0010779147786901917 0 0.014287924956721855 0.00040900781821163052 0 0.0078172140909263839 0.001115795315540655 0 0.0078172140909263839 0.001115795315540655 0 0.0064399518282136628 0.0013496583564089986 0 0.014663370387758622 0.00053677772461873383 0 0.014426911999550956 0.00041555691708182761 0 0.014734781913531045 0.00016304244207242862 0 0.0034765764746368002 0.0015468866605322365 0 0.0036498125463209426 0.0019189866866466576 0 0.0036623361425065682 0.0016166358120815649 0 0.0036498125463209426 0.0019189866866466576 0 0.0036623361425065682 0.0016166358120815649 0 0.0039582302379756575 0.0017925963896188969 0 0.0034613684004711326 0.0014633915420632449 0 0.003819882352665515 0.001431739590882051 0 0.0034803383455346199 0.001491247041147939 0 0.0034346952388341701 0.0014451548693278843 0 0.0034497259264481502 0.0014550875218299598 0 0.0034803383455346199 0.001491247041147939 0 0.0036623361425065682 0.0016166358120815649 0 0.0038202602313681983 0.0015021025753106641 0 0.0034803383455346199 0.001491247041147939 0 0.0038202602313681983 0.0015021025753106641 0 0.0040580742487872279 0.001267581664465368 0 0.0036623361425065682 0.0016166358120815649 0 0.0038202602313681983 0.0015021025753106641 0 0.0039582302379756575 0.0017925963896188969 0 0.0041737388771006852 0.0015013569505222864 0 0.0042004425257486846 0.0016262316312736877 0 0.0040742804934711203 0.0015780120412083884 0 0.0038687519071910815 0.0016964646064499297 0 0.003819882352665515 0.001431739590882051 0 0.0038202602313681983 0.0015021025753106641 0 0.0039582302379756575 0.0017925963896188969 0 0.0040580742487872279 0.001267581664465368 0 0.0041737388771006852 0.0015013569505222864 0 0.0042805636240191769 0.0014321719887501042 0 0.0042004425257486846 0.0016262316312736877 0 0.0041737388771006852 0.0015013569505222864 0 0.0042805636240191769 0.0014321719887501042 0 0.004199341534590984 0.001414770803566762 0 0.0042833119627197656 0.0013528874013192954 0 0.0042805636240191769 0.0014321719887501042 0 0.004199341534590984 0.001414770803566762 0 0.0034185595544067426 0.0013936539723279045 0 0.0034452731644910007 0.0014486259017352347 0 0.0034653211731267598 0.0014263212333716373 0 0.0034185595544067426 0.0013936539723279045 0 0.0034389145995026463 0.0013561068422610256 0 0.0034653211731267598 0.0014263212333716373 0 0.0034185595544067426 0.0013936539723279045 0 0.0034280009146045319 0.0014336810837545569 0 0.0034452731644910007 0.0014486259017352347 0 0.0034185595544067426 0.0013936539723279045 0 0.0034280009146045319 0.0014336810837545569 0 0.0034116626370445597 0.0014178059149457219 0 0.0034452731644910007 0.0014486259017352347 0 0.0034370018594869567 0.0014666707473605712 0 0.0034348207382968003 0.0014525268418241143 0 0.0034346952388341701 0.0014451548693278843 0 0.0034385324366899188 0.0014520538331349111 0 0.0034497259264481502 0.0014550875218299598 0 0.0037206109801732521 0.0014824594904451144 0 0.003819882352665515 0.001431739590882051 0 0.0034370018594869567 0.0014666707473605712 0 0.0034346952388341701 0.0014451548693278843 0 0.0034385324366899188 0.0014520538331349111 0 0.0034385324366899188 0.0014520538331349111 0 0.0034348207382968003 0.0014525268418241143 0 0.0034313220365183878 0.0014425781786325381 0 0.0034370018594869567 0.0014666707473605712 0 0.0034385324366899188 0.0014520538331349111 0 0.0034348207382968003 0.0014525268418241143 0 0.0034280009146045319 0.0014336810837545569 0 0.0034452731644910007 0.0014486259017352347 0 0.0034348207382968003 0.0014525268418241143 0 0.0034280009146045319 0.0014336810837545569 0 0.0034348207382968003 0.0014525268418241143 0 0.0034313220365183878 0.0014425781786325381 0 0.0034313220365183878 0.0014425781786325381 0 0.0034380172949744028 0.0014460715167506528 0 0.0034116626370445597 0.0014178059149457219 0 0.0034380172949744028 0.0014460715167506528 0 0.0034252735150412214 0.0014324124681332339 0 0.0034116626370445597 0.0014178059149457219 0 0.0034385324366899188 0.0014520538331349111 0 0.0034313220365183878 0.0014425781786325381 0 0.0034380172949744028 0.0014460715167506528 0 0.0034385324366899188 0.0014520538331349111 0 0.0034380172949744028 0.0014460715167506528 0 0.0034497259264481502 0.0014550875218299598 0 0.0034497259264481502 0.0014550875218299598 0 0.0034252735150412214 0.0014324124681332339 0 0.0034407925532436807 0.0014361645282046978 0 0.0034803383455346199 0.001491247041147939 0 0.0034497259264481502 0.0014550875218299598 0 0.0034407925532436807 0.0014361645282046978 0 0.0034380172949744028 0.0014460715167506528 0 0.0034497259264481502 0.0014550875218299598 0 0.0034252735150412214 0.0014324124681332339 0 0.0034252735150412214 0.0014324124681332339 0 0.0034116626370445597 0.0014178059149457219 0 0.0033884499302861966 0.0014028260085311643 0 0.0034280009146045319 0.0014336810837545569 0 0.0034313220365183878 0.0014425781786325381 0 0.0034116626370445597 0.0014178059149457219 0 0.0034185595544067426 0.0013936539723279045 0 0.0034116626370445597 0.0014178059149457219 0 0.0033731112258115876 0.0013513499804832909 0 0.0034116626370445597 0.0014178059149457219 0 0.0033884499302861966 0.0014028260085311643 0 0.0033731112258115876 0.0013513499804832909 0 0.0033884499302861966 0.0014028260085311643 0 0.0033678717287182083 0.00144019845926172 0 0.0033312917417061558 0.0013413650410909511 0 0.0033884499302861966 0.0014028260085311643 0 0.0033312917417061558 0.0013413650410909511 0 0.0033731112258115876 0.0013513499804832909 0 0.0034693991517037899 0.001519473086332594 0 0.0034269022189501973 0.0014614743990663413 0 0.0033678717287182083 0.00144019845926172 0 0.0034252735150412214 0.0014324124681332339 0 0.0033884499302861966 0.0014028260085311643 0 0.0034407925532436807 0.0014361645282046978 0 0.0034136383913223787 0.0013551706412831895 0 0.003459465199294319 0.0016211343825763415 0 0.0033884499302861966 0.0014028260085311643 0 0.0034269022189501973 0.0014614743990663413 0 0.0033678717287182083 0.00144019845926172 0 0.014339089338402281 0.00012923227225587685 0 0.014653006778655078 -0.00029326120758586593 0 0.013993476304587792 -0.00021726835504454176 0 0.0033678717287182083 0.00144019845926172 0 0.0032737688905924542 0.0013342048118465558 0 0.0033312917417061558 0.0013413650410909511 0 0.014653006778655078 -0.00029326120758586593 0 0.014480046473121773 -0.0010500481405897823 0 0.013993476304587792 -0.00021726835504454176 0 0.0091601995947594283 0.00056608052307933988 0 0.0088297930979600332 8.7858908144845997e-05 0 0.0032737688905924542 0.0013342048118465558 0 0.0032700773660187901 0.001255993022170943 0 0.003203410383861315 0.0012079077811368397 0 0.0032737688905924542 0.0013342048118465558 0 0.0032700773660187901 0.001255993022170943 0 0.0033312917417061558 0.0013413650410909511 0 0.0032700773660187901 0.001255993022170943 0 0.003203410383861315 0.0012079077811368397 0 0.003243688554357868 0.00116595527869827 0 0.0032700773660187901 0.001255993022170943 0 0.0033126496667408288 0.0012520397353666564 0 0.003243688554357868 0.00116595527869827 0 0.0032700773660187901 0.001255993022170943 0 0.0033126496667408288 0.0012520397353666564 0 0.0033312917417061558 0.0013413650410909511 0 0.0033126496667408288 0.0012520397353666564 0 0.0033312917417061558 0.0013413650410909511 0 0.0033731112258115876 0.0013513499804832909 0 0.0033126496667408288 0.0012520397353666564 0 0.0033731112258115876 0.0013513499804832909 0 0.0033812233667079778 0.0012770256830362875 0 0.0033126496667408288 0.0012520397353666564 0 0.0033812233667079778 0.0012770256830362875 0 0.0032930219088592215 0.0011673808733944986 0 0.0033812233667079778 0.0012770256830362875 0 0.0034655334457915099 0.0012349557823008754 0 0.0033457312662708801 0.0011506669546487642 0 0.0034185595544067426 0.0013936539723279045 0 0.0033812233667079778 0.0012770256830362875 0 0.0034389145995026463 0.0013561068422610256 0 0.0034185595544067426 0.0013936539723279045 0 0.0033731112258115876 0.0013513499804832909 0 0.0033812233667079778 0.0012770256830362875 0 0.012333027444510182 -0.00087875456525953344 0 0.012929119877184555 -5.3092536958364172e-05 0 0.013435328439266743 -0.00091134901054620409 0 0.012333027444510182 -0.00087875456525953344 0 0.012929119877184555 -5.3092536958364172e-05 0 0.010522611034655486 -0.00028904360674876148 0 0.012795230091160502 -7.4571094385518838e-05 0 0.011766037022828845 -0.000462025541086592 0 0.013178632800536553 -1.1738631196509043e-05 0 0.012929119877184555 -5.3092536958364172e-05 0 0.01314647375851022 -0.00051895892774917124 0 0.01346313008723285 1.7899962557533756e-05 0 0.012929119877184555 -5.3092536958364172e-05 0 0.013435328439266743 -0.00091134901054620409 0 0.013178632800536553 -1.1738631196509043e-05 0 0.01346313008723285 1.7899962557533756e-05 0 0.012929119877184555 -5.3092536958364172e-05 0 0.01346313008723285 1.7899962557533756e-05 0 0.013993476304587792 -0.00021726835504454176 0 0.013435328439266743 -0.00091134901054620409 0 0.013936861316830741 0.00015751034605517733 0 0.01346313008723285 1.7899962557533756e-05 0 0.013993476304587792 -0.00021726835504454176 0 0.014480046473121773 -0.0010500481405897823 0 0.013993476304587792 -0.00021726835504454176 0 0.013435328439266743 -0.00091134901054620409 0 0.013435328439266743 -0.00091134901054620409 0 0.013207800500737754 -0.0023036101282659619 0 0.012485404741545702 -0.0018128900387091281 0 0.0088297930979600332 8.7858908144845997e-05 0 0.0087697631865611587 -0.00036866563407251331 0 0.014480046473121773 -0.0010500481405897823 0 0.013435328439266743 -0.00091134901054620409 0 0.0140815386634272 -0.002234142011807811 0 0.013435328439266743 -0.00091134901054620409 0 0.0140815386634272 -0.002234142011807811 0 0.013207800500737754 -0.0023036101282659619 0 0.0140815386634272 -0.002234142011807811 0 0.013207800500737754 -0.0023036101282659619 0 0.013021091998940479 -0.0033253161863697556 0 0.013207800500737754 -0.0023036101282659619 0 0.012273338916548844 -0.0026774074379839301 0 0.012768810287991893 -0.0028419578650276285 0 0.012273338916548844 -0.0026774074379839301 0 0.012485404741545702 -0.0018128900387091281 0 0.011622046100906221 -0.0026204427817234769 0 0.012485404741545702 -0.0018128900387091281 0 0.011543876511034465 -0.0018004740457296766 0 0.011622046100906221 -0.0026204427817234769 0 0.013207800500737754 -0.0023036101282659619 0 0.012273338916548844 -0.0026774074379839301 0 0.012485404741545702 -0.0018128900387091281 0 0.012333027444510182 -0.00087875456525953344 0 0.013435328439266743 -0.00091134901054620409 0 0.012485404741545702 -0.0018128900387091281 0 0.012333027444510182 -0.00087875456525953344 0 0.012485404741545702 -0.0018128900387091281 0 0.011543876511034465 -0.0018004740457296766 0 0.012333027444510182 -0.00087875456525953344 0 0.011543876511034465 -0.0018004740457296766 0 0.010522611034655486 -0.00028904360674876148 0 0.011543876511034465 -0.0018004740457296766 0 0.010954063879057552 -0.0025953213107026219 0 0.0099416459164974828 -0.0020027220716020903 0 0.011543876511034465 -0.0018004740457296766 0 0.011622046100906221 -0.0026204427817234769 0 0.010954063879057552 -0.0025953213107026219 0 0.0099416459164974828 -0.0020027220716020903 0 0.0092960856527150078 -0.0030662738662484172 0 0.010243810428980482 -0.0031339078847477646 0 0.010954063879057552 -0.0025953213107026219 0 0.0099416459164974828 -0.0020027220716020903 0 0.010243810428980482 -0.0031339078847477646 0 0.0099416459164974828 -0.0020027220716020903 0 0.0085666316991603667 -0.0021506023589848689 0 0.0085264770009259149 -0.0010117642349449971 0 0.0099416459164974828 -0.0020027220716020903 0 0.0085666316991603667 -0.0021506023589848689 0 0.0092960856527150078 -0.0030662738662484172 0 0.0099416459164974828 -0.0020027220716020903 0 0.0085264770009259149 -0.0010117642349449971 0 0.010522611034655486 -0.00028904360674876148 0 0.011543876511034465 -0.0018004740457296766 0 0.0099416459164974828 -0.0020027220716020903 0 0.010522611034655486 -0.00028904360674876148 0 0.010607584393170251 -0.0014631199954225295 0 0.011766037022828845 -0.000462025541086592 0 0.012366934510268331 -0.001651773657529952 0 0.01314647375851022 -0.00051895892774917124 0 0.012299128794150516 -0.0002399036879543644 0 0.01314647375851022 -0.00051895892774917124 0 0.012299128794150516 -0.0002399036879543644 0 0.012881134973873606 9.0952710738911294e-05 0 0.012299128794150516 -0.0002399036879543644 0 0.012881134973873606 9.0952710738911294e-05 0 0.012354737037044435 0.00022610940034053714 0 0.013178632800536553 -1.1738631196509043e-05 0 0.01314647375851022 -0.00051895892774917124 0 0.012881134973873606 9.0952710738911294e-05 0 0.010816621827711615 -0.00014994559736164286 0 0.010588938307237877 0.00032859542711104054 0 0.011393386916187749 -7.4786169595011793e-05 0 0.010816621827711615 -0.00014994559736164286 0 0.010588938307237877 0.00032859542711104054 0 0.010382181932979349 -0.00022113535149957371 0 0.012051947982074459 6.6768480293477975e-07 0 0.012096966930166904 0.00019838163689270391 0 0.010588938307237877 0.00032859542711104054 0 0.011393386916187749 -7.4786169595011793e-05 0 0.012354737037044435 0.00022610940034053714 0 0.012299128794150516 -0.0002399036879543644 0 0.011393386916187749 -7.4786169595011793e-05 0 0.012354737037044435 0.00022610940034053714 0 0.012366934510268331 -0.001651773657529952 0 0.012299128794150516 -0.0002399036879543644 0 0.010911720206806568 -0.00043901428785664336 0 0.012299128794150516 -0.0002399036879543644 0 0.011393386916187749 -7.4786169595011793e-05 0 0.010911720206806568 -0.00043901428785664336 0 0.010911720206806568 -0.00043901428785664336 0 0.0084202848419977008 -0.00060916341050505087 0 0.0099979601702147401 -0.0018420392168664299 0 0.010816621827711615 -0.00014994559736164286 0 0.010911720206806568 -0.00043901428785664336 0 0.010382181932979349 -0.00022113535149957371 0 0.010911720206806568 -0.00043901428785664336 0 0.0084202848419977008 -0.00060916341050505087 0 0.007405895008783166 0.0010626037214243489 0 0.010819043883109478 -0.00037889401300328444 0 0.0086960404543201357 0.00047003672669288779 0 0.010816621827711615 -0.00014994559736164286 0 0.011393386916187749 -7.4786169595011793e-05 0 0.010911720206806568 -0.00043901428785664336 0 0.0099979601702147401 -0.0018420392168664299 0 0.0082016603366282075 -0.0025131869385410549 0 0.0078105811289805524 -0.0016696668874130955 0 0.0084202848419977008 -0.00060916341050505087 0 0.0099979601702147401 -0.0018420392168664299 0 0.0078105811289805524 -0.0016696668874130955 0 0.0099979601702147401 -0.0018420392168664299 0 0.0082016603366282075 -0.0025131869385410549 0 0.0098843644688904053 -0.003836022581002331 0 0.010607584393170251 -0.0014631199954225295 0 0.0071978234983946293 -0.0017650424609183105 0 0.012366934510268331 -0.001651773657529952 0 0.010911720206806568 -0.00043901428785664336 0 0.0099979601702147401 -0.0018420392168664299 0 0.012366934510268331 -0.001651773657529952 0 0.0099979601702147401 -0.0018420392168664299 0 0.0098843644688904053 -0.003836022581002331 0 0.0085666316991603667 -0.0021506023589848689 0 0.0066380305245812114 -0.0023202808840116383 0 0.0054959943408731124 -0.0007662326440860673 0 0.0085666316991603667 -0.0021506023589848689 0 0.0066380305245812114 -0.0023202808840116383 0 0.007439523741801876 -0.0030100213759563926 0 0.0085666316991603667 -0.0021506023589848689 0 0.0085264770009259149 -0.0010117642349449971 0 0.0071584695950254098 -0.0017897948771660669 0 0.0080378610476080827 -0.0018996449360440322 0 0.0071978234983946293 -0.0017650424609183105 0 0.0045816815065096994 -0.0011709152449852541 0 0.0050270152905412995 -0.0018320542587267608 0 0.0028313081564429986 -0.0021565241064134101 0 0.0045816815065096994 -0.0011709152449852541 0 0.0053385043373117757 -0.0006844249107091717 0 0.0036645463666082892 -0.0010065088150823282 0 0.0045816815065096994 -0.0011709152449852541 0 0.0054959943408731124 -0.0007662326440860673 0 0.0050270152905412995 -0.0018320542587267608 0 0.0055564631962246834 -0.0018861421169593412 0 0.0071978234983946293 -0.0017650424609183105 0 0.0066380305245812114 -0.0023202808840116383 0 0.0054959943408731124 -0.0007662326440860673 0 0.0050270152905412995 -0.0018320542587267608 0 0.0066380305245812114 -0.0023202808840116383 0 0.0050270152905412995 -0.0018320542587267608 0 0.0055265624052425171 -0.0026861006582398011 0 0.0071978234983946293 -0.0017650424609183105 0 0.0036829190437126331 -0.0013914385373119552 0 0.0045816815065096994 -0.0011709152449852541 0 0.0036645463666082892 -0.0010065088150823282 0 0.0028313081564429986 -0.0021565241064134101 0 0.0036645463666082892 -0.0010065088150823282 0 0.0019050266596318029 5.5012412725232306e-06 0 0.0028313081564429986 -0.0021565241064134101 0 0.0053385043373117757 -0.0006844249107091717 0 0.0036645463666082892 -0.0010065088150823282 0 0.0019050266596318029 5.5012412725232306e-06 0 0.001322403873047841 -8.3659704635990622e-05 0 0.0010262104202646012 4.0226962271680182e-05 0 0.00090598265851220359 3.1590780104809059e-05 0 0.0013010163344299092 -0.00017693005390019442 0 0.0021010709608751412 -0.0011468549385670044 0 0.001322403873047841 -8.3659704635990622e-05 0 0.0019050266596318029 5.5012412725232306e-06 0 0.0028313081564429986 -0.0021565241064134101 0 0.0036829190437126331 -0.0013914385373119552 0 0.002025139271965821 -0.00038975982076611072 0 0.0050503077371603141 -0.0027432583707571716 0 0.0041531355982961978 -0.001092806602118791 0 0.0019500073657238721 -0.00025070398085192308 0 0.001322403873047841 -8.3659704635990622e-05 0 0.0019050266596318029 5.5012412725232306e-06 0 0.0019500073657238721 -0.00025070398085192308 0 0.0050503077371603141 -0.0027432583707571716 0 0.0041531355982961978 -0.001092806602118791 0 0.0060921559106506947 -0.0012252544043629605 0 0.0082016603366282075 -0.0025131869385410549 0 0.0098843644688904053 -0.003836022581002331 0 0.0050503077371603141 -0.0027432583707571716 0 0.0050503077371603141 -0.0027432583707571716 0 0.0060921559106506947 -0.0012252544043629605 0 0.0078105811289805524 -0.0016696668874130955 0 0.0082016603366282075 -0.0025131869385410549 0 0.0050503077371603141 -0.0027432583707571716 0 0.0078105811289805524 -0.0016696668874130955 0 0.0060921559106506947 -0.0012252544043629605 0 0.0078105811289805524 -0.0016696668874130955 0 0.0073250735981677667 -0.00080283736544281624 0 0.0012138085546135151 0.00012339061589764701 0 0.0026490376413838852 -1.6658113382350693e-06 0 -0.00038762539358580252 2.1513300868437102e-06 0 0.0012138085546135151 0.00012339061589764701 0 0.00052081036374728806 0.00010281821635062585 0 -0.00038762539358580252 2.1513300868437102e-06 0 0.001322403873047841 -8.3659704635990622e-05 0 0.0012138085546135151 0.00012339061589764701 0 0.00052081036374728806 0.00010281821635062585 0 0.0041531355982961978 -0.001092806602118791 0 0.0019500073657238721 -0.00025070398085192308 0 0.0023505245500153368 -0.00040852549370615828 0 0.001322403873047841 -8.3659704635990622e-05 0 0.0012138085546135151 0.00012339061589764701 0 0.0019500073657238721 -0.00025070398085192308 0 0.0026550812272195172 -1.7411631712484549e-07 0 0.0037383392561763967 -0.0002850180587990424 0 0.0012138085546135151 0.00012339061589764701 0 0.0019500073657238721 -0.00025070398085192308 0 0.0026490376413838852 -1.6658113382350693e-06 0 0.0019500073657238721 -0.00025070398085192308 0 0.0026490376413838852 -1.6658113382350693e-06 0 0.0023505245500153368 -0.00040852549370615828 0 0.0050730093430032819 9.5290706441208038e-07 0 0.0041946185042096356 0.00029401536505029951 0 0.0043502824021599117 0.00053991329521185349 0 0.0026613225242077656 -7.1595062831759082e-07 0 0.0050730093430032819 9.5290706441208038e-07 0 0.0041946185042096356 0.00029401536505029951 0 0.0026613225242077656 -7.1595062831759082e-07 0 0.0041946185042096356 0.00029401536505029951 0 0.0049462019391581106 -0.00024740607726628726 0 0.0041946185042096356 0.00029401536505029951 0 0.004628481868833266 0.00029366347226141519 0 0.0043502824021599117 0.00053991329521185349 0 0.0041946185042096356 0.00029401536505029951 0 0.0049462019391581106 -0.00024740607726628726 0 0.004628481868833266 0.00029366347226141519 0 0.0049462019391581106 -0.00024740607726628726 0 0.004628481868833266 0.00029366347226141519 0 0.0051585828268339929 0.00050093612917202323 0 0.004628481868833266 0.00029366347226141519 0 0.0043502824021599117 0.00053991329521185349 0 0.0051585828268339929 0.00050093612917202323 0 0.0057305197070273628 7.7979444498520219e-05 0 0.0089217559341194779 8.3175966232937291e-07 0 0.0043502824021599117 0.00053991329521185349 0 0.0051585828268339929 0.00050093612917202323 0 0.0057732091004107176 0.0012862368475256029 0 0.0076145540101586751 -0.00012821465216496505 0 0.0076779094247272925 -0.00048845752884845849 0 0.0081015392369604821 -0.00030495117164466384 0 0.0076145540101586751 -0.00012821465216496505 0 0.0076779094247272925 -0.00048845752884845849 0 0.0074380341891847248 -7.7446438241670021e-05 0 0.0076145540101586751 -0.00012821465216496505 0 0.0074380341891847248 -7.7446438241670021e-05 0 0.0080560080175033719 -0.0002146063054608204 0 0.0050835990568385706 -1.697326231823088e-06 0 0.0076779094247272925 -0.00048845752884845849 0 0.0074380341891847248 -7.7446438241670021e-05 0 0.0050835990568385706 -1.697326231823088e-06 0 0.0074380341891847248 -7.7446438241670021e-05 0 0.0080560080175033719 -0.0002146063054608204 0 0.0050803134173701501 8.3981905866114829e-08 0 0.0057305197070273628 7.7979444498520219e-05 0 0.0050835990568385706 -1.697326231823088e-06 0 0.0078239191419588443 -1.3981942565923793e-07 0 0.0080560080175033719 -0.0002146063054608204 0 0.007405895008783166 0.0010626037214243489 0 0.0069329861044398452 0.00030767336384573648 0 0.0059803599014228125 0.00051860183974899022 0 0.0041531355982961978 -0.001092806602118791 0 0.0060921559106506947 -0.0012252544043629605 0 0.0069329861044398452 0.00030767336384573648 0 0.0084202848419977008 -0.00060916341050505087 0 0.007405895008783166 0.0010626037214243489 0 0.0069329861044398452 0.00030767336384573648 0 0.0084202848419977008 -0.00060916341050505087 0 0.0078105811289805524 -0.0016696668874130955 0 0.0073250735981677667 -0.00080283736544281624 0 0.0084202848419977008 -0.00060916341050505087 0 0.0069329861044398452 0.00030767336384573648 0 0.0073250735981677667 -0.00080283736544281624 0 0.0060921559106506947 -0.0012252544043629605 0 0.0069329861044398452 0.00030767336384573648 0 0.0073250735981677667 -0.00080283736544281624 0 0.0041531355982961978 -0.001092806602118791 0 0.0023505245500153368 -0.00040852549370615828 0 0.0069329861044398452 0.00030767336384573648 0 0.0049462019391581106 -0.00024740607726628726 0 0.0069329861044398452 0.00030767336384573648 0 0.0059803599014228125 0.00051860183974899022 0 0.0037383392561763967 -0.0002850180587990424 0 0.0067154398558322186 0.00028506943561324913 0 0.0049462019391581106 -0.00024740607726628726 0 0.0051585828268339929 0.00050093612917202323 0 0.0059803599014228125 0.00051860183974899022 0 0.0094675135516773239 -0.00071651655573110615 0 0.0089217559341194779 8.3175966232937291e-07 0 0.011009124804789395 -0.0013002425658004658 0 0.012115655815679567 -0.0010369355776571067 0 0.011732082697970259 -0.00069995355699909584 0 0.0051585828268339929 0.00050093612917202323 0 0.0059803599014228125 0.00051860183974899022 0 0.0057732091004107176 0.0012862368475256029 0 0.010588938307237877 0.00032859542711104054 0 0.010382181932979349 -0.00022113535149957371 0 0.0095510997572828878 9.1732396482055719e-05 0 0.012739001706237827 -0.00022107783363048612 0 0.012115655815679567 -0.0010369355776571067 0 0.012511239192411663 -0.00030731409199209297 0 0.007405895008783166 0.0010626037214243489 0 0.0059803599014228125 0.00051860183974899022 0 0.0057732091004107176 0.0012862368475256029 0 0.0086960404543201357 0.00047003672669288779 0 0.0089217559341194779 8.3175966232937291e-07 0 0.012051947982074459 6.6768480293477975e-07 0 0.0089217559341194779 8.3175966232937291e-07 0 0.012739001706237827 -0.00022107783363048612 0 0.012511239192411663 -0.00030731409199209297 0 0.012674751498518034 -2.2574305723144386e-05 0 0.012492363180192475 -7.6710193415433317e-05 0 0.012511239192411663 -0.00030731409199209297 0 0.012674751498518034 -2.2574305723144386e-05 0 0.012492363180192475 -7.6710193415433317e-05 0 0.012625182794479219 6.5101970164962783e-05 0 0.012674751498518034 -2.2574305723144386e-05 0 0.012492363180192475 -7.6710193415433317e-05 0 0.012511239192411663 -0.00030731409199209297 0 0.012192271844480115 -0.00040520588992302764 0 0.012115655815679567 -0.0010369355776571067 0 0.012192271844480115 -0.00040520588992302764 0 0.011732082697970259 -0.00069995355699909584 0 0.012115655815679567 -0.0010369355776571067 0 0.012511239192411663 -0.00030731409199209297 0 0.012192271844480115 -0.00040520588992302764 0 0.012192271844480115 -0.00040520588992302764 0 0.011732082697970259 -0.00069995355699909584 0 0.011823808715095209 -0.00024598334503711641 0 0.011732082697970259 -0.00069995355699909584 0 0.011823808715095209 -0.00024598334503711641 0 0.011283626018235429 -0.00047959224523246637 0 0.012492363180192475 -7.6710193415433317e-05 0 0.012192271844480115 -0.00040520588992302764 0 0.012262782551770207 -4.1325941655744782e-05 0 0.012192271844480115 -0.00040520588992302764 0 0.011823808715095209 -0.00024598334503711641 0 0.012262782551770207 -4.1325941655744782e-05 0 0.011823808715095209 -0.00024598334503711641 0 0.012262782551770207 -4.1325941655744782e-05 0 0.012235885556814567 0.00019651659692206897 0 0.012262782551770207 -4.1325941655744782e-05 0 0.012235885556814567 0.00019651659692206897 0 0.012610531348176812 0.00019219654524956921 0 0.011823808715095209 -0.00024598334503711641 0 0.012235885556814567 0.00019651659692206897 0 0.011347648253293961 -1.7093490011834183e-05 0 0.012235885556814567 0.00019651659692206897 0 0.011439039754887526 0.00023364182439374073 0 0.012363091031920632 0.00034596913758906428 0 0.012235885556814567 0.00019651659692206897 0 0.012610531348176812 0.00019219654524956921 0 0.012673116634210007 0.00031789566321370423 0 0.012610531348176812 0.00019219654524956921 0 0.012755913601174304 0.00023860829074788089 0 0.012697959681920837 0.00014965431812285099 0 0.012610531348176812 0.00019219654524956921 0 0.012625182794479219 6.5101970164962783e-05 0 0.012697959681920837 0.00014965431812285099 0 0.012625182794479219 6.5101970164962783e-05 0 0.012674751498518034 -2.2574305723144386e-05 0 0.012697959681920837 0.00014965431812285099 0 0.012492363180192475 -7.6710193415433317e-05 0 0.012610531348176812 0.00019219654524956921 0 0.012625182794479219 6.5101970164962783e-05 0 0.012492363180192475 -7.6710193415433317e-05 0 0.012262782551770207 -4.1325941655744782e-05 0 0.012610531348176812 0.00019219654524956921 0 0.0078239191419588443 -1.3981942565923793e-07 0 0.0080560080175033719 -0.0002146063054608204 0 0.0098711483123354316 0.0001548137070912199 0 0.0080560080175033719 -0.0002146063054608204 0 0.010313140992851522 -0.00011200894710988878 0 0.0098711483123354316 0.0001548137070912199 0 0.0094675135516773239 -0.00071651655573110615 0 0.0081311070931623288 -0.00024963259542198083 0 0.011009124804789395 -0.0013002425658004658 0 0.0080560080175033719 -0.0002146063054608204 0 0.010313140992851522 -0.00011200894710988878 0 0.011009124804789395 -0.0013002425658004658 0 0.011732082697970259 -0.00069995355699909584 0 0.011283626018235429 -0.00047959224523246637 0 0.011009124804789395 -0.0013002425658004658 0 0.010313140992851522 -0.00011200894710988878 0 0.011283626018235429 -0.00047959224523246637 0 0.010313140992851522 -0.00011200894710988878 0 0.011283626018235429 -0.00047959224523246637 0 0.011347648253293961 -1.7093490011834183e-05 0 0.011823808715095209 -0.00024598334503711641 0 0.011283626018235429 -0.00047959224523246637 0 0.011347648253293961 -1.7093490011834183e-05 0 0.011439039754887526 0.00023364182439374073 0 0.0098711483123354316 0.0001548137070912199 0 0.011672458122780265 0.00028517936086043554 0 0.010313140992851522 -0.00011200894710988878 0 0.011347648253293961 -1.7093490011834183e-05 0 0.011439039754887526 0.00023364182439374073 0 0.012235885556814567 0.00019651659692206897 0 0.011347648253293961 -1.7093490011834183e-05 0 0.011439039754887526 0.00023364182439374073 0 0.010313140992851522 -0.00011200894710988878 0 0.011439039754887526 0.00023364182439374073 0 0.0098711483123354316 0.0001548137070912199 0 0.0098711483123354316 0.0001548137070912199 0 0.010568795419154696 6.1780089320552397e-07 0 0.011672458122780265 0.00028517936086043554 0 0.0078239191419588443 -1.3981942565923793e-07 0 0.0098711483123354316 0.0001548137070912199 0 0.010568795419154696 6.1780089320552397e-07 0 0.010568795419154696 6.1780089320552397e-07 0 0.011672458122780265 0.00028517936086043554 0 0.013313522189161554 8.91994147292862e-07 0 0.011439039754887526 0.00023364182439374073 0 0.011672458122780265 0.00028517936086043554 0 0.012363091031920632 0.00034596913758906428 0 0.011672458122780265 0.00028517936086043554 0 0.012902702193440712 0.00029064898574978384 0 0.012363091031920632 0.00034596913758906428 0 0.013851315996045631 9.6683997213122051e-05 0 0.012902702193440712 0.00029064898574978384 0 0.013718397179216812 9.4034691842891598e-05 0 0.011672458122780265 0.00028517936086043554 0 0.012902702193440712 0.00029064898574978384 0 0.013313522189161554 8.91994147292862e-07 0 0.012902702193440712 0.00029064898574978384 0 0.013718397179216812 9.4034691842891598e-05 0 0.013313522189161554 8.91994147292862e-07 0 0.012791223681643338 0.00028562234273078226 0 0.012673116634210007 0.00031789566321370423 0 0.012941838952289113 0.0002996401595072073 0 0.012791223681643338 0.00028562234273078226 0 0.012941838952289113 0.0002996401595072073 0 0.012903604994643022 0.00026186783783792392 0 0.012791223681643338 0.00028562234273078226 0 0.012826457653044632 0.00024533256497841064 0 0.012755913601174304 0.00023860829074788089 0 0.012791223681643338 0.00028562234273078226 0 0.012826457653044632 0.00024533256497841064 0 0.012903604994643022 0.00026186783783792392 0 0.012610531348176812 0.00019219654524956921 0 0.012791223681643338 0.00028562234273078226 0 0.012755913601174304 0.00023860829074788089 0 0.012610531348176812 0.00019219654524956921 0 0.012791223681643338 0.00028562234273078226 0 0.012673116634210007 0.00031789566321370423 0 0.012235885556814567 0.00019651659692206897 0 0.012673116634210007 0.00031789566321370423 0 0.012363091031920632 0.00034596913758906428 0 0.012673116634210007 0.00031789566321370423 0 0.012363091031920632 0.00034596913758906428 0 0.013003670607079984 0.00032702951533924058 0 0.012902702193440712 0.00029064898574978384 0 0.012363091031920632 0.00034596913758906428 0 0.013003670607079984 0.00032702951533924058 0 0.012673116634210007 0.00031789566321370423 0 0.013003670607079984 0.00032702951533924058 0 0.012941838952289113 0.0002996401595072073 0 0.013003670607079984 0.00032702951533924058 0 0.013291241249681599 0.00018455521331850968 0 0.012941838952289113 0.0002996401595072073 0 0.013851315996045631 9.6683997213122051e-05 0 0.012902702193440712 0.00029064898574978384 0 0.013003670607079984 0.00032702951533924058 0 0.013851315996045631 9.6683997213122051e-05 0 0.013003670607079984 0.00032702951533924058 0 0.013291241249681599 0.00018455521331850968 0 0.013224488858594284 2.2840896008565952e-05 0 0.013291241249681599 0.00018455521331850968 0 0.013052111459883347 0.00020270362460281667 0 0.013291241249681599 0.00018455521331850968 0 0.013052111459883347 0.00020270362460281667 0 0.012941838952289113 0.0002996401595072073 0 0.013052111459883347 0.00020270362460281667 0 0.012941838952289113 0.0002996401595072073 0 0.012903604994643022 0.00026186783783792392 0 0.012826457653044632 0.00024533256497841064 0 0.012903604994643022 0.00026186783783792392 0 0.012910961396342714 0.00019723334671300344 0 0.013052111459883347 0.00020270362460281667 0 0.012903604994643022 0.00026186783783792392 0 0.012910961396342714 0.00019723334671300344 0 0.013224488858594284 2.2840896008565952e-05 0 0.013052111459883347 0.00020270362460281667 0 0.013005543260052606 9.2866050649431008e-05 0 0.013052111459883347 0.00020270362460281667 0 0.012910961396342714 0.00019723334671300344 0 0.013005543260052606 9.2866050649431008e-05 0 0.012873680060264269 9.3714550324003034e-05 0 0.012749994428032877 8.9478620083282924e-05 0 0.012806114315002308 0.00018534451704109209 0 0.012980774130773087 -5.5241634696324945e-05 0 0.013005543260052606 9.2866050649431008e-05 0 0.012873680060264269 9.3714550324003034e-05 0 0.012910961396342714 0.00019723334671300344 0 0.013005543260052606 9.2866050649431008e-05 0 0.012873680060264269 9.3714550324003034e-05 0 0.012789824000036578 -4.3539511412656097e-05 0 0.01266676582669094 -3.1068101759366065e-05 0 0.012749994428032877 8.9478620083282924e-05 0 0.012789824000036578 -4.3539511412656097e-05 0 0.012873680060264269 9.3714550324003034e-05 0 0.012749994428032877 8.9478620083282924e-05 0 0.01266676582669094 -3.1068101759366065e-05 0 0.012749994428032877 8.9478620083282924e-05 0 0.012652642678891969 6.4692854531869104e-05 0 0.012719929328685011 0.00016544311724890628 0 0.012806114315002308 0.00018534451704109209 0 0.012757927538175741 0.00022258333921949447 0 0.012749994428032877 8.9478620083282924e-05 0 0.012719929328685011 0.00016544311724890628 0 0.012652642678891969 6.4692854531869104e-05 0 0.012749994428032877 8.9478620083282924e-05 0 0.012719929328685011 0.00016544311724890628 0 0.012806114315002308 0.00018534451704109209 0 0.012910961396342714 0.00019723334671300344 0 0.012873680060264269 9.3714550324003034e-05 0 0.012806114315002308 0.00018534451704109209 0 0.012826457653044632 0.00024533256497841064 0 0.012910961396342714 0.00019723334671300344 0 0.012806114315002308 0.00018534451704109209 0 0.012826457653044632 0.00024533256497841064 0 0.012757927538175741 0.00022258333921949447 0 0.012755913601174304 0.00023860829074788089 0 0.012826457653044632 0.00024533256497841064 0 0.012806114315002308 0.00018534451704109209 0 0.012757927538175741 0.00022258333921949447 0 0.012757927538175741 0.00022258333921949447 0 0.012704412099116217 0.0002010190446489713 0 0.012714102296342853 0.00020569568068894178 0 0.012719929328685011 0.00016544311724890628 0 0.012757927538175741 0.00022258333921949447 0 0.012704412099116217 0.0002010190446489713 0 0.012714102296342853 0.00020569568068894178 0 0.012755913601174304 0.00023860829074788089 0 0.012697959681920837 0.00014965431812285099 0 0.012757927538175741 0.00022258333921949447 0 0.012714102296342853 0.00020569568068894178 0 0.012755913601174304 0.00023860829074788089 0 0.012670423772434681 0.00020415435483036681 0 0.012629345447295319 0.00020867305595507172 0 0.012667801590251094 0.00019606927009023452 0 0.012704412099116217 0.0002010190446489713 0 0.012714102296342853 0.00020569568068894178 0 0.012670423772434681 0.00020415435483036681 0 0.012714102296342853 0.00020569568068894178 0 0.012670423772434681 0.00020415435483036681 0 0.012667801590251094 0.00019606927009023452 0 0.012704412099116217 0.0002010190446489713 0 0.012670423772434681 0.00020415435483036681 0 0.012653271687429609 0.00015282577605367582 0 0.012719929328685011 0.00016544311724890628 0 0.012704412099116217 0.0002010190446489713 0 0.012653271687429609 0.00015282577605367582 0 0.012670423772434681 0.00020415435483036681 0 0.012629345447295319 0.00020867305595507172 0 0.012653271687429609 0.00015282577605367582 0 0.012435631078724717 0.00017420420622010755 0 0.012782101782711256 0.00039325935541017354 0 0.012491327213482105 -9.9209974356672837e-05 0 0.012629345447295319 0.00020867305595507172 0 0.012653271687429609 0.00015282577605367582 0 0.012485026434108657 0.0016036769133565461 0 0.012934925557870108 0.00071476549859143606 0 0.012567036877531199 0.0018052192999376596 0 0.013023822429710835 0.0013351657951162072 0 0.012887411916898928 0.00090811563798632406 0 0.012922065761191625 0.0007954290693666337 0 0.012898279926269766 0.00056626966275160674 0 0.012940003156291421 0.00065292546493891045 0 0.012491327213482105 -9.9209974356672837e-05 0 0.012653271687429609 0.00015282577605367582 0 0.012652642678891969 6.4692854531869104e-05 0 0.012719929328685011 0.00016544311724890628 0 0.012653271687429609 0.00015282577605367582 0 0.012652642678891969 6.4692854531869104e-05 0 0.013023822429710835 0.0013351657951162072 0 0.013298942421069257 0.0010072337113423279 0 0.012887411916898928 0.00090811563798632406 0 0.013382449788134338 0.0015589239399138577 0 0.013023822429710835 0.0013351657951162072 0 0.013298942421069257 0.0010072337113423279 0 0.013298942421069257 0.0010072337113423279 0 0.012887411916898928 0.00090811563798632406 0 0.013234907116802275 0.00068599248696155383 0 0.014447457623064354 0.0010952813559657972 0 0.013776973874251305 0.001218668116079773 0 0.013692100320559859 0.00077384057738693311 0 0.013382449788134338 0.0015589239399138577 0 0.013298942421069257 0.0010072337113423279 0 0.013776973874251305 0.001218668116079773 0 0.013298942421069257 0.0010072337113423279 0 0.013776973874251305 0.001218668116079773 0 0.013692100320559859 0.00077384057738693311 0 0.013298942421069257 0.0010072337113423279 0 0.013692100320559859 0.00077384057738693311 0 0.013234907116802275 0.00068599248696155383 0 0.013692100320559859 0.00077384057738693311 0 0.013392630869879551 0.0004421531895732116 0 0.013234907116802275 0.00068599248696155383 0 0.013392630869879551 0.0004421531895732116 0 0.013234907116802275 0.00068599248696155383 0 0.012926108315312211 0.00041219722369564203 0 0.012934925557870108 0.00071476549859143606 0 0.01293222599179215 0.00046675262274294843 0 0.012898279926269766 0.00056626966275160674 0 0.012940003156291421 0.00065292546493891045 0 0.012926108315312211 0.00041219722369564203 0 0.012887411916898928 0.00090811563798632406 0 0.013234907116802275 0.00068599248696155383 0 0.012926108315312211 0.00041219722369564203 0 0.013392630869879551 0.0004421531895732116 0 0.012926108315312211 0.00041219722369564203 0 0.013068282866428126 0.00026285368621277639 0 0.012898279926269766 0.00056626966275160674 0 0.012926108315312211 0.00041219722369564203 0 0.012697397929823334 0.00021621766844287819 0 0.012782101782711256 0.00039325935541017354 0 0.012714019959629156 0.00020369620033018379 0 0.012926108315312211 0.00041219722369564203 0 0.012697397929823334 0.00021621766844287819 0 0.013068282866428126 0.00026285368621277639 0 0.013400725263461167 0.00022352741175267119 0 0.013392630869879551 0.0004421531895732116 0 0.013068282866428126 0.00026285368621277639 0 0.013178632800536553 -1.1738631196509043e-05 0 0.013400725263461167 0.00022352741175267119 0 0.012881134973873606 9.0952710738911294e-05 0 0.013400725263461167 0.00022352741175267119 0 0.013068282866428126 0.00026285368621277639 0 0.012881134973873606 9.0952710738911294e-05 0 0.012697397929823334 0.00021621766844287819 0 0.013068282866428126 0.00026285368621277639 0 0.012881134973873606 9.0952710738911294e-05 0 0.012697397929823334 0.00021621766844287819 0 0.012881134973873606 9.0952710738911294e-05 0 0.012354737037044435 0.00022610940034053714 0 0.012354737037044435 0.00022610940034053714 0 0.012648094884290402 2.316326125813559e-05 0 0.012633708905858651 0.00012995994721165855 0 0.012739001706237827 -0.00022107783363048612 0 0.012354737037044435 0.00022610940034053714 0 0.012648094884290402 2.316326125813559e-05 0 0.012697397929823334 0.00021621766844287819 0 0.012354737037044435 0.00022610940034053714 0 0.012633708905858651 0.00012995994721165855 0 0.012739001706237827 -0.00022107783363048612 0 0.012674751498518034 -2.2574305723144386e-05 0 0.012648094884290402 2.316326125813559e-05 0 0.012674751498518034 -2.2574305723144386e-05 0 0.012648094884290402 2.316326125813559e-05 0 0.012686105883779488 0.00012033612546947802 0 0.012674751498518034 -2.2574305723144386e-05 0 0.012686105883779488 0.00012033612546947802 0 0.012697959681920837 0.00014965431812285099 0 0.012714102296342853 0.00020569568068894178 0 0.012686105883779488 0.00012033612546947802 0 0.012697959681920837 0.00014965431812285099 0 0.012714102296342853 0.00020569568068894178 0 0.012686105883779488 0.00012033612546947802 0 0.012667801590251094 0.00019606927009023452 0 0.012629345447295319 0.00020867305595507172 0 0.012697397929823334 0.00021621766844287819 0 0.012667801590251094 0.00019606927009023452 0 0.012697397929823334 0.00021621766844287819 0 0.012667801590251094 0.00019606927009023452 0 0.012633708905858651 0.00012995994721165855 0 0.012648094884290402 2.316326125813559e-05 0 0.012686105883779488 0.00012033612546947802 0 0.012633708905858651 0.00012995994721165855 0 0.012686105883779488 0.00012033612546947802 0 0.012667801590251094 0.00019606927009023452 0 0.012633708905858651 0.00012995994721165855 0 0.0051892158433676427 0.0016317284667093058 0 0.0049652312105404892 0.0016947092032805885 0 0.0050384708193066336 0.0018867090662383053 0 0.0051892158433676427 0.0016317284667093058 0 0.0050384708193066336 0.0018867090662383053 0 0.005172085639495296 0.0019917403537982421 0 0.0053337764539163656 0.0018888809779571455 0 0.0051822726440474039 0.0019789768616100228 0 0.0054386638651019057 0.0017806275093016275 0 0.0051892158433676427 0.0016317284667093058 0 0.005172085639495296 0.0019917403537982421 0 0.0054386638651019057 0.0017806275093016275 0 0.0054325404606380828 0.0014280886624389517 0 0.0051892158433676427 0.0016317284667093058 0 0.0054325404606380828 0.0014280886624389517 0 0.0051892158433676427 0.0016317284667093058 0 0.005140304736187839 0.0012762076800915713 0 0.0051892158433676427 0.0016317284667093058 0 0.0050471178550949899 0.0014914047794946719 0 0.005140304736187839 0.0012762076800915713 0 0.0051892158433676427 0.0016317284667093058 0 0.0050471178550949899 0.0014914047794946719 0 0.0049652312105404892 0.0016947092032805885 0 0.0050471178550949899 0.0014914047794946719 0 0.0049198376724949701 0.0015179253539855892 0 0.0049652312105404892 0.0016947092032805885 0 0.0049198376724949701 0.0015179253539855892 0 0.0049652312105404892 0.0016947092032805885 0 0.0047876848181171369 0.0015729702992319803 0 0.0047876848181171369 0.0015729702992319803 0 0.0047423348930183285 0.0017405463005993366 0 0.0045954538897447633 0.0016030027192492555 0 0.0047876848181171369 0.0015729702992319803 0 0.0046397614729518323 0.0014405462163551695 0 0.0045954538897447633 0.0016030027192492555 0 0.0049652312105404892 0.0016947092032805885 0 0.0047876848181171369 0.0015729702992319803 0 0.0047423348930183285 0.0017405463005993366 0 0.0047423348930183285 0.0017405463005993366 0 0.0048890397171532712 0.0018877968087509813 0 0.0046945167773444251 0.0018852134076331034 0 0.0049652312105404892 0.0016947092032805885 0 0.0047423348930183285 0.0017405463005993366 0 0.0048890397171532712 0.0018877968087509813 0 0.0049652312105404892 0.0016947092032805885 0 0.0048890397171532712 0.0018877968087509813 0 0.0050384708193066336 0.0018867090662383053 0 0.0050384708193066336 0.0018867090662383053 0 0.004994162732665574 0.002047829012694468 0 0.0051120031085227979 0.0020499889216427621 0 0.0048890397171532712 0.0018877968087509813 0 0.0050384708193066336 0.0018867090662383053 0 0.004994162732665574 0.002047829012694468 0 0.0048890397171532712 0.0018877968087509813 0 0.0048574204721842946 0.0020631088829922207 0 0.0046945167773444251 0.0018852134076331034 0 0.0048890397171532712 0.0018877968087509813 0 0.0048574204721842946 0.0020631088829922207 0 0.004994162732665574 0.002047829012694468 0 0.0048574204721842946 0.0020631088829922207 0 0.0049958369298411616 0.0021310006117618015 0 0.0049500365013553076 0.0022075113196412112 0 0.0048574204721842946 0.0020631088829922207 0 0.0049958369298411616 0.0021310006117618015 0 0.004994162732665574 0.002047829012694468 0 0.0049958369298411616 0.0021310006117618015 0 0.004994162732665574 0.002047829012694468 0 0.0051336576176167596 0.0021346761289746724 0 0.004994162732665574 0.002047829012694468 0 0.0051336576176167596 0.0021346761289746724 0 0.0051120031085227979 0.0020499889216427621 0 0.0051336576176167596 0.0021346761289746724 0 0.0051923718180613603 0.0021023573114750918 0 0.0052233743712835762 0.002188738530478046 0 0.0051336576176167596 0.0021346761289746724 0 0.0051120031085227979 0.0020499889216427621 0 0.0051923718180613603 0.0021023573114750918 0 0.0050384708193066336 0.0018867090662383053 0 0.0051120031085227979 0.0020499889216427621 0 0.005172085639495296 0.0019917403537982421 0 0.0051120031085227979 0.0020499889216427621 0 0.005172085639495296 0.0019917403537982421 0 0.0051923718180613603 0.0021023573114750918 0 0.0051943424034619325 0.0020222460191062826 0 0.0051923718180613603 0.0021023573114750918 0 0.0052218372143754679 0.0021007224989615923 0 0.0051878925384265182 0.0019587002650334321 0 0.005172085639495296 0.0019917403537982421 0 0.0051943424034619325 0.0020222460191062826 0 0.005172085639495296 0.0019917403537982421 0 0.0051943424034619325 0.0020222460191062826 0 0.0051923718180613603 0.0021023573114750918 0 0.0051923718180613603 0.0021023573114750918 0 0.0052233743712835762 0.002188738530478046 0 0.005234281692298037 0.0022226378827362265 0 0.0052542226888815527 0.0021697058861956304 0 0.0052218372143754679 0.0021007224989615923 0 0.005234281692298037 0.0022226378827362265 0 0.0051923718180613603 0.0021023573114750918 0 0.0052218372143754679 0.0021007224989615923 0 0.005234281692298037 0.0022226378827362265 0 0.0052542226888815527 0.0021697058861956304 0 0.0053807268645303316 0.0023360387913011278 0 0.0053265781238673237 0.0020832681463197377 0 0.0052542226888815527 0.0021697058861956304 0 0.0053807268645303316 0.0023360387913011278 0 0.0052432248491589223 0.0023487522359414968 0 0.0052542226888815527 0.0021697058861956304 0 0.0052432248491589223 0.0023487522359414968 0 0.005234281692298037 0.0022226378827362265 0 0.0052542226888815527 0.0021697058861956304 0 0.0053265781238673237 0.0020832681463197377 0 0.0052544062466716081 0.001976577775652221 0 0.0051943424034619325 0.0020222460191062826 0 0.0052218372143754679 0.0021007224989615923 0 0.0052544062466716081 0.001976577775652221 0 0.0052542226888815527 0.0021697058861956304 0 0.0052218372143754679 0.0021007224989615923 0 0.0052544062466716081 0.001976577775652221 0 0.0055216737176190817 0.0021712310209779503 0 0.0056618311014038055 0.002649033737644693 0 0.0060144337721310418 0.0026862670834280969 0 0.0055216737176190817 0.0021712310209779503 0 0.0053807268645303316 0.0023360387913011278 0 0.0056618311014038055 0.002649033737644693 0 0.0055216737176190817 0.0021712310209779503 0 0.0053807268645303316 0.0023360387913011278 0 0.0053265781238673237 0.0020832681463197377 0 0.0055216737176190817 0.0021712310209779503 0 0.0053265781238673237 0.0020832681463197377 0 0.0053607729731245009 0.0018757719556789973 0 0.0053265781238673237 0.0020832681463197377 0 0.0053607729731245009 0.0018757719556789973 0 0.0052544062466716081 0.001976577775652221 0 0.0055216737176190817 0.0021712310209779503 0 0.0053607729731245009 0.0018757719556789973 0 0.0053991201696829121 0.0016336521870556082 0 0.0054120120472266461 0.0016483925645644577 0 0.005048760074160088 0.0015701063879576961 0 0.0053607729731245009 0.0018757719556789973 0 0.0053991201696829121 0.0016336521870556082 0 0.0053310416715455639 0.0018741012505201432 0 0.0053607729731245009 0.0018757719556789973 0 0.0053310416715455639 0.0018741012505201432 0 0.0052544062466716081 0.001976577775652221 0 0.0048204648323550573 0.0012564591288612725 0 0.0050538372100899101 0.00092610873903080566 0 0.0047492423558904828 0.00092993024467553996 0 0.0053991201696829121 0.0016336521870556082 0 0.0048204648323550573 0.0012564591288612725 0 0.0050538372100899101 0.00092610873903080566 0 0.0053991201696829121 0.0016336521870556082 0 0.0050538372100899101 0.00092610873903080566 0 0.0054863265963782677 0.0011178146852148468 0 0.0051878925384265182 0.0019587002650334321 0 0.0052544062466716081 0.001976577775652221 0 0.0052363741779327495 0.00187499280415917 0 0.0051878925384265182 0.0019587002650334321 0 0.0051943424034619325 0.0020222460191062826 0 0.0052544062466716081 0.001976577775652221 0 0.0053310416715455639 0.0018741012505201432 0 0.0052544062466716081 0.001976577775652221 0 0.0052363741779327495 0.00187499280415917 0 0.0048204648323550573 0.0012564591288612725 0 0.0045653133844405329 0.0010979603603681243 0 0.0047492423558904828 0.00092993024467553996 0 0.005048760074160088 0.0015701063879576961 0 0.0051500730464262125 0.0013718761363003757 0 0.0051500730464262125 0.0013718761363003757 0 0.0049155759601650605 0.00094233188898958185 0 0.0053337764539163656 0.0018888809779571455 0 0.0051500730464262125 0.0013718761363003757 0 0.005329769855674486 0.0012689653570545606 0 0.0051500730464262125 0.0013718761363003757 0 0.0051853594584255905 0.0010812703288175741 0 0.0051498217572169686 0.00099710549930984074 0 0.0051479508979900401 0.0010070231936441184 0 0.0054386638651019057 0.0017806275093016275 0 0.0054325404606380828 0.0014280886624389517 0 0.0056968910911977082 0.0015450406546765785 0 0.0051853594584255905 0.0010812703288175741 0 0.0051750843516097482 0.0010548753809180476 0 0.0051479508979900401 0.0010070231936441184 0 0.0051750843516097482 0.0010548753809180476 0 0.0051479508979900401 0.0010070231936441184 0 0.0051255982438553312 0.00096844207042206566 0 0.0051076677769000137 0.00095148292891737436 0 0.0051255982438553312 0.00096844207042206566 0 0.0049694527900757107 0.00083350887878840235 0 0.0051498217572169686 0.00099710549930984074 0 0.0051479508979900401 0.0010070231936441184 0 0.0051076677769000137 0.00095148292891737436 0 0.0051479508979900401 0.0010070231936441184 0 0.0051076677769000137 0.00095148292891737436 0 0.0051255982438553312 0.00096844207042206566 0 0.0051255982438553312 0.00096844207042206566 0 0.005081406688757617 0.000970308706202439 0 0.0049694527900757107 0.00083350887878840235 0 0.0051255982438553312 0.00096844207042206566 0 0.005081406688757617 0.000970308706202439 0 0.0051724270815284848 0.0010321001272857735 0 0.0051750843516097482 0.0010548753809180476 0 0.0051255982438553312 0.00096844207042206566 0 0.0051724270815284848 0.0010321001272857735 0 0.0051724270815284848 0.0010321001272857735 0 0.0052043092654617288 0.0010834695625303841 0 0.0051940401623293813 0.0010768686365400706 0 0.0051750843516097482 0.0010548753809180476 0 0.0051724270815284848 0.0010321001272857735 0 0.0051940401623293813 0.0010768686365400706 0 0.0050538372100899101 0.00092610873903080566 0 0.0049996217169262685 0.00075892526071744105 0 0.0052350223183432569 0.00065818670220410829 0 0.0050538372100899101 0.00092610873903080566 0 0.0049694527900757107 0.00083350887878840235 0 0.0049996217169262685 0.00075892526071744105 0 0.0050538372100899101 0.00092610873903080566 0 0.0047492423558904828 0.00092993024467553996 0 0.0049694527900757107 0.00083350887878840235 0 0.0049155759601650605 0.00094233188898958185 0 0.0049575126131628094 0.00086700541214003489 0 0.005081406688757617 0.000970308706202439 0 0.0049694527900757107 0.00083350887878840235 0 0.0049379391624791123 0.00087562752257859088 0 0.0049694527900757107 0.00083350887878840235 0 0.0049996217169262685 0.00075892526071744105 0 0.0049379391624791123 0.00087562752257859088 0 0.0049996217169262685 0.00075892526071744105 0 0.0049379391624791123 0.00087562752257859088 0 0.0048245864489112975 0.00073961398707734583 0 0.0049379391624791123 0.00087562752257859088 0 0.0047372637404568896 0.0011866644208777966 0 0.0048245864489112975 0.00073961398707734583 0 0.005081406688757617 0.000970308706202439 0 0.0049379391624791123 0.00087562752257859088 0 0.0050282542257048786 0.001060089928614614 0 0.0049379391624791123 0.00087562752257859088 0 0.0050282542257048786 0.001060089928614614 0 0.0047372637404568896 0.0011866644208777966 0 0.0050282542257048786 0.001060089928614614 0 0.0047372637404568896 0.0011866644208777966 0 0.0051413293932123117 0.001264113456039234 0 0.0047372637404568896 0.0011866644208777966 0 0.0051413293932123117 0.001264113456039234 0 0.0051423585424686027 0.0016483177077194744 0 0.0052043092654617288 0.0010834695625303841 0 0.0052431524243431041 0.0011913359886393359 0 0.0051894493469159704 0.0010729895472471793 0 0.0023449717663161203 0.0024270908910084912 0 0.0026334843625039584 0.0020388649303864025 0 0.0052043092654617288 0.0010834695625303841 0 0.005166991425594957 0.0010893315705745794 0 0.0052431524243431041 0.0011913359886393359 0 0.0052043092654617288 0.0010834695625303841 0 0.0051894493469159704 0.0010729895472471793 0 0.0051940401623293813 0.0010768686365400706 0 0.0051724270815284848 0.0010321001272857735 0 0.0052043092654617288 0.0010834695625303841 0 0.005166991425594957 0.0010893315705745794 0 0.005081406688757617 0.000970308706202439 0 0.0051724270815284848 0.0010321001272857735 0 0.005166991425594957 0.0010893315705745794 0 0.005081406688757617 0.000970308706202439 0 0.0050282542257048786 0.001060089928614614 0 0.005166991425594957 0.0010893315705745794 0 0.0050282542257048786 0.001060089928614614 0 0.005166991425594957 0.0010893315705745794 0 0.0051413293932123117 0.001264113456039234 0 0.0051413293932123117 0.001264113456039234 0 0.0052431524243431041 0.0011913359886393359 0 0.0051423585424686027 0.0016483177077194744 0 0.0023449717663161203 0.0024270908910084912 0 0.0020836901333025071 0.0030109137903421984 0 0.005166991425594957 0.0010893315705745794 0 0.0051413293932123117 0.001264113456039234 0 0.0052431524243431041 0.0011913359886393359 0 -0.00062396461568697825 0.0036656610242428163 0 -0.00015736512506421991 0.0036473986908019877 0 0.00031609206348980388 0.0028759633143564862 0 -0.00062396461568697825 0.0036656610242428163 0 -0.00015736512506421991 0.0036473986908019877 0 -0.00053313194417652836 0.004126685186831648 0 -0.00015736512506421991 0.0036473986908019877 0 0.0007242841224317923 0.0034936421372296885 0 0.00031609206348980388 0.0028759633143564862 0 -0.00015736512506421991 0.0036473986908019877 0 0.0007242841224317923 0.0034936421372296885 0 0.00049166948496341656 0.004088871620994027 0 0.0007242841224317923 0.0034936421372296885 0 0.001002670730896302 0.0038926230940568535 0 0.0015791059963904453 0.003495827578170668 0 0.0012357415074953006 0.0029997018568397129 0 -0.0005055183278640683 0.0014899521696433641 0 0.001002670730896302 0.0038926230940568535 0 0.0015791059963904453 0.003495827578170668 0 0.001220208565954757 0.0044854733886770066 0 0.0007242841224317923 0.0034936421372296885 0 0.0011503790087265761 0.0028964786707727772 0 0.0015791059963904453 0.003495827578170668 0 0.0007242841224317923 0.0034936421372296885 0 0.001002670730896302 0.0038926230940568535 0 0.00049166948496341656 0.004088871620994027 0 0.0011503790087265761 0.0028964786707727772 0 0.00031609206348980388 0.0028759633143564862 0 0.0014047440754348238 0.0021022254534949075 0 0.0026334843625039584 0.0020388649303864025 0 0.0038652927441909764 0.0014175958010842992 0 0.0011503790087265761 0.0028964786707727772 0 0.0014047440754348238 0.0021022254534949075 0 0.0019446451710003123 0.0024476463750527184 0 0.0007242841224317923 0.0034936421372296885 0 0.0011503790087265761 0.0028964786707727772 0 0.00031609206348980388 0.0028759633143564862 0 0.0051894493469159704 0.0010729895472471793 0 0.0051940401623293813 0.0010768686365400706 0 0.0051680686942165545 0.0010981035286989295 0 0.0051750843516097482 0.0010548753809180476 0 0.0051940401623293813 0.0010768686365400706 0 0.0051842807015248056 0.0011482297385411048 0 0.0051940401623293813 0.0010768686365400706 0 0.0051680686942165545 0.0010981035286989295 0 0.0051842807015248056 0.0011482297385411048 0 0.0038652927441909764 0.0014175958010842992 0 0.0055076390647588553 0.0012435323996200394 0 0.0051894493469159704 0.0010729895472471793 0 0.0051680686942165545 0.0010981035286989295 0 0.0050940705248026406 0.0010987083802179642 0 0.0050433439206264774 0.0011462687740041381 0 0.0050762544513601928 0.0012176280439441369 0 0.0051842807015248056 0.0011482297385411048 0 0.0051680686942165545 0.0010981035286989295 0 0.0050940705248026406 0.0010987083802179642 0 0.0051842807015248056 0.0011482297385411048 0 0.0050433439206264774 0.0011462687740041381 0 0.0050762544513601928 0.0012176280439441369 0 0.0049532145105939682 0.0011921872191172247 0 0.0050762544513601928 0.0012176280439441369 0 0.005140304736187839 0.0012762076800915713 0 0.0051842807015248056 0.0011482297385411048 0 0.0050762544513601928 0.0012176280439441369 0 0.005140304736187839 0.0012762076800915713 0 0.0049833396114476189 0.0013468796465204783 0 0.0050471178550949899 0.0014914047794946719 0 0.005140304736187839 0.0012762076800915713 0 0.0049833396114476189 0.0013468796465204783 0 0.005329769855674486 0.0012689653570545606 0 0.0051372411272176018 0.0012462342548654104 0 0.0051853594584255905 0.0010812703288175741 0 0.0051750843516097482 0.0010548753809180476 0 0.0051842807015248056 0.0011482297385411048 0 0.0051853594584255905 0.0010812703288175741 0 0.005140304736187839 0.0012762076800915713 0 0.0051842807015248056 0.0011482297385411048 0 0.0046397614729518323 0.0014405462163551695 0 0.0048006799130253918 0.0013652786677553473 0 0.0046869778269885377 0.001295284941475747 0 0.0047876848181171369 0.0015729702992319803 0 0.0046397614729518323 0.0014405462163551695 0 0.0048006799130253918 0.0013652786677553473 0 0.0049198376724949701 0.0015179253539855892 0 0.0047876848181171369 0.0015729702992319803 0 0.0048006799130253918 0.0013652786677553473 0 0.0049198376724949701 0.0015179253539855892 0 0.0049833396114476189 0.0013468796465204783 0 0.0048006799130253918 0.0013652786677553473 0 0.0050471178550949899 0.0014914047794946719 0 0.0049198376724949701 0.0015179253539855892 0 0.0049833396114476189 0.0013468796465204783 0 0.0050762544513601928 0.0012176280439441369 0 0.0049833396114476189 0.0013468796465204783 0 0.0049532145105939682 0.0011921872191172247 0 0.0049833396114476189 0.0013468796465204783 0 0.0048006799130253918 0.0013652786677553473 0 0.0049532145105939682 0.0011921872191172247 0 0.0051123573682251289 0.0010350758726261431 0 0.0030931680042041668 0.0015651547659220838 0 0.0048006799130253918 0.0013652786677553473 0 0.0049532145105939682 0.0011921872191172247 0 0.0048826382972959248 0.00099468559447501862 0 0.0048006799130253918 0.0013652786677553473 0 0.0048509162170724037 0.0011701753048573434 0 0.0046869778269885377 0.001295284941475747 0 0.0038652927441909764 0.0014175958010842992 0 0.0048530892775776099 0.00099606517939101807 0 0.0038652927441909764 0.0014175958010842992 0 0.0030931680042041668 0.0015651547659220838 0 0.0050637890589644166 0.0011109330647267846 0 0.0049532145105939682 0.0011921872191172247 0 0.0048826382972959248 0.00099468559447501862 0 0.0048509162170724037 0.0011701753048573434 0 0.0046869778269885377 0.001295284941475747 0 0.0045876903119191114 0.0011880175466714982 0 0.0046397614729518323 0.0014405462163551695 0 0.0046869778269885377 0.001295284941475747 0 0.004523480615658459 0.0013188118570496502 0 0.0046869778269885377 0.001295284941475747 0 0.0045876903119191114 0.0011880175466714982 0 0.004523480615658459 0.0013188118570496502 0 0.0030931680042041668 0.0015651547659220838 0 0.0031845302858183686 0.0014116342635923027 0 0.0048509162170724037 0.0011701753048573434 0 0.0045876903119191114 0.0011880175466714982 0 0.0045920533673615045 0.00098206724159753591 0 0.0011503790087265761 0.0028964786707727772 0 0.0019446451710003123 0.0024476463750527184 0 0.0015791059963904453 0.003495827578170668 0 0.0030931680042041668 0.0015651547659220838 0 0.0012357415074953006 0.0029997018568397129 0 0.0011055152728186731 0.0016059392670527096 0 0.0012287874110054916 0.0016828394054142519 0 0.001044918844230161 0.0017324628838835995 0 0.001044918844230161 0.0017324628838835995 0 0.0011761333611700359 0.0018101892278705786 0 0.00098265221192220015 0.0018654543522713316 0 0.0012287874110054916 0.0016828394054142519 0 0.001044918844230161 0.0017324628838835995 0 0.0011761333611700359 0.0018101892278705786 0 0.0045920533673615045 0.00098206724159753591 0 0.0042541919910226702 0.00097035161347133064 0 0.0042174784364937433 0.00069584736680032154 0 0.0012287874110054916 0.0016828394054142519 0 0.0013510607288070861 0.001753058539232862 0 0.0011761333611700359 0.0018101892278705786 0 0.0011287800990976908 0.00096889327898449335 0 -0.0004633603103332134 0.00064543585349645047 0 0.0031845302858183686 0.0014116342635923027 0 0.0011287800990976908 0.00096889327898449335 0 0.0045920533673615045 0.00098206724159753591 0 0.0044201101098546233 0.0011717378457352108 0 0.0042541919910226702 0.00097035161347133064 0 0.0044201101098546233 0.0011717378457352108 0 0.0042122527713160229 0.0011877842678662714 0 0.0042541919910226702 0.00097035161347133064 0 0.0045876903119191114 0.0011880175466714982 0 0.0045920533673615045 0.00098206724159753591 0 0.0044201101098546233 0.0011717378457352108 0 0.0040475329719955756 0.0011165734497377796 0 0.0038909599559352561 0.0012184849591244267 0 0.0040662564396102361 0.0013314156331590695 0 0.0040475329719955756 0.0011165734497377796 0 0.0042122527713160229 0.0011877842678662714 0 0.0040662564396102361 0.0013314156331590695 0 0.0040475329719955756 0.0011165734497377796 0 0.0042122527713160229 0.0011877842678662714 0 0.0042541919910226702 0.00097035161347133064 0 0.0040475329719955756 0.0011165734497377796 0 0.0042541919910226702 0.00097035161347133064 0 0.004024903189303956 0.0009501136712702019 0 0.0040475329719955756 0.0011165734497377796 0 0.004024903189303956 0.0009501136712702019 0 0.0038535611909275348 0.0010358278558899945 0 0.004024903189303956 0.0009501136712702019 0 0.0039017698157748372 0.00085689311391023894 0 0.0038535611909275348 0.0010358278558899945 0 0.0042174784364937433 0.00069584736680032154 0 0.0039594680871849622 0.00064359685218515921 0 0.0035990931853489634 0.00025963797358804418 0 0.004024903189303956 0.0009501136712702019 0 0.0039017698157748372 0.00085689311391023894 0 0.0040158697761385467 0.00082308399884576267 0 0.004024903189303956 0.0009501136712702019 0 0.0040158697761385467 0.00082308399884576267 0 0.0041338182719749495 0.00081243188266425512 0 0.0040158697761385467 0.00082308399884576267 0 0.0040759915732860698 0.00074719507662077177 0 0.0041338182719749495 0.00081243188266425512 0 0.0040158697761385467 0.00082308399884576267 0 0.0040759915732860698 0.00074719507662077177 0 0.0039839586951240175 0.00074210714122980497 0 0.0040158697761385467 0.00082308399884576267 0 0.003958855923043343 0.00078871058331388859 0 0.0039839586951240175 0.00074210714122980497 0 0.003958855923043343 0.00078871058331388859 0 0.0038870294021336664 0.00072571442268117871 0 0.0039839586951240175 0.00074210714122980497 0 0.0039017698157748372 0.00085689311391023894 0 0.003958855923043343 0.00078871058331388859 0 0.0038870294021336664 0.00072571442268117871 0 0.0039017698157748372 0.00085689311391023894 0 0.0040158697761385467 0.00082308399884576267 0 0.003958855923043343 0.00078871058331388859 0 0.0042541919910226702 0.00097035161347133064 0 0.004024903189303956 0.0009501136712702019 0 0.0041338182719749495 0.00081243188266425512 0 0.0042541919910226702 0.00097035161347133064 0 0.0041338182719749495 0.00081243188266425512 0 0.0042174784364937433 0.00069584736680032154 0 0.0040759915732860698 0.00074719507662077177 0 0.0041338182719749495 0.00081243188266425512 0 0.0042174784364937433 0.00069584736680032154 0 0.0040759915732860698 0.00074719507662077177 0 0.0042174784364937433 0.00069584736680032154 0 0.0039594680871849622 0.00064359685218515921 0 0.0039594680871849622 0.00064359685218515921 0 0.0038870294021336664 0.00072571442268117871 0 0.003737171476683634 0.00062089394388259228 0 0.0039594680871849622 0.00064359685218515921 0 0.0038870294021336664 0.00072571442268117871 0 0.0039839586951240175 0.00074210714122980497 0 0.0040759915732860698 0.00074719507662077177 0 0.0039594680871849622 0.00064359685218515921 0 0.0039839586951240175 0.00074210714122980497 0 0.0039594680871849622 0.00064359685218515921 0 0.003737171476683634 0.00062089394388259228 0 0.0035990931853489634 0.00025963797358804418 0 0.0038870294021336664 0.00072571442268117871 0 0.003737171476683634 0.00062089394388259228 0 0.0037832896601996762 0.00076864804915564562 0 0.003737171476683634 0.00062089394388259228 0 0.0035093768875820402 0.00054337185625426493 0 0.0036168160889143686 0.00075173908886023804 0 0.003737171476683634 0.00062089394388259228 0 0.0036168160889143686 0.00075173908886023804 0 0.0037832896601996762 0.00076864804915564562 0 0.0035093768875820402 0.00054337185625426493 0 0.0033029627474978939 0.00065891279276729874 0 0.003162926698296765 0.0003929549122080529 0 0.0035093768875820402 0.00054337185625426493 0 0.0036168160889143686 0.00075173908886023804 0 0.0033029627474978939 0.00065891279276729874 0 0.0036168160889143686 0.00075173908886023804 0 0.0033314294957568131 0.0009146085497465866 0 0.003634950938467189 0.0010084743093677028 0 0.0036168160889143686 0.00075173908886023804 0 0.0033029627474978939 0.00065891279276729874 0 0.0033314294957568131 0.0009146085497465866 0 0.0036168160889143686 0.00075173908886023804 0 0.0037839807877929504 0.00087882420213113838 0 0.003634950938467189 0.0010084743093677028 0 0.0039017698157748372 0.00085689311391023894 0 0.0037839807877929504 0.00087882420213113838 0 0.0038535611909275348 0.0010358278558899945 0 0.0039017698157748372 0.00085689311391023894 0 0.0037839807877929504 0.00087882420213113838 0 0.0037832896601996762 0.00076864804915564562 0 0.0039017698157748372 0.00085689311391023894 0 0.0038870294021336664 0.00072571442268117871 0 0.0037832896601996762 0.00076864804915564562 0 0.0036168160889143686 0.00075173908886023804 0 0.0037839807877929504 0.00087882420213113838 0 0.0037832896601996762 0.00076864804915564562 0 0.0029907649595111757 0.00080946621180085475 0 0.0024952694600562843 0.00068898522768176161 0 0.0028127312540292856 0.00047435102554517798 0 0.0033029627474978939 0.00065891279276729874 0 0.0029907649595111757 0.00080946621180085475 0 0.0028127312540292856 0.00047435102554517798 0 0.0033029627474978939 0.00065891279276729874 0 0.0033314294957568131 0.0009146085497465866 0 0.0029907649595111757 0.00080946621180085475 0 0.0033314294957568131 0.0009146085497465866 0 0.0029907649595111757 0.00080946621180085475 0 0.0032040142789410029 0.0011188979116205473 0 0.0032040142789410029 0.0011188979116205473 0 0.0034864633855869239 0.001501035882489816 0 0.0027646172567549862 0.0010760522644182615 0 0.0029907649595111757 0.00080946621180085475 0 0.0032040142789410029 0.0011188979116205473 0 0.0027646172567549862 0.0010760522644182615 0 0.0033314294957568131 0.0009146085497465866 0 0.0032040142789410029 0.0011188979116205473 0 0.003514318593783036 0.0012565973952277155 0 0.0033314294957568131 0.0009146085497465866 0 0.003514318593783036 0.0012565973952277155 0 0.003634950938467189 0.0010084743093677028 0 0.0032040142789410029 0.0011188979116205473 0 0.003514318593783036 0.0012565973952277155 0 0.0034864633855869239 0.001501035882489816 0 0.0038535611909275348 0.0010358278558899945 0 0.003634950938467189 0.0010084743093677028 0 0.0037131369148743301 0.0011878097694575554 0 0.0037839807877929504 0.00087882420213113838 0 0.0038535611909275348 0.0010358278558899945 0 0.003634950938467189 0.0010084743093677028 0 0.003514318593783036 0.0012565973952277155 0 0.003634950938467189 0.0010084743093677028 0 0.0037131369148743301 0.0011878097694575554 0 0.0037131369148743301 0.0011878097694575554 0 0.0038909599559352561 0.0012184849591244267 0 0.0037686261631073212 0.0013719220089277295 0 0.003514318593783036 0.0012565973952277155 0 0.0037131369148743301 0.0011878097694575554 0 0.0037686261631073212 0.0013719220089277295 0 0.0038535611909275348 0.0010358278558899945 0 0.0037131369148743301 0.0011878097694575554 0 0.0038909599559352561 0.0012184849591244267 0 0.0040475329719955756 0.0011165734497377796 0 0.0038535611909275348 0.0010358278558899945 0 0.0038909599559352561 0.0012184849591244267 0 0.0038909599559352561 0.0012184849591244267 0 0.0037686261631073212 0.0013719220089277295 0 0.0040662564396102361 0.0013314156331590695 0 0.0037686261631073212 0.0013719220089277295 0 0.0037541266394936447 0.0015042290702549836 0 0.0039984128970955313 0.0014947988398603086 0 0.0037686261631073212 0.0013719220089277295 0 0.0039984128970955313 0.0014947988398603086 0 0.0040662564396102361 0.0013314156331590695 0 0.0034864633855869239 0.001501035882489816 0 0.0037541266394936447 0.0015042290702549836 0 0.0037273713674945571 0.0015165060200133453 0 0.003514318593783036 0.0012565973952277155 0 0.0037686261631073212 0.0013719220089277295 0 0.0034864633855869239 0.001501035882489816 0 0.0037686261631073212 0.0013719220089277295 0 0.0034864633855869239 0.001501035882489816 0 0.0037541266394936447 0.0015042290702549836 0 0.0037541266394936447 0.0015042290702549836 0 0.0037273713674945571 0.0015165060200133453 0 0.0039038825673549942 0.0015667904688339857 0 0.0039984128970955313 0.0014947988398603086 0 0.0041514089736231236 0.0016082181801831189 0 0.0039038825673549942 0.0015667904688339857 0 0.0037541266394936447 0.0015042290702549836 0 0.0039984128970955313 0.0014947988398603086 0 0.0039038825673549942 0.0015667904688339857 0 0.0042296131632729604 0.0014839818001557742 0 0.0043922450258849534 0.0016084904856431955 0 0.0041514089736231236 0.0016082181801831189 0 0.0039984128970955313 0.0014947988398603086 0 0.0042296131632729604 0.0014839818001557742 0 0.0041514089736231236 0.0016082181801831189 0 0.0039984128970955313 0.0014947988398603086 0 0.0042296131632729604 0.0014839818001557742 0 0.0040662564396102361 0.0013314156331590695 0 0.0042296131632729604 0.0014839818001557742 0 0.0044508480391527595 0.001468801185475456 0 0.0043216365490601153 0.001338075615848366 0 0.0042296131632729604 0.0014839818001557742 0 0.0044508480391527595 0.001468801185475456 0 0.0043922450258849534 0.0016084904856431955 0 0.0046397614729518323 0.0014405462163551695 0 0.0044508480391527595 0.001468801185475456 0 0.0045954538897447633 0.0016030027192492555 0 0.0046397614729518323 0.0014405462163551695 0 0.0044508480391527595 0.001468801185475456 0 0.004523480615658459 0.0013188118570496502 0 0.0044508480391527595 0.001468801185475456 0 0.0043216365490601153 0.001338075615848366 0 0.004523480615658459 0.0013188118570496502 0 0.0045876903119191114 0.0011880175466714982 0 0.0044201101098546233 0.0011717378457352108 0 0.004523480615658459 0.0013188118570496502 0 0.0044201101098546233 0.0011717378457352108 0 0.0042122527713160229 0.0011877842678662714 0 0.0043216365490601153 0.001338075615848366 0 0.0044201101098546233 0.0011717378457352108 0 0.0043216365490601153 0.001338075615848366 0 0.004523480615658459 0.0013188118570496502 0 0.0042122527713160229 0.0011877842678662714 0 0.0043216365490601153 0.001338075615848366 0 0.0040662564396102361 0.0013314156331590695 0 0.0042296131632729604 0.0014839818001557742 0 0.0043216365490601153 0.001338075615848366 0 0.0040662564396102361 0.0013314156331590695 0 0.0034389145995026463 0.0013561068422610256 0 0.0034655334457915099 0.0012349557823008754 0 0.0035224812072299945 0.0014018587125732053 0 0.0034389145995026463 0.0013561068422610256 0 0.0035224812072299945 0.0014018587125732053 0 0.0034653211731267598 0.0014263212333716373 0 0.0033812233667079778 0.0012770256830362875 0 0.0034389145995026463 0.0013561068422610256 0 0.0034655334457915099 0.0012349557823008754 0 -0.007904861908877292 0.0014343455864762023 0 -0.006844366663494441 0.00212594046228689 0 -0.0073509127863383272 0.0011689486377212382 0 -0.0024860324807900098 0.0012810864319884039 0 -0.00011090524256945146 0.0016534948674283801 0 0.0034655334457915099 0.0012349557823008754 0 0.0035224812072299945 0.0014018587125732053 0 0.0036294350789522912 0.0013619225594240334 0 0.0035224812072299945 0.0014018587125732053 0 0.0036294350789522912 0.0013619225594240334 0 0.0036336693146982388 0.0014617271413192167 0 0.0036601160743981662 0.0014311182468213831 0 0.0036294350789522912 0.0013619225594240334 0 0.0036336693146982388 0.0014617271413192167 0 0.0036601160743981662 0.0014311182468213831 0 0.0036945788677956583 0.0014936571800333051 0 0.0036336693146982388 0.0014617271413192167 0 0.0036601160743981662 0.0014311182468213831 0 0.0036903904482802614 0.0015130888666069649 0 0.0036945788677956583 0.0014936571800333051 0 0.0036601160743981662 0.0014311182468213831 0 0.0036434650215545475 0.0013800895948093382 0 0.0036903904482802614 0.0015130888666069649 0 0.0018191639681414953 0.0010401460352535707 0 0.0022890870957886843 0.00095274136399605021 0 0.0024883171383085077 0.00137509303895724 0 -0.00011090524256945146 0.0016534948674283801 0 0.0034042690239675802 0.0016125785696688719 0 0.001645532431219355 0.0020799846086831126 0 -0.00011090524256945146 0.0016534948674283801 0 0.0018191639681414953 0.0010401460352535707 0 0.0020006452303548239 0.00056944783686748725 0 0.0015465603290474111 0.00034155256287755789 0 -0.00011090524256945146 0.0016534948674283801 0 -0.0026988320203094876 0.0010707127539658619 0 0.0018191639681414953 0.0010401460352535707 0 0.0020006452303548239 0.00056944783686748725 0 0.0022890870957886843 0.00095274136399605021 0 0.0022890870957886843 0.00095274136399605021 0 0.0024952694600562843 0.00068898522768176161 0 0.0027646172567549862 0.0010760522644182615 0 0.0020006452303548239 0.00056944783686748725 0 0.0022890870957886843 0.00095274136399605021 0 0.0024952694600562843 0.00068898522768176161 0 0.0020006452303548239 0.00056944783686748725 0 0.0024952694600562843 0.00068898522768176161 0 0.0023240214434744029 0.00039412055886004475 0 0.0029907649595111757 0.00080946621180085475 0 0.0024952694600562843 0.00068898522768176161 0 0.0027646172567549862 0.0010760522644182615 0 0.0034864633855869239 0.001501035882489816 0 0.0027646172567549862 0.0010760522644182615 0 0.0024883171383085077 0.00137509303895724 0 0.0022890870957886843 0.00095274136399605021 0 0.0027646172567549862 0.0010760522644182615 0 0.0024883171383085077 0.00137509303895724 0 0.0032791084594275361 0.0014332888988588773 0 0.0034042690239675802 0.0016125785696688719 0 0.0036910297552752366 0.0015082182080669057 0 0.0037273713674945571 0.0015165060200133453 0 0.0037328875397196555 0.0015548874465567465 0 0.0034864633855869239 0.001501035882489816 0 0.0036910297552752366 0.0015082182080669057 0 0.0037273713674945571 0.0015165060200133453 0 0.0034864633855869239 0.001501035882489816 0 0.0036903904482802614 0.0015130888666069649 0 0.0036910297552752366 0.0015082182080669057 0 0.0036903904482802614 0.0015130888666069649 0 0.0036910297552752366 0.0015082182080669057 0 0.0036945788677956583 0.0014936571800333051 0 0.0037273713674945571 0.0015165060200133453 0 0.0037328875397196555 0.0015548874465567465 0 0.0038801587711462752 0.0015466450883908783 0 0.0036910297552752366 0.0015082182080669057 0 0.0037328875397196555 0.0015548874465567465 0 0.0036945788677956583 0.0014936571800333051 0 0.0037328875397196555 0.0015548874465567465 0 0.0036945788677956583 0.0014936571800333051 0 0.0036336693146982388 0.0014617271413192167 0 0.0037328875397196555 0.0015548874465567465 0 0.0036336693146982388 0.0014617271413192167 0 0.0035229082416919307 0.0015226285302008659 0 0.0035224812072299945 0.0014018587125732053 0 0.0036336693146982388 0.0014617271413192167 0 0.0035229082416919307 0.0015226285302008659 0 0.0037328875397196555 0.0015548874465567465 0 0.0039765705584805713 0.0016403896918927505 0 0.0038801587711462752 0.0015466450883908783 0 0.0037511225105128368 0.001554046469882799 0 0.0037555767727091654 0.0015867061019512599 0 0.0039765705584805713 0.0016403896918927505 0 0.0040742804934711203 0.0015780120412083884 0 0.0038801587711462752 0.0015466450883908783 0 0.0034452731644910007 0.0014486259017352347 0 0.0034370018594869567 0.0014666707473605712 0 0.0035229082416919307 0.0015226285302008659 0 0.003819882352665515 0.001431739590882051 0 0.0037555767727091654 0.0015867061019512599 0 0.0034370018594869567 0.0014666707473605712 0 0.0034334090051105683 0.001480352643434206 0 0.0035229082416919307 0.0015226285302008659 0 0.0042004425257486846 0.0016262316312736877 0 0.0039765705584805713 0.0016403896918927505 0 0.0040742804934711203 0.0015780120412083884 0 0.0035224812072299945 0.0014018587125732053 0 0.0035229082416919307 0.0015226285302008659 0 0.0034653211731267598 0.0014263212333716373 0 0.0034452731644910007 0.0014486259017352347 0 0.0035229082416919307 0.0015226285302008659 0 0.0034653211731267598 0.0014263212333716373 0 0.004199341534590984 0.001414770803566762 0 0.0040838188809635958 0.0014798390410003602 0 0.0041247774351744907 0.0013946471400385504 0 0.0040838188809635958 0.0014798390410003602 0 0.0039988647028540679 0.0014287992952593748 0 0.0041247774351744907 0.0013946471400385504 0 0.0041737388771006852 0.0015013569505222864 0 0.004199341534590984 0.001414770803566762 0 0.0040838188809635958 0.0014798390410003602 0 0.0041737388771006852 0.0015013569505222864 0 0.0040838188809635958 0.0014798390410003602 0 0.0040742804934711203 0.0015780120412083884 0 0.0040838188809635958 0.0014798390410003602 0 0.0040742804934711203 0.0015780120412083884 0 0.0038801587711462752 0.0015466450883908783 0 0.0040838188809635958 0.0014798390410003602 0 0.0038801587711462752 0.0015466450883908783 0 0.0039988647028540679 0.0014287992952593748 0 0.0038801587711462752 0.0015466450883908783 0 0.0039988647028540679 0.0014287992952593748 0 0.0038764228860129987 0.0013935078556896654 0 0.0038969786520723043 0.0015574570054010955 0 0.0036010601074251314 0.0016105762019190141 0 0.0038801587711462752 0.0015466450883908783 0 0.0038208172849556851 0.0015742445933033713 0 0.0038764228860129987 0.0013935078556896654 0 0.0037273713674945571 0.0015165060200133453 0 0.0038801587711462752 0.0015466450883908783 0 0.0038208172849556851 0.0015742445933033713 0 0.0037273713674945571 0.0015165060200133453 0 0.0038208172849556851 0.0015742445933033713 0 0.0039038825673549942 0.0015667904688339857 0 0.0038208172849556851 0.0015742445933033713 0 0.0039829800324394198 0.0017935770576126009 0 0.0037811190333544315 0.0018568317786535323 0 0.0039829800324394198 0.0017935770576126009 0 0.0040202700992284478 0.0020057716447203764 0 0.0037811190333544315 0.0018568317786535323 0 0.0040202700992284478 0.0020057716447203764 0 0.0042729521399596324 0.0021847434604742879 0 0.0039259017933624416 0.0022937001231302526 0 0.0040202700992284478 0.0020057716447203764 0 0.003840997156016844 0.0020730282192157044 0 0.0039259017933624416 0.0022937001231302526 0 0.003840997156016844 0.0020730282192157044 0 0.0036443032560201363 0.0021430363345227052 0 0.0039259017933624416 0.0022937001231302526 0 0.003840997156016844 0.0020730282192157044 0 0.0037811190333544315 0.0018568317786535323 0 0.0036443032560201363 0.0021430363345227052 0 0.0040202700992284478 0.0020057716447203764 0 0.003840997156016844 0.0020730282192157044 0 0.0037811190333544315 0.0018568317786535323 0 0.0038764228860129987 0.0013935078556896654 0 0.0040787043531908306 0.0013318426497092011 0 0.0040093683104557177 0.0011526821357916921 0 0.0039988647028540679 0.0014287992952593748 0 0.0038764228860129987 0.0013935078556896654 0 0.0040787043531908306 0.0013318426497092011 0 0.0039988647028540679 0.0014287992952593748 0 0.0040787043531908306 0.0013318426497092011 0 0.0041247774351744907 0.0013946471400385504 0 0.0036010601074251314 0.0016105762019190141 0 0.0053845345599797369 0.0020424840742142921 0 0.0053845345599797369 0.0020424840742142921 0 0.0037759762723363036 0.00098053591097070148 0 0.0043237643299281767 0.0013200559275099817 0 0.0044313760165050481 0.001306912938963696 0 0.0043354212107075745 0.001300016854569825 0 0.0043237643299281767 0.0013200559275099817 0 0.0044313760165050481 0.001306912938963696 0 0.0042800004345770861 0.001283175805526415 0 0.0040787043531908306 0.0013318426497092011 0 0.0040093683104557177 0.0011526821357916921 0 0.0042800004345770861 0.001283175805526415 0 0.0040787043531908306 0.0013318426497092011 0 0.0042800004345770861 0.001283175805526415 0 0.0042263838671459351 0.0013468141439030835 0 0.0040787043531908306 0.0013318426497092011 0 0.0041247774351744907 0.0013946471400385504 0 0.0042263838671459351 0.0013468141439030835 0 0.004199341534590984 0.001414770803566762 0 0.0041247774351744907 0.0013946471400385504 0 0.0042263838671459351 0.0013468141439030835 0 0.004339711358468566 0.0017456296506209441 0 0.0045109358034660599 0.0018655701082836234 0 0.0043219485679277109 0.0019213476898214089 0 0.004339711358468566 0.0017456296506209441 0 0.0045109358034660599 0.0018655701082836234 0 0.0045490408619813238 0.0017439669904177266 0 0.0047423348930183285 0.0017405463005993366 0 0.0045490408619813238 0.0017439669904177266 0 0.0046945167773444251 0.0018852134076331034 0 0.0045109358034660599 0.0018655701082836234 0 0.0045490408619813238 0.0017439669904177266 0 0.0046945167773444251 0.0018852134076331034 0 0.0047423348930183285 0.0017405463005993366 0 0.0045490408619813238 0.0017439669904177266 0 0.0045954538897447633 0.0016030027192492555 0 0.0045490408619813238 0.0017439669904177266 0 0.0045954538897447633 0.0016030027192492555 0 0.0043922450258849534 0.0016084904856431955 0 0.0044508480391527595 0.001468801185475456 0 0.0045954538897447633 0.0016030027192492555 0 0.0043922450258849534 0.0016084904856431955 0 0.004339711358468566 0.0017456296506209441 0 0.0045490408619813238 0.0017439669904177266 0 0.0043922450258849534 0.0016084904856431955 0 0.004339711358468566 0.0017456296506209441 0 0.0043922450258849534 0.0016084904856431955 0 0.0041514089736231236 0.0016082181801831189 0 0.004339711358468566 0.0017456296506209441 0 0.0041514089736231236 0.0016082181801831189 0 0.0041028380948763855 0.0017191802886764905 0 0.0041514089736231236 0.0016082181801831189 0 0.0039038825673549942 0.0015667904688339857 0 0.0041028380948763855 0.0017191802886764905 0 0.0038208172849556851 0.0015742445933033713 0 0.0039038825673549942 0.0015667904688339857 0 0.0041028380948763855 0.0017191802886764905 0 0.0038208172849556851 0.0015742445933033713 0 0.0039829800324394198 0.0017935770576126009 0 0.0041028380948763855 0.0017191802886764905 0 0.0039829800324394198 0.0017935770576126009 0 0.0041028380948763855 0.0017191802886764905 0 0.0043219485679277109 0.0019213476898214089 0 0.004339711358468566 0.0017456296506209441 0 0.0041028380948763855 0.0017191802886764905 0 0.0043219485679277109 0.0019213476898214089 0 0.0039829800324394198 0.0017935770576126009 0 0.0040202700992284478 0.0020057716447203764 0 0.0043219485679277109 0.0019213476898214089 0 0.0040202700992284478 0.0020057716447203764 0 0.0043219485679277109 0.0019213476898214089 0 0.0042729521399596324 0.0021847434604742879 0 0.0043219485679277109 0.0019213476898214089 0 0.0046619588875200547 0.0022135799182176944 0 0.0042729521399596324 0.0021847434604742879 0 0.0043219485679277109 0.0019213476898214089 0 0.0046441121380380286 0.0020197191286297302 0 0.0046619588875200547 0.0022135799182176944 0 0.0046441121380380286 0.0020197191286297302 0 0.004811285187044754 0.0021699012252321898 0 0.0046619588875200547 0.0022135799182176944 0 0.0045109358034660599 0.0018655701082836234 0 0.0043219485679277109 0.0019213476898214089 0 0.0046441121380380286 0.0020197191286297302 0 0.0045109358034660599 0.0018655701082836234 0 0.0046441121380380286 0.0020197191286297302 0 0.0046945167773444251 0.0018852134076331034 0 0.0048574204721842946 0.0020631088829922207 0 0.0046441121380380286 0.0020197191286297302 0 0.0046945167773444251 0.0018852134076331034 0 0.0048574204721842946 0.0020631088829922207 0 0.0046441121380380286 0.0020197191286297302 0 0.004811285187044754 0.0021699012252321898 0 0.0048574204721842946 0.0020631088829922207 0 0.004811285187044754 0.0021699012252321898 0 0.0049500365013553076 0.0022075113196412112 0 0.004811285187044754 0.0021699012252321898 0 0.0049225163000016451 0.0023503145240800429 0 0.0049500365013553076 0.0022075113196412112 0 0.0049591943504280304 0.0022562133356775079 0 0.0049225163000016451 0.0023503145240800429 0 0.0049858065670446592 0.0022395370020538465 0 0.0049591943504280304 0.0022562133356775079 0 0.0049225163000016451 0.0023503145240800429 0 0.0049500365013553076 0.0022075113196412112 0 0.0049225163000016451 0.0023503145240800429 0 0.0050702697980240007 0.0025362303973965796 0 0.0049858065670446592 0.0022395370020538465 0 0.0049225163000016451 0.0023503145240800429 0 0.0046619588875200547 0.0022135799182176944 0 0.0050702697980240007 0.0025362303973965796 0 0.004811285187044754 0.0021699012252321898 0 0.0049225163000016451 0.0023503145240800429 0 0.0046619588875200547 0.0022135799182176944 0 0.0046619588875200547 0.0022135799182176944 0 0.0042729521399596324 0.0021847434604742879 0 0.0043335061206308681 0.0024528910014266531 0 0.0063659183711661299 0.0033537863917165842 0 0.0061950679837965298 0.0023044759843465551 0 0.0068991061403732238 0.0026576111180154197 0 0.0063659183711661299 0.0033537863917165842 0 0.0050702697980240007 0.0025362303973965796 0 0.0061950679837965298 0.0023044759843465551 0 0.0046619588875200547 0.0022135799182176944 0 0.0043335061206308681 0.0024528910014266531 0 0.0050702697980240007 0.0025362303973965796 0 0.005297232483279412 0.0028431115481420159 0 0.0050932230991935336 0.0025988171583570907 0 0.0050702697980240007 0.0025362303973965796 0 0.0054731787682538741 0.0020884708914988143 0 0.0061950679837965298 0.0023044759843465551 0 0.0054731787682538741 0.0020884708914988143 0 0.0061950679837965298 0.0023044759843465551 0 0.0062391957489711207 0.0018863130236846644 0 0.0061950679837965298 0.0023044759843465551 0 0.0067135930628241403 0.0019663182074925851 0 0.0068991061403732238 0.0026576111180154197 0 0.0061950679837965298 0.0023044759843465551 0 0.0067135930628241403 0.0019663182074925851 0 0.0062391957489711207 0.0018863130236846644 0 0.0069188136345854174 0.0013860471053444776 0 0.0060158323804426544 0.0016500403274335598 0 0.0078628014044464355 0.0018022190577582948 0 0.0062168310175678611 0.0016377335468095756 0 0.007163763871285987 0.0016239859214588382 0 0.0062391957489711207 0.0018863130236846644 0 0.0060158323804426544 0.0016500403274335598 0 0.0067733462265437555 0.0014541590514263083 0 0.0067135930628241403 0.0019663182074925851 0 0.0062391957489711207 0.0018863130236846644 0 0.0067733462265437555 0.0014541590514263083 0 0.0069188136345854174 0.0013860471053444776 0 0.007498857757156422 0.0013500735893877342 0 0.0078628014044464355 0.0018022190577582948 0 0.0069188136345854174 0.0013860471053444776 0 0.0060158323804426544 0.0016500403274335598 0 0.0056937810590810458 0.00095731956477986522 0 0.0054731787682538741 0.0020884708914988143 0 0.0060158323804426544 0.0016500403274335598 0 0.0054285756896894763 0.0016758539981747344 0 0.0054731787682538741 0.0020884708914988143 0 0.0062391957489711207 0.0018863130236846644 0 0.0060158323804426544 0.0016500403274335598 0 0.0060158323804426544 0.0016500403274335598 0 0.0054285756896894763 0.0016758539981747344 0 0.0056937810590810458 0.00095731956477986522 0 0.0054285756896894763 0.0016758539981747344 0 0.005165164808783566 0.001494337982145932 0 0.0051842117529876828 0.0017317839438770995 0 0.0051778464023381878 0.0019358754003929689 0 0.0049920982914635923 0.0018013732182276085 0 0.0049858065670446592 0.0022395370020538465 0 0.0054731787682538741 0.0020884708914988143 0 0.0054285756896894763 0.0016758539981747344 0 0.0051778464023381878 0.0019358754003929689 0 0.0054285756896894763 0.0016758539981747344 0 0.0051842117529876828 0.0017317839438770995 0 0.0051778464023381878 0.0019358754003929689 0 0.005165164808783566 0.001494337982145932 0 0.0049920982914635923 0.0018013732182276085 0 0.0048042373038863478 0.0014848653804743976 0 0.0051842117529876828 0.0017317839438770995 0 0.0051778464023381878 0.0019358754003929689 0 0.0049920982914635923 0.0018013732182276085 0 0.005165164808783566 0.001494337982145932 0 0.0051842117529876828 0.0017317839438770995 0 0.0049920982914635923 0.0018013732182276085 0 0.0049920982914635923 0.0018013732182276085 0 0.0049183028802001439 0.0021300736420413386 0 0.0049400264460175243 0.001713262961206807 0 0.0049920982914635923 0.0018013732182276085 0 0.0049183028802001439 0.0021300736420413386 0 0.0049858065670446592 0.0022395370020538465 0 0.0066148374038758071 0.000796606043437861 0 0.0082025642524902048 0.0010257538108027458 0 0.0047147316481858173 0.0028268163382189756 0 0.0082025642524902048 0.0010257538108027458 0 0.0050087823909586134 0.0023117515513959219 0 0.0049183028802001439 0.0021300736420413386 0 0.0048762141345714714 0.0023263868194343161 0 0.0049183028802001439 0.0021300736420413386 0 0.0049858065670446592 0.0022395370020538465 0 0.0049815391159957747 0.0022003771400493292 0 0.0049591943504280304 0.0022562133356775079 0 0.0049858065670446592 0.0022395370020538465 0 0.0049815391159957747 0.0022003771400493292 0 0.0050702697980240007 0.0025362303973965796 0 0.0054731787682538741 0.0020884708914988143 0 0.0049858065670446592 0.0022395370020538465 0 0.0054731787682538741 0.0020884708914988143 0 0.0051778464023381878 0.0019358754003929689 0 0.0049858065670446592 0.0022395370020538465 0 0.0067405220934207769 0.0027498535934418022 0 0.010058188615819539 0.0016673465093138965 0 0.004412350990902216 0.0013787715846712238 0 0.0044171213802193616 0.0013619996763609885 0 0.0044461589366281808 0.0013972179060474891 0 0.0095023464015129774 0.003582663095181841 0 0.0092142965027140148 0.0029396337552684802 0 0.010172964698650517 0.002558154952588263 0 0.0044313760165050481 0.001306912938963696 0 0.0043354212107075745 0.001300016854569825 0 0.0044171213802193616 0.0013619996763609885 0 0.004412350990902216 0.0013787715846712238 0 0.0043354212107075745 0.001300016854569825 0 0.0044171213802193616 0.0013619996763609885 0 0.0053845345599797369 0.0020424840742142921 0 0.0067405220934207769 0.0027498535934418022 0 0.0088461639239140778 0.0045832880685244158 0 0.0095023464015129774 0.003582663095181841 0 0.0086716888075734373 0.0037804728622929992 0 0.0086716888075734373 0.0037804728622929992 0 0.0092142965027140148 0.0029396337552684802 0 0.0086044179389811373 0.0029577053604319956 0 0.0095023464015129774 0.003582663095181841 0 0.0086716888075734373 0.0037804728622929992 0 0.0092142965027140148 0.0029396337552684802 0 0.0092142965027140148 0.0029396337552684802 0 0.0086044179389811373 0.0029577053604319956 0 0.0086079879857782777 0.0023748597017354536 0 0.0086044179389811373 0.0029577053604319956 0 0.0076032754926880462 0.0039829732215668056 0 0.0078222644319355383 0.0025920623264211792 0 0.0086716888075734373 0.0037804728622929992 0 0.0086044179389811373 0.0029577053604319956 0 0.0076032754926880462 0.0039829732215668056 0 0.0053845345599797369 0.0020424840742142921 0 0.0059950420239248759 0.0033469937524074722 0 0.0088461639239140778 0.0045832880685244158 0 0.0086716888075734373 0.0037804728622929992 0 0.0076032754926880462 0.0039829732215668056 0 0.005297232483279412 0.0028431115481420159 0 0.0059950420239248759 0.0033469937524074722 0 0.0042729521399596324 0.0021847434604742879 0 0.0043335061206308681 0.0024528910014266531 0 0.0039259017933624416 0.0022937001231302526 0 0.0076032754926880462 0.0039829732215668056 0 0.0068991061403732238 0.0026576111180154197 0 0.0078222644319355383 0.0025920623264211792 0 0.0063659183711661299 0.0033537863917165842 0 0.0076032754926880462 0.0039829732215668056 0 0.0068991061403732238 0.0026576111180154197 0 0.0068991061403732238 0.0026576111180154197 0 0.0072304874075950695 0.0021677639045256879 0 0.0078222644319355383 0.0025920623264211792 0 0.0072304874075950695 0.0021677639045256879 0 0.0076521364107700138 0.0019220653381713661 0 0.0078222644319355383 0.0025920623264211792 0 0.0072304874075950695 0.0021677639045256879 0 0.0072388714227978514 0.00178228232641067 0 0.0076521364107700138 0.0019220653381713661 0 0.0067135930628241403 0.0019663182074925851 0 0.0068991061403732238 0.0026576111180154197 0 0.0072304874075950695 0.0021677639045256879 0 0.0067135930628241403 0.0019663182074925851 0 0.0072304874075950695 0.0021677639045256879 0 0.0072388714227978514 0.00178228232641067 0 0.0067135930628241403 0.0019663182074925851 0 0.0067733462265437555 0.0014541590514263083 0 0.0072388714227978514 0.00178228232641067 0 0.007163763871285987 0.0016239859214588382 0 0.0092306644232278724 0.0013160287290467298 0 0.0067733462265437555 0.0014541590514263083 0 0.0072388714227978514 0.00178228232641067 0 0.0078626533549063793 0.0013843133573792276 0 0.0078628014044464355 0.0018022190577582948 0 0.0092068395244842682 0.0016983062683835087 0 0.0085551301421834102 0.0012875986501108513 0 0.0078628014044464355 0.0018022190577582948 0 0.0079520108014862149 0.0013271278915688819 0 0.0085551301421834102 0.0012875986501108513 0 0.007498857757156422 0.0013500735893877342 0 0.0078628014044464355 0.0018022190577582948 0 0.0079520108014862149 0.0013271278915688819 0 0.0072388714227978514 0.00178228232641067 0 0.0078626533549063793 0.0013843133573792276 0 0.0076521364107700138 0.0019220653381713661 0 0.0092306644232278724 0.0013160287290467298 0 0.0083714396634723583 0.0015728375626741778 0 0.012866277781897115 -0.00010690438753047695 0 0.012039631784609423 -0.00013336965766017774 0 0.013683128578790177 0.0014228855678786677 0 0.0078626533549063793 0.0013843133573792276 0 0.0081912726806393811 0.0019386452826105577 0 0.0076521364107700138 0.0019220653381713661 0 0.0092306644232278724 0.0013160287290467298 0 0.012215741196904384 0.0010203849551371461 0 0.0078899858039562232 0.001310798736158235 0 0.0084253583667158096 0.0013260411675916804 0 0.0081912726806393811 0.0019386452826105577 0 0.0081912726806393811 0.0019386452826105577 0 0.0076521364107700138 0.0019220653381713661 0 0.0078222644319355383 0.0025920623264211792 0 0.0086044179389811373 0.0029577053604319956 0 0.0078222644319355383 0.0025920623264211792 0 0.0086079879857782777 0.0023748597017354536 0 0.0081912726806393811 0.0019386452826105577 0 0.0078222644319355383 0.0025920623264211792 0 0.0086079879857782777 0.0023748597017354536 0 0.0092142965027140148 0.0029396337552684802 0 0.0086079879857782777 0.0023748597017354536 0 0.0095427757453450321 0.0023215398138952711 0 0.0086079879857782777 0.0023748597017354536 0 0.0090301065084114913 0.0019022335712979557 0 0.0095427757453450321 0.0023215398138952711 0 0.0090301065084114913 0.0019022335712979557 0 0.009441948923457644 0.001921748630222143 0 0.0095427757453450321 0.0023215398138952711 0 0.0081912726806393811 0.0019386452826105577 0 0.0086079879857782777 0.0023748597017354536 0 0.0090301065084114913 0.0019022335712979557 0 0.018693365469189205 -0.00050086441808944919 0 0.018316348402369401 -0.00052724809112948245 0 0.01876219511042446 -0.00023308465857026193 0 0.019039849809133952 -0.00057864424226215197 0 0.025249855097683002 -0.0011633137541499066 0 0.02868958700711785 -0.0030965989109214055 0 0.028378771558637696 -0.0031038646176786934 0 0.028966440731126666 -0.0021249042055883037 0 0.012215741196904384 0.0010203849551371461 0 0.0087857914984744157 0.0010881819231350692 0 0.0086079128327020814 0.0014286496747539673 0 0.0090301065084114913 0.0019022335712979557 0 0.009347353444514258 0.0014351201866043602 0 0.012215741196904384 0.0010203849551371461 0 0.019039849809133952 -0.00057864424226215197 0 0.0084253583667158096 0.0013260411675916804 0 0.0081912726806393811 0.0019386452826105577 0 0.0090301065084114913 0.0019022335712979557 0 0.0090301065084114913 0.0019022335712979557 0 0.009347353444514258 0.0014351201866043602 0 0.009441948923457644 0.001921748630222143 0 0.009347353444514258 0.0014351201866043602 0 0.0097963327585525589 0.0016916224290709383 0 0.009441948923457644 0.001921748630222143 0 0.019039849809133952 -0.00057864424226215197 0 0.017304113176637811 -0.0004696899684605622 0 0.021306509965034855 -0.0013498924490775953 0 0.020777812938568764 -0.0012059218627965601 0 0.020711443545499024 -0.0013659986241539551 0 0.020135277049647522 0.00020935331626296798 0 0.019290022756486291 -0.00032175241005636014 0 0.019522957009150084 0.00018332664065227067 0 0.025752827634102266 -0.0026024282401545451 0 0.023703154423907052 -0.0012591044784102815 0 0.028390127116002285 -0.0025843947699659997 0 0.028956815253479939 -0.0025523604831141728 0 0.028685293051644224 -0.0021742131814092795 0 0.017304113176637811 -0.0004696899684605622 0 0.023703154423907052 -0.0012591044784102815 0 0.019039849809133952 -0.00057864424226215197 0 0.023703154423907052 -0.0012591044784102815 0 0.0092142965027140148 0.0029396337552684802 0 0.0095427757453450321 0.0023215398138952711 0 0.010172964698650517 0.002558154952588263 0 0.016586265147837658 0.00022181401850781884 0 0.017304113176637811 -0.0004696899684605622 0 0.014254989035039458 0.00054678616143749375 0 0.014705279528949565 0.00081164148043462404 0 0.014419310629793507 0.00025823616726173659 0 0.017304113176637811 -0.0004696899684605622 0 0.010058188615819539 0.0016673465093138965 0 0.0097963327585525589 0.0016916224290709383 0 0.0095427757453450321 0.0023215398138952711 0 0.010172964698650517 0.002558154952588263 0 0.0097963327585525589 0.0016916224290709383 0 0.009441948923457644 0.001921748630222143 0 0.0095427757453450321 0.0023215398138952711 0 0.029049464223022313 -0.0016914429652616712 0 0.028734801580494518 -0.0017704064616752304 0 0.028873157992439745 -0.001400694254966806 0 0.029049464223022313 -0.0016914429652616712 0 0.028734801580494518 -0.0017704064616752304 0 0.028941345670353672 -0.0020170382718060569 0 0.028956815253479939 -0.0025523604831141728 0 0.028685293051644224 -0.0021742131814092795 0 0.028941345670353672 -0.0020170382718060569 0 0.028956815253479939 -0.0025523604831141728 0 0.028941345670353672 -0.0020170382718060569 0 0.029278819929645136 -0.0019151991536331887 0 0.028734801580494518 -0.0017704064616752304 0 0.028685293051644224 -0.0021742131814092795 0 0.028941345670353672 -0.0020170382718060569 0 0.029049464223022313 -0.0016914429652616712 0 0.028941345670353672 -0.0020170382718060569 0 0.029278819929645136 -0.0019151991536331887 0 0.023703154423907052 -0.0012591044784102815 0 0.029617802215729072 -0.0020931410940059157 0 0.028966440731126666 -0.0021249042055883037 0 0.029680625655020845 -0.0019202631710400757 0 0.029568153653293953 -0.002567387708070753 0 0.02868958700711785 -0.0030965989109214055 0 0.028966440731126666 -0.0021249042055883037 0 0.029568153653293953 -0.002567387708070753 0 0.029617802215729072 -0.0020931410940059157 0 0.029415384650800496 -0.0014141087031008131 0 0.028966440731126666 -0.0021249042055883037 0 0.029680625655020845 -0.0019202631710400757 0 0.029569395109009217 -0.0013507199835439926 0 0.029049464223022313 -0.0016914429652616712 0 0.029569395109009217 -0.0013507199835439926 0 0.028873157992439745 -0.001400694254966806 0 0.029049464223022313 -0.0016914429652616712 0 0.029278819929645136 -0.0019151991536331887 0 0.029569395109009217 -0.0013507199835439926 0 0.029680625655020845 -0.0019202631710400757 0 0.030119745380316542 -0.001638133818096276 0 0.029569395109009217 -0.0013507199835439926 0 0.029680625655020845 -0.0019202631710400757 0 0.030245921278888054 -0.0020882568793022705 0 0.030119745380316542 -0.001638133818096276 0 0.01876219511042446 -0.00023308465857026193 0 0.019211825541479297 6.0847375020589454e-05 0 0.019155074271314371 -4.8151116282780578e-05 0 0.025249855097683002 -0.0011633137541499066 0 0.021164019579810418 0.0002602475068303332 0 0.012215741196904384 0.0010203849551371461 0 0.016062493206533527 1.5304675267895441e-05 0 0.029680625655020845 -0.0019202631710400757 0 0.029568153653293953 -0.002567387708070753 0 0.030245921278888054 -0.0020882568793022705 0 0.0092306644232278724 0.0013160287290467298 0 0.016062493206533527 1.5304675267895441e-05 0 0.018693365469189205 -0.00050086441808944919 0 0.01876219511042446 -0.00023308465857026193 0 0.019155074271314371 -4.8151116282780578e-05 0 0.0092068395244842682 0.0016983062683835087 0 0.0084925993949942491 0.00078112339864005011 0 0.0085551301421834102 0.0012875986501108513 0 0.017551126445008728 0.00024573196494158888 0 0.017663966815416668 0.00044977637759880702 0 0.017242767650133741 6.9941305191863169e-05 0 0.021164019579810418 0.0002602475068303332 0 0.016062493206533527 1.5304675267895441e-05 0 0.0084925993949942491 0.00078112339864005011 0 0.0085551301421834102 0.0012875986501108513 0 0.0083609373688833359 0.0010675706079724652 0 0.0084925993949942491 0.00078112339864005011 0 0.0083609373688833359 0.0010675706079724652 0 0.0083683273108131739 0.00080075856286048277 0 0.0079520108014862149 0.0013271278915688819 0 0.0085551301421834102 0.0012875986501108513 0 0.0083609373688833359 0.0010675706079724652 0 0.0079520108014862149 0.0013271278915688819 0 0.0083683273108131739 0.00080075856286048277 0 0.0076534434844197884 0.00078594502172993417 0 0.0083174516485452193 0.00034534143225533481 0 0.0091056724044333258 -0.00015952763886086467 0 0.0079520108014862149 0.0013271278915688819 0 0.0083609373688833359 0.0010675706079724652 0 0.0083683273108131739 0.00080075856286048277 0 0.016062493206533527 1.5304675267895441e-05 0 0.016579963311159008 -0.00050805013040455935 0 0.0083683273108131739 0.00080075856286048277 0 0.0084984513966338791 0.0011874649506225801 0 0.0089088399170320701 0.00067667303943998148 0 0.0084925993949942491 0.00078112339864005011 0 0.0083683273108131739 0.00080075856286048277 0 0.0084984513966338791 0.0011874649506225801 0 0.02060381559801415 -0.00051747960588027862 0 0.020547087764317882 -0.00054905237348237997 0 0.020529848497077327 -0.00066058982582998464 0 0.030245921278888054 -0.0020882568793022705 0 0.030119745380316542 -0.001638133818096276 0 0.030526510542062634 -0.0015036209190368028 0 0.021164019579810418 0.0002602475068303332 0 0.025626830126820967 -0.0010701180615111684 0 0.021164019579810418 0.0002602475068303332 0 0.016579963311159008 -0.00050805013040455935 0 0.030248787381531157 -0.0012017925864198148 0 0.030463049883091151 -0.00085619353733655296 0 0.030779699903331792 -0.0010002952176819471 0 0.030526510542062634 -0.0015036209190368028 0 0.030248787381531157 -0.0012017925864198148 0 0.030779699903331792 -0.0010002952176819471 0 0.030119745380316542 -0.001638133818096276 0 0.030526510542062634 -0.0015036209190368028 0 0.030248787381531157 -0.0012017925864198148 0 0.030463049883091151 -0.00085619353733655296 0 0.029966119973173781 -0.00089641787968977561 0 0.030434252354674226 -0.00045931944987604302 0 0.030248787381531157 -0.0012017925864198148 0 0.030463049883091151 -0.00085619353733655296 0 0.029966119973173781 -0.00089641787968977561 0 0.030463049883091151 -0.00085619353733655296 0 0.030764943667110356 -0.00060942258049806832 0 0.030434252354674226 -0.00045931944987604302 0 0.029966119973173781 -0.00089641787968977561 0 0.029879602240218392 -0.00047507502227270071 0 0.030434252354674226 -0.00045931944987604302 0 0.029966119973173781 -0.00089641787968977561 0 0.029568392897939375 -0.00085673401988177315 0 0.029879602240218392 -0.00047507502227270071 0 0.030248787381531157 -0.0012017925864198148 0 0.029966119973173781 -0.00089641787968977561 0 0.029569395109009217 -0.0013507199835439926 0 0.029966119973173781 -0.00089641787968977561 0 0.029569395109009217 -0.0013507199835439926 0 0.029568392897939375 -0.00085673401988177315 0 0.030119745380316542 -0.001638133818096276 0 0.030248787381531157 -0.0012017925864198148 0 0.029569395109009217 -0.0013507199835439926 0 0.029569395109009217 -0.0013507199835439926 0 0.029152688416490956 -0.0010228941211381912 0 0.028873157992439745 -0.001400694254966806 0 0.029569395109009217 -0.0013507199835439926 0 0.029568392897939375 -0.00085673401988177315 0 0.029152688416490956 -0.0010228941211381912 0 0.029568392897939375 -0.00085673401988177315 0 0.029152688416490956 -0.0010228941211381912 0 0.029350761792684098 -0.00055247831410568571 0 0.029568392897939375 -0.00085673401988177315 0 0.029350761792684098 -0.00055247831410568571 0 0.029879602240218392 -0.00047507502227270071 0 0.028923684848476707 -0.00064509423706180045 0 0.029152688416490956 -0.0010228941211381912 0 0.029350761792684098 -0.00055247831410568571 0 0.028713091795783748 -0.0010225602876705621 0 0.028923684848476707 -0.00064509423706180045 0 0.029152688416490956 -0.0010228941211381912 0 0.028713091795783748 -0.0010225602876705621 0 0.029152688416490956 -0.0010228941211381912 0 0.028873157992439745 -0.001400694254966806 0 0.020183946919670674 -0.003207999136147408 0 0.020330832553898021 -0.0030286587462479355 0 0.020607627751174307 -0.0033658018823957115 0 0.022021319139871522 -0.0029764507944900973 0 0.020460936680752224 -0.0030908883517453225 0 0.017313756762155002 -0.002276571158650223 0 0.013898611953697786 -0.002162300314201236 0 0.017313756762155002 -0.002276571158650223 0 0.018931883817609713 -0.00048573798182086184 0 0.017313756762155002 -0.002276571158650223 0 0.022021319139871522 -0.0029764507944900973 0 0.020161448926092364 -0.0021701251975148987 0 0.020259006828428815 -0.0020605267116379474 0 0.0201688479039615 -0.0019518717964454094 0 0.02060134445147644 -0.0032793537531643248 0 0.020607627751174307 -0.0033658018823957115 0 0.020616148862051265 -0.0032615156532687876 0 0.022021319139871522 -0.0029764507944900973 0 0.025045934119938707 -0.0040260031612778411 0 0.028999576693964239 -0.0057757336626763382 0 0.030835719098449437 -0.0051713087616989117 0 0.031557719984406027 -0.006785954170191991 0 0.025045934119938707 -0.0040260031612778411 0 0.023115531983431428 -0.0040181651386500174 0 0.020607627751174307 -0.0033658018823957115 0 0.020616148862051265 -0.0032615156532687876 0 0.020778816596262104 -0.0032937654025371427 0 0.020607627751174307 -0.0033658018823957115 0 0.020585033014148806 -0.0035373239114625077 0 0.020427292513511303 -0.0035615724843059623 0 0.020607627751174307 -0.0033658018823957115 0 0.020585033014148806 -0.0035373239114625077 0 0.020778816596262104 -0.0032937654025371427 0 0.012172124096164087 -0.0012938602733163665 0 0.023115531983431428 -0.0040181651386500174 0 0.0050087823909586134 0.0023117515513959219 0 0.0049314252038395335 0.0023778923890140215 0 0.0048762141345714714 0.0023263868194343161 0 0.012172124096164087 -0.0012938602733163665 0 0.012306253787804566 -0.0015303208882288743 0 0.010534562884754574 -0.0008566021032533909 0 0.010567574054467708 -0.00079787711842355048 0 0.010608875819654572 -0.00086070082276515445 0 0.012172124096164087 -0.0012938602733163665 0 0.0082025642524902048 0.0010257538108027458 0 0.0082025642524902048 0.0010257538108027458 0 0.012306253787804566 -0.0015303208882288743 0 0.012306253787804566 -0.0015303208882288743 0 0.0088784182974239664 -0.00046320783218222242 0 0.005165164808783566 0.001494337982145932 0 0.0049278610972648476 0.0012506320906943435 0 0.0056937810590810458 0.00095731956477986522 0 0.013769962016828686 -0.00091177465543654224 0 0.014427897244288435 -0.0019910362843252941 0 0.013219350981464345 -0.0015839756034554606 0 0.014427897244288435 -0.0019910362843252941 0 0.012931555975827923 -0.0019799750894977037 0 0.013219350981464345 -0.0015839756034554606 0 0.020183946919670674 -0.003207999136147408 0 0.020607627751174307 -0.0033658018823957115 0 0.020427292513511303 -0.0035615724843059623 0 0.005165164808783566 0.001494337982145932 0 0.0048042373038863478 0.0014848653804743976 0 0.0049278610972648476 0.0012506320906943435 0 0.017313756762155002 -0.002276571158650223 0 0.012306253787804566 -0.0015303208882288743 0 0.0054285756896894763 0.0016758539981747344 0 0.005165164808783566 0.001494337982145932 0 0.0056937810590810458 0.00095731956477986522 0 0.012931555975827923 -0.0019799750894977037 0 0.012569798462966112 -0.0013246118341524592 0 0.011245441159249022 -0.0019438955248154697 0 0.012931555975827923 -0.0019799750894977037 0 0.012569798462966112 -0.0013246118341524592 0 0.013219350981464345 -0.0015839756034554606 0 0.012569798462966112 -0.0013246118341524592 0 0.011245441159249022 -0.0019438955248154697 0 0.011984025932648475 -0.0009182598618323011 0 0.0084984513966338791 0.0011874649506225801 0 0.0089088399170320701 0.00067667303943998148 0 0.0095718641336433128 0.0013728492476485765 0 0.0088784182974239664 -0.00046320783218222242 0 0.0091056724044333258 -0.00015952763886086467 0 0.0069188136345854174 0.0013860471053444776 0 0.0056937810590810458 0.00095731956477986522 0 0.0073414661248411475 0.00063401167804336871 0 0.0084521217727098578 0.00072613272642974382 0 0.0091056724044333258 -0.00015952763886086467 0 0.007498857757156422 0.0013500735893877342 0 0.0079520108014862149 0.0013271278915688819 0 0.0073414661248411475 0.00063401167804336871 0 0.0069188136345854174 0.0013860471053444776 0 0.007498857757156422 0.0013500735893877342 0 0.0073414661248411475 0.00063401167804336871 0 0.0091056724044333258 -0.00015952763886086467 0 0.010767632906478209 7.0942787764778932e-05 0 0.0084984513966338791 0.0011874649506225801 0 0.0095718641336433128 0.0013728492476485765 0 0.01020700655584895 0.0022124452988572969 0 0.016579963311159008 -0.00050805013040455935 0 0.015456265144780254 -0.00025012190365948785 0 0.019513565970834035 -0.0013792796193290338 0 0.020370368214508435 -0.00073209886941010959 0 0.020460038615277336 -0.0008624290184214053 0 0.016579963311159008 -0.00050805013040455935 0 0.021562751690277718 -0.0006350600311638404 0 0.020547087764317882 -0.00054905237348237997 0 0.020529848497077327 -0.00066058982582998464 0 0.020370368214508435 -0.00073209886941010959 0 0.012569798462966112 -0.0013246118341524592 0 0.013219350981464345 -0.0015839756034554606 0 0.012922152218090555 -0.00069808850990429373 0 0.01386902723778914 -0.00082142570642054031 0 0.013219350981464345 -0.0015839756034554606 0 0.012922152218090555 -0.00069808850990429373 0 0.012569798462966112 -0.0013246118341524592 0 0.011984025932648475 -0.0009182598618323011 0 0.012922152218090555 -0.00069808850990429373 0 0.010767632906478209 7.0942787764778932e-05 0 0.015456265144780254 -0.00025012190365948785 0 0.011984025932648475 -0.0009182598618323011 0 0.012922152218090555 -0.00069808850990429373 0 0.012732192571373747 0.0001054397913806137 0 0.01386902723778914 -0.00082142570642054031 0 0.012922152218090555 -0.00069808850990429373 0 0.013160115852069935 0.00036005436084345853 0 0.021087140473698179 -0.00064211592791481775 0 0.026390553651660827 -0.0010209766030889595 0 0.012922152218090555 -0.00069808850990429373 0 0.013160115852069935 0.00036005436084345853 0 0.012732192571373747 0.0001054397913806137 0 0.020055682283484144 -0.0019028407519048256 0 0.020021269304655958 -0.0019222468826446326 0 0.0201688479039615 -0.0019518717964454094 0 0.020370368214508435 -0.00073209886941010959 0 0.020392656498466909 -0.00073414915922434857 0 0.0204375890817836 -0.00076926816908725703 0 0.021354302718648188 -0.00091535553890936317 0 0.018931883817609713 -0.00048573798182086184 0 0.021354302718648188 -0.00091535553890936317 0 0.024447113519917241 -0.0013694297167539974 0 0.015456265144780254 -0.00025012190365948785 0 0.021087140473698179 -0.00064211592791481775 0 0.018931883817609713 -0.00048573798182086184 0 0.015456265144780254 -0.00025012190365948785 0 0.019437936336191616 -0.00015126176785164823 0 0.017599737410077324 -0.001281471312789933 0 0.018947900464477752 0.00064800714436549073 0 0.021354302718648188 -0.00091535553890936317 0 0.021087140473698179 -0.00064211592791481775 0 0.019574391133720368 -0.00050287650985147254 0 0.01992225268117459 -0.00028742017660405276 0 0.020168300277575581 -0.00068770175990249128 0 0.018931883817609713 -0.00048573798182086184 0 0.021087140473698179 -0.00064211592791481775 0 0.020370368214508435 -0.00073209886941010959 0 0.020460038615277336 -0.0008624290184214053 0 0.020392656498466909 -0.00073414915922434857 0 0.023163897504915806 -0.00068508009557471906 0 0.02318620201244068 -0.00096029582903299786 0 0.023334232467495369 -0.00073836869187197734 0 0.023163897504915806 -0.00068508009557471906 0 0.02318620201244068 -0.00096029582903299786 0 0.023023218349346144 -0.00077357820452924936 0 0.025202605838081663 -0.00091194309531859787 0 0.024447113519917241 -0.0013694297167539974 0 0.025202605838081663 -0.00091194309531859787 0 0.021087140473698179 -0.00064211592791481775 0 0.025626830126820967 -0.0010701180615111684 0 0.026390553651660827 -0.0010209766030889595 0 0.020529848497077327 -0.00066058982582998464 0 0.020370368214508435 -0.00073209886941010959 0 0.0204375890817836 -0.00076926816908725703 0 0.031197745297575245 -0.0015664805690585744 0 0.026390553651660827 -0.0010209766030889595 0 0.030463049883091151 -0.00085619353733655296 0 0.030772527495126177 -0.0009796382339164896 0 0.030764943667110356 -0.00060942258049806832 0 0.026390553651660827 -0.0010209766030889595 0 0.028032561173278195 -0.0013319627909098807 0 0.030772527495126177 -0.0009796382339164896 0 0.030946462234469431 -0.00062957250037891832 0 0.030764943667110356 -0.00060942258049806832 0 0.030946462234469431 -0.00062957250037891832 0 0.030764943667110356 -0.00060942258049806832 0 0.030872770968165198 -0.0005726851334664115 0 0.028032561173278195 -0.0013319627909098807 0 0.028847556760197311 -0.0015571585131061575 0 0.025202605838081663 -0.00091194309531859787 0 0.028032561173278195 -0.0013319627909098807 0 0.028023363866304159 -0.0014192529276254996 0 0.028021703996764707 -0.0011372733189508883 0 0.02814578558013326 -0.001125573943049207 0 0.028023363866304159 -0.0014192529276254996 0 0.027810538640925028 -0.0011439144251949938 0 0.028021703996764707 -0.0011372733189508883 0 0.021087140473698179 -0.00064211592791481775 0 0.028032561173278195 -0.0013319627909098807 0 0.023751210870275052 0.00033238181785887088 0 0.026143191812707488 -0.00069696853098373665 0 0.025269639679698794 -0.0024107998500909524 0 0.024009535443110235 -0.00031059495477427047 0 0.024414160925783506 0.00028170702029780615 0 0.025999223966963945 -0.0025468858015296647 0 0.024447113519917241 -0.0013694297167539974 0 0.030291335469209681 -0.001976748219608511 0 0.028023363866304159 -0.0014192529276254996 0 0.02814578558013326 -0.001125573943049207 0 0.028330918594063611 -0.0010751428843487488 0 0.025202605838081663 -0.00091194309531859787 0 0.029061197548755156 -0.0011414559036327402 0 0.02772683775707566 -0.0018565268011676809 0 0.027842394605315485 -0.0019895871926790851 0 0.028330918594063611 -0.0010751428843487488 0 0.027842394605315485 -0.0019895871926790851 0 0.028762001410929595 -0.0014431238566424377 0 0.028330918594063611 -0.0010751428843487488 0 0.02662629364607624 -0.0040530358196550643 0 0.025424398218618836 -0.0035507798278615371 0 0.028548932573394841 -0.00060778875343364951 0 0.024833504697064187 -0.0028659089638265471 0 0.025424398218618836 -0.0035507798278615371 0 0.028548932573394841 -0.00060778875343364951 0 0.02314955235022946 -0.0034358071460539002 0 0.023245793835836182 -0.0033177807727296509 0 0.022935725480943258 -0.00318836318796035 0 0.025045934119938707 -0.0040260031612778411 0 0.02317683598012733 -0.0023037166752213505 0 0.020161448926092364 -0.0021701251975148987 0 0.020021269304655958 -0.0019222468826446326 0 0.0201688479039615 -0.0019518717964454094 0 0.022021319139871522 -0.0029764507944900973 0 0.02317683598012733 -0.0023037166752213505 0 0.023336179162494634 -0.0015728235355373635 0 0.023321798746460645 -0.0015831311832791854 0 0.023299744780641608 -0.0015558060493999282 0 0.021354302718648188 -0.00091535553890936317 0 0.02317683598012733 -0.0023037166752213505 0 0.024447113519917241 -0.0013694297167539974 0 0.02317683598012733 -0.0023037166752213505 0 0.02662629364607624 -0.0040530358196550643 0 0.029044277189345026 -0.0010578396769199275 0 0.028548932573394841 -0.00060778875343364951 0 0.028999576693964239 -0.0057757336626763382 0 0.030835719098449437 -0.0051713087616989117 0 0.031083833945435319 -0.0032705609217822855 0 0.025045934119938707 -0.0040260031612778411 0 0.031376515033969689 -0.0026566383603488937 0 0.030835719098449437 -0.0051713087616989117 0 0.031083833945435319 -0.0032705609217822855 0 0.032094804498068077 -0.0041928739360051039 0 0.031376515033969689 -0.0026566383603488937 0 0.030291335469209681 -0.001976748219608511 0 0.030291335469209681 -0.001976748219608511 0 0.029875952901846768 -0.0015352209752288934 0 0.0325663226299008 -0.0027096852901186473 0 0.032464710913055264 -0.0027716217405309796 0 0.032410216217450272 -0.0020200134880965876 0 0.03264046213845527 -0.0029318230280546988 0 0.0325663226299008 -0.0027096852901186473 0 0.032768881419444389 -0.0023271832226495108 0 0.03264046213845527 -0.0029318230280546988 0 0.0325663226299008 -0.0027096852901186473 0 0.032463084385397536 -0.0027709809960065135 0 0.030566145311260198 -0.0019111445303247232 0 0.030291335469209681 -0.001976748219608511 0 0.03264046213845527 -0.0029318230280546988 0 0.033193395610251135 -0.0022469879395024348 0 0.032768881419444389 -0.0023271832226495108 0 0.031376515033969689 -0.0026566383603488937 0 0.032882446733985701 -0.0023626564992013238 0 0.031508450476056937 -0.0035595898498388856 0 0.03262366047920149 -0.0033971348963946282 0 0.032583896873530541 -0.0024657595667776826 0 0.03262366047920149 -0.0033971348963946282 0 0.033350619551041953 -0.0027639811432734799 0 0.033338283782672999 -0.0042374450200917133 0 0.031508450476056937 -0.0035595898498388856 0 0.03262366047920149 -0.0033971348963946282 0 0.032094804498068077 -0.0041928739360051039 0 0.031376515033969689 -0.0026566383603488937 0 0.032097758700580188 -0.0038600470694447201 0 0.03262366047920149 -0.0033971348963946282 0 0.033338283782672999 -0.0042374450200917133 0 0.032094804498068077 -0.0041928739360051039 0 0.03262366047920149 -0.0033971348963946282 0 0.033350619551041953 -0.0027639811432734799 0 0.032583896873530541 -0.0024657595667776826 0 0.033350619551041953 -0.0027639811432734799 0 0.033338283782672999 -0.0042374450200917133 0 0.034496467559086377 -0.0023827931501126634 0 0.025354067628709592 -0.0031858438964677137 0 0.026325205608472929 -0.0029768465171787343 0 0.025961452073261507 -0.0024013962893115509 0 0.030076222037364528 -0.0036884134795261841 0 0.029781107834717064 -0.0025509470705138504 0 0.030835719098449437 -0.0051713087616989117 0 0.032094804498068077 -0.0041928739360051039 0 0.031557719984406027 -0.006785954170191991 0 0.030076222037364528 -0.0036884134795261841 0 0.023115531983431428 -0.0040181651386500174 0 0.033338283782672999 -0.0042374450200917133 0 0.032094804498068077 -0.0041928739360051039 0 0.031557719984406027 -0.006785954170191991 0 0.026325205608472929 -0.0029768465171787343 0 0.027139776240324515 -0.0032660753977337481 0 0.02689109241389533 -0.0024577732689738266 0 0.026325205608472929 -0.0029768465171787343 0 0.02689109241389533 -0.0024577732689738266 0 0.025961452073261507 -0.0024013962893115509 0 0.025354067628709592 -0.0031858438964677137 0 0.026325205608472929 -0.0029768465171787343 0 0.026242145553517653 -0.0036676813229031486 0 0.026325205608472929 -0.0029768465171787343 0 0.026242145553517653 -0.0036676813229031486 0 0.027139776240324515 -0.0032660753977337481 0 0.026242145553517653 -0.0036676813229031486 0 0.027027121532194148 -0.0039632257087494635 0 0.027139776240324515 -0.0032660753977337481 0 0.026242145553517653 -0.0036676813229031486 0 0.026314194742583698 -0.0046054381147588247 0 0.027027121532194148 -0.0039632257087494635 0 0.026242145553517653 -0.0036676813229031486 0 0.026314194742583698 -0.0046054381147588247 0 0.025534981926503938 -0.004269397846376765 0 0.0060300659616096906 0.0027371003454458418 0 0.0052197138694174694 0.0024797655531093505 0 0.0055558191069532553 0.0021889199892620548 0 0.016067304009289324 -0.00099798863873527799 0 0.020855476978089336 -0.0041078021193017237 0 0.016067304009289324 -0.00099798863873527799 0 0.0085904578285535688 -0.00024949721904710077 0 0.026314194742583698 -0.0046054381147588247 0 0.027503422911263849 -0.004633016053481839 0 0.027027121532194148 -0.0039632257087494635 0 0.016067304009289324 -0.00099798863873527799 0 0.024433673764989297 -0.0023537451248958393 0 0.025354067628709592 -0.0031858438964677137 0 0.024777031917219982 -0.003942609146751928 0 0.025534981926503938 -0.004269397846376765 0 0.023115531983431428 -0.0040181651386500174 0 0.020855476978089336 -0.0041078021193017237 0 0.025354067628709592 -0.0031858438964677137 0 0.026242145553517653 -0.0036676813229031486 0 0.025534981926503938 -0.004269397846376765 0 0.015763738399713581 -0.0034394864776883271 0 0.015335109631114832 -0.0032492307470618747 0 0.015184149169905624 -0.0034022828853932912 0 0.012172124096164087 -0.0012938602733163665 0 0.0085904578285535688 -0.00024949721904710077 0 0.014676149755243399 -0.0033663506982126389 0 0.01493627346488125 -0.0030741822632730296 0 0.015184149169905624 -0.0034022828853932912 0 0.01493627346488125 -0.0030741822632730296 0 0.015335109631114832 -0.0032492307470618747 0 0.015184149169905624 -0.0034022828853932912 0 0.0050087823909586134 0.0023117515513959219 0 0.0049314252038395335 0.0023778923890140215 0 0.0052197138694174694 0.0024797655531093505 0 0.0050087823909586134 0.0023117515513959219 0 0.0052197138694174694 0.0024797655531093505 0 0.0050842643408221533 0.002234315281187972 0 0.0050087823909586134 0.0023117515513959219 0 0.0049183028802001439 0.0021300736420413386 0 0.0050842643408221533 0.002234315281187972 0 0.0049815391159957747 0.0022003771400493292 0 0.0051580551848305024 0.0021966208070031703 0 0.0050534814180853409 0.0022056536667327863 0 0.0049183028802001439 0.0021300736420413386 0 0.0050842643408221533 0.002234315281187972 0 0.0049815391159957747 0.0022003771400493292 0 0.0050842643408221533 0.002234315281187972 0 0.0049815391159957747 0.0022003771400493292 0 0.0051580551848305024 0.0021966208070031703 0 0.0051580551848305024 0.0021966208070031703 0 0.0053480263294053473 0.0021892297408491598 0 0.0051974261215485722 0.0021914274762311501 0 0.0051580551848305024 0.0021966208070031703 0 0.0052719553100052325 0.0022278681863858421 0 0.0053480263294053473 0.0021892297408491598 0 0.0052197138694174694 0.0024797655531093505 0 0.0050842643408221533 0.002234315281187972 0 0.0052719553100052325 0.0022278681863858421 0 0.0052197138694174694 0.0024797655531093505 0 0.0052719553100052325 0.0022278681863858421 0 0.0055558191069532553 0.0021889199892620548 0 0.0050842643408221533 0.002234315281187972 0 0.0051580551848305024 0.0021966208070031703 0 0.0052719553100052325 0.0022278681863858421 0 0.0060300659616096906 0.0027371003454458418 0 0.0055558191069532553 0.0021889199892620548 0 0.0064554143279569797 0.0021410375755719288 0 0.0052719553100052325 0.0022278681863858421 0 0.0055558191069532553 0.0021889199892620548 0 0.0053480263294053473 0.0021892297408491598 0 0.0055558191069532553 0.0021889199892620548 0 0.0064554143279569797 0.0021410375755719288 0 0.0065956216802800591 0.0013634430183267759 0 0.016067304009289324 -0.00099798863873527799 0 0.011813372003346222 0.0018214896752827257 0 0.0055940074061342597 0.0021243675267676862 0 0.0059198199819229915 0.00182786535156138 0 0.0064554143279569797 0.0021410375755719288 0 0.0065956216802800591 0.0013634430183267759 0 0.0077002306451473016 0.0022584597430394811 0 0.0060300659616096906 0.0027371003454458418 0 0.0064554143279569797 0.0021410375755719288 0 0.0077002306451473016 0.0022584597430394811 0 0.0053233383155438831 0.0021963023587391424 0 0.0052707329469488078 0.0022169780670044164 0 0.0052712446047411413 0.0022123985085912793 0 0.0053233383155438831 0.0021963023587391424 0 0.0053480263294053473 0.0021892297408491598 0 0.0052782343269808562 0.0022078025454856567 0 0.0055558191069532553 0.0021889199892620548 0 0.0053233383155438831 0.0021963023587391424 0 0.0053480263294053473 0.0021892297408491598 0 0.0053480263294053473 0.0021892297408491598 0 0.0052782343269808562 0.0022078025454856567 0 0.0051974261215485722 0.0021914274762311501 0 0.0052782343269808562 0.0022078025454856567 0 0.0052707329469488078 0.0022169780670044164 0 0.0052041318778661 0.0021878404950810321 0 0.0052782343269808562 0.0022078025454856567 0 0.0052041318778661 0.0021878404950810321 0 0.0051974261215485722 0.0021914274762311501 0 0.0053233383155438831 0.0021963023587391424 0 0.0052782343269808562 0.0022078025454856567 0 0.0052707329469488078 0.0022169780670044164 0 0.0052707329469488078 0.0022169780670044164 0 0.0052233743712835762 0.002188738530478046 0 0.0052041318778661 0.0021878404950810321 0 0.0052707329469488078 0.0022169780670044164 0 0.0052233743712835762 0.002188738530478046 0 0.0052554010067457722 0.0022363215692431941 0 0.0051336576176167596 0.0021346761289746724 0 0.0052233743712835762 0.002188738530478046 0 0.0052041318778661 0.0021878404950810321 0 0.0051336576176167596 0.0021346761289746724 0 0.0052041318778661 0.0021878404950810321 0 0.0050903043259050533 0.0021760102943702881 0 0.0049958369298411616 0.0021310006117618015 0 0.0051336576176167596 0.0021346761289746724 0 0.0050903043259050533 0.0021760102943702881 0 0.0049958369298411616 0.0021310006117618015 0 0.0050903043259050533 0.0021760102943702881 0 0.0049500365013553076 0.0022075113196412112 0 0.0050903043259050533 0.0021760102943702881 0 0.0049500365013553076 0.0022075113196412112 0 0.0050534814180853409 0.0022056536667327863 0 0.0049591943504280304 0.0022562133356775079 0 0.0049500365013553076 0.0022075113196412112 0 0.0050534814180853409 0.0022056536667327863 0 0.0049591943504280304 0.0022562133356775079 0 0.0049815391159957747 0.0022003771400493292 0 0.0050534814180853409 0.0022056536667327863 0 0.0051580551848305024 0.0021966208070031703 0 0.0050534814180853409 0.0022056536667327863 0 0.0051974261215485722 0.0021914274762311501 0 0.0052041318778661 0.0021878404950810321 0 0.0050903043259050533 0.0021760102943702881 0 0.0051974261215485722 0.0021914274762311501 0 0.0050903043259050533 0.0021760102943702881 0 0.0050534814180853409 0.0022056536667327863 0 0.0051974261215485722 0.0021914274762311501 0 0.0058997180583609922 0.0029355984011414466 0 0.0056618311014038055 0.002649033737644693 0 0.0057996665953529382 0.0028788321908213088 0 0.0058997180583609922 0.0029355984011414466 0 0.0057996665953529382 0.0028788321908213088 0 0.0060606101356654694 0.0029037555780990006 0 0.0058997180583609922 0.0029355984011414466 0 0.0060564058162367318 0.00305710306253038 0 0.0059700869337425177 0.0029703858904578553 0 0.0058997180583609922 0.0029355984011414466 0 0.0056618311014038055 0.002649033737644693 0 0.0059700869337425177 0.0029703858904578553 0 0.0056618311014038055 0.002649033737644693 0 0.0059700869337425177 0.0029703858904578553 0 0.0060144337721310418 0.0026862670834280969 0 0.0053807268645303316 0.0023360387913011278 0 0.0056618311014038055 0.002649033737644693 0 0.0053012389285840948 0.0026417808212763723 0 0.0054466148323862647 0.002876938406376389 0 0.0060363264337992594 0.0020194838328020871 0 0.0053807268645303316 0.0023360387913011278 0 0.0052432248491589223 0.0023487522359414968 0 0.0053012389285840948 0.0026417808212763723 0 0.0052432248491589223 0.0023487522359414968 0 0.0052573284508554714 0.0022673220511945681 0 0.0052127212016620204 0.0022483103336762809 0 0.0053478038806578296 0.0023723975596549938 0 0.0060363264337992594 0.0020194838328020871 0 0.0052233743712835762 0.002188738530478046 0 0.005234281692298037 0.0022226378827362265 0 0.0052554010067457722 0.0022363215692431941 0 0.0052432248491589223 0.0023487522359414968 0 0.005234281692298037 0.0022226378827362265 0 0.0052573284508554714 0.0022673220511945681 0 0.005234281692298037 0.0022226378827362265 0 0.0052573284508554714 0.0022673220511945681 0 0.0052554010067457722 0.0022363215692431941 0 0.0052707329469488078 0.0022169780670044164 0 0.0052554010067457722 0.0022363215692431941 0 0.0052712446047411413 0.0022123985085912793 0 0.0052573284508554714 0.0022673220511945681 0 0.0052554010067457722 0.0022363215692431941 0 0.0052712446047411413 0.0022123985085912793 0 0.0052573284508554714 0.0022673220511945681 0 0.0052712446047411413 0.0022123985085912793 0 0.0052127212016620204 0.0022483103336762809 0 0.006675161956491836 0.0012881132926068541 0 0.0060363264337992594 0.0020194838328020871 0 0.0076768565194694606 0.00066324898469566774 0 0.0087371994644762658 -3.1000339358054476e-05 0 0.0093603323398417804 0.0015857357184052856 0 0.0076768565194694606 0.00066324898469566774 0 0.0077002306451473016 0.0022584597430394811 0 0.0093603323398417804 0.0015857357184052856 0 0.0065956216802800591 0.0013634430183267759 0 0.0076768565194694606 0.00066324898469566774 0 0.0077002306451473016 0.0022584597430394811 0 0.0059198199819229915 0.00182786535156138 0 0.006675161956491836 0.0012881132926068541 0 0.011813372003346222 0.0018214896752827257 0 0.012501282124780903 0.0015695781976075838 0 0.017462028066160807 0.00057435617491738335 0 0.018374218686354547 0.00021479367538395462 0 0.017621689347605864 0.00093614349324102979 0 0.012501282124780903 0.0015695781976075838 0 0.020423936015741256 0.00077659663705812452 0 0.016451740389545201 0.0022461289236419125 0 0.016738164637323638 0.0022669217880152718 0 0.016651810587887218 0.0023957205801144054 0 0.018374218686354547 0.00021479367538395462 0 0.018682647797087244 0.00092115366361509698 0 0.017621689347605864 0.00093614349324102979 0 0.0060363264337992594 0.0020194838328020871 0 0.012501282124780903 0.0015695781976075838 0 0.016451740389545201 0.0022461289236419125 0 0.016747923779896028 0.0023280530865114261 0 0.016738164637323638 0.0022669217880152718 0 0.0058997180583609922 0.0029355984011414466 0 0.0060606101356654694 0.0029037555780990006 0 0.0060564058162367318 0.00305710306253038 0 0.012501282124780903 0.0015695781976075838 0 0.01111169311174018 0.0028921492424539719 0 0.016747923779896028 0.0023280530865114261 0 0.016738164637323638 0.0022669217880152718 0 0.017005099737940108 0.0021168645457177271 0 0.016738164637323638 0.0022669217880152718 0 0.016651810587887218 0.0023957205801144054 0 0.017005099737940108 0.0021168645457177271 0 0.020423936015741256 0.00077659663705812452 0 0.023314703952594384 -0.0014119647269790205 0 0.017851702288033837 0.0021061865204632128 0 0.017005099737940108 0.0021168645457177271 0 0.017310843673002493 0.001758616977850349 0 0.020423936015741256 0.00077659663705812452 0 0.015641828980663769 0.0025142883393816265 0 0.017851702288033837 0.0021061865204632128 0 0.017641936549382602 0.0016364288092526702 0 0.017310843673002493 0.001758616977850349 0 0.028523823729515944 -0.0045988382365918469 0 0.02827321008375858 -0.0040987774166756476 0 0.028808969052995764 -0.0039612133529338999 0 0.02827321008375858 -0.0040987774166756476 0 0.027918492784701592 -0.0036666915529624347 0 0.028575835321218251 -0.0036432530544046127 0 0.02827321008375858 -0.0040987774166756476 0 0.028808969052995764 -0.0039612133529338999 0 0.028575835321218251 -0.0036432530544046127 0 0.017641936549382602 0.0016364288092526702 0 0.017310843673002493 0.001758616977850349 0 0.017315922693199228 0.0014807724681132595 0 0.016473251442854633 0.0009231268410971633 0 0.017462028066160807 0.00057435617491738335 0 0.017621689347605864 0.00093614349324102979 0 0.020423936015741256 0.00077659663705812452 0 0.024433673764989297 -0.0023537451248958393 0 0.028523823729515944 -0.0045988382365918469 0 0.02827321008375858 -0.0040987774166756476 0 0.027503422911263849 -0.004633016053481839 0 0.02827321008375858 -0.0040987774166756476 0 0.027503422911263849 -0.004633016053481839 0 0.027918492784701592 -0.0036666915529624347 0 0.027503422911263849 -0.004633016053481839 0 0.027027121532194148 -0.0039632257087494635 0 0.027918492784701592 -0.0036666915529624347 0 0.027139776240324515 -0.0032660753977337481 0 0.027918492784701592 -0.0036666915529624347 0 0.027916292924677073 -0.0027452085830886215 0 0.027027121532194148 -0.0039632257087494635 0 0.027139776240324515 -0.0032660753977337481 0 0.027918492784701592 -0.0036666915529624347 0 0.027918492784701592 -0.0036666915529624347 0 0.027916292924677073 -0.0027452085830886215 0 0.028730457719221274 -0.0031400683673877259 0 0.027139776240324515 -0.0032660753977337481 0 0.027916292924677073 -0.0027452085830886215 0 0.02689109241389533 -0.0024577732689738266 0 0.028808969052995764 -0.0039612133529338999 0 0.029015552133944682 -0.0033655126755591249 0 0.028575835321218251 -0.0036432530544046127 0 0.017641936549382602 0.0016364288092526702 0 0.017575506873279263 0.0013745081393065647 0 0.017315922693199228 0.0014807724681132595 0 0.023314703952594384 -0.0014119647269790205 0 0.023219577253007322 -0.00080024645455482565 0 0.029015552133944682 -0.0033655126755591249 0 0.028575835321218251 -0.0036432530544046127 0 0.028730457719221274 -0.0031400683673877259 0 0.027918492784701592 -0.0036666915529624347 0 0.028575835321218251 -0.0036432530544046127 0 0.028730457719221274 -0.0031400683673877259 0 0.027916292924677073 -0.0027452085830886215 0 0.028730457719221274 -0.0031400683673877259 0 0.028607076709944772 -0.0026265862531504145 0 0.028730457719221274 -0.0031400683673877259 0 0.029228784468423814 -0.0027610896116014093 0 0.028607076709944772 -0.0026265862531504145 0 0.028730457719221274 -0.0031400683673877259 0 0.029228784468423814 -0.0027610896116014093 0 0.029858757570952375 -0.0029085489029394688 0 0.029015552133944682 -0.0033655126755591249 0 0.028730457719221274 -0.0031400683673877259 0 0.029111966717591611 -0.0029889801483803996 0 0.023219577253007322 -0.00080024645455482565 0 0.025749871534130633 -0.0024662261016031948 0 0.030180589696633831 -0.0029690331485000485 0 0.025749871534130633 -0.0024662261016031948 0 0.029228784468423814 -0.0027610896116014093 0 0.029599296003379443 -0.0026915136207205878 0 0.029741504326280525 -0.0023830760394035022 0 0.029228784468423814 -0.0027610896116014093 0 0.029599296003379443 -0.0026915136207205878 0 0.029858757570952375 -0.0029085489029394688 0 0.029228784468423814 -0.0027610896116014093 0 0.029741504326280525 -0.0023830760394035022 0 0.028613337543467458 -0.0020370970373694156 0 0.029599296003379443 -0.0026915136207205878 0 0.029741504326280525 -0.0023830760394035022 0 0.029881394342480262 -0.0027708007022960372 0 0.036296203768347218 -0.0020871651941792779 0 0.033598177787910868 -0.0014518111614206463 0 0.029228784468423814 -0.0027610896116014093 0 0.028607076709944772 -0.0026265862531504145 0 0.028613337543467458 -0.0020370970373694156 0 0.040090430112776521 -0.0010678481875880154 0 0.039063002108318229 -0.00097131206462559817 0 0.039566989974431178 -0.00023350320001609614 0 0.039063002108318229 -0.00097131206462559817 0 0.039566989974431178 -0.00023350320001609614 0 0.038470457474313664 -0.000220233654993032 0 0.040090430112776521 -0.0010678481875880154 0 0.039566989974431178 -0.00023350320001609614 0 0.040513386971307221 -0.0001508973769184629 0 0.040189485282828105 0.00028093178694631453 0 0.039566989974431178 -0.00023350320001609614 0 0.040513386971307221 -0.0001508973769184629 0 0.039566989974431178 -0.00023350320001609614 0 0.039534769777704815 0.00040778559883759689 0 0.038762554998763361 0.00034740183934610678 0 0.040189485282828105 0.00028093178694631453 0 0.039566989974431178 -0.00023350320001609614 0 0.039534769777704815 0.00040778559883759689 0 0.039534769777704815 0.00040778559883759689 0 0.040173422508950271 0.00073818082357574586 0 0.039253116532062642 0.00078399074868508965 0 0.045536430932340832 -9.7287308099864918e-06 0 0.042211581807260298 7.4119257650497589e-05 0 0.050168617641181149 -0.00070471812732308557 0 0.049146145070937154 -0.0008571196640624933 0 0.049898464381255718 -0.00019460872689398362 0 0.039271423947827844 0.0011675000505204191 0 0.042211581807260298 7.4119257650497589e-05 0 0.039534769777704815 0.00040778559883759689 0 0.039016546072009377 0.00093689948960375038 0 0.038762554998763361 0.00034740183934610678 0 0.045536430932340832 -9.7287308099864918e-06 0 0.046081550001964365 -5.1966771254940104e-06 0 0.040189485282828105 0.00028093178694631453 0 0.040173422508950271 0.00073818082357574586 0 0.041129299083714328 0.00063404631533586189 0 0.050168617641181149 -0.00070471812732308557 0 0.050596751994097452 -0.00012650193430250575 0 0.051037660118651296 -0.00064145554129571656 0 0.050168617641181149 -0.00070471812732308557 0 0.050596751994097452 -0.00012650193430250575 0 0.049898464381255718 -0.00019460872689398362 0 0.040189485282828105 0.00028093178694631453 0 0.039534769777704815 0.00040778559883759689 0 0.040173422508950271 0.00073818082357574586 0 0.036842156566796423 0.00019789706484383209 0 0.03621270638214303 0.0015781341292141983 0 0.037859875634082822 0.0015994339455838583 0 0.037933388925453927 0.0010122687071697357 0 0.038762554998763361 0.00034740183934610678 0 0.038007553899079213 0.00028951134717995997 0 0.037933388925453927 0.0010122687071697357 0 0.037309122461523112 0.00055718716793779052 0 0.038273096083857809 0.0018746448997058543 0 0.036941760228693353 0.00059773575148788034 0 0.042229871643846277 0.00061671919705746079 0 0.037933388925453927 0.0010122687071697357 0 0.038007553899079213 0.00028951134717995997 0 0.037309122461523112 0.00055718716793779052 0 0.036871755158451841 0.0011236589362201789 0 0.042211581807260298 7.4119257650497589e-05 0 0.042211581807260298 7.4119257650497589e-05 0 0.042229871643846277 0.00061671919705746079 0 0.037933388925453927 0.0010122687071697357 0 0.039016546072009377 0.00093689948960375038 0 0.038762554998763361 0.00034740183934610678 0 0.037933388925453927 0.0010122687071697357 0 0.039272807003218987 0.00092631567129460436 0 0.038273096083857809 0.0018746448997058543 0 0.039566989974431178 -0.00023350320001609614 0 0.038762554998763361 0.00034740183934610678 0 0.038470457474313664 -0.000220233654993032 0 0.038762554998763361 0.00034740183934610678 0 0.038470457474313664 -0.000220233654993032 0 0.038007553899079213 0.00028951134717995997 0 0.038470457474313664 -0.000220233654993032 0 0.038007553899079213 0.00028951134717995997 0 0.037541204361346427 -0.0001935009772588461 0 0.038007553899079213 0.00028951134717995997 0 0.037541204361346427 -0.0001935009772588461 0 0.037309122461523112 0.00055718716793779052 0 0.038470457474313664 -0.000220233654993032 0 0.037541204361346427 -0.0001935009772588461 0 0.037820445565478797 -0.00085795187360136554 0 0.039063002108318229 -0.00097131206462559817 0 0.038470457474313664 -0.000220233654993032 0 0.037820445565478797 -0.00085795187360136554 0 0.033598177787910868 -0.0014518111614206463 0 0.032362366952095871 -0.0012749793125041474 0 0.027916292924677073 -0.0027452085830886215 0 0.028607076709944772 -0.0026265862531504145 0 0.028613337543467458 -0.0020370970373694156 0 0.027916292924677073 -0.0027452085830886215 0 0.028613337543467458 -0.0020370970373694156 0 0.027543719171775685 -0.0017892780623898763 0 0.027916292924677073 -0.0027452085830886215 0 0.027543719171775685 -0.0017892780623898763 0 0.02689109241389533 -0.0024577732689738266 0 0.034496467559086377 -0.0023827931501126634 0 0.035327742373582563 -0.0011028148665565098 0 0.033702435717333175 -0.0015908679259964208 0 0.029781107834717064 -0.0025509470705138504 0 0.033248124770840944 -0.0013283377273006624 0 0.02689109241389533 -0.0024577732689738266 0 0.025961452073261507 -0.0024013962893115509 0 0.026582087438681037 -0.0015899827921595391 0 0.033248124770840944 -0.0013283377273006624 0 0.035010987732634821 -0.00093698594482137325 0 0.027543719171775685 -0.0017892780623898763 0 0.02689109241389533 -0.0024577732689738266 0 0.026582087438681037 -0.0015899827921595391 0 0.037541204361346427 -0.0001935009772588461 0 0.037820445565478797 -0.00085795187360136554 0 0.03643256071947841 -0.00064501445445467665 0 0.032362366952095871 -0.0012749793125041474 0 0.033248124770840944 -0.0013283377273006624 0 0.033350619551041953 -0.0027639811432734799 0 0.032583896873530541 -0.0024657595667776826 0 0.033702435717333175 -0.0015908679259964208 0 0.033027656709996883 -0.0017208181602338508 0 0.033193395610251135 -0.0022469879395024348 0 0.032768881419444389 -0.0023271832226495108 0 0.032882446733985701 -0.0023626564992013238 0 0.033555710757858008 -0.0016838184644604058 0 0.033027656709996883 -0.0017208181602338508 0 0.033193395610251135 -0.0022469879395024348 0 0.033702435717333175 -0.0015908679259964208 0 0.033350619551041953 -0.0027639811432734799 0 0.034496467559086377 -0.0023827931501126634 0 0.033702435717333175 -0.0015908679259964208 0 0.035327742373582563 -0.0011028148665565098 0 0.033968080406506548 -0.00086927537084158159 0 0.033702435717333175 -0.0015908679259964208 0 0.033968080406506548 -0.00086927537084158159 0 0.033702435717333175 -0.0015908679259964208 0 0.033281739087458052 -0.0012075426592662428 0 0.033968080406506548 -0.00086927537084158159 0 0.033281739087458052 -0.0012075426592662428 0 0.033058010495199047 -0.00054550802985879534 0 0.033027656709996883 -0.0017208181602338508 0 0.033702435717333175 -0.0015908679259964208 0 0.033281739087458052 -0.0012075426592662428 0 0.033281739087458052 -0.0012075426592662428 0 0.033058010495199047 -0.00054550802985879534 0 0.032639231127547887 -0.0012423352297251246 0 0.033027656709996883 -0.0017208181602338508 0 0.033281739087458052 -0.0012075426592662428 0 0.032639231127547887 -0.0012423352297251246 0 0.033968080406506548 -0.00086927537084158159 0 0.033058010495199047 -0.00054550802985879534 0 0.033774651748741377 -0.00021619855677049534 0 0.033058010495199047 -0.00054550802985879534 0 0.033774651748741377 -0.00021619855677049534 0 0.032749460319492316 0.00048726987050910049 0 0.033774651748741377 -0.00021619855677049534 0 0.034212865703478541 0.00045397574016091299 0 0.034788240619957958 -0.00032920454652586161 0 0.033968080406506548 -0.00086927537084158159 0 0.033774651748741377 -0.00021619855677049534 0 0.034788240619957958 -0.00032920454652586161 0 0.034212865703478541 0.00045397574016091299 0 0.034788240619957958 -0.00032920454652586161 0 0.035410131661201015 0.00042977561987680974 0 0.034474576452657196 0.0010351207763608526 0 0.034212865703478541 0.00045397574016091299 0 0.033889835565589777 0.0015518513520423188 0 0.034474576452657196 0.0010351207763608526 0 0.034212865703478541 0.00045397574016091299 0 0.035410131661201015 0.00042977561987680974 0 0.034212865703478541 0.00045397574016091299 0 0.033889835565589777 0.0015518513520423188 0 0.032749460319492316 0.00048726987050910049 0 0.034575077775620987 0.0018745771960733311 0 0.03383484188523566 0.0010826222745243183 0 0.033774651748741377 -0.00021619855677049534 0 0.034212865703478541 0.00045397574016091299 0 0.032749460319492316 0.00048726987050910049 0 0.035793424453392238 -0.0012718836295609953 0 0.035410131661201015 0.00042977561987680974 0 0.036842156566796423 0.00019789706484383209 0 0.037541204361346427 -0.0001935009772588461 0 0.03643256071947841 -0.00064501445445467665 0 0.037309122461523112 0.00055718716793779052 0 0.033248124770840944 -0.0013283377273006624 0 0.036941760228693353 0.00059773575148788034 0 0.035793424453392238 -0.0012718836295609953 0 0.033968080406506548 -0.00086927537084158159 0 0.034788240619957958 -0.00032920454652586161 0 0.035793424453392238 -0.0012718836295609953 0 0.034788240619957958 -0.00032920454652586161 0 0.035410131661201015 0.00042977561987680974 0 0.035410131661201015 0.00042977561987680974 0 0.03621270638214303 0.0015781341292141983 0 0.035084241902721913 0.0013080416350222709 0 0.034474576452657196 0.0010351207763608526 0 0.035410131661201015 0.00042977561987680974 0 0.035084241902721913 0.0013080416350222709 0 0.035410131661201015 0.00042977561987680974 0 0.036842156566796423 0.00019789706484383209 0 0.03621270638214303 0.0015781341292141983 0 0.03621270638214303 0.0015781341292141983 0 0.035763143412055616 0.002329163012845564 0 0.03632603855520438 0.0023830822118053045 0 0.03621270638214303 0.0015781341292141983 0 0.035084241902721913 0.0013080416350222709 0 0.035265639766850425 0.0018931787691114175 0 0.03621270638214303 0.0015781341292141983 0 0.035265639766850425 0.0018931787691114175 0 0.035763143412055616 0.002329163012845564 0 0.035664042911269019 0.0027997998153415746 0 0.035002710924357874 0.0028263932807926712 0 0.035913377166732999 0.003285806904385079 0 0.035265639766850425 0.0018931787691114175 0 0.035763143412055616 0.002329163012845564 0 0.035198220199330062 0.0024452828544817362 0 0.035763143412055616 0.002329163012845564 0 0.035198220199330062 0.0024452828544817362 0 0.035127985774285879 0.0025451801965365593 0 0.035335824921489727 0.002578642862369428 0 0.036468404121694546 0.0024976064130918848 0 0.035763143412055616 0.002329163012845564 0 0.035664042911269019 0.0027997998153415746 0 0.035002710924357874 0.0028263932807926712 0 0.035664042911269019 0.0027997998153415746 0 0.03598451832013487 0.0027513616068352343 0 0.035913377166732999 0.003285806904385079 0 0.035763143412055616 0.002329163012845564 0 0.035664042911269019 0.0027997998153415746 0 0.03598451832013487 0.0027513616068352343 0 0.03598451832013487 0.0027513616068352343 0 0.03632603855520438 0.0023830822118053045 0 0.036251073575586164 0.0031387184650863991 0 0.043179140241311684 0.0024155112770681709 0 0.048569406849543376 0.00085219331259887919 0 0.043179140241311684 0.0024155112770681709 0 0.04159208876459599 0.0019725730430648811 0 0.03632603855520438 0.0023830822118053045 0 0.036251073575586164 0.0031387184650863991 0 0.03704045950317713 0.0023944637724770358 0 0.03621270638214303 0.0015781341292141983 0 0.03632603855520438 0.0023830822118053045 0 0.03704045950317713 0.0023944637724770358 0 0.035763143412055616 0.002329163012845564 0 0.03598451832013487 0.0027513616068352343 0 0.03632603855520438 0.0023830822118053045 0 0.03516511046519253 0.0023429230496939415 0 0.035249085876738279 0.0022272565941638131 0 0.034969503743900399 0.0021505890313524138 0 0.035249085876738279 0.0022272565941638131 0 0.03499624074811522 0.0017186447967315502 0 0.034969503743900399 0.0021505890313524138 0 0.035129733774070179 0.0023940467438840749 0 0.034575077775620987 0.0018745771960733311 0 0.034474576452657196 0.0010351207763608526 0 0.035084241902721913 0.0013080416350222709 0 0.033889835565589777 0.0015518513520423188 0 0.035084241902721913 0.0013080416350222709 0 0.035265639766850425 0.0018931787691114175 0 0.033889835565589777 0.0015518513520423188 0 0.035265639766850425 0.0018931787691114175 0 0.035198220199330062 0.0024452828544817362 0 0.033889835565589777 0.0015518513520423188 0 0.03485978269370741 0.0023474398744654716 0 0.036468404121694546 0.0024976064130918848 0 0.03516511046519253 0.0023429230496939415 0 0.035249085876738279 0.0022272565941638131 0 0.035127985774285879 0.0025451801965365593 0 0.035198220199330062 0.0024452828544817362 0 0.035249085876738279 0.0022272565941638131 0 0.035127985774285879 0.0025451801965365593 0 0.03516511046519253 0.0023429230496939415 0 0.035101496678176747 0.0026494884202948074 0 0.035313182413029935 0.0028853335838770985 0 0.03516511046519253 0.0023429230496939415 0 0.03605404256091245 0.0027148997634590423 0 0.035313182413029935 0.0028853335838770985 0 0.035139510193745865 0.0028316092427361733 0 0.035101496678176747 0.0026494884202948074 0 0.035313182413029935 0.0028853335838770985 0 0.039470316059596916 0.0028216370701689216 0 0.039255817809555421 0.0031940070924411038 0 0.043237660771369653 0.003159409688819846 0 0.043302758267072264 0.0030643005981281571 0 0.043420332235279524 0.0030517771559189304 0 0.035193733965765868 0.0029478754255608179 0 0.035390607208062835 0.0030848290830970439 0 0.035043294982821993 0.0030741380324827003 0 0.035139510193745865 0.0028316092427361733 0 0.035193733965765868 0.0029478754255608179 0 0.034976278610721924 0.0028297330445985181 0 0.035193733965765868 0.0029478754255608179 0 0.035313182413029935 0.0028853335838770985 0 0.035303090152400192 0.0029551578484813832 0 0.035139510193745865 0.0028316092427361733 0 0.035193733965765868 0.0029478754255608179 0 0.035313182413029935 0.0028853335838770985 0 0.035193733965765868 0.0029478754255608179 0 0.035303090152400192 0.0029551578484813832 0 0.035390607208062835 0.0030848290830970439 0 0.035303090152400192 0.0029551578484813832 0 0.035720001776313196 0.0030657366581951936 0 0.035461701239080427 0.0032237681745467465 0 0.038006737417077913 0.0021987174788729597 0 0.039470316059596916 0.0028216370701689216 0 0.035313182413029935 0.0028853335838770985 0 0.035303090152400192 0.0029551578484813832 0 0.035720001776313196 0.0030657366581951936 0 0.035952241252819608 0.0022255428281636172 0 0.038466118905432493 0.0027608403399559914 0 0.038466118905432493 0.0027608403399559914 0 0.039470316059596916 0.0028216370701689216 0 0.043237660771369653 0.003159409688819846 0 0.043200003030759757 0.0030583109972286185 0 0.043302758267072264 0.0030643005981281571 0 0.039470316059596916 0.0028216370701689216 0 0.04586263034724266 0.0031615185333844975 0 0.041922718536920534 0.0023694327586193326 0 0.041428920910978322 0.0026644554774750071 0 0.04203842361711857 0.0037527681369554232 0 0.03605404256091245 0.0027148997634590423 0 0.035313182413029935 0.0028853335838770985 0 0.035553890706398056 0.0030137189453380967 0 0.03999304847383129 0.0021469759603038228 0 0.039104534043843057 0.0026788442975439614 0 0.039909311605646772 0.0031129491533115109 0 0.041922718536920534 0.0023694327586193326 0 0.043324898329292684 0.0031307150343555072 0 0.04203842361711857 0.0037527681369554232 0 0.038466118905432493 0.0027608403399559914 0 0.04347828478405176 0.0029454398822833044 0 0.036468404121694546 0.0024976064130918848 0 0.038466118905432493 0.0027608403399559914 0 0.050257424660800222 0.0030530389909725979 0 0.050554494185140506 0.0020925748407201994 0 0.049823894698289399 0.0022418296552072703 0 0.046949192500067245 0.002792598220030302 0 0.047048194650785941 0.0027874999287926111 0 0.046935463920993153 0.0028684925606278569 0 0.046945811821607224 0.0027371832415000407 0 0.046949192500067245 0.002792598220030302 0 0.046868012933559196 0.002777152435644999 0 0.04586263034724266 0.0031615185333844975 0 0.049974697723069769 0.0023230882396790245 0 0.046949192500067245 0.002792598220030302 0 0.046868012933559196 0.002777152435644999 0 0.046935463920993153 0.0028684925606278569 0 0.04347828478405176 0.0029454398822833044 0 0.04586263034724266 0.0031615185333844975 0 0.050257424660800222 0.0030530389909725979 0 0.050807809376840568 0.0024144841094632685 0 0.050554494185140506 0.0020925748407201994 0 0.04586263034724266 0.0031615185333844975 0 0.047081144758499983 0.0028705063049685904 0 0.050257424660800222 0.0030530389909725979 0 0.050807809376840568 0.0024144841094632685 0 0.05112391004528196 0.0026071740195030093 0 0.050807809376840568 0.0024144841094632685 0 0.05112391004528196 0.0026071740195030093 0 0.05117510004419841 0.0024363197929735312 0 0.043200003030759757 0.0030583109972286185 0 0.043351525682067446 0.0029872725039205975 0 0.043302758267072264 0.0030643005981281571 0 0.04745578462471553 0.0022007954283339601 0 0.047901837608774284 0.0028240091619213697 0 0.045888565675276105 0.0025342600830269933 0 0.044922515317318265 0.0025272537159839641 0 0.044852305869242909 0.0032407332572560233 0 0.045888565675276105 0.0025342600830269933 0 0.045234223620010082 0.0022153246566461744 0 0.044922515317318265 0.0025272537159839641 0 0.047340341332613972 0.0020201016386622588 0 0.046903933535439646 0.0013826808676246835 0 0.047753028930572844 0.0013555946781865611 0 0.04745578462471553 0.0022007954283339601 0 0.043623903845708398 0.0024119084971835707 0 0.047340341332613972 0.0020201016386622588 0 0.046903933535439646 0.0013826808676246835 0 0.046613758614955314 0.0016655219021648442 0 0.03598451832013487 0.0027513616068352343 0 0.036251073575586164 0.0031387184650863991 0 0.035913377166732999 0.003285806904385079 0 0.043623903845708398 0.0024119084971835707 0 0.041445429416556358 0.0023642457105881236 0 0.042870481249377743 0.0025300938570480213 0 0.043177490022438772 0.0022174499380039304 0 0.043340002647675402 0.0022974757838644874 0 0.043179140241311684 0.0024155112770681709 0 0.041445429416556358 0.0023642457105881236 0 0.043179140241311684 0.0024155112770681709 0 0.043623903845708398 0.0024119084971835707 0 0.036468404121694546 0.0024976064130918848 0 0.041445429416556358 0.0023642457105881236 0 0.03999304847383129 0.0021469759603038228 0 0.039909311605646772 0.0031129491533115109 0 0.040947163568540279 0.0026109820092445521 0 0.043919276360570476 0.0027278622758872221 0 0.045087766688622778 0.0021653827096400628 0 0.044922515317318265 0.0025272537159839641 0 0.04347828478405176 0.0029454398822833044 0 0.041445429416556358 0.0023642457105881236 0 0.045212543462491893 0.0022286069873201668 0 0.045087766688622778 0.0021653827096400628 0 0.044922515317318265 0.0025272537159839641 0 0.043623903845708398 0.0024119084971835707 0 0.044400632647455779 0.0020960022837504997 0 0.043919276360570476 0.0027278622758872221 0 0.044922515317318265 0.0025272537159839641 0 0.044852305869242909 0.0032407332572560233 0 0.047901837608774284 0.0028240091619213697 0 0.049974697723069769 0.0023230882396790245 0 0.050934545351249833 0.0023999840199310568 0 0.050892074454815556 0.0020357035045594821 0 0.051319675300176559 0.0021388115282606791 0 0.046945811821607224 0.0027371832415000407 0 0.046949192500067245 0.002792598220030302 0 0.047048194650785941 0.0027874999287926111 0 0.04347828478405176 0.0029454398822833044 0 0.047901837608774284 0.0028240091619213697 0 0.047901837608774284 0.0028240091619213697 0 0.049899967456499841 0.0025484335617500728 0 0.048703415214036955 0.0020286905953568078 0 0.048070290792800958 0.0024682474674730635 0 0.048895686165551767 0.0029120829109263642 0 0.050934545351249833 0.0023999840199310568 0 0.050550011259630594 0.0021839383266863983 0 0.050892074454815556 0.0020357035045594821 0 0.048703415214036955 0.0020286905953568078 0 0.049699792086164048 0.0025117678561910094 0 0.048895686165551767 0.0029120829109263642 0 0.04745578462471553 0.0022007954283339601 0 0.04983727855757826 0.0025195559121424307 0 0.047800450721827807 0.0015649938874139262 0 0.048402128384569455 0.0011452088850777138 0 0.048943520347017995 0.0021264245710219481 0 0.047340341332613972 0.0020201016386622588 0 0.048274132330549523 0.0013614013359782447 0 0.047753028930572844 0.0013555946781865611 0 0.04745578462471553 0.0022007954283339601 0 0.048382366771001467 0.001228902333448979 0 0.048402128384569455 0.0011452088850777138 0 0.049037773290620666 0.0014166235868955685 0 0.048943520347017995 0.0021264245710219481 0 0.049474496879695372 0.0011646900378950262 0 0.049037773290620666 0.0014166235868955685 0 0.049625076620255684 0.0016981439700664124 0 0.049474496879695372 0.0011646900378950262 0 0.049037773290620666 0.0014166235868955685 0 0.048955882983448579 0.00076730533485251944 0 0.048402128384569455 0.0011452088850777138 0 0.049037773290620666 0.0014166235868955685 0 0.048955882983448579 0.00076730533485251944 0 0.049037773290620666 0.0014166235868955685 0 0.048943520347017995 0.0021264245710219481 0 0.049625076620255684 0.0016981439700664124 0 0.048943520347017995 0.0021264245710219481 0 0.049779161828627232 0.0025513649780446014 0 0.049625076620255684 0.0016981439700664124 0 0.0508834931493133 0.0030455753789206366 0 0.050857513914145676 0.003037739180049257 0 0.050894972572141685 0.0030040462756441549 0 0.04983727855757826 0.0025195559121424307 0 0.050346478174083893 0.0028070016900635583 0 0.049779161828627232 0.0025513649780446014 0 0.050626896607716312 0.0019309929683686174 0 0.049625076620255684 0.0016981439700664124 0 0.049779161828627232 0.0025513649780446014 0 0.050626896607716312 0.0019309929683686174 0 0.050793073246263414 0.0030283040457402526 0 0.050626896607716312 0.0019309929683686174 0 0.050793073246263414 0.0030283040457402526 0 0.052186111136829728 0.0019970184355312297 0 0.050626896607716312 0.0019309929683686174 0 0.051304310191741885 0.001346567171677407 0 0.052186111136829728 0.0019970184355312297 0 0.051304310191741885 0.001346567171677407 0 0.050788867179860329 0.00089829583215321864 0 0.051523581059062962 0.00094351929588600014 0 0.050626896607716312 0.0019309929683686174 0 0.051304310191741885 0.001346567171677407 0 0.050211753083165368 0.0012171668356269617 0 0.051304310191741885 0.001346567171677407 0 0.050211753083165368 0.0012171668356269617 0 0.050788867179860329 0.00089829583215321864 0 0.050626896607716312 0.0019309929683686174 0 0.049625076620255684 0.0016981439700664124 0 0.050211753083165368 0.0012171668356269617 0 0.049474496879695372 0.0011646900378950262 0 0.049625076620255684 0.0016981439700664124 0 0.050211753083165368 0.0012171668356269617 0 0.050211753083165368 0.0012171668356269617 0 0.049599321349425358 0.00075701979353542969 0 0.050214126593788266 0.00047090189436941709 0 0.049474496879695372 0.0011646900378950262 0 0.050211753083165368 0.0012171668356269617 0 0.049599321349425358 0.00075701979353542969 0 0.049599321349425358 0.00075701979353542969 0 0.050214126593788266 0.00047090189436941709 0 0.049399489170633422 0.00030355132911156433 0 0.050214126593788266 0.00047090189436941709 0 0.050788867179860329 0.00089829583215321864 0 0.050998045678227043 0.00043000882925096402 0 0.050211753083165368 0.0012171668356269617 0 0.050214126593788266 0.00047090189436941709 0 0.050788867179860329 0.00089829583215321864 0 0.050214126593788266 0.00047090189436941709 0 0.050596751994097452 -0.00012650193430250575 0 0.050998045678227043 0.00043000882925096402 0 0.050214126593788266 0.00047090189436941709 0 0.050596751994097452 -0.00012650193430250575 0 0.049898464381255718 -0.00019460872689398362 0 0.049146145070937154 -0.0008571196640624933 0 0.049399489170633422 0.00030355132911156433 0 0.049898464381255718 -0.00019460872689398362 0 0.050214126593788266 0.00047090189436941709 0 0.049399489170633422 0.00030355132911156433 0 0.049898464381255718 -0.00019460872689398362 0 0.049146145070937154 -0.0008571196640624933 0 0.048183042677972528 0.00024204637262124519 0 0.048030187721161202 3.020654184983347e-05 0 0.049146145070937154 -0.0008571196640624933 0 0.049399489170633422 0.00030355132911156433 0 0.048183042677972528 0.00024204637262124519 0 0.049399489170633422 0.00030355132911156433 0 0.048183042677972528 0.00024204637262124519 0 0.047531793769000359 0.0014013057516416348 0 0.043662219388574966 0.0013132196142788088 0 0.042229871643846277 0.00061671919705746079 0 0.03621270638214303 0.0015781341292141983 0 0.037859875634082822 0.0015994339455838583 0 0.03704045950317713 0.0023944637724770358 0 0.048183042677972528 0.00024204637262124519 0 0.047942431656218705 -0.00010699930512753443 0 0.047531793769000359 0.0014013057516416348 0 0.042229871643846277 0.00061671919705746079 0 0.04159208876459599 0.0019725730430648811 0 0.045094162941211068 0.0025938346549398035 0 0.047531793769000359 0.0014013057516416348 0 0.046580873780533889 0.0011346715379659911 0 0.047942431656218705 -0.00010699930512753443 0 0.047531793769000359 0.0014013057516416348 0 0.046580873780533889 0.0011346715379659911 0 0.046903933535439646 0.0013826808676246835 0 0.047753028930572844 0.0013555946781865611 0 0.048484804918666115 0.00070091165027510755 0 0.048274132330549523 0.0013614013359782447 0 0.047753028930572844 0.0013555946781865611 0 0.048484804918666115 0.00070091165027510755 0 0.048382366771001467 0.001228902333448979 0 0.048855531223127913 0.00086048016810971175 0 0.048274132330549523 0.0013614013359782447 0 0.048484804918666115 0.00070091165027510755 0 0.048955882983448579 0.00076730533485251944 0 0.049080269952208253 0.00046090892999488714 0 0.048569406849543376 0.00085219331259887919 0 0.049399489170633422 0.00030355132911156433 0 0.048484804918666115 0.00070091165027510755 0 0.048955882983448579 0.00076730533485251944 0 0.049474496879695372 0.0011646900378950262 0 0.049599321349425358 0.00075701979353542969 0 0.048955882983448579 0.00076730533485251944 0 0.049599321349425358 0.00075701979353542969 0 0.049399489170633422 0.00030355132911156433 0 0.048955882983448579 0.00076730533485251944 0 0.029020615819716423 0.0014018455967399475 0 0.029120972157890303 0.00081101417698915801 0 0.029596128344073224 0.0012761398309650313 0 0.029120972157890303 0.00081101417698915801 0 0.029596128344073224 0.0012761398309650313 0 0.029542564809667382 0.00076242893796827705 0 0.029852875365737074 0.0010364238651475433 0 0.029993457063497615 0.00078696849223915046 0 0.029542564809667382 0.00076242893796827705 0 0.029596128344073224 0.0012761398309650313 0 0.029852875365737074 0.0010364238651475433 0 0.029892503630539826 0.0012850811831282721 0 0.029596128344073224 0.0012761398309650313 0 0.029852875365737074 0.0010364238651475433 0 0.029542564809667382 0.00076242893796827705 0 0.029852875365737074 0.0010364238651475433 0 0.030131839076262164 0.0011142988746766472 0 0.030095459778779272 0.0013159453271889758 0 0.029852875365737074 0.0010364238651475433 0 0.030095459778779272 0.0013159453271889758 0 0.029892503630539826 0.0012850811831282721 0 0.029852875365737074 0.0010364238651475433 0 0.029993457063497615 0.00078696849223915046 0 0.030131839076262164 0.0011142988746766472 0 0.029730253484013484 0.00042242232398318413 0 0.029993457063497615 0.00078696849223915046 0 0.029542564809667382 0.00076242893796827705 0 0.029730253484013484 0.00042242232398318413 0 0.029542564809667382 0.00076242893796827705 0 0.029257429794302337 0.00037196988807622968 0 0.029120972157890303 0.00081101417698915801 0 0.029542564809667382 0.00076242893796827705 0 0.029257429794302337 0.00037196988807622968 0 0.028887567028420155 2.3419595805248495e-05 0 0.029257429794302337 0.00037196988807622968 0 0.029242606841731938 -0.00010503389853666702 0 0.029730253484013484 0.00042242232398318413 0 0.029257429794302337 0.00037196988807622968 0 0.029242606841731938 -0.00010503389853666702 0 0.028667995964063397 -0.00034868186309727073 0 0.028887567028420155 2.3419595805248495e-05 0 0.029242606841731938 -0.00010503389853666702 0 0.028667995964063397 -0.00034868186309727073 0 0.028923684848476707 -0.00064509423706180045 0 0.029242606841731938 -0.00010503389853666702 0 0.028923684848476707 -0.00064509423706180045 0 0.029242606841731938 -0.00010503389853666702 0 0.029350761792684098 -0.00055247831410568571 0 0.029350761792684098 -0.00055247831410568571 0 0.029768372849399358 -5.7340292930404078e-05 0 0.029879602240218392 -0.00047507502227270071 0 0.029242606841731938 -0.00010503389853666702 0 0.029350761792684098 -0.00055247831410568571 0 0.029768372849399358 -5.7340292930404078e-05 0 0.029730253484013484 0.00042242232398318413 0 0.029242606841731938 -0.00010503389853666702 0 0.029768372849399358 -5.7340292930404078e-05 0 0.029730253484013484 0.00042242232398318413 0 0.029768372849399358 -5.7340292930404078e-05 0 0.030148513307528411 0.00041234372305016316 0 0.029768372849399358 -5.7340292930404078e-05 0 0.030234582673901902 -4.0697185638458375e-05 0 0.030148513307528411 0.00041234372305016316 0 0.029768372849399358 -5.7340292930404078e-05 0 0.030234582673901902 -4.0697185638458375e-05 0 0.029879602240218392 -0.00047507502227270071 0 0.030234582673901902 -4.0697185638458375e-05 0 0.029879602240218392 -0.00047507502227270071 0 0.030434252354674226 -0.00045931944987604302 0 0.030234582673901902 -4.0697185638458375e-05 0 0.030434252354674226 -0.00045931944987604302 0 0.030625388630460583 -7.5678006535213373e-05 0 0.030234582673901902 -4.0697185638458375e-05 0 0.030625388630460583 -7.5678006535213373e-05 0 0.030543551537600924 0.00037209745863082223 0 0.030234582673901902 -4.0697185638458375e-05 0 0.030543551537600924 0.00037209745863082223 0 0.030148513307528411 0.00041234372305016316 0 0.031737700150403114 0.0013344372977568159 0 0.03230940276657205 0.00086123131776748676 0 0.030543551537600924 0.00037209745863082223 0 0.030148513307528411 0.00041234372305016316 0 0.030528686920967989 0.00097384404814002568 0 0.030543551537600924 0.00037209745863082223 0 0.030528686920967989 0.00097384404814002568 0 0.030968927613664012 0.00050953318711372149 0 0.029993457063497615 0.00078696849223915046 0 0.030148513307528411 0.00041234372305016316 0 0.030528686920967989 0.00097384404814002568 0 0.029730253484013484 0.00042242232398318413 0 0.029993457063497615 0.00078696849223915046 0 0.030148513307528411 0.00041234372305016316 0 0.030131839076262164 0.0011142988746766472 0 0.030528686920967989 0.00097384404814002568 0 0.03017754378963582 0.0014024341539802219 0 0.029993457063497615 0.00078696849223915046 0 0.030131839076262164 0.0011142988746766472 0 0.030528686920967989 0.00097384404814002568 0 0.031737700150403114 0.0013344372977568159 0 0.031062618016061347 0.0016447100396743736 0 0.032928102550263676 0.0016647068153529381 0 0.033601961936647537 0.0016639406192321927 0 0.03344671170305738 0.0012017926294191339 0 0.033601961936647537 0.0016639406192321927 0 0.034019898590635034 0.0019996917037387136 0 0.033355873526523486 0.002092051255869848 0 0.032928102550263676 0.0016647068153529381 0 0.033601961936647537 0.0016639406192321927 0 0.033355873526523486 0.002092051255869848 0 0.033601961936647537 0.0016639406192321927 0 0.034027016577233976 0.0015505626316429399 0 0.034019898590635034 0.0019996917037387136 0 0.033601961936647537 0.0016639406192321927 0 0.034027016577233976 0.0015505626316429399 0 0.033804036565002915 0.0011704410561439635 0 0.033804036565002915 0.0011704410561439635 0 0.03344671170305738 0.0012017926294191339 0 0.033946033673909699 0.00072328032276565033 0 0.034027016577233976 0.0015505626316429399 0 0.033804036565002915 0.0011704410561439635 0 0.034155676231590042 0.0012838573748188958 0 0.033804036565002915 0.0011704410561439635 0 0.03403919628312118 0.00089630396113272851 0 0.034155676231590042 0.0012838573748188958 0 0.033601961936647537 0.0016639406192321927 0 0.033804036565002915 0.0011704410561439635 0 0.03344671170305738 0.0012017926294191339 0 0.030968927613664012 0.00050953318711372149 0 0.031084398386871402 0.00012849327099381959 0 0.031476374471613007 3.5029998334580728e-05 0 0.030625388630460583 -7.5678006535213373e-05 0 0.030543551537600924 0.00037209745863082223 0 0.031084398386871402 0.00012849327099381959 0 0.030543551537600924 0.00037209745863082223 0 0.030968927613664012 0.00050953318711372149 0 0.031084398386871402 0.00012849327099381959 0 0.031084398386871402 0.00012849327099381959 0 0.031038751868956504 -0.00016617784466239018 0 0.031384749623670834 -0.00014686295932760517 0 0.030625388630460583 -7.5678006535213373e-05 0 0.031084398386871402 0.00012849327099381959 0 0.031038751868956504 -0.00016617784466239018 0 0.030434252354674226 -0.00045931944987604302 0 0.030625388630460583 -7.5678006535213373e-05 0 0.030884216739145817 -0.00050017518924488664 0 0.030716975068530918 -0.00012397691623265177 0 0.030293685726330059 -0.00087726152862228814 0 0.030764943667110356 -0.00060942258049806832 0 0.030434252354674226 -0.00045931944987604302 0 0.030884216739145817 -0.00050017518924488664 0 0.030625388630460583 -7.5678006535213373e-05 0 0.031038751868956504 -0.00016617784466239018 0 0.031006322468989916 -0.00052098701098346402 0 0.031038751868956504 -0.00016617784466239018 0 0.031006322468989916 -0.00052098701098346402 0 0.031384749623670834 -0.00014686295932760517 0 0.028032561173278195 -0.0013319627909098807 0 0.030293685726330059 -0.00087726152862228814 0 0.030919682658138131 -0.00062064999727399844 0 0.030857434745881866 -0.00053095562477626518 0 0.030872770968165198 -0.0005726851334664115 0 0.030605190615004007 -0.00062658508862305522 0 0.030293685726330059 -0.00087726152862228814 0 0.030764943667110356 -0.00060942258049806832 0 0.030857434745881866 -0.00053095562477626518 0 0.030872770968165198 -0.0005726851334664115 0 0.027810538640925028 -0.0011439144251949938 0 0.027970220156508869 -0.0010429526143373405 0 0.02796963516976702 -0.00086665730768700116 0 0.028032561173278195 -0.0013319627909098807 0 0.030310646416694044 -0.00063934415709965915 0 0.02932892518393156 -0.0013391946219918917 0 0.029106802141851688 -0.0010793685669750472 0 0.029825912482740219 -0.00038652556343639935 0 0.028021703996764707 -0.0011372733189508883 0 0.02814578558013326 -0.001125573943049207 0 0.028088298192819206 -0.00097542806535649829 0 0.028021703996764707 -0.0011372733189508883 0 0.027970220156508869 -0.0010429526143373405 0 0.028088298192819206 -0.00097542806535649829 0 0.027810538640925028 -0.0011439144251949938 0 0.028021703996764707 -0.0011372733189508883 0 0.027970220156508869 -0.0010429526143373405 0 0.030293685726330059 -0.00087726152862228814 0 0.030310646416694044 -0.00063934415709965915 0 0.027970220156508869 -0.0010429526143373405 0 0.02796963516976702 -0.00086665730768700116 0 0.028088298192819206 -0.00097542806535649829 0 0.02796963516976702 -0.00086665730768700116 0 0.028088298192819206 -0.00097542806535649829 0 0.028050664125335013 -0.00079718250313521341 0 0.03230940276657205 0.00086123131776748676 0 0.031940311810188041 5.0681658119107487e-05 0 0.030893592474369787 -0.00077522754313030036 0 0.031573865966083851 -0.0001171259908812577 0 0.031342709305423523 9.3005541674399272e-05 0 0.030310646416694044 -0.00063934415709965915 0 0.031257361275195211 -0.00026011285147824111 0 0.030310646416694044 -0.00063934415709965915 0 0.031940311810188041 5.0681658119107487e-05 0 0.031257361275195211 -0.00026011285147824111 0 0.031940311810188041 5.0681658119107487e-05 0 0.033987220672002445 0.00065975165449550985 0 0.033934868563172606 0.00070596274155647256 0 0.03403919628312118 0.00089630396113272851 0 0.031084398386871402 0.00012849327099381959 0 0.031384749623670834 -0.00014686295932760517 0 0.031476374471613007 3.5029998334580728e-05 0 0.033804036565002915 0.0011704410561439635 0 0.033946033673909699 0.00072328032276565033 0 0.03403919628312118 0.00089630396113272851 0 0.031940311810188041 5.0681658119107487e-05 0 0.033015858112688243 0.0010151672306419155 0 0.030908368180102112 -0.0013613346960919207 0 0.031797478083904561 -0.0013612683124528528 0 0.031807910350002001 -0.00047772571165160621 0 0.033987220672002445 0.00065975165449550985 0 0.03403919628312118 0.00089630396113272851 0 0.034516998654699503 0.0011759686774774794 0 0.031257361275195211 -0.00026011285147824111 0 0.033337981217795007 0.00041136627617762648 0 0.028088298192819206 -0.00097542806535649829 0 0.028050664125335013 -0.00079718250313521341 0 0.028266349430493106 -0.00099024374166409887 0 0.031257361275195211 -0.00026011285147824111 0 0.029875952901846768 -0.0015352209752288934 0 0.030908368180102112 -0.0013613346960919207 0 0.031797478083904561 -0.0013612683124528528 0 0.031688862626830419 -0.0020738854448148635 0 0.02814578558013326 -0.001125573943049207 0 0.028266349430493106 -0.00099024374166409887 0 0.028330918594063611 -0.0010751428843487488 0 0.02814578558013326 -0.001125573943049207 0 0.028088298192819206 -0.00097542806535649829 0 0.028266349430493106 -0.00099024374166409887 0 0.033027656709996883 -0.0017208181602338508 0 0.032410216217450272 -0.0020200134880965876 0 0.032768881419444389 -0.0023271832226495108 0 0.0325663226299008 -0.0027096852901186473 0 0.032410216217450272 -0.0020200134880965876 0 0.032768881419444389 -0.0023271832226495108 0 0.028762001410929595 -0.0014431238566424377 0 0.028266349430493106 -0.00099024374166409887 0 0.028330918594063611 -0.0010751428843487488 0 0.032464710913055264 -0.0027716217405309796 0 0.031688862626830419 -0.0020738854448148635 0 0.032410216217450272 -0.0020200134880965876 0 0.031797478083904561 -0.0013612683124528528 0 0.031688862626830419 -0.0020738854448148635 0 0.032410216217450272 -0.0020200134880965876 0 0.033027656709996883 -0.0017208181602338508 0 0.032410216217450272 -0.0020200134880965876 0 0.032639231127547887 -0.0012423352297251246 0 0.031797478083904561 -0.0013612683124528528 0 0.032639231127547887 -0.0012423352297251246 0 0.031807910350002001 -0.00047772571165160621 0 0.033058010495199047 -0.00054550802985879534 0 0.032639231127547887 -0.0012423352297251246 0 0.031807910350002001 -0.00047772571165160621 0 0.031797478083904561 -0.0013612683124528528 0 0.032410216217450272 -0.0020200134880965876 0 0.032639231127547887 -0.0012423352297251246 0 0.034516998654699503 0.0011759686774774794 0 0.034398674387899751 0.0016223885596282476 0 0.03499624074811522 0.0017186447967315502 0 0.033337981217795007 0.00041136627617762648 0 0.03383484188523566 0.0010826222745243183 0 0.033058010495199047 -0.00054550802985879534 0 0.031807910350002001 -0.00047772571165160621 0 0.032749460319492316 0.00048726987050910049 0 0.03403919628312118 0.00089630396113272851 0 0.034516998654699503 0.0011759686774774794 0 0.034155676231590042 0.0012838573748188958 0 0.034027016577233976 0.0015505626316429399 0 0.034155676231590042 0.0012838573748188958 0 0.034398674387899751 0.0016223885596282476 0 0.034516998654699503 0.0011759686774774794 0 0.034155676231590042 0.0012838573748188958 0 0.034398674387899751 0.0016223885596282476 0 0.034398674387899751 0.0016223885596282476 0 0.034612724269780785 0.0020714397258067073 0 0.034019898590635034 0.0019996917037387136 0 0.034027016577233976 0.0015505626316429399 0 0.034398674387899751 0.0016223885596282476 0 0.034019898590635034 0.0019996917037387136 0 0.03499624074811522 0.0017186447967315502 0 0.034969503743900399 0.0021505890313524138 0 0.034612724269780785 0.0020714397258067073 0 0.034398674387899751 0.0016223885596282476 0 0.03499624074811522 0.0017186447967315502 0 0.034612724269780785 0.0020714397258067073 0 0.034969503743900399 0.0021505890313524138 0 0.034612724269780785 0.0020714397258067073 0 0.034818989129076751 0.0024681896089376681 0 0.03516511046519253 0.0023429230496939415 0 0.034969503743900399 0.0021505890313524138 0 0.034818989129076751 0.0024681896089376681 0 0.034612724269780785 0.0020714397258067073 0 0.034300963812039599 0.0024619147674595585 0 0.034818989129076751 0.0024681896089376681 0 0.034612724269780785 0.0020714397258067073 0 0.034300963812039599 0.0024619147674595585 0 0.034019898590635034 0.0019996917037387136 0 0.034300963812039599 0.0024619147674595585 0 0.034578077339224592 0.0028350860557429828 0 0.034818989129076751 0.0024681896089376681 0 0.034300963812039599 0.0024619147674595585 0 0.034578077339224592 0.0028350860557429828 0 0.034099984785181892 0.002943504266911934 0 0.034578077339224592 0.0028350860557429828 0 0.034818989129076751 0.0024681896089376681 0 0.034976278610721924 0.0028297330445985181 0 0.03516511046519253 0.0023429230496939415 0 0.035101496678176747 0.0026494884202948074 0 0.034818989129076751 0.0024681896089376681 0 0.035101496678176747 0.0026494884202948074 0 0.034818989129076751 0.0024681896089376681 0 0.034976278610721924 0.0028297330445985181 0 0.035139510193745865 0.0028316092427361733 0 0.035101496678176747 0.0026494884202948074 0 0.034976278610721924 0.0028297330445985181 0 0.035390607208062835 0.0030848290830970439 0 0.035043294982821993 0.0030741380324827003 0 0.034899577010063923 0.0034043187805316622 0 0.034976278610721924 0.0028297330445985181 0 0.034782975825119071 0.0030845127179984482 0 0.035043294982821993 0.0030741380324827003 0 0.035193733965765868 0.0029478754255608179 0 0.034976278610721924 0.0028297330445985181 0 0.035043294982821993 0.0030741380324827003 0 0.034578077339224592 0.0028350860557429828 0 0.034976278610721924 0.0028297330445985181 0 0.034782975825119071 0.0030845127179984482 0 0.034782975825119071 0.0030845127179984482 0 0.034899577010063923 0.0034043187805316622 0 0.034476164928110981 0.0032723452955250518 0 0.034782975825119071 0.0030845127179984482 0 0.035043294982821993 0.0030741380324827003 0 0.034899577010063923 0.0034043187805316622 0 0.043351525682067446 0.0029872725039205975 0 0.043302758267072264 0.0030643005981281571 0 0.043420332235279524 0.0030517771559189304 0 0.043351525682067446 0.0029872725039205975 0 0.043420332235279524 0.0030517771559189304 0 0.043493539931140905 0.0029219138743671294 0 0.047081144758499983 0.0028705063049685904 0 0.049487720259217514 0.0024645535639126769 0 0.05112391004528196 0.0026071740195030093 0 0.05117510004419841 0.0024363197929735312 0 0.051641062619475209 0.0022586886006284467 0 0.039255817809555421 0.0031940070924411038 0 0.03823742386485085 0.0037253854251245739 0 0.034899577010063923 0.0034043187805316622 0 0.034425659444960566 0.0037910197649017345 0 0.034476164928110981 0.0032723452955250518 0 0.034425659444960566 0.0037910197649017345 0 0.034476164928110981 0.0032723452955250518 0 0.034071383434674141 0.00355809509597668 0 0.043420332235279524 0.0030517771559189304 0 0.043567136958554305 0.0029429331922894665 0 0.043493539931140905 0.0029219138743671294 0 0.034578077339224592 0.0028350860557429828 0 0.034476164928110981 0.0032723452955250518 0 0.034099984785181892 0.002943504266911934 0 0.034578077339224592 0.0028350860557429828 0 0.034782975825119071 0.0030845127179984482 0 0.034476164928110981 0.0032723452955250518 0 0.034029201023045699 0.0035192321351680059 0 0.033359697425729098 0.0029324763638414013 0 0.034476164928110981 0.0032723452955250518 0 0.034099984785181892 0.002943504266911934 0 0.034071383434674141 0.00355809509597668 0 0.034099984785181892 0.002943504266911934 0 0.034071383434674141 0.00355809509597668 0 0.033483419171161453 0.0030842470681525591 0 0.034071383434674141 0.00355809509597668 0 0.033270763954979833 0.003662215454517372 0 0.033783524417538659 0.0043368676512429956 0 0.034071383434674141 0.00355809509597668 0 0.033270763954979833 0.003662215454517372 0 0.03326576865713457 0.0027901720301196256 0 0.033270763954979833 0.003662215454517372 0 0.03326576865713457 0.0027901720301196256 0 0.032325637761177216 0.0029014518208430608 0 0.033698623137380083 0.0025240037207878208 0 0.033355873526523486 0.002092051255869848 0 0.032931329949389777 0.0026142867597991545 0 0.033483419171161453 0.0030842470681525591 0 0.033698623137380083 0.0025240037207878208 0 0.032931329949389777 0.0026142867597991545 0 0.034099984785181892 0.002943504266911934 0 0.033483419171161453 0.0030842470681525591 0 0.033698623137380083 0.0025240037207878208 0 0.034300963812039599 0.0024619147674595585 0 0.034099984785181892 0.002943504266911934 0 0.033698623137380083 0.0025240037207878208 0 0.034300963812039599 0.0024619147674595585 0 0.033698623137380083 0.0025240037207878208 0 0.034019898590635034 0.0019996917037387136 0 0.033698623137380083 0.0025240037207878208 0 0.034019898590635034 0.0019996917037387136 0 0.033355873526523486 0.002092051255869848 0 0.032928102550263676 0.0016647068153529381 0 0.033355873526523486 0.002092051255869848 0 0.03287742086014793 0.0021374213981593484 0 0.033355873526523486 0.002092051255869848 0 0.03287742086014793 0.0021374213981593484 0 0.032931329949389777 0.0026142867597991545 0 0.03287742086014793 0.0021374213981593484 0 0.032384875932545881 0.0021390935764583128 0 0.032931329949389777 0.0026142867597991545 0 0.032928102550263676 0.0016647068153529381 0 0.03287742086014793 0.0021374213981593484 0 0.032384875932545881 0.0021390935764583128 0 0.031062618016061347 0.0016447100396743736 0 0.032738207336387069 0.0023130755617799133 0 0.030131839076262164 0.0011142988746766472 0 0.03017754378963582 0.0014024341539802219 0 0.030095459778779272 0.0013159453271889758 0 0.031062618016061347 0.0016447100396743736 0 0.030357562059224446 0.0012361379503455403 0 0.031251452561335907 0.0009922559615927664 0 0.031332473098774162 0.002164463869817865 0 0.032318571533131772 0.0019554064445269932 0 0.031332473098774162 0.002164463869817865 0 0.032318571533131772 0.0019554064445269932 0 0.032325637761177216 0.0029014518208430608 0 0.033359697425729098 0.0029324763638414013 0 0.032738207336387069 0.0023130755617799133 0 0.03326576865713457 0.0027901720301196256 0 0.032318571533131772 0.0019554064445269932 0 0.032325637761177216 0.0029014518208430608 0 0.033270763954979833 0.003662215454517372 0 0.032325637761177216 0.0029014518208430608 0 0.032178355120385388 0.0037678498684408715 0 0.032325637761177216 0.0029014518208430608 0 0.032178355120385388 0.0037678498684408715 0 0.031485152999115439 0.0032529360627036748 0 0.032178355120385388 0.0037678498684408715 0 0.031485152999115439 0.0032529360627036748 0 0.030839912358888319 0.0040222775766442483 0 0.031332473098774162 0.002164463869817865 0 0.032325637761177216 0.0029014518208430608 0 0.031485152999115439 0.0032529360627036748 0 0.029273678255710905 0.0040398975814961496 0 0.029853843104222479 0.0033967758489001319 0 0.030839912358888319 0.0040222775766442483 0 0.031332473098774162 0.002164463869817865 0 0.031485152999115439 0.0032529360627036748 0 0.030339748697289903 0.0028388697229481128 0 0.031485152999115439 0.0032529360627036748 0 0.030339748697289903 0.0028388697229481128 0 0.030839912358888319 0.0040222775766442483 0 0.030339748697289903 0.0028388697229481128 0 0.029853843104222479 0.0033967758489001319 0 0.030839912358888319 0.0040222775766442483 0 0.029339908870621104 0.0027158224806008669 0 0.030339748697289903 0.0028388697229481128 0 0.029853843104222479 0.0033967758489001319 0 0.029339908870621104 0.0027158224806008669 0 0.030339748697289903 0.0028388697229481128 0 0.029717109567378878 0.0022280422994646705 0 0.030339748697289903 0.0028388697229481128 0 0.029717109567378878 0.0022280422994646705 0 0.030193004462309013 0.0019571327443664338 0 0.029170581544290863 0.0020311773339354187 0 0.029339908870621104 0.0027158224806008669 0 0.029717109567378878 0.0022280422994646705 0 0.029170581544290863 0.0020311773339354187 0 0.029717109567378878 0.0022280422994646705 0 0.029615301333570324 0.0017266502269826808 0 0.029717109567378878 0.0022280422994646705 0 0.030193004462309013 0.0019571327443664338 0 0.029615301333570324 0.0017266502269826808 0 0.031251452561335907 0.0009922559615927664 0 0.031332473098774162 0.002164463869817865 0 0.030193004462309013 0.0019571327443664338 0 0.031332473098774162 0.002164463869817865 0 0.030339748697289903 0.0028388697229481128 0 0.030193004462309013 0.0019571327443664338 0 0.030193004462309013 0.0019571327443664338 0 0.029978455342285035 0.0015065791063286716 0 0.029615301333570324 0.0017266502269826808 0 0.030259706056632949 0.0014566638764324186 0 0.030193004462309013 0.0019571327443664338 0 0.029978455342285035 0.0015065791063286716 0 0.031062618016061347 0.0016447100396743736 0 0.030168332319599409 0.0018345094037462675 0 0.030095459778779272 0.0013159453271889758 0 0.029978455342285035 0.0015065791063286716 0 0.029892503630539826 0.0012850811831282721 0 0.030259706056632949 0.0014566638764324186 0 0.030095459778779272 0.0013159453271889758 0 0.029978455342285035 0.0015065791063286716 0 0.029596128344073224 0.0012761398309650313 0 0.029978455342285035 0.0015065791063286716 0 0.029892503630539826 0.0012850811831282721 0 0.029596128344073224 0.0012761398309650313 0 0.029978455342285035 0.0015065791063286716 0 0.029615301333570324 0.0017266502269826808 0 0.029020615819716423 0.0014018455967399475 0 0.029596128344073224 0.0012761398309650313 0 0.029615301333570324 0.0017266502269826808 0 0.052331000530741051 0.00013062830455540827 0 0.052341535055947283 0.00020168086979308801 0 0.052580571128564672 0.00052671563641012054 0 0.052341535055947283 0.00020168086979308801 0 0.052447363584416262 0.00025198419322091997 0 0.052580571128564672 0.00052671563641012054 0 0.052447363584416262 0.00025198419322091997 0 0.053112038979776545 0.00049035284671833119 0 0.052580571128564672 0.00052671563641012054 0 0.052869068125654735 0.00068456579560988856 0 0.053725328075496931 0.00043556250451266251 0 0.052447363584416262 0.00025198419322091997 0 0.053158789919984475 0.00027701006042253661 0 0.053112038979776545 0.00049035284671833119 0 0.052282823196421663 0.00035897059334902862 0 0.052853713711878587 8.249249537696175e-05 0 0.052447363584416262 0.00025198419322091997 0 0.052224449118153535 0.00034783280325132197 0 0.051851883581618095 0.00022644417463331228 0 0.052224449118153535 0.00034783280325132197 0 0.052081017571271017 0.00059215342752848071 0 0.051851883581618095 0.00022644417463331228 0 0.052341535055947283 0.00020168086979308801 0 0.052447363584416262 0.00025198419322091997 0 0.052339642924330965 0.00026509003231840826 0 0.052447363584416262 0.00025198419322091997 0 0.052224449118153535 0.00034783280325132197 0 0.052339642924330965 0.00026509003231840826 0 0.047625757371126259 -0.003120003605930113 0 0.040892477521430402 0.00016767875600465909 0 0.034074606945140862 -0.00055995187574474576 0 0.040892477521430402 0.00016767875600465909 0 0.040525627228326408 -0.0056617519990286216 0 0.040516536796326059 -0.0057032168186173619 0 0.040647233749881405 -0.0055375136100434524 0 0.029273678255710905 0.0040398975814961496 0 0.029792544311288572 0.0048255646676567451 0 0.030839912358888319 0.0040222775766442483 0 0.029792544311288572 0.0048255646676567451 0 0.030839912358888319 0.0040222775766442483 0 0.031117400676657071 0.0050887837551801679 0 0.052224449118153535 0.00034783280325132197 0 0.052339642924330965 0.00026509003231840826 0 0.052081017571271017 0.00059215342752848071 0 0.040513640521258436 0.0018108469054875678 0 0.042074946853027539 0.0014274472767202011 0 0.041976379842662212 0.0020022136189321838 0 0.040892477521430402 0.00016767875600465909 0 0.035223163168112588 0.0037495828202627479 0 0.040892477521430402 0.00016767875600465909 0 0.049983929946689917 0.0012497496246915805 0 0.052081017571271017 0.00059215342752848071 0 0.051195643920044276 0.00054239007156855752 0 0.051851883581618095 0.00022644417463331228 0 0.032178355120385388 0.0037678498684408715 0 0.030839912358888319 0.0040222775766442483 0 0.032509543752134155 0.0047498601298284456 0 0.030839912358888319 0.0040222775766442483 0 0.031117400676657071 0.0050887837551801679 0 0.032509543752134155 0.0047498601298284456 0 0.033270763954979833 0.003662215454517372 0 0.032178355120385388 0.0037678498684408715 0 0.032509543752134155 0.0047498601298284456 0 0.042074946853027539 0.0014274472767202011 0 0.041976379842662212 0.0020022136189321838 0 0.042617825935936091 0.0015270015744120124 0 0.049983929946689917 0.0012497496246915805 0 0.048453677217984478 0.0011267758731260311 0 0.049983929946689917 0.0012497496246915805 0 0.054088334995447622 0.0011711274586884055 0 0.053589077741265319 0.00093598524438213905 0 0.053494011355678855 0.00083447334403790663 0 0.053454711478633031 0.0011788781486643557 0 0.053491586339976076 0.00053384295937556833 0 0.053494011355678855 0.00083447334403790663 0 0.053540548476160146 0.00062240514101889472 0 0.053540548476160146 0.00062240514101889472 0 0.053531428683799051 0.00059414759542537551 0 0.053585059010569848 0.00062356242706058246 0 0.053540548476160146 0.00062240514101889472 0 0.053531428683799051 0.00059414759542537551 0 0.053410277914818359 0.0004825565669967572 0 0.053491586339976076 0.00053384295937556833 0 0.053540548476160146 0.00062240514101889472 0 0.053410277914818359 0.0004825565669967572 0 0.053491586339976076 0.00053384295937556833 0 0.053158789919984475 0.00027701006042253661 0 0.053410277914818359 0.0004825565669967572 0 0.049983929946689917 0.0012497496246915805 0 0.052853713711878587 8.249249537696175e-05 0 0.053158789919984475 0.00027701006042253661 0 0.053410277914818359 0.0004825565669967572 0 0.053112038979776545 0.00049035284671833119 0 0.053410277914818359 0.0004825565669967572 0 0.053474001707548097 0.00063369034857080602 0 0.053112038979776545 0.00049035284671833119 0 0.053112038979776545 0.00049035284671833119 0 0.05360190900732259 0.00092011462966753706 0 0.052854821007009507 0.0010016047849202416 0 0.053474001707548097 0.00063369034857080602 0 0.053112038979776545 0.00049035284671833119 0 0.05360190900732259 0.00092011462966753706 0 0.053474001707548097 0.00063369034857080602 0 0.053600891648205209 0.00074691264313499716 0 0.05360190900732259 0.00092011462966753706 0 0.053600891648205209 0.00074691264313499716 0 0.053585059010569848 0.00062356242706058246 0 0.053691209157595815 0.00070047667476251442 0 0.053531428683799051 0.00059414759542537551 0 0.053600891648205209 0.00074691264313499716 0 0.053585059010569848 0.00062356242706058246 0 0.053531428683799051 0.00059414759542537551 0 0.053474001707548097 0.00063369034857080602 0 0.053600891648205209 0.00074691264313499716 0 0.053531428683799051 0.00059414759542537551 0 0.053410277914818359 0.0004825565669967572 0 0.053474001707548097 0.00063369034857080602 0 0.053691209157595815 0.00070047667476251442 0 0.053585475095834362 0.00061647624238854058 0 0.05344557261186899 0.00055765811239310876 0 0.053585059010569848 0.00062356242706058246 0 0.053691209157595815 0.00070047667476251442 0 0.05344557261186899 0.00055765811239310876 0 0.053585475095834362 0.00061647624238854058 0 0.05344557261186899 0.00055765811239310876 0 0.053585571617318473 0.00062376264140698409 0 0.053174362559718177 0.0004776312434898303 0 0.053551326941188755 0.00034558954823376583 0 0.05344557261186899 0.00055765811239310876 0 0.052636662899529438 0.00044526934650930127 0 0.05233652409179252 -1.9474542911166121e-05 0 0.05344557261186899 0.00055765811239310876 0 0.053056783841672943 0.00079690294701350954 0 0.053310356888958452 0.00073848121251662217 0 0.05344557261186899 0.00055765811239310876 0 0.052887737201781304 0.0006535768938283707 0 0.053056783841672943 0.00079690294701350954 0 0.05344557261186899 0.00055765811239310876 0 0.052887737201781304 0.0006535768938283707 0 0.052636662899529438 0.00044526934650930127 0 0.052887737201781304 0.0006535768938283707 0 0.052748308300440847 0.00081673760432608776 0 0.052541978324099715 0.00063829973608592501 0 0.052887737201781304 0.0006535768938283707 0 0.052748308300440847 0.00081673760432608776 0 0.053056783841672943 0.00079690294701350954 0 0.052748308300440847 0.00081673760432608776 0 0.053056783841672943 0.00079690294701350954 0 0.052864672112747979 0.0009782635535381572 0 0.052748308300440847 0.00081673760432608776 0 0.052864672112747979 0.0009782635535381572 0 0.052628200690053015 0.00099460445355695659 0 0.053056783841672943 0.00079690294701350954 0 0.053236338697225383 0.00090243842712642145 0 0.053310356888958452 0.00073848121251662217 0 0.053056783841672943 0.00079690294701350954 0 0.05304626569402042 0.00099765495955866533 0 0.052864672112747979 0.0009782635535381572 0 0.053056783841672943 0.00079690294701350954 0 0.053236338697225383 0.00090243842712642145 0 0.05304626569402042 0.00099765495955866533 0 0.053236338697225383 0.00090243842712642145 0 0.053454585534573634 0.000717649535633948 0 0.053367628733145267 0.00094601475345041503 0 0.053236338697225383 0.00090243842712642145 0 0.053310356888958452 0.00073848121251662217 0 0.053454585534573634 0.000717649535633948 0 0.053585059010569848 0.00062356242706058246 0 0.05344557261186899 0.00055765811239310876 0 0.053454585534573634 0.000717649535633948 0 0.05344557261186899 0.00055765811239310876 0 0.053310356888958452 0.00073848121251662217 0 0.053454585534573634 0.000717649535633948 0 0.053540548476160146 0.00062240514101889472 0 0.053585059010569848 0.00062356242706058246 0 0.053454585534573634 0.000717649535633948 0 0.053494011355678855 0.00083447334403790663 0 0.053454585534573634 0.000717649535633948 0 0.053367628733145267 0.00094601475345041503 0 0.053494011355678855 0.00083447334403790663 0 0.053540548476160146 0.00062240514101889472 0 0.053454585534573634 0.000717649535633948 0 0.053494011355678855 0.00083447334403790663 0 0.053367628733145267 0.00094601475345041503 0 0.053454711478633031 0.0011788781486643557 0 0.053367628733145267 0.00094601475345041503 0 0.053454711478633031 0.0011788781486643557 0 0.053168539961784722 0.0011634867018981171 0 0.053236338697225383 0.00090243842712642145 0 0.053367628733145267 0.00094601475345041503 0 0.053168539961784722 0.0011634867018981171 0 0.053454711478633031 0.0011788781486643557 0 0.053152958984340012 0.0013612944742772283 0 0.053168539961784722 0.0011634867018981171 0 0.035223163168112588 0.0037495828202627479 0 0.042909178360224606 0.0025410804912846413 0 0.042074946853027539 0.0014274472767202011 0 0.042617825935936091 0.0015270015744120124 0 0.043218333744415957 0.0012118390299341879 0 0.033270763954979833 0.003662215454517372 0 0.032509543752134155 0.0047498601298284456 0 0.033783524417538659 0.0043368676512429956 0 0.048453677217984478 0.0011267758731260311 0 0.042909178360224606 0.0025410804912846413 0 0.053454711478633031 0.0011788781486643557 0 0.053132002067656836 0.0017028759014048064 0 0.053152958984340012 0.0013612944742772283 0 0.03823742386485085 0.0037253854251245739 0 0.042909178360224606 0.0025410804912846413 0 0.034425659444960566 0.0037910197649017345 0 0.034071383434674141 0.00355809509597668 0 0.033783524417538659 0.0043368676512429956 0 0.043567136958554305 0.0029429331922894665 0 0.043662627381630292 0.0028402202995354547 0 0.043591465772301517 0.0028891714967930284 0 0.053132002067656836 0.0017028759014048064 0 0.052910786032040656 0.0014625128763616955 0 0.053152958984340012 0.0013612944742772283 0 0.053132002067656836 0.0017028759014048064 0 0.052910786032040656 0.0014625128763616955 0 0.05206789253244469 0.0021117111102468989 0 0.042909178360224606 0.0025410804912846413 0 0.048267706037535149 0.0023483356502972839 0 0.052910786032040656 0.0014625128763616955 0 0.052774361857894199 0.0013050636492898779 0 0.052433146336733349 0.0015735749450798493 0 0.052774361857894199 0.0013050636492898779 0 0.052966299128832633 0.0012980677524639869 0 0.05289724702230466 0.0011604984788299987 0 0.052774361857894199 0.0013050636492898779 0 0.052710162888372269 0.001146444028556343 0 0.052557525915630905 0.0012962967962251567 0 0.052966299128832633 0.0012980677524639869 0 0.053168539961784722 0.0011634867018981171 0 0.05289724702230466 0.0011604984788299987 0 0.052910786032040656 0.0014625128763616955 0 0.053152958984340012 0.0013612944742772283 0 0.052966299128832633 0.0012980677524639869 0 0.052910786032040656 0.0014625128763616955 0 0.052774361857894199 0.0013050636492898779 0 0.052966299128832633 0.0012980677524639869 0 0.053152958984340012 0.0013612944742772283 0 0.052966299128832633 0.0012980677524639869 0 0.053168539961784722 0.0011634867018981171 0 0.053236338697225383 0.00090243842712642145 0 0.053168539961784722 0.0011634867018981171 0 0.05304626569402042 0.00099765495955866533 0 0.053168539961784722 0.0011634867018981171 0 0.05304626569402042 0.00099765495955866533 0 0.05289724702230466 0.0011604984788299987 0 0.052710162888372269 0.001146444028556343 0 0.05289724702230466 0.0011604984788299987 0 0.052864672112747979 0.0009782635535381572 0 0.052774361857894199 0.0013050636492898779 0 0.052710162888372269 0.001146444028556343 0 0.05289724702230466 0.0011604984788299987 0 0.05304626569402042 0.00099765495955866533 0 0.05289724702230466 0.0011604984788299987 0 0.052864672112747979 0.0009782635535381572 0 0.052710162888372269 0.001146444028556343 0 0.052864672112747979 0.0009782635535381572 0 0.052628200690053015 0.00099460445355695659 0 0.052710162888372269 0.001146444028556343 0 0.052628200690053015 0.00099460445355695659 0 0.052523045225767818 0.0011343426149966903 0 0.052628200690053015 0.00099460445355695659 0 0.052394723203056187 0.0010133737171642248 0 0.052523045225767818 0.0011343426149966903 0 0.052523045225767818 0.0011343426149966903 0 0.052317102341499729 0.0012191299006268153 0 0.052557525915630905 0.0012962967962251567 0 0.052394723203056187 0.0010133737171642248 0 0.052523045225767818 0.0011343426149966903 0 0.052317102341499729 0.0012191299006268153 0 0.052710162888372269 0.001146444028556343 0 0.052523045225767818 0.0011343426149966903 0 0.052557525915630905 0.0012962967962251567 0 0.052131015335405241 0.0010527731484270629 0 0.052317102341499729 0.0012191299006268153 0 0.051988777459891479 0.001454648869318139 0 0.052394723203056187 0.0010133737171642248 0 0.052131015335405241 0.0010527731484270629 0 0.05223948751427987 0.00084354355818291339 0 0.052394723203056187 0.0010133737171642248 0 0.052131015335405241 0.0010527731484270629 0 0.052317102341499729 0.0012191299006268153 0 0.052317102341499729 0.0012191299006268153 0 0.051988777459891479 0.001454648869318139 0 0.052307646852241409 0.0014493021955535755 0 0.051988777459891479 0.001454648869318139 0 0.052307646852241409 0.0014493021955535755 0 0.052065782124334138 0.0016807125741833075 0 0.052774361857894199 0.0013050636492898779 0 0.052557525915630905 0.0012962967962251567 0 0.052433146336733349 0.0015735749450798493 0 0.052317102341499729 0.0012191299006268153 0 0.052557525915630905 0.0012962967962251567 0 0.052307646852241409 0.0014493021955535755 0 0.052557525915630905 0.0012962967962251567 0 0.052307646852241409 0.0014493021955535755 0 0.052433146336733349 0.0015735749450798493 0 0.052910786032040656 0.0014625128763616955 0 0.052433146336733349 0.0015735749450798493 0 0.051958420094812309 0.0021733965086065048 0 0.052910786032040656 0.0014625128763616955 0 0.05206789253244469 0.0021117111102468989 0 0.05086548666316084 0.0023885622059412323 0 0.053624397795817139 0.0013345080706690365 0 0.049487720259217514 0.0024645535639126769 0 0.052433146336733349 0.0015735749450798493 0 0.052065782124334138 0.0016807125741833075 0 0.051958420094812309 0.0021733965086065048 0 0.052307646852241409 0.0014493021955535755 0 0.052433146336733349 0.0015735749450798493 0 0.052065782124334138 0.0016807125741833075 0 0.048267706037535149 0.0023483356502972839 0 0.049487720259217514 0.0024645535639126769 0 0.043567136958554305 0.0029429331922894665 0 0.043591465772301517 0.0028891714967930284 0 0.043493539931140905 0.0029219138743671294 0 0.05117510004419841 0.0024363197929735312 0 0.051427705787888432 0.0020927909371263806 0 0.051958420094812309 0.0021733965086065048 0 0.051427705787888432 0.0020927909371263806 0 0.051558053738143816 0.0017599317803808881 0 0.051014750840878476 0.0020076278286675093 0 0.051862452836649378 0.0021943637848637091 0 0.049487720259217514 0.0024645535639126769 0 0.05117510004419841 0.0024363197929735312 0 0.051427705787888432 0.0020927909371263806 0 0.051014750840878476 0.0020076278286675093 0 0.051427705787888432 0.0020927909371263806 0 0.051958420094812309 0.0021733965086065048 0 0.051558053738143816 0.0017599317803808881 0 0.052065782124334138 0.0016807125741833075 0 0.051958420094812309 0.0021733965086065048 0 0.051558053738143816 0.0017599317803808881 0 0.051988777459891479 0.001454648869318139 0 0.052065782124334138 0.0016807125741833075 0 0.051558053738143816 0.0017599317803808881 0 0.051558053738143816 0.0017599317803808881 0 0.051873185902734438 0.0010769371515724068 0 0.05085815264540372 0.0016035432650356998 0 0.051731928405087467 0.0011168682744406764 0 0.051317111194698069 0.0016220712225552788 0 0.051873185902734438 0.0010769371515724068 0 0.051633962366160711 0.00080718530652956234 0 0.051284085466665484 0.0014884208606411478 0 0.051988777459891479 0.001454648869318139 0 0.051558053738143816 0.0017599317803808881 0 0.051873185902734438 0.0010769371515724068 0 0.052131015335405241 0.0010527731484270629 0 0.051988777459891479 0.001454648869318139 0 0.051873185902734438 0.0010769371515724068 0 0.052131015335405241 0.0010527731484270629 0 0.051873185902734438 0.0010769371515724068 0 0.051973772343004328 0.00088881144731548531 0 0.051808600568871675 0.0012064494160884227 0 0.053587253313794554 0.00039024866606769145 0 0.051633962366160711 0.00080718530652956234 0 0.052004126842410618 0.00052067776502464052 0 0.052062096174465104 1.186659549195571e-05 0 0.052004126842410618 0.00052067776502464052 0 0.051935776486084252 0.00070969335502872426 0 0.052136483381605168 0.00063155187999761975 0 0.051633962366160711 0.00080718530652956234 0 0.051935776486084252 0.00070969335502872426 0 0.051973772343004328 0.00088881144731548531 0 0.051633962366160711 0.00080718530652956234 0 0.052004126842410618 0.00052067776502464052 0 0.051935776486084252 0.00070969335502872426 0 0.051935776486084252 0.00070969335502872426 0 0.051973772343004328 0.00088881144731548531 0 0.052136483381605168 0.00063155187999761975 0 0.051873185902734438 0.0010769371515724068 0 0.051633962366160711 0.00080718530652956234 0 0.051973772343004328 0.00088881144731548531 0 0.052131015335405241 0.0010527731484270629 0 0.051973772343004328 0.00088881144731548531 0 0.05223948751427987 0.00084354355818291339 0 0.05223948751427987 0.00084354355818291339 0 0.052478150118580882 0.00082981669677420435 0 0.052323512096904633 0.0006577944497440731 0 0.05223948751427987 0.00084354355818291339 0 0.052136483381605168 0.00063155187999761975 0 0.052323512096904633 0.0006577944497440731 0 0.051973772343004328 0.00088881144731548531 0 0.05223948751427987 0.00084354355818291339 0 0.052136483381605168 0.00063155187999761975 0 0.052748308300440847 0.00081673760432608776 0 0.052628200690053015 0.00099460445355695659 0 0.052478150118580882 0.00082981669677420435 0 0.052394723203056187 0.0010133737171642248 0 0.05223948751427987 0.00084354355818291339 0 0.052478150118580882 0.00082981669677420435 0 0.052628200690053015 0.00099460445355695659 0 0.052394723203056187 0.0010133737171642248 0 0.052478150118580882 0.00082981669677420435 0 0.052478150118580882 0.00082981669677420435 0 0.052541978324099715 0.00063829973608592501 0 0.052323512096904633 0.0006577944497440731 0 0.052748308300440847 0.00081673760432608776 0 0.052478150118580882 0.00082981669677420435 0 0.052541978324099715 0.00063829973608592501 0 0.052887737201781304 0.0006535768938283707 0 0.052541978324099715 0.00063829973608592501 0 0.052636662899529438 0.00044526934650930127 0 0.052541978324099715 0.00063829973608592501 0 0.052368446642710086 0.00051904527873780702 0 0.052323512096904633 0.0006577944497440731 0 0.052368446642710086 0.00051904527873780702 0 0.052636662899529438 0.00044526934650930127 0 0.052326160469540611 0.00035248337393971384 0 0.052541978324099715 0.00063829973608592501 0 0.052368446642710086 0.00051904527873780702 0 0.052636662899529438 0.00044526934650930127 0 0.052136483381605168 0.00063155187999761975 0 0.052250127677488337 0.00056753359445044715 0 0.052173519826616395 0.00045841981016135196 0 0.052004126842410618 0.00052067776502464052 0 0.052136483381605168 0.00063155187999761975 0 0.052173519826616395 0.00045841981016135196 0 0.052136483381605168 0.00063155187999761975 0 0.052323512096904633 0.0006577944497440731 0 0.052250127677488337 0.00056753359445044715 0 0.052368446642710086 0.00051904527873780702 0 0.052323512096904633 0.0006577944497440731 0 0.052250127677488337 0.00056753359445044715 0 0.052368446642710086 0.00051904527873780702 0 0.052250127677488337 0.00056753359445044715 0 0.052173519826616395 0.00045841981016135196 0 0.052173519826616395 0.00045841981016135196 0 0.052125135185714849 0.00033720827278430478 0 0.052326160469540611 0.00035248337393971384 0 0.052368446642710086 0.00051904527873780702 0 0.052173519826616395 0.00045841981016135196 0 0.052326160469540611 0.00035248337393971384 0 0.052948238069993145 0.00031956488108952674 0 0.053028936500164117 0.00035140693658878739 0 0.052004126842410618 0.00052067776502464052 0 0.052173519826616395 0.00045841981016135196 0 0.052141769031710396 0.00035914911192120794 0 0.053353645572934857 0.00034774087936255801 0 0.053359554966128979 0.0003663181291108343 0 0.053345618578364597 0.00036151353211966267 0 0.052004126842410618 0.00052067776502464052 0 0.052141769031710396 0.00035914911192120794 0 0.052062096174465104 1.186659549195571e-05 0 0.053028936500164117 0.00035140693658878739 0 0.053587253313794554 0.00039024866606769145 0 0.052125135185714849 0.00033720827278430478 0 0.052326160469540611 0.00035248337393971384 0 0.05233652409179252 -1.9474542911166121e-05 0 0.053028936500164117 0.00035140693658878739 0 0.053551326941188755 0.00034558954823376583 0 0.052636662899529438 0.00044526934650930127 0 0.052326160469540611 0.00035248337393971384 0 0.05233652409179252 -1.9474542911166121e-05 0 0.053587253313794554 0.00039024866606769145 0 0.053551326941188755 0.00034558954823376583 0 0.053587253313794554 0.00039024866606769145 0 0.052608965289147228 0.00049519254828383325 0 0.052246007654677566 0.0014572203009473777 0 0.052551512332180743 0.00088251975933914821 0 0.05216393006245032 0.0010366078189815546 0 0.052551512332180743 0.00088251975933914821 0 0.05216393006245032 0.0010366078189815546 0 0.051886240273687829 0.00066703195083031737 0 0.053928940318196242 0.00039550401100448923 0 0.05382026524803591 5.4596647310743273e-05 0 0.053596576584947098 0.00028402307081014611 0 0.053587253313794554 0.00039024866606769145 0 0.054479960174968887 7.0572680117322662e-06 0 0.054829401485821584 0.00030643913401643107 0 0.054867892210633984 0.00011208303603170131 0 0.05497259693259092 9.5469164816090778e-05 0 0.053551326941188755 0.00034558954823376583 0 0.054396470207780052 0.0002988032387018616 0 0.053587253313794554 0.00039024866606769145 0 0.055049781576353291 -4.9074085648679146e-05 0 0.054956306790318328 3.3041971679784619e-05 0 0.054974863959763504 1.6019372922951316e-05 0 0.054968911231389105 1.2350157187338665e-05 0 0.054760149574222185 0.00028441615297648495 0 0.054829401485821584 0.00030643913401643107 0 0.054867892210633984 0.00011208303603170131 0 0.054974863959763504 1.6019372922951316e-05 0 0.054976950677131028 1.2340420295219049e-05 0 0.054971505460284273 1.4817378568734328e-05 0 0.055049781576353291 -4.9074085648679146e-05 0 0.054927814747046319 7.1447798601695633e-05 0 0.054974863959763504 1.6019372922951316e-05 0 0.054976950677131028 1.2340420295219049e-05 0 0.054968911231389105 1.2350157187338665e-05 0 0.054976950677131028 1.2340420295219049e-05 0 0.054968911231389105 1.2350157187338665e-05 0 0.054980718110644852 8.1675337568516851e-06 0 0.054479960174968887 7.0572680117322662e-06 0 0.054520999925655025 -8.2780125249618108e-05 0 0.054968911231389105 1.2350157187338665e-05 0 0.0549825566393434 5.8593512162189151e-06 0 0.054983217124119764 3.4500463403289397e-06 0 0.054968911231389105 1.2350157187338665e-05 0 0.0549825566393434 5.8593512162189151e-06 0 0.054980718110644852 8.1675337568516851e-06 0 0.0549825566393434 5.8593512162189151e-06 0 0.054989550888114365 3.0696644737121986e-06 0 0.054980718110644852 8.1675337568516851e-06 0 0.0549825566393434 5.8593512162189151e-06 0 0.054990135043136851 1.3003481455073172e-06 0 0.054989550888114365 3.0696644737121986e-06 0 0.0549825566393434 5.8593512162189151e-06 0 0.054990135043136851 1.3003481455073172e-06 0 0.054983217124119764 3.4500463403289397e-06 0 0.054990135043136851 1.3003481455073172e-06 0 0.054999988239251112 2.5728282358782778e-09 0 0.054999976235567974 2.7327477178871585e-09 0 0.054792222979137307 -0.00014545890441302101 0 0.054520999925655025 -8.2780125249618108e-05 0 0.054990135043136851 1.3003481455073172e-06 0 0.054999988239251112 2.5728282358782778e-09 0 0.054989550888114365 3.0696644737121986e-06 0 0.054999988239251112 2.5728282358782778e-09 0 0.054989550888114365 3.0696644737121986e-06 0 0.054993015143503396 -1.8082044304128319e-07 0 0.054989550888114365 3.0696644737121986e-06 0 0.05498234756033718 8.4591294267812836e-06 0 0.054993015143503396 -1.8082044304128319e-07 0 0.054989550888114365 3.0696644737121986e-06 0 0.05498234756033718 8.4591294267812836e-06 0 0.054980718110644852 8.1675337568516851e-06 0 0.054976950677131028 1.2340420295219049e-05 0 0.05498234756033718 8.4591294267812836e-06 0 0.054980718110644852 8.1675337568516851e-06 0 0.054976950677131028 1.2340420295219049e-05 0 0.05498234756033718 8.4591294267812836e-06 0 0.054971505460284273 1.4817378568734328e-05 0 0.054971505460284273 1.4817378568734328e-05 0 0.054993015143503396 -1.8082044304128319e-07 0 0.055004584268333906 -1.0922110105474463e-06 0 0.05498234756033718 8.4591294267812836e-06 0 0.054971505460284273 1.4817378568734328e-05 0 0.054993015143503396 -1.8082044304128319e-07 0 0.054999988239251112 2.5728282358782778e-09 0 0.054993015143503396 -1.8082044304128319e-07 0 0.054999947744399195 -6.4665691255585831e-09 0 0.054580143752406052 8.0016510690796117e-05 0 0.054912318995355786 -7.7537905998986821e-06 0 0.054999947744399195 -6.4665691255585831e-09 0 0.055004584268333906 -1.0922110105474463e-06 0 0.054975663627079591 -1.1096712330535368e-05 0 0.054993015143503396 -1.8082044304128319e-07 0 0.054999947744399195 -6.4665691255585831e-09 0 0.055004584268333906 -1.0922110105474463e-06 0 0.054179383613140203 8.6136246069873194e-05 0 0.054342370895851255 0.00027364448432257133 0 0.054691544462837798 7.1167487015310829e-05 0 0.054179383613140203 8.6136246069873194e-05 0 0.053994376481102481 0.00047288500439187416 0 0.054342370895851255 0.00027364448432257133 0 0.054179383613140203 8.6136246069873194e-05 0 0.053994376481102481 0.00047288500439187416 0 0.053608461046279546 0.0005102607641443189 0 0.054580143752406052 8.0016510690796117e-05 0 0.054396470207780052 0.0002988032387018616 0 0.054971505460284273 1.4817378568734328e-05 0 0.055004584268333906 -1.0922110105474463e-06 0 0.05497259693259092 9.5469164816090778e-05 0 0.054867892210633984 0.00011208303603170131 0 0.054971505460284273 1.4817378568734328e-05 0 0.05497259693259092 9.5469164816090778e-05 0 0.053585475095834362 0.00061647624238854058 0 0.053585571617318473 0.00062376264140698409 0 0.053608461046279546 0.0005102607641443189 0 0.053994376481102481 0.00047288500439187416 0 0.053608461046279546 0.0005102607641443189 0 0.053718106256672428 0.00059247569379979352 0 0.053585475095834362 0.00061647624238854058 0 0.053608461046279546 0.0005102607641443189 0 0.053718106256672428 0.00059247569379979352 0 0.053691209157595815 0.00070047667476251442 0 0.053994376481102481 0.00047288500439187416 0 0.054486935719685617 0.00047510679839432763 0 0.053691209157595815 0.00070047667476251442 0 0.053585475095834362 0.00061647624238854058 0 0.053718106256672428 0.00059247569379979352 0 0.053691209157595815 0.00070047667476251442 0 0.053994376481102481 0.00047288500439187416 0 0.053718106256672428 0.00059247569379979352 0 0.053600891648205209 0.00074691264313499716 0 0.053691209157595815 0.00070047667476251442 0 0.053589816181833574 0.00074880258935531153 0 0.05375107750147802 0.00069306999709878823 0 0.054042322362551028 0.00058337004908752316 0 0.053600891648205209 0.00074691264313499716 0 0.05360190900732259 0.00092011462966753706 0 0.053589816181833574 0.00074880258935531153 0 0.05360190900732259 0.00092011462966753706 0 0.054094491478513688 0.00067686348030139912 0 0.053589816181833574 0.00074880258935531153 0 0.053565219901927349 0.00099373617602175755 0 0.053725328075496931 0.00043556250451266251 0 0.05360190900732259 0.00092011462966753706 0 0.054094491478513688 0.00067686348030139912 0 0.054369901554480488 0.0010508417167007958 0 0.054042322362551028 0.00058337004908752316 0 0.054569220838145353 0.0001653907269484765 0 0.054094491478513688 0.00067686348030139912 0 0.053589816181833574 0.00074880258935531153 0 0.054213729686121967 0.00016832198258473138 0 0.054342370895851255 0.00027364448432257133 0 0.054486935719685617 0.00047510679839432763 0 0.054691544462837798 7.1167487015310829e-05 0 0.053994376481102481 0.00047288500439187416 0 0.054342370895851255 0.00027364448432257133 0 0.054486935719685617 0.00047510679839432763 0 0.054486935719685617 0.00047510679839432763 0 0.054691544462837798 7.1167487015310829e-05 0 0.054929586791351931 0.00010781824742972169 0 0.054691544462837798 7.1167487015310829e-05 0 0.054975663627079591 -1.1096712330535368e-05 0 0.054999633635191829 -1.2617458506265935e-07 0 0.054999947744399195 -6.4665691255585831e-09 0 0.054975663627079591 -1.1096712330535368e-05 0 0.054999633635191829 -1.2617458506265935e-07 0 0.054179383613140203 8.6136246069873194e-05 0 0.054691544462837798 7.1167487015310829e-05 0 0.054975663627079591 -1.1096712330535368e-05 0 0.054999633635191829 -1.2617458506265935e-07 0 0.054929586791351931 0.00010781824742972169 0 0.054972143298277598 -1.4951126837410156e-05 0 0.054691544462837798 7.1167487015310829e-05 0 0.054999633635191829 -1.2617458506265935e-07 0 0.054929586791351931 0.00010781824742972169 0 0.054213729686121967 0.00016832198258473138 0 0.054767463338385267 0.00014284737646083794 0 0.054812793578753724 0.00051116215564642436 0 0.054213729686121967 0.00016832198258473138 0 0.054767463338385267 0.00014284737646083794 0 0.054972143298277598 -1.4951126837410156e-05 0 0.054569220838145353 0.0001653907269484765 0 0.054909256931995741 -5.0163834815867724e-06 0 0.054999633635191829 -1.2617458506265935e-07 0 0.054972143298277598 -1.4951126837410156e-05 0 0.054999724288551821 -3.0886312658841837e-08 0 0.054767463338385267 0.00014284737646083794 0 0.054972143298277598 -1.4951126837410156e-05 0 0.054955527444937667 3.1609393246380407e-05 0 0.054972143298277598 -1.4951126837410156e-05 0 0.054999724288551821 -3.0886312658841837e-08 0 0.054955527444937667 3.1609393246380407e-05 0 0.055000200843460786 2.9953200808781172e-08 0 0.054999724288551821 -3.0886312658841837e-08 0 0.054955527444937667 3.1609393246380407e-05 0 0.054767463338385267 0.00014284737646083794 0 0.055031034404419116 0.00011062815502245197 0 0.054812793578753724 0.00051116215564642436 0 0.054767463338385267 0.00014284737646083794 0 0.054955527444937667 3.1609393246380407e-05 0 0.055031034404419116 0.00011062815502245197 0 0.054783775428898319 0.00021566871915411513 0 0.05493168811228126 0.000120420750110122 0 0.054419919688741041 -0.00056186230432345976 0 0.054379317756165342 -5.8434965905352983e-06 0 0.054809736781898273 -7.9989946861043628e-05 0 0.054379317756165342 -5.8434965905352983e-06 0 0.054557933083000131 0.00025708141433317073 0 0.054809736781898273 -7.9989946861043628e-05 0 0.054094491478513688 0.00067686348030139912 0 0.054213729686121967 0.00016832198258473138 0 0.054812793578753724 0.00051116215564642436 0 0.054094491478513688 0.00067686348030139912 0 0.054812793578753724 0.00051116215564642436 0 0.054369901554480488 0.0010508417167007958 0 0.05493168811228126 0.000120420750110122 0 0.053725328075496931 0.00043556250451266251 0 0.053423749630201342 -0.00027896863050892989 0 0.053725328075496931 0.00043556250451266251 0 0.054419919688741041 -0.00056186230432345976 0 0.054809736781898273 -7.9989946861043628e-05 0 0.055087574958164603 -0.00054298300997148406 0 0.052906218939451521 0.0011566424607903595 0 0.054829274817290739 0.00037074978783332584 0 0.054755272435065679 0.00098645359027757615 0 0.054433440197546722 0.00097594256261484299 0 0.054322431021270455 0.0013552318395471932 0 0.054755272435065679 0.00098645359027757615 0 0.054511050881557138 0.00070726474026489787 0 0.054433440197546722 0.00097594256261484299 0 0.051227295585366033 0.0024895050208708939 0 0.051357906516723985 0.002303595133401583 0 0.051361329635905235 0.0023624239844869995 0 0.051596106975093217 0.0021234126313876027 0 0.052112709733899434 0.0016865735890920152 0 0.052906218939451521 0.0011566424607903595 0 0.052112709733899434 0.0016865735890920152 0 0.052313204170071431 0.0010968331320169993 0 0.05231396326448752 0.0011294625415349886 0 0.052635463894675119 0.00084231756917896414 0 0.052112709733899434 0.0016865735890920152 0 0.05146930891569422 0.0010004645063338806 0 0.052313204170071431 0.0010968331320169993 0 0.052635463894675119 0.00084231756917896414 0 0.052719440520927655 0.00070066611512174944 0 0.050135658511380389 0.0014382225869297165 0 0.050474608580096565 0.0011421592907456877 0 0.050614529221081075 0.001696071628186967 0 0.052906218939451521 0.0011566424607903595 0 0.053966755599172599 0.00041643418584467383 0 0.054765893769434068 0.00046825463219265058 0 0.054782016974493114 0.00032442635515132437 0 0.054917336922288069 0.00032104596561586618 0 0.054782016974493114 0.00032442635515132437 0 0.054917336922288069 0.00032104596561586618 0 0.054923174779612623 0.00019061965590354084 0 0.054773575851293152 0.00057596387174491928 0 0.054511050881557138 0.00070726474026489787 0 0.054575035200712718 0.00039776435214020837 0 0.054755272435065679 0.00098645359027757615 0 0.054773575851293152 0.00057596387174491928 0 0.054511050881557138 0.00070726474026489787 0 0.054301126283580053 0.00056666320845625575 0 0.054511050881557138 0.00070726474026489787 0 0.054575035200712718 0.00039776435214020837 0 0.054301126283580053 0.00056666320845625575 0 0.054121710394346031 0.00072464669515997691 0 0.05427406604953891 0.0008243192001862427 0 0.054301126283580053 0.00056666320845625575 0 0.054511050881557138 0.00070726474026489787 0 0.05427406604953891 0.0008243192001862427 0 0.054133011025768986 0.00051893584335878015 0 0.053936160252384353 0.00072191051049475951 0 0.053942194347674617 0.0004922278272686708 0 0.054301126283580053 0.00056666320845625575 0 0.054133011025768986 0.00051893584335878015 0 0.054121710394346031 0.00072464669515997691 0 0.054133011025768986 0.00051893584335878015 0 0.054121710394346031 0.00072464669515997691 0 0.053936160252384353 0.00072191051049475951 0 0.053936160252384353 0.00072191051049475951 0 0.05370998462405209 0.00090472481144612392 0 0.053739989742128833 0.00071804062702050342 0 0.05370998462405209 0.00090472481144612392 0 0.053975185144869965 0.00088574786268243795 0 0.053796591193021208 0.00099256627336548895 0 0.053936160252384353 0.00072191051049475951 0 0.05370998462405209 0.00090472481144612392 0 0.053975185144869965 0.00088574786268243795 0 0.054121710394346031 0.00072464669515997691 0 0.053936160252384353 0.00072191051049475951 0 0.053975185144869965 0.00088574786268243795 0 0.053975185144869965 0.00088574786268243795 0 0.053865554634289103 0.0010810562162995333 0 0.054151383739173171 0.00099925719156041242 0 0.053975185144869965 0.00088574786268243795 0 0.053865554634289103 0.0010810562162995333 0 0.053796591193021208 0.00099256627336548895 0 0.05370998462405209 0.00090472481144612392 0 0.053796591193021208 0.00099256627336548895 0 0.053626210165754397 0.0011222008636486837 0 0.053865554634289103 0.0010810562162995333 0 0.053796591193021208 0.00099256627336548895 0 0.053626210165754397 0.0011222008636486837 0 0.054511050881557138 0.00070726474026489787 0 0.05427406604953891 0.0008243192001862427 0 0.054433440197546722 0.00097594256261484299 0 0.054121710394346031 0.00072464669515997691 0 0.053975185144869965 0.00088574786268243795 0 0.05427406604953891 0.0008243192001862427 0 0.053975185144869965 0.00088574786268243795 0 0.05427406604953891 0.0008243192001862427 0 0.054151383739173171 0.00099925719156041242 0 0.053865554634289103 0.0010810562162995333 0 0.054151383739173171 0.00099925719156041242 0 0.054045692848028709 0.0011578353290958702 0 0.054151383739173171 0.00099925719156041242 0 0.054246186272299643 0.0011558852824780385 0 0.054045692848028709 0.0011578353290958702 0 0.05427406604953891 0.0008243192001862427 0 0.054151383739173171 0.00099925719156041242 0 0.054433440197546722 0.00097594256261484299 0 0.054151383739173171 0.00099925719156041242 0 0.054433440197546722 0.00097594256261484299 0 0.054246186272299643 0.0011558852824780385 0 0.054433440197546722 0.00097594256261484299 0 0.054246186272299643 0.0011558852824780385 0 0.054322431021270455 0.0013552318395471932 0 0.054246186272299643 0.0011558852824780385 0 0.054128262957490209 0.0012737095151493176 0 0.054322431021270455 0.0013552318395471932 0 0.054246186272299643 0.0011558852824780385 0 0.054045692848028709 0.0011578353290958702 0 0.054128262957490209 0.0012737095151493176 0 0.054045692848028709 0.0011578353290958702 0 0.053979491623417072 0.0012852162511052469 0 0.054128262957490209 0.0012737095151493176 0 0.053979491623417072 0.0012852162511052469 0 0.054128262957490209 0.0012737095151493176 0 0.054068647250098807 0.0013491814284440921 0 0.054045692848028709 0.0011578353290958702 0 0.053979491623417072 0.0012852162511052469 0 0.053853706264954455 0.0012228536306529384 0 0.054128262957490209 0.0012737095151493176 0 0.054134153225682484 0.0013815563619419689 0 0.054322431021270455 0.0013552318395471932 0 0.054134153225682484 0.0013815563619419689 0 0.053931615323814505 0.0015130939378854606 0 0.054322431021270455 0.0013552318395471932 0 0.054128262957490209 0.0012737095151493176 0 0.054068647250098807 0.0013491814284440921 0 0.054134153225682484 0.0013815563619419689 0 0.054068647250098807 0.0013491814284440921 0 0.054134153225682484 0.0013815563619419689 0 0.054029247505461578 0.0014107422417557888 0 0.053979491623417072 0.0012852162511052469 0 0.0539368621936583 0.0013906401870651161 0 0.053849587355077735 0.0013299057700290565 0 0.053979491623417072 0.0012852162511052469 0 0.054068647250098807 0.0013491814284440921 0 0.0539368621936583 0.0013906401870651161 0 0.054068647250098807 0.0013491814284440921 0 0.054029247505461578 0.0014107422417557888 0 0.0539368621936583 0.0013906401870651161 0 0.054134153225682484 0.0013815563619419689 0 0.054029247505461578 0.0014107422417557888 0 0.053931615323814505 0.0015130939378854606 0 0.054029247505461578 0.0014107422417557888 0 0.0539368621936583 0.0013906401870651161 0 0.053931615323814505 0.0015130939378854606 0 0.0539368621936583 0.0013906401870651161 0 0.053931615323814505 0.0015130939378854606 0 0.053793309718251969 0.0014482296697207967 0 0.050839426795313801 0.0029726175443316231 0 0.050802746124143421 0.002888984136026783 0 0.050838695575384639 0.003009487894479905 0 0.050881520051032372 0.0029768420336541454 0 0.050802746124143421 0.002888984136026783 0 0.051059144876109991 0.0028245990889436516 0 0.050839426795313801 0.0029726175443316231 0 0.050881520051032372 0.0029768420336541454 0 0.050802746124143421 0.002888984136026783 0 0.053626210165754397 0.0011222008636486837 0 0.053531688227786138 0.001294288036240871 0 0.053349603298001563 0.0012830992902792414 0 0.053865554634289103 0.0010810562162995333 0 0.053626210165754397 0.0011222008636486837 0 0.05369710483584153 0.0012172175133617639 0 0.053626210165754397 0.0011222008636486837 0 0.05369710483584153 0.0012172175133617639 0 0.053531688227786138 0.001294288036240871 0 0.05369710483584153 0.0012172175133617639 0 0.053702237321681112 0.0013333566695560154 0 0.053531688227786138 0.001294288036240871 0 0.05369710483584153 0.0012172175133617639 0 0.053853706264954455 0.0012228536306529384 0 0.053702237321681112 0.0013333566695560154 0 0.053865554634289103 0.0010810562162995333 0 0.05369710483584153 0.0012172175133617639 0 0.053853706264954455 0.0012228536306529384 0 0.053865554634289103 0.0010810562162995333 0 0.054045692848028709 0.0011578353290958702 0 0.053853706264954455 0.0012228536306529384 0 0.053853706264954455 0.0012228536306529384 0 0.053849587355077735 0.0013299057700290565 0 0.053702237321681112 0.0013333566695560154 0 0.053979491623417072 0.0012852162511052469 0 0.053853706264954455 0.0012228536306529384 0 0.053849587355077735 0.0013299057700290565 0 0.0539368621936583 0.0013906401870651161 0 0.053849587355077735 0.0013299057700290565 0 0.053793309718251969 0.0014482296697207967 0 0.053849587355077735 0.0013299057700290565 0 0.053793309718251969 0.0014482296697207967 0 0.053702237321681112 0.0013333566695560154 0 0.053931615323814505 0.0015130939378854606 0 0.053793309718251969 0.0014482296697207967 0 0.053784737484789839 0.0015363651465117624 0 0.053793309718251969 0.0014482296697207967 0 0.053667805258593416 0.0015549059123141544 0 0.053784737484789839 0.0015363651465117624 0 0.053649410327700806 0.0014493252911787029 0 0.05350851962455376 0.0015006247881539563 0 0.053667805258593416 0.0015549059123141544 0 0.053793309718251969 0.0014482296697207967 0 0.053649410327700806 0.0014493252911787029 0 0.053702237321681112 0.0013333566695560154 0 0.053793309718251969 0.0014482296697207967 0 0.053649410327700806 0.0014493252911787029 0 0.053667805258593416 0.0015549059123141544 0 0.053649410327700806 0.0014493252911787029 0 0.053702237321681112 0.0013333566695560154 0 0.053556462269214671 0.0013980303779269503 0 0.053702237321681112 0.0013333566695560154 0 0.053531688227786138 0.001294288036240871 0 0.053556462269214671 0.0013980303779269503 0 0.053531688227786138 0.001294288036240871 0 0.053556462269214671 0.0013980303779269503 0 0.053372976331262097 0.0014185138770101723 0 0.053556462269214671 0.0013980303779269503 0 0.053372976331262097 0.0014185138770101723 0 0.05350851962455376 0.0015006247881539563 0 0.053649410327700806 0.0014493252911787029 0 0.053556462269214671 0.0013980303779269503 0 0.05350851962455376 0.0015006247881539563 0 0.053531688227786138 0.001294288036240871 0 0.053372976331262097 0.0014185138770101723 0 0.053349603298001563 0.0012830992902792414 0 0.052275011306078749 0.0023547415302922932 0 0.052267726132307589 0.0020608237078872525 0 0.053255924898192364 0.0015959352410038195 0 0.053626273874989507 0.0017862604736720935 0 0.052638026519255067 0.0017452728020501112 0 0.050793073246263414 0.0030283040457402526 0 0.050893534146690109 0.0031155815321060993 0 0.052186111136829728 0.0019970184355312297 0 0.053255924898192364 0.0015959352410038195 0 0.053544261413281176 0.0016185842206634853 0 0.053626273874989507 0.0017862604736720935 0 0.053372976331262097 0.0014185138770101723 0 0.053255924898192364 0.0015959352410038195 0 0.05350851962455376 0.0015006247881539563 0 0.053255924898192364 0.0015959352410038195 0 0.05350851962455376 0.0015006247881539563 0 0.053544261413281176 0.0016185842206634853 0 0.050793073246263414 0.0030283040457402526 0 0.050893534146690109 0.0031155815321060993 0 0.050838695575384639 0.003009487894479905 0 0.053931615323814505 0.0015130939378854606 0 0.053730521777742124 0.001611093198572965 0 0.053626273874989507 0.0017862604736720935 0 0.053640980435306795 0.0016675554530052423 0 0.053730521777742124 0.001611093198572965 0 0.053626273874989507 0.0017862604736720935 0 0.053640980435306795 0.0016675554530052423 0 0.053544261413281176 0.0016185842206634853 0 0.053626273874989507 0.0017862604736720935 0 0.05350851962455376 0.0015006247881539563 0 0.053544261413281176 0.0016185842206634853 0 0.053667805258593416 0.0015549059123141544 0 0.053640980435306795 0.0016675554530052423 0 0.053667805258593416 0.0015549059123141544 0 0.053730521777742124 0.001611093198572965 0 0.053640980435306795 0.0016675554530052423 0 0.053544261413281176 0.0016185842206634853 0 0.053667805258593416 0.0015549059123141544 0 0.053931615323814505 0.0015130939378854606 0 0.053730521777742124 0.001611093198572965 0 0.053784737484789839 0.0015363651465117624 0 0.053667805258593416 0.0015549059123141544 0 0.053730521777742124 0.001611093198572965 0 0.053784737484789839 0.0015363651465117624 0 0.053931615323814505 0.0015130939378854606 0 0.054322431021270455 0.0013552318395471932 0 0.053626273874989507 0.0017862604736720935 0 0.050802746124143421 0.002888984136026783 0 0.050893534146690109 0.0031155815321060993 0 0.050838695575384639 0.003009487894479905 0 0.052566430351483999 0.0021703909645870941 0 0.052275011306078749 0.0023547415302922932 0 0.050881520051032372 0.0029768420336541454 0 0.050860297383479892 0.0030130517431359144 0 0.050848203485043195 0.0030015157132550264 0 0.050839426795313801 0.0029726175443316231 0 0.050881520051032372 0.0029768420336541454 0 0.050848203485043195 0.0030015157132550264 0 0.050839426795313801 0.0029726175443316231 0 0.050848203485043195 0.0030015157132550264 0 0.050838695575384639 0.003009487894479905 0 0.050793073246263414 0.0030283040457402526 0 0.050860297383479892 0.0030130517431359144 0 0.050848203485043195 0.0030015157132550264 0 0.050793073246263414 0.0030283040457402526 0 0.050848203485043195 0.0030015157132550264 0 0.050838695575384639 0.003009487894479905 0 0.050857513914145676 0.003037739180049257 0 0.050793073246263414 0.0030283040457402526 0 0.050860297383479892 0.0030130517431359144 0 0.050346478174083893 0.0028070016900635583 0 0.050727999948334455 0.0029962631402207394 0 0.050857513914145676 0.003037739180049257 0 0.050860297383479892 0.0030130517431359144 0 0.050894972572141685 0.0030040462756441549 0 0.04983727855757826 0.0025195559121424307 0 0.050312574002287051 0.002852023871544001 0 0.051128875545634153 0.0031315923010696045 0 0.050312574002287051 0.002852023871544001 0 0.050881520051032372 0.0029768420336541454 0 0.050860297383479892 0.0030130517431359144 0 0.050894972572141685 0.0030040462756441549 0 0.051227295585366033 0.0024895050208708939 0 0.051368636546947864 0.0023747781101115264 0 0.051365557638875764 0.0032545083996851267 0 0.050881520051032372 0.0029768420336541454 0 0.051365557638875764 0.0032545083996851267 0 0.051059144876109991 0.0028245990889436516 0 0.051227295585366033 0.0024895050208708939 0 0.051365557638875764 0.0032545083996851267 0 0.051059144876109991 0.0028245990889436516 0 0.052112709733899434 0.0016865735890920152 0 0.050312574002287051 0.002852023871544001 0 0.051227295585366033 0.0024895050208708939 0 0.051357906516723985 0.002303595133401583 0 0.050802746124143421 0.002888984136026783 0 0.052906218939451521 0.0011566424607903595 0 0.052566430351483999 0.0021703909645870941 0 0.051227295585366033 0.0024895050208708939 0 0.050802746124143421 0.002888984136026783 0 0.051059144876109991 0.0028245990889436516 0 0.050135658511380389 0.0014382225869297165 0 0.050144284831750568 0.0019651806246961845 0 0.050614529221081075 0.001696071628186967 0 0.050144284831750568 0.0019651806246961845 0 0.050550011259630594 0.0021839383266863983 0 0.050614529221081075 0.001696071628186967 0 0.049699792086164048 0.0025117678561910094 0 0.049717842790526136 0.0033537860264313407 0 0.048895686165551767 0.0029120829109263642 0 0.050312574002287051 0.002852023871544001 0 0.049899967456499841 0.0025484335617500728 0 0.050550011259630594 0.0021839383266863983 0 0.050892074454815556 0.0020357035045594821 0 0.050614529221081075 0.001696071628186967 0 0.050892074454815556 0.0020357035045594821 0 0.051133572566806763 0.0017365737801965308 0 0.051319675300176559 0.0021388115282606791 0 0.050892074454815556 0.0020357035045594821 0 0.051133572566806763 0.0017365737801965308 0 0.050614529221081075 0.001696071628186967 0 0.051321878971080342 0.0018335999856496248 0 0.050929041220777606 0.0013089208034626945 0 0.051133572566806763 0.0017365737801965308 0 0.050614529221081075 0.001696071628186967 0 0.050952461219161242 0.0013104689012478489 0 0.051317111194698069 0.0016220712225552788 0 0.049974697723069769 0.0023230882396790245 0 0.050835841177503754 0.0015522053079618963 0 0.050554494185140506 0.0020925748407201994 0 0.049823894698289399 0.0022418296552072703 0 0.05085815264540372 0.0016035432650356998 0 0.051014750840878476 0.0020076278286675093 0 0.050554494185140506 0.0020925748407201994 0 0.051558053738143816 0.0017599317803808881 0 0.05085815264540372 0.0016035432650356998 0 0.051014750840878476 0.0020076278286675093 0 0.050807809376840568 0.0024144841094632685 0 0.051014750840878476 0.0020076278286675093 0 0.050554494185140506 0.0020925748407201994 0 0.050807809376840568 0.0024144841094632685 0 0.05117510004419841 0.0024363197929735312 0 0.051014750840878476 0.0020076278286675093 0 0.051317111194698069 0.0016220712225552788 0 0.050762952801512128 0.002063303574848708 0 0.051953385378330635 0.002006025016215187 0 0.051490739024725896 0.002319698485219185 0 0.051644236777971503 0.0017112318246086614 0 0.051321878971080342 0.0018335999856496248 0 0.049974697723069769 0.0023230882396790245 0 0.051226422076062005 0.0018170283710875848 0 0.051490739024725896 0.002319698485219185 0 0.051644236777971503 0.0017112318246086614 0 0.051226422076062005 0.0018170283710875848 0 0.051644236777971503 0.0017112318246086614 0 0.051619970401059243 0.0012771684137981496 0 0.052246007654677566 0.0014572203009473777 0 0.051953385378330635 0.002006025016215187 0 0.051644236777971503 0.0017112318246086614 0 0.051808600568871675 0.0012064494160884227 0 0.051317111194698069 0.0016220712225552788 0 0.052246007654677566 0.0014572203009473777 0 0.051644236777971503 0.0017112318246086614 0 0.051619970401059243 0.0012771684137981496 0 0.052246007654677566 0.0014572203009473777 0 0.05216393006245032 0.0010366078189815546 0 0.051619970401059243 0.0012771684137981496 0 0.051619970401059243 0.0012771684137981496 0 0.051288951117447475 0.00093544559214805219 0 0.051886240273687829 0.00066703195083031737 0 0.05216393006245032 0.0010366078189815546 0 0.051619970401059243 0.0012771684137981496 0 0.051886240273687829 0.00066703195083031737 0 0.050474608580096565 0.0011421592907456877 0 0.050614529221081075 0.001696071628186967 0 0.050952461219161242 0.0013104689012478489 0 0.051226422076062005 0.0018170283710875848 0 0.051619970401059243 0.0012771684137981496 0 0.050952461219161242 0.0013104689012478489 0 0.051619970401059243 0.0012771684137981496 0 0.050952461219161242 0.0013104689012478489 0 0.051288951117447475 0.00093544559214805219 0 0.050952461219161242 0.0013104689012478489 0 0.051288951117447475 0.00093544559214805219 0 0.050843600631552598 0.00080799137964878613 0 0.05146930891569422 0.0010004645063338806 0 0.05186020233835472 0.00071188929266461905 0 0.052635463894675119 0.00084231756917896414 0 0.05295815175216266 0.0005580246340202617 0 0.052719440520927655 0.00070066611512174944 0 0.050474608580096565 0.0011421592907456877 0 0.050952461219161242 0.0013104689012478489 0 0.050843600631552598 0.00080799137964878613 0 0.054917336922288069 0.00032104596561586618 0 0.054923174779612623 0.00019061965590354084 0 0.055007579096708614 0.00017378249402341398 0 0.05295815175216266 0.0005580246340202617 0 0.052719440520927655 0.00070066611512174944 0 0.053128156937593214 0.00031057568855402266 0 0.053966755599172599 0.00041643418584467383 0 0.053928986724625434 0.00023137675153677345 0 0.05186020233835472 0.00071188929266461905 0 0.052617371294100143 0.00025798910287126882 0 0.05295815175216266 0.0005580246340202617 0 0.053283144986454145 0.00027702222445228275 0 0.053128156937593214 0.00031057568855402266 0 0.051288951117447475 0.00093544559214805219 0 0.050843600631552598 0.00080799137964878613 0 0.05125525110733635 0.00046168842680017845 0 0.053267996250785377 0.00017642250672669636 0 0.053211893618365508 0.00015473346053187717 0 0.053369997965884597 9.3153009343630938e-05 0 0.053283144986454145 0.00027702222445228275 0 0.05319849936840166 0.00024539463290464608 0 0.053128156937593214 0.00031057568855402266 0 0.052617371294100143 0.00025798910287126882 0 0.05373319189751357 0.00023207168181327338 0 0.05373319189751357 0.00023207168181327338 0 0.053928986724625434 0.00023137675153677345 0 0.055012979722401628 0.00015630736777346663 0 0.055007579096708614 0.00017378249402341398 0 0.055000788153547815 4.0884896418791346e-05 0 0.055012979722401628 0.00015630736777346663 0 0.055028493692789483 7.4953783515462267e-05 0 0.055000788153547815 4.0884896418791346e-05 0 0.055007579096708614 0.00017378249402341398 0 0.05495752083008134 6.7712739227278326e-05 0 0.055000788153547815 4.0884896418791346e-05 0 0.054923174779612623 0.00019061965590354084 0 0.055007579096708614 0.00017378249402341398 0 0.05495752083008134 6.7712739227278326e-05 0 0.05382026524803591 5.4596647310743273e-05 0 0.053596576584947098 0.00028402307081014611 0 0.053561976093875169 9.8616248600967875e-05 0 0.053596576584947098 0.00028402307081014611 0 0.053369997965884597 9.3153009343630938e-05 0 0.053561976093875169 9.8616248600967875e-05 0 0.051288951117447475 0.00093544559214805219 0 0.05125525110733635 0.00046168842680017845 0 0.051886240273687829 0.00066703195083031737 0 0.053265796434009124 0.00017575814818265257 0 0.053596576584947098 0.00028402307081014611 0 0.053369997965884597 9.3153009343630938e-05 0 0.052617371294100143 0.00025798910287126882 0 0.052608965289147228 0.00049519254828383325 0 0.052617371294100143 0.00025798910287126882 0 0.053275577646131562 -2.1414750399449412e-05 0 0.053211893618365508 0.00015473346053187717 0 0.053369997965884597 9.3153009343630938e-05 0 0.053443005690606123 -4.8454607290508897e-05 0 0.05373319189751357 0.00023207168181327338 0 0.054263243731328036 -1.3787111996135151e-05 0 0.053369997965884597 9.3153009343630938e-05 0 0.053443005690606123 -4.8454607290508897e-05 0 0.053561976093875169 9.8616248600967875e-05 0 0.05382026524803591 5.4596647310743273e-05 0 0.053561976093875169 9.8616248600967875e-05 0 0.053721530968336685 -0.00028706643327973419 0 0.053443005690606123 -4.8454607290508897e-05 0 0.053561976093875169 9.8616248600967875e-05 0 0.053721530968336685 -0.00028706643327973419 0 0.055028493692789483 7.4953783515462267e-05 0 0.055025488910539745 2.4186597291585612e-05 0 0.055012015733062199 2.4336189628453567e-05 0 0.054263243731328036 -1.3787111996135151e-05 0 0.054520999925655025 -8.2780125249618108e-05 0 0.055028493692789483 7.4953783515462267e-05 0 0.055012015733062199 2.4336189628453567e-05 0 0.055000788153547815 4.0884896418791346e-05 0 0.055012015733062199 2.4336189628453567e-05 0 0.055000788153547815 4.0884896418791346e-05 0 0.055000011888755765 2.2918115194654905e-08 0 0.055012015733062199 2.4336189628453567e-05 0 0.055000067689853605 1.7656169006851405e-08 0 0.055000011888755765 2.2918115194654905e-08 0 0.054520999925655025 -8.2780125249618108e-05 0 0.055000064312539565 2.0420239643424539e-07 0 0.054990135043136851 1.3003481455073172e-06 0 0.054990446541656933 -2.1595027106782055e-07 0 0.054999976235567974 2.7327477178871585e-09 0 0.055025488910539745 2.4186597291585612e-05 0 0.055012015733062199 2.4336189628453567e-05 0 0.055000067689853605 1.7656169006851405e-08 0 0.05495752083008134 6.7712739227278326e-05 0 0.055000788153547815 4.0884896418791346e-05 0 0.054999949226137733 9.1608927732510211e-09 0 0.055000788153547815 4.0884896418791346e-05 0 0.055000011888755765 2.2918115194654905e-08 0 0.054999949226137733 9.1608927732510211e-09 0 0.054999949226137733 9.1608927732510211e-09 0 0.054950783539771786 1.5440237577945436e-05 0 0.05499989573628232 -6.6300320520092074e-08 0 0.05495752083008134 6.7712739227278326e-05 0 0.054999949226137733 9.1608927732510211e-09 0 0.054950783539771786 1.5440237577945436e-05 0 0.054950783539771786 1.5440237577945436e-05 0 0.05499989573628232 -6.6300320520092074e-08 0 0.054851285867007368 3.3667594038015983e-05 0 0.05499989573628232 -6.6300320520092074e-08 0 0.054851285867007368 3.3667594038015983e-05 0 0.054722410148780258 -5.0479190083733349e-05 0 0.05495752083008134 6.7712739227278326e-05 0 0.054950783539771786 1.5440237577945436e-05 0 0.054851285867007368 3.3667594038015983e-05 0 0.054923174779612623 0.00019061965590354084 0 0.05495752083008134 6.7712739227278326e-05 0 0.054805785408083361 0.00022439969219924404 0 0.05495752083008134 6.7712739227278326e-05 0 0.054851285867007368 3.3667594038015983e-05 0 0.054805785408083361 0.00022439969219924404 0 0.054851285867007368 3.3667594038015983e-05 0 0.054805785408083361 0.00022439969219924404 0 0.05463533770397104 0.00015467373205499413 0 0.054829274817290739 0.00037074978783332584 0 0.054794325110128758 0.00027306625885637338 0 0.054805785408083361 0.00022439969219924404 0 0.054575035200712718 0.00039776435214020837 0 0.05463533770397104 0.00015467373205499413 0 0.054773575851293152 0.00057596387174491928 0 0.054805785408083361 0.00022439969219924404 0 0.054575035200712718 0.00039776435214020837 0 0.054782016974493114 0.00032442635515132437 0 0.054923174779612623 0.00019061965590354084 0 0.054805785408083361 0.00022439969219924404 0 0.054200088779132315 0.00031682709508802729 0 0.054385351427004756 0.00032684781040476804 0 0.054418877773862694 0.00014748831580208886 0 0.054133011025768986 0.00051893584335878015 0 0.054200088779132315 0.00031682709508802729 0 0.053942194347674617 0.0004922278272686708 0 0.054301126283580053 0.00056666320845625575 0 0.054133011025768986 0.00051893584335878015 0 0.054385351427004756 0.00032684781040476804 0 0.054133011025768986 0.00051893584335878015 0 0.054200088779132315 0.00031682709508802729 0 0.054385351427004756 0.00032684781040476804 0 0.054575035200712718 0.00039776435214020837 0 0.054385351427004756 0.00032684781040476804 0 0.05463533770397104 0.00015467373205499413 0 0.054301126283580053 0.00056666320845625575 0 0.054575035200712718 0.00039776435214020837 0 0.054385351427004756 0.00032684781040476804 0 0.054385351427004756 0.00032684781040476804 0 0.05463533770397104 0.00015467373205499413 0 0.054418877773862694 0.00014748831580208886 0 0.05463533770397104 0.00015467373205499413 0 0.054418877773862694 0.00014748831580208886 0 0.054722410148780258 -5.0479190083733349e-05 0 0.054200088779132315 0.00031682709508802729 0 0.054418877773862694 0.00014748831580208886 0 0.054118541981555669 0.00018128360888230546 0 0.054418877773862694 0.00014748831580208886 0 0.054252391989771005 6.0461763965024999e-06 0 0.054118541981555669 0.00018128360888230546 0 0.05472095893249667 -3.7662756434442068e-05 0 0.054575414913997922 -6.9796831072346053e-05 0 0.054418877773862694 0.00014748831580208886 0 0.054722410148780258 -5.0479190083733349e-05 0 0.054252391989771005 6.0461763965024999e-06 0 0.054722410148780258 -5.0479190083733349e-05 0 0.054123739117683915 -0.00011350306081392451 0 0.054252391989771005 6.0461763965024999e-06 0 0.054851285867007368 3.3667594038015983e-05 0 0.05463533770397104 0.00015467373205499413 0 0.054722410148780258 -5.0479190083733349e-05 0 0.05499989573628232 -6.6300320520092074e-08 0 0.054722410148780258 -5.0479190083733349e-05 0 0.054999568391109394 3.7457678447168473e-08 0 0.054722410148780258 -5.0479190083733349e-05 0 0.054999568391109394 3.7457678447168473e-08 0 0.054994406500410827 -8.1529339942302902e-06 0 0.054999568391109394 3.7457678447168473e-08 0 0.054994406500410827 -8.1529339942302902e-06 0 0.055000099884384424 -2.6390314337691341e-08 0 0.054123739117683915 -0.00011350306081392451 0 0.054353361654079051 -0.0001418385917043523 0 0.054997725936787797 2.7516987002675354e-07 0 0.054575414913997922 -6.9796831072346053e-05 0 0.054999833282034907 -1.6217490091355305e-08 0 0.054994406500410827 -8.1529339942302902e-06 0 0.055000099884384424 -2.6390314337691341e-08 0 0.054999954097029617 1.3419685146805017e-08 0 0.054123739117683915 -0.00011350306081392451 0 0.054178364814369148 -0.0001003152631115616 0 0.054353361654079051 -0.0001418385917043523 0 0.054178364814369148 -0.0001003152631115616 0 0.054353361654079051 -0.0001418385917043523 0 0.054134744566483047 -7.1276916959091516e-05 0 0.054178364814369148 -0.0001003152631115616 0 0.054134744566483047 -7.1276916959091516e-05 0 0.05413143325482539 1.4062603636839814e-05 0 0.054178364814369148 -0.0001003152631115616 0 0.054252391989771005 6.0461763965024999e-06 0 0.05413143325482539 1.4062603636839814e-05 0 0.054123739117683915 -0.00011350306081392451 0 0.054178364814369148 -0.0001003152631115616 0 0.054252391989771005 6.0461763965024999e-06 0 0.054758084640854077 -2.0416393716701601e-05 0 0.054987573010688795 -0.00014299614554543031 0 0.055000301215375323 -2.990866627693462e-09 0 0.054758084640854077 -2.0416393716701601e-05 0 0.054997725936787797 2.7516987002675354e-07 0 0.055000301215375323 -2.990866627693462e-09 0 0.054353361654079051 -0.0001418385917043523 0 0.054758084640854077 -2.0416393716701601e-05 0 0.054997725936787797 2.7516987002675354e-07 0 0.054353361654079051 -0.0001418385917043523 0 0.054758084640854077 -2.0416393716701601e-05 0 0.054205398725753473 -0.00021013485890135014 0 0.054353361654079051 -0.0001418385917043523 0 0.054134744566483047 -7.1276916959091516e-05 0 0.054205398725753473 -0.00021013485890135014 0 0.054758084640854077 -2.0416393716701601e-05 0 0.054205398725753473 -0.00021013485890135014 0 0.054987573010688795 -0.00014299614554543031 0 0.054205398725753473 -0.00021013485890135014 0 0.053288088015755714 0.00012597668240544904 0 0.052984958434769636 -0.00039103703252074933 0 0.054198225430952957 -0.00021982190311574745 0 0.053974286872080127 -0.00025431286254486271 0 0.054205398725753473 -0.00021013485890135014 0 0.053288088015755714 0.00012597668240544904 0 0.053628819927250791 0.0001698715304595062 0 0.053264513584120945 0.00028458999484858591 0 0.053288088015755714 0.00012597668240544904 0 0.053628819927250791 0.0001698715304595062 0 0.053264513584120945 0.00028458999484858591 0 0.053628819927250791 0.0001698715304595062 0 0.053438204299879784 0.0003314611870601237 0 0.053628819927250791 0.0001698715304595062 0 0.05361467733261658 0.00026439501986760686 0 0.053438204299879784 0.0003314611870601237 0 0.053628819927250791 0.0001698715304595062 0 0.05361467733261658 0.00026439501986760686 0 0.05390537363800716 8.2887858213226838e-05 0 0.054205398725753473 -0.00021013485890135014 0 0.053628819927250791 0.0001698715304595062 0 0.05390537363800716 8.2887858213226838e-05 0 0.054134744566483047 -7.1276916959091516e-05 0 0.054205398725753473 -0.00021013485890135014 0 0.05390537363800716 8.2887858213226838e-05 0 0.05361467733261658 0.00026439501986760686 0 0.05390537363800716 8.2887858213226838e-05 0 0.053720259098022478 0.00028511267770330256 0 0.053720259098022478 0.00028511267770330256 0 0.053529080969654926 0.00047704730289249502 0 0.05347361675762885 0.00040957928434385529 0 0.05347361675762885 0.00040957928434385529 0 0.053225778224975484 0.00050697055336659325 0 0.05329583001166302 0.00058675725839158399 0 0.053529080969654926 0.00047704730289249502 0 0.05347361675762885 0.00040957928434385529 0 0.05329583001166302 0.00058675725839158399 0 0.05361467733261658 0.00026439501986760686 0 0.053720259098022478 0.00028511267770330256 0 0.05347361675762885 0.00040957928434385529 0 0.05361467733261658 0.00026439501986760686 0 0.05347361675762885 0.00040957928434385529 0 0.053438204299879784 0.0003314611870601237 0 0.053259035083751002 0.00016345874127177343 0 0.053088246566904133 0.00067255804250089784 0 0.053264513584120945 0.00028458999484858591 0 0.053288088015755714 0.00012597668240544904 0 0.053082538012746795 0.00059501381129954613 0 0.053208187975803851 0.00032664847197966837 0 0.052983537886921159 0.00074921013945165383 0 0.053264513584120945 0.00028458999484858591 0 0.053225778224975484 0.00050697055336659325 0 0.052832931972148917 0.00071733426609014268 0 0.053264513584120945 0.00028458999484858591 0 0.053109132010406852 0.00076457334132717871 0 0.053082538012746795 0.00059501381129954613 0 0.053264513584120945 0.00028458999484858591 0 0.053438204299879784 0.0003314611870601237 0 0.053225778224975484 0.00050697055336659325 0 0.05347361675762885 0.00040957928434385529 0 0.053438204299879784 0.0003314611870601237 0 0.053225778224975484 0.00050697055336659325 0 0.054118541981555669 0.00018128360888230546 0 0.05413143325482539 1.4062603636839814e-05 0 0.053953703573334871 0.00014707392660108295 0 0.054118541981555669 0.00018128360888230546 0 0.053953703573334871 0.00014707392660108295 0 0.053866765264067695 0.00036972901608651749 0 0.054252391989771005 6.0461763965024999e-06 0 0.054118541981555669 0.00018128360888230546 0 0.05413143325482539 1.4062603636839814e-05 0 0.054134744566483047 -7.1276916959091516e-05 0 0.05413143325482539 1.4062603636839814e-05 0 0.053953703573334871 0.00014707392660108295 0 0.054134744566483047 -7.1276916959091516e-05 0 0.05390537363800716 8.2887858213226838e-05 0 0.053953703573334871 0.00014707392660108295 0 0.05390537363800716 8.2887858213226838e-05 0 0.053720259098022478 0.00028511267770330256 0 0.053953703573334871 0.00014707392660108295 0 0.053953703573334871 0.00014707392660108295 0 0.053753374488156598 0.00035237825505264527 0 0.053866765264067695 0.00036972901608651749 0 0.053720259098022478 0.00028511267770330256 0 0.053953703573334871 0.00014707392660108295 0 0.053753374488156598 0.00035237825505264527 0 0.053720259098022478 0.00028511267770330256 0 0.053529080969654926 0.00047704730289249502 0 0.053753374488156598 0.00035237825505264527 0 0.053529080969654926 0.00047704730289249502 0 0.053753374488156598 0.00035237825505264527 0 0.053523701271561405 0.00058410195051549201 0 0.053753374488156598 0.00035237825505264527 0 0.05369905892316526 0.0004972046858170015 0 0.053523701271561405 0.00058410195051549201 0 0.05369905892316526 0.0004972046858170015 0 0.053866765264067695 0.00036972901608651749 0 0.053736295407670248 0.0005847549481523361 0 0.053753374488156598 0.00035237825505264527 0 0.05369905892316526 0.0004972046858170015 0 0.053866765264067695 0.00036972901608651749 0 0.054200088779132315 0.00031682709508802729 0 0.054118541981555669 0.00018128360888230546 0 0.053942194347674617 0.0004922278272686708 0 0.054118541981555669 0.00018128360888230546 0 0.053866765264067695 0.00036972901608651749 0 0.053942194347674617 0.0004922278272686708 0 0.053866765264067695 0.00036972901608651749 0 0.053942194347674617 0.0004922278272686708 0 0.053736295407670248 0.0005847549481523361 0 0.053942194347674617 0.0004922278272686708 0 0.053736295407670248 0.0005847549481523361 0 0.053739989742128833 0.00071804062702050342 0 0.053571275169942756 0.0007649721615382493 0 0.053739989742128833 0.00071804062702050342 0 0.053562696618846536 0.00086246472931677729 0 0.053736295407670248 0.0005847549481523361 0 0.053571275169942756 0.0007649721615382493 0 0.053552072316434614 0.00066895898650900522 0 0.053736295407670248 0.0005847549481523361 0 0.053571275169942756 0.0007649721615382493 0 0.053739989742128833 0.00071804062702050342 0 0.053936160252384353 0.00072191051049475951 0 0.053942194347674617 0.0004922278272686708 0 0.053739989742128833 0.00071804062702050342 0 0.05370998462405209 0.00090472481144612392 0 0.053739989742128833 0.00071804062702050342 0 0.053562696618846536 0.00086246472931677729 0 0.05370998462405209 0.00090472481144612392 0 0.053562696618846536 0.00086246472931677729 0 0.053445772583302908 0.0010082847886236741 0 0.053571275169942756 0.0007649721615382493 0 0.053562696618846536 0.00086246472931677729 0 0.053391266358115141 0.00092918333199350093 0 0.053562696618846536 0.00086246472931677729 0 0.053445772583302908 0.0010082847886236741 0 0.053391266358115141 0.00092918333199350093 0 0.053445772583302908 0.0010082847886236741 0 0.053230874718573074 0.00109094500051404 0 0.053391266358115141 0.00092918333199350093 0 0.053445772583302908 0.0010082847886236741 0 0.053230874718573074 0.00109094500051404 0 0.053275153207002733 0.0011493600790117387 0 0.053445772583302908 0.0010082847886236741 0 0.053438685731240138 0.0011222350666233376 0 0.053275153207002733 0.0011493600790117387 0 0.05370998462405209 0.00090472481144612392 0 0.053626210165754397 0.0011222008636486837 0 0.053438685731240138 0.0011222350666233376 0 0.05370998462405209 0.00090472481144612392 0 0.053445772583302908 0.0010082847886236741 0 0.053438685731240138 0.0011222350666233376 0 0.053211536247591305 0.0010144405564419087 0 0.053038469001350348 0.0011038054680898386 0 0.053027849983058116 0.0011953519477310084 0 0.053211536247591305 0.0010144405564419087 0 0.053230874718573074 0.00109094500051404 0 0.053027849983058116 0.0011953519477310084 0 0.053211536247591305 0.0010144405564419087 0 0.053230874718573074 0.00109094500051404 0 0.053391266358115141 0.00092918333199350093 0 0.053571275169942756 0.0007649721615382493 0 0.053391266358115141 0.00092918333199350093 0 0.053377608580418248 0.00084583771889225421 0 0.053211536247591305 0.0010144405564419087 0 0.053391266358115141 0.00092918333199350093 0 0.053377608580418248 0.00084583771889225421 0 0.053211536247591305 0.0010144405564419087 0 0.053196980395526276 0.00093383415755036645 0 0.053377608580418248 0.00084583771889225421 0 0.053211536247591305 0.0010144405564419087 0 0.053196980395526276 0.00093383415755036645 0 0.053038469001350348 0.0011038054680898386 0 0.053369639974463992 0.00075498239879093893 0 0.053377608580418248 0.00084583771889225421 0 0.053552072316434614 0.00066895898650900522 0 0.053196980395526276 0.00093383415755036645 0 0.053369639974463992 0.00075498239879093893 0 0.053377608580418248 0.00084583771889225421 0 0.053571275169942756 0.0007649721615382493 0 0.053377608580418248 0.00084583771889225421 0 0.053552072316434614 0.00066895898650900522 0 0.05369905892316526 0.0004972046858170015 0 0.053552072316434614 0.00066895898650900522 0 0.053523701271561405 0.00058410195051549201 0 0.05369905892316526 0.0004972046858170015 0 0.053736295407670248 0.0005847549481523361 0 0.053552072316434614 0.00066895898650900522 0 0.053369639974463992 0.00075498239879093893 0 0.053552072316434614 0.00066895898650900522 0 0.053523701271561405 0.00058410195051549201 0 0.053369639974463992 0.00075498239879093893 0 0.053523701271561405 0.00058410195051549201 0 0.053351591315071903 0.00066365740657463367 0 0.053529080969654926 0.00047704730289249502 0 0.053523701271561405 0.00058410195051549201 0 0.053351591315071903 0.00066365740657463367 0 0.053529080969654926 0.00047704730289249502 0 0.053351591315071903 0.00066365740657463367 0 0.05329583001166302 0.00058675725839158399 0 0.053351591315071903 0.00066365740657463367 0 0.05329583001166302 0.00058675725839158399 0 0.053147169515615336 0.00075518938308021834 0 0.05329583001166302 0.00058675725839158399 0 0.053147169515615336 0.00075518938308021834 0 0.053065150631318322 0.000687814910266612 0 0.053147169515615336 0.00075518938308021834 0 0.053183532648170669 0.00084504415999677601 0 0.052996486394389752 0.00093101622261778207 0 0.053351591315071903 0.00066365740657463367 0 0.053147169515615336 0.00075518938308021834 0 0.053183532648170669 0.00084504415999677601 0 0.053196980395526276 0.00093383415755036645 0 0.053369639974463992 0.00075498239879093893 0 0.053183532648170669 0.00084504415999677601 0 0.053369639974463992 0.00075498239879093893 0 0.053351591315071903 0.00066365740657463367 0 0.053183532648170669 0.00084504415999677601 0 0.053225778224975484 0.00050697055336659325 0 0.05329583001166302 0.00058675725839158399 0 0.053065150631318322 0.000687814910266612 0 0.053225778224975484 0.00050697055336659325 0 0.052832931972148917 0.00071733426609014268 0 0.053065150631318322 0.000687814910266612 0 0.053147169515615336 0.00075518938308021834 0 0.052894223591218537 0.00086096546410593206 0 0.052996486394389752 0.00093101622261778207 0 0.053147169515615336 0.00075518938308021834 0 0.053065150631318322 0.000687814910266612 0 0.052894223591218537 0.00086096546410593206 0 0.052832931972148917 0.00071733426609014268 0 0.053065150631318322 0.000687814910266612 0 0.052894223591218537 0.00086096546410593206 0 0.052832931972148917 0.00071733426609014268 0 0.052894223591218537 0.00086096546410593206 0 0.052546076948441454 0.0011778129538624492 0 0.052894223591218537 0.00086096546410593206 0 0.05282150828125589 0.0010221747898837789 0 0.052546076948441454 0.0011778129538624492 0 0.05282150828125589 0.0010221747898837789 0 0.052872633323523072 0.0010933345059696493 0 0.052996486394389752 0.00093101622261778207 0 0.052894223591218537 0.00086096546410593206 0 0.05282150828125589 0.0010221747898837789 0 0.052996486394389752 0.00093101622261778207 0 0.05282150828125589 0.0010221747898837789 0 0.052872633323523072 0.0010933345059696493 0 0.052722829558432042 0.0011624019602350338 0 0.052872633323523072 0.0010933345059696493 0 0.052722829558432042 0.0011624019602350338 0 0.052735048594166618 0.0012521565239280686 0 0.05282150828125589 0.0010221747898837789 0 0.052722829558432042 0.0011624019602350338 0 0.052546076948441454 0.0011778129538624492 0 0.053196980395526276 0.00093383415755036645 0 0.053183532648170669 0.00084504415999677601 0 0.053042809910215663 0.0010108058478145471 0 0.053196980395526276 0.00093383415755036645 0 0.053042809910215663 0.0010108058478145471 0 0.053038469001350348 0.0011038054680898386 0 0.052872633323523072 0.0010933345059696493 0 0.053042809910215663 0.0010108058478145471 0 0.052996486394389752 0.00093101622261778207 0 0.053183532648170669 0.00084504415999677601 0 0.053042809910215663 0.0010108058478145471 0 0.052996486394389752 0.00093101622261778207 0 0.052872633323523072 0.0010933345059696493 0 0.053042809910215663 0.0010108058478145471 0 0.052885252613377662 0.0011835195342355699 0 0.052872633323523072 0.0010933345059696493 0 0.052885252613377662 0.0011835195342355699 0 0.052735048594166618 0.0012521565239280686 0 0.053042809910215663 0.0010108058478145471 0 0.052885252613377662 0.0011835195342355699 0 0.053038469001350348 0.0011038054680898386 0 0.052885252613377662 0.0011835195342355699 0 0.053038469001350348 0.0011038054680898386 0 0.052874713440873376 0.0012836126498401617 0 0.052885252613377662 0.0011835195342355699 0 0.052874713440873376 0.0012836126498401617 0 0.052738498434017511 0.001344286268508569 0 0.052885252613377662 0.0011835195342355699 0 0.052738498434017511 0.001344286268508569 0 0.052735048594166618 0.0012521565239280686 0 0.052738498434017511 0.001344286268508569 0 0.05262369642000337 0.0013713206670996814 0 0.052621710572795785 0.0014524124848017412 0 0.052874713440873376 0.0012836126498401617 0 0.052738498434017511 0.001344286268508569 0 0.05269216418432373 0.0014688436298540661 0 0.052643863419156792 0.0012678052239372493 0 0.052561845774179723 0.0013439696131515228 0 0.052546076948441454 0.0011778129538624492 0 0.052722829558432042 0.0011624019602350338 0 0.052643863419156792 0.0012678052239372493 0 0.052546076948441454 0.0011778129538624492 0 0.052643863419156792 0.0012678052239372493 0 0.052735048594166618 0.0012521565239280686 0 0.05262369642000337 0.0013713206670996814 0 0.052722829558432042 0.0011624019602350338 0 0.052643863419156792 0.0012678052239372493 0 0.052735048594166618 0.0012521565239280686 0 0.052738498434017511 0.001344286268508569 0 0.052735048594166618 0.0012521565239280686 0 0.05262369642000337 0.0013713206670996814 0 0.052643863419156792 0.0012678052239372493 0 0.05262369642000337 0.0013713206670996814 0 0.052561845774179723 0.0013439696131515228 0 0.05262369642000337 0.0013713206670996814 0 0.052561845774179723 0.0013439696131515228 0 0.052538257832578483 0.0014284993148582302 0 0.05262369642000337 0.0013713206670996814 0 0.052538257832578483 0.0014284993148582302 0 0.052538578785651095 0.0014599754190026638 0 0.052538257832578483 0.0014284993148582302 0 0.052538578785651095 0.0014599754190026638 0 0.052499374636770624 0.001468417009563284 0 0.05262369642000337 0.0013713206670996814 0 0.052538578785651095 0.0014599754190026638 0 0.052621710572795785 0.0014524124848017412 0 0.052538578785651095 0.0014599754190026638 0 0.052482184995456253 0.0014794668661217887 0 0.052490362407143581 0.0014979491278979281 0 0.052538578785651095 0.0014599754190026638 0 0.052621710572795785 0.0014524124848017412 0 0.052490362407143581 0.0014979491278979281 0 0.052482184995456253 0.0014794668661217887 0 0.052499374636770624 0.001468417009563284 0 0.052475214288435372 0.0014672662873126629 0 0.052538578785651095 0.0014599754190026638 0 0.052482184995456253 0.0014794668661217887 0 0.052499374636770624 0.001468417009563284 0 0.05269216418432373 0.0014688436298540661 0 0.052621710572795785 0.0014524124848017412 0 0.052513777546443777 0.0015582851561731198 0 0.052738498434017511 0.001344286268508569 0 0.05269216418432373 0.0014688436298540661 0 0.052621710572795785 0.0014524124848017412 0 0.052621710572795785 0.0014524124848017412 0 0.052490362407143581 0.0014979491278979281 0 0.052513777546443777 0.0015582851561731198 0 0.05269216418432373 0.0014688436298540661 0 0.052513777546443777 0.0015582851561731198 0 0.052646076992532022 0.0015791372795819197 0 0.052513777546443777 0.0015582851561731198 0 0.052646076992532022 0.0015791372795819197 0 0.052394914178295164 0.0017361060149770572 0 0.052646076992532022 0.0015791372795819197 0 0.052638026519255067 0.0017452728020501112 0 0.052394914178295164 0.0017361060149770572 0 0.05269216418432373 0.0014688436298540661 0 0.052646076992532022 0.0015791372795819197 0 0.052848605179824253 0.001385401145271255 0 0.052646076992532022 0.0015791372795819197 0 0.052885896372468724 0.0014671975152664915 0 0.052848605179824253 0.001385401145271255 0 0.052646076992532022 0.0015791372795819197 0 0.052638026519255067 0.0017452728020501112 0 0.052885896372468724 0.0014671975152664915 0 0.053626273874989507 0.0017862604736720935 0 0.052638026519255067 0.0017452728020501112 0 0.052186111136829728 0.0019970184355312297 0 0.053255924898192364 0.0015959352410038195 0 0.052638026519255067 0.0017452728020501112 0 0.053067664453146084 0.0014640792444420461 0 0.053372976331262097 0.0014185138770101723 0 0.053255924898192364 0.0015959352410038195 0 0.053067664453146084 0.0014640792444420461 0 0.052638026519255067 0.0017452728020501112 0 0.052885896372468724 0.0014671975152664915 0 0.053067664453146084 0.0014640792444420461 0 0.052885896372468724 0.0014671975152664915 0 0.053158498141392223 0.0012935275544559714 0 0.053077513470447868 0.0012398360332770031 0 0.052885896372468724 0.0014671975152664915 0 0.053067664453146084 0.0014640792444420461 0 0.053158498141392223 0.0012935275544559714 0 0.053067664453146084 0.0014640792444420461 0 0.053349603298001563 0.0012830992902792414 0 0.053158498141392223 0.0012935275544559714 0 0.053372976331262097 0.0014185138770101723 0 0.053067664453146084 0.0014640792444420461 0 0.053349603298001563 0.0012830992902792414 0 0.053349603298001563 0.0012830992902792414 0 0.053438685731240138 0.0011222350666233376 0 0.053158498141392223 0.0012935275544559714 0 0.053626210165754397 0.0011222008636486837 0 0.053349603298001563 0.0012830992902792414 0 0.053438685731240138 0.0011222350666233376 0 0.053158498141392223 0.0012935275544559714 0 0.053275153207002733 0.0011493600790117387 0 0.053077513470447868 0.0012398360332770031 0 0.053438685731240138 0.0011222350666233376 0 0.053158498141392223 0.0012935275544559714 0 0.053275153207002733 0.0011493600790117387 0 0.053230874718573074 0.00109094500051404 0 0.053077513470447868 0.0012398360332770031 0 0.053027849983058116 0.0011953519477310084 0 0.053077513470447868 0.0012398360332770031 0 0.053027849983058116 0.0011953519477310084 0 0.052848605179824253 0.001385401145271255 0 0.053230874718573074 0.00109094500051404 0 0.053275153207002733 0.0011493600790117387 0 0.053077513470447868 0.0012398360332770031 0 0.052874713440873376 0.0012836126498401617 0 0.053027849983058116 0.0011953519477310084 0 0.052848605179824253 0.001385401145271255 0 0.053038469001350348 0.0011038054680898386 0 0.052874713440873376 0.0012836126498401617 0 0.053027849983058116 0.0011953519477310084 0 0.052874713440873376 0.0012836126498401617 0 0.05269216418432373 0.0014688436298540661 0 0.052848605179824253 0.001385401145271255 0 0.052885896372468724 0.0014671975152664915 0 0.053077513470447868 0.0012398360332770031 0 0.052848605179824253 0.001385401145271255 0 0.051469655584421944 0.001424090349963152 0 0.051466672283251816 0.0016553529983063028 0 0.051756642317464768 0.0015263002386600739 0 0.052028706702160754 0.0017784709774035733 0 0.051783056182430537 0.001268252840479331 0 0.051469655584421944 0.001424090349963152 0 0.051756642317464768 0.0015263002386600739 0 0.051635656157009525 0.0011783806779483265 0 0.051469655584421944 0.001424090349963152 0 0.051236496005108545 0.0016103152727774748 0 0.051211300921601866 0.0012190007625929281 0 0.051469655584421944 0.001424090349963152 0 0.051236496005108545 0.0016103152727774748 0 0.051466672283251816 0.0016553529983063028 0 0.051236496005108545 0.0016103152727774748 0 0.051466672283251816 0.0016553529983063028 0 0.051309139647685124 0.0018055237697884587 0 0.051466672283251816 0.0016553529983063028 0 0.0515736631349034 0.0018881818327989609 0 0.051309139647685124 0.0018055237697884587 0 0.051466672283251816 0.0016553529983063028 0 0.051756642317464768 0.0015263002386600739 0 0.0515736631349034 0.0018881818327989609 0 0.052028706702160754 0.0017784709774035733 0 0.052337687980549413 0.0020620631956383296 0 0.051756642317464768 0.0015263002386600739 0 0.051927756515004614 0.0018558470114018687 0 0.051778501883459137 0.0018678326644665886 0 0.051756642317464768 0.0015263002386600739 0 0.051778501883459137 0.0018678326644665886 0 0.0515736631349034 0.0018881818327989609 0 0.052761743535869821 0.0019747245388013193 0 0.052303513587693175 0.0019850981752711446 0 0.052630590684385942 0.0025454050841557719 0 0.052468389895395817 0.0014696401360045313 0 0.052475214288435372 0.0014672662873126629 0 0.052480848840236689 0.0014532207552437725 0 0.052896481827651963 0.0016950631532959908 0 0.052823456059637078 0.0015305094443191774 0 0.052721000261624011 0.0019643568588691221 0 0.05282066930990513 0.0017825819396367793 0 0.052337687980549413 0.0020620631956383296 0 0.052499374636770624 0.001468417009563284 0 0.052468389895395817 0.0014696401360045313 0 0.052475214288435372 0.0014672662873126629 0 0.052538257832578483 0.0014284993148582302 0 0.052499374636770624 0.001468417009563284 0 0.052468389895395817 0.0014696401360045313 0 0.052561845774179723 0.0013439696131515228 0 0.052538257832578483 0.0014284993148582302 0 0.052468389895395817 0.0014696401360045313 0 0.052896481827651963 0.0016950631532959908 0 0.052823456059637078 0.0015305094443191774 0 0.052994408617730325 0.0012417951029825311 0 0.052561845774179723 0.0013439696131515228 0 0.052468389895395817 0.0014696401360045313 0 0.052546076948441454 0.0011778129538624492 0 0.052702075982644793 0.0015792900948002465 0 0.052777067494549683 0.001214144355849117 0 0.052761743535869821 0.0019747245388013193 0 0.052504549543064966 0.0016079589127405021 0 0.052912064792974639 0.0013770988578983767 0 0.052823456059637078 0.0015305094443191774 0 0.052994408617730325 0.0012417951029825311 0 0.052940392316023988 0.0010720113477083854 0 0.05282066930990513 0.0017825819396367793 0 0.052925078748621616 0.0012203761360630502 0 0.052303513587693175 0.0019850981752711446 0 0.052504549543064966 0.0016079589127405021 0 0.051940348585738955 0.0013989966502930501 0 0.052761743535869821 0.0019747245388013193 0 0.052303513587693175 0.0019850981752711446 0 0.052504549543064966 0.0016079589127405021 0 0.052504549543064966 0.0016079589127405021 0 0.052562728422159831 0.0012827280166522661 0 0.051940348585738955 0.0013989966502930501 0 0.052983537886921159 0.00074921013945165383 0 0.052777067494549683 0.001214144355849117 0 0.053109132010406852 0.00076457334132717871 0 0.052994408617730325 0.0012417951029825311 0 0.052940392316023988 0.0010720113477083854 0 0.052504549543064966 0.0016079589127405021 0 0.052562728422159831 0.0012827280166522661 0 0.052912064792974639 0.0013770988578983767 0 0.053109132010406852 0.00076457334132717871 0 0.052940392316023988 0.0010720113477083854 0 0.053082538012746795 0.00059501381129954613 0 0.052912064792974639 0.0013770988578983767 0 0.052748768947201312 0.0010149296284539346 0 0.053075774402523021 0.00076052064710768438 0 0.052748768947201312 0.0010149296284539346 0 0.053075774402523021 0.00076052064710768438 0 0.052621411577641927 0.00066465229694400807 0 0.052925078748621616 0.0012203761360630502 0 0.053088246566904133 0.00067255804250089784 0 0.052562728422159831 0.0012827280166522661 0 0.052912064792974639 0.0013770988578983767 0 0.052748768947201312 0.0010149296284539346 0 0.052562728422159831 0.0012827280166522661 0 0.052440186528067721 0.00094695133787491741 0 0.051940348585738955 0.0013989966502930501 0 0.052562728422159831 0.0012827280166522661 0 0.052748768947201312 0.0010149296284539346 0 0.052440186528067721 0.00094695133787491741 0 0.052748768947201312 0.0010149296284539346 0 0.052440186528067721 0.00094695133787491741 0 0.052621411577641927 0.00066465229694400807 0 0.052440186528067721 0.00094695133787491741 0 0.051940348585738955 0.0013989966502930501 0 0.052088618274279644 0.00057777879278159713 0 0.051940348585738955 0.0013989966502930501 0 0.051546390288787887 0.00075347650123490427 0 0.052088618274279644 0.00057777879278159713 0 0.051469655584421944 0.001424090349963152 0 0.051635656157009525 0.0011783806779483265 0 0.051211300921601866 0.0012190007625929281 0 0.051783056182430537 0.001268252840479331 0 0.05155080451052732 0.00078431212391983794 0 0.051635656157009525 0.0011783806779483265 0 0.051546390288787887 0.00075347650123490427 0 0.051211300921601866 0.0012190007625929281 0 0.051546390288787887 0.00075347650123490427 0 0.051869792510384899 0.00012125220034620296 0 0.051404460144273946 0.00033292743617156166 0 0.051546390288787887 0.00075347650123490427 0 0.051404460144273946 0.00033292743617156166 0 0.051152855306169996 0.0007018076755159903 0 0.051546390288787887 0.00075347650123490427 0 0.052088618274279644 0.00057777879278159713 0 0.051869792510384899 0.00012125220034620296 0 0.052088618274279644 0.00057777879278159713 0 0.051869792510384899 0.00012125220034620296 0 0.052484092581973361 0.00028873549800024974 0 0.051869792510384899 0.00012125220034620296 0 0.051404460144273946 0.00033292743617156166 0 0.051217383122806485 -6.6374303160675679e-05 0 0.053075774402523021 0.00076052064710768438 0 0.052888299254066073 0.00038324568902802354 0 0.052621411577641927 0.00066465229694400807 0 0.053288088015755714 0.00012597668240544904 0 0.053075774402523021 0.00076052064710768438 0 0.052888299254066073 0.00038324568902802354 0 0.052888299254066073 0.00038324568902802354 0 0.052621411577641927 0.00066465229694400807 0 0.052484092581973361 0.00028873549800024974 0 0.052440186528067721 0.00094695133787491741 0 0.052088618274279644 0.00057777879278159713 0 0.052621411577641927 0.00066465229694400807 0 0.052088618274279644 0.00057777879278159713 0 0.052621411577641927 0.00066465229694400807 0 0.052484092581973361 0.00028873549800024974 0 0.051869792510384899 0.00012125220034620296 0 0.052487286704679809 -7.9886766689021257e-05 0 0.052484092581973361 0.00028873549800024974 0 0.052487286704679809 -7.9886766689021257e-05 0 0.052484092581973361 0.00028873549800024974 0 0.052860021034046932 3.4764996175522173e-05 0 0.052888299254066073 0.00038324568902802354 0 0.052484092581973361 0.00028873549800024974 0 0.052860021034046932 3.4764996175522173e-05 0 0.053288088015755714 0.00012597668240544904 0 0.052860021034046932 3.4764996175522173e-05 0 0.052984958434769636 -0.00039103703252074933 0 0.053288088015755714 0.00012597668240544904 0 0.052888299254066073 0.00038324568902802354 0 0.052860021034046932 3.4764996175522173e-05 0 0.052487286704679809 -7.9886766689021257e-05 0 0.052860021034046932 3.4764996175522173e-05 0 0.052984958434769636 -0.00039103703252074933 0 0.052487286704679809 -7.9886766689021257e-05 0 0.052984958434769636 -0.00039103703252074933 0 0.052245556420970951 -0.00037131670513210966 0 0.054987573010688795 -0.00014299614554543031 0 0.055004861021584847 -3.3815381744424084e-05 0 0.055006075734411831 -4.0531313386593418e-05 0 0.053974286872080127 -0.00025431286254486271 0 0.053665559084002487 -0.000201610649939764 0 0.055006075734411831 -4.0531313386593418e-05 0 0.055000301215375323 -2.990866627693462e-09 0 0.054999943055828789 -5.8190431881900869e-08 0 0.055004861021584847 -3.3815381744424084e-05 0 0.055006075734411831 -4.0531313386593418e-05 0 0.054999943055828789 -5.8190431881900869e-08 0 0.054987573010688795 -0.00014299614554543031 0 0.055006075734411831 -4.0531313386593418e-05 0 0.055000301215375323 -2.990866627693462e-09 0 0.051869792510384899 0.00012125220034620296 0 0.051582625423612485 -0.00039216748746648478 0 0.051217383122806485 -6.6374303160675679e-05 0 0.055004861021584847 -3.3815381744424084e-05 0 0.054990633485889492 -4.1663981057043416e-06 0 0.055000481918553147 -1.2502773983824209e-05 0 0.051869792510384899 0.00012125220034620296 0 0.052245556420970951 -0.00037131670513210966 0 0.051582625423612485 -0.00039216748746648478 0 0.051869792510384899 0.00012125220034620296 0 0.052487286704679809 -7.9886766689021257e-05 0 0.052245556420970951 -0.00037131670513210966 0 0.053665559084002487 -0.000201610649939764 0 0.053116943318420783 -0.00024963335663834746 0 0.055000481918553147 -1.2502773983824209e-05 0 0.054999943055828789 -5.8190431881900869e-08 0 0.05500001056583697 2.9499356478435952e-08 0 0.055004861021584847 -3.3815381744424084e-05 0 0.055000481918553147 -1.2502773983824209e-05 0 0.054999943055828789 -5.8190431881900869e-08 0 0.054990633485889492 -4.1663981057043416e-06 0 0.055000481918553147 -1.2502773983824209e-05 0 0.05500001056583697 2.9499356478435952e-08 0 0.054990633485889492 -4.1663981057043416e-06 0 0.05500001056583697 2.9499356478435952e-08 0 0.055005983888695549 1.866100904242762e-05 0 0.054990633485889492 -4.1663981057043416e-06 0 0.055002787920125133 1.3996257046298923e-05 0 0.055005983888695549 1.866100904242762e-05 0 0.05500001056583697 2.9499356478435952e-08 0 0.055005983888695549 1.866100904242762e-05 0 0.055000032048507112 -3.1761052887194563e-08 0 0.053116943318420783 -0.00024963335663834746 0 0.053747693602823499 0.00014090651404918245 0 0.051582625423612485 -0.00039216748746648478 0 0.051217383122806485 -6.6374303160675679e-05 0 0.0509637231871558 -0.00044081199786062691 0 0.053747693602823499 0.00014090651404918245 0 0.05258109401835976 0.00017759162771075135 0 0.051217383122806485 -6.6374303160675679e-05 0 0.0509637231871558 -0.00044081199786062691 0 0.050866089949230017 0.0002434335873842361 0 0.054584026613259125 0.00014767717787839022 0 0.054594268554241057 0.00013425261186079439 0 0.054554678962141112 0.00022157603762396148 0 0.055011528398553229 4.9027935911428669e-05 0 0.055000032048507112 -3.1761052887194563e-08 0 0.054840660504654914 7.1467012931086566e-05 0 0.053747693602823499 0.00014090651404918245 0 0.054145043649871091 -1.7084444650348088e-05 0 0.055011528398553229 4.9027935911428669e-05 0 0.055005983888695549 1.866100904242762e-05 0 0.055000032048507112 -3.1761052887194563e-08 0 0.055000032048507112 -3.1761052887194563e-08 0 0.054999460864521219 1.1078109779661899e-07 0 0.054840660504654914 7.1467012931086566e-05 0 0.053747693602823499 0.00014090651404918245 0 0.055283684982305181 8.3404286734379963e-05 0 0.054999460864521219 1.1078109779661899e-07 0 0.054840660504654914 7.1467012931086566e-05 0 0.054802816842477606 5.2953802677988393e-05 0 0.054840660504654914 7.1467012931086566e-05 0 0.054802816842477606 5.2953802677988393e-05 0 0.054654181778435444 0.00011316835040179021 0 0.054654181778435444 0.00011316835040179021 0 0.054398390735254112 0.00022060353317923139 0 0.054693732160679347 6.3378764799054547e-05 0 0.054654181778435444 0.00011316835040179021 0 0.054594268554241057 0.00013425261186079439 0 0.054398390735254112 0.00022060353317923139 0 0.054584026613259125 0.00014767717787839022 0 0.054840660504654914 7.1467012931086566e-05 0 0.054594268554241057 0.00013425261186079439 0 0.054840660504654914 7.1467012931086566e-05 0 0.054654181778435444 0.00011316835040179021 0 0.054594268554241057 0.00013425261186079439 0 0.054594268554241057 0.00013425261186079439 0 0.054297260514837666 0.00036563793811871171 0 0.054554678962141112 0.00022157603762396148 0 0.054594268554241057 0.00013425261186079439 0 0.054398390735254112 0.00022060353317923139 0 0.054297260514837666 0.00036563793811871171 0 0.054398390735254112 0.00022060353317923139 0 0.054023422041688057 0.00050226992277849279 0 0.054297260514837666 0.00036563793811871171 0 0.051152855306169996 0.0007018076755159903 0 0.050866089949230017 0.0002434335873842361 0 0.050821447776098955 0.0008874815597522906 0 0.05258109401835976 0.00017759162771075135 0 0.05255774737214372 0.00072441334858050152 0 0.054297260514837666 0.00036563793811871171 0 0.054554678962141112 0.00022157603762396148 0 0.054273486021624961 0.00058259004339976806 0 0.051404460144273946 0.00033292743617156166 0 0.051152855306169996 0.0007018076755159903 0 0.050866089949230017 0.0002434335873842361 0 0.051404460144273946 0.00033292743617156166 0 0.051217383122806485 -6.6374303160675679e-05 0 0.050866089949230017 0.0002434335873842361 0 0.05470191897157075 7.1933558852214333e-05 0 0.054347296608875252 0.00018454305325760388 0 0.054528296547411745 0.00011717927182828515 0 0.054999712861404586 6.2025501167328069e-08 0 0.05470191897157075 7.1933558852214333e-05 0 0.054528296547411745 0.00011717927182828515 0 0.054999712861404586 6.2025501167328069e-08 0 0.05470191897157075 7.1933558852214333e-05 0 0.05499949149232327 3.5855401002019245e-08 0 0.05470191897157075 7.1933558852214333e-05 0 0.054467564689844296 0.00015018166387728297 0 0.054347296608875252 0.00018454305325760388 0 0.05470191897157075 7.1933558852214333e-05 0 0.054693732160679347 6.3378764799054547e-05 0 0.054467564689844296 0.00015018166387728297 0 0.05470191897157075 7.1933558852214333e-05 0 0.05499949149232327 3.5855401002019245e-08 0 0.054693732160679347 6.3378764799054547e-05 0 0.054802816842477606 5.2953802677988393e-05 0 0.05499949149232327 3.5855401002019245e-08 0 0.054693732160679347 6.3378764799054547e-05 0 0.054999460864521219 1.1078109779661899e-07 0 0.054802816842477606 5.2953802677988393e-05 0 0.05499949149232327 3.5855401002019245e-08 0 0.054802816842477606 5.2953802677988393e-05 0 0.054654181778435444 0.00011316835040179021 0 0.054693732160679347 6.3378764799054547e-05 0 0.054398390735254112 0.00022060353317923139 0 0.054693732160679347 6.3378764799054547e-05 0 0.054027674272349044 0.00031897110915676943 0 0.054023422041688057 0.00050226992277849279 0 0.054027674272349044 0.00031897110915676943 0 0.053603651496423092 0.00066691382505837025 0 0.054398390735254112 0.00022060353317923139 0 0.054023422041688057 0.00050226992277849279 0 0.054027674272349044 0.00031897110915676943 0 0.05422335635168013 0.00029147627064302864 0 0.053723416834256944 0.00060559464766023739 0 0.054398393321066781 0.00025544959893014733 0 0.054136641646000128 0.0002941948451141622 0 0.053850731334561933 0.00055294870094214888 0 0.054467564689844296 0.00015018166387728297 0 0.054398393321066781 0.00025544959893014733 0 0.054136641646000128 0.0002941948451141622 0 0.054620396673228204 8.5037787731128325e-05 0 0.05422335635168013 0.00029147627064302864 0 0.054693732160679347 6.3378764799054547e-05 0 0.054467564689844296 0.00015018166387728297 0 0.054398393321066781 0.00025544959893014733 0 0.054467564689844296 0.00015018166387728297 0 0.054136641646000128 0.0002941948451141622 0 0.054347296608875252 0.00018454305325760388 0 0.054136641646000128 0.0002941948451141622 0 0.053912951327787284 0.00035386001123797572 0 0.053724665735153117 0.00047764651032973558 0 0.053912951327787284 0.00035386001123797572 0 0.054347296608875252 0.00018454305325760388 0 0.054528296547411745 0.00011717927182828515 0 0.054136641646000128 0.0002941948451141622 0 0.053912951327787284 0.00035386001123797572 0 0.054347296608875252 0.00018454305325760388 0 0.053065206374235854 0.00080554464916228854 0 0.05340626108955409 0.00065958172702342271 0 0.053125956001300143 0.00079827669889464268 0 0.053065206374235854 0.00080554464916228854 0 0.053464827085949414 0.00057622677270167196 0 0.05340626108955409 0.00065958172702342271 0 0.053912951327787284 0.00035386001123797572 0 0.053464827085949414 0.00057622677270167196 0 0.053724665735153117 0.00047764651032973558 0 0.053464827085949414 0.00057622677270167196 0 0.053724665735153117 0.00047764651032973558 0 0.05340626108955409 0.00065958172702342271 0 0.054136641646000128 0.0002941948451141622 0 0.053724665735153117 0.00047764651032973558 0 0.053850731334561933 0.00055294870094214888 0 0.053724665735153117 0.00047764651032973558 0 0.05340626108955409 0.00065958172702342271 0 0.053850731334561933 0.00055294870094214888 0 0.05340626108955409 0.00065958172702342271 0 0.053381305195772395 0.00073591079563959207 0 0.053850731334561933 0.00055294870094214888 0 0.05340626108955409 0.00065958172702342271 0 0.053125956001300143 0.00079827669889464268 0 0.053381305195772395 0.00073591079563959207 0 0.053125956001300143 0.00079827669889464268 0 0.053381305195772395 0.00073591079563959207 0 0.053079575264674793 0.00091151737685773483 0 0.053381305195772395 0.00073591079563959207 0 0.053850731334561933 0.00055294870094214888 0 0.053294913045190288 0.00099084209826576816 0 0.053603651496423092 0.00066691382505837025 0 0.053578126944991422 0.00084720366543673885 0 0.053294913045190288 0.00099084209826576816 0 0.053723416834256944 0.00060559464766023739 0 0.053355152585168132 0.0009693244728145999 0 0.054023422041688057 0.00050226992277849279 0 0.053603651496423092 0.00066691382505837025 0 0.053772317811617162 0.00076646870423559244 0 0.053772317811617162 0.00076646870423559244 0 0.053578126944991422 0.00084720366543673885 0 0.053611815136140689 0.00097212611201676383 0 0.053603651496423092 0.00066691382505837025 0 0.053772317811617162 0.00076646870423559244 0 0.053578126944991422 0.00084720366543673885 0 0.053578126944991422 0.00084720366543673885 0 0.053493632584517913 0.00098219582287739659 0 0.053611815136140689 0.00097212611201676383 0 0.053493632584517913 0.00098219582287739659 0 0.053611815136140689 0.00097212611201676383 0 0.053465368368661684 0.0011122928855636705 0 0.053611815136140689 0.00097212611201676383 0 0.05359075539030958 0.0011572622972399814 0 0.053465368368661684 0.0011122928855636705 0 0.05359075539030958 0.0011572622972399814 0 0.053465368368661684 0.0011122928855636705 0 0.053514915057069984 0.0012697130015398386 0 0.053465368368661684 0.0011122928855636705 0 0.053288605822176302 0.0012354149477038939 0 0.053514915057069984 0.0012697130015398386 0 0.053465368368661684 0.0011122928855636705 0 0.053288605822176302 0.0012354149477038939 0 0.053294913045190288 0.00099084209826576816 0 0.053288605822176302 0.0012354149477038939 0 0.053294913045190288 0.00099084209826576816 0 0.053079575264674793 0.00091151737685773483 0 0.053493632584517913 0.00098219582287739659 0 0.053465368368661684 0.0011122928855636705 0 0.053294913045190288 0.00099084209826576816 0 0.053578126944991422 0.00084720366543673885 0 0.053493632584517913 0.00098219582287739659 0 0.053294913045190288 0.00099084209826576816 0 0.053381305195772395 0.00073591079563959207 0 0.053294913045190288 0.00099084209826576816 0 0.053079575264674793 0.00091151737685773483 0 0.053125956001300143 0.00079827669889464268 0 0.053079575264674793 0.00091151737685773483 0 0.052760061320210487 0.00091639633843136159 0 0.053079575264674793 0.00091151737685773483 0 0.052315351435481064 0.00095566731754494726 0 0.052760061320210487 0.00091639633843136159 0 0.052573056361410742 0.0010321119438392024 0 0.052970968491004591 0.00085970329210659799 0 0.051842693236815847 0.000910803095084868 0 0.053079575264674793 0.00091151737685773483 0 0.052315351435481064 0.00095566731754494726 0 0.051842693236815847 0.000910803095084868 0 0.052315351435481064 0.00095566731754494726 0 0.051561614668511509 0.00090176808511732232 0 0.052315351435481064 0.00095566731754494726 0 0.052338076034354912 0.00099392506707156954 0 0.052760061320210487 0.00091639633843136159 0 0.052315351435481064 0.00095566731754494726 0 0.052338076034354912 0.00099392506707156954 0 0.051561614668511509 0.00090176808511732232 0 0.052338076034354912 0.00099392506707156954 0 0.052760061320210487 0.00091639633843136159 0 0.052831437303516943 0.00093091762150525922 0 0.053065206374235854 0.00080554464916228854 0 0.052760061320210487 0.00091639633843136159 0 0.052831437303516943 0.00093091762150525922 0 0.053065206374235854 0.00080554464916228854 0 0.053125956001300143 0.00079827669889464268 0 0.052760061320210487 0.00091639633843136159 0 0.051211300921601866 0.0012190007625929281 0 0.050821447776098955 0.0008874815597522906 0 0.050793480078421605 0.0014175849001757744 0 0.05255774737214372 0.00072441334858050152 0 0.052269616401110358 0.0011588338180439659 0 0.051152855306169996 0.0007018076755159903 0 0.051211300921601866 0.0012190007625929281 0 0.050821447776098955 0.0008874815597522906 0 0.051546390288787887 0.00075347650123490427 0 0.051152855306169996 0.0007018076755159903 0 0.051211300921601866 0.0012190007625929281 0 0.054297260514837666 0.00036563793811871171 0 0.054273486021624961 0.00058259004339976806 0 0.053947238362816487 0.00068493773690239982 0 0.054023422041688057 0.00050226992277849279 0 0.054297260514837666 0.00036563793811871171 0 0.053947238362816487 0.00068493773690239982 0 0.054023422041688057 0.00050226992277849279 0 0.053772317811617162 0.00076646870423559244 0 0.053947238362816487 0.00068493773690239982 0 0.053772317811617162 0.00076646870423559244 0 0.053947238362816487 0.00068493773690239982 0 0.053633811185947539 0.00089024281655106208 0 0.053772317811617162 0.00076646870423559244 0 0.053611815136140689 0.00097212611201676383 0 0.053633811185947539 0.00089024281655106208 0 0.054273486021624961 0.00058259004339976806 0 0.053947238362816487 0.00068493773690239982 0 0.053756256650421844 0.00095678365174455861 0 0.053947238362816487 0.00068493773690239982 0 0.053633811185947539 0.00089024281655106208 0 0.053756256650421844 0.00095678365174455861 0 0.053633811185947539 0.00089024281655106208 0 0.05321191612108378 0.0012127721909719947 0 0.053756256650421844 0.00095678365174455861 0 0.053633811185947539 0.00089024281655106208 0 0.05321191612108378 0.0012127721909719947 0 0.052636194184671185 0.0014689740962182229 0 0.053561601058725435 0.00095618785299500205 0 0.053171384719975748 0.001365791634993524 0 0.053611815136140689 0.00097212611201676383 0 0.053633811185947539 0.00089024281655106208 0 0.053725031295618085 0.0011438220893374607 0 0.053611815136140689 0.00097212611201676383 0 0.05359075539030958 0.0011572622972399814 0 0.053725031295618085 0.0011438220893374607 0 0.05359075539030958 0.0011572622972399814 0 0.053725031295618085 0.0011438220893374607 0 0.053630627899461936 0.0012859205916599735 0 0.05321191612108378 0.0012127721909719947 0 0.052830808651545193 0.0015563849572544015 0 0.053756256650421844 0.00095678365174455861 0 0.05321191612108378 0.0012127721909719947 0 0.052636194184671185 0.0014689740962182229 0 0.052830808651545193 0.0015563849572544015 0 0.051851532017210121 0.00164499095958536 0 0.052269616401110358 0.0011588338180439659 0 0.050895637119216817 0.0018903275628222615 0 0.050977438268807504 0.0016690454816490916 0 0.050793480078421605 0.0014175849001757744 0 0.050895637119216817 0.0018903275628222615 0 0.050977438268807504 0.0016690454816490916 0 0.050995088523942481 0.001803888729503071 0 0.051211300921601866 0.0012190007625929281 0 0.050977438268807504 0.0016690454816490916 0 0.050793480078421605 0.0014175849001757744 0 0.051236496005108545 0.0016103152727774748 0 0.051211300921601866 0.0012190007625929281 0 0.050977438268807504 0.0016690454816490916 0 0.051236496005108545 0.0016103152727774748 0 0.050977438268807504 0.0016690454816490916 0 0.050995088523942481 0.001803888729503071 0 0.051236496005108545 0.0016103152727774748 0 0.050995088523942481 0.001803888729503071 0 0.051309139647685124 0.0018055237697884587 0 0.050995088523942481 0.001803888729503071 0 0.050812613681436046 0.0019371318626068756 0 0.051263884119893015 0.0020893862272665454 0 0.050812613681436046 0.0019371318626068756 0 0.050323943141301786 0.0014988708188922054 0 0.05031858637685762 0.001653414371193678 0 0.050820612173330705 0.0019254132658780164 0 0.050826321019981219 0.0018661283815042304 0 0.050812613681436046 0.0019371318626068756 0 0.050323943141301786 0.0014988708188922054 0 0.050753369514506451 0.0016226454858066345 0 0.050812613681436046 0.0019371318626068756 0 0.051360919218922357 0.0018268008748922664 0 0.050753369514506451 0.0016226454858066345 0 0.050895637119216817 0.0018903275628222615 0 0.050812613681436046 0.0019371318626068756 0 0.051360919218922357 0.0018268008748922664 0 0.050895637119216817 0.0018903275628222615 0 0.050995088523942481 0.001803888729503071 0 0.050812613681436046 0.0019371318626068756 0 0.051851532017210121 0.00164499095958536 0 0.051457521828852236 0.0017420684167472036 0 0.052636194184671185 0.0014689740962182229 0 0.052830808651545193 0.0015563849572544015 0 0.051680906963429876 0.0018955128562835098 0 0.053725031295618085 0.0011438220893374607 0 0.053630627899461936 0.0012859205916599735 0 0.053717912952866334 0.0014537573337677823 0 0.053171384719975748 0.001365791634993524 0 0.052835244163442457 0.0016350955409117562 0 0.053630627899461936 0.0012859205916599735 0 0.0535845789235775 0.0014231872834185374 0 0.053717912952866334 0.0014537573337677823 0 0.0535845789235775 0.0014231872834185374 0 0.053717912952866334 0.0014537573337677823 0 0.053579723289850806 0.0015848926046620737 0 0.051680906963429876 0.0018955128562835098 0 0.051360919218922357 0.0018268008748922664 0 0.051135445196559569 0.0015374670225991492 0 0.052830808651545193 0.0015563849572544015 0 0.051680906963429876 0.0018955128562835098 0 0.051360919218922357 0.0018268008748922664 0 0.051680906963429876 0.0018955128562835098 0 0.051135445196559569 0.0015374670225991492 0 0.051570379705728267 0.0011310254799207174 0 0.051360919218922357 0.0018268008748922664 0 0.051135445196559569 0.0015374670225991492 0 0.050753369514506451 0.0016226454858066345 0 0.053717912952866334 0.0014537573337677823 0 0.053579723289850806 0.0015848926046620737 0 0.053697713394094022 0.0017376351819885392 0 0.052835244163442457 0.0016350955409117562 0 0.051845333161199186 0.0016503830364913402 0 0.053579723289850806 0.0015848926046620737 0 0.053697713394094022 0.0017376351819885392 0 0.053526486140032269 0.0017421574494499198 0 0.051498512158231501 0.0027353314111957737 0 0.050797477180918017 0.0027364008550169218 0 0.051061212137509415 0.0033125596313361982 0 0.051845333161199186 0.0016503830364913402 0 0.052362646805830394 0.0022349636330273198 0 0.051135445196559569 0.0015374670225991492 0 0.051570379705728267 0.0011310254799207174 0 0.050386467722383373 0.0013471505881134881 0 0.049734354351508574 0.0013726365380814873 0 0.050386467722383373 0.0013471505881134881 0 0.049947134568322199 0.0016021288121348032 0 0.051845333161199186 0.0016503830364913402 0 0.049926629163093025 0.0012525812598256688 0 0.050386467722383373 0.0013471505881134881 0 0.050064879697251125 0.0015653972511923055 0 0.049947134568322199 0.0016021288121348032 0 0.050386467722383373 0.0013471505881134881 0 0.05013156331216978 0.0015057248763444496 0 0.050064879697251125 0.0015653972511923055 0 0.050386467722383373 0.0013471505881134881 0 0.05013156331216978 0.0015057248763444496 0 0.050323943141301786 0.0014988708188922054 0 0.05013156331216978 0.0015057248763444496 0 0.050134582819977493 0.0015434022835305158 0 0.050323943141301786 0.0014988708188922054 0 0.05013156331216978 0.0015057248763444496 0 0.050134582819977493 0.0015434022835305158 0 0.049925406424471734 0.0016307312193165845 0 0.051135445196559569 0.0015374670225991492 0 0.050386467722383373 0.0013471505881134881 0 0.050753369514506451 0.0016226454858066345 0 0.050386467722383373 0.0013471505881134881 0 0.050323943141301786 0.0014988708188922054 0 0.050753369514506451 0.0016226454858066345 0 0.050706892390297881 0.00097882816173052909 0 0.051561614668511509 0.00090176808511732232 0 0.051934622777008208 0.00096917961604432441 0 0.052338076034354912 0.00099392506707156954 0 0.051561614668511509 0.00090176808511732232 0 0.051934622777008208 0.00096917961604432441 0 0.051842693236815847 0.000910803095084868 0 0.051561614668511509 0.00090176808511732232 0 0.051294607295790398 0.0012085697620494928 0 0.050706892390297881 0.00097882816173052909 0 0.051561614668511509 0.00090176808511732232 0 0.051294607295790398 0.0012085697620494928 0 0.050706892390297881 0.00097882816173052909 0 0.051294607295790398 0.0012085697620494928 0 0.050295985096204525 0.0017885312120677816 0 0.053317480023696219 0.0014714148144901785 0 0.053436892726078759 0.0013803203445050406 0 0.053486860764356582 0.001514020757829885 0 0.052573056361410742 0.0010321119438392024 0 0.052437363011627283 0.0012814724929663917 0 0.053288605822176302 0.0012354149477038939 0 0.053317480023696219 0.0014714148144901785 0 0.053436892726078759 0.0013803203445050406 0 0.053288605822176302 0.0012354149477038939 0 0.053514915057069984 0.0012697130015398386 0 0.053436892726078759 0.0013803203445050406 0 0.05359075539030958 0.0011572622972399814 0 0.053630627899461936 0.0012859205916599735 0 0.053514915057069984 0.0012697130015398386 0 0.053630627899461936 0.0012859205916599735 0 0.0535845789235775 0.0014231872834185374 0 0.053514915057069984 0.0012697130015398386 0 0.0535845789235775 0.0014231872834185374 0 0.053514915057069984 0.0012697130015398386 0 0.053436892726078759 0.0013803203445050406 0 0.0535845789235775 0.0014231872834185374 0 0.053436892726078759 0.0013803203445050406 0 0.053486860764356582 0.001514020757829885 0 0.0535845789235775 0.0014231872834185374 0 0.053579723289850806 0.0015848926046620737 0 0.053486860764356582 0.001514020757829885 0 0.053317480023696219 0.0014714148144901785 0 0.053486860764356582 0.001514020757829885 0 0.053449549222427929 0.0016319095166408199 0 0.053579723289850806 0.0015848926046620737 0 0.053486860764356582 0.001514020757829885 0 0.053449549222427929 0.0016319095166408199 0 0.053579723289850806 0.0015848926046620737 0 0.053449549222427929 0.0016319095166408199 0 0.053526486140032269 0.0017421574494499198 0 0.050797477180918017 0.0027364008550169218 0 0.050124828714408855 0.003021346302715857 0 0.05058832480581494 0.0033247542648764125 0 0.050797477180918017 0.0027364008550169218 0 0.050073696109770957 0.0027228372203708996 0 0.050124828714408855 0.003021346302715857 0 0.052362646805830394 0.0022349636330273198 0 0.051237456432668096 0.0026015597819654982 0 0.053449549222427929 0.0016319095166408199 0 0.053526486140032269 0.0017421574494499198 0 0.053341554464543306 0.0017484332437466771 0 0.050797477180918017 0.0027364008550169218 0 0.05058832480581494 0.0033247542648764125 0 0.051061212137509415 0.0033125596313361982 0 0.051237456432668096 0.0026015597819654982 0 0.04972597104799837 0.0027656165735990839 0 0.049987281109949218 0.0028596131388142444 0 0.049831056095350351 0.0029182086826094063 0 0.04987192629134065 0.0027228940995247717 0 0.049987281109949218 0.0028596131388142444 0 0.050124828714408855 0.003021346302715857 0 0.049831056095350351 0.0029182086826094063 0 0.051237456432668096 0.0026015597819654982 0 0.050783820015967866 0.0028172794113338596 0 0.050124828714408855 0.003021346302715857 0 0.049831056095350351 0.0029182086826094063 0 0.049479340922618881 0.0032628728591405773 0 0.051294607295790398 0.0012085697620494928 0 0.051247268678760338 0.0027762183561417892 0 0.04987192629134065 0.0027228940995247717 0 0.053317480023696219 0.0014714148144901785 0 0.053449549222427929 0.0016319095166408199 0 0.053341554464543306 0.0017484332437466771 0 0.052437363011627283 0.0012814724929663917 0 0.051237456432668096 0.0026015597819654982 0 0.051294607295790398 0.0012085697620494928 0 0.050295985096204525 0.0017885312120677816 0 0.04987192629134065 0.0027228940995247717 0 0.04987192629134065 0.0027228940995247717 0 0.048643874380141304 0.0031790781662559583 0 0.049479340922618881 0.0032628728591405773 0 0.049831056095350351 0.0029182086826094063 0 0.04987192629134065 0.0027228940995247717 0 0.049479340922618881 0.0032628728591405773 0 0.04987192629134065 0.0027228940995247717 0 0.048643874380141304 0.0031790781662559583 0 0.049097226863211989 0.0023646952716139228 0 0.050706892390297881 0.00097882816173052909 0 0.050295985096204525 0.0017885312120677816 0 0.049097226863211989 0.0023646952716139228 0 0.050295985096204525 0.0017885312120677816 0 0.04987192629134065 0.0027228940995247717 0 0.049097226863211989 0.0023646952716139228 0 0.047573839625010161 0.0035845729303724074 0 0.047741474103592738 0.0042459893180463735 0 0.048021890496352151 0.0034543076413789172 0 0.048643874380141304 0.0031790781662559583 0 0.047741474103592738 0.0042459893180463735 0 0.048021890496352151 0.0034543076413789172 0 0.048643874380141304 0.0031790781662559583 0 0.049479340922618881 0.0032628728591405773 0 0.047741474103592738 0.0042459893180463735 0 0.049479340922618881 0.0032628728591405773 0 0.047741474103592738 0.0042459893180463735 0 0.049824217859000312 0.0041748462408746721 0 0.047741474103592738 0.0042459893180463735 0 0.044696872806612845 0.0051937430422220885 0 0.045975805802162192 0.0034058007492671406 0 0.047646585305805594 0.0043701957403336497 0 0.047230123545180087 0.004603303458019777 0 0.047573839625010161 0.0035845729303724074 0 0.047741474103592738 0.0042459893180463735 0 0.045975805802162192 0.0034058007492671406 0 0.044696872806612845 0.0051937430422220885 0 0.042464217482664407 0.0052094855358099275 0 0.043594658240197086 0.003627704614823095 0 0.044696872806612845 0.0051937430422220885 0 0.043594658240197086 0.003627704614823095 0 0.045975805802162192 0.0034058007492671406 0 0.049479340922618881 0.0032628728591405773 0 0.049824217859000312 0.0041748462408746721 0 0.050171899635076893 0.0035510089877520178 0 0.049824217859000312 0.0041748462408746721 0 0.050171899635076893 0.0035510089877520178 0 0.050699477110567111 0.0039459806819987673 0 0.050124828714408855 0.003021346302715857 0 0.049479340922618881 0.0032628728591405773 0 0.050171899635076893 0.0035510089877520178 0 0.050171899635076893 0.0035510089877520178 0 0.05058832480581494 0.0033247542648764125 0 0.050699477110567111 0.0039459806819987673 0 0.050124828714408855 0.003021346302715857 0 0.050171899635076893 0.0035510089877520178 0 0.05058832480581494 0.0033247542648764125 0 0.05058832480581494 0.0033247542648764125 0 0.050699477110567111 0.0039459806819987673 0 0.051061212137509415 0.0033125596313361982 0 0.042464217482664407 0.0052094855358099275 0 0.042330805917873637 0.0034926808342620203 0 0.043594658240197086 0.003627704614823095 0 0.042464217482664407 0.0052094855358099275 0 0.042330805917873637 0.0034926808342620203 0 0.041616697234196712 0.0039714685137905185 0 0.047230123545180087 0.004603303458019777 0 0.04658059283570911 0.0046226463298517616 0 0.042330805917873637 0.0034926808342620203 0 0.042560959215472281 0.002751689429445479 0 0.043594658240197086 0.003627704614823095 0 0.042560959215472281 0.002751689429445479 0 0.041463057915945505 0.0027938848634250831 0 0.04190146769149164 0.0019077098656708313 0 0.042560959215472281 0.002751689429445479 0 0.043682447198854731 0.0021150193840697401 0 0.04190146769149164 0.0019077098656708313 0 0.042330805917873637 0.0034926808342620203 0 0.042560959215472281 0.002751689429445479 0 0.041463057915945505 0.0027938848634250831 0 0.042560959215472281 0.002751689429445479 0 0.043682447198854731 0.0021150193840697401 0 0.043594658240197086 0.003627704614823095 0 0.043682447198854731 0.0021150193840697401 0 0.043594658240197086 0.003627704614823095 0 0.045975805802162192 0.0034058007492671406 0 0.045975805802162192 0.0034058007492671406 0 0.046027120159107461 0.0024851585406694223 0 0.046893571035592697 0.0029525838428313377 0 0.043682447198854731 0.0021150193840697401 0 0.045975805802162192 0.0034058007492671406 0 0.046027120159107461 0.0024851585406694223 0 0.043682447198854731 0.0021150193840697401 0 0.046027120159107461 0.0024851585406694223 0 0.046081749236115271 0.0016082520030247642 0 0.046027120159107461 0.0024851585406694223 0 0.047020234227990405 0.0023495836100074999 0 0.046893571035592697 0.0029525838428313377 0 0.047020234227990405 0.0023495836100074999 0 0.046893571035592697 0.0029525838428313377 0 0.047487724322726799 0.0030082233450027434 0 0.046027120159107461 0.0024851585406694223 0 0.047020234227990405 0.0023495836100074999 0 0.046081749236115271 0.0016082520030247642 0 0.047573839625010161 0.0035845729303724074 0 0.046893571035592697 0.0029525838428313377 0 0.047487724322726799 0.0030082233450027434 0 0.047573839625010161 0.0035845729303724074 0 0.045975805802162192 0.0034058007492671406 0 0.046893571035592697 0.0029525838428313377 0 0.039549831861893092 0.0039240858253603798 0 0.040144236495825533 0.0043334481762709008 0 0.039711666940467551 0.0036382361358431271 0 0.040144236495825533 0.0043334481762709008 0 0.040261144257404693 0.0040242472431590475 0 0.039711666940467551 0.0036382361358431271 0 0.039549831861893092 0.0039240858253603798 0 0.040144236495825533 0.0043334481762709008 0 0.039416575732530303 0.0042748878593606493 0 0.039549831861893092 0.0039240858253603798 0 0.039194701487022275 0.0034825826261122212 0 0.039098934625255426 0.003784616553341791 0 0.039549831861893092 0.0039240858253603798 0 0.039098934625255426 0.003784616553341791 0 0.039416575732530303 0.0042748878593606493 0 0.044624311507643552 0.0030273849098255159 0 0.045328852775903636 0.002591828503989865 0 0.04968314103576419 0.0017623532997820598 0 0.049836774943446953 0.0016370467407338489 0 0.049522946619197122 0.0017582989120167093 0 0.04968314103576419 0.0017623532997820598 0 0.049918038003871922 0.0016346189013753294 0 0.049836774943446953 0.0016370467407338489 0 0.04968314103576419 0.0017623532997820598 0 0.049925406424471734 0.0016307312193165845 0 0.049930051365926056 0.0018558596697146907 0 0.04968314103576419 0.0017623532997820598 0 0.049925406424471734 0.0016307312193165845 0 0.049918038003871922 0.0016346189013753294 0 0.05013156331216978 0.0015057248763444496 0 0.049918038003871922 0.0016346189013753294 0 0.050064879697251125 0.0015653972511923055 0 0.05013156331216978 0.0015057248763444496 0 0.049925406424471734 0.0016307312193165845 0 0.049918038003871922 0.0016346189013753294 0 0.049918038003871922 0.0016346189013753294 0 0.050064879697251125 0.0015653972511923055 0 0.049836774943446953 0.0016370467407338489 0 0.050064879697251125 0.0015653972511923055 0 0.049836774943446953 0.0016370467407338489 0 0.049947134568322199 0.0016021288121348032 0 0.049734354351508574 0.0013726365380814873 0 0.049947134568322199 0.0016021288121348032 0 0.049810162403349456 0.0017358051933615845 0 0.049836774943446953 0.0016370467407338489 0 0.049947134568322199 0.0016021288121348032 0 0.049810162403349456 0.0017358051933615845 0 0.051498512158231501 0.0027353314111957737 0 0.051061212137509415 0.0033125596313361982 0 0.051478940188314448 0.0038775600360607971 0 0.051845333161199186 0.0016503830364913402 0 0.046259655303713738 0.0034832895258600778 0 0.050699477110567111 0.0039459806819987673 0 0.051061212137509415 0.0033125596313361982 0 0.051478940188314448 0.0038775600360607971 0 0.04658059283570911 0.0046226463298517616 0 0.046259655303713738 0.0034832895258600778 0 0.042464217482664407 0.0052094855358099275 0 0.040843915753756017 0.0049713540059493399 0 0.041356254697486314 0.0044884757938389386 0 0.046259655303713738 0.0034832895258600778 0 0.044971703172159289 0.0041629509101806707 0 0.040843915753756017 0.0049713540059493399 0 0.04083240039533647 0.0044896304769845383 0 0.041356254697486314 0.0044884757938389386 0 0.04083240039533647 0.0044896304769845383 0 0.040995391033202697 0.0040328155864182858 0 0.041356254697486314 0.0044884757938389386 0 0.040995391033202697 0.0040328155864182858 0 0.041356254697486314 0.0044884757938389386 0 0.041616697234196712 0.0039714685137905185 0 0.042464217482664407 0.0052094855358099275 0 0.041356254697486314 0.0044884757938389386 0 0.041616697234196712 0.0039714685137905185 0 0.044624311507643552 0.0030273849098255159 0 0.046259655303713738 0.0034832895258600778 0 0.040144236495825533 0.0043334481762709008 0 0.04082996991293214 0.0046374267656839373 0 0.040261144257404693 0.0040242472431590475 0 0.04082996991293214 0.0046374267656839373 0 0.04083240039533647 0.0044896304769845383 0 0.040570066881342896 0.0041331176891383631 0 0.04083240039533647 0.0044896304769845383 0 0.040995391033202697 0.0040328155864182858 0 0.040570066881342896 0.0041331176891383631 0 0.04082996991293214 0.0046374267656839373 0 0.040570066881342896 0.0041331176891383631 0 0.040261144257404693 0.0040242472431590475 0 0.040570066881342896 0.0041331176891383631 0 0.040261144257404693 0.0040242472431590475 0 0.040187693858679388 0.0035560093431006808 0 0.040570066881342896 0.0041331176891383631 0 0.040187693858679388 0.0035560093431006808 0 0.040665382027552252 0.0036365489842515013 0 0.040995391033202697 0.0040328155864182858 0 0.040570066881342896 0.0041331176891383631 0 0.040665382027552252 0.0036365489842515013 0 0.040187693858679388 0.0035560093431006808 0 0.040665382027552252 0.0036365489842515013 0 0.040448232938405215 0.0030086704313732377 0 0.040187693858679388 0.0035560093431006808 0 0.040448232938405215 0.0030086704313732377 0 0.039716230175480323 0.0029755127782115035 0 0.042330805917873637 0.0034926808342620203 0 0.041616697234196712 0.0039714685137905185 0 0.041211376332561424 0.0034807467864681439 0 0.040995391033202697 0.0040328155864182858 0 0.041616697234196712 0.0039714685137905185 0 0.041211376332561424 0.0034807467864681439 0 0.040995391033202697 0.0040328155864182858 0 0.040665382027552252 0.0036365489842515013 0 0.041211376332561424 0.0034807467864681439 0 0.040665382027552252 0.0036365489842515013 0 0.041211376332561424 0.0034807467864681439 0 0.040448232938405215 0.0030086704313732377 0 0.042330805917873637 0.0034926808342620203 0 0.041211376332561424 0.0034807467864681439 0 0.041463057915945505 0.0027938848634250831 0 0.041463057915945505 0.0027938848634250831 0 0.040448232938405215 0.0030086704313732377 0 0.040548855925711932 0.0022012257694908502 0 0.041463057915945505 0.0027938848634250831 0 0.040548855925711932 0.0022012257694908502 0 0.04190146769149164 0.0019077098656708313 0 0.041211376332561424 0.0034807467864681439 0 0.041463057915945505 0.0027938848634250831 0 0.040448232938405215 0.0030086704313732377 0 0.040448232938405215 0.0030086704313732377 0 0.03970103286819246 0.0023046709113816607 0 0.040548855925711932 0.0022012257694908502 0 0.040448232938405215 0.0030086704313732377 0 0.039716230175480323 0.0029755127782115035 0 0.03970103286819246 0.0023046709113816607 0 0.039197788482917807 0.0025495340936771693 0 0.039716230175480323 0.0029755127782115035 0 0.039104703446773525 0.003014065304873931 0 0.039197788482917807 0.0025495340936771693 0 0.039716230175480323 0.0029755127782115035 0 0.03970103286819246 0.0023046709113816607 0 0.040187693858679388 0.0035560093431006808 0 0.039716230175480323 0.0029755127782115035 0 0.039711666940467551 0.0036382361358431271 0 0.039716230175480323 0.0029755127782115035 0 0.039711666940467551 0.0036382361358431271 0 0.039104703446773525 0.003014065304873931 0 0.040261144257404693 0.0040242472431590475 0 0.040187693858679388 0.0035560093431006808 0 0.039711666940467551 0.0036382361358431271 0 0.039549831861893092 0.0039240858253603798 0 0.039711666940467551 0.0036382361358431271 0 0.039194701487022275 0.0034825826261122212 0 0.039711666940467551 0.0036382361358431271 0 0.039194701487022275 0.0034825826261122212 0 0.039104703446773525 0.003014065304873931 0 0.039197788482917807 0.0025495340936771693 0 0.039104703446773525 0.003014065304873931 0 0.038658169920632458 0.0025976099667287529 0 0.039104703446773525 0.003014065304873931 0 0.038623308528706719 0.0032473918666028772 0 0.038658169920632458 0.0025976099667287529 0 0.037493926174633541 0.0038478111685652594 0 0.038855340894337717 0.0025274533097282992 0 0.037611621378096691 0.0028792993180139425 0 0.037404364339121546 0.0039540349985523167 0 0.038658169920632458 0.0025976099667287529 0 0.037611621378096691 0.0028792993180139425 0 0.037404364339121546 0.0039540349985523167 0 0.03627202678222799 0.0041023402404672142 0 0.037611621378096691 0.0028792993180139425 0 0.03627202678222799 0.0041023402404672142 0 0.036306800983146925 0.0022273708287078261 0 0.037404364339121546 0.0039540349985523167 0 0.03614072011231477 0.0052059840151573462 0 0.03627202678222799 0.0041023402404672142 0 0.037493926174633541 0.0038478111685652594 0 0.039934650382102664 0.003824360344082514 0 0.038623308528706719 0.0032473918666028772 0 0.039098934625255426 0.003784616553341791 0 0.038637045618560864 0.0040419101656760711 0 0.039194701487022275 0.0034825826261122212 0 0.039104703446773525 0.003014065304873931 0 0.038623308528706719 0.0032473918666028772 0 0.039194701487022275 0.0034825826261122212 0 0.038623308528706719 0.0032473918666028772 0 0.039098934625255426 0.003784616553341791 0 0.041346737322109306 0.0032612371571451456 0 0.045328852775903636 0.002591828503989865 0 0.039098934625255426 0.003784616553341791 0 0.038637045618560864 0.0040419101656760711 0 0.039416575732530303 0.0042748878593606493 0 0.038623308528706719 0.0032473918666028772 0 0.038637045618560864 0.0040419101656760711 0 0.038152405683210516 0.0038359050487797655 0 0.044514218381842094 0.0027232422766700201 0 0.044672069910043764 0.0025659064077293344 0 0.044221194438716561 0.002607879169459067 0 0.041346737322109306 0.0032612371571451456 0 0.039934650382102664 0.003824360344082514 0 0.044514218381842094 0.0027232422766700201 0 0.044672069910043764 0.0025659064077293344 0 0.044831026561686693 0.0028725064388767604 0 0.05042401083774533 0.0019965293121985321 0 0.050378613301712262 0.0016883501236810872 0 0.050682201424970513 0.0017934535938619431 0 0.05042401083774533 0.0019965293121985321 0 0.050135946630538726 0.001658872593821968 0 0.050378613301712262 0.0016883501236810872 0 0.05042401083774533 0.0019965293121985321 0 0.050135946630538726 0.001658872593821968 0 0.049930051365926056 0.0018558596697146907 0 0.048063543636679952 0.0022645547616999893 0 0.045328852775903636 0.002591828503989865 0 0.049925406424471734 0.0016307312193165845 0 0.050135946630538726 0.001658872593821968 0 0.049930051365926056 0.0018558596697146907 0 0.047987923975693493 0.0029871752780452963 0 0.045328852775903636 0.002591828503989865 0 0.05094654560745903 0.0021780759759816998 0 0.051203658494318231 0.0019319229925996734 0 0.051779281543676871 0.0020721663836536404 0 0.050935515927931059 0.0021065701493129169 0 0.051203658494318231 0.0019319229925996734 0 0.050682201424970513 0.0017934535938619431 0 0.047288187744401251 0.0019859136698726866 0 0.05098082220603057 0.0011262698394330726 0 0.048063543636679952 0.0022645547616999893 0 0.047288187744401251 0.0019859136698726866 0 0.05042401083774533 0.0019965293121985321 0 0.050935515927931059 0.0021065701493129169 0 0.050682201424970513 0.0017934535938619431 0 0.044672069910043764 0.0025659064077293344 0 0.045196684670539979 0.0025289520089091084 0 0.044831026561686693 0.0028725064388767604 0 0.041874174191330271 0.00079304197826649751 0 0.040036418128519609 0.0026160357309398838 0 0.042923167331622242 0.0038270754865966723 0 0.047288187744401251 0.0019859136698726866 0 0.039934650382102664 0.003824360344082514 0 0.041874174191330271 0.00079304197826649751 0 0.042923167331622242 0.0038270754865966723 0 0.044249671859642355 0.0022267343269247808 0 0.035677219993949245 0.0033045648569711952 0 0.031377985148431875 0.0046081792289592539 0 0.027809833888670601 0.0047744564098839877 0 0.027562471781719236 0.0050506528192520517 0 0.027844224685433971 0.0050128792045612651 0 0.03449491635872496 0.0045177884832573959 0 0.03627202678222799 0.0041023402404672142 0 0.035393424107274571 0.0033847120558421527 0 0.039934650382102664 0.003824360344082514 0 0.035677219993949245 0.0033045648569711952 0 0.03614072011231477 0.0052059840151573462 0 0.03449491635872496 0.0045177884832573959 0 0.03627202678222799 0.0041023402404672142 0 0.031377985148431875 0.0046081792289592539 0 0.026401618252888823 0.0018622700909663376 0 0.03627202678222799 0.0041023402404672142 0 0.035393424107274571 0.0033847120558421527 0 0.036306800983146925 0.0022273708287078261 0 0.027562471781719236 0.0050506528192520517 0 0.027844224685433971 0.0050128792045612651 0 0.027745018655237506 0.0052273885169531846 0 0.027844224685433971 0.0050128792045612651 0 0.02805843591201666 0.0050813463530377878 0 0.027745018655237506 0.0052273885169531846 0 0.022666246777142466 0.002417226418150416 0 0.021189678280973696 0.0029103108714175017 0 0.02805843591201666 0.0050813463530377878 0 0.028280201582131646 0.0051913733699622423 0 0.027745018655237506 0.0052273885169531846 0 0.027844224685433971 0.0050128792045612651 0 0.02805843591201666 0.0050813463530377878 0 0.028089965477531568 0.00490899911825236 0 0.0347259987303482 0.0021457656074970561 0 0.033731758409175132 0.0026418804745022106 0 0.02805843591201666 0.0050813463530377878 0 0.028366591141914435 0.0050455940283341914 0 0.028089965477531568 0.00490899911825236 0 0.022666246777142466 0.002417226418150416 0 0.0347259987303482 0.0021457656074970561 0 0.02805843591201666 0.0050813463530377878 0 0.028280201582131646 0.0051913733699622423 0 0.028366591141914435 0.0050455940283341914 0 0.041483409760583664 0.0012349575005961059 0 0.040039838289185427 0.00064190607221880052 0 0.041871812669180733 -0.00058645381253452579 0 0.040039838289185427 0.00064190607221880052 0 0.041871812669180733 -0.00058645381253452579 0 0.040846005005699244 -0.0012211983056491327 0 0.0347259987303482 0.0021457656074970561 0 0.041985868234421402 -0.00098302355530513908 0 0.027809833888670601 0.0047744564098839877 0 0.027844224685433971 0.0050128792045612651 0 0.028089965477531568 0.00490899911825236 0 0.035677219993949245 0.0033045648569711952 0 0.033731758409175132 0.0026418804745022106 0 0.038525480571211426 2.6547421578340832e-05 0 0.040039838289185427 0.00064190607221880052 0 0.039559575330743155 -0.0012034904020148769 0 0.040090430112776521 -0.0010678481875880154 0 0.041047192490886529 -0.0012222249981575033 0 0.04093745640717332 -0.00047829491545338273 0 0.036296203768347218 -0.0020871651941792779 0 0.029371498453177106 3.8571793801585642e-05 0 0.029371498453177106 3.8571793801585642e-05 0 0.025749871534130633 -0.0024662261016031948 0 0.029741504326280525 -0.0023830760394035022 0 0.029881394342480262 -0.0027708007022960372 0 0.030503333979702868 -0.0027887016920685901 0 0.029881394342480262 -0.0027708007022960372 0 0.030503333979702868 -0.0027887016920685901 0 0.029777824364943067 -0.0029157711593345284 0 0.029599296003379443 -0.0026915136207205878 0 0.029881394342480262 -0.0027708007022960372 0 0.029858757570952375 -0.0029085489029394688 0 0.026642916713732961 -0.002185797658302774 0 0.025749871534130633 -0.0024662261016031948 0 0.022666246777142466 0.002417226418150416 0 0.029371498453177106 3.8571793801585642e-05 0 0.017285949136129079 0.0011352973766861636 0 0.017538511994783474 0.0011383511751050621 0 0.017341224012536374 0.0012414311152111888 0 0.028096953067456569 0.0043926904511895426 0 0.028158450049970467 0.0042927424502624441 0 0.028298039604614165 0.0043658879766949339 0 0.0347259987303482 0.0021457656074970561 0 0.029371498453177106 3.8571793801585642e-05 0 0.041649941342381813 -0.00099968180596887528 0 0.041047192490886529 -0.0012222249981575033 0 0.041311702484081364 -0.0007310793549137357 0 0.041649941342381813 -0.00099968180596887528 0 0.041311702484081364 -0.0007310793549137357 0 0.041766928982380158 -0.00020567406211760751 0 0.041047192490886529 -0.0012222249981575033 0 0.041311702484081364 -0.0007310793549137357 0 0.04093745640717332 -0.00047829491545338273 0 0.041311702484081364 -0.0007310793549137357 0 0.04093745640717332 -0.00047829491545338273 0 0.041766928982380158 -0.00020567406211760751 0 0.040090430112776521 -0.0010678481875880154 0 0.04093745640717332 -0.00047829491545338273 0 0.040513386971307221 -0.0001508973769184629 0 0.04093745640717332 -0.00047829491545338273 0 0.040513386971307221 -0.0001508973769184629 0 0.041303061395203157 9.5033285989282477e-05 0 0.040189485282828105 0.00028093178694631453 0 0.040513386971307221 -0.0001508973769184629 0 0.041129299083714328 0.00063404631533586189 0 0.040513386971307221 -0.0001508973769184629 0 0.041303061395203157 9.5033285989282477e-05 0 0.041129299083714328 0.00063404631533586189 0 0.04093745640717332 -0.00047829491545338273 0 0.041303061395203157 9.5033285989282477e-05 0 0.041766928982380158 -0.00020567406211760751 0 0.041303061395203157 9.5033285989282477e-05 0 0.041917425661739033 0.0005591349254018221 0 0.041766928982380158 -0.00020567406211760751 0 0.041303061395203157 9.5033285989282477e-05 0 0.041917425661739033 0.0005591349254018221 0 0.041129299083714328 0.00063404631533586189 0 0.046499007718945343 -4.4076529950963961e-05 0 0.046081550001964365 -5.1966771254940104e-06 0 0.046499007718945343 -4.4076529950963961e-05 0 0.052221164964150434 0.00091699899980416289 0 0.051922324091137805 -0.00065244493763428886 0 0.051573858704708028 -0.00020934336275481576 0 0.052086801369625235 0.00013131763988104853 0 0.051922324091137805 -0.00065244493763428886 0 0.051037660118651296 -0.00064145554129571656 0 0.051573858704708028 -0.00020934336275481576 0 0.051037660118651296 -0.00064145554129571656 0 0.051159574606663066 -4.2522167051396056e-05 0 0.051573858704708028 -0.00020934336275481576 0 0.050596751994097452 -0.00012650193430250575 0 0.051037660118651296 -0.00064145554129571656 0 0.051159574606663066 -4.2522167051396056e-05 0 0.040039838289185427 0.00064190607221880052 0 0.039559575330743155 -0.0012034904020148769 0 0.040846005005699244 -0.0012211983056491327 0 0.041874174191330271 0.00079304197826649751 0 0.044249671859642355 0.0022267343269247808 0 0.045567781293902376 0.00062444695828656985 0 0.042232455421882524 0.00014572148573953683 0 0.047356670553463431 0.00098850095446181559 0 0.039559575330743155 -0.0012034904020148769 0 0.040846005005699244 -0.0012211983056491327 0 0.040683908249141025 -0.0024774292945657361 0 0.035677219993949245 0.0033045648569711952 0 0.042232455421882524 0.00014572148573953683 0 0.042296909272539616 -0.0025321067110997413 0 0.041871812669180733 -0.00058645381253452579 0 0.040846005005699244 -0.0012211983056491327 0 0.046499007718945343 -4.4076529950963961e-05 0 0.041985868234421402 -0.00098302355530513908 0 0.042296909272539616 -0.0025321067110997413 0 0.040846005005699244 -0.0012211983056491327 0 0.040683908249141025 -0.0024774292945657361 0 0.052068206264809548 0.002159601752529691 0 0.051324495112579561 0.0022300621503171408 0 0.051908894975890824 0.0017849450654389225 0 0.046499007718945343 -4.4076529950963961e-05 0 0.047356670553463431 0.00098850095446181559 0 0.052068206264809548 0.002159601752529691 0 0.051908894975890824 0.0017849450654389225 0 0.052199231441096165 0.0015444469807614778 0 0.051779281543676871 0.0020721663836536404 0 0.051908894975890824 0.0017849450654389225 0 0.051797010867366058 0.0016995338198677722 0 0.047356670553463431 0.00098850095446181559 0 0.051634168878219595 0.0011293538251053138 0 0.051779281543676871 0.0020721663836536404 0 0.051558031810236507 0.0017739533277104115 0 0.051797010867366058 0.0016995338198677722 0 0.047288187744401251 0.0019859136698726866 0 0.047356670553463431 0.00098850095446181559 0 0.051203658494318231 0.0019319229925996734 0 0.051779281543676871 0.0020721663836536404 0 0.051558031810236507 0.0017739533277104115 0 0.051558031810236507 0.0017739533277104115 0 0.051694951933591207 0.0015494031469730286 0 0.051336964213238891 0.0016353612725220179 0 0.051694951933591207 0.0015494031469730286 0 0.051336964213238891 0.0016353612725220179 0 0.051429039581153108 0.001279551972658317 0 0.051694951933591207 0.0015494031469730286 0 0.051797010867366058 0.0016995338198677722 0 0.051987350287882185 0.0013757453565728234 0 0.051558031810236507 0.0017739533277104115 0 0.051694951933591207 0.0015494031469730286 0 0.051797010867366058 0.0016995338198677722 0 0.051908894975890824 0.0017849450654389225 0 0.051797010867366058 0.0016995338198677722 0 0.051987350287882185 0.0013757453565728234 0 0.051908894975890824 0.0017849450654389225 0 0.051987350287882185 0.0013757453565728234 0 0.052199231441096165 0.0015444469807614778 0 0.051987350287882185 0.0013757453565728234 0 0.052199231441096165 0.0015444469807614778 0 0.052211427341749848 0.0010874203869882979 0 0.051987350287882185 0.0013757453565728234 0 0.052177974667314678 0.0011975524402249962 0 0.052211427341749848 0.0010874203869882979 0 0.052177974667314678 0.0011975524402249962 0 0.052211427341749848 0.0010874203869882979 0 0.052260676224279511 0.0012999448188518686 0 0.051987350287882185 0.0013757453565728234 0 0.052177974667314678 0.0011975524402249962 0 0.052058352625418039 0.0011213664041103291 0 0.052058352625418039 0.0011213664041103291 0 0.051807125099080191 0.0013235143026964883 0 0.051429039581153108 0.001279551972658317 0 0.051694951933591207 0.0015494031469730286 0 0.051807125099080191 0.0013235143026964883 0 0.051429039581153108 0.001279551972658317 0 0.051987350287882185 0.0013757453565728234 0 0.052058352625418039 0.0011213664041103291 0 0.051807125099080191 0.0013235143026964883 0 0.051694951933591207 0.0015494031469730286 0 0.051987350287882185 0.0013757453565728234 0 0.051807125099080191 0.0013235143026964883 0 0.050596751994097452 -0.00012650193430250575 0 0.051159574606663066 -4.2522167051396056e-05 0 0.050998045678227043 0.00043000882925096402 0 0.051159574606663066 -4.2522167051396056e-05 0 0.051611942228946571 0.00044510637514498438 0 0.051573858704708028 -0.00020934336275481576 0 0.051159574606663066 -4.2522167051396056e-05 0 0.051611942228946571 0.00044510637514498438 0 0.050998045678227043 0.00043000882925096402 0 0.051611942228946571 0.00044510637514498438 0 0.051573858704708028 -0.00020934336275481576 0 0.052086801369625235 0.00013131763988104853 0 0.052221164964150434 0.00091699899980416289 0 0.052181965844815659 0.0010593707809301014 0 0.051611942228946571 0.00044510637514498438 0 0.052211427341749848 0.0010874203869882979 0 0.051523581059062962 0.00094351929588600014 0 0.052211427341749848 0.0010874203869882979 0 0.051523581059062962 0.00094351929588600014 0 0.052062182324043887 0.001412221748196235 0 0.051611942228946571 0.00044510637514498438 0 0.052086801369625235 0.00013131763988104853 0 0.052211427341749848 0.0010874203869882979 0 0.050788867179860329 0.00089829583215321864 0 0.051523581059062962 0.00094351929588600014 0 0.050998045678227043 0.00043000882925096402 0 0.051611942228946571 0.00044510637514498438 0 0.051523581059062962 0.00094351929588600014 0 0.050998045678227043 0.00043000882925096402 0 0.051304310191741885 0.001346567171677407 0 0.052062182324043887 0.001412221748196235 0 0.052186111136829728 0.0019970184355312297 0 0.051304310191741885 0.001346567171677407 0 0.051523581059062962 0.00094351929588600014 0 0.052062182324043887 0.001412221748196235 0 0.052211427341749848 0.0010874203869882979 0 0.052062182324043887 0.001412221748196235 0 0.052260676224279511 0.0012999448188518686 0 0.052062182324043887 0.001412221748196235 0 0.052260676224279511 0.0012999448188518686 0 0.052352129602309186 0.001509231604763419 0 0.052062182324043887 0.001412221748196235 0 0.052352129602309186 0.001509231604763419 0 0.052394914178295164 0.0017361060149770572 0 0.052513777546443777 0.0015582851561731198 0 0.052352129602309186 0.001509231604763419 0 0.052394914178295164 0.0017361060149770572 0 0.052062182324043887 0.001412221748196235 0 0.052394914178295164 0.0017361060149770572 0 0.052186111136829728 0.0019970184355312297 0 0.052638026519255067 0.0017452728020501112 0 0.052394914178295164 0.0017361060149770572 0 0.052186111136829728 0.0019970184355312297 0 0.052290668736838936 0.0013283054319738349 0 0.052275044555915223 0.001322903431059799 0 0.052405039944252475 0.0014451729158727637 0 0.052290668736838936 0.0013283054319738349 0 0.052422381245497106 0.0014148927163029482 0 0.052470808575264011 0.0012857836397356156 0 0.052058352625418039 0.0011213664041103291 0 0.052290668736838936 0.0013283054319738349 0 0.052470808575264011 0.0012857836397356156 0 0.052058352625418039 0.0011213664041103291 0 0.052290668736838936 0.0013283054319738349 0 0.052275044555915223 0.001322903431059799 0 0.052177974667314678 0.0011975524402249962 0 0.052058352625418039 0.0011213664041103291 0 0.052275044555915223 0.001322903431059799 0 0.052177974667314678 0.0011975524402249962 0 0.052260676224279511 0.0012999448188518686 0 0.052275044555915223 0.001322903431059799 0 0.052260676224279511 0.0012999448188518686 0 0.052352129602309186 0.001509231604763419 0 0.052275044555915223 0.001322903431059799 0 0.052275044555915223 0.001322903431059799 0 0.052398737889885146 0.0014751061354118058 0 0.052405039944252475 0.0014451729158727637 0 0.052352129602309186 0.001509231604763419 0 0.052275044555915223 0.001322903431059799 0 0.052398737889885146 0.0014751061354118058 0 0.052513777546443777 0.0015582851561731198 0 0.052352129602309186 0.001509231604763419 0 0.052398737889885146 0.0014751061354118058 0 0.052490362407143581 0.0014979491278979281 0 0.052398737889885146 0.0014751061354118058 0 0.052405039944252475 0.0014451729158727637 0 0.052490362407143581 0.0014979491278979281 0 0.052513777546443777 0.0015582851561731198 0 0.052398737889885146 0.0014751061354118058 0 0.052482184995456253 0.0014794668661217887 0 0.052490362407143581 0.0014979491278979281 0 0.052405039944252475 0.0014451729158727637 0 0.052290668736838936 0.0013283054319738349 0 0.052405039944252475 0.0014451729158727637 0 0.052422381245497106 0.0014148927163029482 0 0.052405039944252475 0.0014451729158727637 0 0.052422381245497106 0.0014148927163029482 0 0.052475214288435372 0.0014672662873126629 0 0.052482184995456253 0.0014794668661217887 0 0.052405039944252475 0.0014451729158727637 0 0.052475214288435372 0.0014672662873126629 0 0.052422381245497106 0.0014148927163029482 0 0.052475214288435372 0.0014672662873126629 0 0.052480848840236689 0.0014532207552437725 0 0.052468389895395817 0.0014696401360045313 0 0.052480848840236689 0.0014532207552437725 0 0.052515273377024989 0.001431704843342737 0 0.052896481827651963 0.0016950631532959908 0 0.052721000261624011 0.0019643568588691221 0 0.05281162866264974 0.0021276382001160828 0 0.052702075982644793 0.0015792900948002465 0 0.052492507940052079 0.0017409071013991348 0 0.052337687980549413 0.0020620631956383296 0 0.052492507940052079 0.0017409071013991348 0 0.051931436503874835 0.0018546100283537259 0 0.052003726800449374 0.0019840661682076384 0 0.051891460633447482 0.0020233405709026084 0 0.052422381245497106 0.0014148927163029482 0 0.052480848840236689 0.0014532207552437725 0 0.052515273377024989 0.001431704843342737 0 0.052058352625418039 0.0011213664041103291 0 0.052731325885354112 0.0011861721417482361 0 0.052470808575264011 0.0012857836397356156 0 0.052155845351823285 0.0010332819511266714 0 0.051571931990953696 0.0014229033319812364 0 0.052422381245497106 0.0014148927163029482 0 0.052515273377024989 0.001431704843342737 0 0.052470808575264011 0.0012857836397356156 0 0.052492507940052079 0.0017409071013991348 0 0.052436805113072485 0.0013181129939121297 0 0.052003726800449374 0.0019840661682076384 0 0.051964262065854368 0.0022021499886791442 0 0.051891460633447482 0.0020233405709026084 0 0.052492507940052079 0.0017409071013991348 0 0.051571931990953696 0.0014229033319812364 0 0.05265823339555311 0.0016202031366480355 0 0.052731325885354112 0.0011861721417482361 0 0.052470808575264011 0.0012857836397356156 0 0.051571931990953696 0.0014229033319812364 0 0.051020268739168713 0.0018079541850241467 0 0.051964262065854368 0.0022021499886791442 0 0.051757212008625854 0.0020404506197644911 0 0.051631509216143921 0.002155482587357988 0 0.050767443961442865 0.0013435232549275429 0 0.050455382324121223 0.0013906163037032231 0 0.050651505339304383 0.0014555537643006946 0 0.051964262065854368 0.0022021499886791442 0 0.051757212008625854 0.0020404506197644911 0 0.051891460633447482 0.0020233405709026084 0 0.051757212008625854 0.0020404506197644911 0 0.051778501883459137 0.0018678326644665886 0 0.0515736631349034 0.0018881818327989609 0 0.052337687980549413 0.0020620631956383296 0 0.052031230864720703 0.0019947703330700645 0 0.051757212008625854 0.0020404506197644911 0 0.051891460633447482 0.0020233405709026084 0 0.051778501883459137 0.0018678326644665886 0 0.051927756515004614 0.0018558470114018687 0 0.051891460633447482 0.0020233405709026084 0 0.051778501883459137 0.0018678326644665886 0 0.051757212008625854 0.0020404506197644911 0 0.0515736631349034 0.0018881818327989609 0 0.051631509216143921 0.002155482587357988 0 0.0515736631349034 0.0018881818327989609 0 0.051309139647685124 0.0018055237697884587 0 0.051263884119893015 0.0020893862272665454 0 0.050995088523942481 0.001803888729503071 0 0.051309139647685124 0.0018055237697884587 0 0.051263884119893015 0.0020893862272665454 0 0.05031858637685762 0.001653414371193678 0 0.050455382324121223 0.0013906163037032231 0 0.05032059104949644 0.0015109468797860769 0 0.0515736631349034 0.0018881818327989609 0 0.051263884119893015 0.0020893862272665454 0 0.051631509216143921 0.002155482587357988 0 0.050826321019981219 0.0018661283815042304 0 0.051020268739168713 0.0018079541850241467 0 0.050455382324121223 0.0013906163037032231 0 0.050483956129712633 0.0015424603432940593 0 0.05032059104949644 0.0015109468797860769 0 0.050483956129712633 0.0015424603432940593 0 0.05032059104949644 0.0015109468797860769 0 0.05025027298888201 0.0015360163971219114 0 0.050323943141301786 0.0014988708188922054 0 0.05031858637685762 0.001653414371193678 0 0.05032059104949644 0.0015109468797860769 0 0.050323943141301786 0.0014988708188922054 0 0.05032059104949644 0.0015109468797860769 0 0.05025027298888201 0.0015360163971219114 0 0.050134582819977493 0.0015434022835305158 0 0.050323943141301786 0.0014988708188922054 0 0.05025027298888201 0.0015360163971219114 0 0.050135946630538726 0.001658872593821968 0 0.05025027298888201 0.0015360163971219114 0 0.050378613301712262 0.0016883501236810872 0 0.050134582819977493 0.0015434022835305158 0 0.049925406424471734 0.0016307312193165845 0 0.050135946630538726 0.001658872593821968 0 0.050134582819977493 0.0015434022835305158 0 0.050135946630538726 0.001658872593821968 0 0.05025027298888201 0.0015360163971219114 0 0.050483956129712633 0.0015424603432940593 0 0.050378613301712262 0.0016883501236810872 0 0.050682201424970513 0.0017934535938619431 0 0.050483956129712633 0.0015424603432940593 0 0.05025027298888201 0.0015360163971219114 0 0.050378613301712262 0.0016883501236810872 0 0.050483956129712633 0.0015424603432940593 0 0.050682201424970513 0.0017934535938619431 0 0.050853818558204089 0.0015985030755665118 0 0.051203658494318231 0.0019319229925996734 0 0.050853818558204089 0.0015985030755665118 0 0.051336964213238891 0.0016353612725220179 0 0.051203658494318231 0.0019319229925996734 0 0.050682201424970513 0.0017934535938619431 0 0.050853818558204089 0.0015985030755665118 0 0.051203658494318231 0.0019319229925996734 0 0.051558031810236507 0.0017739533277104115 0 0.051336964213238891 0.0016353612725220179 0 0.050853818558204089 0.0015985030755665118 0 0.051336964213238891 0.0016353612725220179 0 0.051429039581153108 0.001279551972658317 0 0.051571931990953696 0.0014229033319812364 0 0.050739024579505521 0.001463497646273811 0 0.052058352625418039 0.0011213664041103291 0 0.05106809260188297 0.00080051140512459149 0 0.051429039581153108 0.001279551972658317 0 0.05106809260188297 0.00080051140512459149 0 0.050853818558204089 0.0015985030755665118 0 0.051429039581153108 0.001279551972658317 0 0.050455382324121223 0.0013906163037032231 0 0.050483956129712633 0.0015424603432940593 0 0.050651505339304383 0.0014555537643006946 0 0.050483956129712633 0.0015424603432940593 0 0.050853818558204089 0.0015985030755665118 0 0.050651505339304383 0.0014555537643006946 0 0.050767443961442865 0.0013435232549275429 0 0.050853818558204089 0.0015985030755665118 0 0.050651505339304383 0.0014555537643006946 0 0.043484211223135047 0.00064353387746617866 0 0.044934899597488594 0.00038177720288398113 0 0.04098639090485183 0.00051061325436683297 0 0.041597785702437134 -9.188647614895919e-05 0 0.040662061273966328 -0.000140544715588365 0 0.04098639090485183 0.00051061325436683297 0 0.042195296546559617 0.00026384628835935471 0 0.042976384156512067 0.00081481455246373044 0 0.04098639090485183 0.00051061325436683297 0 0.042195296546559617 0.00026384628835935471 0 0.041597785702437134 -9.188647614895919e-05 0 0.043605922579075009 0.00012641779003840889 0 0.041597785702437134 -9.188647614895919e-05 0 0.041947813956678688 -1.6786475304665451e-06 0 0.042195296546559617 0.00026384628835935471 0 0.043605922579075009 0.00012641779003840889 0 0.042976384156512067 0.00081481455246373044 0 0.043605922579075009 0.00012641779003840889 0 0.041947813956678688 -1.6786475304665451e-06 0 0.04490044980056003 2.8920003805740157e-06 0 0.043605922579075009 0.00012641779003840889 0 0.04490044980056003 2.8920003805740157e-06 0 0.043311939634785225 0.00048356552845583365 0 0.044493823563825668 0.00059331184129811051 0 0.044934899597488594 0.00038177720288398113 0 0.042195296546559617 0.00026384628835935471 0 0.043605922579075009 0.00012641779003840889 0 0.041597785702437134 -9.188647614895919e-05 0 0.041597785702437134 -9.188647614895919e-05 0 0.041947813956678688 -1.6786475304665451e-06 0 0.040382022792619633 -0.00035103323596459568 0 0.041597785702437134 -9.188647614895919e-05 0 0.040662061273966328 -0.000140544715588365 0 0.040382022792619633 -0.00035103323596459568 0 0.040662061273966328 -0.000140544715588365 0 0.040325141802408065 0.00018765729495960978 0 0.040507312329521754 -0.00033991545341726021 0 0.043603264948367484 0.00014129532029116135 0 0.039769464973819391 -0.0005677968767253416 0 0.040662061273966328 -0.000140544715588365 0 0.040507312329521754 -0.00033991545341726021 0 0.040382022792619633 -0.00035103323596459568 0 0.040830566054684672 -0.00067463499238969225 0 0.041164682850240497 -0.00036111286034665906 0 0.040507312329521754 -0.00033991545341726021 0 0.040672541409355875 -0.00093448032952508822 0 0.040561365871571872 -0.0010626751229143522 0 0.040507312329521754 -0.00033991545341726021 0 0.040830566054684672 -0.00067463499238969225 0 0.040672541409355875 -0.00093448032952508822 0 0.040507312329521754 -0.00033991545341726021 0 0.040830566054684672 -0.00067463499238969225 0 0.04080973660835923 -0.00090978883983363343 0 0.040672541409355875 -0.00093448032952508822 0 0.041569214679237722 -0.0017712006798605165 0 0.043826078854051154 -0.0004126359917148171 0 0.0409485601670573 -0.00098008645451577248 0 0.04080973660835923 -0.00090978883983363343 0 0.040724589762898798 -0.0010228863541600086 0 0.040830566054684672 -0.00067463499238969225 0 0.0409485601670573 -0.00098008645451577248 0 0.04080973660835923 -0.00090978883983363343 0 0.04080973660835923 -0.00090978883983363343 0 0.040724589762898798 -0.0010228863541600086 0 0.040672541409355875 -0.00093448032952508822 0 0.043826078854051154 -0.0004126359917148171 0 0.043242134800745201 -0.00022093474512172753 0 0.040731772171854641 -0.001026564445425054 0 0.040672541409355875 -0.00093448032952508822 0 0.040561365871571872 -0.0010626751229143522 0 0.043826078854051154 -0.0004126359917148171 0 0.043603264948367484 0.00014129532029116135 0 0.046964285696398621 0.00056800713932648713 0 0.047041997855474811 0.00084383941424273287 0 0.046798933541373142 0.00089334020386816341 0 0.046964285696398621 0.00056800713932648713 0 0.047041997855474811 0.00084383941424273287 0 0.047188939388215508 0.00061421706528872301 0 0.042431248354482767 0.0011440966337901877 0 0.042012583866704339 0.00053303125859275257 0 0.04308441998536712 0.0002165953211638889 0 0.041569214679237722 -0.0017712006798605165 0 0.047091668507952253 0.001184477536361496 0 0.04385305464572066 -0.00082619095932278633 0 0.044961101436647929 -0.00059477583274531484 0 0.04435116719867891 0.00052229806553364723 0 0.043826078854051154 -0.0004126359917148171 0 0.047091668507952253 0.001184477536361496 0 0.0423804984510852 0.0014902345088502263 0 0.042431248354482767 0.0011440966337901877 0 0.042012583866704339 0.00053303125859275257 0 0.043484211223135047 0.00064353387746617866 0 0.043603264948367484 0.00014129532029116135 0 0.046140810422392514 0.00077417847772792193 0 0.046457395299016255 0.00083541882201297265 0 0.046490048598171567 0.00052763802404689737 0 0.04098639090485183 0.00051061325436683297 0 0.040662061273966328 -0.000140544715588365 0 0.040325141802408065 0.00018765729495960978 0 0.043603264948367484 0.00014129532029116135 0 0.046875257755181664 0.00099335969367913808 0 0.046140810422392514 0.00077417847772792193 0 0.046490048598171567 0.00052763802404689737 0 0.046133680550325851 0.00035679663696629979 0 0.053553948653396272 0.0031460327925311839 0 0.05338330463681526 0.0025779344444237977 0 0.053852091483442326 0.0023683598499422559 0 0.047041997855474811 0.00084383941424273287 0 0.047188939388215508 0.00061421706528872301 0 0.04721664537171074 0.0013010298670587657 0 0.047091668507952253 0.001184477536361496 0 0.050264172726306316 0.002445118347411459 0 0.047041997855474811 0.00084383941424273287 0 0.046798933541373142 0.00089334020386816341 0 0.04721664537171074 0.0013010298670587657 0 0.046798933541373142 0.00089334020386816341 0 0.04721664537171074 0.0013010298670587657 0 0.047021759015314586 0.0014397490165273786 0 0.04721664537171074 0.0013010298670587657 0 0.047021759015314586 0.0014397490165273786 0 0.047247028564431165 0.0019743943396325564 0 0.05338330463681526 0.0025779344444237977 0 0.053500432189160792 0.0022183111677850685 0 0.053852091483442326 0.0023683598499422559 0 0.05338330463681526 0.0025779344444237977 0 0.053148530901222985 0.0019390662644776584 0 0.053500432189160792 0.0022183111677850685 0 0.050264172726306316 0.002445118347411459 0 0.049292804662585829 0.0012267113853838521 0 0.053148530901222985 0.0019390662644776584 0 0.053608794687949692 0.0019823292983348873 0 0.053500432189160792 0.0022183111677850685 0 0.053608794687949692 0.0019823292983348873 0 0.053917750023429259 0.0017990905819382844 0 0.053852091483442326 0.0023683598499422559 0 0.053608794687949692 0.0019823292983348873 0 0.053500432189160792 0.0022183111677850685 0 0.053852091483442326 0.0023683598499422559 0 0.046875257755181664 0.00099335969367913808 0 0.049292804662585829 0.0012267113853838521 0 0.046490048598171567 0.00052763802404689737 0 0.046523472661484669 0.0002114214945666581 0 0.046133680550325851 0.00035679663696629979 0 0.046523472661484669 0.0002114214945666581 0 0.046133680550325851 0.00035679663696629979 0 0.046467994290308429 1.4218736204004938e-05 0 0.047886454466624068 0.00025238291935254331 0 0.044934899597488594 0.00038177720288398113 0 0.046140810422392514 0.00077417847772792193 0 0.046133680550325851 0.00035679663696629979 0 0.045805124254886483 0.00070551803584641571 0 0.044909862100627564 3.3765516427041111e-06 0 0.046114602458364067 0.00032401302741182309 0 0.048159186316244502 -8.1947199976369678e-07 0 0.044903934341039738 4.2701746935765564e-07 0 0.044934899597488594 0.00038177720288398113 0 0.04947057217474804 0.00049574154825470017 0 0.046114602458364067 0.00032401302741182309 0 0.048159186316244502 -8.1947199976369678e-07 0 0.04947057217474804 0.00049574154825470017 0 0.048159186316244502 -8.1947199976369678e-07 0 0.050338626110669936 -5.2858264851358545e-05 0 0.048159186316244502 -8.1947199976369678e-07 0 0.050338626110669936 -5.2858264851358545e-05 0 0.051415727105309429 -1.0569051011351784e-06 0 0.04947057217474804 0.00049574154825470017 0 0.050338626110669936 -5.2858264851358545e-05 0 0.050798216364231118 0.00023281737546593139 0 0.050338626110669936 -5.2858264851358545e-05 0 0.051251732204162313 0.00013143261302975414 0 0.051522234528625442 -0.00011121256703352477 0 0.050338626110669936 -5.2858264851358545e-05 0 0.050798216364231118 0.00023281737546593139 0 0.051251732204162313 0.00013143261302975414 0 0.051251732204162313 0.00013143261302975414 0 0.051522234528625442 -0.00011121256703352477 0 0.051718689214099139 7.1901072339209806e-05 0 0.050338626110669936 -5.2858264851358545e-05 0 0.051415727105309429 -1.0569051011351784e-06 0 0.051522234528625442 -0.00011121256703352477 0 0.051415727105309429 -1.0569051011351784e-06 0 0.052257532188898836 -0.00027202407319812242 0 0.054665222442740191 1.35296661077513e-06 0 0.051415727105309429 -1.0569051011351784e-06 0 0.052257532188898836 -0.00027202407319812242 0 0.051522234528625442 -0.00011121256703352477 0 0.05499620340870174 -2.9682037835225267e-06 0 0.05499711979186217 -1.8695497105109255e-07 0 0.054999854157132044 -4.263562127169958e-07 0 0.051522234528625442 -0.00011121256703352477 0 0.051968061357817029 -6.5722923821544889e-05 0 0.051718689214099139 7.1901072339209806e-05 0 0.051522234528625442 -0.00011121256703352477 0 0.051944721781465232 -0.00019804778974304632 0 0.051968061357817029 -6.5722923821544889e-05 0 0.052257532188898836 -0.00027202407319812242 0 0.051522234528625442 -0.00011121256703352477 0 0.051944721781465232 -0.00019804778974304632 0 0.052257532188898836 -0.00027202407319812242 0 0.051944721781465232 -0.00019804778974304632 0 0.052008961698175753 0.0001126655575404573 0 0.051944721781465232 -0.00019804778974304632 0 0.052008961698175753 0.0001126655575404573 0 0.052435347342421994 -0.00073727146305744261 0 0.053571497554310142 -1.9385137747124889e-05 0 0.054669670111276845 5.299916691785544e-08 0 0.052257532188898836 -0.00027202407319812242 0 0.052008961698175753 0.0001126655575404573 0 0.054665222442740191 1.35296661077513e-06 0 0.05499620340870174 -2.9682037835225267e-06 0 0.054674972020241408 4.4545838622242211e-07 0 0.05499711979186217 -1.8695497105109255e-07 0 0.053784117817510912 -0.00029831116584136337 0 0.054623104536638732 -0.00025200508554716681 0 0.053373392425237122 -0.00016400833602818064 0 0.052435347342421994 -0.00073727146305744261 0 0.054773107378743885 -0.00020699601004054758 0 0.054999854157132044 -4.263562127169958e-07 0 0.05501501387537281 -2.1337391440347383e-05 0 0.054773107378743885 -0.00020699601004054758 0 0.053373392425237122 -0.00016400833602818064 0 0.053828367543702647 4.2437664713997861e-05 0 0.054773107378743885 -0.00020699601004054758 0 0.05499620340870174 -2.9682037835225267e-06 0 0.054999854157132044 -4.263562127169958e-07 0 0.05501501387537281 -2.1337391440347383e-05 0 0.053571497554310142 -1.9385137747124889e-05 0 0.053784117817510912 -0.00029831116584136337 0 0.051944721781465232 -0.00019804778974304632 0 0.052435347342421994 -0.00073727146305744261 0 0.05245321107066974 -0.00020448455075280673 0 0.053373392425237122 -0.00016400833602818064 0 0.052435347342421994 -0.00073727146305744261 0 0.05245321107066974 -0.00020448455075280673 0 0.053373392425237122 -0.00016400833602818064 0 0.05245321107066974 -0.00020448455075280673 0 0.053010679719469739 -2.9414586100713338e-05 0 0.05245321107066974 -0.00020448455075280673 0 0.051968061357817029 -6.5722923821544889e-05 0 0.052497221184421954 1.6289095032658408e-05 0 0.05245321107066974 -0.00020448455075280673 0 0.052497221184421954 1.6289095032658408e-05 0 0.053010679719469739 -2.9414586100713338e-05 0 0.051944721781465232 -0.00019804778974304632 0 0.05245321107066974 -0.00020448455075280673 0 0.051968061357817029 -6.5722923821544889e-05 0 0.051968061357817029 -6.5722923821544889e-05 0 0.052237244910184777 0.00014060581969589924 0 0.051718689214099139 7.1901072339209806e-05 0 0.052497221184421954 1.6289095032658408e-05 0 0.052237244910184777 0.00014060581969589924 0 0.053066607460695248 0.00019220629785193623 0 0.052237244910184777 0.00014060581969589924 0 0.053066607460695248 0.00019220629785193623 0 0.052636154730043891 0.00037676029693670267 0 0.051968061357817029 -6.5722923821544889e-05 0 0.052497221184421954 1.6289095032658408e-05 0 0.052237244910184777 0.00014060581969589924 0 0.052497221184421954 1.6289095032658408e-05 0 0.053066607460695248 0.00019220629785193623 0 0.053010679719469739 -2.9414586100713338e-05 0 0.053066607460695248 0.00019220629785193623 0 0.053010679719469739 -2.9414586100713338e-05 0 0.053828367543702647 4.2437664713997861e-05 0 0.053373392425237122 -0.00016400833602818064 0 0.053010679719469739 -2.9414586100713338e-05 0 0.053828367543702647 4.2437664713997861e-05 0 0.053828367543702647 4.2437664713997861e-05 0 0.05378890038380179 0.00047544914370944589 0 0.054494501461792431 1.0316274230549402e-05 0 0.053066607460695248 0.00019220629785193623 0 0.053828367543702647 4.2437664713997861e-05 0 0.05378890038380179 0.00047544914370944589 0 0.05378890038380179 0.00047544914370944589 0 0.052636154730043891 0.00037676029693670267 0 0.052525279395295492 0.00083690298316100047 0 0.053066607460695248 0.00019220629785193623 0 0.05378890038380179 0.00047544914370944589 0 0.052636154730043891 0.00037676029693670267 0 0.05378890038380179 0.00047544914370944589 0 0.052525279395295492 0.00083690298316100047 0 0.052484604113743206 0.00093163767913005528 0 0.053868883371344857 0.00035950423767931841 0 0.05170873682873952 0.0007296462596060731 0 0.051743638282804386 0.00075872850956689461 0 0.05170873682873952 0.0007296462596060731 0 0.05378890038380179 0.00047544914370944589 0 0.053842362269835436 0.0011143615236614756 0 0.053166761798796369 0.001172346536219699 0 0.051251732204162313 0.00013143261302975414 0 0.051718689214099139 7.1901072339209806e-05 0 0.051913886081518902 0.00025916570956169266 0 0.052237244910184777 0.00014060581969589924 0 0.051718689214099139 7.1901072339209806e-05 0 0.051913886081518902 0.00025916570956169266 0 0.052237244910184777 0.00014060581969589924 0 0.052636154730043891 0.00037676029693670267 0 0.051913886081518902 0.00025916570956169266 0 0.052636154730043891 0.00037676029693670267 0 0.051913886081518902 0.00025916570956169266 0 0.052170715776265073 0.00045389113155746294 0 0.052636154730043891 0.00037676029693670267 0 0.052525279395295492 0.00083690298316100047 0 0.052170715776265073 0.00045389113155746294 0 0.052525279395295492 0.00083690298316100047 0 0.052170715776265073 0.00045389113155746294 0 0.051670483254578979 0.00045049620852712855 0 0.052525279395295492 0.00083690298316100047 0 0.051670483254578979 0.00045049620852712855 0 0.052536875868757237 0.0010411826015919059 0 0.051913886081518902 0.00025916570956169266 0 0.052170715776265073 0.00045389113155746294 0 0.051670483254578979 0.00045049620852712855 0 0.051251732204162313 0.00013143261302975414 0 0.051913886081518902 0.00025916570956169266 0 0.051670483254578979 0.00045049620852712855 0 0.050798216364231118 0.00023281737546593139 0 0.051251732204162313 0.00013143261302975414 0 0.051670483254578979 0.00045049620852712855 0 0.04947057217474804 0.00049574154825470017 0 0.050798216364231118 0.00023281737546593139 0 0.051434031790502495 0.00040216633563500771 0 0.05034425954262263 0.0010599340895154393 0 0.050256432049487418 0.00079189855839126354 0 0.050361407922578975 0.00067317961927538671 0 0.047886454466624068 0.00025238291935254331 0 0.049762022064880389 0.00054156559723736333 0 0.050798216364231118 0.00023281737546593139 0 0.051670483254578979 0.00045049620852712855 0 0.051434031790502495 0.00040216633563500771 0 0.050964429718031758 0.00093138096193215079 0 0.049762022064880389 0.00054156559723736333 0 0.051670483254578979 0.00045049620852712855 0 0.052007905548450604 0.001645198392070116 0 0.052536875868757237 0.0010411826015919059 0 0.049762022064880389 0.00054156559723736333 0 0.05170873682873952 0.0007296462596060731 0 0.049292804662585829 0.0012267113853838521 0 0.049762022064880389 0.00054156559723736333 0 0.049292804662585829 0.0012267113853838521 0 0.05170873682873952 0.0007296462596060731 0 0.053148530901222985 0.0019390662644776584 0 0.053166761798796369 0.001172346536219699 0 0.053503355922417624 0.0015920567988748989 0 0.053842362269835436 0.0011143615236614756 0 0.053503355922417624 0.0015920567988748989 0 0.053917750023429259 0.0017990905819382844 0 0.053842362269835436 0.0011143615236614756 0 0.053166761798796369 0.001172346536219699 0 0.053503355922417624 0.0015920567988748989 0 0.053148530901222985 0.0019390662644776584 0 0.053608794687949692 0.0019823292983348873 0 0.053503355922417624 0.0015920567988748989 0 0.053608794687949692 0.0019823292983348873 0 0.053503355922417624 0.0015920567988748989 0 0.053917750023429259 0.0017990905819382844 0 0.053842362269835436 0.0011143615236614756 0 0.053917750023429259 0.0017990905819382844 0 0.054788940580016626 0.0014093723165650835 0 0.054999854157132044 -4.263562127169958e-07 0 0.054773107378743885 -0.00020699601004054758 0 0.054999043693577158 -2.5268718064216083e-07 0 0.051429262181344942 0.00031923072367084779 0 0.051865793200656256 0.00046045343701898105 0 0.051213666156765085 0.0017286992120835593 0 0.054788940580016626 0.0014093723165650835 0 0.054615317489921281 0.00064197126767352199 0 0.055301074351362084 0.0004519705223547288 0 0.051183833147146605 0.00013021493792029012 0 0.053108825439567339 -0.00037701134151807365 0 0.051429262181344942 0.00031923072367084779 0 0.051865793200656256 0.00046045343701898105 0 0.052169813379729077 -0.0009424342818488146 0 0.051865793200656256 0.00046045343701898105 0 0.052169813379729077 -0.0009424342818488146 0 0.052509988535232838 -0.00079801836681291799 0 0.053304768826046837 0.00078907406029012431 0 0.054277097653087115 0.00020955406206587352 0 0.053842362269835436 0.0011143615236614756 0 0.054788940580016626 0.0014093723165650835 0 0.054615317489921281 0.00064197126767352199 0 0.05378890038380179 0.00047544914370944589 0 0.053842362269835436 0.0011143615236614756 0 0.054615317489921281 0.00064197126767352199 0 0.054846216255987797 -5.7731156056750483e-05 0 0.054773107378743885 -0.00020699601004054758 0 0.054999043693577158 -2.5268718064216083e-07 0 0.05378890038380179 0.00047544914370944589 0 0.054615317489921281 0.00064197126767352199 0 0.054494501461792431 1.0316274230549402e-05 0 0.053828367543702647 4.2437664713997861e-05 0 0.054494501461792431 1.0316274230549402e-05 0 0.054773107378743885 -0.00020699601004054758 0 0.054615317489921281 0.00064197126767352199 0 0.054494501461792431 1.0316274230549402e-05 0 0.055301074351362084 0.0004519705223547288 0 0.054852014399348642 0.00010788159498459903 0 0.054277097653087115 0.00020955406206587352 0 0.054494501461792431 1.0316274230549402e-05 0 0.054914744644521681 0.00016189877494866072 0 0.054846216255987797 -5.7731156056750483e-05 0 0.054494501461792431 1.0316274230549402e-05 0 0.054846216255987797 -5.7731156056750483e-05 0 0.054773107378743885 -0.00020699601004054758 0 0.054999970043298145 -1.5451174337466112e-08 0 0.054985281120957907 -7.8399727051601696e-06 0 0.054999972336277209 -3.602326334340435e-10 0 0.054999958889926918 6.1134360795304426e-08 0 0.055031853000475417 -2.1039901577208102e-05 0 0.054999970043298145 -1.5451174337466112e-08 0 0.054985281120957907 -7.8399727051601696e-06 0 0.054978561536418162 -1.2270079149462217e-05 0 0.055000113036906044 -1.3817518340654437e-08 0 0.054999871947853732 1.2433405867392884e-08 0 0.054967901840197626 5.3958044470700059e-05 0 0.054999953251677308 3.143407599233318e-08 0 0.054974109305185821 -1.9051926408514616e-05 0 0.054846216255987797 -5.7731156056750483e-05 0 0.054999043693577158 -2.5268718064216083e-07 0 0.054947152037571896 -1.2478839002505755e-05 0 0.054999871947853732 1.2433405867392884e-08 0 0.054934287366988972 4.6680511802738882e-05 0 0.054967901840197626 5.3958044470700059e-05 0 0.054978561536418162 -1.2270079149462217e-05 0 0.054974154297031667 -1.4470617002768048e-05 0 0.054961097250833597 -1.8162876241889526e-05 0 0.054850623521940145 0.00015854965964505889 0 0.054934287366988972 4.6680511802738882e-05 0 0.054895647548097053 0.00017669092936992077 0 0.054934287366988972 4.6680511802738882e-05 0 0.054967901840197626 5.3958044470700059e-05 0 0.054895647548097053 0.00017669092936992077 0 0.054914744644521681 0.00016189877494866072 0 0.054846216255987797 -5.7731156056750483e-05 0 0.054947152037571896 -1.2478839002505755e-05 0 0.055031853000475417 -2.1039901577208102e-05 0 0.053108825439567339 -0.00037701134151807365 0 0.054277097653087115 0.00020955406206587352 0 0.054974109305185821 -1.9051926408514616e-05 0 0.054985281120957907 -7.8399727051601696e-06 0 0.054974154297031667 -1.4470617002768048e-05 0 0.054972821770173132 -1.2365061910943776e-05 0 0.054974154297031667 -1.4470617002768048e-05 0 0.054963372781405506 -2.111917447711134e-05 0 0.054972821770173132 -1.2365061910943776e-05 0 0.054985281120957907 -7.8399727051601696e-06 0 0.054978561536418162 -1.2270079149462217e-05 0 0.054974154297031667 -1.4470617002768048e-05 0 0.054974154297031667 -1.4470617002768048e-05 0 0.054963372781405506 -2.111917447711134e-05 0 0.054961097250833597 -1.8162876241889526e-05 0 0.053181951234438168 -0.00053251957000352047 0 0.053604061620218371 -0.00021212479517502883 0 0.050224468040427968 -0.00030036770279889797 0 0.050747064048521945 -0.0013140054725847281 0 0.051045668223055118 -0.00047881696176519875 0 0.051501538548527563 -0.0009955501875129637 0 0.050747064048521945 -0.0013140054725847281 0 0.051045668223055118 -0.00047881696176519875 0 0.053181951234438168 -0.00053251957000352047 0 0.053108825439567339 -0.00037701134151807365 0 0.054277097653087115 0.00020955406206587352 0 0.053108825439567339 -0.00037701134151807365 0 0.051045668223055118 -0.00047881696176519875 0 0.051696180106545774 -0.00018023606890011089 0 0.05091439306816626 0.00021675794830424536 0 0.050224468040427968 -0.00030036770279889797 0 0.051045668223055118 -0.00047881696176519875 0 0.05091439306816626 0.00021675794830424536 0 0.051501538548527563 -0.0009955501875129637 0 0.051696180106545774 -0.00018023606890011089 0 0.052292548420541117 -0.00068837191203248286 0 0.051501538548527563 -0.0009955501875129637 0 0.051045668223055118 -0.00047881696176519875 0 0.051696180106545774 -0.00018023606890011089 0 0.051696180106545774 -0.00018023606890011089 0 0.05091439306816626 0.00021675794830424536 0 0.052114085789480021 0.00069520242812798306 0 0.051047279330969753 0.001069716933407083 0 0.05091439306816626 0.00021675794830424536 0 0.052114085789480021 0.00069520242812798306 0 0.049608965162928557 0.00043929283232690053 0 0.050593397202856216 0.00046442087659516928 0 0.050637910421838593 7.1832928370222792e-05 0 0.048472461382515313 0.00010902051620345917 0 0.049211161898035649 0.00031774716516683448 0 0.048472461382515313 0.00010902051620345917 0 0.051879989018660214 0.00028995402899231629 0 0.046747479980440702 0.0004719334056329908 0 0.045636674555972881 -0.00036078443330005681 0 0.048064559208590957 -5.0844465703435745e-05 0 0.046747479980440702 0.0004719334056329908 0 0.045636674555972881 -0.00036078443330005681 0 0.045691775176293803 0.0011943506848112345 0 0.049608965162928557 0.00043929283232690053 0 0.050642839122508311 0.00067460149634288697 0 0.050593397202856216 0.00046442087659516928 0 0.046747479980440702 0.0004719334056329908 0 0.047458210447546195 0.00070245020186387867 0 0.048064559208590957 -5.0844465703435745e-05 0 0.045636674555972881 -0.00036078443330005681 0 0.043811482661412507 0.00055748102750254904 0 0.044771157379056299 0.00085195622261517235 0 0.048472461382515313 0.00010902051620345917 0 0.044123143267348668 0.00046053094239686406 0 0.051047279330969753 0.001069716933407083 0 0.05091439306816626 0.00021675794830424536 0 0.049698008195672626 0.00072003846858793483 0 0.051183833147146605 0.00013021493792029012 0 0.047599634784570202 -3.7137999428624692e-05 0 0.050224468040427968 -0.00030036770279889797 0 0.05091439306816626 0.00021675794830424536 0 0.049698008195672626 0.00072003846858793483 0 0.051429262181344942 0.00031923072367084779 0 0.051213666156765085 0.0017286992120835593 0 0.050681727601387949 0.0015919749230706192 0 0.053304768826046837 0.00078907406029012431 0 0.050318829460736618 0.001603666119379012 0 0.053917750023429259 0.0017990905819382844 0 0.054788940580016626 0.0014093723165650835 0 0.05410491879776242 0.0024391113404371371 0 0.053917750023429259 0.0017990905819382844 0 0.05410491879776242 0.0024391113404371371 0 0.053852091483442326 0.0023683598499422559 0 0.047599634784570202 -3.7137999428624692e-05 0 0.050318829460736618 0.001603666119379012 0 0.050318829460736618 0.001603666119379012 0 0.052606912938016066 0.0021615466658077894 0 0.043757515519084661 -0.00030799782399950254 0 0.04308441998536712 0.0002165953211638889 0 0.045119012182765691 0.00037296069750957162 0 0.047091668507952253 0.001184477536361496 0 0.050318829460736618 0.001603666119379012 0 0.043274225516458889 -0.0016799362234319968 0 0.043757515519084661 -0.00030799782399950254 0 0.04308441998536712 0.0002165953211638889 0 0.042012583866704339 0.00053303125859275257 0 0.043274225516458889 -0.0016799362234319968 0 0.04308441998536712 0.0002165953211638889 0 0.053553948653396272 0.0031460327925311839 0 0.054036157584062924 0.0024166587035057666 0 0.053852091483442326 0.0023683598499422559 0 0.044324080989358194 -0.0014105044214571193 0 0.043274225516458889 -0.0016799362234319968 0 0.043757515519084661 -0.00030799782399950254 0 0.047599634784570202 -3.7137999428624692e-05 0 0.044995754809265966 -3.3929850124488851e-05 0 0.048472461382515313 0.00010902051620345917 0 0.047599634784570202 -3.7137999428624692e-05 0 0.047818014685856662 -0.00057279197041223788 0 0.044331640646095412 -0.0014790815343795557 0 0.045119012182765691 0.00037296069750957162 0 0.044331640646095412 -0.0014790815343795557 0 0.043757515519084661 -0.00030799782399950254 0 0.045119012182765691 0.00037296069750957162 0 0.043811482661412507 0.00055748102750254904 0 0.04401748246761604 0.0018903023803256357 0 0.044771157379056299 0.00085195622261517235 0 0.042431248354482767 0.0011440966337901877 0 0.043811482661412507 0.00055748102750254904 0 0.04401748246761604 0.0018903023803256357 0 0.041569214679237722 -0.0017712006798605165 0 0.040866108527345284 -0.0016402159350768263 0 0.042431248354482767 0.0011440966337901877 0 0.04308441998536712 0.0002165953211638889 0 0.045119012182765691 0.00037296069750957162 0 0.0423804984510852 0.0014902345088502263 0 0.042431248354482767 0.0011440966337901877 0 0.04401748246761604 0.0018903023803256357 0 0.042712315585451729 0.0010762636360998965 0 0.044123143267348668 0.00046053094239686406 0 0.038344628636200723 -0.0050006690676337191 0 0.038213108718087432 -0.0051143874102769285 0 0.038258400125647095 -0.0050962474119984023 0 0.040830566054684672 -0.00067463499238969225 0 0.0409485601670573 -0.00098008645451577248 0 0.041164682850240497 -0.00036111286034665906 0 0.041569214679237722 -0.0017712006798605165 0 0.039686263910545631 -0.0029324763009861833 0 0.038213108718087432 -0.0051143874102769285 0 0.038198626785189621 -0.0051029341213478545 0 0.038258400125647095 -0.0050962474119984023 0 0.038469992709356929 -0.0054086849760646549 0 0.038200505043682213 -0.0050944997600497156 0 0.038198626785189621 -0.0051029341213478545 0 0.040866108527345284 -0.0016402159350768263 0 0.042516131193246862 -0.0012470264410553321 0 0.038213108718087432 -0.0051143874102769285 0 0.038469992709356929 -0.0054086849760646549 0 0.038198626785189621 -0.0051029341213478545 0 0.038469992709356929 -0.0054086849760646549 0 0.038914701196971317 -0.0050655286823411243 0 0.038200505043682213 -0.0050944997600497156 0 0.038469992709356929 -0.0054086849760646549 0 0.040095254772559014 -0.0053334119345190521 0 0.038914701196971317 -0.0050655286823411243 0 0.046215768772340723 0.0026921612072880138 0 0.047061687796803371 0.0013095877108532782 0 0.045691775176293803 0.0011943506848112345 0 0.046215768772340723 0.0026921612072880138 0 0.047061687796803371 0.0013095877108532782 0 0.047913994712313321 0.0020518416881678699 0 0.046747479980440702 0.0004719334056329908 0 0.047061687796803371 0.0013095877108532782 0 0.047458210447546195 0.00070245020186387867 0 0.047061687796803371 0.0013095877108532782 0 0.047458210447546195 0.00070245020186387867 0 0.047991765031345855 0.0010704100449164021 0 0.046747479980440702 0.0004719334056329908 0 0.047061687796803371 0.0013095877108532782 0 0.045691775176293803 0.0011943506848112345 0 0.045636674555972881 -0.00036078443330005681 0 0.044771157379056299 0.00085195622261517235 0 0.045691775176293803 0.0011943506848112345 0 0.04401748246761604 0.0018903023803256357 0 0.046215768772340723 0.0026921612072880138 0 0.045691775176293803 0.0011943506848112345 0 0.04401748246761604 0.0018903023803256357 0 0.044771157379056299 0.00085195622261517235 0 0.045691775176293803 0.0011943506848112345 0 0.051260443000151125 0.00088412291812454968 0 0.050226052737755524 0.0013611885628572349 0 0.048064559208590957 -5.0844465703435745e-05 0 0.051338621061001871 0.001461494036272554 0 0.050226052737755524 0.0013611885628572349 0 0.049248750640811204 0.0036189037117100625 0 0.051338621061001871 0.001461494036272554 0 0.051260443000151125 0.00088412291812454968 0 0.050226052737755524 0.0013611885628572349 0 0.050226052737755524 0.0013611885628572349 0 0.049157514244340395 0.0015141731797271498 0 0.049248750640811204 0.0036189037117100625 0 0.050226052737755524 0.0013611885628572349 0 0.049157514244340395 0.0015141731797271498 0 0.048064559208590957 -5.0844465703435745e-05 0 0.047458210447546195 0.00070245020186387867 0 0.047991765031345855 0.0010704100449164021 0 0.048064559208590957 -5.0844465703435745e-05 0 0.047991765031345855 0.0010704100449164021 0 0.049157514244340395 0.0015141731797271498 0 0.048064559208590957 -5.0844465703435745e-05 0 0.047061687796803371 0.0013095877108532782 0 0.047991765031345855 0.0010704100449164021 0 0.047913994712313321 0.0020518416881678699 0 0.047991765031345855 0.0010704100449164021 0 0.047913994712313321 0.0020518416881678699 0 0.049157514244340395 0.0015141731797271498 0 0.047913994712313321 0.0020518416881678699 0 0.049157514244340395 0.0015141731797271498 0 0.049248750640811204 0.0036189037117100625 0 0.042516131193246862 -0.0012470264410553321 0 0.04448235045716635 -0.0015499880756015508 0 0.046215768772340723 0.0026921612072880138 0 0.047913994712313321 0.0020518416881678699 0 0.049248750640811204 0.0036189037117100625 0 0.04448235045716635 -0.0015499880756015508 0 0.047906871350052074 -0.00059956249340606513 0 0.051190889919948294 0.0016831280906652536 0 0.04448235045716635 -0.0015499880756015508 0 0.048611227768665048 0.0024077240594527973 0 0.05075181043634603 0.0017949624677167267 0 0.051395088880995136 0.0029843679605095898 0 0.050560312653867623 0.00086430029891556225 0 0.048611227768665048 0.0024077240594527973 0 0.05075181043634603 0.0017949624677167267 0 0.052736175386462913 0.0017845152386761964 0 0.047906871350052074 -0.00059956249340606513 0 0.05075181043634603 0.0017949624677167267 0 0.052306414644635639 0.0010060078743889462 0 0.051395088880995136 0.0029843679605095898 0 0.052660943772962349 0.0010387729013772199 0 0.052306414644635639 0.0010060078743889462 0 0.052317201302574418 0.0011976832132190786 0 0.052660943772962349 0.0010387729013772199 0 0.052706757020763439 0.0011431176792241046 0 0.052317201302574418 0.0011976832132190786 0 0.052306414644635639 0.0010060078743889462 0 0.052260269719167973 0.00034893053254642965 0 0.052757546958330591 0.00065936850424745327 0 0.052660943772962349 0.0010387729013772199 0 0.052306414644635639 0.0010060078743889462 0 0.052757546958330591 0.00065936850424745327 0 0.050560312653867623 0.00086430029891556225 0 0.05075181043634603 0.0017949624677167267 0 0.052306414644635639 0.0010060078743889462 0 0.051338621061001871 0.001461494036272554 0 0.051260443000151125 0.00088412291812454968 0 0.052260269719167973 0.00034893053254642965 0 0.050560312653867623 0.00086430029891556225 0 0.052306414644635639 0.0010060078743889462 0 0.052260269719167973 0.00034893053254642965 0 0.051260443000151125 0.00088412291812454968 0 0.052260269719167973 0.00034893053254642965 0 0.051675958800257465 0.00044096667490201448 0 0.051190889919948294 0.0016831280906652536 0 0.052053040282910613 0.00028076505790518102 0 0.052260269719167973 0.00034893053254642965 0 0.05213924141516587 0.00018014264402984771 0 0.051675958800257465 0.00044096667490201448 0 0.052757546958330591 0.00065936850424745327 0 0.052937355074627095 0.00029547651441392566 0 0.053149614114539542 0.00046641207251988276 0 0.052260269719167973 0.00034893053254642965 0 0.052757546958330591 0.00065936850424745327 0 0.052937355074627095 0.00029547651441392566 0 0.052260269719167973 0.00034893053254642965 0 0.052937355074627095 0.00029547651441392566 0 0.05275455086183109 0.00015213438119715821 0 0.05275455086183109 0.00015213438119715821 0 0.053105195940672048 7.8919239330746215e-05 0 0.053161178058882978 0.00015667066735272354 0 0.052937355074627095 0.00029547651441392566 0 0.05275455086183109 0.00015213438119715821 0 0.053161178058882978 0.00015667066735272354 0 0.052937355074627095 0.00029547651441392566 0 0.053161178058882978 0.00015667066735272354 0 0.053358033215944803 0.00025716145024575089 0 0.052359358322899605 -8.8807210554001038e-05 0 0.052835941634945816 -5.3222940573501727e-05 0 0.05237820057936874 5.301850717016221e-05 0 0.051486853779345296 -0.00018127537638991907 0 0.05296724523792657 -1.3952961253005568e-05 0 0.053169314128128649 -3.9546162442868277e-05 0 0.05296724523792657 -1.3952961253005568e-05 0 0.053007604522047461 1.9073121594454738e-06 0 0.05213924141516587 0.00018014264402984771 0 0.05275455086183109 0.00015213438119715821 0 0.05237820057936874 5.301850717016221e-05 0 0.05213924141516587 0.00018014264402984771 0 0.05237820057936874 5.301850717016221e-05 0 0.051486853779345296 -0.00018127537638991907 0 0.052260269719167973 0.00034893053254642965 0 0.05213924141516587 0.00018014264402984771 0 0.05275455086183109 0.00015213438119715821 0 0.05275455086183109 0.00015213438119715821 0 0.05237820057936874 5.301850717016221e-05 0 0.05296724523792657 -1.3952961253005568e-05 0 0.05275455086183109 0.00015213438119715821 0 0.05296724523792657 -1.3952961253005568e-05 0 0.053105195940672048 7.8919239330746215e-05 0 0.051486853779345296 -0.00018127537638991907 0 0.051396080769750656 0.00022322305605778077 0 0.0505921404360598 0.00014515513254664608 0 0.05213924141516587 0.00018014264402984771 0 0.051486853779345296 -0.00018127537638991907 0 0.051396080769750656 0.00022322305605778077 0 0.05213924141516587 0.00018014264402984771 0 0.051396080769750656 0.00022322305605778077 0 0.051675958800257465 0.00044096667490201448 0 0.051396080769750656 0.00022322305605778077 0 0.051675958800257465 0.00044096667490201448 0 0.051252092962001353 0.00051316275815017757 0 0.051252092962001353 0.00051316275815017757 0 0.050933294650578914 0.00055842087638725282 0 0.051062518238907 0.00042873660355666725 0 0.051396080769750656 0.00022322305605778077 0 0.051252092962001353 0.00051316275815017757 0 0.051062518238907 0.00042873660355666725 0 0.051260443000151125 0.00088412291812454968 0 0.051252092962001353 0.00051316275815017757 0 0.050933294650578914 0.00055842087638725282 0 0.051260443000151125 0.00088412291812454968 0 0.051675958800257465 0.00044096667490201448 0 0.051252092962001353 0.00051316275815017757 0 0.051189686230046674 0.00084136506032213515 0 0.049211161898035649 0.00031774716516683448 0 0.051260443000151125 0.00088412291812454968 0 0.050642839122508311 0.00067460149634288697 0 0.050933294650578914 0.00055842087638725282 0 0.051396080769750656 0.00022322305605778077 0 0.051062518238907 0.00042873660355666725 0 0.0505921404360598 0.00014515513254664608 0 0.050642839122508311 0.00067460149634288697 0 0.050933294650578914 0.00055842087638725282 0 0.050593397202856216 0.00046442087659516928 0 0.050933294650578914 0.00055842087638725282 0 0.051062518238907 0.00042873660355666725 0 0.0505921404360598 0.00014515513254664608 0 0.050933294650578914 0.00055842087638725282 0 0.050593397202856216 0.00046442087659516928 0 0.0505921404360598 0.00014515513254664608 0 0.051229446122951945 0.0004072209205138538 0 0.051879989018660214 0.00028995402899231629 0 0.052359358322899605 -8.8807210554001038e-05 0 0.051879989018660214 0.00028995402899231629 0 0.053169314128128649 -3.9546162442868277e-05 0 0.053256724184312529 -6.7799044102810589e-05 0 0.053253578589759737 8.6783958617192922e-05 0 0.051696180106545774 -0.00018023606890011089 0 0.052114085789480021 0.00069520242812798306 0 0.052280099253813613 -0.00068655914853054582 0 0.053301882793593262 9.7925843882727527e-05 0 0.053604061620218371 -0.00021212479517502883 0 0.051879989018660214 0.00028995402899231629 0 0.053604061620218371 -0.00021212479517502883 0 0.051638295599233559 -6.7369277073952389e-05 0 0.053604061620218371 -0.00021212479517502883 0 0.053508921806995416 0.00012215973621078761 0 0.053481904820408252 0.00020177206630812118 0 0.05355804110237801 0.00018377215326889854 0 0.053169314128128649 -3.9546162442868277e-05 0 0.053158602983775019 5.1895753100084244e-05 0 0.053007604522047461 1.9073121594454738e-06 0 0.053169314128128649 -3.9546162442868277e-05 0 0.053158602983775019 5.1895753100084244e-05 0 0.053253578589759737 8.6783958617192922e-05 0 0.053508921806995416 0.00012215973621078761 0 0.053481904820408252 0.00020177206630812118 0 0.053320426838723671 0.00017689413270246821 0 0.053481904820408252 0.00020177206630812118 0 0.05355804110237801 0.00018377215326889854 0 0.053472449466932331 0.0002004932685455379 0 0.053481904820408252 0.00020177206630812118 0 0.053472449466932331 0.0002004932685455379 0 0.05345236779824853 0.00022160904843084923 0 0.053604061620218371 -0.00021212479517502883 0 0.054323237047233151 0.00011413459699036593 0 0.054951733770265472 4.1670405708887546e-05 0 0.054973625329808422 1.1557471820718435e-05 0 0.054986999994574737 2.072855191657979e-05 0 0.053604061620218371 -0.00021212479517502883 0 0.055092643267382571 2.7835413326688248e-05 0 0.054963372781405506 -2.111917447711134e-05 0 0.054953096450073916 -2.6022927245695159e-05 0 0.054972821770173132 -1.2365061910943776e-05 0 0.054986999994574737 2.072855191657979e-05 0 0.054992794900342382 4.7707743494663731e-06 0 0.054999114064075184 5.4619941831079833e-06 0 0.054973625329808422 1.1557471820718435e-05 0 0.054986999994574737 2.072855191657979e-05 0 0.054992794900342382 4.7707743494663731e-06 0 0.054992794900342382 4.7707743494663731e-06 0 0.054999964673859619 -2.1527345464496946e-09 0 0.054999999810235983 4.359644294659457e-09 0 0.054973625329808422 1.1557471820718435e-05 0 0.054992794900342382 4.7707743494663731e-06 0 0.054999964673859619 -2.1527345464496946e-09 0 0.054985281120957907 -7.8399727051601696e-06 0 0.054972821770173132 -1.2365061910943776e-05 0 0.054999972336277209 -3.602326334340435e-10 0 0.055092643267382571 2.7835413326688248e-05 0 0.054999948268475492 -2.6683468200643982e-08 0 0.054997984031962384 -4.7674888830247956e-07 0 0.053831781094750619 2.140606883216135e-05 0 0.054633960067820654 2.2735739671303443e-05 0 0.054999709202288284 2.6926376646229043e-08 0 0.054406034800687272 6.0887259138186625e-05 0 0.055000000935241447 -1.834762267576369e-10 0 0.054999114064075184 5.4619941831079833e-06 0 0.054999999810235983 4.359644294659457e-09 0 0.054992794900342382 4.7707743494663731e-06 0 0.054999114064075184 5.4619941831079833e-06 0 0.054999999810235983 4.359644294659457e-09 0 0.053472449466932331 0.0002004932685455379 0 0.053831781094750619 2.140606883216135e-05 0 0.053833242286878184 0.00015524285503239817 0 0.054323237047233151 0.00011413459699036593 0 0.054406034800687272 6.0887259138186625e-05 0 0.053831781094750619 2.140606883216135e-05 0 0.054217659201318338 0.00014805412681946953 0 0.054633960067820654 2.2735739671303443e-05 0 0.053831781094750619 2.140606883216135e-05 0 0.053833242286878184 0.00015524285503239817 0 0.054217659201318338 0.00014805412681946953 0 0.053833242286878184 0.00015524285503239817 0 0.053826408474606867 0.00022996510573319116 0 0.054217659201318338 0.00014805412681946953 0 0.053833242286878184 0.00015524285503239817 0 0.053826408474606867 0.00022996510573319116 0 0.053590666642401898 0.00021625871730629467 0 0.053590666642401898 0.00021625871730629467 0 0.053361197379483138 0.00018946528481646245 0 0.053496128798676483 0.00021238467504671555 0 0.053826408474606867 0.00022996510573319116 0 0.053590666642401898 0.00021625871730629467 0 0.053496128798676483 0.00021238467504671555 0 0.053472449466932331 0.0002004932685455379 0 0.053590666642401898 0.00021625871730629467 0 0.05345236779824853 0.00022160904843084923 0 0.053472449466932331 0.0002004932685455379 0 0.053833242286878184 0.00015524285503239817 0 0.053590666642401898 0.00021625871730629467 0 0.053590666642401898 0.00021625871730629467 0 0.05345236779824853 0.00022160904843084923 0 0.053361197379483138 0.00018946528481646245 0 0.053481904820408252 0.00020177206630812118 0 0.05345236779824853 0.00022160904843084923 0 0.053320426838723671 0.00017689413270246821 0 0.053301882793593262 9.7925843882727527e-05 0 0.05305702704045314 5.773300168531858e-06 0 0.053508921806995416 0.00012215973621078761 0 0.053320426838723671 0.00017689413270246821 0 0.053007604522047461 1.9073121594454738e-06 0 0.053320426838723671 0.00017689413270246821 0 0.053361197379483138 0.00018946528481646245 0 0.053168863047526306 0.00010662704259653357 0 0.05345236779824853 0.00022160904843084923 0 0.053320426838723671 0.00017689413270246821 0 0.053361197379483138 0.00018946528481646245 0 0.053361197379483138 0.00018946528481646245 0 0.053168863047526306 0.00010662704259653357 0 0.053255726568838091 0.00014666827797458657 0 0.053320426838723671 0.00017689413270246821 0 0.053168863047526306 0.00010662704259653357 0 0.053007604522047461 1.9073121594454738e-06 0 0.053168863047526306 0.00010662704259653357 0 0.053066420364748561 5.2146307107637638e-05 0 0.053105195940672048 7.8919239330746215e-05 0 0.05296724523792657 -1.3952961253005568e-05 0 0.053066420364748561 5.2146307107637638e-05 0 0.053105195940672048 7.8919239330746215e-05 0 0.053168863047526306 0.00010662704259653357 0 0.053066420364748561 5.2146307107637638e-05 0 0.053007604522047461 1.9073121594454738e-06 0 0.05296724523792657 -1.3952961253005568e-05 0 0.053066420364748561 5.2146307107637638e-05 0 0.053007604522047461 1.9073121594454738e-06 0 0.053496128798676483 0.00021238467504671555 0 0.053255726568838091 0.00014666827797458657 0 0.053161178058882978 0.00015667066735272354 0 0.053361197379483138 0.00018946528481646245 0 0.053496128798676483 0.00021238467504671555 0 0.053255726568838091 0.00014666827797458657 0 0.053255726568838091 0.00014666827797458657 0 0.053105195940672048 7.8919239330746215e-05 0 0.053161178058882978 0.00015667066735272354 0 0.053168863047526306 0.00010662704259653357 0 0.053255726568838091 0.00014666827797458657 0 0.053105195940672048 7.8919239330746215e-05 0 0.053496128798676483 0.00021238467504671555 0 0.053161178058882978 0.00015667066735272354 0 0.053358033215944803 0.00025716145024575089 0 0.053496128798676483 0.00021238467504671555 0 0.053358033215944803 0.00025716145024575089 0 0.053879410624291649 0.00031905347401509678 0 0.053358033215944803 0.00025716145024575089 0 0.053474207259885304 0.00032722801179497634 0 0.053879410624291649 0.00031905347401509678 0 0.053474207259885304 0.00032722801179497634 0 0.053512309491293437 0.00029569946349367954 0 0.05329128281255361 0.00049156774322002376 0 0.053474207259885304 0.00032722801179497634 0 0.053879410624291649 0.00031905347401509678 0 0.053512309491293437 0.00029569946349367954 0 0.053879410624291649 0.00031905347401509678 0 0.053616189057938864 0.00068105048453697846 0 0.053512309491293437 0.00029569946349367954 0 0.053826408474606867 0.00022996510573319116 0 0.053879410624291649 0.00031905347401509678 0 0.054217659201318338 0.00014805412681946953 0 0.053826408474606867 0.00022996510573319116 0 0.053496128798676483 0.00021238467504671555 0 0.053879410624291649 0.00031905347401509678 0 0.053879410624291649 0.00031905347401509678 0 0.054217659201318338 0.00014805412681946953 0 0.054614044008111949 6.0685741738845996e-05 0 0.054217659201318338 0.00014805412681946953 0 0.054614044008111949 6.0685741738845996e-05 0 0.054633960067820654 2.2735739671303443e-05 0 0.053879410624291649 0.00031905347401509678 0 0.054614044008111949 6.0685741738845996e-05 0 0.054840672700679959 0.00011042087694585029 0 0.053869642115183539 0.00040023206612814239 0 0.054416610521862731 0.00020322904710559902 0 0.054614044008111949 6.0685741738845996e-05 0 0.054999868816072467 1.7327952894706675e-07 0 0.054999663192145137 -2.0071479529073244e-07 0 0.054614044008111949 6.0685741738845996e-05 0 0.054999663192145137 -2.0071479529073244e-07 0 0.054840672700679959 0.00011042087694585029 0 0.054997984031962384 -4.7674888830247956e-07 0 0.054999868816072467 1.7327952894706675e-07 0 0.054633960067820654 2.2735739671303443e-05 0 0.054614044008111949 6.0685741738845996e-05 0 0.054999868816072467 1.7327952894706675e-07 0 0.054633960067820654 2.2735739671303443e-05 0 0.054998528750853204 -3.8180447711663962e-08 0 0.054395562558506971 0.00010017230478680798 0 0.054528296547411745 0.00011717927182828515 0 0.054999712861404586 6.2025501167328069e-08 0 0.054998528750853204 -3.8180447711663962e-08 0 0.054528296547411745 0.00011717927182828515 0 0.055000005679657626 -8.9806069347504964e-12 0 0.054999987578399231 3.1186691570571395e-09 0 0.054995423739637721 4.569461120220024e-06 0 0.055000091400127502 -2.0448912718400463e-07 0 0.054416610521862731 0.00020322904710559902 0 0.054999968913458763 -7.3911818701201173e-08 0 0.054416610521862731 0.00020322904710559902 0 0.054395562558506971 0.00010017230478680798 0 0.054528296547411745 0.00011717927182828515 0 0.053950236560557197 0.00032044918684396656 0 0.053912951327787284 0.00035386001123797572 0 0.054528296547411745 0.00011717927182828515 0 0.053950236560557197 0.00032044918684396656 0 0.054416610521862731 0.00020322904710559902 0 0.053659027550864005 0.00038180041010637194 0 0.053659027550864005 0.00038180041010637194 0 0.053432660450258636 0.0005493328722942436 0 0.053912951327787284 0.00035386001123797572 0 0.053950236560557197 0.00032044918684396656 0 0.053347869895308514 0.0005730108308465027 0 0.053912951327787284 0.00035386001123797572 0 0.053464827085949414 0.00057622677270167196 0 0.053347869895308514 0.0005730108308465027 0 0.053065206374235854 0.00080554464916228854 0 0.053464827085949414 0.00057622677270167196 0 0.053347869895308514 0.0005730108308465027 0 0.053065206374235854 0.00080554464916228854 0 0.053347869895308514 0.0005730108308465027 0 0.052831437303516943 0.00093091762150525922 0 0.053347869895308514 0.0005730108308465027 0 0.05329128281255361 0.00049156774322002376 0 0.053106372822856851 0.00068394302555878405 0 0.053347869895308514 0.0005730108308465027 0 0.053106372822856851 0.00068394302555878405 0 0.052938653749512746 0.00089754057302953284 0 0.053512309491293437 0.00029569946349367954 0 0.053347869895308514 0.0005730108308465027 0 0.05329128281255361 0.00049156774322002376 0 0.053474207259885304 0.00032722801179497634 0 0.05329128281255361 0.00049156774322002376 0 0.053149614114539542 0.00046641207251988276 0 0.053358033215944803 0.00025716145024575089 0 0.053474207259885304 0.00032722801179497634 0 0.053149614114539542 0.00046641207251988276 0 0.052937355074627095 0.00029547651441392566 0 0.053358033215944803 0.00025716145024575089 0 0.053149614114539542 0.00046641207251988276 0 0.052757546958330591 0.00065936850424745327 0 0.053149614114539542 0.00046641207251988276 0 0.052928343792089216 0.00082492427568294099 0 0.05329128281255361 0.00049156774322002376 0 0.053149614114539542 0.00046641207251988276 0 0.053106372822856851 0.00068394302555878405 0 0.053149614114539542 0.00046641207251988276 0 0.053106372822856851 0.00068394302555878405 0 0.052928343792089216 0.00082492427568294099 0 0.052928343792089216 0.00082492427568294099 0 0.05288779173222137 0.00097582340166650085 0 0.052938653749512746 0.00089754057302953284 0 0.053106372822856851 0.00068394302555878405 0 0.052928343792089216 0.00082492427568294099 0 0.052938653749512746 0.00089754057302953284 0 0.052660943772962349 0.0010387729013772199 0 0.052757546958330591 0.00065936850424745327 0 0.052928343792089216 0.00082492427568294099 0 0.052660943772962349 0.0010387729013772199 0 0.05288779173222137 0.00097582340166650085 0 0.052706757020763439 0.0011431176792241046 0 0.052660943772962349 0.0010387729013772199 0 0.052928343792089216 0.00082492427568294099 0 0.05288779173222137 0.00097582340166650085 0 0.05288779173222137 0.00097582340166650085 0 0.052684373132097041 0.00097833335070177216 0 0.052938653749512746 0.00089754057302953284 0 0.052684373132097041 0.00097833335070177216 0 0.052831437303516943 0.00093091762150525922 0 0.052938653749512746 0.00089754057302953284 0 0.052338076034354912 0.00099392506707156954 0 0.052684373132097041 0.00097833335070177216 0 0.051934622777008208 0.00096917961604432441 0 0.052338076034354912 0.00099392506707156954 0 0.052684373132097041 0.00097833335070177216 0 0.052831437303516943 0.00093091762150525922 0 0.053347869895308514 0.0005730108308465027 0 0.052831437303516943 0.00093091762150525922 0 0.052938653749512746 0.00089754057302953284 0 0.048604867836602096 0.0010617279114224583 0 0.047817258016596378 0.0017264206616335424 0 0.048072159551052943 0.0021728800829931166 0 0.048604867836602096 0.0010617279114224583 0 0.047815595922478263 0.0013083840137939257 0 0.047817258016596378 0.0017264206616335424 0 0.050706892390297881 0.00097882816173052909 0 0.049097226863211989 0.0023646952716139228 0 0.048604867836602096 0.0010617279114224583 0 0.050761110024126123 0.00096100513607720356 0 0.050583755054380064 0.00090103498395564471 0 0.052684373132097041 0.00097833335070177216 0 0.052455063763176574 0.00062598720824938447 0 0.051934622777008208 0.00096917961604432441 0 0.050706892390297881 0.00097882816173052909 0 0.052455063763176574 0.00062598720824938447 0 0.051934622777008208 0.00096917961604432441 0 0.052684373132097041 0.00097833335070177216 0 0.052455063763176574 0.00062598720824938447 0 0.052854071396835012 0.00089902763562638155 0 0.050583755054380064 0.00090103498395564471 0 0.050240848331167591 0.0010581014187098659 0 0.05288779173222137 0.00097582340166650085 0 0.052684373132097041 0.00097833335070177216 0 0.052854071396835012 0.00089902763562638155 0 0.047815595922478263 0.0013083840137939257 0 0.047381324895184117 0.0013688821641620059 0 0.047419030652286552 0.0017627363979632587 0 0.050240848331167591 0.0010581014187098659 0 0.050438882235003119 0.0014694826333412746 0 0.05288779173222137 0.00097582340166650085 0 0.052854071396835012 0.00089902763562638155 0 0.052706757020763439 0.0011431176792241046 0 0.047815595922478263 0.0013083840137939257 0 0.047419030652286552 0.0017627363979632587 0 0.047817258016596378 0.0017264206616335424 0 0.047419030652286552 0.0017627363979632587 0 0.047817258016596378 0.0017264206616335424 0 0.047578342239799731 0.0021581692550378018 0 0.047817258016596378 0.0017264206616335424 0 0.047578342239799731 0.0021581692550378018 0 0.048072159551052943 0.0021728800829931166 0 0.047578342239799731 0.0021581692550378018 0 0.04779563973098637 0.0025831672890393449 0 0.048072159551052943 0.0021728800829931166 0 0.047419030652286552 0.0017627363979632587 0 0.047578342239799731 0.0021581692550378018 0 0.04717548906325103 0.0021911250001322123 0 0.047521714407584167 0.0025111785521177619 0 0.047386580979957134 0.002631921529753807 0 0.04717548906325103 0.0021911250001322123 0 0.047578342239799731 0.0021581692550378018 0 0.047521714407584167 0.0025111785521177619 0 0.04717548906325103 0.0021911250001322123 0 0.047578342239799731 0.0021581692550378018 0 0.047521714407584167 0.0025111785521177619 0 0.04779563973098637 0.0025831672890393449 0 0.047521714407584167 0.0025111785521177619 0 0.04779563973098637 0.0025831672890393449 0 0.047642375771762849 0.0028425266788653487 0 0.04779563973098637 0.0025831672890393449 0 0.048072159551052943 0.0021728800829931166 0 0.048219697776019484 0.0028654900019238123 0 0.049097226863211989 0.0023646952716139228 0 0.048072159551052943 0.0021728800829931166 0 0.048219697776019484 0.0028654900019238123 0 0.049097226863211989 0.0023646952716139228 0 0.048604867836602096 0.0010617279114224583 0 0.048072159551052943 0.0021728800829931166 0 0.048643874380141304 0.0031790781662559583 0 0.049097226863211989 0.0023646952716139228 0 0.048219697776019484 0.0028654900019238123 0 0.048219697776019484 0.0028654900019238123 0 0.048021890496352151 0.0034543076413789172 0 0.04784148268549307 0.0031450525554978575 0 0.048643874380141304 0.0031790781662559583 0 0.048219697776019484 0.0028654900019238123 0 0.048021890496352151 0.0034543076413789172 0 0.04779563973098637 0.0025831672890393449 0 0.048219697776019484 0.0028654900019238123 0 0.04784148268549307 0.0031450525554978575 0 0.04784148268549307 0.0031450525554978575 0 0.047697264349818747 0.0030810548406224633 0 0.047673989017602718 0.0029931215754661128 0 0.04784148268549307 0.0031450525554978575 0 0.047777839740956736 0.0033428631462539367 0 0.047697264349818747 0.0030810548406224633 0 0.047573839625010161 0.0035845729303724074 0 0.048021890496352151 0.0034543076413789172 0 0.047777839740956736 0.0033428631462539367 0 0.048021890496352151 0.0034543076413789172 0 0.04784148268549307 0.0031450525554978575 0 0.047777839740956736 0.0033428631462539367 0 0.047487724322726799 0.0030082233450027434 0 0.047697264349818747 0.0030810548406224633 0 0.04750494818812194 0.0026609933755227765 0 0.047573839625010161 0.0035845729303724074 0 0.047777839740956736 0.0033428631462539367 0 0.047487724322726799 0.0030082233450027434 0 0.047777839740956736 0.0033428631462539367 0 0.047487724322726799 0.0030082233450027434 0 0.047697264349818747 0.0030810548406224633 0 0.047697264349818747 0.0030810548406224633 0 0.047624185388187676 0.0028158554273045762 0 0.047673989017602718 0.0029931215754661128 0 0.04750494818812194 0.0026609933755227765 0 0.047624185388187676 0.0028158554273045762 0 0.047497020257459201 0.0024640224165049548 0 0.047697264349818747 0.0030810548406224633 0 0.04750494818812194 0.0026609933755227765 0 0.047624185388187676 0.0028158554273045762 0 0.047020234227990405 0.0023495836100074999 0 0.047487724322726799 0.0030082233450027434 0 0.04750494818812194 0.0026609933755227765 0 0.047571551034818776 0.002848812483669499 0 0.047470650854459347 0.0027910389590832703 0 0.047575641291519553 0.0026604535553756922 0 0.047624185388187676 0.0028158554273045762 0 0.047571551034818776 0.002848812483669499 0 0.047575641291519553 0.0026604535553756922 0 0.047624185388187676 0.0028158554273045762 0 0.047571551034818776 0.002848812483669499 0 0.047673989017602718 0.0029931215754661128 0 0.047571551034818776 0.002848812483669499 0 0.047524509864918379 0.0028535006077728222 0 0.047673989017602718 0.0029931215754661128 0 0.047571551034818776 0.002848812483669499 0 0.047435983307942547 0.0028298879730419974 0 0.047470650854459347 0.0027910389590832703 0 0.047571551034818776 0.002848812483669499 0 0.047524509864918379 0.0028535006077728222 0 0.047435983307942547 0.0028298879730419974 0 0.047524509864918379 0.0028535006077728222 0 0.047673989017602718 0.0029931215754661128 0 0.047642375771762849 0.0028425266788653487 0 0.04784148268549307 0.0031450525554978575 0 0.047673989017602718 0.0029931215754661128 0 0.047642375771762849 0.0028425266788653487 0 0.04779563973098637 0.0025831672890393449 0 0.04784148268549307 0.0031450525554978575 0 0.047642375771762849 0.0028425266788653487 0 0.047524509864918379 0.0028535006077728222 0 0.047386580979957134 0.002631921529753807 0 0.047332531584037545 0.0027328167842656458 0 0.047521714407584167 0.0025111785521177619 0 0.047642375771762849 0.0028425266788653487 0 0.047386580979957134 0.002631921529753807 0 0.047524509864918379 0.0028535006077728222 0 0.047642375771762849 0.0028425266788653487 0 0.047386580979957134 0.002631921529753807 0 0.047194137324938913 0.0025085739524475267 0 0.047144368686915676 0.0026516895212976145 0 0.047332531584037545 0.0027328167842656458 0 0.047386580979957134 0.002631921529753807 0 0.047194137324938913 0.0025085739524475267 0 0.047332531584037545 0.0027328167842656458 0 0.047144368686915676 0.0026516895212976145 0 0.047012322149427438 0.0026073656526895395 0 0.047004306193363862 0.0024566252038211232 0 0.047194137324938913 0.0025085739524475267 0 0.047144368686915676 0.0026516895212976145 0 0.047004306193363862 0.0024566252038211232 0 0.047144368686915676 0.0026516895212976145 0 0.047012322149427438 0.0026073656526895395 0 0.047085495334463615 0.0027719328728257647 0 0.047144368686915676 0.0026516895212976145 0 0.047276146237761787 0.002772181965968882 0 0.047085495334463615 0.0027719328728257647 0 0.047276146237761787 0.002772181965968882 0 0.047332531584037545 0.0027328167842656458 0 0.047435983307942547 0.0028298879730419974 0 0.047524509864918379 0.0028535006077728222 0 0.047332531584037545 0.0027328167842656458 0 0.047435983307942547 0.0028298879730419974 0 0.047144368686915676 0.0026516895212976145 0 0.047276146237761787 0.002772181965968882 0 0.047332531584037545 0.0027328167842656458 0 0.047435983307942547 0.0028298879730419974 0 0.047337061867766574 0.0028165754080588358 0 0.047470650854459347 0.0027910389590832703 0 0.047276146237761787 0.002772181965968882 0 0.047435983307942547 0.0028298879730419974 0 0.047337061867766574 0.0028165754080588358 0 0.043660325657268254 0.0020336405432022885 0 0.043391869812565195 0.0015775881253034289 0 0.047337061867766574 0.0028165754080588358 0 0.047310368722464607 0.002822238386359646 0 0.047085495334463615 0.0027719328728257647 0 0.047276146237761787 0.002772181965968882 0 0.047337061867766574 0.0028165754080588358 0 0.047085495334463615 0.0027719328728257647 0 0.047337061867766574 0.0028165754080588358 0 0.047310368722464607 0.002822238386359646 0 0.047470650854459347 0.0027910389590832703 0 0.047310368722464607 0.002822238386359646 0 0.047470650854459347 0.0027910389590832703 0 0.047400050428965917 0.0027995365673080656 0 0.038800397337554471 0.0013662267498106213 0 0.037608938342864044 0.0014500819062466537 0 0.038195310000275824 0.0021417145065124273 0 0.038800397337554471 0.0013662267498106213 0 0.038577160360538612 0.00060909505594799757 0 0.037608938342864044 0.0014500819062466537 0 0.039695378151863067 0.0014126412053512469 0 0.038800397337554471 0.0013662267498106213 0 0.039067320014219593 0.0025522830480073839 0 0.039695378151863067 0.0014126412053512469 0 0.038800397337554471 0.0013662267498106213 0 0.039396460688792406 0.000207040762102783 0 0.038800397337554471 0.0013662267498106213 0 0.038577160360538612 0.00060909505594799757 0 0.039396460688792406 0.000207040762102783 0 0.038577160360538612 0.00060909505594799757 0 0.038340861062963805 -0.00025052401140284998 0 0.037235466509130614 0.00048869753465421778 0 0.038577160360538612 0.00060909505594799757 0 0.038340861062963805 -0.00025052401140284998 0 0.039513126274822251 -0.00077205243783402496 0 0.038531550272818786 0.00048560120442309597 0 0.039820018681809073 -0.000462868844090656 0 0.043391869812565195 0.0015775881253034289 0 0.041745232734077709 0.00047256850391560573 0 0.038577160360538612 0.00060909505594799757 0 0.039396460688792406 0.000207040762102783 0 0.038981451379510791 -0.0004987316904030265 0 0.039396460688792406 0.000207040762102783 0 0.038981451379510791 -0.0004987316904030265 0 0.039102897666562261 -0.00086299506939136871 0 0.047012322149427438 0.0026073656526895395 0 0.047085495334463615 0.0027719328728257647 0 0.046815486722800038 0.0025151923931775906 0 0.039820018681809073 -0.000462868844090656 0 0.041745232734077709 0.00047256850391560573 0 0.039513126274822251 -0.00077205243783402496 0 0.039838674373446216 -0.00125206323148298 0 0.039349544713272996 -0.0016672200475206956 0 0.047012322149427438 0.0026073656526895395 0 0.046815486722800038 0.0025151923931775906 0 0.047004306193363862 0.0024566252038211232 0 0.038340861062963805 -0.00025052401140284998 0 0.039513126274822251 -0.00077205243783402496 0 0.038656397687684578 -0.0010953217770438251 0 0.039513126274822251 -0.00077205243783402496 0 0.038656397687684578 -0.0010953217770438251 0 0.039349544713272996 -0.0016672200475206956 0 0.038656397687684578 -0.0010953217770438251 0 0.03854418405015838 -0.0019085164064563198 0 0.039349544713272996 -0.0016672200475206956 0 0.03854418405015838 -0.0019085164064563198 0 0.039349544713272996 -0.0016672200475206956 0 0.039282423221209811 -0.0023974104235959018 0 0.03854418405015838 -0.0019085164064563198 0 0.039282423221209811 -0.0023974104235959018 0 0.038478836393501477 -0.0026864213664866228 0 0.039282423221209811 -0.0023974104235959018 0 0.03959654541210484 -0.0034345342738977881 0 0.040517728516087981 -0.0022109279624197074 0 0.039282423221209811 -0.0023974104235959018 0 0.03959654541210484 -0.0034345342738977881 0 0.038478836393501477 -0.0026864213664866228 0 0.043708999126659147 -9.0132499557224899e-06 0 0.043910299095031122 -0.0013212911853849854 0 0.03959654541210484 -0.0034345342738977881 0 0.040517728516087981 -0.0022109279624197074 0 0.041605598107136883 -0.0038630539838275663 0 0.039349544713272996 -0.0016672200475206956 0 0.039282423221209811 -0.0023974104235959018 0 0.040517728516087981 -0.0022109279624197074 0 0.046815486722800038 0.0025151923931775906 0 0.046804686727721805 0.0022616842916103465 0 0.047004306193363862 0.0024566252038211232 0 0.039838674373446216 -0.00125206323148298 0 0.039349544713272996 -0.0016672200475206956 0 0.040517728516087981 -0.0022109279624197074 0 0.041745232734077709 0.00047256850391560573 0 0.043708999126659147 -9.0132499557224899e-06 0 0.046804686727721805 0.0022616842916103465 0 0.047004306193363862 0.0024566252038211232 0 0.04717548906325103 0.0021911250001322123 0 0.047194137324938913 0.0025085739524475267 0 0.047004306193363862 0.0024566252038211232 0 0.04717548906325103 0.0021911250001322123 0 0.047386580979957134 0.002631921529753807 0 0.047194137324938913 0.0025085739524475267 0 0.04717548906325103 0.0021911250001322123 0 0.046804686727721805 0.0022616842916103465 0 0.04717548906325103 0.0021911250001322123 0 0.046827741266401032 0.0017875325493239582 0 0.04717548906325103 0.0021911250001322123 0 0.046827741266401032 0.0017875325493239582 0 0.047135888809018145 0.001636474936054805 0 0.047381324895184117 0.0013688821641620059 0 0.047419030652286552 0.0017627363979632587 0 0.047135888809018145 0.001636474936054805 0 0.047419030652286552 0.0017627363979632587 0 0.04717548906325103 0.0021911250001322123 0 0.047135888809018145 0.001636474936054805 0 0.047381324895184117 0.0013688821641620059 0 0.047135888809018145 0.001636474936054805 0 0.046950540273601987 0.0012884007679653156 0 0.050438882235003119 0.0014694826333412746 0 0.047906871350052074 -0.00059956249340606513 0 0.043910299095031122 -0.0013212911853849854 0 0.047906871350052074 -0.00059956249340606513 0 0.046827741266401032 0.0017875325493239582 0 0.047135888809018145 0.001636474936054805 0 0.046950540273601987 0.0012884007679653156 0 0.041605598107136883 -0.0038630539838275663 0 0.042764913349094186 -0.0057560450453203642 0 0.040608065186798166 -0.0047953552327572764 0 0.040416873312392861 -0.0062668091392649537 0 0.042764913349094186 -0.0057560450453203642 0 0.040608065186798166 -0.0047953552327572764 0 0.040095254772559014 -0.0053334119345190521 0 0.039033345064117007 -0.0044086524641066679 0 0.038914701196971317 -0.0050655286823411243 0 0.04448235045716635 -0.0015499880756015508 0 0.038661207298914202 -0.0050515260613087686 0 0.040416873312392861 -0.0062668091392649537 0 0.040608065186798166 -0.0047953552327572764 0 0.038927641822063902 -0.0047794382423657477 0 0.03959654541210484 -0.0034345342738977881 0 0.040608065186798166 -0.0047953552327572764 0 0.038927641822063902 -0.0047794382423657477 0 0.03959654541210484 -0.0034345342738977881 0 0.041605598107136883 -0.0038630539838275663 0 0.040608065186798166 -0.0047953552327572764 0 0.037814888770066425 -0.0042462630009836768 0 0.036516073956462267 -0.0036585332820746716 0 0.037772337394794527 -0.0034098485783702172 0 0.037814888770066425 -0.0042462630009836768 0 0.03669363054661285 -0.0045592978260891315 0 0.036516073956462267 -0.0036585332820746716 0 0.039033345064117007 -0.0044086524641066679 0 0.037814888770066425 -0.0042462630009836768 0 0.037772337394794527 -0.0034098485783702172 0 0.038661207298914202 -0.0050515260613087686 0 0.037927277002176969 -0.0033695321533501214 0 0.03959654541210484 -0.0034345342738977881 0 0.038927641822063902 -0.0047794382423657477 0 0.037772337394794527 -0.0034098485783702172 0 0.039033345064117007 -0.0044086524641066679 0 0.037814888770066425 -0.0042462630009836768 0 0.038200505043682213 -0.0050944997600497156 0 0.039033345064117007 -0.0044086524641066679 0 0.038914701196971317 -0.0050655286823411243 0 0.038200505043682213 -0.0050944997600497156 0 0.038200505043682213 -0.0050944997600497156 0 0.038207232461576923 -0.0051003384622911241 0 0.038198626785189621 -0.0051029341213478545 0 0.037814888770066425 -0.0042462630009836768 0 0.038200505043682213 -0.0050944997600497156 0 0.03669363054661285 -0.0045592978260891315 0 0.038051044920906198 -0.0050675565096459782 0 0.03747555220138276 -0.0048951205623660645 0 0.038198626785189621 -0.0051029341213478545 0 0.038223128780700992 -0.0050990129490268137 0 0.038258400125647095 -0.0050962474119984023 0 0.038207232461576923 -0.0051003384622911241 0 0.038198626785189621 -0.0051029341213478545 0 0.038223128780700992 -0.0050990129490268137 0 0.038223128780700992 -0.0050990129490268137 0 0.038258400125647095 -0.0050962474119984023 0 0.038220168567077391 -0.0050898992054528511 0 0.039686263910545631 -0.0029324763009861833 0 0.037835368184627946 -0.0025520541670134961 0 0.041410520471623927 0.00027604442613884852 0 0.040873712193314871 0.00079097091166894834 0 0.040751594677707725 0.00015134291602091068 0 0.041164682850240497 -0.00036111286034665906 0 0.041410520471623927 0.00027604442613884852 0 0.040751594677707725 0.00015134291602091068 0 0.03747555220138276 -0.0048951205623660645 0 0.037835368184627946 -0.0025520541670134961 0 0.038207232461576923 -0.0051003384622911241 0 0.038223128780700992 -0.0050990129490268137 0 0.038220168567077391 -0.0050898992054528511 0 0.035446780503734329 -0.0038500284583941964 0 0.035489860215498457 -0.003711587451452455 0 0.036516073956462267 -0.0036585332820746716 0 0.037835368184627946 -0.0025520541670134961 0 0.037662729829895131 -0.0028070138534605775 0 0.03669363054661285 -0.0045592978260891315 0 0.035446780503734329 -0.0038500284583941964 0 0.036516073956462267 -0.0036585332820746716 0 0.035489860215498457 -0.003711587451452455 0 0.036516073956462267 -0.0036585332820746716 0 0.035939368107726626 -0.0031787662899943423 0 0.036516073956462267 -0.0036585332820746716 0 0.035939368107726626 -0.0031787662899943423 0 0.036392083449811513 -0.0027443481143050465 0 0.035489860215498457 -0.003711587451452455 0 0.035939368107726626 -0.0031787662899943423 0 0.035353363608577895 -0.0026301541835198395 0 0.035939368107726626 -0.0031787662899943423 0 0.035353363608577895 -0.0026301541835198395 0 0.036392083449811513 -0.0027443481143050465 0 0.035489860215498457 -0.003711587451452455 0 0.035353363608577895 -0.0026301541835198395 0 0.034059897737962454 -0.0028638747712220014 0 0.037835368184627946 -0.0025520541670134961 0 0.037745714568769143 -0.00099179765873598502 0 0.035445441993900983 -0.0038405918866114886 0 0.035489860215498457 -0.003711587451452455 0 0.034059897737962454 -0.0028638747712220014 0 0.035353363608577895 -0.0026301541835198395 0 0.034443989672250257 -0.0017916615912990292 0 0.034059897737962454 -0.0028638747712220014 0 0.035353363608577895 -0.0026301541835198395 0 0.034443989672250257 -0.0017916615912990292 0 0.035770101149494256 -0.0017628801844647005 0 0.035353363608577895 -0.0026301541835198395 0 0.036392083449811513 -0.0027443481143050465 0 0.035770101149494256 -0.0017628801844647005 0 0.036392083449811513 -0.0027443481143050465 0 0.035770101149494256 -0.0017628801844647005 0 0.037311209635535379 -0.0020967065441485147 0 0.036516073956462267 -0.0036585332820746716 0 0.036392083449811513 -0.0027443481143050465 0 0.037772337394794527 -0.0034098485783702172 0 0.036392083449811513 -0.0027443481143050465 0 0.037311209635535379 -0.0020967065441485147 0 0.037772337394794527 -0.0034098485783702172 0 0.03959654541210484 -0.0034345342738977881 0 0.037772337394794527 -0.0034098485783702172 0 0.038478836393501477 -0.0026864213664866228 0 0.037311209635535379 -0.0020967065441485147 0 0.037772337394794527 -0.0034098485783702172 0 0.038478836393501477 -0.0026864213664866228 0 0.03854418405015838 -0.0019085164064563198 0 0.037311209635535379 -0.0020967065441485147 0 0.0377247911777608 -0.0013167117225882457 0 0.03854418405015838 -0.0019085164064563198 0 0.037311209635535379 -0.0020967065441485147 0 0.038478836393501477 -0.0026864213664866228 0 0.038656397687684578 -0.0010953217770438251 0 0.03854418405015838 -0.0019085164064563198 0 0.0377247911777608 -0.0013167117225882457 0 0.0377247911777608 -0.0013167117225882457 0 0.036581418923375832 -0.00096152643017448369 0 0.037542305415184898 -0.00054394628676784971 0 0.038656397687684578 -0.0010953217770438251 0 0.0377247911777608 -0.0013167117225882457 0 0.037542305415184898 -0.00054394628676784971 0 0.038340861062963805 -0.00025052401140284998 0 0.038656397687684578 -0.0010953217770438251 0 0.037542305415184898 -0.00054394628676784971 0 0.037311209635535379 -0.0020967065441485147 0 0.0377247911777608 -0.0013167117225882457 0 0.036581418923375832 -0.00096152643017448369 0 0.035770101149494256 -0.0017628801844647005 0 0.037311209635535379 -0.0020967065441485147 0 0.036581418923375832 -0.00096152643017448369 0 0.036581418923375832 -0.00096152643017448369 0 0.036733273430234838 -0.00011453296630237802 0 0.035878978998617771 -0.00015193357544837448 0 0.036581418923375832 -0.00096152643017448369 0 0.036733273430234838 -0.00011453296630237802 0 0.037542305415184898 -0.00054394628676784971 0 0.036733273430234838 -0.00011453296630237802 0 0.03599405788121867 0.00055604349117077364 0 0.035878978998617771 -0.00015193357544837448 0 0.038340861062963805 -0.00025052401140284998 0 0.037542305415184898 -0.00054394628676784971 0 0.037235466509130614 0.00048869753465421778 0 0.036733273430234838 -0.00011453296630237802 0 0.037542305415184898 -0.00054394628676784971 0 0.037235466509130614 0.00048869753465421778 0 0.037235466509130614 0.00048869753465421778 0 0.036374817363257567 0.0012782056526597365 0 0.037608938342864044 0.0014500819062466537 0 0.038577160360538612 0.00060909505594799757 0 0.037235466509130614 0.00048869753465421778 0 0.037608938342864044 0.0014500819062466537 0 0.036733273430234838 -0.00011453296630237802 0 0.037235466509130614 0.00048869753465421778 0 0.03599405788121867 0.00055604349117077364 0 0.037235466509130614 0.00048869753465421778 0 0.03599405788121867 0.00055604349117077364 0 0.036374817363257567 0.0012782056526597365 0 0.03599405788121867 0.00055604349117077364 0 0.036374817363257567 0.0012782056526597365 0 0.035528485513649226 0.0014036535663523048 0 0.036374817363257567 0.0012782056526597365 0 0.035911217943376983 0.0018617079413107915 0 0.035528485513649226 0.0014036535663523048 0 0.036374817363257567 0.0012782056526597365 0 0.035911217943376983 0.0018617079413107915 0 0.036691849310023804 0.0019354739054218513 0 0.036374817363257567 0.0012782056526597365 0 0.037608938342864044 0.0014500819062466537 0 0.036691849310023804 0.0019354739054218513 0 0.034032030824040348 0.0017573593832189999 0 0.034732188955901612 0.0014776212297791392 0 0.033807612222047513 0.00097560795801666629 0 0.034732188955901612 0.0014776212297791392 0 0.03499205988232465 0.00080729792677298334 0 0.033807612222047513 0.00097560795801666629 0 0.034032030824040348 0.0017573593832189999 0 0.033807612222047513 0.00097560795801666629 0 0.033006939802959746 0.0015452836738886174 0 0.034032030824040348 0.0017573593832189999 0 0.034732188955901612 0.0014776212297791392 0 0.035049137283406077 0.002116207658458249 0 0.035528485513649226 0.0014036535663523048 0 0.034732188955901612 0.0014776212297791392 0 0.035049137283406077 0.002116207658458249 0 0.035911217943376983 0.0018617079413107915 0 0.035528485513649226 0.0014036535663523048 0 0.035049137283406077 0.002116207658458249 0 0.035528485513649226 0.0014036535663523048 0 0.034732188955901612 0.0014776212297791392 0 0.03499205988232465 0.00080729792677298334 0 0.03599405788121867 0.00055604349117077364 0 0.035528485513649226 0.0014036535663523048 0 0.03499205988232465 0.00080729792677298334 0 0.03599405788121867 0.00055604349117077364 0 0.035088489781118649 6.3370499119557247e-05 0 0.035878978998617771 -0.00015193357544837448 0 0.03599405788121867 0.00055604349117077364 0 0.03499205988232465 0.00080729792677298334 0 0.035088489781118649 6.3370499119557247e-05 0 0.03499205988232465 0.00080729792677298334 0 0.035088489781118649 6.3370499119557247e-05 0 0.034092723759093051 -3.9161574316414067e-05 0 0.03499205988232465 0.00080729792677298334 0 0.033807612222047513 0.00097560795801666629 0 0.034092723759093051 -3.9161574316414067e-05 0 0.033807612222047513 0.00097560795801666629 0 0.034092723759093051 -3.9161574316414067e-05 0 0.032854145896414437 5.9848500735610759e-05 0 0.035088489781118649 6.3370499119557247e-05 0 0.034092723759093051 -3.9161574316414067e-05 0 0.035004049852128009 -0.00077411533038879881 0 0.034092723759093051 -3.9161574316414067e-05 0 0.035004049852128009 -0.00077411533038879881 0 0.033699372386022886 -0.00093746146299894268 0 0.036581418923375832 -0.00096152643017448369 0 0.035878978998617771 -0.00015193357544837448 0 0.035004049852128009 -0.00077411533038879881 0 0.035088489781118649 6.3370499119557247e-05 0 0.035878978998617771 -0.00015193357544837448 0 0.035004049852128009 -0.00077411533038879881 0 0.035770101149494256 -0.0017628801844647005 0 0.036581418923375832 -0.00096152643017448369 0 0.035004049852128009 -0.00077411533038879881 0 0.034443989672250257 -0.0017916615912990292 0 0.035770101149494256 -0.0017628801844647005 0 0.035004049852128009 -0.00077411533038879881 0 0.034443989672250257 -0.0017916615912990292 0 0.035004049852128009 -0.00077411533038879881 0 0.033699372386022886 -0.00093746146299894268 0 0.034443989672250257 -0.0017916615912990292 0 0.033699372386022886 -0.00093746146299894268 0 0.032890219615340339 -0.0019670494799368574 0 0.032583881784342253 -0.0010810634891826368 0 0.035233669728452252 -0.00041477607205501522 0 0.032237767675678146 -0.00082574501773321205 0 0.032037700589855868 -0.00049458707270504934 0 0.031965163163281053 -6.7710963654694033e-05 0 0.032037700589855868 -0.00049458707270504934 0 0.032033660430880045 -0.00045884919736455102 0 0.031688719055104682 -0.00043308356188990371 0 0.032237767675678146 -0.00082574501773321205 0 0.032037700589855868 -0.00049458707270504934 0 0.032033660430880045 -0.00045884919736455102 0 0.032033660430880045 -0.00045884919736455102 0 0.031688719055104682 -0.00043308356188990371 0 0.031642027635379558 -0.00019201893223286083 0 0.034092723759093051 -3.9161574316414067e-05 0 0.032237767675678146 -0.00082574501773321205 0 0.032854145896414437 5.9848500735610759e-05 0 0.034172517316850393 0.00011411831919393934 0 0.032583881784342253 -0.0010810634891826368 0 0.032237767675678146 -0.00082574501773321205 0 0.032033660430880045 -0.00045884919736455102 0 0.032854145896414437 5.9848500735610759e-05 0 0.032854145896414437 5.9848500735610759e-05 0 0.031572230767914246 0.00012673082717537027 0 0.031494313637613555 0.00035969645905404663 0 0.032854145896414437 5.9848500735610759e-05 0 0.03196889023029003 0.0012227920416769866 0 0.032903671915079535 0.0009610753348491595 0 0.032033660430880045 -0.00045884919736455102 0 0.032854145896414437 5.9848500735610759e-05 0 0.031642027635379558 -0.00019201893223286083 0 0.033222564839293631 -6.1786519772453588e-05 0 0.029342622518015032 -1.6858003118541311e-05 0 0.033807612222047513 0.00097560795801666629 0 0.032854145896414437 5.9848500735610759e-05 0 0.032903671915079535 0.0009610753348491595 0 0.032854145896414437 5.9848500735610759e-05 0 0.031642027635379558 -0.00019201893223286083 0 0.031572230767914246 0.00012673082717537027 0 0.031688719055104682 -0.00043308356188990371 0 0.031642027635379558 -0.00019201893223286083 0 0.031019113788068417 -0.00024167956138961767 0 0.031642027635379558 -0.00019201893223286083 0 0.031116506197158833 -4.5924367450829004e-05 0 0.031019113788068417 -0.00024167956138961767 0 0.031116506197158833 -4.5924367450829004e-05 0 0.031572230767914246 0.00012673082717537027 0 0.03116772847969065 0.00015569628025882007 0 0.031642027635379558 -0.00019201893223286083 0 0.031116506197158833 -4.5924367450829004e-05 0 0.031572230767914246 0.00012673082717537027 0 0.031572230767914246 0.00012673082717537027 0 0.03116772847969065 0.00015569628025882007 0 0.031246324434482161 0.00049588686945982571 0 0.022230600314940483 0.0015232503533312467 0 0.02217085142425966 0.0014803417642931798 0 0.022668766228889893 0.00099077810997557237 0 0.031572230767914246 0.00012673082717537027 0 0.031494313637613555 0.00035969645905404663 0 0.031246324434482161 0.00049588686945982571 0 0.028526645441241751 -5.0602380603970576e-06 0 0.028217111053670148 0.00036062237262136373 0 0.028424961403468552 0.000526748091402764 0 0.029342622518015032 -1.6858003118541311e-05 0 0.027385767122911495 -0.00038739955255517015 0 0.029342622518015032 -1.6858003118541311e-05 0 0.027771056661592762 0.00042434289506959393 0 0.031116506197158833 -4.5924367450829004e-05 0 0.030793691115425674 0.00015715057357054444 0 0.030457351704813625 -8.8324404977781402e-05 0 0.030793691115425674 0.00015715057357054444 0 0.03096760792860501 0.00023879651106657846 0 0.030175128189786245 0.00010465015648590579 0 0.031116506197158833 -4.5924367450829004e-05 0 0.03116772847969065 0.00015569628025882007 0 0.030793691115425674 0.00015715057357054444 0 0.03116772847969065 0.00015569628025882007 0 0.030793691115425674 0.00015715057357054444 0 0.031246324434482161 0.00049588686945982571 0 0.029401119901369645 0.00099843383057617746 0 0.027771056661592762 0.00042434289506959393 0 0.03096760792860501 0.00023879651106657846 0 0.02953596002112872 0.00021941485164162348 0 0.030175128189786245 0.00010465015648590579 0 0.027771056661592762 0.00042434289506959393 0 0.027385767122911495 -0.00038739955255517015 0 0.031872800106370759 0.0015921487138655982 0 0.033006939802959746 0.0015452836738886174 0 0.033470071416918844 0.0026164682004842683 0 0.03196889023029003 0.0012227920416769866 0 0.031872800106370759 0.0015921487138655982 0 0.033006939802959746 0.0015452836738886174 0 0.034032030824040348 0.0017573593832189999 0 0.033006939802959746 0.0015452836738886174 0 0.033470071416918844 0.0026164682004842683 0 0.033807612222047513 0.00097560795801666629 0 0.033006939802959746 0.0015452836738886174 0 0.032903671915079535 0.0009610753348491595 0 0.03196889023029003 0.0012227920416769866 0 0.033006939802959746 0.0015452836738886174 0 0.032903671915079535 0.0009610753348491595 0 0.029340441165428877 -7.5297198693768003e-05 0 0.028116724844077772 0.00015328450773902122 0 0.027168872338457745 2.7377751489067753e-08 0 0.029340441165428877 -7.5297198693768003e-05 0 0.030124098138206587 -6.3672853407015766e-07 0 0.027168872338457745 2.7377751489067753e-08 0 0.02953596002112872 0.00021941485164162348 0 0.029340441165428877 -7.5297198693768003e-05 0 0.028116724844077772 0.00015328450773902122 0 0.02953596002112872 0.00021941485164162348 0 0.030175128189786245 0.00010465015648590579 0 0.029340441165428877 -7.5297198693768003e-05 0 0.030457351704813625 -8.8324404977781402e-05 0 0.030175128189786245 0.00010465015648590579 0 0.029340441165428877 -7.5297198693768003e-05 0 0.030793691115425674 0.00015715057357054444 0 0.030457351704813625 -8.8324404977781402e-05 0 0.030175128189786245 0.00010465015648590579 0 0.030457351704813625 -8.8324404977781402e-05 0 0.029340441165428877 -7.5297198693768003e-05 0 0.030555540537674213 -0.00017360777454656303 0 0.031116506197158833 -4.5924367450829004e-05 0 0.030457351704813625 -8.8324404977781402e-05 0 0.031019113788068417 -0.00024167956138961767 0 0.030457351704813625 -8.8324404977781402e-05 0 0.030555540537674213 -0.00017360777454656303 0 0.031019113788068417 -0.00024167956138961767 0 0.030555540537674213 -0.00017360777454656303 0 0.031019113788068417 -0.00024167956138961767 0 0.031623559269282821 -0.00035614101300398643 0 0.030555540537674213 -0.00017360777454656303 0 0.030124098138206587 -6.3672853407015766e-07 0 0.031623559269282821 -0.00035614101300398643 0 0.029340441165428877 -7.5297198693768003e-05 0 0.030555540537674213 -0.00017360777454656303 0 0.030124098138206587 -6.3672853407015766e-07 0 0.030124098138206587 -6.3672853407015766e-07 0 0.031623559269282821 -0.00035614101300398643 0 0.033079915997901506 -5.1949629372276163e-07 0 0.031623559269282821 -0.00035614101300398643 0 0.033157069054437049 -0.00015625664392981801 0 0.033079915997901506 -5.1949629372276163e-07 0 0.032112404228827919 -0.00045348751071138017 0 0.031623559269282821 -0.00035614101300398643 0 0.033157069054437049 -0.00015625664392981801 0 0.031688719055104682 -0.00043308356188990371 0 0.032112404228827919 -0.00045348751071138017 0 0.031623559269282821 -0.00035614101300398643 0 0.032037700589855868 -0.00049458707270504934 0 0.031688719055104682 -0.00043308356188990371 0 0.032112404228827919 -0.00045348751071138017 0 0.031688719055104682 -0.00043308356188990371 0 0.031019113788068417 -0.00024167956138961767 0 0.031623559269282821 -0.00035614101300398643 0 0.032607431329544696 5.2772320958231254e-05 0 0.035233669728452252 -0.00041477607205501522 0 0.032037700589855868 -0.00049458707270504934 0 0.032112404228827919 -0.00045348751071138017 0 0.033157069054437049 -0.00015625664392981801 0 0.032037700589855868 -0.00049458707270504934 0 0.033157069054437049 -0.00015625664392981801 0 0.031965163163281053 -6.7710963654694033e-05 0 0.033157069054437049 -0.00015625664392981801 0 0.033079915997901506 -5.1949629372276163e-07 0 0.034702804996939021 -0.00022176888432733294 0 0.033079915997901506 -5.1949629372276163e-07 0 0.036035591913182355 -2.0165451746600434e-07 0 0.034702804996939021 -0.00022176888432733294 0 0.036035591913182355 -2.0165451746600434e-07 0 0.036845810753644799 4.3634619691794999e-05 0 0.038992045757550359 5.6012805218725109e-07 0 0.036035591913182355 -2.0165451746600434e-07 0 0.036845810753644799 4.3634619691794999e-05 0 0.034702804996939021 -0.00022176888432733294 0 0.036845810753644799 4.3634619691794999e-05 0 0.035302625707150322 -4.0700444393572217e-06 0 0.038605243718116022 0.00016522291623511531 0 0.037910470468175542 0.00065180629204028475 0 0.038111581875436888 2.2464144019137084e-05 0 0.036845810753644799 4.3634619691794999e-05 0 0.035302625707150322 -4.0700444393572217e-06 0 0.034702804996939021 -0.00022176888432733294 0 0.033157069054437049 -0.00015625664392981801 0 0.034702804996939021 -0.00022176888432733294 0 0.034870599599135133 -0.00016965864445217332 0 0.035302625707150322 -4.0700444393572217e-06 0 0.034702804996939021 -0.00022176888432733294 0 0.034870599599135133 -0.00016965864445217332 0 0.037910470468175542 0.00065180629204028475 0 0.035233669728452252 -0.00041477607205501522 0 0.034443989672250257 -0.0017916615912990292 0 0.032890219615340339 -0.0019670494799368574 0 0.034059897737962454 -0.0028638747712220014 0 0.035233669728452252 -0.00041477607205501522 0 0.037745714568769143 -0.00099179765873598502 0 0.040873712193314871 0.00079097091166894834 0 0.040375071274473463 0.00065606724157278584 0 0.040751594677707725 0.00015134291602091068 0 0.040196995392411117 0.0014139236644478278 0 0.040873712193314871 0.00079097091166894834 0 0.040375071274473463 0.00065606724157278584 0 0.039672461185951892 0.00094109191739118496 0 0.040375071274473463 0.00065606724157278584 0 0.040190683461385206 2.8930570585360653e-05 0 0.039672461185951892 0.00094109191739118496 0 0.040196995392411117 0.0014139236644478278 0 0.040375071274473463 0.00065606724157278584 0 0.040375071274473463 0.00065606724157278584 0 0.040190683461385206 2.8930570585360653e-05 0 0.040751594677707725 0.00015134291602091068 0 0.041164682850240497 -0.00036111286034665906 0 0.040751594677707725 0.00015134291602091068 0 0.040507312329521754 -0.00033991545341726021 0 0.040190683461385206 2.8930570585360653e-05 0 0.040751594677707725 0.00015134291602091068 0 0.040507312329521754 -0.00033991545341726021 0 0.040190683461385206 2.8930570585360653e-05 0 0.040507312329521754 -0.00033991545341726021 0 0.040382022792619633 -0.00035103323596459568 0 0.040190683461385206 2.8930570585360653e-05 0 0.039745674499585534 -0.00015712867157757684 0 0.040382022792619633 -0.00035103323596459568 0 0.039745674499585534 -0.00015712867157757684 0 0.040382022792619633 -0.00035103323596459568 0 0.039901996433009304 -0.00017814303544141219 0 0.041947813956678688 -1.6786475304665451e-06 0 0.040382022792619633 -0.00035103323596459568 0 0.039901996433009304 -0.00017814303544141219 0 0.041947813956678688 -1.6786475304665451e-06 0 0.039901996433009304 -0.00017814303544141219 0 0.038992045757550359 5.6012805218725109e-07 0 0.039745674499585534 -0.00015712867157757684 0 0.039901996433009304 -0.00017814303544141219 0 0.038605243718116022 0.00016522291623511531 0 0.036845810753644799 4.3634619691794999e-05 0 0.038992045757550359 5.6012805218725109e-07 0 0.038605243718116022 0.00016522291623511531 0 0.039901996433009304 -0.00017814303544141219 0 0.038992045757550359 5.6012805218725109e-07 0 0.038605243718116022 0.00016522291623511531 0 0.039672461185951892 0.00094109191739118496 0 0.040190683461385206 2.8930570585360653e-05 0 0.038605243718116022 0.00016522291623511531 0 0.040190683461385206 2.8930570585360653e-05 0 0.039745674499585534 -0.00015712867157757684 0 0.038605243718116022 0.00016522291623511531 0 0.015969749200944069 -0.00024690908868562554 0 0.015328134785608644 -0.00014325139036162578 0 0.015559297817731455 0.00070700687491814264 0 0.015969749200944069 -0.00024690908868562554 0 0.015202405530044618 -0.00017944574577486447 0 0.015328134785608644 -0.00014325139036162578 0 0.015969749200944069 -0.00024690908868562554 0 0.015080135814759758 -2.7435776322755983e-06 0 0.018294909281716887 2.6777969504858028e-06 0 0.015969749200944069 -0.00024690908868562554 0 0.015080135814759758 -2.7435776322755983e-06 0 0.015202405530044618 -0.00017944574577486447 0 0.015080135814759758 -2.7435776322755983e-06 0 0.015202405530044618 -0.00017944574577486447 0 0.014673898123068284 -1.4004008813022208e-05 0 0.015202405530044618 -0.00017944574577486447 0 0.015160305029303694 -0.00015992598218622856 0 0.015154183615959139 -0.00017931891943241636 0 0.015202405530044618 -0.00017944574577486447 0 0.015160305029303694 -0.00015992598218622856 0 0.015328134785608644 -0.00014325139036162578 0 0.015010618504057344 -0.00019909595117332843 0 0.014960566648998735 -0.00027371370092923043 0 0.014890253593813069 -0.0001119390986177052 0 0.015010618504057344 -0.00019909595117332843 0 0.014960566648998735 -0.00027371370092923043 0 0.015108008986340789 -0.00030997512458665971 0 0.015160305029303694 -0.00015992598218622856 0 0.015010618504057344 -0.00019909595117332843 0 0.015154183615959139 -0.00017931891943241636 0 0.014977718996152061 -0.00066434889331571951 0 0.013019811783951991 -9.7135691915274137e-05 0 0.015160305029303694 -0.00015992598218622856 0 0.01500689856147097 -7.6068725207060816e-05 0 0.015132135616151468 -2.3644202485343125e-05 0 0.015160305029303694 -0.00015992598218622856 0 0.015010618504057344 -0.00019909595117332843 0 0.01500689856147097 -7.6068725207060816e-05 0 0.01500689856147097 -7.6068725207060816e-05 0 0.014890253593813069 -0.0001119390986177052 0 0.014842118646682428 1.4184438438792377e-05 0 0.015010618504057344 -0.00019909595117332843 0 0.01500689856147097 -7.6068725207060816e-05 0 0.014890253593813069 -0.0001119390986177052 0 0.01500689856147097 -7.6068725207060816e-05 0 0.014972391297010971 0.00014596224473857288 0 0.014842118646682428 1.4184438438792377e-05 0 0.01500689856147097 -7.6068725207060816e-05 0 0.014972391297010971 0.00014596224473857288 0 0.015132135616151468 -2.3644202485343125e-05 0 0.014972391297010971 0.00014596224473857288 0 0.015132135616151468 -2.3644202485343125e-05 0 0.015208130799123929 0.00031048295568802996 0 0.014972391297010971 0.00014596224473857288 0 0.014730136662955846 0.00022593616641748029 0 0.014842118646682428 1.4184438438792377e-05 0 0.015160305029303694 -0.00015992598218622856 0 0.015328134785608644 -0.00014325139036162578 0 0.015132135616151468 -2.3644202485343125e-05 0 0.015328134785608644 -0.00014325139036162578 0 0.015132135616151468 -2.3644202485343125e-05 0 0.015208130799123929 0.00031048295568802996 0 0.015328134785608644 -0.00014325139036162578 0 0.015208130799123929 0.00031048295568802996 0 0.015559297817731455 0.00070700687491814264 0 0.015208130799123929 0.00031048295568802996 0 0.014978298586582109 0.00065104959580384745 0 0.015559297817731455 0.00070700687491814264 0 0.014972391297010971 0.00014596224473857288 0 0.014978298586582109 0.00065104959580384745 0 0.014730136662955846 0.00022593616641748029 0 0.014972391297010971 0.00014596224473857288 0 0.015208130799123929 0.00031048295568802996 0 0.014978298586582109 0.00065104959580384745 0 0.025593924721029317 0.0013432213653972592 0 0.025419709548249712 -0.00019191345924872465 0 0.027160214490969933 -0.00024166070193146037 0 0.021094747099159289 0.00057900553916287846 0 0.025423160600884627 0.0011959746256705178 0 0.025593924721029317 0.0013432213653972592 0 0.024145560017007864 0.00047028962497416631 0 0.025419709548249712 -0.00019191345924872465 0 0.021094747099159289 0.00057900553916287846 0 0.018985447743050266 0.00096449303009976174 0 0.025430172453695908 0.0010445976747004745 0 0.024145560017007864 0.00047028962497416631 0 0.022668082431893173 0.0013229154569859526 0 0.024145560017007864 0.00047028962497416631 0 0.023130790988620021 -1.109137395372463e-06 0 0.022668082431893173 0.0013229154569859526 0 0.023130790988620021 -1.109137395372463e-06 0 0.021668919210533887 0.00055194614002675006 0 0.022668082431893173 0.0013229154569859526 0 0.021668919210533887 0.00055194614002675006 0 0.022668082431893173 0.0013229154569859526 0 0.01830455743201239 3.5816756253827148e-06 0 0.018985447743050266 0.00096449303009976174 0 0.018300373826623743 2.999100275238185e-07 0 0.015969749200944069 -0.00024690908868562554 0 0.015559297817731455 0.00070700687491814264 0 0.018294909281716887 2.6777969504858028e-06 0 0.01830455743201239 3.5816756253827148e-06 0 0.021254890803663107 -1.9205284860010464e-06 0 0.021709538149548204 -9.951323178762728e-05 0 0.021668919210533887 0.00055194614002675006 0 0.01830455743201239 3.5816756253827148e-06 0 0.021709538149548204 -9.951323178762728e-05 0 0.021254890803663107 -1.9205284860010464e-06 0 0.021709538149548204 -9.951323178762728e-05 0 0.022526835152997981 -0.00025061541517716813 0 0.021790865525817125 0.00049599578152476368 0 0.022713719821772713 -0.00074002155337238014 0 0.021668919210533887 0.00055194614002675006 0 0.021709538149548204 -9.951323178762728e-05 0 0.022378259140299419 -0.00037476715831752621 0 0.023130790988620021 -1.109137395372463e-06 0 0.021668919210533887 0.00055194614002675006 0 0.023055544077971109 -0.0012839546159379538 0 0.021709538149548204 -9.951323178762728e-05 0 0.022378259140299419 -0.00037476715831752621 0 0.022526835152997981 -0.00025061541517716813 0 0.022378259140299419 -0.00037476715831752621 0 0.022708937286078465 0.00019014234875497851 0 0.022255966762495978 0.00063307249034365699 0 0.022378259140299419 -0.00037476715831752621 0 0.022526835152997981 -0.00025061541517716813 0 0.022708937286078465 0.00019014234875497851 0 0.021254890803663107 -1.9205284860010464e-06 0 0.022526835152997981 -0.00025061541517716813 0 0.023914476758530458 0.00011017861151932632 0 0.021254890803663107 -1.9205284860010464e-06 0 0.023914476758530458 0.00011017861151932632 0 0.024212093901924695 1.5084178007822504e-06 0 0.022526835152997981 -0.00025061541517716813 0 0.023914476758530458 0.00011017861151932632 0 0.022708937286078465 0.00019014234875497851 0 0.023914476758530458 0.00011017861151932632 0 0.024212093901924695 1.5084178007822504e-06 0 0.026181214407557187 0.00023641043187955227 0 0.024433168377906267 6.1031473945306834e-05 0 0.025413113398522608 0.00077711211121872677 0 0.023914476758530458 0.00011017861151932632 0 0.026181214407557187 0.00023641043187955227 0 0.028610860794340463 0.00065237646846579554 0 0.024212093901924695 1.5084178007822504e-06 0 0.026181214407557187 0.00023641043187955227 0 0.027168872338457745 2.7377751489067753e-08 0 0.023914476758530458 0.00011017861151932632 0 0.022708937286078465 0.00019014234875497851 0 0.022668766228889893 0.00099077810997557237 0 0.022708937286078465 0.00019014234875497851 0 0.022668766228889893 0.00099077810997557237 0 0.022255966762495978 0.00063307249034365699 0 0.03096760792860501 0.00023879651106657846 0 0.02953596002112872 0.00021941485164162348 0 0.028610860794340463 0.00065237646846579554 0 0.026181214407557187 0.00023641043187955227 0 0.028610860794340463 0.00065237646846579554 0 0.028116724844077772 0.00015328450773902122 0 0.02953596002112872 0.00021941485164162348 0 0.028610860794340463 0.00065237646846579554 0 0.028116724844077772 0.00015328450773902122 0 0.026181214407557187 0.00023641043187955227 0 0.028116724844077772 0.00015328450773902122 0 0.027168872338457745 2.7377751489067753e-08 0 0.027385767122911495 -0.00038739955255517015 0 0.02995043493193815 -0.0011075624896471957 0 0.02480707762924687 -0.0054891932217440475 0 0.026254114426926947 -0.0044677268582972648 0 0.02498431684779279 -0.0042688985438248559 0 0.026254114426926947 -0.0044677268582972648 0 0.02498431684779279 -0.0042688985438248559 0 0.024990425536635958 -0.0035495307344773257 0 0.027385767122911495 -0.00038739955255517015 0 0.022638487971869434 -0.0017019844326000928 0 0.02217085142425966 0.0014803417642931798 0 0.022668766228889893 0.00099077810997557237 0 0.022255966762495978 0.00063307249034365699 0 0.02480707762924687 -0.0054891932217440475 0 0.02498431684779279 -0.0042688985438248559 0 0.023989113952596921 -0.0035158122202350135 0 0.027771056661592762 0.00042434289506959393 0 0.025413113398522608 0.00077711211121872677 0 0.02498431684779279 -0.0042688985438248559 0 0.024990425536635958 -0.0035495307344773257 0 0.023989113952596921 -0.0035158122202350135 0 0.024990425536635958 -0.0035495307344773257 0 0.023989113952596921 -0.0035158122202350135 0 0.024585280982500842 -0.0022667152194034059 0 0.026254114426926947 -0.0044677268582972648 0 0.024990425536635958 -0.0035495307344773257 0 0.025608566748146658 -0.0029308299364059205 0 0.024990425536635958 -0.0035495307344773257 0 0.025608566748146658 -0.0029308299364059205 0 0.024585280982500842 -0.0022667152194034059 0 0.026254114426926947 -0.0044677268582972648 0 0.025608566748146658 -0.0029308299364059205 0 0.026825380874680598 -0.0026094698535832871 0 0.025913841125937937 -0.0014512241492916412 0 0.024585280982500842 -0.0022667152194034059 0 0.024156845226130947 -0.0007325699301803432 0 0.025608566748146658 -0.0029308299364059205 0 0.025913841125937937 -0.0014512241492916412 0 0.026825380874680598 -0.0026094698535832871 0 0.025608566748146658 -0.0029308299364059205 0 0.025913841125937937 -0.0014512241492916412 0 0.024585280982500842 -0.0022667152194034059 0 0.023055544077971109 -0.0012839546159379538 0 0.023989113952596921 -0.0035158122202350135 0 0.024585280982500842 -0.0022667152194034059 0 0.022713719821772713 -0.00074002155337238014 0 0.022638487971869434 -0.0017019844326000928 0 0.023055544077971109 -0.0012839546159379538 0 0.024585280982500842 -0.0022667152194034059 0 0.024156845226130947 -0.0007325699301803432 0 0.023130790988620021 -1.109137395372463e-06 0 0.023055544077971109 -0.0012839546159379538 0 0.024156845226130947 -0.0007325699301803432 0 0.024145560017007864 0.00047028962497416631 0 0.024156845226130947 -0.0007325699301803432 0 0.025419709548249712 -0.00019191345924872465 0 0.024145560017007864 0.00047028962497416631 0 0.023130790988620021 -1.109137395372463e-06 0 0.024156845226130947 -0.0007325699301803432 0 0.025913841125937937 -0.0014512241492916412 0 0.025419709548249712 -0.00019191345924872465 0 0.027160214490969933 -0.00024166070193146037 0 0.025913841125937937 -0.0014512241492916412 0 0.024156845226130947 -0.0007325699301803432 0 0.025419709548249712 -0.00019191345924872465 0 0.025913841125937937 -0.0014512241492916412 0 0.027160214490969933 -0.00024166070193146037 0 0.028039668362158224 -0.0015043209857260053 0 0.029127335595725928 -0.00060013908446871834 0 0.030926764837687859 -0.00034866972280372851 0 0.028704286634075489 0.001126476157871766 0 0.027160214490969933 -0.00024166070193146037 0 0.029127335595725928 -0.00060013908446871834 0 0.028704286634075489 0.001126476157871766 0 0.027160214490969933 -0.00024166070193146037 0 0.029127335595725928 -0.00060013908446871834 0 0.028039668362158224 -0.0015043209857260053 0 0.031554778633270504 -7.1348354385158014e-05 0 0.032296501529048491 -2.3658773255962747e-06 0 0.029127335595725928 -0.00060013908446871834 0 0.028039668362158224 -0.0015043209857260053 0 0.030327391556709209 -0.0018658414680607857 0 0.028039668362158224 -0.0015043209857260053 0 0.02809571423981003 -0.0033521125825288216 0 0.030327391556709209 -0.0018658414680607857 0 0.028039668362158224 -0.0015043209857260053 0 0.026825380874680598 -0.0026094698535832871 0 0.02809571423981003 -0.0033521125825288216 0 0.025913841125937937 -0.0014512241492916412 0 0.028039668362158224 -0.0015043209857260053 0 0.026825380874680598 -0.0026094698535832871 0 0.02995043493193815 -0.0011075624896471957 0 0.031554778633270504 -7.1348354385158014e-05 0 0.033470071416918844 0.0026164682004842683 0 0.035088589148378223 0.0032856317344051871 0 0.035147916214846794 0.0028401957170336267 0 0.026254114426926947 -0.0044677268582972648 0 0.026825380874680598 -0.0026094698535832871 0 0.02809571423981003 -0.0033521125825288216 0 0.035088589148378223 0.0032856317344051871 0 0.03509627320556416 0.003185248494825964 0 0.034455396715944372 0.0017292635774767667 0 0.03509627320556416 0.003185248494825964 0 0.035147916214846794 0.0028401957170336267 0 0.035951921009920597 0.0025374655802590266 0 0.035088589148378223 0.0032856317344051871 0 0.03509627320556416 0.003185248494825964 0 0.035147916214846794 0.0028401957170336267 0 0.035147916214846794 0.0028401957170336267 0 0.035049137283406077 0.002116207658458249 0 0.035951921009920597 0.0025374655802590266 0 0.033470071416918844 0.0026164682004842683 0 0.035147916214846794 0.0028401957170336267 0 0.035049137283406077 0.002116207658458249 0 0.034032030824040348 0.0017573593832189999 0 0.033470071416918844 0.0026164682004842683 0 0.035049137283406077 0.002116207658458249 0 0.036691849310023804 0.0019354739054218513 0 0.037357583755738645 0.0026616796142407821 0 0.035951921009920597 0.0025374655802590266 0 0.037357583755738645 0.0026616796142407821 0 0.035951921009920597 0.0025374655802590266 0 0.036587841631302992 0.0032524031370824175 0 0.037608938342864044 0.0014500819062466537 0 0.036691849310023804 0.0019354739054218513 0 0.037357583755738645 0.0026616796142407821 0 0.035911217943376983 0.0018617079413107915 0 0.036691849310023804 0.0019354739054218513 0 0.035951921009920597 0.0025374655802590266 0 0.035911217943376983 0.0018617079413107915 0 0.035049137283406077 0.002116207658458249 0 0.035951921009920597 0.0025374655802590266 0 0.03509627320556416 0.003185248494825964 0 0.036587841631302992 0.0032524031370824175 0 0.037075025341273618 0.0044189966764675882 0 0.03509627320556416 0.003185248494825964 0 0.035951921009920597 0.0025374655802590266 0 0.036587841631302992 0.0032524031370824175 0 0.036587841631302992 0.0032524031370824175 0 0.037324857800222905 0.0036626071812110531 0 0.037075025341273618 0.0044189966764675882 0 0.037357583755738645 0.0026616796142407821 0 0.036587841631302992 0.0032524031370824175 0 0.037324857800222905 0.0036626071812110531 0 0.032325878457654229 0.0015278299531447193 0 0.034455396715944372 0.0017292635774767667 0 0.032184783213844693 0.00033134160058896509 0 0.037324857800222905 0.0036626071812110531 0 0.037075025341273618 0.0044189966764675882 0 0.037991365115678889 0.0042282932696823304 0 0.03509627320556416 0.003185248494825964 0 0.032325878457654229 0.0015278299531447193 0 0.034455396715944372 0.0017292635774767667 0 0.034777065115962916 0.0030335910201115123 0 0.035384488648476153 0.0032343345088333957 0 0.030926764837687859 -0.00034866972280372851 0 0.032066920597247264 0.00053615941597238157 0 0.028704286634075489 0.001126476157871766 0 0.032296501529048491 -2.3658773255962747e-06 0 0.032247744957637874 0.0002384348260108981 0 0.030327391556709209 -0.0018658414680607857 0 0.030926764837687859 -0.00034866972280372851 0 0.032184783213844693 0.00033134160058896509 0 0.029127335595725928 -0.00060013908446871834 0 0.030327391556709209 -0.0018658414680607857 0 0.030926764837687859 -0.00034866972280372851 0 0.032184783213844693 0.00033134160058896509 0 0.032066920597247264 0.00053615941597238157 0 0.031304086084995686 0.00010563878899561256 0 0.030926764837687859 -0.00034866972280372851 0 0.032184783213844693 0.00033134160058896509 0 0.032066920597247264 0.00053615941597238157 0 0.023870313315367663 -0.00041842012271057339 0 0.024048851403253971 0.00077440188073409533 0 0.023363108842617716 0.00067097468817728715 0 0.023870313315367663 -0.00041842012271057339 0 0.024048851403253971 0.00077440188073409533 0 0.024718357536011017 0.0005250675825023976 0 0.023870313315367663 -0.00041842012271057339 0 0.024718357536011017 0.0005250675825023976 0 0.024939229876711849 -7.6222539670839771e-05 0 0.024048851403253971 0.00077440188073409533 0 0.024551833473837641 0.0013377577874583743 0 0.024718357536011017 0.0005250675825023976 0 0.024048851403253971 0.00077440188073409533 0 0.024551833473837641 0.0013377577874583743 0 0.023583974594714729 0.0015533627240928139 0 0.024048851403253971 0.00077440188073409533 0 0.023363108842617716 0.00067097468817728715 0 0.023583974594714729 0.0015533627240928139 0 0.022659701332362382 0.00046301200321740036 0 0.022040299277829311 0.00085574222722739342 0 0.023552619917083108 0.0014869559553002691 0 0.017370402122841147 0.00045875464153902559 0 0.020025202207158664 0.0010103490313122369 0 0.014484491319419311 0.00038217404470983061 0 0.014406173920116876 0.00029048480328562869 0 0.014459133169173747 0.00029083251240649753 0 0.023363108842617716 0.00067097468817728715 0 0.022659701332362382 0.00046301200321740036 0 0.023552619917083108 0.0014869559553002691 0 0.023154818020594891 0.0012685873598107156 0 0.020025202207158664 0.0010103490313122369 0 0.027046134534157898 -0.00018658718684581838 0 0.02607166185315166 0.00053074976082820443 0 0.023870313315367663 -0.00041842012271057339 0 0.023363108842617716 0.00067097468817728715 0 0.022659701332362382 0.00046301200321740036 0 0.023870313315367663 -0.00041842012271057339 0 0.022174086300834291 -7.7348476048892532e-05 0 0.022659701332362382 0.00046301200321740036 0 0.022174086300834291 -7.7348476048892532e-05 0 0.022659701332362382 0.00046301200321740036 0 0.022040299277829311 0.00085574222722739342 0 0.021094747099159289 0.00057900553916287846 0 0.02607166185315166 0.00053074976082820443 0 0.025593924721029317 0.0013432213653972592 0 0.027160214490969933 -0.00024166070193146037 0 0.028704286634075489 0.001126476157871766 0 0.020545848079905036 0.00024297622488076277 0 0.022174086300834291 -7.7348476048892532e-05 0 0.022040299277829311 0.00085574222722739342 0 0.021094747099159289 0.00057900553916287846 0 0.017370402122841147 0.00045875464153902559 0 0.014978298586582109 0.00065104959580384745 0 0.014484491319419311 0.00038217404470983061 0 0.014730136662955846 0.00022593616641748029 0 0.014484491319419311 0.00038217404470983061 0 0.014556012590658352 0.00022429318974124298 0 0.014730136662955846 0.00022593616641748029 0 0.014484491319419311 0.00038217404470983061 0 0.014406173920116876 0.00029048480328562869 0 0.014556012590658352 0.00022429318974124298 0 0.014406173920116876 0.00029048480328562869 0 0.014175166899229428 0.00054402068861304678 0 0.014394814615416937 0.0004654972297321446 0 0.014406173920116876 0.00029048480328562869 0 0.014556012590658352 0.00022429318974124298 0 0.014625821648080057 -2.8409932731749169e-05 0 0.014406173920116876 0.00029048480328562869 0 0.013943056235794088 0.00044788088586875606 0 0.014175166899229428 0.00054402068861304678 0 0.014340044851164555 0.00029013756008272363 0 0.014409129282741046 0.00019532223088388875 0 0.014556012590658352 0.00022429318974124298 0 0.014730136662955846 0.00022593616641748029 0 0.014625821648080057 -2.8409932731749169e-05 0 0.014730136662955846 0.00022593616641748029 0 0.014842118646682428 1.4184438438792377e-05 0 0.014625821648080057 -2.8409932731749169e-05 0 0.013474810262364202 6.0317303691845955e-05 0 0.014409129282741046 0.00019532223088388875 0 0.014960566648998735 -0.00027371370092923043 0 0.014890253593813069 -0.0001119390986177052 0 0.014625821648080057 -2.8409932731749169e-05 0 0.013474810262364202 6.0317303691845955e-05 0 0.013768945290778786 0.00066657690910049811 0 0.013574319927339309 0.00072052118768738463 0 0.013943056235794088 0.00044788088586875606 0 0.013910422983273071 0.00063032282629312192 0 0.013255364770802249 0.00075904984211155641 0 0.013910422983273071 0.00063032282629312192 0 0.013860136792388754 0.00083675828050910959 0 0.014890253593813069 -0.0001119390986177052 0 0.014842118646682428 1.4184438438792377e-05 0 0.014625821648080057 -2.8409932731749169e-05 0 0.014175166899229428 0.00054402068861304678 0 0.014310299943874253 0.00069511152500391382 0 0.013860136792388754 0.00083675828050910959 0 0.014175166899229428 0.00054402068861304678 0 0.014310299943874253 0.00069511152500391382 0 0.014394814615416937 0.0004654972297321446 0 0.013943056235794088 0.00044788088586875606 0 0.013910422983273071 0.00063032282629312192 0 0.014175166899229428 0.00054402068861304678 0 0.013910422983273071 0.00063032282629312192 0 0.014175166899229428 0.00054402068861304678 0 0.013860136792388754 0.00083675828050910959 0 0.010008305733501262 0.00062848077000887638 0 0.012182425440169245 0.00036134950570756199 0 0.014310299943874253 0.00069511152500391382 0 0.014394814615416937 0.0004654972297321446 0 0.014586269236346802 0.00061199542033304056 0 0.012182425440169245 0.00036134950570756199 0 0.014662032336797649 0.0002362842635553722 0 0.017278735605841315 0.00072012439409254564 0 0.017427090144153806 0.0011326753991298037 0 0.016991514620051041 0.00095546616057477112 0 0.020025202207158664 0.0010103490313122369 0 0.020173153754715581 0.0013372309330220726 0 0.012182425440169245 0.00036134950570756199 0 0.020025202207158664 0.0010103490313122369 0 0.024551833473837641 0.0013377577874583743 0 0.023583974594714729 0.0015533627240928139 0 0.025246432423146808 0.0022365966583517195 0 0.014406173920116876 0.00029048480328562869 0 0.014394814615416937 0.0004654972297321446 0 0.014459133169173747 0.00029083251240649753 0 0.014394814615416937 0.0004654972297321446 0 0.014586269236346802 0.00061199542033304056 0 0.014459133169173747 0.00029083251240649753 0 0.022263911612509051 0.0019375032262566616 0 0.021712640522736554 0.0021111058351973512 0 0.022140430285208068 0.0022686194003756067 0 0.022263911612509051 0.0019375032262566616 0 0.021712640522736554 0.0021111058351973512 0 0.021901934301466912 0.0016694872486900157 0 0.020173153754715581 0.0013372309330220726 0 0.018749189082584446 0.0010132246139943585 0 0.025196463395045939 0.0012942942715624597 0 0.024332522521571445 0.0015896896228718902 0 0.020173153754715581 0.0013372309330220726 0 0.024332522521571445 0.0015896896228718902 0 0.025267377504694221 0.0016540874946182672 0 0.025246432423146808 0.0022365966583517195 0 0.025645726686365253 0.0013355004505701796 0 0.024551833473837641 0.0013377577874583743 0 0.025267377504694221 0.0016540874946182672 0 0.025246432423146808 0.0022365966583517195 0 0.017278735605841315 0.00072012439409254564 0 0.016991514620051041 0.00095546616057477112 0 0.017060318953582936 0.00075065043898632456 0 0.014863243213725131 -0.00035950107455094709 0 0.014537130263288898 0.00032372241053429956 0 0.015573713123230937 -7.8568735720690625e-05 0 0.020173153754715581 0.0013372309330220726 0 0.014662032336797649 0.0002362842635553722 0 0.014662032336797649 0.0002362842635553722 0 0.01542148667092604 0.00026382337017278977 0 0.013623474767975189 0.00043226160282453408 0 0.015769410943305903 0.00022018986583731927 0 0.014808519425691825 0.0010598193621876981 0 0.015769410943305903 0.00022018986583731927 0 0.016710527141335051 0.00029120184581897231 0 0.014808519425691825 0.0010598193621876981 0 0.014537130263288898 0.00032372241053429956 0 0.015573713123230937 -7.8568735720690625e-05 0 0.015769410943305903 0.00022018986583731927 0 0.022140430285208068 0.0022686194003756067 0 0.022582868676833547 0.002389833541865909 0 0.022647354495414631 0.0020260423856520958 0 0.018749189082584446 0.0010132246139943585 0 0.018890883758227763 0.00080624416601816668 0 0.015573713123230937 -7.8568735720690625e-05 0 0.015769410943305903 0.00022018986583731927 0 0.016710527141335051 0.00029120184581897231 0 0.023428809438351014 0.00099256684538692698 0 0.022735737830755245 0.0011590462971993202 0 0.022825382276502239 0.0018067072805042213 0 0.018890883758227763 0.00080624416601816668 0 0.018324101651917651 8.6649767916780935e-05 0 0.023428809438351014 0.00099256684538692698 0 0.022735737830755245 0.0011590462971993202 0 0.022548419350987576 0.00060106789052217884 0 0.022735737830755245 0.0011590462971993202 0 0.022099216302716183 0.0012395528687133965 0 0.022548419350987576 0.00060106789052217884 0 0.018890883758227763 0.00080624416601816668 0 0.023894171434127913 0.0016478057155243633 0 0.022825382276502239 0.0018067072805042213 0 0.023021508493545586 0.0019388069649995904 0 0.021607242953634413 0.0021055412817530907 0 0.022735737830755245 0.0011590462971993202 0 0.022825382276502239 0.0018067072805042213 0 0.022099216302716183 0.0012395528687133965 0 0.022821009550837192 0.0019154093938240626 0 0.022825382276502239 0.0018067072805042213 0 0.023021508493545586 0.0019388069649995904 0 0.022821009550837192 0.0019154093938240626 0 0.022825382276502239 0.0018067072805042213 0 0.022647354495414631 0.0020260423856520958 0 0.022263911612509051 0.0019375032262566616 0 0.022140430285208068 0.0022686194003756067 0 0.022647354495414631 0.0020260423856520958 0 0.022582868676833547 0.002389833541865909 0 0.022825382276502239 0.0018067072805042213 0 0.022647354495414631 0.0020260423856520958 0 0.022821009550837192 0.0019154093938240626 0 0.022647354495414631 0.0020260423856520958 0 0.022661210593838976 0.0018314045335317765 0 0.022821009550837192 0.0019154093938240626 0 0.022661210593838976 0.0018314045335317765 0 0.023021508493545586 0.0019388069649995904 0 0.022263911612509051 0.0019375032262566616 0 0.022647354495414631 0.0020260423856520958 0 0.022661210593838976 0.0018314045335317765 0 0.022263911612509051 0.0019375032262566616 0 0.022661210593838976 0.0018314045335317765 0 0.022412398845913169 0.0015934809458296928 0 0.022412398845913169 0.0015934809458296928 0 0.022825221769757351 0.0015704147852928559 0 0.022528168150814199 0.00092740937078789423 0 0.022661210593838976 0.0018314045335317765 0 0.022412398845913169 0.0015934809458296928 0 0.022825221769757351 0.0015704147852928559 0 0.022661210593838976 0.0018314045335317765 0 0.022825221769757351 0.0015704147852928559 0 0.023021508493545586 0.0019388069649995904 0 0.023724407331800153 0.0012411785984654795 0 0.02284576919347777 0.00079237982597939703 0 0.023992702342202937 0.0016951082583369068 0 0.022825221769757351 0.0015704147852928559 0 0.023021508493545586 0.0019388069649995904 0 0.023992702342202937 0.0016951082583369068 0 0.022825221769757351 0.0015704147852928559 0 0.022528168150814199 0.00092740937078789423 0 0.023992702342202937 0.0016951082583369068 0 0.025063303875721834 0.00092320819571261919 0 0.023022902511049357 0.0014805482937716918 0 0.023288100894376884 0.0007272194650183735 0 0.026828793205072542 0.00068915566588130365 0 0.023724407331800153 0.0012411785984654795 0 0.023966566655800499 0.00052871902908665244 0 0.023450854229368507 3.0864045838203663e-05 0 0.023724407331800153 0.0012411785984654795 0 0.02284576919347777 0.00079237982597939703 0 0.023511515192237691 0.00026655378180299853 0 0.025063303875721834 0.00092320819571261919 0 0.026828793205072542 0.00068915566588130365 0 0.023966566655800499 0.00052871902908665244 0 0.023450854229368507 3.0864045838203663e-05 0 0.023596111216218272 -8.6575470827788992e-05 0 0.029693326787016413 0.00087415242652696121 0 0.029539023807251617 0.0015350987348325556 0 0.028850674594744753 0.0015793083362411965 0 0.029539023807251617 0.0015350987348325556 0 0.030385183972465403 0.0013403774593556349 0 0.02984818369023276 0.001791372757734202 0 0.029693326787016413 0.00087415242652696121 0 0.029539023807251617 0.0015350987348325556 0 0.030385183972465403 0.0013403774593556349 0 0.025063303875721834 0.00092320819571261919 0 0.028570428029164915 0.00090926203257035937 0 0.026461935957820648 0.00096930908702943261 0 0.025959046763236741 0.00061926162078359257 0 0.025414954041206996 0.0018231869642671027 0 0.026442364511140699 -0.00019730650441496402 0 0.025508892375933408 0.00033051140961934286 0 0.025659281049559536 -0.00074376696393486832 0 0.026442364511140699 -0.00019730650441496402 0 0.025703508190812574 0.0013298938547369207 0 0.025508892375933408 0.00033051140961934286 0 0.022412398845913169 0.0015934809458296928 0 0.022528168150814199 0.00092740937078789423 0 0.021901934301466912 0.0016694872486900157 0 0.028570428029164915 0.00090926203257035937 0 0.024332522521571445 0.0015896896228718902 0 0.022263911612509051 0.0019375032262566616 0 0.022412398845913169 0.0015934809458296928 0 0.021901934301466912 0.0016694872486900157 0 0.025063303875721834 0.00092320819571261919 0 0.024332522521571445 0.0015896896228718902 0 0.025703508190812574 0.0013298938547369207 0 0.025056364778334103 0.0010670206716631573 0 0.025508892375933408 0.00033051140961934286 0 0.024551833473837641 0.0013377577874583743 0 0.025267377504694221 0.0016540874946182672 0 0.025056364778334103 0.0010670206716631573 0 0.025267377504694221 0.0016540874946182672 0 0.025703508190812574 0.0013298938547369207 0 0.025056364778334103 0.0010670206716631573 0 0.025056364778334103 0.0010670206716631573 0 0.024718357536011017 0.0005250675825023976 0 0.025508892375933408 0.00033051140961934286 0 0.024551833473837641 0.0013377577874583743 0 0.025056364778334103 0.0010670206716631573 0 0.024718357536011017 0.0005250675825023976 0 0.024718357536011017 0.0005250675825023976 0 0.025508892375933408 0.00033051140961934286 0 0.024939229876711849 -7.6222539670839771e-05 0 0.025508892375933408 0.00033051140961934286 0 0.024939229876711849 -7.6222539670839771e-05 0 0.025659281049559536 -0.00074376696393486832 0 0.027046134534157898 -0.00018658718684581838 0 0.031992459521369448 0.001791403999186028 0 0.035384488648476153 0.0032343345088333957 0 0.031992459521369448 0.001791403999186028 0 0.023870313315367663 -0.00041842012271057339 0 0.024939229876711849 -7.6222539670839771e-05 0 0.025659281049559536 -0.00074376696393486832 0 0.032325878457654229 0.0015278299531447193 0 0.032184783213844693 0.00033134160058896509 0 0.031304086084995686 0.00010563878899561256 0 0.03856959510353504 0.0045084085702905702 0 0.039214885477910501 0.0049446248680532819 0 0.039255113817909984 0.004849069453576724 0 0.032029046577902807 0.0023676705020897731 0 0.031678216640560031 0.0021256665325651144 0 0.032193110332269487 0.0020330996695488968 0 0.039543555870216886 0.0049119540001766578 0 0.036714198959080374 0.0041794811375462041 0 0.03843521532889406 0.0051418409702051167 0 0.03856959510353504 0.0045084085702905702 0 0.039214885477910501 0.0049446248680532819 0 0.031992459521369448 0.001791403999186028 0 0.035225932977254848 0.0033461570943635432 0 0.028570428029164915 0.00090926203257035937 0 0.031992459521369448 0.001791403999186028 0 0.03856959510353504 0.0045084085702905702 0 0.039323140293998651 0.0044834114322721665 0 0.039551395882641005 0.0048982893734876836 0 0.03856959510353504 0.0045084085702905702 0 0.039231672202112711 0.0039490137069074964 0 0.039323140293998651 0.0044834114322721665 0 0.03856959510353504 0.0045084085702905702 0 0.038524821157198387 0.0039148025109395244 0 0.039231672202112711 0.0039490137069074964 0 0.037075025341273618 0.0044189966764675882 0 0.03843521532889406 0.0051418409702051167 0 0.037991365115678889 0.0042282932696823304 0 0.03843521532889406 0.0051418409702051167 0 0.03856959510353504 0.0045084085702905702 0 0.037991365115678889 0.0042282932696823304 0 0.038524821157198387 0.0039148025109395244 0 0.037991365115678889 0.0042282932696823304 0 0.038019750853170872 0.0035091264889219407 0 0.03856959510353504 0.0045084085702905702 0 0.038524821157198387 0.0039148025109395244 0 0.037991365115678889 0.0042282932696823304 0 0.037324857800222905 0.0036626071812110531 0 0.037991365115678889 0.0042282932696823304 0 0.038019750853170872 0.0035091264889219407 0 0.037357583755738645 0.0026616796142407821 0 0.037324857800222905 0.0036626071812110531 0 0.038019750853170872 0.0035091264889219407 0 0.037357583755738645 0.0026616796142407821 0 0.038019750853170872 0.0035091264889219407 0 0.0382983773734039 0.0028455500698031321 0 0.038019750853170872 0.0035091264889219407 0 0.038797290845424819 0.0033589084761791823 0 0.0382983773734039 0.0028455500698031321 0 0.038524821157198387 0.0039148025109395244 0 0.038019750853170872 0.0035091264889219407 0 0.038797290845424819 0.0033589084761791823 0 0.038524821157198387 0.0039148025109395244 0 0.039231672202112711 0.0039490137069074964 0 0.038797290845424819 0.0033589084761791823 0 0.039231672202112711 0.0039490137069074964 0 0.038797290845424819 0.0033589084761791823 0 0.039417187417198477 0.0033016793364741993 0 0.038797290845424819 0.0033589084761791823 0 0.039067320014219593 0.0025522830480073839 0 0.039417187417198477 0.0033016793364741993 0 0.038797290845424819 0.0033589084761791823 0 0.039067320014219593 0.0025522830480073839 0 0.0382983773734039 0.0028455500698031321 0 0.038800397337554471 0.0013662267498106213 0 0.039067320014219593 0.0025522830480073839 0 0.038195310000275824 0.0021417145065124273 0 0.037608938342864044 0.0014500819062466537 0 0.037357583755738645 0.0026616796142407821 0 0.038195310000275824 0.0021417145065124273 0 0.037357583755738645 0.0026616796142407821 0 0.038195310000275824 0.0021417145065124273 0 0.0382983773734039 0.0028455500698031321 0 0.039067320014219593 0.0025522830480073839 0 0.038195310000275824 0.0021417145065124273 0 0.0382983773734039 0.0028455500698031321 0 0.047470650854459347 0.0027910389590832703 0 0.047400050428965917 0.0027995365673080656 0 0.047525222545595838 0.0026534282715857298 0 0.039695378151863067 0.0014126412053512469 0 0.039067320014219593 0.0025522830480073839 0 0.040060495093546769 0.0028181120606052307 0 0.038536074695992961 0.002423696904490485 0 0.041930918619316179 0.0033100618475197987 0 0.039067320014219593 0.0025522830480073839 0 0.039878008615918031 0.0028196076479096322 0 0.039417187417198477 0.0033016793364741993 0 0.043660325657268254 0.0020336405432022885 0 0.041930918619316179 0.0033100618475197987 0 0.039878008615918031 0.0028196076479096322 0 0.039417187417198477 0.0033016793364741993 0 0.040105732205811817 0.0038362307675630287 0 0.039231672202112711 0.0039490137069074964 0 0.039417187417198477 0.0033016793364741993 0 0.040105732205811817 0.0038362307675630287 0 0.041930918619316179 0.0033100618475197987 0 0.040072182966269146 0.0038913810310081346 0 0.040035303752398513 0.0037704274387868573 0 0.039892306434340503 0.0037030229207023445 0 0.04016088923658101 0.0035637076721178468 0 0.03986719329451701 0.0034975129116014687 0 0.039892306434340503 0.0037030229207023445 0 0.04016088923658101 0.0035637076721178468 0 0.041930918619316179 0.0033100618475197987 0 0.044466856139564616 0.0031525661023877284 0 0.040072182966269146 0.0038913810310081346 0 0.036692111749257912 0.0038043919110808907 0 0.040035303752398513 0.0037704274387868573 0 0.039892306434340503 0.0037030229207023445 0 0.03991021435073016 0.0039196670668331449 0 0.040035303752398513 0.0037704274387868573 0 0.03991021435073016 0.0039196670668331449 0 0.040174518825116134 0.0038761847829312515 0 0.040105732205811817 0.0038362307675630287 0 0.039920432794999114 0.0045734595897381327 0 0.040318708967571032 0.0048433474615887043 0 0.039231672202112711 0.0039490137069074964 0 0.040105732205811817 0.0038362307675630287 0 0.039639129836470485 0.0043105328716131668 0 0.040105732205811817 0.0038362307675630287 0 0.039920432794999114 0.0045734595897381327 0 0.039639129836470485 0.0043105328716131668 0 0.039920432794999114 0.0045734595897381327 0 0.039639129836470485 0.0043105328716131668 0 0.039609179803820609 0.0047546443899561608 0 0.039639129836470485 0.0043105328716131668 0 0.039323140293998651 0.0044834114322721665 0 0.039609179803820609 0.0047546443899561608 0 0.039231672202112711 0.0039490137069074964 0 0.039639129836470485 0.0043105328716131668 0 0.039323140293998651 0.0044834114322721665 0 0.039323140293998651 0.0044834114322721665 0 0.039609179803820609 0.0047546443899561608 0 0.039551395882641005 0.0048982893734876836 0 0.036965990167978871 0.0041287591524554268 0 0.036714198959080374 0.0041794811375462041 0 0.039609179803820609 0.0047546443899561608 0 0.03954541830436932 0.0048854083479049669 0 0.039717934605125717 0.0049600311357766149 0 0.035550753664297517 0.0032077703157037565 0 0.035639143571660079 0.0030068267718602166 0 0.035931190378105805 0.0031347529071641053 0 0.035225932977254848 0.0033461570943635432 0 0.035095004347974357 0.0034854982768981095 0 0.036714198959080374 0.0041794811375462041 0 0.035095004347974357 0.0034854982768981095 0 0.035225932977254848 0.0033461570943635432 0 0.036714198959080374 0.0041794811375462041 0 0.039920432794999114 0.0045734595897381327 0 0.039717934605125717 0.0049600311357766149 0 0.040318708967571032 0.0048433474615887043 0 0.035095004347974357 0.0034854982768981095 0 0.036692111749257912 0.0038043919110808907 0 0.039920432794999114 0.0045734595897381327 0 0.039609179803820609 0.0047546443899561608 0 0.039717934605125717 0.0049600311357766149 0 0.029539023807251617 0.0015350987348325556 0 0.029788859078101568 0.0021822580296117027 0 0.028911892337926643 0.0017987936357214337 0 0.029539023807251617 0.0015350987348325556 0 0.029788859078101568 0.0021822580296117027 0 0.02984818369023276 0.001791372757734202 0 0.035095004347974357 0.0034854982768981095 0 0.029668358791643284 0.0017590602789311833 0 0.028570428029164915 0.00090926203257035937 0 0.035225932977254848 0.0033461570943635432 0 0.030385183972465403 0.0013403774593556349 0 0.030065242215798853 0.0021294556703508527 0 0.02984818369023276 0.001791372757734202 0 0.030065242215798853 0.0021294556703508527 0 0.029788859078101568 0.0021822580296117027 0 0.02984818369023276 0.001791372757734202 0 0.0318812693855361 0.0022433478555206232 0 0.032047616087959072 0.0025582291220126079 0 0.032618929329713726 0.002097381261978332 0 0.036692111749257912 0.0038043919110808907 0 0.033353261235703618 0.0024405932481739502 0 0.036692111749257912 0.0038043919110808907 0 0.029668358791643284 0.0017590602789311833 0 0.035171397134062185 0.003572211512871805 0 0.033244768692634229 0.0039300945257530941 0 0.032874642218384965 0.0025570750380891996 0 0.0318812693855361 0.0022433478555206232 0 0.031939611988525574 0.0025107042780525943 0 0.032047616087959072 0.0025582291220126079 0 0.029539023807251617 0.0015350987348325556 0 0.028911892337926643 0.0017987936357214337 0 0.028850674594744753 0.0015793083362411965 0 0.029668358791643284 0.0017590602789311833 0 0.02706215478750356 0.00089437559763808549 0 0.029668358791643284 0.0017590602789311833 0 0.026828793205072542 0.00068915566588130365 0 0.02750164083462333 0.00032425564636101996 0 0.027667019458187916 0.00096327713607657916 0 0.028115747564861442 0.00059389556299821705 0 0.026828793205072542 0.00068915566588130365 0 0.02706215478750356 0.00089437559763808549 0 0.025754188329678993 0.00077863891596690509 0 0.025885209175803784 0.00064549283948316951 0 0.02587501035951963 0.00085605798402821418 0 0.02706215478750356 0.00089437559763808549 0 0.033353261235703618 0.0024405932481739502 0 0.026010750376546231 0.00077211495968078879 0 0.025885209175803784 0.00064549283948316951 0 0.026229125311636906 0.00049733287541875806 0 0.026010750376546231 0.00077211495968078879 0 0.025885209175803784 0.00064549283948316951 0 0.02587501035951963 0.00085605798402821418 0 0.040174518825116134 0.0038761847829312515 0 0.04016088923658101 0.0035637076721178468 0 0.04050900007994826 0.0036345986647353503 0 0.033353261235703618 0.0024405932481739502 0 0.030246313403840156 0.0015042296956258433 0 0.035286548571556851 0.0028176897930862845 0 0.036842225110073179 0.0024745558220409425 0 0.036707962464027584 0.0024174026884216555 0 0.033353261235703618 0.0024405932481739502 0 0.042655285516586865 0.0028694889813784094 0 0.035286548571556851 0.0028176897930862845 0 0.036632115041995768 0.0016674699070572104 0 0.036707962464027584 0.0024174026884216555 0 0.040035303752398513 0.0037704274387868573 0 0.040174518825116134 0.0038761847829312515 0 0.04016088923658101 0.0035637076721178468 0 0.047525222545595838 0.0026534282715857298 0 0.047508757185347861 0.0024665124559207609 0 0.047460049509960099 0.0023023297460412306 0 0.044466856139564616 0.0031525661023877284 0 0.042655285516586865 0.0028694889813784094 0 0.047624185388187676 0.0028158554273045762 0 0.047575641291519553 0.0026604535553756922 0 0.047497020257459201 0.0024640224165049548 0 0.047525222545595838 0.0026534282715857298 0 0.047508757185347861 0.0024665124559207609 0 0.047575641291519553 0.0026604535553756922 0 0.047508757185347861 0.0024665124559207609 0 0.047575641291519553 0.0026604535553756922 0 0.047497020257459201 0.0024640224165049548 0 0.047470650854459347 0.0027910389590832703 0 0.047525222545595838 0.0026534282715857298 0 0.047575641291519553 0.0026604535553756922 0 0.047020234227990405 0.0023495836100074999 0 0.04750494818812194 0.0026609933755227765 0 0.047287976593289073 0.0022762971508937854 0 0.047020234227990405 0.0023495836100074999 0 0.047287976593289073 0.0022762971508937854 0 0.046983590239790034 0.0018692037619648365 0 0.047287976593289073 0.0022762971508937854 0 0.047497020257459201 0.0024640224165049548 0 0.047312255036910777 0.0021816729212927816 0 0.04750494818812194 0.0026609933755227765 0 0.047287976593289073 0.0022762971508937854 0 0.047497020257459201 0.0024640224165049548 0 0.047497020257459201 0.0024640224165049548 0 0.047419389865369345 0.0022473598594018548 0 0.047312255036910777 0.0021816729212927816 0 0.047508757185347861 0.0024665124559207609 0 0.047419389865369345 0.0022473598594018548 0 0.047460049509960099 0.0023023297460412306 0 0.047508757185347861 0.0024665124559207609 0 0.047497020257459201 0.0024640224165049548 0 0.047419389865369345 0.0022473598594018548 0 0.045623261174161274 0.0014841248349471577 0 0.042655285516586865 0.0028694889813784094 0 0.042655285516586865 0.0028694889813784094 0 0.041989806864180794 0.0018283659776408925 0 0.047419389865369345 0.0022473598594018548 0 0.047312255036910777 0.0021816729212927816 0 0.047279355190247292 0.0020490245393644563 0 0.047419389865369345 0.0022473598594018548 0 0.047470165826708439 0.0021885903459029827 0 0.047279355190247292 0.0020490245393644563 0 0.041989806864180794 0.0018283659776408925 0 0.045688785880349657 0.0013903190804251419 0 0.047312255036910777 0.0021816729212927816 0 0.047279355190247292 0.0020490245393644563 0 0.046983590239790034 0.0018692037619648365 0 0.043355496881708984 0.0013155998664349134 0 0.043392347346764205 0.0013460735155945655 0 0.043339298755127001 0.0012902036144272063 0 0.047287976593289073 0.0022762971508937854 0 0.047312255036910777 0.0021816729212927816 0 0.046983590239790034 0.0018692037619648365 0 0.030246313403840156 0.0015042296956258433 0 0.035294790047707997 0.0012190423013003758 0 0.037013887049352073 0.0022695286548353928 0 0.036842225110073179 0.0024745558220409425 0 0.037254993991773844 0.0022953403859404574 0 0.041989806864180794 0.0018283659776408925 0 0.035294790047707997 0.0012190423013003758 0 0.026229125311636906 0.00049733287541875806 0 0.026521710322592658 0.0006520939259377133 0 0.02678376738901515 0.00037251131300667072 0 0.036632115041995768 0.0016674699070572104 0 0.037622943811416718 0.0018915576438034102 0 0.036707962464027584 0.0024174026884216555 0 0.037013887049352073 0.0022695286548353928 0 0.036842225110073179 0.0024745558220409425 0 0.036707962464027584 0.0024174026884216555 0 0.041989806864180794 0.0018283659776408925 0 0.035934342890533003 0.0032069998316481786 0 0.026229125311636906 0.00049733287541875806 0 0.02624490134454081 0.00081613109247995078 0 0.026521710322592658 0.0006520939259377133 0 0.026010750376546231 0.00077211495968078879 0 0.026229125311636906 0.00049733287541875806 0 0.02624490134454081 0.00081613109247995078 0 0.02624490134454081 0.00081613109247995078 0 0.026521710322592658 0.0006520939259377133 0 0.026553265544798706 0.00090706662187531762 0 0.026521710322592658 0.0006520939259377133 0 0.026553265544798706 0.00090706662187531762 0 0.026815632942389377 0.00066665383363987351 0 0.026553265544798706 0.00090706662187531762 0 0.026578718294038822 0.0013427640895308393 0 0.026332475898583722 0.0011154471600078322 0 0.02624490134454081 0.00081613109247995078 0 0.026553265544798706 0.00090706662187531762 0 0.026332475898583722 0.0011154471600078322 0 0.026578718294038822 0.0013427640895308393 0 0.026306179875045726 0.0014027492656724578 0 0.026332475898583722 0.0011154471600078322 0 0.026578718294038822 0.0013427640895308393 0 0.026306179875045726 0.0014027492656724578 0 0.026343833800218899 0.0016019544045021664 0 0.026057511241805636 0.0014949951362821013 0 0.026332475898583722 0.0011154471600078322 0 0.025919207452027072 0.00099703249084610694 0 0.026057511241805636 0.0014949951362821013 0 0.025112645283589596 0.0020225996569723055 0 0.026753390407469376 0.0019857622800694245 0 0.026636988296351631 0.0020326109192673292 0 0.023510288896746924 0.0019809520951311992 0 0.026057511241805636 0.0014949951362821013 0 0.026306179875045726 0.0014027492656724578 0 0.026343833800218899 0.0016019544045021664 0 0.026057511241805636 0.0014949951362821013 0 0.026306179875045726 0.0014027492656724578 0 0.026332475898583722 0.0011154471600078322 0 0.026010750376546231 0.00077211495968078879 0 0.02624490134454081 0.00081613109247995078 0 0.025919207452027072 0.00099703249084610694 0 0.02624490134454081 0.00081613109247995078 0 0.026332475898583722 0.0011154471600078322 0 0.025919207452027072 0.00099703249084610694 0 0.026010750376546231 0.00077211495968078879 0 0.025919207452027072 0.00099703249084610694 0 0.02587501035951963 0.00085605798402821418 0 0.025919207452027072 0.00099703249084610694 0 0.024695181772291273 0.00038887080563569415 0 0.024763087202553598 0.0012160710470798255 0 0.026031919141655067 0.0010172381536171101 0 0.02485084444624492 0.00046687594853807318 0 0.023966566655800499 0.00052871902908665244 0 0.023596111216218272 -8.6575470827788992e-05 0 0.024695181772291273 0.00038887080563569415 0 0.023724407331800153 0.0012411785984654795 0 0.023966566655800499 0.00052871902908665244 0 0.024763087202553598 0.0012160710470798255 0 0.02706215478750356 0.00089437559763808549 0 0.02485084444624492 0.00046687594853807318 0 0.023966566655800499 0.00052871902908665244 0 0.024695181772291273 0.00038887080563569415 0 0.024763087202553598 0.0012160710470798255 0 0.023724407331800153 0.0012411785984654795 0 0.023992702342202937 0.0016951082583369068 0 0.024763087202553598 0.0012160710470798255 0 0.023992702342202937 0.0016951082583369068 0 0.024763087202553598 0.0012160710470798255 0 0.025112645283589596 0.0020225996569723055 0 0.023021508493545586 0.0019388069649995904 0 0.023992702342202937 0.0016951082583369068 0 0.025112645283589596 0.0020225996569723055 0 0.025919207452027072 0.00099703249084610694 0 0.024763087202553598 0.0012160710470798255 0 0.025487079606429385 0.0014362905453397918 0 0.026057511241805636 0.0014949951362821013 0 0.025487079606429385 0.0014362905453397918 0 0.025112645283589596 0.0020225996569723055 0 0.026057511241805636 0.0014949951362821013 0 0.025919207452027072 0.00099703249084610694 0 0.025487079606429385 0.0014362905453397918 0 0.024763087202553598 0.0012160710470798255 0 0.025487079606429385 0.0014362905453397918 0 0.025112645283589596 0.0020225996569723055 0 0.021607242953634413 0.0021055412817530907 0 0.022099216302716183 0.0012395528687133965 0 0.02130982047714668 0.0010538459352503707 0 0.021607242953634413 0.0021055412817530907 0 0.02130982047714668 0.0010538459352503707 0 0.020669971213586581 0.0014682221202467576 0 0.022825382276502239 0.0018067072805042213 0 0.021607242953634413 0.0021055412817530907 0 0.022099216302716183 0.0012395528687133965 0 0.023033173086588251 0.0019583976951990149 0 0.02331639001565658 0.0020457418645632671 0 0.022099216302716183 0.0012395528687133965 0 0.021560738550441803 0.00019792183523275152 0 0.022548419350987576 0.00060106789052217884 0 0.022099216302716183 0.0012395528687133965 0 0.02130982047714668 0.0010538459352503707 0 0.021560738550441803 0.00019792183523275152 0 0.020503482521589445 0.00095021272633649114 0 0.019882742935599235 0.0012758102545545819 0 0.020669971213586581 0.0014682221202467576 0 0.02130982047714668 0.0010538459352503707 0 0.020503482521589445 0.00095021272633649114 0 0.020833571376820764 0.00048594981524687023 0 0.02130982047714668 0.0010538459352503707 0 0.020503482521589445 0.00095021272633649114 0 0.020669971213586581 0.0014682221202467576 0 0.020503482521589445 0.00095021272633649114 0 0.019993524100529014 0.00089934930126681057 0 0.020231913334503446 0.00053379193034611085 0 0.020503482521589445 0.00095021272633649114 0 0.019993524100529014 0.00089934930126681057 0 0.019882742935599235 0.0012758102545545819 0 0.019993524100529014 0.00089934930126681057 0 0.019882742935599235 0.0012758102545545819 0 0.019376854566114533 0.000830833701832997 0 0.019882742935599235 0.0012758102545545819 0 0.019376854566114533 0.000830833701832997 0 0.019295848250814002 0.001181599674410339 0 0.026578718294038822 0.0013427640895308393 0 0.026343833800218899 0.0016019544045021664 0 0.026735871516938885 0.001589383466334072 0 0.022073150246379146 0.0027565013832075267 0 0.021185310095471303 0.0021505642931683856 0 0.021120560004670386 0.0026893805839590871 0 0.023510288896746924 0.0019809520951311992 0 0.019887594067972903 0.0015895202449732176 0 0.023510288896746924 0.0019809520951311992 0 0.024342575362621344 0.0021996539111503138 0 0.019882742935599235 0.0012758102545545819 0 0.020073159900405348 0.0019764535439516341 0 0.019295848250814002 0.001181599674410339 0 0.02331639001565658 0.0020457418645632671 0 0.023510288896746924 0.0019809520951311992 0 0.021607242953634413 0.0021055412817530907 0 0.020073159900405348 0.0019764535439516341 0 0.020669971213586581 0.0014682221202467576 0 0.019882742935599235 0.0012758102545545819 0 0.020073159900405348 0.0019764535439516341 0 0.020669971213586581 0.0014682221202467576 0 0.019131686516583937 0.0007256913138435695 0 0.019079822137116578 0.00074018015509310948 0 0.019161090667865484 0.0007160794787796044 0 0.019142002321723198 0.00069326208758718267 0 0.019131686516583937 0.0007256913138435695 0 0.019207176479209387 0.00075659681062964588 0 0.019182006773965199 0.00033783557145152974 0 0.019257039681059816 0.00065718866203723098 0 0.019182006773965199 0.00033783557145152974 0 0.014623018743508888 0.00017745741052118232 0 0.019142002321723198 0.00069326208758718267 0 0.019131686516583937 0.0007256913138435695 0 0.019069127728770462 0.00072390157497527149 0 0.019131686516583937 0.0007256913138435695 0 0.019207176479209387 0.00075659681062964588 0 0.019161090667865484 0.0007160794787796044 0 0.019201233052176907 0.00076797069945496561 0 0.019207176479209387 0.00075659681062964588 0 0.019161090667865484 0.0007160794787796044 0 0.019190963924519272 0.00075061774785389391 0 0.019259385679338457 0.00079436091958070101 0 0.019207176479209387 0.00075659681062964588 0 0.019201233052176907 0.00076797069945496561 0 0.019259385679338457 0.00079436091958070101 0 0.019207176479209387 0.00075659681062964588 0 0.020547469649147818 -0.00021095288753079428 0 0.019376854566114533 0.000830833701832997 0 0.020231913334503446 0.00053379193034611085 0 0.019182006773965199 0.00033783557145152974 0 0.019655081952522597 0.00072018727798116267 0 0.019190963924519272 0.00075061774785389391 0 0.019259385679338457 0.00079436091958070101 0 0.019376854566114533 0.000830833701832997 0 0.019993524100529014 0.00089934930126681057 0 0.019376854566114533 0.000830833701832997 0 0.020231913334503446 0.00053379193034611085 0 0.020547469649147818 -0.00021095288753079428 0 0.020231913334503446 0.00053379193034611085 0 0.020833571376820764 0.00048594981524687023 0 0.020503482521589445 0.00095021272633649114 0 0.020231913334503446 0.00053379193034611085 0 0.020833571376820764 0.00048594981524687023 0 0.020547469649147818 -0.00021095288753079428 0 0.020833571376820764 0.00048594981524687023 0 0.021560738550441803 0.00019792183523275152 0 0.02130982047714668 0.0010538459352503707 0 0.020833571376820764 0.00048594981524687023 0 0.021560738550441803 0.00019792183523275152 0 0.019182006773965199 0.00033783557145152974 0 0.018336560466759123 0.00011605109282427267 0 0.015173965733638288 0.00016454449892280734 0 0.014758065227394181 0.0003958783748894815 0 0.014304215747302215 -0.00028014188171649048 0 0.015240517575272351 6.8983105308013205e-05 0 0.015173965733638288 0.00016454449892280734 0 0.014304215747302215 -0.00028014188171649048 0 0.014408193866231765 0.00078802827456445599 0 0.014758065227394181 0.0003958783748894815 0 0.014304215747302215 -0.00028014188171649048 0 0.018336560466759123 0.00011605109282427267 0 0.018324101651917651 8.6649767916780935e-05 0 0.014408193866231765 0.00078802827456445599 0 0.015156743907963696 0.00060230535607770836 0 0.015357647128830013 0.00096467259603136345 0 0.01028889204212555 0.00035128970672122545 0 0.010956415120893286 0.00029881691766676217 0 0.014408193866231765 0.00078802827456445599 0 0.014758065227394181 0.0003958783748894815 0 0.015156743907963696 0.00060230535607770836 0 0.015173965733638288 0.00016454449892280734 0 0.014758065227394181 0.0003958783748894815 0 0.015156743907963696 0.00060230535607770836 0 0.015240517575272351 6.8983105308013205e-05 0 0.015173965733638288 0.00016454449892280734 0 0.015789378622034056 0.0013359385628037177 0 0.015173965733638288 0.00016454449892280734 0 0.015156743907963696 0.00060230535607770836 0 0.015481518411389374 0.00087421522925161782 0 0.01543206428378534 0.00064794513982454954 0 0.014623018743508888 0.00017745741052118232 0 0.016758517392114532 0.00064996477792670607 0 0.015240517575272351 6.8983105308013205e-05 0 0.015789378622034056 0.0013359385628037177 0 0.015156743907963696 0.00060230535607770836 0 0.015357647128830013 0.00096467259603136345 0 0.015481518411389374 0.00087421522925161782 0 0.010956415120893286 0.00029881691766676217 0 0.014623018743508888 0.00017745741052118232 0 0.010956415120893286 0.00029881691766676217 0 0.014627790203752752 1.4840449396670359e-05 0 0.019131686516583937 0.0007256913138435695 0 0.019079822137116578 0.00074018015509310948 0 0.019069127728770462 0.00072390157497527149 0 0.013981677998431512 -6.1860178236262413e-05 0 0.013764929091987449 -0.00011044994403285216 0 0.013841817985286348 4.2278322871305942e-05 0 0.014627790203752752 1.4840449396670359e-05 0 0.014623018743508888 0.00017745741052118232 0 0.0068628977232363117 -0.00093230295048394858 0 0.0068312097980253693 -0.00063227789444777029 0 0.0063670833359987869 -0.0005744952556876096 0 0.0069852647577674006 -0.00090418897990070463 0 0.0068312097980253693 -0.00063227789444777029 0 0.007201063060285685 -0.0004832616107128159 0 0.014627790203752752 1.4840449396670359e-05 0 0.012945820172784818 -3.5360071903482863e-05 0 0.0068628977232363117 -0.00093230295048394858 0 0.0069852647577674006 -0.00090418897990070463 0 0.0068312097980253693 -0.00063227789444777029 0 0.0061430882114114748 -0.00012040781288065594 0 0.0063716501865692249 -0.00010864618829744636 0 0.0061412904835903281 -2.3749228117313043e-05 0 0.0068312097980253693 -0.00063227789444777029 0 0.0063670833359987869 -0.0005744952556876096 0 0.0067422913835143133 -0.00029472015313002678 0 0.010956415120893286 0.00029881691766676217 0 0.0056021902086658432 -0.00011762097860874393 0 0.0063670833359987869 -0.0005744952556876096 0 0.0063739723301705683 -0.00021391749889462049 0 0.0067422913835143133 -0.00029472015313002678 0 0.0063739723301705683 -0.00021391749889462049 0 0.0067422913835143133 -0.00029472015313002678 0 0.0066167482847805173 -2.7049586028933251e-05 0 0.0068312097980253693 -0.00063227789444777029 0 0.0067422913835143133 -0.00029472015313002678 0 0.007201063060285685 -0.0004832616107128159 0 0.0067422913835143133 -0.00029472015313002678 0 0.007201063060285685 -0.0004832616107128159 0 0.0070315180776714236 -0.0001336147672373708 0 0.0067422913835143133 -0.00029472015313002678 0 0.0066167482847805173 -2.7049586028933251e-05 0 0.0070315180776714236 -0.0001336147672373708 0 0.019167035027658416 0.00062831529035422 0 0.019124267290362259 0.00064425689747552191 0 0.019094745451962738 0.00046420398423090153 0 0.007201063060285685 -0.0004832616107128159 0 0.0074657737168705796 -6.0169919490178576e-05 0 0.0070315180776714236 -0.0001336147672373708 0 0.012945820172784818 -3.5360071903482863e-05 0 0.015341340949064877 -0.00056320282453173093 0 0.014627790203752752 1.4840449396670359e-05 0 0.020639268979727177 0.0010297713963305607 0 0.019148228945115857 0.0006958092612260816 0 0.019167035027658416 0.00062831529035422 0 0.019161090667865484 0.0007160794787796044 0 0.019167035027658416 0.00062831529035422 0 0.019124267290362259 0.00064425689747552191 0 0.019161090667865484 0.0007160794787796044 0 0.019124267290362259 0.00064425689747552191 0 0.019161090667865484 0.0007160794787796044 0 0.019138486845948332 0.00070562101549941395 0 0.019201233052176907 0.00076797069945496561 0 0.019161090667865484 0.0007160794787796044 0 0.019138486845948332 0.00070562101549941395 0 0.019124267290362259 0.00064425689747552191 0 0.019138486845948332 0.00070562101549941395 0 0.019028228072755435 0.00057054668920109909 0 0.019028228072755435 0.00057054668920109909 0 0.018794499751827849 0.0003416673229666708 0 0.018947530877799601 0.0003497785868156137 0 0.019124267290362259 0.00064425689747552191 0 0.019028228072755435 0.00057054668920109909 0 0.019094745451962738 0.00046420398423090153 0 0.019028228072755435 0.00057054668920109909 0 0.018794499751827849 0.0003416673229666708 0 0.018893706051812002 0.00039140757768490406 0 0.019497835331376993 0.000258094241293784 0 0.015341340949064877 -0.00056320282453173093 0 0.015341340949064877 -0.00056320282453173093 0 0.017282474185364712 -0.0013175919255213487 0 0.018794499751827849 0.0003416673229666708 0 0.018947530877799601 0.0003497785868156137 0 0.018631713455535645 9.5034431687344886e-05 0 0.018794499751827849 0.0003416673229666708 0 0.018631713455535645 9.5034431687344886e-05 0 0.018580259813630543 0.00022401970440830794 0 0.015341340949064877 -0.00056320282453173093 0 0.0098356558270830396 -0.0010386728831632836 0 0.015017560790149612 -0.0046826646372558978 0 0.01610085442096313 -0.002650761029059443 0 0.01307292379712101 -0.0022643162627143699 0 0.0074657737168705796 -6.0169919490178576e-05 0 0.0070568946376015377 0.00041253457347358453 0 0.0070315180776714236 -0.0001336147672373708 0 0.01610085442096313 -0.002650761029059443 0 0.014993499855056418 -0.00069927363465159748 0 0.01307292379712101 -0.0022643162627143699 0 0.014993499855056418 -0.00069927363465159748 0 0.013452601446821446 -0.00041835445289742921 0 0.01307292379712101 -0.0022643162627143699 0 0.01610085442096313 -0.002650761029059443 0 0.017343557895861502 -0.00042932937231789591 0 0.014993499855056418 -0.00069927363465159748 0 0.018631713455535645 9.5034431687344886e-05 0 0.017343557895861502 -0.00042932937231789591 0 0.018580259813630543 0.00022401970440830794 0 0.017282474185364712 -0.0013175919255213487 0 0.017481761466606082 -0.00045860169198583744 0 0.017343557895861502 -0.00042932937231789591 0 0.016114561212255792 0.00049252274110205658 0 0.014993499855056418 -0.00069927363465159748 0 0.017343557895861502 -0.00042932937231789591 0 0.016114561212255792 0.00049252274110205658 0 0.017348264849472106 0.0016904155681706321 0 0.014993499855056418 -0.00069927363465159748 0 0.013452601446821446 -0.00041835445289742921 0 0.01455282866059694 0.0011017716626486615 0 0.016114561212255792 0.00049252274110205658 0 0.014993499855056418 -0.00069927363465159748 0 0.01455282866059694 0.0011017716626486615 0 0.0055505194924416919 -0.0004447935444572844 0 0.0047231398920623349 -0.00031805889861545453 0 0.0052139509296322863 2.7065155955606311e-05 0 0.0055505194924416919 -0.0004447935444572844 0 0.0057297145736775502 0.00016110391885560367 0 0.0052139509296322863 2.7065155955606311e-05 0 0.0055505194924416919 -0.0004447935444572844 0 0.0064403227337954125 -0.00012716782411004176 0 0.0057297145736775502 0.00016110391885560367 0 0.016114561212255792 0.00049252274110205658 0 0.01455282866059694 0.0011017716626486615 0 0.017348264849472106 0.0016904155681706321 0 0.0098117477254093307 0.00026662185562174423 0 0.013482431391404603 0.00028988203907946036 0 0.0044930234077795277 -0.00040848007255077411 0 0.0042697834145882232 -0.00040496049797648568 0 0.0044567735167354927 -0.00015283178173522235 0 0.0059833911618092615 0.00035110903520461668 0 0.0060258015439221728 0.0003412513792721658 0 0.0065682271739497663 0.00051536549592983414 0 0.006475721517671936 0.00048827732739636443 0 0.0064751056298180424 0.00037535645767791182 0 0.0065682271739497663 0.00051536549592983414 0 0.006475721517671936 0.00048827732739636443 0 0.0065341748163260469 0.00056216029748853459 0 0.006475721517671936 0.00048827732739636443 0 0.0063770522254917245 0.00059208502493505327 0 0.00637763581143943 0.00043620692448495562 0 0.006475721517671936 0.00048827732739636443 0 0.0063770522254917245 0.00059208502493505327 0 0.0065341748163260469 0.00056216029748853459 0 0.0059833911618092615 0.00035110903520461668 0 0.0047201407852895576 0.00024463910665169561 0 0.0063770522254917245 0.00059208502493505327 0 0.0065341748163260469 0.00056216029748853459 0 0.0065060861625482972 0.00089426311737446774 0 0.0063770522254917245 0.00059208502493505327 0 0.0062647727564210196 0.00071623519364343025 0 0.0065060861625482972 0.00089426311737446774 0 0.0065673213902372124 0.00051821481413192965 0 0.0065341748163260469 0.00056216029748853459 0 0.0065060861625482972 0.00089426311737446774 0 0.0042697834145882232 -0.00040496049797648568 0 0.0044567735167354927 -0.00015283178173522235 0 0.0042091481473930667 6.6650301964617218e-05 0 0.0044567735167354927 -0.00015283178173522235 0 0.0047231398920623349 -0.00031805889861545453 0 0.0046932932106808151 8.8280620113636115e-05 0 0.0047231398920623349 -0.00031805889861545453 0 0.0046932932106808151 8.8280620113636115e-05 0 0.0052139509296322863 2.7065155955606311e-05 0 0.0044930234077795277 -0.00040848007255077411 0 0.0047231398920623349 -0.00031805889861545453 0 0.0045283472056981766 -0.00078297640011416511 0 0.0044930234077795277 -0.00040848007255077411 0 0.0044567735167354927 -0.00015283178173522235 0 0.0047231398920623349 -0.00031805889861545453 0 0.013452601446821446 -0.00041835445289742921 0 0.01455282866059694 0.0011017716626486615 0 0.011171947042160952 0.00014658612838484923 0 0.0055505194924416919 -0.0004447935444572844 0 0.0047231398920623349 -0.00031805889861545453 0 0.0045283472056981766 -0.00078297640011416511 0 0.013452601446821446 -0.00041835445289742921 0 0.011171947042160952 0.00014658612838484923 0 0.01307292379712101 -0.0022643162627143699 0 0.0098117477254093307 0.00026662185562174423 0 0.0073135251000788336 0.00032939290954326185 0 0.0066619266746523022 0.00088968262466279874 0 0.0065085269002390957 0.00084082746163661342 0 0.0065735412663753164 0.00041382818029085737 0 0.0073135251000788336 0.00032939290954326185 0 0.0065320875489811589 0.00038485917763848144 0 0.0059833911618092615 0.00035110903520461668 0 0.0073135251000788336 0.00032939290954326185 0 0.0065682271739497663 0.00051536549592983414 0 0.0066035258303280562 0.00021231578133642848 0 0.0064751056298180424 0.00037535645767791182 0 0.0064596711210252074 0.0004913683257246255 0 0.0066035064768616729 0.00031381124212590889 0 0.0064997459636404421 0.00028142907593576563 0 0.0059833911618092615 0.00035110903520461668 0 0.0065320875489811589 0.00038485917763848144 0 0.0044930234077795277 -0.00040848007255077411 0 0.0042697834145882232 -0.00040496049797648568 0 0.0045283472056981766 -0.00078297640011416511 0 0.00637763581143943 0.00043620692448495562 0 0.0064751056298180424 0.00037535645767791182 0 0.0062560974498345719 0.00030375763876487605 0 0.0066035258303280562 0.00021231578133642848 0 0.0064751056298180424 0.00037535645767791182 0 0.0062560974498345719 0.00030375763876487605 0 0.006475721517671936 0.00048827732739636443 0 0.00637763581143943 0.00043620692448495562 0 0.0064751056298180424 0.00037535645767791182 0 0.0063976581742916823 0.00038617875346455002 0 0.0064619796612403078 0.00013642302961756921 0 0.0061590441635148187 8.1410986049634232e-05 0 0.0065320875489811589 0.00038485917763848144 0 0.0065203908189470465 0.00030400001354340611 0 0.0064619796612403078 0.00013642302961756921 0 0.0062129962415253199 -2.9865097913278654e-05 0 0.0061590441635148187 8.1410986049634232e-05 0 0.0073135251000788336 0.00032939290954326185 0 0.0098356558270830396 -0.0010386728831632836 0 0.0066619266746523022 0.00088968262466279874 0 0.0065735412663753164 0.00041382818029085737 0 0.0070568946376015377 0.00041253457347358453 0 0.0065735412663753164 0.00041382818029085737 0 0.0070568946376015377 0.00041253457347358453 0 0.0066167482847805173 -2.7049586028933251e-05 0 0.0070568946376015377 0.00041253457347358453 0 0.0066167482847805173 -2.7049586028933251e-05 0 0.0070315180776714236 -0.0001336147672373708 0 0.0064619796612403078 0.00013642302961756921 0 0.0066167482847805173 -2.7049586028933251e-05 0 0.0062129962415253199 -2.9865097913278654e-05 0 0.0065203908189470465 0.00030400001354340611 0 0.0065987033011645846 -1.6176470140805629e-05 0 0.0063739723301705683 -0.00021391749889462049 0 0.0066167482847805173 -2.7049586028933251e-05 0 0.0062129962415253199 -2.9865097913278654e-05 0 0.0062129962415253199 -2.9865097913278654e-05 0 0.0059233106563792931 -3.0032700651318075e-05 0 0.0061590441635148187 8.1410986049634232e-05 0 0.0062129962415253199 -2.9865097913278654e-05 0 0.0059233106563792931 -3.0032700651318075e-05 0 0.006018706462669686 -0.00012615348820080904 0 0.0059233106563792931 -3.0032700651318075e-05 0 0.0059021698208901151 6.1296458131359811e-05 0 0.0056905753692248961 -5.3022229371979096e-06 0 0.0059021698208901151 6.1296458131359811e-05 0 0.0054875064807905737 -5.4022116222188949e-05 0 0.0056905753692248961 -5.3022229371979096e-06 0 0.0059233106563792931 -3.0032700651318075e-05 0 0.0059021698208901151 6.1296458131359811e-05 0 0.0061590441635148187 8.1410986049634232e-05 0 0.0063976581742916823 0.00038617875346455002 0 0.0059021698208901151 6.1296458131359811e-05 0 0.0061590441635148187 8.1410986049634232e-05 0 0.0066035258303280562 0.00021231578133642848 0 0.0059021698208901151 6.1296458131359811e-05 0 0.0062560974498345719 0.00030375763876487605 0 0.0062560974498345719 0.00030375763876487605 0 0.0058516543867161994 0.00025419761872954438 0 0.0060375498376062185 0.00052547757245586493 0 0.0059021698208901151 6.1296458131359811e-05 0 0.0062560974498345719 0.00030375763876487605 0 0.0058516543867161994 0.00025419761872954438 0 0.0065320875489811589 0.00038485917763848144 0 0.0059200476182811731 5.2020001092741403e-05 0 0.00637763581143943 0.00043620692448495562 0 0.0062560974498345719 0.00030375763876487605 0 0.0062642354197035947 0.00052221052862117109 0 0.0059021698208901151 6.1296458131359811e-05 0 0.0058516543867161994 0.00025419761872954438 0 0.0054875064807905737 -5.4022116222188949e-05 0 0.0058516543867161994 0.00025419761872954438 0 0.0056079220877302107 0.00051711738935786788 0 0.0054875064807905737 -5.4022116222188949e-05 0 0.0056079220877302107 0.00051711738935786788 0 0.0051522214586106141 0.0010686724107305801 0 0.0059975279368428289 0.00093626504580814345 0 0.0058516543867161994 0.00025419761872954438 0 0.0056079220877302107 0.00051711738935786788 0 0.0060375498376062185 0.00052547757245586493 0 0.0056079220877302107 0.00051711738935786788 0 0.0060375498376062185 0.00052547757245586493 0 0.0059975279368428289 0.00093626504580814345 0 0.0062647727564210196 0.00071623519364343025 0 0.0059975279368428289 0.00093626504580814345 0 0.0065060861625482972 0.00089426311737446774 0 0.0062647727564210196 0.00071623519364343025 0 0.0060375498376062185 0.00052547757245586493 0 0.0059975279368428289 0.00093626504580814345 0 0.0062560974498345719 0.00030375763876487605 0 0.0062642354197035947 0.00052221052862117109 0 0.0060375498376062185 0.00052547757245586493 0 0.0062647727564210196 0.00071623519364343025 0 0.0062642354197035947 0.00052221052862117109 0 0.0060375498376062185 0.00052547757245586493 0 0.0063770522254917245 0.00059208502493505327 0 0.0062647727564210196 0.00071623519364343025 0 0.0062642354197035947 0.00052221052862117109 0 0.0063770522254917245 0.00059208502493505327 0 0.00637763581143943 0.00043620692448495562 0 0.0062642354197035947 0.00052221052862117109 0 0.0037307580505485816 0.00085851729441986473 0 0.0042762708289459583 0.00087841617371764056 0 0.0037061118978960741 0.00028587032199259353 0 0.0036493568872724997 0.0008433191466057766 0 0.0046201649173316728 0.00039229087897084224 0 0.0056079220877302107 0.00051711738935786788 0 0.0046201649173316728 0.00039229087897084224 0 0.0051522214586106141 0.0010686724107305801 0 0.0036493568872724997 0.0008433191466057766 0 0.0046201649173316728 0.00039229087897084224 0 0.0051522214586106141 0.0010686724107305801 0 0.0046201649173316728 0.00039229087897084224 0 0.0054875064807905737 -5.4022116222188949e-05 0 0.0042026848970682755 -0.00034037345134019237 0 0.0054019666211209023 -9.9978026450683343e-05 0 0.0050570895562419031 -0.00017902043085398192 0 0.0054875064807905737 -5.4022116222188949e-05 0 0.0057864743032119137 -8.397202081392868e-05 0 0.0056905753692248961 -5.3022229371979096e-06 0 0.0056079220877302107 0.00051711738935786788 0 0.0046201649173316728 0.00039229087897084224 0 0.0054875064807905737 -5.4022116222188949e-05 0 0.0050570895562419031 -0.00017902043085398192 0 0.004325846086427265 -0.00044488015044693381 0 0.0037061118978960741 0.00028587032199259353 0 0.0042026848970682755 -0.00034037345134019237 0 0.0033064693193404246 -0.00032126924159365871 0 0.0037061118978960741 0.00028587032199259353 0 0.0046201649173316728 0.00039229087897084224 0 0.0042026848970682755 -0.00034037345134019237 0 0.005812512605179971 -1.4151201896893014e-05 0 0.0058701187582087481 -4.6507272380632117e-06 0 0.0058610092050357223 -7.5479306771546574e-05 0 0.0057864743032119137 -8.397202081392868e-05 0 0.005812512605179971 -1.4151201896893014e-05 0 0.0058610092050357223 -7.5479306771546574e-05 0 0.0057864743032119137 -8.397202081392868e-05 0 0.005812512605179971 -1.4151201896893014e-05 0 0.0056905753692248961 -5.3022229371979096e-06 0 0.0059233106563792931 -3.0032700651318075e-05 0 0.0056905753692248961 -5.3022229371979096e-06 0 0.0058208286672563883 -1.083884220911072e-05 0 0.005812512605179971 -1.4151201896893014e-05 0 0.0056905753692248961 -5.3022229371979096e-06 0 0.0058208286672563883 -1.083884220911072e-05 0 0.005812512605179971 -1.4151201896893014e-05 0 0.0058208286672563883 -1.083884220911072e-05 0 0.005893579266758044 -2.9374814470012735e-06 0 0.0058208286672563883 -1.083884220911072e-05 0 0.005893579266758044 -2.9374814470012735e-06 0 0.0059157389549173399 -3.3348124703520107e-05 0 0.0059233106563792931 -3.0032700651318075e-05 0 0.0058208286672563883 -1.083884220911072e-05 0 0.0059157389549173399 -3.3348124703520107e-05 0 0.005893579266758044 -2.9374814470012735e-06 0 0.0059911183436764338 3.3926990110058333e-05 0 0.0058701187582087481 -4.6507272380632117e-06 0 0.005812512605179971 -1.4151201896893014e-05 0 0.005893579266758044 -2.9374814470012735e-06 0 0.0058701187582087481 -4.6507272380632117e-06 0 0.0059911183436764338 3.3926990110058333e-05 0 0.0059864318097757607 4.0749496631595331e-05 0 0.0059157389549173399 -3.3348124703520107e-05 0 0.005893579266758044 -2.9374814470012735e-06 0 0.0059911183436764338 3.3926990110058333e-05 0 0.0059157389549173399 -3.3348124703520107e-05 0 0.005950539027729281 3.2075706203989283e-05 0 0.0061178188782692999 2.3653641878244142e-05 0 0.0059864318097757607 4.0749496631595331e-05 0 0.0060434056714348408 0.00013587244231789522 0 0.0060130539876784954 2.0747520167333092e-05 0 0.0060359506522570288 9.3420664140293552e-05 0 0.0059864318097757607 4.0749496631595331e-05 0 0.0060434056714348408 0.00013587244231789522 0 0.0059911183436764338 3.3926990110058333e-05 0 0.0060359506522570288 9.3420664140293552e-05 0 0.0060786136573297324 9.0940756488692076e-05 0 0.0059911183436764338 3.3926990110058333e-05 0 0.0060359506522570288 9.3420664140293552e-05 0 0.0059864318097757607 4.0749496631595331e-05 0 0.0060359506522570288 9.3420664140293552e-05 0 0.0060434056714348408 0.00013587244231789522 0 0.0060957791582831218 0.0001617509466538553 0 0.0060434056714348408 0.00013587244231789522 0 0.0060934200722644813 0.00020164066546294343 0 0.0060957791582831218 0.0001617509466538553 0 0.0059864318097757607 4.0749496631595331e-05 0 0.0059157389549173399 -3.3348124703520107e-05 0 0.006002071737493452 -2.7281468316656869e-05 0 0.0059864318097757607 4.0749496631595331e-05 0 0.006002071737493452 -2.7281468316656869e-05 0 0.0060130539876784954 2.0747520167333092e-05 0 0.0059233106563792931 -3.0032700651318075e-05 0 0.0059157389549173399 -3.3348124703520107e-05 0 0.006018706462669686 -0.00012615348820080904 0 0.0059157389549173399 -3.3348124703520107e-05 0 0.006018706462669686 -0.00012615348820080904 0 0.006002071737493452 -2.7281468316656869e-05 0 0.0063739723301705683 -0.00021391749889462049 0 0.0062129962415253199 -2.9865097913278654e-05 0 0.006018706462669686 -0.00012615348820080904 0 0.0063670833359987869 -0.0005744952556876096 0 0.0063739723301705683 -0.00021391749889462049 0 0.006018706462669686 -0.00012615348820080904 0 0.0056021902086658432 -0.00011762097860874393 0 0.0062776640909639764 -0.00027137632568563415 0 0.0061430882114114748 -0.00012040781288065594 0 0.0061412904835903281 -2.3749228117313043e-05 0 0.0060574256468098149 -5.5117791799601899e-05 0 0.0061412904835903281 -2.3749228117313043e-05 0 0.006018706462669686 -0.00012615348820080904 0 0.0060574256468098149 -5.5117791799601899e-05 0 0.006018706462669686 -0.00012615348820080904 0 0.0060574256468098149 -5.5117791799601899e-05 0 0.006002071737493452 -2.7281468316656869e-05 0 0.0060574256468098149 -5.5117791799601899e-05 0 0.006002071737493452 -2.7281468316656869e-05 0 0.0060545829358065011 -5.1584412273343671e-05 0 0.006002071737493452 -2.7281468316656869e-05 0 0.0060545829358065011 -5.1584412273343671e-05 0 0.0060130539876784954 2.0747520167333092e-05 0 0.0061430882114114748 -0.00012040781288065594 0 0.0060574256468098149 -5.5117791799601899e-05 0 0.0060545829358065011 -5.1584412273343671e-05 0 0.01028889204212555 0.00035128970672122545 0 0.0096236599880797254 0.00022732535839073905 0 0.014408193866231765 0.00078802827456445599 0 0.013420161352155451 0.00059485058465289908 0 0.014304215747302215 -0.00028014188171649048 0 0.013391933025029536 -0.00065800036884175375 0 0.013420161352155451 0.00059485058465289908 0 0.014304215747302215 -0.00028014188171649048 0 0.013391933025029536 -0.00065800036884175375 0 0.013420161352155451 0.00059485058465289908 0 0.012410779539562069 0.00039375013315107052 0 0.016710527141335051 0.00029120184581897231 0 0.014808519425691825 0.0010598193621876981 0 0.014898839555031016 0.0023742848126721075 0 0.018890883758227763 0.00080624416601816668 0 0.0097830698040145807 0.0005589331321413138 0 0.0097830698040145807 0.0005589331321413138 0 0.0096229404500949994 0.0013115292545903402 0 0.013623474767975189 0.00043226160282453408 0 0.014808519425691825 0.0010598193621876981 0 0.012921203398953389 0.0019755410259752033 0 0.014808519425691825 0.0010598193621876981 0 0.014898839555031016 0.0023742848126721075 0 0.012921203398953389 0.0019755410259752033 0 0.014662032336797649 0.0002362842635553722 0 0.0096229404500949994 0.0013115292545903402 0 0.0060434056714348408 0.00013587244231789522 0 0.0060788532532291724 0.00024029479385794474 0 0.0060468666849449555 0.00027613149068855071 0 0.0060788532532291724 0.00024029479385794474 0 0.0060468666849449555 0.00027613149068855071 0 0.0061297439770196136 0.0002854440035041748 0 0.0050500148396303551 0.00040758112887636115 0 0.0097830698040145807 0.0005589331321413138 0 0.0061030550566165062 0.00023473637736724716 0 0.0060788532532291724 0.00024029479385794474 0 0.0061297439770196136 0.0002854440035041748 0 0.0061030550566165062 0.00023473637736724716 0 0.0060788532532291724 0.00024029479385794474 0 0.0060934200722644813 0.00020164066546294343 0 0.0060434056714348408 0.00013587244231789522 0 0.0060788532532291724 0.00024029479385794474 0 0.0060934200722644813 0.00020164066546294343 0 0.0060434056714348408 0.00013587244231789522 0 0.0060290742901841811 2.3190873101066485e-06 0 0.0060130539876784954 2.0747520167333092e-05 0 0.0096236599880797254 0.00022732535839073905 0 0.0097830698040145807 0.0005589331321413138 0 0.0060545829358065011 -5.1584412273343671e-05 0 0.0060290742901841811 2.3190873101066485e-06 0 0.0060130539876784954 2.0747520167333092e-05 0 0.0062937635696786887 0.00029669138552730276 0 0.006382032559371466 0.00038809623377676389 0 0.0063505770668075921 0.00027630892302480075 0 0.0062934857738432349 0.00036726809976508565 0 0.0062937635696786887 0.00029669138552730276 0 0.006382032559371466 0.00038809623377676389 0 0.0062934857738432349 0.00036726809976508565 0 0.0062937635696786887 0.00029669138552730276 0 0.0061895383018104651 0.0002436594445041712 0 0.0061895383018104651 0.0002436594445041712 0 0.0060934200722644813 0.00020164066546294343 0 0.0061399161640619442 0.00035675958167324094 0 0.0062692407955745643 1.7566411694775843e-06 0 0.0075400136606668354 0.00063933457490772708 0 0.0061030550566165062 0.00023473637736724716 0 0.0060934200722644813 0.00020164066546294343 0 0.0061360755824136654 0.00026163034240010106 0 0.0061895383018104651 0.0002436594445041712 0 0.0061949503892106796 0.00037555402955458193 0 0.0062396231221758525 0.00038062172748615442 0 0.0061030550566165062 0.00023473637736724716 0 0.0061360755824136654 0.00026163034240010106 0 0.0061297439770196136 0.0002854440035041748 0 0.0063206100110028253 0.00040325940390788256 0 0.0075400136606668354 0.00063933457490772708 0 0.0062934857738432349 0.00036726809976508565 0 0.0061895383018104651 0.0002436594445041712 0 0.0062396231221758525 0.00038062172748615442 0 0.011197086507204603 0.00012229052721305939 0 0.012376315036163679 -2.2863582540507837e-05 0 0.011783092045937013 0.0012849996815994592 0 0.0062934857738432349 0.00036726809976508565 0 0.0062396231221758525 0.00038062172748615442 0 0.0062849440757750692 0.00041932185867158019 0 0.0062396231221758525 0.00038062172748615442 0 0.0062849440757750692 0.00041932185867158019 0 0.0062435449195873977 0.00042259216518755814 0 0.0083201173528841838 0.00084831563683563326 0 0.0084656788055887892 0.0013876883171151288 0 0.0081190545615025585 0.0013145895198215232 0 0.0075400136606668354 0.00063933457490772708 0 0.0096229404500949994 0.0013115292545903402 0 0.0062396231221758525 0.00038062172748615442 0 0.0062435449195873977 0.00042259216518755814 0 0.0062255622937814389 0.00041983615051064234 0 0.0075400136606668354 0.00063933457490772708 0 0.0084456694145240759 0.00099932142701243546 0 0.0061949503892106796 0.00037555402955458193 0 0.0062396231221758525 0.00038062172748615442 0 0.0062255622937814389 0.00041983615051064234 0 0.0081393141319006171 0.00093068128747088991 0 0.0084456694145240759 0.00099932142701243546 0 0.0084456694145240759 0.00099932142701243546 0 0.0096229404500949994 0.0013115292545903402 0 0.012182425440169245 0.00036134950570756199 0 0.0084456694145240759 0.00099932142701243546 0 0.011197086507204603 0.00012229052721305939 0 0.011479145552363037 0.0012206643556974283 0 0.011783092045937013 0.0012849996815994592 0 0.0062913448466260496 0.00049924655379146999 0 0.0062435449195873977 0.00042259216518755814 0 0.006233696580761147 0.00042078768402868758 0 0.0062913448466260496 0.00049924655379146999 0 0.0062849440757750692 0.00041932185867158019 0 0.0062435449195873977 0.00042259216518755814 0 0.0062913448466260496 0.00049924655379146999 0 0.0062849440757750692 0.00041932185867158019 0 0.0063283279372557929 0.00044008804313128808 0 0.0063984441989536614 0.00047416260558265637 0 0.0063283279372557929 0.00044008804313128808 0 0.006382032559371466 0.00038809623377676389 0 0.0063984441989536614 0.00047416260558265637 0 0.0062913448466260496 0.00049924655379146999 0 0.0063283279372557929 0.00044008804313128808 0 0.0062934857738432349 0.00036726809976508565 0 0.0063283279372557929 0.00044008804313128808 0 0.006382032559371466 0.00038809623377676389 0 0.0062934857738432349 0.00036726809976508565 0 0.0062849440757750692 0.00041932185867158019 0 0.0063283279372557929 0.00044008804313128808 0 0.010008305733501262 0.00062848077000887638 0 0.010174372175801282 0.00064107788477128238 0 0.0064909307209506774 0.00045031646484428565 0 0.0064517184975079597 0.00037323781504884092 0 0.006382032559371466 0.00038809623377676389 0 0.0063984441989536614 0.00047416260558265637 0 0.0064909307209506774 0.00045031646484428565 0 0.006382032559371466 0.00038809623377676389 0 0.010174372175801282 0.00064107788477128238 0 0.010040594616586823 0.00063083314119258044 0 0.0064909307209506774 0.00045031646484428565 0 0.0064517184975079597 0.00037323781504884092 0 0.0064892028818982388 0.00042324576455804528 0 0.0064517184975079597 0.00037323781504884092 0 0.0064661014776380551 0.00036699023088039763 0 0.0064892028818982388 0.00042324576455804528 0 0.0064517184975079597 0.00037323781504884092 0 0.006382032559371466 0.00038809623377676389 0 0.0063505770668075921 0.00027630892302480075 0 0.0063505770668075921 0.00027630892302480075 0 0.0064481934745879172 0.0002776340186314387 0 0.0063605347927633282 0.00016384154253015353 0 0.0064517184975079597 0.00037323781504884092 0 0.0063505770668075921 0.00027630892302480075 0 0.0064481934745879172 0.0002776340186314387 0 0.0064517184975079597 0.00037323781504884092 0 0.0064661014776380551 0.00036699023088039763 0 0.0064481934745879172 0.0002776340186314387 0 0.0064661014776380551 0.00036699023088039763 0 0.0064481934745879172 0.0002776340186314387 0 0.0064425003765991784 0.00032940682094307065 0 0.0064481934745879172 0.0002776340186314387 0 0.0064335262444063296 0.0003125330428577379 0 0.0064425003765991784 0.00032940682094307065 0 0.0063605347927633282 0.00016384154253015353 0 0.0063252439530777074 6.7889115958859973e-05 0 0.0064125888236246705 -1.1609608155510413e-05 0 0.0066681378862529115 0.0004113094779115904 0 0.0053769193921773886 -6.4646632773567245e-05 0 0.0064481934745879172 0.0002776340186314387 0 0.0063605347927633282 0.00016384154253015353 0 0.0064125888236246705 -1.1609608155510413e-05 0 0.0063605347927633282 0.00016384154253015353 0 0.0063252439530777074 6.7889115958859973e-05 0 0.0062655800355822669 6.2858014272560618e-05 0 0.0061798606650847162 5.9985019391131071e-05 0 0.0060661885275485432 -1.3042647682322821e-05 0 0.0062782059116387864 -1.8950403723050209e-05 0 0.0062655800355822669 6.2858014272560618e-05 0 0.0061798606650847162 5.9985019391131071e-05 0 0.0062782059116387864 -1.8950403723050209e-05 0 0.0062655800355822669 6.2858014272560618e-05 0 0.0061798606650847162 5.9985019391131071e-05 0 0.0062308389501027558 0.00010818826740444615 0 0.0062655800355822669 6.2858014272560618e-05 0 0.0062308389501027558 0.00010818826740444615 0 0.0062859519029865403 0.0001741855231951442 0 0.0062308389501027558 0.00010818826740444615 0 0.0062859519029865403 0.0001741855231951442 0 0.0061703399231340722 0.00012497377623315134 0 0.0061798606650847162 5.9985019391131071e-05 0 0.0062308389501027558 0.00010818826740444615 0 0.0061703399231340722 0.00012497377623315134 0 0.0063605347927633282 0.00016384154253015353 0 0.0062655800355822669 6.2858014272560618e-05 0 0.0062859519029865403 0.0001741855231951442 0 0.0063505770668075921 0.00027630892302480075 0 0.0063605347927633282 0.00016384154253015353 0 0.0062859519029865403 0.0001741855231951442 0 0.0063505770668075921 0.00027630892302480075 0 0.0062859519029865403 0.0001741855231951442 0 0.006237980566571104 0.00021003738562707107 0 0.0062859519029865403 0.0001741855231951442 0 0.006237980566571104 0.00021003738562707107 0 0.0061703399231340722 0.00012497377623315134 0 0.0062937635696786887 0.00029669138552730276 0 0.0061895383018104651 0.0002436594445041712 0 0.006237980566571104 0.00021003738562707107 0 0.0062937635696786887 0.00029669138552730276 0 0.0063505770668075921 0.00027630892302480075 0 0.006237980566571104 0.00021003738562707107 0 0.0060359506522570288 9.3420664140293552e-05 0 0.0060957791582831218 0.0001617509466538553 0 0.0061258792369863002 0.00014860210639524186 0 0.0061895383018104651 0.0002436594445041712 0 0.0060934200722644813 0.00020164066546294343 0 0.0060957791582831218 0.0001617509466538553 0 0.0061895383018104651 0.0002436594445041712 0 0.0060957791582831218 0.0001617509466538553 0 0.0061258792369863002 0.00014860210639524186 0 0.0061895383018104651 0.0002436594445041712 0 0.006237980566571104 0.00021003738562707107 0 0.0061258792369863002 0.00014860210639524186 0 0.006237980566571104 0.00021003738562707107 0 0.0061703399231340722 0.00012497377623315134 0 0.0061258792369863002 0.00014860210639524186 0 0.0061703399231340722 0.00012497377623315134 0 0.0060786136573297324 9.0940756488692076e-05 0 0.0061258792369863002 0.00014860210639524186 0 0.0060359506522570288 9.3420664140293552e-05 0 0.0060786136573297324 9.0940756488692076e-05 0 0.0061258792369863002 0.00014860210639524186 0 0.0061703399231340722 0.00012497377623315134 0 0.0060786136573297324 9.0940756488692076e-05 0 0.0060964497414843768 5.9618534815931319e-05 0 0.0059911183436764338 3.3926990110058333e-05 0 0.0060786136573297324 9.0940756488692076e-05 0 0.0060964497414843768 5.9618534815931319e-05 0 0.0061798606650847162 5.9985019391131071e-05 0 0.0061703399231340722 0.00012497377623315134 0 0.0060964497414843768 5.9618534815931319e-05 0 0.0061798606650847162 5.9985019391131071e-05 0 0.0060964497414843768 5.9618534815931319e-05 0 0.0060661885275485432 -1.3042647682322821e-05 0 0.0059911183436764338 3.3926990110058333e-05 0 0.0060964497414843768 5.9618534815931319e-05 0 0.0060661885275485432 -1.3042647682322821e-05 0 0.0060661885275485432 -1.3042647682322821e-05 0 0.0060406117439920099 -2.6419407570512688e-05 0 0.0060098131023447543 -4.1423269945797018e-05 0 0.0059911183436764338 3.3926990110058333e-05 0 0.0060661885275485432 -1.3042647682322821e-05 0 0.0060515223377511362 -3.631213553416023e-05 0 0.0060661885275485432 -1.3042647682322821e-05 0 0.0060406117439920099 -2.6419407570512688e-05 0 0.0060515223377511362 -3.631213553416023e-05 0 0.0060406117439920099 -2.6419407570512688e-05 0 0.0060515223377511362 -3.631213553416023e-05 0 0.0060200176675690859 -1.5462112009953391e-05 0 0.0061445446475292429 -1.6987458424660386e-05 0 0.0059164968357635168 -0.00010980907778390195 0 0.0063252439530777074 6.7889115958859973e-05 0 0.0062655800355822669 6.2858014272560618e-05 0 0.0062656225891101125 2.3353690270485063e-05 0 0.0060539576656657686 -2.1325640394801159e-06 0 0.0059164968357635168 -0.00010980907778390195 0 0.0060406117439920099 -2.6419407570512688e-05 0 0.0060098131023447543 -4.1423269945797018e-05 0 0.0060200176675690859 -1.5462112009953391e-05 0 0.0060200176675690859 -1.5462112009953391e-05 0 0.0060251005888223765 1.0366710776434707e-05 0 0.0059777216404740367 6.8622212271413124e-06 0 0.004881243545313922 -0.00019551039571606214 0 0.0049214535312669836 -0.00052851367061005272 0 0.0049756824057306977 -0.00052424316372624814 0 0.0059164968357635168 -0.00010980907778390195 0 0.004168741547607155 -0.00045619548818575322 0 0.0060098131023447543 -4.1423269945797018e-05 0 0.0060200176675690859 -1.5462112009953391e-05 0 0.0059777216404740367 6.8622212271413124e-06 0 0.0060515223377511362 -3.631213553416023e-05 0 0.0060200176675690859 -1.5462112009953391e-05 0 0.0060251005888223765 1.0366710776434707e-05 0 0.0061178188782692999 2.3653641878244142e-05 0 0.004325846086427265 -0.00044488015044693381 0 0.0022869796105883101 -0.0010976945339558628 0 0.0022510230920815824 -0.00108185268729993 0 0.0022480310172821715 -0.0010567151594755022 0 0.004325846086427265 -0.00044488015044693381 0 0.0024965359304961769 -0.00021746856812180864 0 0.004325846086427265 -0.00044488015044693381 0 0.004168741547607155 -0.00045619548818575322 0 0.0022869796105883101 -0.0010976945339558628 0 0.0022409425546701151 -0.0011012754175256029 0 0.0022510230920815824 -0.00108185268729993 0 0.004168741547607155 -0.00045619548818575322 0 0.0028689425313911548 -0.0012399171202120058 0 0.0022409425546701151 -0.0011012754175256029 0 0.0022510230920815824 -0.00108185268729993 0 0.002230286020900767 -0.0010868063677114356 0 0.0028689425313911548 -0.0012399171202120058 0 0.0020289466861335504 -0.0010488962824202067 0 0.0021403580090555755 -0.0012627037452671987 0 0.002089968690191429 -0.0010341763053081752 0 0.0021886342613168241 -0.001033120927216075 0 0.0022510230920815824 -0.00108185268729993 0 0.002230286020900767 -0.0010868063677114356 0 0.0021886342613168241 -0.001033120927216075 0 0.0022510230920815824 -0.00108185268729993 0 0.0022480310172821715 -0.0010567151594755022 0 0.0021886342613168241 -0.001033120927216075 0 0.0037061118978960741 0.00028587032199259353 0 0.0036493568872724997 0.0008433191466057766 0 0.0031485900455593442 0.00069037114875892473 0 0.0037061118978960741 0.00028587032199259353 0 0.0033064693193404246 -0.00032126924159365871 0 0.0031485900455593442 0.00069037114875892473 0 0.0041047524878615183 -0.0020656771953119412 0 0.0047910237985541344 -0.0017737064362372287 0 0.0047107479933504934 -0.0024197425396123321 0 0.0041047524878615183 -0.0020656771953119412 0 0.0047107479933504934 -0.0024197425396123321 0 0.00411828443551148 -0.0026876225875727459 0 0.0041047524878615183 -0.0020656771953119412 0 0.0033512345768863944 -0.0016800863602384783 0 0.0034991619344463838 -0.0027565324945618102 0 0.0028689425313911548 -0.0012399171202120058 0 0.0034498589270568758 -0.0021900594366852798 0 0.0041047524878615183 -0.0020656771953119412 0 0.0038609745376712093 -0.001546777373290785 0 0.0033512345768863944 -0.0016800863602384783 0 0.0028689425313911548 -0.0012399171202120058 0 0.0038171353639518315 -0.00079605996137234187 0 0.0034457563444770345 -0.00061435564030770618 0 0.0035272671417390781 -0.0011371255866312298 0 0.0036916932220342744 -0.00059441571721212155 0 0.0038609745376712093 -0.001546777373290785 0 0.0033512345768863944 -0.0016800863602384783 0 0.0034709180605331361 -0.0012250475780532495 0 0.004168741547607155 -0.00045619548818575322 0 0.0038171353639518315 -0.00079605996137234187 0 0.0038609745376712093 -0.001546777373290785 0 0.0034709180605331361 -0.0012250475780532495 0 0.0041587152633400246 -0.0011560010456751904 0 0.0038171353639518315 -0.00079605996137234187 0 0.0039521247923130255 -0.0011276130922352494 0 0.0041047524878615183 -0.0020656771953119412 0 0.0043635008160844563 -0.0015098586568081491 0 0.0047910237985541344 -0.0017737064362372287 0 0.003944553133971929 -0.0014629716988721769 0 0.0043309457291409734 -0.0010401059463733082 0 0.0038609745376712093 -0.001546777373290785 0 0.0044348354842754919 -0.00091716373775319526 0 0.0041587152633400246 -0.0011560010456751904 0 0.0038609745376712093 -0.001546777373290785 0 0.0043635008160844563 -0.0015098586568081491 0 0.0043553320955036249 -0.0010200718643785984 0 0.0041047524878615183 -0.0020656771953119412 0 0.0038609745376712093 -0.001546777373290785 0 0.0043635008160844563 -0.0015098586568081491 0 0.0043635008160844563 -0.0015098586568081491 0 0.0047248275379650961 -0.001203521785955126 0 0.0047910237985541344 -0.0017737064362372287 0 0.0043635008160844563 -0.0015098586568081491 0 0.0043553320955036249 -0.0010200718643785984 0 0.0047248275379650961 -0.001203521785955126 0 0.0044348354842754919 -0.00091716373775319526 0 0.0038350377661425183 -5.3071536169603657e-05 0 0.0049851355765377411 -0.00029155641441105061 0 0.0043553320955036249 -0.0010200718643785984 0 0.004867399904749113 -0.0004759177052778374 0 0.0047248275379650961 -0.001203521785955126 0 0.0044348354842754919 -0.00091716373775319526 0 0.0041587152633400246 -0.0011560010456751904 0 0.0038350377661425183 -5.3071536169603657e-05 0 0.0043309457291409734 -0.0010401059463733082 0 0.0054577152926396444 -0.00025223343803614813 0 0.0038171353639518315 -0.00079605996137234187 0 0.0053769193921773886 -6.4646632773567245e-05 0 0.0034822928920862405 -0.0012074035257751414 0 0.0041587152633400246 -0.0011560010456751904 0 0.0038350377661425183 -5.3071536169603657e-05 0 0.004881243545313922 -0.00019551039571606214 0 0.0049756824057306977 -0.00052424316372624814 0 0.0050712933998450695 -0.00023617355920742383 0 0.0063252439530777074 6.7889115958859973e-05 0 0.0062656225891101125 2.3353690270485063e-05 0 0.0064125888236246705 -1.1609608155510413e-05 0 0.0059164968357635168 -0.00010980907778390195 0 0.0053769193921773886 -6.4646632773567245e-05 0 0.0064335262444063296 0.0003125330428577379 0 0.0064398252216724379 0.00030716920104203245 0 0.0064425003765991784 0.00032940682094307065 0 0.0053769193921773886 -6.4646632773567245e-05 0 0.0054577152926396444 -0.00025223343803614813 0 0.0064398252216724379 0.00030716920104203245 0 0.0064742247864566583 0.00036626048913824811 0 0.0064425003765991784 0.00032940682094307065 0 0.0054577152926396444 -0.00025223343803614813 0 0.0056011891577419613 -0.00072388176747723823 0 0.0054577152926396444 -0.00025223343803614813 0 0.0061856217892499862 0.00017339418215577909 0 0.0057864107809047823 -0.00073605473979650496 0 0.006289578968706102 -0.00039862974075462627 0 0.0057580060050721627 -0.00011276038758333244 0 0.0052821044172175107 -0.00061721807516146765 0 0.0057864107809047823 -0.00073605473979650496 0 0.0057580060050721627 -0.00011276038758333244 0 0.0057864107809047823 -0.00073605473979650496 0 0.0058862273294699478 -0.0012711767772650769 0 0.006289578968706102 -0.00039862974075462627 0 0.0057864107809047823 -0.00073605473979650496 0 0.005248606203584567 -0.0012149273325186586 0 0.0058862273294699478 -0.0012711767772650769 0 0.004867399904749113 -0.0004759177052778374 0 0.005248606203584567 -0.0012149273325186586 0 0.0047248275379650961 -0.001203521785955126 0 0.004867399904749113 -0.0004759177052778374 0 0.0057864107809047823 -0.00073605473979650496 0 0.005248606203584567 -0.0012149273325186586 0 0.005248606203584567 -0.0012149273325186586 0 0.0047248275379650961 -0.001203521785955126 0 0.0047910237985541344 -0.0017737064362372287 0 0.005248606203584567 -0.0012149273325186586 0 0.0047910237985541344 -0.0017737064362372287 0 0.0052839944027967267 -0.0017527633666851845 0 0.006589769055330659 0.00064654000522238386 0 0.0067752238819025808 0.001673359632960851 0 0.0060798977885002841 0.0010889599089261663 0 0.0070365826543834237 -0.00038431261673376463 0 0.00043765856003285294 0.00066859092555000572 0 0.005248606203584567 -0.0012149273325186586 0 0.0052839944027967267 -0.0017527633666851845 0 0.0058862273294699478 -0.0012711767772650769 0 0.0052839944027967267 -0.0017527633666851845 0 0.0058862273294699478 -0.0012711767772650769 0 0.0054313616218117028 -0.0023831395762763333 0 0.00043765856003285294 0.00066859092555000572 0 0.0025169758258292859 0.0010585885045624119 0 0.0047910237985541344 -0.0017737064362372287 0 0.0047107479933504934 -0.0024197425396123321 0 0.0050630311143543974 -0.0021180182559043617 0 0.0054313616218117028 -0.0023831395762763333 0 0.0047107479933504934 -0.0024197425396123321 0 0.0050630311143543974 -0.0021180182559043617 0 0.0052839944027967267 -0.0017527633666851845 0 0.0054313616218117028 -0.0023831395762763333 0 0.0050630311143543974 -0.0021180182559043617 0 0.0047910237985541344 -0.0017737064362372287 0 0.0052839944027967267 -0.0017527633666851845 0 0.0050630311143543974 -0.0021180182559043617 0 0.0011289341660978302 2.9639837208902491e-07 0 -0.0010678757332664216 0.00116147995133744 0 -0.0024262525525675155 0.00024171514230879529 0 -0.0047234476324652655 0.0010012837849046187 0 -0.0010678757332664216 0.00116147995133744 0 -0.0024262525525675155 0.00024171514230879529 0 0.006589769055330659 0.00064654000522238386 0 0.0060798977885002841 0.0010889599089261663 0 0.0059616028177329724 0.00014244119583240426 0 0.0011289341660978302 2.9639837208902491e-07 0 -0.0010678757332664216 0.00116147995133744 0 0.0043748463696783157 3.3218961380575797e-06 0 0.0025169758258292859 0.0010585885045624119 0 0.0043776690302280109 -2.13555433883254e-07 0 0.0043825660869852411 1.4974367756736897e-06 0 0.0059616028177329724 0.00014244119583240426 0 0.0059056386387051048 -0.00024618152607014805 0 0.0060798977885002841 0.0010889599089261663 0 0.0043825660869852411 1.4974367756736897e-06 0 0.0059616028177329724 0.00014244119583240426 0 0.0070365826543834237 -0.00038431261673376463 0 0.0060603764702338225 -0.00039554660708546803 0 0.006589769055330659 0.00064654000522238386 0 0.0059616028177329724 0.00014244119583240426 0 0.006289578968706102 -0.00039862974075462627 0 0.0059616028177329724 0.00014244119583240426 0 0.006289578968706102 -0.00039862974075462627 0 0.0059056386387051048 -0.00024618152607014805 0 0.006289578968706102 -0.00039862974075462627 0 0.0059056386387051048 -0.00024618152607014805 0 0.0065409412502350538 -0.00028705918862449031 0 0.0043825660869852411 1.4974367756736897e-06 0 0.0059056386387051048 -0.00024618152607014805 0 0.0063846174760955774 -1.5899229113185602e-06 0 0.0059056386387051048 -0.00024618152607014805 0 0.0063846174760955774 -1.5899229113185602e-06 0 0.0065409412502350538 -0.00028705918862449031 0 0.0063846174760955774 -1.5899229113185602e-06 0 0.0083861270251197537 1.3877557758731555e-06 0 0.0065409412502350538 -0.00028705918862449031 0 0.0083861270251197537 1.3877557758731555e-06 0 0.0065409412502350538 -0.00028705918862449031 0 0.0067672939531119988 9.3965199864822377e-05 0 0.0087470797529357932 1.0643801579228731e-06 0 0.0092045888264063788 -4.6547092985210589e-05 0 0.0093212631257039557 -0.00014356288956394607 0 0.0087541528661697343 -1.001859579021272e-07 0 0.010046084481076998 -0.00020952468484959372 0 0.0083962726135637673 -1.0365771521381086e-06 0 0.0087470797529357932 1.0643801579228731e-06 0 0.0092045888264063788 -4.6547092985210589e-05 0 0.0083899391847131501 1.4813677864106957e-09 0 0.0080183698550210236 0.00026787680989282995 0 0.0083861270251197537 1.3877557758731555e-06 0 0.0066385294354242529 0.00073881808391032262 0 0.0067672939531119988 9.3965199864822377e-05 0 0.0064447847985248732 0.00053489611386919812 0 0.0066385294354242529 0.00073881808391032262 0 0.0067672939531119988 9.3965199864822377e-05 0 0.0064447847985248732 0.00053489611386919812 0 0.0063586399967327702 -5.0729585894560774e-05 0 0.0067672939531119988 9.3965199864822377e-05 0 0.006289578968706102 -0.00039862974075462627 0 0.0065409412502350538 -0.00028705918862449031 0 0.0063586399967327702 -5.0729585894560774e-05 0 0.0065409412502350538 -0.00028705918862449031 0 0.0063586399967327702 -5.0729585894560774e-05 0 0.0067672939531119988 9.3965199864822377e-05 0 0.0064447847985248732 0.00053489611386919812 0 0.0063586399967327702 -5.0729585894560774e-05 0 0.0057580060050721627 -0.00011276038758333244 0 0.006289578968706102 -0.00039862974075462627 0 0.0063586399967327702 -5.0729585894560774e-05 0 0.0057580060050721627 -0.00011276038758333244 0 0.0063918479902778848 0.00047495457492830405 0 0.0061856217892499862 0.00017339418215577909 0 0.0064742247864566583 0.00036626048913824811 0 0.0064425003765991784 0.00032940682094307065 0 0.0064679045343415649 0.00043058614499650265 0 0.0064661014776380551 0.00036699023088039763 0 0.0064425003765991784 0.00032940682094307065 0 0.0064679045343415649 0.00043058614499650265 0 0.0064661014776380551 0.00036699023088039763 0 0.0064679045343415649 0.00043058614499650265 0 0.0064892028818982388 0.00042324576455804528 0 0.0064447847985248732 0.00053489611386919812 0 0.0064742247864566583 0.00036626048913824811 0 0.0064679045343415649 0.00043058614499650265 0 0.0064447847985248732 0.00053489611386919812 0 0.0064679045343415649 0.00043058614499650265 0 0.0064602978840552572 0.00049234514242436369 0 0.0064679045343415649 0.00043058614499650265 0 0.0064602978840552572 0.00049234514242436369 0 0.0064892028818982388 0.00042324576455804528 0 0.0095276496720035995 -0.00020685159787755026 0 0.0096808036789478528 -0.00037997463703016618 0 0.0093212631257039557 -0.00014356288956394607 0 0.0064602978840552572 0.00049234514242436369 0 0.0064892028818982388 0.00042324576455804528 0 0.0065085094515242017 0.00043488889644754621 0 0.0064909307209506774 0.00045031646484428565 0 0.0064892028818982388 0.00042324576455804528 0 0.0065085094515242017 0.00043488889644754621 0 0.013255364770802249 0.00075904984211155641 0 0.013860136792388754 0.00083675828050910959 0 0.013020198858961255 0.00095495950878424121 0 0.013474810262364202 6.0317303691845955e-05 0 0.013019811783951991 -9.7135691915274137e-05 0 0.011654510766276842 0.00028939535954031469 0 0.012085246718133004 0.0004060218072855282 0 0.011432711114067984 0.00049225865685679051 0 0.012548339564825001 1.0178854263413473e-05 0 0.011654510766276842 0.00028939535954031469 0 0.012085246718133004 0.0004060218072855282 0 0.010040594616586823 0.00063083314119258044 0 0.011056265479610118 0.0004561106045539519 0 0.013474810262364202 6.0317303691845955e-05 0 0.010040594616586823 0.00063083314119258044 0 0.010642205252402951 0.00044188773968044376 0 0.01069630973615408 0.00039104183691524437 0 0.011116777509840784 0.00029114448779146717 0 0.0077468877025962694 0.00018682940591544523 0 0.010040594616586823 0.00063083314119258044 0 0.011056265479610118 0.0004561106045539519 0 0.010046084481076998 -0.00020952468484959372 0 0.013019811783951991 -9.7135691915274137e-05 0 0.012849527478209315 0.00012624091151503734 0 0.015202405530044618 -0.00017944574577486447 0 0.015154183615959139 -0.00017931891943241636 0 0.014673898123068284 -1.4004008813022208e-05 0 0.0095276496720035995 -0.00020685159787755026 0 0.0097995504140718868 -0.00038646155709571515 0 0.0096808036789478528 -0.00037997463703016618 0 0.013019811783951991 -9.7135691915274137e-05 0 0.011056265479610118 0.0004561106045539519 0 0.01069630973615408 0.00039104183691524437 0 0.011116777509840784 0.00029114448779146717 0 0.011119657964344651 -7.8186789517216849e-05 0 0.015080135814759758 -2.7435776322755983e-06 0 0.014673898123068284 -1.4004008813022208e-05 0 0.011867039557791918 2.8660933199278712e-06 0 0.012849527478209315 0.00012624091151503734 0 0.011862018352922435 5.4457584667110613e-08 0 0.011116777509840784 0.00029114448779146717 0 0.011854284205365479 -1.9274378080921879e-07 0 0.011119657964344651 -7.8186789517216849e-05 0 0.0087607099132912414 1.7962387332929254e-07 0 0.011854284205365479 -1.9274378080921879e-07 0 0.011119657964344651 -7.8186789517216849e-05 0 0.0064447847985248732 0.00053489611386919812 0 0.0066385294354242529 0.00073881808391032262 0 0.0064602978840552572 0.00049234514242436369 0 0.0092045888264063788 -4.6547092985210589e-05 0 0.0095276496720035995 -0.00020685159787755026 0 0.0093212631257039557 -0.00014356288956394607 0 0.0080183698550210236 0.00026787680989282995 0 0.0077468877025962694 0.00018682940591544523 0 0.015250671259525794 0.0021994599066385281 0 0.014630139661929649 0.0022374643675896148 0 0.014551716035749975 0.0027066940571179275 0 0.015250671259525794 0.0021994599066385281 0 0.014551716035749975 0.0027066940571179275 0 0.015404857745696013 0.0026776630302210616 0 0.015250671259525794 0.0021994599066385281 0 0.015890150744147805 0.0019329532619187506 0 0.015382397911470211 0.0016309095781503827 0 0.015250671259525794 0.0021994599066385281 0 0.014904839317516407 0.0018688810498154488 0 0.015382397911470211 0.0016309095781503827 0 0.015250671259525794 0.0021994599066385281 0 0.014904839317516407 0.0018688810498154488 0 0.014630139661929649 0.0022374643675896148 0 0.014904839317516407 0.0018688810498154488 0 0.014565887824949364 0.001836012780593578 0 0.014630139661929649 0.0022374643675896148 0 0.014565887824949364 0.001836012780593578 0 0.014401343984719768 0.0021170629543666459 0 0.014630139661929649 0.0022374643675896148 0 0.014565887824949364 0.001836012780593578 0 0.014440011415479587 0.0017968327315683232 0 0.014401343984719768 0.0021170629543666459 0 0.014440011415479587 0.0017968327315683232 0 0.014401343984719768 0.0021170629543666459 0 0.014293513935856492 0.002034977227050361 0 0.014401343984719768 0.0021170629543666459 0 0.014261363733665225 0.0023688231173540518 0 0.014293513935856492 0.002034977227050361 0 0.014401343984719768 0.0021170629543666459 0 0.014329110694255092 0.0024868901064135371 0 0.014261363733665225 0.0023688231173540518 0 0.014329110694255092 0.0024868901064135371 0 0.014630139661929649 0.0022374643675896148 0 0.014551716035749975 0.0027066940571179275 0 0.014401343984719768 0.0021170629543666459 0 0.014329110694255092 0.0024868901064135371 0 0.014630139661929649 0.0022374643675896148 0 0.014329110694255092 0.0024868901064135371 0 0.014057663196464232 0.0029474328034590856 0 0.014551716035749975 0.0027066940571179275 0 0.014329110694255092 0.0024868901064135371 0 0.014057663196464232 0.0029474328034590856 0 0.014176727075126763 0.0027705530023983287 0 0.014329110694255092 0.0024868901064135371 0 0.014261363733665225 0.0023688231173540518 0 0.014176727075126763 0.0027705530023983287 0 0.014057663196464232 0.0029474328034590856 0 0.014176727075126763 0.0027705530023983287 0 0.014106915422558384 0.0029596517211371424 0 0.014057663196464232 0.0029474328034590856 0 0.013361366271419926 0.0032873065627478312 0 0.014106915422558384 0.0029596517211371424 0 0.014057663196464232 0.0029474328034590856 0 0.014551716035749975 0.0027066940571179275 0 0.013361366271419926 0.0032873065627478312 0 0.014551716035749975 0.0027066940571179275 0 0.015001471011286977 0.0032983646512166477 0 0.013361366271419926 0.0032873065627478312 0 0.014551716035749975 0.0027066940571179275 0 0.015404857745696013 0.0026776630302210616 0 0.015001471011286977 0.0032983646512166477 0 0.015404857745696013 0.0026776630302210616 0 0.015001471011286977 0.0032983646512166477 0 0.015958030713290626 0.003015874903521505 0 0.0096385453076143959 0.0042010049610295202 0 0.0074708015210810438 0.0039222581603105535 0 0.0077585398061388961 0.002836746530852616 0 0.012387821632084895 0.0036702402742222738 0 0.011747357979034347 0.0034643222723107188 0 0.0074708015210810438 0.0039222581603105535 0 0.0067055861576828983 0.0030216498196205359 0 0.0063974739976322536 0.0034700601391257839 0 0.0074708015210810438 0.0039222581603105535 0 0.0067055861576828983 0.0030216498196205359 0 0.0077585398061388961 0.002836746530852616 0 0.015958030713290626 0.003015874903521505 0 0.016609773256520837 0.0026360937250136749 0 0.016169721008602839 0.0023125038932021967 0 0.011747357979034347 0.0034643222723107188 0 0.011597068800923271 0.00301217446004046 0 0.015404857745696013 0.0026776630302210616 0 0.015958030713290626 0.003015874903521505 0 0.016169721008602839 0.0023125038932021967 0 0.0063974739976322536 0.0034700601391257839 0 0.0059700869337425177 0.0029703858904578553 0 0.0060144337721310418 0.0026862670834280969 0 0.0067055861576828983 0.0030216498196205359 0 0.0063974739976322536 0.0034700601391257839 0 0.0060144337721310418 0.0026862670834280969 0 0.0060564058162367318 0.00305710306253038 0 0.0063974739976322536 0.0034700601391257839 0 0.0059700869337425177 0.0029703858904578553 0 0.01111169311174018 0.0028921492424539719 0 0.011597068800923271 0.00301217446004046 0 0.016695850536207434 0.0022472355513332202 0 0.016538058730105186 0.0017302442773888226 0 0.017005099737940108 0.0021168645457177271 0 0.016747923779896028 0.0023280530865114261 0 0.016609773256520837 0.0026360937250136749 0 0.016695850536207434 0.0022472355513332202 0 0.016609773256520837 0.0026360937250136749 0 0.016695850536207434 0.0022472355513332202 0 0.016169721008602839 0.0023125038932021967 0 0.016747923779896028 0.0023280530865114261 0 0.016695850536207434 0.0022472355513332202 0 0.017005099737940108 0.0021168645457177271 0 0.015250671259525794 0.0021994599066385281 0 0.015404857745696013 0.0026776630302210616 0 0.016169721008602839 0.0023125038932021967 0 0.016695850536207434 0.0022472355513332202 0 0.016169721008602839 0.0023125038932021967 0 0.016538058730105186 0.0017302442773888226 0 0.015250671259525794 0.0021994599066385281 0 0.016169721008602839 0.0023125038932021967 0 0.015890150744147805 0.0019329532619187506 0 0.016169721008602839 0.0023125038932021967 0 0.015890150744147805 0.0019329532619187506 0 0.016538058730105186 0.0017302442773888226 0 0.015890150744147805 0.0019329532619187506 0 0.016538058730105186 0.0017302442773888226 0 0.016130924691089638 0.0012887159409478003 0 0.016538058730105186 0.0017302442773888226 0 0.016993379736990073 0.0016384087185223252 0 0.016927725265870566 0.0014622051793626108 0 0.016538058730105186 0.0017302442773888226 0 0.016130924691089638 0.0012887159409478003 0 0.016952231672807568 0.00054484332096136939 0 0.016797675635879285 0.0018504748605305465 0 0.016161227262581384 0.00064351912700324608 0 0.016130924691089638 0.0012887159409478003 0 0.016558726684674813 0.00059030787560717236 0 0.015482327097816724 0.00096354805255596159 0 0.016130924691089638 0.0012887159409478003 0 0.016558726684674813 0.00059030787560717236 0 0.016952231672807568 0.00054484332096136939 0 0.016538058730105186 0.0017302442773888226 0 0.017005099737940108 0.0021168645457177271 0 0.016993379736990073 0.0016384087185223252 0 0.017005099737940108 0.0021168645457177271 0 0.016993379736990073 0.0016384087185223252 0 0.017310843673002493 0.001758616977850349 0 0.016993379736990073 0.0016384087185223252 0 0.017310843673002493 0.001758616977850349 0 0.017315922693199228 0.0014807724681132595 0 0.017575506873279263 0.0013745081393065647 0 0.017315922693199228 0.0014807724681132595 0 0.017385803720833974 0.0013247932830832542 0 0.017149983891106346 0.0014518139167216959 0 0.017197489973292866 0.0013374926575935536 0 0.016927725265870566 0.0014622051793626108 0 0.016993379736990073 0.0016384087185223252 0 0.017149983891106346 0.0014518139167216959 0 0.016927725265870566 0.0014622051793626108 0 0.017149983891106346 0.0014518139167216959 0 0.017197489973292866 0.0013374926575935536 0 0.017385803720833974 0.0013247932830832542 0 0.017315922693199228 0.0014807724681132595 0 0.017149983891106346 0.0014518139167216959 0 0.017385803720833974 0.0013247932830832542 0 0.016993379736990073 0.0016384087185223252 0 0.017315922693199228 0.0014807724681132595 0 0.017149983891106346 0.0014518139167216959 0 0.017538511994783474 0.0011383511751050621 0 0.017341224012536374 0.0012414311152111888 0 0.017385803720833974 0.0013247932830832542 0 0.017285949136129079 0.0011352973766861636 0 0.017197489973292866 0.0013374926575935536 0 0.017341224012536374 0.0012414311152111888 0 0.017197489973292866 0.0013374926575935536 0 0.017341224012536374 0.0012414311152111888 0 0.017385803720833974 0.0013247932830832542 0 0.017538511994783474 0.0011383511751050621 0 0.017385803720833974 0.0013247932830832542 0 0.017677568479475075 0.0012310303538597112 0 0.017575506873279263 0.0013745081393065647 0 0.017385803720833974 0.0013247932830832542 0 0.017677568479475075 0.0012310303538597112 0 0.016512491816068453 0.00059798182452042278 0 0.016010071915587839 0.00078949226154265769 0 0.016558726684674813 0.00059030787560717236 0 0.0167272369650153 0.00034872463095420784 0 0.016520616927445553 0.00041243402821300706 0 0.016558726684674813 0.00059030787560717236 0 0.016952231672807568 0.00054484332096136939 0 0.0167272369650153 0.00034872463095420784 0 0.017285949136129079 0.0011352973766861636 0 0.017197489973292866 0.0013374926575935536 0 0.016927725265870566 0.0014622051793626108 0 0.022666246777142466 0.002417226418150416 0 0.016161227262581384 0.00064351912700324608 0 0.017134161256971571 4.197532719994136e-05 0 0.016952231672807568 0.00054484332096136939 0 0.0167272369650153 0.00034872463095420784 0 0.0167272369650153 0.00034872463095420784 0 0.01662165841821675 0.00017643259927671446 0 0.016520616927445553 0.00041243402821300706 0 0.017134161256971571 4.197532719994136e-05 0 0.0167272369650153 0.00034872463095420784 0 0.01662165841821675 0.00017643259927671446 0 0.01662165841821675 0.00017643259927671446 0 0.016520616927445553 0.00041243402821300706 0 0.016249584755840787 0.00017909555901347553 0 0.027562471781719236 0.0050506528192520517 0 0.027745018655237506 0.0052273885169531846 0 0.027375867241538246 0.0052234846314854391 0 0.021189678280973696 0.0029103108714175017 0 0.026401618252888823 0.0018622700909663376 0 0.016310174711850371 0.00047718058779229564 0 0.016520616927445553 0.00041243402821300706 0 0.016249584755840787 0.00017909555901347553 0 0.016310174711850371 0.00047718058779229564 0 0.016520616927445553 0.00041243402821300706 0 0.016509361765672869 0.00059105042778339646 0 0.016558726684674813 0.00059030787560717236 0 0.016520616927445553 0.00041243402821300706 0 0.016509361765672869 0.00059105042778339646 0 0.016130924691089638 0.0012887159409478003 0 0.015482327097816724 0.00096354805255596159 0 0.015382397911470211 0.0016309095781503827 0 0.016010071915587839 0.00078949226154265769 0 0.015517562702507226 0.0010839770767136294 0 0.016310174711850371 0.00047718058779229564 0 0.016509361765672869 0.00059105042778339646 0 0.016207648087421554 0.0008332024379431144 0 0.015482327097816724 0.00096354805255596159 0 0.014826393074229503 0.0013319492008783494 0 0.015382397911470211 0.0016309095781503827 0 0.014904839317516407 0.0018688810498154488 0 0.014826393074229503 0.0013319492008783494 0 0.015382397911470211 0.0016309095781503827 0 0.015890150744147805 0.0019329532619187506 0 0.016130924691089638 0.0012887159409478003 0 0.015382397911470211 0.0016309095781503827 0 0.014440011415479587 0.0017968327315683232 0 0.014456237960956127 0.0016411019737645398 0 0.014486654709360298 0.001523182788769942 0 0.014565887824949364 0.001836012780593578 0 0.014440011415479587 0.0017968327315683232 0 0.014456237960956127 0.0016411019737645398 0 0.015517562702507226 0.0010839770767136294 0 0.014996507686434473 0.0013860456351302017 0 0.014904839317516407 0.0018688810498154488 0 0.014565887824949364 0.001836012780593578 0 0.014826393074229503 0.0013319492008783494 0 0.014565887824949364 0.001836012780593578 0 0.014826393074229503 0.0013319492008783494 0 0.014456237960956127 0.0016411019737645398 0 0.016207648087421554 0.0008332024379431144 0 0.015560613266021961 0.0011742898797548337 0 0.015790375545774032 0.00042573835014731614 0 0.016310174711850371 0.00047718058779229564 0 0.016207648087421554 0.0008332024379431144 0 0.015790375545774032 0.00042573835014731614 0 0.015560613266021961 0.0011742898797548337 0 0.015790375545774032 0.00042573835014731614 0 0.014913922068878361 0.0010607421828252839 0 0.020759288776407078 -0.00036971873278129772 0 0.021410987997745604 -0.0001469786757843116 0 0.027203630805311668 -0.00097391176401990522 0 0.027626781999719015 -0.0013606100834211818 0 0.027678553724442608 -0.0010821397418874349 0 0.027203630805311668 -0.00097391176401990522 0 0.027441579186522187 -0.00048767813876630673 0 0.027678553724442608 -0.0010821397418874349 0 0.020759288776407078 -0.00036971873278129772 0 0.026401618252888823 0.0018622700909663376 0 0.027203630805311668 -0.00097391176401990522 0 0.026680055102148055 -0.0003143252298716121 0 0.027441579186522187 -0.00048767813876630673 0 0.016310174711850371 0.00047718058779229564 0 0.015790375545774032 0.00042573835014731614 0 0.016249584755840787 0.00017909555901347553 0 0.037611621378096691 0.0028792993180139425 0 0.036306800983146925 0.0022273708287078261 0 0.038070646298507094 0.0019946942367958906 0 0.026401618252888823 0.0018622700909663376 0 0.03383246076592749 0.00055659398371259898 0 0.037611621378096691 0.0028792993180139425 0 0.038070646298507094 0.0019946942367958906 0 0.038658169920632458 0.0025976099667287529 0 0.038070646298507094 0.0019946942367958906 0 0.038658169920632458 0.0025976099667287529 0 0.038869963968580189 0.0018778547364392065 0 0.039197788482917807 0.0025495340936771693 0 0.038658169920632458 0.0025976099667287529 0 0.038869963968580189 0.0018778547364392065 0 0.03383246076592749 0.00055659398371259898 0 0.033318533521073293 0.00066384790617390616 0 0.027441579186522187 -0.00048767813876630673 0 0.028212838823929963 -0.0006130518353733022 0 0.027678553724442608 -0.0010821397418874349 0 0.028212838823929963 -0.0006130518353733022 0 0.029142381569334998 -0.00054214272483396457 0 0.027811904573742458 -0.0012762156306789956 0 0.028212838823929963 -0.0006130518353733022 0 0.027678553724442608 -0.0010821397418874349 0 0.027811904573742458 -0.0012762156306789956 0 0.033318533521073293 0.00066384790617390616 0 0.034513852820656638 0.00039583951590129785 0 0.039197788482917807 0.0025495340936771693 0 0.038869963968580189 0.0018778547364392065 0 0.03970103286819246 0.0023046709113816607 0 0.038869963968580189 0.0018778547364392065 0 0.03970103286819246 0.0023046709113816607 0 0.039661631788628422 0.0013563884588486987 0 0.03970103286819246 0.0023046709113816607 0 0.040548855925711932 0.0022012257694908502 0 0.039661631788628422 0.0013563884588486987 0 0.040548855925711932 0.0022012257694908502 0 0.040817447890882659 0.0015628857882789659 0 0.039661631788628422 0.0013563884588486987 0 0.040548855925711932 0.0022012257694908502 0 0.040817447890882659 0.0015628857882789659 0 0.04190146769149164 0.0019077098656708313 0 0.040817447890882659 0.0015628857882789659 0 0.039661631788628422 0.0013563884588486987 0 0.041198078318064789 0.00081466783072170501 0 0.029142381569334998 -0.00054214272483396457 0 0.029581448356403518 -0.0012796609417237335 0 0.030728614169784653 -0.00067855874010347319 0 0.034513852820656638 0.00039583951590129785 0 0.035910235551741845 9.8241844531481555e-06 0 0.029142381569334998 -0.00054214272483396457 0 0.028268795461980641 -0.001359281254289225 0 0.027811904573742458 -0.0012762156306789956 0 0.029142381569334998 -0.00054214272483396457 0 0.028268795461980641 -0.001359281254289225 0 0.029581448356403518 -0.0012796609417237335 0 0.028268795461980641 -0.001359281254289225 0 0.029581448356403518 -0.0012796609417237335 0 0.029195640164653813 -0.0022696705284046105 0 0.029581448356403518 -0.0012796609417237335 0 0.029195640164653813 -0.0022696705284046105 0 0.030698120408299338 -0.0021873610403416177 0 0.022334246649299248 -0.0015706494087000028 0 0.021074242936960481 -0.00098842447296214873 0 0.021388076447348026 -0.00039209227811572118 0 0.026000389776050421 -0.0018043358842428307 0 0.025535333429546444 -0.0017656408197429308 0 0.022334246649299248 -0.0015706494087000028 0 0.026552945035819848 -0.0016430324996183311 0 0.023918714836256443 -5.4673240595067655e-05 0 0.028268795461980641 -0.001359281254289225 0 0.029195640164653813 -0.0022696705284046105 0 0.026552945035819848 -0.0016430324996183311 0 0.028268795461980641 -0.001359281254289225 0 0.026552945035819848 -0.0016430324996183311 0 0.027811904573742458 -0.0012762156306789956 0 0.026000389776050421 -0.0018043358842428307 0 0.026593975266536032 -0.0016567978238610319 0 0.026552945035819848 -0.0016430324996183311 0 0.027364611372428113 -0.0013637516678735831 0 0.027811904573742458 -0.0012762156306789956 0 0.026552945035819848 -0.0016430324996183311 0 0.027364611372428113 -0.0013637516678735831 0 0.027318493679939018 -0.00031871557736861723 0 0.015560613266021961 0.0011742898797548337 0 0.014486654709360298 0.001523182788769942 0 0.014913922068878361 0.0010607421828252839 0 0.014486654709360298 0.001523182788769942 0 0.014913922068878361 0.0010607421828252839 0 0.013993224672059703 0.0019303947291708329 0 0.027364611372428113 -0.0013637516678735831 0 0.027626781999719015 -0.0013606100834211818 0 0.027318493679939018 -0.00031871557736861723 0 0.014996507686434473 0.0013860456351302017 0 0.014527186221026325 0.0015316208657639066 0 0.021410987997745604 -0.0001469786757843116 0 0.020398720414044516 0.00093469284319027215 0 0.027364611372428113 -0.0013637516678735831 0 0.027626781999719015 -0.0013606100834211818 0 0.027595590974368152 -0.0013277914666018022 0 0.027595590974368152 -0.0013277914666018022 0 0.027678553724442608 -0.0010821397418874349 0 0.027811904573742458 -0.0012762156306789956 0 0.027626781999719015 -0.0013606100834211818 0 0.027595590974368152 -0.0013277914666018022 0 0.027678553724442608 -0.0010821397418874349 0 0.027364611372428113 -0.0013637516678735831 0 0.027595590974368152 -0.0013277914666018022 0 0.027811904573742458 -0.0012762156306789956 0 0.043392347346764205 0.0013460735155945655 0 0.043398396160922344 0.0015611195676029127 0 0.043283656068933099 0.0013457525995282261 0 0.043392347346764205 0.0013460735155945655 0 0.043283656068933099 0.0013457525995282261 0 0.043288260595013228 0.0012611169140794767 0 0.043392347346764205 0.0013460735155945655 0 0.043288260595013228 0.0012611169140794767 0 0.043339298755127001 0.0012902036144272063 0 0.047020234227990405 0.0023495836100074999 0 0.046983590239790034 0.0018692037619648365 0 0.046081749236115271 0.0016082520030247642 0 0.045688785880349657 0.0013903190804251419 0 0.044540516116531995 0.0017254149634547378 0 0.043751218689939322 0.0021116726151899769 0 0.044540516116531995 0.0017254149634547378 0 0.043398396160922344 0.0015611195676029127 0 0.043283656068933099 0.0013457525995282261 0 0.043050627643237374 0.0013735119174535266 0 0.043283656068933099 0.0013457525995282261 0 0.043097453701831732 0.0012306401564108013 0 0.043288260595013228 0.0012611169140794767 0 0.042709114718514893 0.00055116151749598757 0 0.043050627643237374 0.0013735119174535266 0 0.041198078318064789 0.00081466783072170501 0 0.037706972368750431 0.00031171635570840698 0 0.035910235551741845 9.8241844531481555e-06 0 0.043283656068933099 0.0013457525995282261 0 0.043097453701831732 0.0012306401564108013 0 0.043050627643237374 0.0013735119174535266 0 0.037706972368750431 0.00031171635570840698 0 0.042275592037957631 0.0012452582754640782 0 0.043682447198854731 0.0021150193840697401 0 0.043398396160922344 0.0015611195676029127 0 0.043050627643237374 0.0013735119174535266 0 0.043682447198854731 0.0021150193840697401 0 0.043050627643237374 0.0013735119174535266 0 0.04190146769149164 0.0019077098656708313 0 0.040817447890882659 0.0015628857882789659 0 0.04190146769149164 0.0019077098656708313 0 0.041198078318064789 0.00081466783072170501 0 0.043050627643237374 0.0013735119174535266 0 0.04190146769149164 0.0019077098656708313 0 0.041198078318064789 0.00081466783072170501 0 0.030728614169784653 -0.00067855874010347319 0 0.030698120408299338 -0.0021873610403416177 0 0.031364748665292742 -0.0015827875602639607 0 0.029581448356403518 -0.0012796609417237335 0 0.030728614169784653 -0.00067855874010347319 0 0.030698120408299338 -0.0021873610403416177 0 0.021074242936960481 -0.00098842447296214873 0 0.021388076447348026 -0.00039209227811572118 0 0.020656208745121519 0.00056956802257621976 0 0.027914088357176233 -0.00019370585295605907 0 0.023000746518217496 0.00086891545006416015 0 0.021074242936960481 -0.00098842447296214873 0 0.02030174505289457 -0.0010472266171511362 0 0.019586060175390513 0.00051184425519937066 0 0.025535333429546444 -0.0017656408197429308 0 0.027914088357176233 -0.00019370585295605907 0 0.032232555768527953 -0.001120415621874659 0 0.030728614169784653 -0.00067855874010347319 0 0.031364748665292742 -0.0015827875602639607 0 0.030698120408299338 -0.0021873610403416177 0 0.031904273111843025 -0.0019702174448372502 0 0.031364748665292742 -0.0015827875602639607 0 0.032232555768527953 -0.001120415621874659 0 0.031904273111843025 -0.0019702174448372502 0 0.031364748665292742 -0.0015827875602639607 0 0.03348515199520484 0.00085972460387362338 0 0.033556957820687891 2.6829952660862076e-06 0 0.033977847708666985 0.0004153008912510581 0 0.037706972368750431 0.00031171635570840698 0 0.027914088357176233 -0.00019370585295605907 0 0.03348515199520484 0.00085972460387362338 0 0.033977847708666985 0.0004153008912510581 0 0.034464892236103363 0.0006840997251541394 0 0.037706972368750431 0.00031171635570840698 0 0.039559782097990819 0.00081406657631889127 0 0.033977847708666985 0.0004153008912510581 0 0.034464892236103363 0.0006840997251541394 0 0.034507437364435567 0.00025376741783475167 0 0.027914088357176233 -0.00019370585295605907 0 0.030528876395487251 0.00028391187274890773 0 0.027307780680644825 0.00051857935796634528 0 0.027040761699886898 0.00044883376266155808 0 0.027053817950854157 0.0007307802312684755 0 0.033556957820687891 2.6829952660862076e-06 0 0.033977847708666985 0.0004153008912510581 0 0.034507437364435567 0.00025376741783475167 0 0.027307780680644825 0.00051857935796634528 0 0.027053817950854157 0.0007307802312684755 0 0.027203160968185477 0.001064504497146967 0 0.027053817950854157 0.0007307802312684755 0 0.026815632942389377 0.00066665383363987351 0 0.02688542438948429 0.00097564532540872983 0 0.026553265544798706 0.00090706662187531762 0 0.026815632942389377 0.00066665383363987351 0 0.02688542438948429 0.00097564532540872983 0 0.027040761699886898 0.00044883376266155808 0 0.027053817950854157 0.0007307802312684755 0 0.026815632942389377 0.00066665383363987351 0 0.039559782097990819 0.00081406657631889127 0 0.035294790047707997 0.0012190423013003758 0 0.027040761699886898 0.00044883376266155808 0 0.026815632942389377 0.00066665383363987351 0 0.02678376738901515 0.00037251131300667072 0 0.026521710322592658 0.0006520939259377133 0 0.026815632942389377 0.00066665383363987351 0 0.02678376738901515 0.00037251131300667072 0 0.034464892236103363 0.0006840997251541394 0 0.034507437364435567 0.00025376741783475167 0 0.035451044583185772 0.00052100091432440295 0 0.030528876395487251 0.00028391187274890773 0 0.035294790047707997 0.0012190423013003758 0 0.026578718294038822 0.0013427640895308393 0 0.026903633320289399 0.0013155315275844431 0 0.02688542438948429 0.00097564532540872983 0 0.026578718294038822 0.0013427640895308393 0 0.026903633320289399 0.0013155315275844431 0 0.026735871516938885 0.001589383466334072 0 0.026553265544798706 0.00090706662187531762 0 0.026578718294038822 0.0013427640895308393 0 0.02688542438948429 0.00097564532540872983 0 0.026903633320289399 0.0013155315275844431 0 0.02688542438948429 0.00097564532540872983 0 0.027203160968185477 0.001064504497146967 0 0.027053817950854157 0.0007307802312684755 0 0.02688542438948429 0.00097564532540872983 0 0.027203160968185477 0.001064504497146967 0 0.023000746518217496 0.00086891545006416015 0 0.022192682487746317 0.0015971910789420139 0 0.026903633320289399 0.0013155315275844431 0 0.027203160968185477 0.001064504497146967 0 0.027089834311398338 0.0016086432711341183 0 0.019586060175390513 0.00051184425519937066 0 0.020133245453005277 0.0015740874692640565 0 0.019396646625286694 0.0020494395410045776 0 0.019586060175390513 0.00051184425519937066 0 0.020133245453005277 0.0015740874692640565 0 0.020656208745121519 0.00056956802257621976 0 0.021074242936960481 -0.00098842447296214873 0 0.019586060175390513 0.00051184425519937066 0 0.020656208745121519 0.00056956802257621976 0 0.021388076447348026 -0.00039209227811572118 0 0.020656208745121519 0.00056956802257621976 0 0.02181360852682734 0.00043878460781411724 0 0.020656208745121519 0.00056956802257621976 0 0.020643695301499235 0.0017142088609461228 0 0.021216814550850616 0.001546662372202698 0 0.020133245453005277 0.0015740874692640565 0 0.020656208745121519 0.00056956802257621976 0 0.020643695301499235 0.0017142088609461228 0 0.020643695301499235 0.0017142088609461228 0 0.021216814550850616 0.001546662372202698 0 0.020777024157451501 0.002117450244673396 0 0.020643695301499235 0.0017142088609461228 0 0.020314402943698955 0.0021133510577470236 0 0.020777024157451501 0.002117450244673396 0 0.020314402943698955 0.0021133510577470236 0 0.020777024157451501 0.002117450244673396 0 0.020460611733607973 0.0022539560397194878 0 0.020133245453005277 0.0015740874692640565 0 0.020643695301499235 0.0017142088609461228 0 0.020314402943698955 0.0021133510577470236 0 0.020314402943698955 0.0021133510577470236 0 0.020019373907633416 0.0020693842787270116 0 0.020460611733607973 0.0022539560397194878 0 0.020019373907633416 0.0020693842787270116 0 0.01987582643664635 0.0018901718906902294 0 0.020040349437963061 0.0020783746930555652 0 0.020314402943698955 0.0021133510577470236 0 0.020019373907633416 0.0020693842787270116 0 0.020040349437963061 0.0020783746930555652 0 0.020019373907633416 0.0020693842787270116 0 0.01987582643664635 0.0018901718906902294 0 0.019674336102234836 0.0017317912971238217 0 0.01987582643664635 0.0018901718906902294 0 0.020059292305017198 0.0020321314108510246 0 0.020040349437963061 0.0020783746930555652 0 0.01987582643664635 0.0018901718906902294 0 0.020047012335247621 0.0018115566486016036 0 0.020059292305017198 0.0020321314108510246 0 0.020059292305017198 0.0020321314108510246 0 0.020040349437963061 0.0020783746930555652 0 0.019967892640061158 0.0020645321816588438 0 0.020133245453005277 0.0015740874692640565 0 0.019967892640061158 0.0020645321816588438 0 0.019396646625286694 0.0020494395410045776 0 0.020059292305017198 0.0020321314108510246 0 0.019967892640061158 0.0020645321816588438 0 0.020174133138434323 0.0021529879522146586 0 0.020314402943698955 0.0021133510577470236 0 0.020040349437963061 0.0020783746930555652 0 0.019967892640061158 0.0020645321816588438 0 0.020133245453005277 0.0015740874692640565 0 0.020314402943698955 0.0021133510577470236 0 0.019967892640061158 0.0020645321816588438 0 0.019516297454889746 0.0018687295470022124 0 0.022192682487746317 0.0015971910789420139 0 0.020254134233690612 0.0026125246308444142 0 0.020650403014782409 0.0022056234715828148 0 0.021120560004670386 0.0026893805839590871 0 0.022192682487746317 0.0015971910789420139 0 0.024342575362621344 0.0021996539111503138 0 0.020254134233690612 0.0026125246308444142 0 0.020308622659782213 0.0019856057648688238 0 0.020650403014782409 0.0022056234715828148 0 0.020059292305017198 0.0020321314108510246 0 0.020174133138434323 0.0021529879522146586 0 0.020308622659782213 0.0019856057648688238 0 0.022192682487746317 0.0015971910789420139 0 0.020411273065555395 0.002340280992178775 0 0.020047012335247621 0.0018115566486016036 0 0.020059292305017198 0.0020321314108510246 0 0.020308622659782213 0.0019856057648688238 0 0.020047012335247621 0.0018115566486016036 0 0.020308622659782213 0.0019856057648688238 0 0.020400764262584845 0.0016791964051164922 0 0.020308622659782213 0.0019856057648688238 0 0.020400764262584845 0.0016791964051164922 0 0.020650403014782409 0.0022056234715828148 0 0.019252148611094935 0.00088918223042313952 0 0.019295848250814002 0.001181599674410339 0 0.019260687584620989 0.00084361927832165803 0 0.019376854566114533 0.000830833701832997 0 0.019295848250814002 0.001181599674410339 0 0.019260687584620989 0.00084361927832165803 0 0.020400764262584845 0.0016791964051164922 0 0.020650403014782409 0.0022056234715828148 0 0.021185310095471303 0.0021505642931683856 0 0.019897905601593862 0.0013504009694595795 0 0.019887594067972903 0.0015895202449732176 0 0.026903633320289399 0.0013155315275844431 0 0.027089834311398338 0.0016086432711341183 0 0.026735871516938885 0.001589383466334072 0 0.020650403014782409 0.0022056234715828148 0 0.021185310095471303 0.0021505642931683856 0 0.021120560004670386 0.0026893805839590871 0 0.020398720414044516 0.00093469284319027215 0 0.019956756081991611 0.0025444397785106014 0 0.01406916386799335 0.0024076515781419308 0 0.013993224672059703 0.0019303947291708329 0 0.01371257775648395 0.0024301047293643608 0 0.01406916386799335 0.0024076515781419308 0 0.014293513935856492 0.002034977227050361 0 0.013993224672059703 0.0019303947291708329 0 0.01406916386799335 0.0024076515781419308 0 0.014261363733665225 0.0023688231173540518 0 0.014293513935856492 0.002034977227050361 0 0.014440011415479587 0.0017968327315683232 0 0.014486654709360298 0.001523182788769942 0 0.014293513935856492 0.002034977227050361 0 0.014486654709360298 0.001523182788769942 0 0.014293513935856492 0.002034977227050361 0 0.013993224672059703 0.0019303947291708329 0 0.027318493679939018 -0.00031871557736861723 0 0.025622680315902847 -0.00022667630883330779 0 0.024496868882253709 0.00087406756652910333 0 0.026552945035819848 -0.0016430324996183311 0 0.027318493679939018 -0.00031871557736861723 0 0.025622680315902847 -0.00022667630883330779 0 0.026552945035819848 -0.0016430324996183311 0 0.025622680315902847 -0.00022667630883330779 0 0.023918714836256443 -5.4673240595067655e-05 0 0.023918714836256443 -5.4673240595067655e-05 0 0.022938667559307603 0.00094173481054974631 0 0.024496868882253709 0.00087406756652910333 0 0.025622680315902847 -0.00022667630883330779 0 0.023918714836256443 -5.4673240595067655e-05 0 0.024496868882253709 0.00087406756652910333 0 0.020656208745121519 0.00056956802257621976 0 0.02181360852682734 0.00043878460781411724 0 0.021216814550850616 0.001546662372202698 0 0.022334246649299248 -0.0015706494087000028 0 0.021388076447348026 -0.00039209227811572118 0 0.02181360852682734 0.00043878460781411724 0 0.022334246649299248 -0.0015706494087000028 0 0.023918714836256443 -5.4673240595067655e-05 0 0.02181360852682734 0.00043878460781411724 0 0.023918714836256443 -5.4673240595067655e-05 0 0.022938667559307603 0.00094173481054974631 0 0.02181360852682734 0.00043878460781411724 0 0.022938667559307603 0.00094173481054974631 0 0.02181360852682734 0.00043878460781411724 0 0.021954377355556009 0.001475518910991716 0 0.02181360852682734 0.00043878460781411724 0 0.021216814550850616 0.001546662372202698 0 0.021954377355556009 0.001475518910991716 0 0.021954377355556009 0.001475518910991716 0 0.021280770638376446 0.0020663134148075179 0 0.021702646392565014 0.002325127435835139 0 0.021216814550850616 0.001546662372202698 0 0.021954377355556009 0.001475518910991716 0 0.021280770638376446 0.0020663134148075179 0 0.021216814550850616 0.001546662372202698 0 0.021280770638376446 0.0020663134148075179 0 0.020777024157451501 0.002117450244673396 0 0.027318493679939018 -0.00031871557736861723 0 0.024496868882253709 0.00087406756652910333 0 0.023961697366159568 0.0032615192391155529 0 0.024496868882253709 0.00087406756652910333 0 0.022794999973489539 0.0020400357528240673 0 0.023961697366159568 0.0032615192391155529 0 0.022938667559307603 0.00094173481054974631 0 0.024496868882253709 0.00087406756652910333 0 0.022794999973489539 0.0020400357528240673 0 0.022938667559307603 0.00094173481054974631 0 0.021954377355556009 0.001475518910991716 0 0.022794999973489539 0.0020400357528240673 0 0.022794999973489539 0.0020400357528240673 0 0.021702646392565014 0.002325127435835139 0 0.022367215759970097 0.0023378015172749178 0 0.021601571419139095 0.0029775333882461055 0 0.019956756081991611 0.0025444397785106014 0 0.021954377355556009 0.001475518910991716 0 0.022794999973489539 0.0020400357528240673 0 0.021702646392565014 0.002325127435835139 0 0.020096612636995234 0.0033825186162602444 0 0.020835582932354182 0.0026936787929845315 0 0.019667926519133572 0.0023572726145124645 0 0.020096612636995234 0.0033825186162602444 0 0.019667926519133572 0.0023572726145124645 0 0.018748807927325837 0.0024586464878846533 0 0.021702646392565014 0.002325127435835139 0 0.022367215759970097 0.0023378015172749178 0 0.020835582932354182 0.0026936787929845315 0 0.019956756081991611 0.0025444397785106014 0 0.02080980948792429 0.0023695241413143114 0 0.020835582932354182 0.0026936787929845315 0 0.019667926519133572 0.0023572726145124645 0 0.020232866999476649 0.0022872795270519985 0 0.020777024157451501 0.002117450244673396 0 0.020890395462220757 0.0024295694613396023 0 0.020460611733607973 0.0022539560397194878 0 0.021280770638376446 0.0020663134148075179 0 0.020777024157451501 0.002117450244673396 0 0.020890395462220757 0.0024295694613396023 0 0.021280770638376446 0.0020663134148075179 0 0.021702646392565014 0.002325127435835139 0 0.020890395462220757 0.0024295694613396023 0 0.021702646392565014 0.002325127435835139 0 0.020835582932354182 0.0026936787929845315 0 0.020890395462220757 0.0024295694613396023 0 0.020890395462220757 0.0024295694613396023 0 0.020460611733607973 0.0022539560397194878 0 0.020232866999476649 0.0022872795270519985 0 0.020835582932354182 0.0026936787929845315 0 0.020890395462220757 0.0024295694613396023 0 0.020232866999476649 0.0022872795270519985 0 0.020019373907633416 0.0020693842787270116 0 0.020232866999476649 0.0022872795270519985 0 0.019459616935936893 0.0019473973121231023 0 0.020019373907633416 0.0020693842787270116 0 0.020460611733607973 0.0022539560397194878 0 0.020232866999476649 0.0022872795270519985 0 0.019667926519133572 0.0023572726145124645 0 0.019459616935936893 0.0019473973121231023 0 0.01865312607061935 0.0019924962260402064 0 0.019667926519133572 0.0023572726145124645 0 0.020232866999476649 0.0022872795270519985 0 0.019459616935936893 0.0019473973121231023 0 0.018748807927325837 0.0024586464878846533 0 0.017698181259830848 0.0021570281714651173 0 0.01865312607061935 0.0019924962260402064 0 0.019667926519133572 0.0023572726145124645 0 0.018748807927325837 0.0024586464878846533 0 0.01865312607061935 0.0019924962260402064 0 0.015960194782907795 0.0024749747228616122 0 0.016019825324958818 0.0025232247549127583 0 0.01406916386799335 0.0024076515781419308 0 0.01371257775648395 0.0024301047293643608 0 0.01398343446016557 0.0027697576246592578 0 0.019956756081991611 0.0025444397785106014 0 0.015960194782907795 0.0024749747228616122 0 0.01406916386799335 0.0024076515781419308 0 0.014261363733665225 0.0023688231173540518 0 0.014176727075126763 0.0027705530023983287 0 0.01406916386799335 0.0024076515781419308 0 0.01398343446016557 0.0027697576246592578 0 0.014176727075126763 0.0027705530023983287 0 0.014176727075126763 0.0027705530023983287 0 0.014277178425578777 0.002923286486162387 0 0.014106915422558384 0.0029596517211371424 0 0.01398343446016557 0.0027697576246592578 0 0.014176727075126763 0.0027705530023983287 0 0.014277178425578777 0.002923286486162387 0 0.017698181259830848 0.0021570281714651173 0 0.017795651765444277 0.0015786442984751863 0 0.016274972575365702 0.001632560541790869 0 0.016019825324958818 0.0025232247549127583 0 0.015229357454516522 0.0017367299823836451 0 0.017795651765444277 0.0015786442984751863 0 0.018004170923369527 0.0005391826006375882 0 0.016274972575365702 0.001632560541790869 0 0.017795651765444277 0.0015786442984751863 0 0.018609487360678408 0.0014907544111601779 0 0.018004170923369527 0.0005391826006375882 0 0.017698181259830848 0.0021570281714651173 0 0.017795651765444277 0.0015786442984751863 0 0.01865312607061935 0.0019924962260402064 0 0.017795651765444277 0.0015786442984751863 0 0.01865312607061935 0.0019924962260402064 0 0.018609487360678408 0.0014907544111601779 0 0.019459616935936893 0.0019473973121231023 0 0.019247894971134091 0.0015692269121309384 0 0.018609487360678408 0.0014907544111601779 0 0.019459616935936893 0.0019473973121231023 0 0.01865312607061935 0.0019924962260402064 0 0.018609487360678408 0.0014907544111601779 0 0.020019373907633416 0.0020693842787270116 0 0.019459616935936893 0.0019473973121231023 0 0.019247894971134091 0.0015692269121309384 0 0.019247894971134091 0.0015692269121309384 0 0.018267804904280659 0.0014109466973368583 0 0.019166235609386555 0.00094122138833484465 0 0.019247894971134091 0.0015692269121309384 0 0.018609487360678408 0.0014907544111601779 0 0.018267804904280659 0.0014109466973368583 0 0.018267804904280659 0.0014109466973368583 0 0.017191376894997008 0.00033619863593120869 0 0.013767501753746806 0.0025308896895121728 0 0.018609487360678408 0.0014907544111601779 0 0.018267804904280659 0.0014109466973368583 0 0.018004170923369527 0.0005391826006375882 0 0.018267804904280659 0.0014109466973368583 0 0.018616793845508968 0.00042213673216474397 0 0.019166235609386555 0.00094122138833484465 0 0.018616793845508968 0.00042213673216474397 0 0.017191376894997008 0.00033619863593120869 0 0.017873216036496869 -0.0003428465024020058 0 0.018267804904280659 0.0014109466973368583 0 0.018616793845508968 0.00042213673216474397 0 0.017191376894997008 0.00033619863593120869 0 0.017191376894997008 0.00033619863593120869 0 0.014801169170054099 -0.00013611921505883877 0 0.017029799741814497 -0.0010743609993226107 0 0.014801169170054099 -0.00013611921505883877 0 0.011856738058500099 -3.0319856088748608e-06 0 0.013767501753746806 0.0025308896895121728 0 0.017191376894997008 0.00033619863593120869 0 0.014801169170054099 -0.00013611921505883877 0 0.013767501753746806 0.0025308896895121728 0 0.011856738058500099 -3.0319856088748608e-06 0 0.013767501753746806 0.0025308896895121728 0 0.010189762485417779 0.00082955914499875346 0 0.018004170923369527 0.0005391826006375882 0 0.015372238731165376 -0.00020568071780135953 0 0.016274972575365702 0.001632560541790869 0 0.013767501753746806 0.0025308896895121728 0 0.010189762485417779 0.00082955914499875346 0 0.0093542352917759895 0.0017938086939944104 0 0.015819150111879839 0.0014561868434815552 0 0.012419402391709246 0.00079356136808162207 0 0.01802441397518105 0.0014641517378174986 0 0.015819150111879839 0.0014561868434815552 0 0.019259385679338457 0.00079436091958070101 0 0.019219687307533959 0.00084066779456943826 0 0.019260687584620989 0.00084361927832165803 0 0.019219687307533959 0.00084066779456943826 0 0.019260687584620989 0.00084361927832165803 0 0.019308297580605628 0.00099195156249979894 0 0.019201233052176907 0.00076797069945496561 0 0.019138486845948332 0.00070562101549941395 0 0.019219687307533959 0.00084066779456943826 0 0.019201233052176907 0.00076797069945496561 0 0.019259385679338457 0.00079436091958070101 0 0.019219687307533959 0.00084066779456943826 0 0.019259385679338457 0.00079436091958070101 0 0.019376854566114533 0.000830833701832997 0 0.019260687584620989 0.00084361927832165803 0 0.019252148611094935 0.00088918223042313952 0 0.019308297580605628 0.00099195156249979894 0 0.019615541572640893 0.0012861668816619366 0 0.019252148611094935 0.00088918223042313952 0 0.019260687584620989 0.00084361927832165803 0 0.019308297580605628 0.00099195156249979894 0 0.019308297580605628 0.00099195156249979894 0 0.019615541572640893 0.0012861668816619366 0 0.019270085828046856 0.0009033015328660279 0 0.019219687307533959 0.00084066779456943826 0 0.019308297580605628 0.00099195156249979894 0 0.019270085828046856 0.0009033015328660279 0 0.019615541572640893 0.0012861668816619366 0 0.019166235609386555 0.00094122138833484465 0 0.019270085828046856 0.0009033015328660279 0 0.01987582643664635 0.0018901718906902294 0 0.020047012335247621 0.0018115566486016036 0 0.019615541572640893 0.0012861668816619366 0 0.020047012335247621 0.0018115566486016036 0 0.020400764262584845 0.0016791964051164922 0 0.019615541572640893 0.0012861668816619366 0 0.01987582643664635 0.0018901718906902294 0 0.019615541572640893 0.0012861668816619366 0 0.019674336102234836 0.0017317912971238217 0 0.019897905601593862 0.0013504009694595795 0 0.01961382219077237 0.001247810101374794 0 0.019247894971134091 0.0015692269121309384 0 0.019615541572640893 0.0012861668816619366 0 0.019674336102234836 0.0017317912971238217 0 0.020019373907633416 0.0020693842787270116 0 0.019247894971134091 0.0015692269121309384 0 0.019674336102234836 0.0017317912971238217 0 0.019247894971134091 0.0015692269121309384 0 0.019615541572640893 0.0012861668816619366 0 0.019166235609386555 0.00094122138833484465 0 0.018616793845508968 0.00042213673216474397 0 0.019038903409711275 0.00046052731770722432 0 0.018853719636942715 -8.3005919641061541e-05 0 0.018616793845508968 0.00042213673216474397 0 0.019166235609386555 0.00094122138833484465 0 0.019038903409711275 0.00046052731770722432 0 0.019038903409711275 0.00046052731770722432 0 0.019151991646806286 0.00071472102231903245 0 0.01907561451191701 0.00053707919294054547 0 0.019038903409711275 0.00046052731770722432 0 0.01907561451191701 0.00053707919294054547 0 0.018929836358657595 0.00019263053854694665 0 0.019166235609386555 0.00094122138833484465 0 0.019151991646806286 0.00071472102231903245 0 0.019270085828046856 0.0009033015328660279 0 0.019166235609386555 0.00094122138833484465 0 0.019038903409711275 0.00046052731770722432 0 0.019151991646806286 0.00071472102231903245 0 0.019270085828046856 0.0009033015328660279 0 0.01907561451191701 0.00053707919294054547 0 0.019102693316473719 0.00066774554831583487 0 0.019151991646806286 0.00071472102231903245 0 0.019270085828046856 0.0009033015328660279 0 0.01907561451191701 0.00053707919294054547 0 0.019219687307533959 0.00084066779456943826 0 0.019270085828046856 0.0009033015328660279 0 0.019102693316473719 0.00066774554831583487 0 0.01907561451191701 0.00053707919294054547 0 0.018893706051812002 0.00039140757768490406 0 0.01891875754833058 0.00031023977542289649 0 0.01907561451191701 0.00053707919294054547 0 0.018893706051812002 0.00039140757768490406 0 0.019102693316473719 0.00066774554831583487 0 0.019028228072755435 0.00057054668920109909 0 0.018893706051812002 0.00039140757768490406 0 0.019102693316473719 0.00066774554831583487 0 0.019138486845948332 0.00070562101549941395 0 0.019028228072755435 0.00057054668920109909 0 0.019102693316473719 0.00066774554831583487 0 0.019138486845948332 0.00070562101549941395 0 0.019219687307533959 0.00084066779456943826 0 0.019102693316473719 0.00066774554831583487 0 0.018736585551041358 0.00025742323467164806 0 0.018580259813630543 0.00022401970440830794 0 0.018723002891766833 0.00025765784288953015 0 0.018428784223409787 4.2297625290874334e-05 0 0.018479283866030972 0.00011927031770230265 0 0.017343557895861502 -0.00042932937231789591 0 0.018580259813630543 0.00022401970440830794 0 0.017577360730942536 -0.0003727594108203754 0 0.018736585551041358 0.00025742323467164806 0 0.018766502721075648 0.00025033329699662986 0 0.018782766803115459 0.000224518477178595 0 0.018736585551041358 0.00025742323467164806 0 0.018766502721075648 0.00025033329699662986 0 0.018580259813630543 0.00022401970440830794 0 0.018794499751827849 0.0003416673229666708 0 0.018893706051812002 0.00039140757768490406 0 0.018580259813630543 0.00022401970440830794 0 0.018893706051812002 0.00039140757768490406 0 0.018807935034660512 0.0002620743005765689 0 0.01891875754833058 0.00031023977542289649 0 0.018893706051812002 0.00039140757768490406 0 0.018580259813630543 0.00022401970440830794 0 0.018807935034660512 0.0002620743005765689 0 0.018766502721075648 0.00025033329699662986 0 0.018580259813630543 0.00022401970440830794 0 0.018807935034660512 0.0002620743005765689 0 0.01907561451191701 0.00053707919294054547 0 0.01891875754833058 0.00031023977542289649 0 0.018929836358657595 0.00019263053854694665 0 0.018807935034660512 0.0002620743005765689 0 0.01891875754833058 0.00031023977542289649 0 0.018838768540026318 0.00023500600180150296 0 0.01891875754833058 0.00031023977542289649 0 0.018838768540026318 0.00023500600180150296 0 0.018929836358657595 0.00019263053854694665 0 0.018838768540026318 0.00023500600180150296 0 0.018834611850694034 0.00018285921290864927 0 0.018929836358657595 0.00019263053854694665 0 0.018838768540026318 0.00023500600180150296 0 0.018782766803115459 0.000224518477178595 0 0.018834611850694034 0.00018285921290864927 0 0.018766502721075648 0.00025033329699662986 0 0.018838768540026318 0.00023500600180150296 0 0.018782766803115459 0.000224518477178595 0 0.018766502721075648 0.00025033329699662986 0 0.018807935034660512 0.0002620743005765689 0 0.018838768540026318 0.00023500600180150296 0 0.018736585551041358 0.00025742323467164806 0 0.018782766803115459 0.000224518477178595 0 0.018735008518084271 0.00024078585435580329 0 0.018782766803115459 0.000224518477178595 0 0.018834611850694034 0.00018285921290864927 0 0.018775537154763013 0.00017877746346945002 0 0.018806613438172064 0.00010030427715047131 0 0.018929836358657595 0.00019263053854694665 0 0.018853719636942715 -8.3005919641061541e-05 0 0.018834611850694034 0.00018285921290864927 0 0.018806613438172064 0.00010030427715047131 0 0.018929836358657595 0.00019263053854694665 0 0.018834611850694034 0.00018285921290864927 0 0.018806613438172064 0.00010030427715047131 0 0.018775537154763013 0.00017877746346945002 0 0.019038903409711275 0.00046052731770722432 0 0.018929836358657595 0.00019263053854694665 0 0.018853719636942715 -8.3005919641061541e-05 0 0.018806613438172064 0.00010030427715047131 0 0.018853719636942715 -8.3005919641061541e-05 0 0.018883342637879785 5.4702994761113643e-05 0 0.014113012363435184 -0.00070816834755536644 0 0.013826366685560566 -0.00070108103963771227 0 0.018806613438172064 0.00010030427715047131 0 0.01879042129869533 0.00020655570375440659 0 0.018883342637879785 5.4702994761113643e-05 0 0.0091515290841956698 -0.0014736970860048017 0 0.0091763921641101875 -0.0016000249304868948 0 0.0091161920710565864 -0.00151904348850079 0 0.0091515290841956698 -0.0014736970860048017 0 0.0091161920710565864 -0.00151904348850079 0 0.0089999709561221688 -0.001488073373297605 0 0.0091515290841956698 -0.0014736970860048017 0 0.0089999709561221688 -0.001488073373297605 0 0.009173166229209273 -0.0016138829221231702 0 0.0091515290841956698 -0.0014736970860048017 0 0.0093287389370655255 -0.0015777580387799192 0 0.009173166229209273 -0.0016138829221231702 0 0.014113012363435184 -0.00070816834755536644 0 0.01330861928403387 -0.00064084374146938003 0 0.01879042129869533 0.00020655570375440659 0 0.01875116177355211 0.00021767416166249687 0 0.0187047704332159 0.00025177182685710571 0 0.01875116177355211 0.00021767416166249687 0 0.018738883448438357 0.00021791215072381723 0 0.0187047704332159 0.00025177182685710571 0 0.018806613438172064 0.00010030427715047131 0 0.01879042129869533 0.00020655570375440659 0 0.018775537154763013 0.00017877746346945002 0 0.01875116177355211 0.00021767416166249687 0 0.018775537154763013 0.00017877746346945002 0 0.018738883448438357 0.00021791215072381723 0 0.01879042129869533 0.00020655570375440659 0 0.01875116177355211 0.00021767416166249687 0 0.018775537154763013 0.00017877746346945002 0 0.018782766803115459 0.000224518477178595 0 0.018775537154763013 0.00017877746346945002 0 0.018738883448438357 0.00021791215072381723 0 0.018782766803115459 0.000224518477178595 0 0.018738883448438357 0.00021791215072381723 0 0.018735008518084271 0.00024078585435580329 0 0.018738883448438357 0.00021791215072381723 0 0.01870950322775581 0.00023468133637482723 0 0.018735008518084271 0.00024078585435580329 0 0.018679361321322051 0.00023710015705893697 0 0.01870950322775581 0.00023468133637482723 0 0.0187047704332159 0.00025177182685710571 0 0.018738883448438357 0.00021791215072381723 0 0.01870950322775581 0.00023468133637482723 0 0.0187047704332159 0.00025177182685710571 0 0.013482431391404603 0.00028988203907946036 0 0.01330861928403387 -0.00064084374146938003 0 0.017343557895861502 -0.00042932937231789591 0 0.017348264849472106 0.0016904155681706321 0 0.017577360730942536 -0.0003727594108203754 0 0.013482431391404603 0.00028988203907946036 0 0.018479283866030972 0.00011927031770230265 0 0.018679361321322051 0.00023710015705893697 0 0.01870950322775581 0.00023468133637482723 0 0.018723002891766833 0.00025765784288953015 0 0.01870950322775581 0.00023468133637482723 0 0.018735008518084271 0.00024078585435580329 0 0.018723002891766833 0.00025765784288953015 0 0.018736585551041358 0.00025742323467164806 0 0.018735008518084271 0.00024078585435580329 0 0.018723002891766833 0.00025765784288953015 0 0.0094386146747515373 -0.001614480741201416 0 0.0095004960347849672 -0.0015233695664463262 0 0.0094100747697849485 -0.0016338824863864113 0 0.0094386146747515373 -0.001614480741201416 0 0.0094578243093345286 -0.0016191754514106587 0 0.0095004960347849672 -0.0015233695664463262 0 0.0094386146747515373 -0.001614480741201416 0 0.0093789903833632667 -0.001618746426997397 0 0.009417704255041133 -0.001622559373567994 0 0.0094386146747515373 -0.001614480741201416 0 0.0094578243093345286 -0.0016191754514106587 0 0.009417704255041133 -0.001622559373567994 0 0.0094578243093345286 -0.0016191754514106587 0 0.0094345823767518714 -0.001680364836511765 0 0.0093775472752302257 -0.0014751185784113402 0 0.0093775472752302257 -0.0014751185784113402 0 0.0094059935831970632 -0.0018010443329478695 0 0.0091626153726677567 -0.001138036384391881 0 0.0094345823767518714 -0.001680364836511765 0 0.0093775472752302257 -0.0014751185784113402 0 0.0094059935831970632 -0.0018010443329478695 0 0.0094578243093345286 -0.0016191754514106587 0 0.0093775472752302257 -0.0014751185784113402 0 0.0095004960347849672 -0.0015233695664463262 0 0.011162666476728752 -0.0018550936176467865 0 0.0095239839355754398 -0.0012615408530722144 0 0.011856738058500099 -3.0319856088748608e-06 0 0.013760779071096933 -0.0021528653463369538 0 0.0091626153726677567 -0.001138036384391881 0 0.0093775472752302257 -0.0014751185784113402 0 0.0095004960347849672 -0.0015233695664463262 0 0.0091626153726677567 -0.001138036384391881 0 0.011162666476728752 -0.0018550936176467865 0 0.015454811012414025 -0.00069750132974732699 0 0.014801169170054099 -0.00013611921505883877 0 0.013760779071096933 -0.0021528653463369538 0 0.017029799741814497 -0.0010743609993226107 0 0.014801169170054099 -0.00013611921505883877 0 0.011856738058500099 -3.0319856088748608e-06 0 0.013760779071096933 -0.0021528653463369538 0 0.013760779071096933 -0.0021528653463369538 0 0.017029799741814497 -0.0010743609993226107 0 0.017857730911054859 -0.0018996161728155006 0 0.0095004960347849672 -0.0015233695664463262 0 0.0093769685941053477 -0.0016966584521572552 0 0.0094100747697849485 -0.0016338824863864113 0 0.017191376894997008 0.00033619863593120869 0 0.017029799741814497 -0.0010743609993226107 0 0.017873216036496869 -0.0003428465024020058 0 0.017029799741814497 -0.0010743609993226107 0 0.017514784289420538 -0.0010512204022479598 0 0.017873216036496869 -0.0003428465024020058 0 0.016662545008784301 -0.0014311382097796205 0 0.015454811012414025 -0.00069750132974732699 0 0.019927646143084267 -0.00014924889083715523 0 0.015454811012414025 -0.00069750132974732699 0 0.018616793845508968 0.00042213673216474397 0 0.018853719636942715 -8.3005919641061541e-05 0 0.017873216036496869 -0.0003428465024020058 0 0.018853719636942715 -8.3005919641061541e-05 0 0.017514784289420538 -0.0010512204022479598 0 0.017873216036496869 -0.0003428465024020058 0 0.0093769685941053477 -0.0016966584521572552 0 0.0091763921641101875 -0.0016000249304868948 0 0.0093317427702787285 -0.0016259086533101693 0 0.015454811012414025 -0.00069750132974732699 0 0.013826366685560566 -0.00070108103963771227 0 0.018853719636942715 -8.3005919641061541e-05 0 0.018908563606626412 -4.7692619537285612e-05 0 0.018883342637879785 5.4702994761113643e-05 0 0.0091763921641101875 -0.0016000249304868948 0 0.0093317427702787285 -0.0016259086533101693 0 0.0092794358435323489 -0.0015938582348444773 0 0.0093769685941053477 -0.0016966584521572552 0 0.0094100747697849485 -0.0016338824863864113 0 0.0093317427702787285 -0.0016259086533101693 0 0.0093317427702787285 -0.0016259086533101693 0 0.0093789903833632667 -0.001618746426997397 0 0.0092794358435323489 -0.0015938582348444773 0 0.0094100747697849485 -0.0016338824863864113 0 0.0093317427702787285 -0.0016259086533101693 0 0.0093789903833632667 -0.001618746426997397 0 0.0094386146747515373 -0.001614480741201416 0 0.0094100747697849485 -0.0016338824863864113 0 0.0093789903833632667 -0.001618746426997397 0 0.0093789903833632667 -0.001618746426997397 0 0.0093463093700514813 -0.0016021769962628919 0 0.009417704255041133 -0.001622559373567994 0 0.0093789903833632667 -0.001618746426997397 0 0.0093463093700514813 -0.0016021769962628919 0 0.0092794358435323489 -0.0015938582348444773 0 0.0093463093700514813 -0.0016021769962628919 0 0.0092794358435323489 -0.0015938582348444773 0 0.0092906047536925815 -0.0015645140195314346 0 0.0092794358435323489 -0.0015938582348444773 0 0.0092906047536925815 -0.0015645140195314346 0 0.0091970678332822589 -0.0015543416796992404 0 0.0092906047536925815 -0.0015645140195314346 0 0.0091970678332822589 -0.0015543416796992404 0 0.0091508700556478893 -0.0015192730941726038 0 0.0093463093700514813 -0.0016021769962628919 0 0.0092906047536925815 -0.0015645140195314346 0 0.0093830581419888388 -0.0016081261523162378 0 0.0092906047536925815 -0.0015645140195314346 0 0.009361468268965778 -0.0015659631621184572 0 0.0093830581419888388 -0.0016081261523162378 0 0.0091763921641101875 -0.0016000249304868948 0 0.0091970678332822589 -0.0015543416796992404 0 0.0091161920710565864 -0.00151904348850079 0 0.0091763921641101875 -0.0016000249304868948 0 0.0092794358435323489 -0.0015938582348444773 0 0.0091970678332822589 -0.0015543416796992404 0 0.0091161920710565864 -0.00151904348850079 0 0.0091508700556478893 -0.0015192730941726038 0 0.0089999709561221688 -0.001488073373297605 0 0.0091970678332822589 -0.0015543416796992404 0 0.0091161920710565864 -0.00151904348850079 0 0.0091508700556478893 -0.0015192730941726038 0 0.0091508700556478893 -0.0015192730941726038 0 0.0091217389928342097 -0.0014436797246936371 0 0.0089999709561221688 -0.001488073373297605 0 0.0092501732010680029 -0.0015052541644900281 0 0.0093432312813211196 -0.0015001434680918515 0 0.009361468268965778 -0.0015659631621184572 0 0.0092906047536925815 -0.0015645140195314346 0 0.0092501732010680029 -0.0015052541644900281 0 0.009361468268965778 -0.0015659631621184572 0 0.0092906047536925815 -0.0015645140195314346 0 0.0091508700556478893 -0.0015192730941726038 0 0.0092501732010680029 -0.0015052541644900281 0 0.0091508700556478893 -0.0015192730941726038 0 0.0091217389928342097 -0.0014436797246936371 0 0.0092501732010680029 -0.0015052541644900281 0 0.0091217389928342097 -0.0014436797246936371 0 0.0092501732010680029 -0.0015052541644900281 0 0.0092768719950820349 -0.0014108060638573046 0 0.0092501732010680029 -0.0015052541644900281 0 0.0093432312813211196 -0.0015001434680918515 0 0.0092768719950820349 -0.0014108060638573046 0 0.0093432312813211196 -0.0015001434680918515 0 0.0094360662177719063 -0.0015021006440980962 0 0.0092768719950820349 -0.0014108060638573046 0 0.0051634078549752044 -0.0001509034826783859 0 0.0048393137774107378 0.0001633769303286653 0 0.0052164763083578976 0.00012844163428706008 0 0.0094360662177719063 -0.0015021006440980962 0 0.0093888098503228205 -0.0015423425965275445 0 0.0094147053810797257 -0.0015981817223633895 0 0.0093432312813211196 -0.0015001434680918515 0 0.0094360662177719063 -0.0015021006440980962 0 0.0093888098503228205 -0.0015423425965275445 0 0.009361468268965778 -0.0015659631621184572 0 0.0093888098503228205 -0.0015423425965275445 0 0.0094147053810797257 -0.0015981817223633895 0 0.0093432312813211196 -0.0015001434680918515 0 0.009361468268965778 -0.0015659631621184572 0 0.0093888098503228205 -0.0015423425965275445 0 0.009361468268965778 -0.0015659631621184572 0 0.0093830581419888388 -0.0016081261523162378 0 0.0094147053810797257 -0.0015981817223633895 0 0.0093830581419888388 -0.0016081261523162378 0 0.0094147053810797257 -0.0015981817223633895 0 0.0094230486706684616 -0.0016503999749122567 0 0.0094578243093345286 -0.0016191754514106587 0 0.0094230486706684616 -0.0016503999749122567 0 0.009417704255041133 -0.001622559373567994 0 0.0094578243093345286 -0.0016191754514106587 0 0.0094345823767518714 -0.001680364836511765 0 0.0094230486706684616 -0.0016503999749122567 0 0.0093830581419888388 -0.0016081261523162378 0 0.0094230486706684616 -0.0016503999749122567 0 0.009417704255041133 -0.001622559373567994 0 0.0093463093700514813 -0.0016021769962628919 0 0.0093830581419888388 -0.0016081261523162378 0 0.009417704255041133 -0.001622559373567994 0 0.0094360662177719063 -0.0015021006440980962 0 0.0094147053810797257 -0.0015981817223633895 0 0.0094059935831970632 -0.0018010443329478695 0 0.0094147053810797257 -0.0015981817223633895 0 0.0094230486706684616 -0.0016503999749122567 0 0.0094059935831970632 -0.0018010443329478695 0 0.0094345823767518714 -0.001680364836511765 0 0.0094230486706684616 -0.0016503999749122567 0 0.0094059935831970632 -0.0018010443329478695 0 0.0072431622265749073 -0.00078900192575963573 0 0.0075543792574575318 -0.00079082154251242977 0 0.0051634078549752044 -0.0001509034826783859 0 0.0056890573914578071 0.00013165089468558365 0 0.0054293601078534669 2.0663100745152784e-07 0 0.0056890573914578071 0.00013165089468558365 0 0.0056062447680376142 6.1527999008200053e-05 0 0.0054293601078534669 2.0663100745152784e-07 0 0.0051634078549752044 -0.0001509034826783859 0 0.0054293601078534669 2.0663100745152784e-07 0 0.0052164763083578976 0.00012844163428706008 0 0.0054293601078534669 2.0663100745152784e-07 0 0.00537968110628335 0.00022671815262730095 0 0.0052164763083578976 0.00012844163428706008 0 0.0056062447680376142 6.1527999008200053e-05 0 0.0054293601078534669 2.0663100745152784e-07 0 0.0055590425346009444 9.6550815391797121e-05 0 0.0054293601078534669 2.0663100745152784e-07 0 0.0055590425346009444 9.6550815391797121e-05 0 0.00537968110628335 0.00022671815262730095 0 0.0056062447680376142 6.1527999008200053e-05 0 0.0055590425346009444 9.6550815391797121e-05 0 0.0056424271417700811 7.184651449175549e-05 0 0.0056062447680376142 6.1527999008200053e-05 0 0.0056424271417700811 7.184651449175549e-05 0 0.005796910949756668 9.5788269553479918e-05 0 0.0056424271417700811 7.184651449175549e-05 0 0.0055166958938050459 1.7701012182249454e-05 0 0.0057470351066585589 6.0195096996044696e-05 0 0.0056424271417700811 7.184651449175549e-05 0 0.005796910949756668 9.5788269553479918e-05 0 0.0057470351066585589 6.0195096996044696e-05 0 0.005285644848258708 -9.1136843651902369e-05 0 0.0053128884996583668 6.5843037443623559e-05 0 0.00530270396913136 -9.1849820094795615e-05 0 0.0056424271417700811 7.184651449175549e-05 0 0.005285644848258708 -9.1136843651902369e-05 0 0.0055166958938050459 1.7701012182249454e-05 0 0.005285644848258708 -9.1136843651902369e-05 0 0.0053128884996583668 6.5843037443623559e-05 0 0.0055166958938050459 1.7701012182249454e-05 0 0.0053128884996583668 6.5843037443623559e-05 0 0.0055166958938050459 1.7701012182249454e-05 0 0.0057470351066585589 6.0195096996044696e-05 0 0.0053128884996583668 6.5843037443623559e-05 0 0.0056287778308259633 0.00019795854738283337 0 0.0057470351066585589 6.0195096996044696e-05 0 0.0053128884996583668 6.5843037443623559e-05 0 0.0056287778308259633 0.00019795854738283337 0 0.0045141621757252993 0.00038718513087807315 0 0.0056287778308259633 0.00019795854738283337 0 0.0061297038952338647 7.4440410588278341e-05 0 0.0067615644487585376 -7.7212068454588642e-05 0 0.0056890573914578071 0.00013165089468558365 0 0.0056062447680376142 6.1527999008200053e-05 0 0.005796910949756668 9.5788269553479918e-05 0 0.0056890573914578071 0.00013165089468558365 0 0.0061297038952338647 7.4440410588278341e-05 0 0.005796910949756668 9.5788269553479918e-05 0 0.0056890573914578071 0.00013165089468558365 0 0.0061297038952338647 7.4440410588278341e-05 0 0.0067615644487585376 -7.7212068454588642e-05 0 0.0056287778308259633 0.00019795854738283337 0 0.0061297038952338647 7.4440410588278341e-05 0 0.0057470351066585589 6.0195096996044696e-05 0 0.0061297038952338647 7.4440410588278341e-05 0 0.005796910949756668 9.5788269553479918e-05 0 0.0057470351066585589 6.0195096996044696e-05 0 0.0045141621757252993 0.00038718513087807315 0 0.0045858562032480106 0.00053512851504149334 0 0.0043887873378091972 0.00065559647816588443 0 0.0043887873378091972 0.00065559647816588443 0 0.0041004468653478825 0.00089255665379606045 0 0.0039374652821637093 0.0008916744573969201 0 0.0045141621757252993 0.00038718513087807315 0 0.0043887873378091972 0.00065559647816588443 0 0.0039374652821637093 0.0008916744573969201 0 0.0045141621757252993 0.00038718513087807315 0 0.0035270199885779354 0.00091545122592444187 0 0.0039374652821637093 0.0008916744573969201 0 0.0053128884996583668 6.5843037443623559e-05 0 0.0045141621757252993 0.00038718513087807315 0 0.00530270396913136 -9.1849820094795615e-05 0 0.0044764543138825341 0.00044050011003196333 0 0.0043983105712944266 0.00048217374118932966 0 0.0056287778308259633 0.00019795854738283337 0 0.0045141621757252993 0.00038718513087807315 0 0.0050058306785869576 0.00076176722648378116 0 0.0045141621757252993 0.00038718513087807315 0 0.0050058306785869576 0.00076176722648378116 0 0.0045858562032480106 0.00053512851504149334 0 0.0066578888946832223 3.989320408574315e-05 0 0.0060336926923794283 7.9738844323744263e-05 0 0.0083668870869427151 -0.00063021164892763167 0 0.0080443369656960119 -0.00019696531200578032 0 0.0074126781791205923 -0.00041169660102877007 0 0.0080443369656960119 -0.00019696531200578032 0 0.0074126781791205923 -0.00041169660102877007 0 0.0077017055568083205 0.00010429503983131078 0 0.0094059935831970632 -0.0018010443329478695 0 0.0082319767585055902 -0.0009714214563393542 0 0.0091626153726677567 -0.001138036384391881 0 0.0067615644487585376 -7.7212068454588642e-05 0 0.0082589278604202933 -0.00077071502673885163 0 0.0082319767585055902 -0.0009714214563393542 0 0.0075543792574575318 -0.00079082154251242977 0 0.0081002994182571217 -0.0009310880799727185 0 0.0056890573914578071 0.00013165089468558365 0 0.0067615644487585376 -7.7212068454588642e-05 0 0.0082319767585055902 -0.0009714214563393542 0 0.0083668870869427151 -0.00063021164892763167 0 0.0067615644487585376 -7.7212068454588642e-05 0 0.0082589278604202933 -0.00077071502673885163 0 0.0056287778308259633 0.00019795854738283337 0 0.0050058306785869576 0.00076176722648378116 0 0.0067615644487585376 -7.7212068454588642e-05 0 0.0066578888946832223 3.989320408574315e-05 0 0.006736620504904727 -4.1356322637489962e-05 0 0.0082589278604202933 -0.00077071502673885163 0 0.0083269642137686548 -0.00042597717702561852 0 0.0082319767585055902 -0.0009714214563393542 0 0.0083668870869427151 -0.00063021164892763167 0 0.0080443369656960119 -0.00019696531200578032 0 0.0082589278604202933 -0.00077071502673885163 0 0.0080443369656960119 -0.00019696531200578032 0 0.0083269642137686548 -0.00042597717702561852 0 0.0082897597589950359 0.00018946386215406086 0 0.0080443369656960119 -0.00019696531200578032 0 0.0082589278604202933 -0.00077071502673885163 0 0.0083269642137686548 -0.00042597717702561852 0 0.0083269642137686548 -0.00042597717702561852 0 0.0087802977616466098 -0.00050933981120955877 0 0.0082319767585055902 -0.0009714214563393542 0 0.0083269642137686548 -0.00042597717702561852 0 0.0087802977616466098 -0.00050933981120955877 0 0.0089302260641120276 0.00015078085171091291 0 0.0087802977616466098 -0.00050933981120955877 0 0.0091626153726677567 -0.001138036384391881 0 0.0096923636164087841 -0.00012829915410335363 0 0.0087802977616466098 -0.00050933981120955877 0 0.0096923636164087841 -0.00012829915410335363 0 0.0089302260641120276 0.00015078085171091291 0 0.0087802977616466098 -0.00050933981120955877 0 0.0082319767585055902 -0.0009714214563393542 0 0.0091626153726677567 -0.001138036384391881 0 0.011856738058500099 -3.0319856088748608e-06 0 0.0091626153726677567 -0.001138036384391881 0 0.0096923636164087841 -0.00012829915410335363 0 0.011856738058500099 -3.0319856088748608e-06 0 0.0096923636164087841 -0.00012829915410335363 0 0.010189762485417779 0.00082955914499875346 0 0.0096923636164087841 -0.00012829915410335363 0 0.0089302260641120276 0.00015078085171091291 0 0.010189762485417779 0.00082955914499875346 0 0.0089302260641120276 0.00015078085171091291 0 0.010189762485417779 0.00082955914499875346 0 0.0087425597815046999 0.00077551909301761879 0 0.010189762485417779 0.00082955914499875346 0 0.0093542352917759895 0.0017938086939944104 0 0.0087425597815046999 0.00077551909301761879 0 0.015372238731165376 -0.00020568071780135953 0 0.013926573533274964 0.00013159519210560993 0 0.016274972575365702 0.001632560541790869 0 0.013987628263229492 0.00018785942658293767 0 0.015229357454516522 0.0017367299823836451 0 0.013926573533274964 0.00013159519210560993 0 0.012778326396977988 0.00083906261084600411 0 0.011325260771041862 -0.00040123671195683519 0 0.015372238731165376 -0.00020568071780135953 0 0.013926573533274964 0.00013159519210560993 0 0.011325260771041862 -0.00040123671195683519 0 0.012419402391709246 0.00079356136808162207 0 0.0096229951518713337 0.00017213410435620098 0 0.013926573533274964 0.00013159519210560993 0 0.012778326396977988 0.00083906261084600411 0 0.013573309560440394 0.0018339049968905188 0 0.0087425597815046999 0.00077551909301761879 0 0.0082897597589950359 0.00018946386215406086 0 0.007812899399780188 0.00055629497073429149 0 0.0093542352917759895 0.0017938086939944104 0 0.0087425597815046999 0.00077551909301761879 0 0.007812899399780188 0.00055629497073429149 0 0.0083269642137686548 -0.00042597717702561852 0 0.0089302260641120276 0.00015078085171091291 0 0.0082897597589950359 0.00018946386215406086 0 0.0089302260641120276 0.00015078085171091291 0 0.0087425597815046999 0.00077551909301761879 0 0.0082897597589950359 0.00018946386215406086 0 0.0080443369656960119 -0.00019696531200578032 0 0.0077017055568083205 0.00010429503983131078 0 0.007812899399780188 0.00055629497073429149 0 0.0080443369656960119 -0.00019696531200578032 0 0.0082897597589950359 0.00018946386215406086 0 0.007812899399780188 0.00055629497073429149 0 0.0074126781791205923 -0.00041169660102877007 0 0.0077017055568083205 0.00010429503983131078 0 0.0076349172883803731 0.00035174315129962025 0 0.0096229951518713337 0.00017213410435620098 0 0.0077915197774389034 0.00026803200410049346 0 0.0077017055568083205 0.00010429503983131078 0 0.007812899399780188 0.00055629497073429149 0 0.0076349172883803731 0.00035174315129962025 0 0.011325260771041862 -0.00040123671195683519 0 0.009466763886978152 0.0018988790346531569 0 0.0076349172883803731 0.00035174315129962025 0 0.011325260771041862 -0.00040123671195683519 0 0.012159581217830501 0.0016290121193871224 0 0.009466763886978152 0.0018988790346531569 0 0.012778326396977988 0.00083906261084600411 0 0.011325260771041862 -0.00040123671195683519 0 0.012159581217830501 0.0016290121193871224 0 0.012159581217830501 0.0016290121193871224 0 0.009466763886978152 0.0018988790346531569 0 0.013361366271419926 0.0032873065627478312 0 0.0096385453076143959 0.0042010049610295202 0 0.009466763886978152 0.0018988790346531569 0 0.0077585398061388961 0.002836746530852616 0 0.0096385453076143959 0.0042010049610295202 0 0.009466763886978152 0.0018988790346531569 0 0.013361366271419926 0.0032873065627478312 0 0.012387821632084895 0.0036702402742222738 0 0.013354127112134748 0.003307844296398283 0 0.013361366271419926 0.0032873065627478312 0 0.014106915422558384 0.0029596517211371424 0 0.013573309560440394 0.0018339049968905188 0 0.014277178425578777 0.002923286486162387 0 0.014106915422558384 0.0029596517211371424 0 0.014398876342008092 0.0021286775065680365 0 0.013926573533274964 0.00013159519210560993 0 0.014398876342008092 0.0021286775065680365 0 0.013573309560440394 0.0018339049968905188 0 0.014106915422558384 0.0029596517211371424 0 0.014398876342008092 0.0021286775065680365 0 0.013573309560440394 0.0018339049968905188 0 0.012159581217830501 0.0016290121193871224 0 0.013361366271419926 0.0032873065627478312 0 0.013573309560440394 0.0018339049968905188 0 0.012778326396977988 0.00083906261084600411 0 0.012159581217830501 0.0016290121193871224 0 0.013573309560440394 0.0018339049968905188 0 0.0058103507662451617 0.0018908183412472367 0 0.0060144337721310418 0.0026862670834280969 0 0.0065104981406497219 0.0020774179406268375 0 0.0058103507662451617 0.0018908183412472367 0 0.0065104981406497219 0.0020774179406268375 0 0.0060278438669153483 0.0010004446682453931 0 0.0055216737176190817 0.0021712310209779503 0 0.0053991201696829121 0.0016336521870556082 0 0.0058103507662451617 0.0018908183412472367 0 0.0055216737176190817 0.0021712310209779503 0 0.0058103507662451617 0.0018908183412472367 0 0.0060144337721310418 0.0026862670834280969 0 0.0067055861576828983 0.0030216498196205359 0 0.0060144337721310418 0.0026862670834280969 0 0.0065104981406497219 0.0020774179406268375 0 0.0067055861576828983 0.0030216498196205359 0 0.0077585398061388961 0.002836746530852616 0 0.0065104981406497219 0.0020774179406268375 0 0.009466763886978152 0.0018988790346531569 0 0.0077585398061388961 0.002836746530852616 0 0.0073264418859836575 0.0015679044542066161 0 0.0077585398061388961 0.002836746530852616 0 0.0073264418859836575 0.0015679044542066161 0 0.0065104981406497219 0.0020774179406268375 0 0.0073264418859836575 0.0015679044542066161 0 0.0065104981406497219 0.0020774179406268375 0 0.0060278438669153483 0.0010004446682453931 0 0.009466763886978152 0.0018988790346531569 0 0.0073264418859836575 0.0015679044542066161 0 0.0076349172883803731 0.00035174315129962025 0 0.0073264418859836575 0.0015679044542066161 0 0.0076349172883803731 0.00035174315129962025 0 0.0060278438669153483 0.0010004446682453931 0 0.0076349172883803731 0.00035174315129962025 0 0.0060278438669153483 0.0010004446682453931 0 0.0057502247410013401 0.00018384650584718344 0 0.0060278438669153483 0.0010004446682453931 0 0.0054863265963782677 0.0011178146852148468 0 0.0052350223183432569 0.00065818670220410829 0 0.0060278438669153483 0.0010004446682453931 0 0.0052350223183432569 0.00065818670220410829 0 0.0057502247410013401 0.00018384650584718344 0 0.0058103507662451617 0.0018908183412472367 0 0.0060278438669153483 0.0010004446682453931 0 0.0054863265963782677 0.0011178146852148468 0 0.0053991201696829121 0.0016336521870556082 0 0.0058103507662451617 0.0018908183412472367 0 0.0054863265963782677 0.0011178146852148468 0 0.0050538372100899101 0.00092610873903080566 0 0.0054863265963782677 0.0011178146852148468 0 0.0052350223183432569 0.00065818670220410829 0 0.0052350223183432569 0.00065818670220410829 0 0.0049920552533852681 0.00060638565231277441 0 0.0057502247410013401 0.00018384650584718344 0 0.0049996217169262685 0.00075892526071744105 0 0.0052350223183432569 0.00065818670220410829 0 0.0048245864489112975 0.00073961398707734583 0 0.0052350223183432569 0.00065818670220410829 0 0.0049920552533852681 0.00060638565231277441 0 0.0048245864489112975 0.00073961398707734583 0 0.0060336926923794283 7.9738844323744263e-05 0 0.0057632576586281251 0.00016371415477998207 0 0.0074126781791205923 -0.00041169660102877007 0 0.0076349172883803731 0.00035174315129962025 0 0.0057502247410013401 0.00018384650584718344 0 0.0049920552533852681 0.00060638565231277441 0 0.0057502247410013401 0.00018384650584718344 0 0.00477565793475976 0.00071023387542061426 0 0.0045858562032480106 0.00053512851504149334 0 0.0057502247410013401 0.00018384650584718344 0 0.00477565793475976 0.00071023387542061426 0 0.0045858562032480106 0.00053512851504149334 0 0.00477565793475976 0.00071023387542061426 0 0.0043887873378091972 0.00065559647816588443 0 0.00477565793475976 0.00071023387542061426 0 0.0042543416857407307 0.00089019526273684236 0 0.0042640758899575972 0.00095051833007138843 0 0.0042543416857407307 0.00089019526273684236 0 0.0043887873378091972 0.00065559647816588443 0 0.0041004468653478825 0.00089255665379606045 0 0.00477565793475976 0.00071023387542061426 0 0.0042543416857407307 0.00089019526273684236 0 0.0043887873378091972 0.00065559647816588443 0 0.0049920552533852681 0.00060638565231277441 0 0.0048245864489112975 0.00073961398707734583 0 0.0042640758899575972 0.00095051833007138843 0 0.0047372637404568896 0.0011866644208777966 0 0.0048245864489112975 0.00073961398707734583 0 0.0042640758899575972 0.00095051833007138843 0 0.0049920552533852681 0.00060638565231277441 0 0.00477565793475976 0.00071023387542061426 0 0.0042640758899575972 0.00095051833007138843 0 0.0042543416857407307 0.00089019526273684236 0 0.0042640758899575972 0.00095051833007138843 0 0.0040801834646203338 0.0010127298436375951 0 0.0047372637404568896 0.0011866644208777966 0 0.0042640758899575972 0.00095051833007138843 0 0.0040960194477733334 0.0017236764960744859 0 0.0042640758899575972 0.00095051833007138843 0 0.0040960194477733334 0.0017236764960744859 0 0.0026903802251545981 0.0027305615967949328 0 0.0040960194477733334 0.0017236764960744859 0 0.0026903802251545981 0.0027305615967949328 0 0.0044379657752820698 0.0024764012330372584 0 0.0041187042686588269 0.001058357068053182 0 0.0034057864313716026 0.0019538885129663387 0 0.0042640758899575972 0.00095051833007138843 0 0.0040801834646203338 0.0010127298436375951 0 0.0040529062428181304 0.0010980275329180102 0 0.0040801834646203338 0.0010127298436375951 0 0.0040529062428181304 0.0010980275329180102 0 0.0038140572257564947 0.0012093048630002336 0 0.0040529062428181304 0.0010980275329180102 0 0.0038140572257564947 0.0012093048630002336 0 0.0036490981229067589 0.0013756702872786992 0 0.0026903802251545981 0.0027305615967949328 0 0.0022102524102622393 0.0032671617603088287 0 0.0044379657752820698 0.0024764012330372584 0 0.0022616654981031103 0.0032935600877774885 0 0.0021473758226953823 0.003451161132541479 0 0.0042543416857407307 0.00089019526273684236 0 0.0041004468653478825 0.00089255665379606045 0 0.0038862127874224649 0.0010896571024202432 0 0.0041004468653478825 0.00089255665379606045 0 0.0038862127874224649 0.0010896571024202432 0 0.0037372503050306532 0.0011435209403667991 0 0.0042543416857407307 0.00089019526273684236 0 0.0039377990723107542 0.0010934185260257909 0 0.0038862127874224649 0.0010896571024202432 0 0.0042543416857407307 0.00089019526273684236 0 0.0040801834646203338 0.0010127298436375951 0 0.0039377990723107542 0.0010934185260257909 0 0.0040801834646203338 0.0010127298436375951 0 0.0039377990723107542 0.0010934185260257909 0 0.0038140572257564947 0.0012093048630002336 0 0.0039377990723107542 0.0010934185260257909 0 0.0038140572257564947 0.0012093048630002336 0 0.0036945343116794207 0.0012360924639800302 0 0.0039377990723107542 0.0010934185260257909 0 0.0036945343116794207 0.0012360924639800302 0 0.0038862127874224649 0.0010896571024202432 0 0.0036945343116794207 0.0012360924639800302 0 0.0038862127874224649 0.0010896571024202432 0 0.0035669848765145671 0.0012722960106762344 0 0.0038862127874224649 0.0010896571024202432 0 0.0035669848765145671 0.0012722960106762344 0 0.0037372503050306532 0.0011435209403667991 0 0.0032351417934128896 0.0014095992608893649 0 0.0035669848765145671 0.0012722960106762344 0 0.0034212713331767028 0.00135052067169012 0 0.0032351417934128896 0.0014095992608893649 0 0.0035669848765145671 0.0012722960106762344 0 0.0033891337252721166 0.0013758949553266311 0 0.0036945343116794207 0.0012360924639800302 0 0.0035669848765145671 0.0012722960106762344 0 0.0034212713331767028 0.00135052067169012 0 0.0034212713331767028 0.00135052067169012 0 0.0035634793604455667 0.001363840131721033 0 0.003391775054161752 0.0013906726482275599 0 0.0036945343116794207 0.0012360924639800302 0 0.0034212713331767028 0.00135052067169012 0 0.0035634793604455667 0.001363840131721033 0 0.0038140572257564947 0.0012093048630002336 0 0.0035634793604455667 0.001363840131721033 0 0.0036490981229067589 0.0013756702872786992 0 0.0038140572257564947 0.0012093048630002336 0 0.0036945343116794207 0.0012360924639800302 0 0.0035634793604455667 0.001363840131721033 0 0.0035634793604455667 0.001363840131721033 0 0.003391775054161752 0.0013906726482275599 0 0.0034544991814832457 0.0014405472572050603 0 0.003391775054161752 0.0013906726482275599 0 0.0034544991814832457 0.0014405472572050603 0 0.0034947606703391982 0.0013428403413839548 0 0.003391775054161752 0.0013906726482275599 0 0.0034947606703391982 0.0013428403413839548 0 0.0031728370344061303 0.0014616320279034099 0 0.0034212713331767028 0.00135052067169012 0 0.003391775054161752 0.0013906726482275599 0 0.0030842286279966469 0.0014219406629496967 0 0.0032351417934128896 0.0014095992608893649 0 0.0034212713331767028 0.00135052067169012 0 0.0030842286279966469 0.0014219406629496967 0 0.003391775054161752 0.0013906726482275599 0 0.0030842286279966469 0.0014219406629496967 0 0.0031728370344061303 0.0014616320279034099 0 0.0030842286279966469 0.0014219406629496967 0 0.0027415359455750859 0.0015169417174696988 0 0.0029023706444526614 0.0015104450115133372 0 0.0030842286279966469 0.0014219406629496967 0 0.0027415359455750859 0.0015169417174696988 0 0.0026878986267939681 0.0015594776125869767 0 0.0032351417934128896 0.0014095992608893649 0 0.0030842286279966469 0.0014219406629496967 0 0.0029023706444526614 0.0015104450115133372 0 0.0022102524102622393 0.0032671617603088287 0 0.0018808351938006571 0.003320984784836287 0 0.00046237705573127564 0.0030369168771673767 0 0.0022102524102622393 0.0032671617603088287 0 0.00046237705573127564 0.0030369168771673767 0 -7.9647716308415921e-05 0.0036825815486768291 0 0.0026903802251545981 0.0027305615967949328 0 0.0022102524102622393 0.0032671617603088287 0 0.0018808351938006571 0.003320984784836287 0 0.0034057864313716026 0.0019538885129663387 0 0.0026919159169026883 0.0023376650986347432 0 0.0040529062428181304 0.0010980275329180102 0 0.0036490981229067589 0.0013756702872786992 0 0.0034904904055493256 0.0015634551068221768 0 0.0035634793604455667 0.001363840131721033 0 0.0036490981229067589 0.0013756702872786992 0 0.0034544991814832457 0.0014405472572050603 0 0.0036490981229067589 0.0013756702872786992 0 0.0034904904055493256 0.0015634551068221768 0 0.0034544991814832457 0.0014405472572050603 0 0.0026919159169026883 0.0023376650986347432 0 0.002327753913102304 0.00070940682517156204 0 0.0034904904055493256 0.0015634551068221768 0 0.0022631749210294048 0.00068732376498411402 0 0.0031639594492115092 0.0012436971085940749 0 0.0034904904055493256 0.0015634551068221768 0 0.0034544991814832457 0.0014405472572050603 0 0.0031639594492115092 0.0012436971085940749 0 0.0034544991814832457 0.0014405472572050603 0 0.0031639594492115092 0.0012436971085940749 0 0.0034947606703391982 0.0013428403413839548 0 0.0018808351938006571 0.003320984784836287 0 0.0010171973804347489 0.0020601121899801525 0 0.0022631749210294048 0.00068732376498411402 0 0.0018808351938006571 0.003320984784836287 0 0.0010171973804347489 0.0020601121899801525 0 0.00046237705573127564 0.0030369168771673767 0 0.0010171973804347489 0.0020601121899801525 0 0.00060690960125572304 0.00027033127313665735 0 -0.00023258457648115086 0.0015600543146461574 0 0.0010171973804347489 0.0020601121899801525 0 0.00060690960125572304 0.00027033127313665735 0 0.0022631749210294048 0.00068732376498411402 0 -0.0036696895192603871 6.501746667826544e-05 0 -0.00043946551446066021 0.0017764972183642296 0 -0.0067498017624230983 5.3447033761254011e-05 0 -0.0074104772080875667 0.0013920948870292937 0 -0.0084744163122125616 0.0010002927519142816 0 -0.0067498017624230983 5.3447033761254011e-05 0 -0.0074104772080875667 0.0013920948870292937 0 -0.0051692714398315198 0.0011998832727744845 0 -0.0084744163122125616 0.0010002927519142816 0 -0.0092718179284255152 9.2720102058291864e-05 0 -0.0085025520750272015 0.0017212044403801493 0 0.00047287094151319056 0.002186914673280727 0 0.00046038763666187186 0.0022621375920619988 0 0.00045449977140602307 0.0021603548808400729 0 -0.00043946551446066021 0.0017764972183642296 0 -0.0076702061610706843 0.00073324238938127239 0 -0.0067498017624230983 5.3447033761254011e-05 0 -0.0084744163122125616 0.0010002927519142816 0 -0.0092718179284255152 9.2720102058291864e-05 0 0.00047287094151319056 0.002186914673280727 0 0.00046038763666187186 0.0022621375920619988 0 0.00052553130798012315 0.0021714860974513914 0 -0.0080275622512719254 0.0012202235603368525 0 -0.0076702061610706843 0.00073324238938127239 0 -0.0074104772080875667 0.0013920948870292937 0 -0.0084744163122125616 0.0010002927519142816 0 -0.0085259421696986838 0.0017332252162167339 0 0.00060690960125572304 0.00027033127313665735 0 0.0033290332645738345 0.00052219677734534255 0 0.0022631749210294048 0.00068732376498411402 0 0.0033290332645738345 0.00052219677734534255 0 0.0022631749210294048 0.00068732376498411402 0 0.0031639594492115092 0.0012436971085940749 0 0.0033290332645738345 0.00052219677734534255 0 0.0031639594492115092 0.0012436971085940749 0 0.0034947606703391982 0.0013428403413839548 0 0.0037497884900737099 0.0018925469085670174 0 0.0034947606703391982 0.0013428403413839548 0 0.0031290279254562589 0.0019726373681448937 0 -0.00043946551446066021 0.0017764972183642296 0 0.0023806776013469378 0.0020924323888664165 0 0.0034947606703391982 0.0013428403413839548 0 0.0031728370344061303 0.0014616320279034099 0 0.0031290279254562589 0.0019726373681448937 0 -0.00043946551446066021 0.0017764972183642296 0 0.0031709328150512869 0.0018131651006244856 0 0.0023806776013469378 0.0020924323888664165 0 0.0015735259486290595 0.0019723601469911183 0 0.0031290279254562589 0.0019726373681448937 0 0.0026878986267939681 0.0015594776125869767 0 0.0017433728416296936 0.0019173252325793567 0 0.0027415359455750859 0.0015169417174696988 0 0.0026878986267939681 0.0015594776125869767 0 0.0021606779417836799 0.0016458102140640034 0 0.0031728370344061303 0.0014616320279034099 0 0.0031290279254562589 0.0019726373681448937 0 0.0026878986267939681 0.0015594776125869767 0 0.0030842286279966469 0.0014219406629496967 0 0.0031728370344061303 0.0014616320279034099 0 0.0026878986267939681 0.0015594776125869767 0 0.0026878986267939681 0.0015594776125869767 0 0.0017433728416296936 0.0019173252325793567 0 0.0021606779417836799 0.0016458102140640034 0 0.00073421222022046419 0.002251634737655806 0 0.00083030469133404234 0.0020558406246056478 0 0.00059830725642706422 0.0021208340714001942 0 0.00073421222022046419 0.002251634737655806 0 0.0011601735759686348 0.001999569277142585 0 0.0017433728416296936 0.0019173252325793567 0 0.00073421222022046419 0.002251634737655806 0 0.00083030469133404234 0.0020558406246056478 0 0.0011601735759686348 0.001999569277142585 0 0.00083030469133404234 0.0020558406246056478 0 0.00067093539400842072 0.0021546452061167233 0 0.0011601735759686348 0.001999569277142585 0 0.00046038763666187186 0.0022621375920619988 0 0.00073421222022046419 0.002251634737655806 0 0.00052553130798012315 0.0021714860974513914 0 0.00073421222022046419 0.002251634737655806 0 0.00052553130798012315 0.0021714860974513914 0 0.00059830725642706422 0.0021208340714001942 0 0.00047287094151319056 0.002186914673280727 0 0.00052553130798012315 0.0021714860974513914 0 0.00045859943676644508 0.0021844784434624539 0 0.00052553130798012315 0.0021714860974513914 0 0.00046512743593488305 0.0021934272635773513 0 0.00045859943676644508 0.0021844784434624539 0 0.00052553130798012315 0.0021714860974513914 0 0.00059830725642706422 0.0021208340714001942 0 0.00046512743593488305 0.0021934272635773513 0 0.00059830725642706422 0.0021208340714001942 0 0.00046512743593488305 0.0021934272635773513 0 0.0003760071216806794 0.0022888558032316607 0 0.00046512743593488305 0.0021934272635773513 0 0.0003760071216806794 0.0022888558032316607 0 0.00040580295262219492 0.0022673082096164514 0 0.00046512743593488305 0.0021934272635773513 0 0.00045859943676644508 0.0021844784434624539 0 0.00040580295262219492 0.0022673082096164514 0 0.00083030469133404234 0.0020558406246056478 0 0.00052501903130395633 0.0022058101068896242 0 0.00067093539400842072 0.0021546452061167233 0 0.00083030469133404234 0.0020558406246056478 0 0.00059830725642706422 0.0021208340714001942 0 0.00052501903130395633 0.0022058101068896242 0 0.00059830725642706422 0.0021208340714001942 0 0.00052501903130395633 0.0022058101068896242 0 0.0003760071216806794 0.0022888558032316607 0 0.00052501903130395633 0.0022058101068896242 0 0.00021888974829452573 0.0024204996062799139 0 0.00023698180481519887 0.0023515559465678206 0 0.00052501903130395633 0.0022058101068896242 0 0.00021888974829452573 0.0024204996062799139 0 0.0003760071216806794 0.0022888558032316607 0 0.0003760071216806794 0.0022888558032316607 0 0.00030394098907692604 0.0024086094562473211 0 0.00040580295262219492 0.0022673082096164514 0 0.0003760071216806794 0.0022888558032316607 0 0.00030394098907692604 0.0024086094562473211 0 0.00016767728300340017 0.002527498191040103 0 0.00021888974829452573 0.0024204996062799139 0 0.0003760071216806794 0.0022888558032316607 0 0.00016767728300340017 0.002527498191040103 0 0.00030394098907692604 0.0024086094562473211 0 0.00040626045835767075 0.0024308419911742559 0 0.00018069591852194514 0.0026149174680695562 0 -0.012772153288613666 0.0028171575786544497 0 -0.010415037267802607 0.0019055943918616326 0 -0.012402084437693556 -0.0023016938238975019 0 0.00030394098907692604 0.0024086094562473211 0 0.00040626045835767075 0.0024308419911742559 0 0.00040580295262219492 0.0022673082096164514 0 -0.0079335566480707095 0.003838046154403254 0 -0.0077384519858873227 0.0027206469674626713 0 -0.0067372401635897895 0.0031456924600745304 0 -0.0095607982831407683 0.0026457859574742842 0 -0.0076702061610706843 0.00073324238938127239 0 -0.0079335566480707095 0.003838046154403254 0 -0.0077384519858873227 0.0027206469674626713 0 -0.0085259421696986838 0.0017332252162167339 0 -0.0077384519858873227 0.0027206469674626713 0 -0.0067372401635897895 0.0031456924600745304 0 -0.0065752647448901694 0.0021343650447217788 0 -0.0077384519858873227 0.0027206469674626713 0 -0.007595322945888501 0.0019907806559150113 0 -0.0065752647448901694 0.0021343650447217788 0 -0.0074104772080875667 0.0013920948870292937 0 -0.007595322945888501 0.0019907806559150113 0 -0.0065752647448901694 0.0021343650447217788 0 -0.0077384519858873227 0.0027206469674626713 0 -0.007595322945888501 0.0019907806559150113 0 -0.0085259421696986838 0.0017332252162167339 0 -0.0074104772080875667 0.0013920948870292937 0 -0.007595322945888501 0.0019907806559150113 0 -0.0085259421696986838 0.0017332252162167339 0 -0.0059943116440359309 0.0024487155261260093 0 -0.0076702061610706843 0.00073324238938127239 0 0.00040626045835767075 0.0024308419911742559 0 0.00045449977140602307 0.0021603548808400729 0 0.00040580295262219492 0.0022673082096164514 0 0.00047287094151319056 0.002186914673280727 0 0.00045449977140602307 0.0021603548808400729 0 0.00045859943676644508 0.0021844784434624539 0 0.00045449977140602307 0.0021603548808400729 0 0.00045859943676644508 0.0021844784434624539 0 0.00040580295262219492 0.0022673082096164514 0 0.0011139769171726961 0.0023581943355713312 0 0.0037220935222784506 0.0023534823117885781 0 0.0030796614119587579 0.0010068525066375853 0 0.0033076132751352584 0.00091617197440558521 0 0.0032562053471320539 0.0011891047293742852 0 0.0034672704656377139 0.0043107751282915703 0 0.0037463207796325716 0.0035848769322989926 0 0.0032322262951047119 0.0038043383744108803 0 -0.00039986912362341534 0.0018330306564490744 0 -8.7451428223612277e-05 0.0019530933513841734 0 -0.00029141119744977684 0.0022220343590810729 0 0.0011139769171726961 0.0023581943355713312 0 0.0007317814245745522 0.001836368972780933 0 0.0030796614119587579 0.0010068525066375853 0 0.0033076132751352584 0.00091617197440558521 0 0.0030734411621862129 0.00082923188358025978 0 -0.00037768539631087566 0.0024417161226660861 0 0.00015478193591354821 0.0021220452278367307 0 -0.00025210314243848862 0.0025332079391771675 0 0.00023698180481519887 0.0023515559465678206 0 0.00015478193591354821 0.0021220452278367307 0 -0.00025210314243848862 0.0025332079391771675 0 0.0007317814245745522 0.001836368972780933 0 -0.00060539146686788305 0.0024170303132064132 0 0.00021888974829452573 0.0024204996062799139 0 0.00023698180481519887 0.0023515559465678206 0 -2.4860264773372917e-05 0.002553165647731853 0 0.00023698180481519887 0.0023515559465678206 0 -2.4860264773372917e-05 0.002553165647731853 0 -0.00025210314243848862 0.0025332079391771675 0 0.00023698180481519887 0.0023515559465678206 0 0.00067093539400842072 0.0021546452061167233 0 0.00015478193591354821 0.0021220452278367307 0 0.00052501903130395633 0.0022058101068896242 0 0.00023698180481519887 0.0023515559465678206 0 0.00067093539400842072 0.0021546452061167233 0 0.0030796614119587579 0.0010068525066375853 0 0.002865059322990901 0.0010254917473509746 0 0.0031038916650239323 0.0011465036845318955 0 0.0030796614119587579 0.0010068525066375853 0 0.0030734411621862129 0.00082923188358025978 0 0.002865059322990901 0.0010254917473509746 0 0.0007317814245745522 0.001836368972780933 0 0.0016496131325248874 0.0015584665909983678 0 0.002865059322990901 0.0010254917473509746 0 0.0026519497839567739 0.0015650551748412303 0 0.0029149276433071093 0.0014278601386126073 0 0.002865059322990901 0.0010254917473509746 0 0.0029149276433071093 0.0014278601386126073 0 0.003065677534288166 0.0013156884315388207 0 0.002865059322990901 0.0010254917473509746 0 0.003065677534288166 0.0013156884315388207 0 0.0031038916650239323 0.0011465036845318955 0 0.00015478193591354821 0.0021220452278367307 0 0.0017433728416296936 0.0019173252325793567 0 0.0021606779417836799 0.0016458102140640034 0 0.00067093539400842072 0.0021546452061167233 0 0.00015478193591354821 0.0021220452278367307 0 0.0011601735759686348 0.001999569277142585 0 0.002865059322990901 0.0010254917473509746 0 0.0026519497839567739 0.0015650551748412303 0 0.0021606779417836799 0.0016458102140640034 0 0.0016496131325248874 0.0015584665909983678 0 0.0019826350458306725 0.0017036483581021188 0 0.00015478193591354821 0.0021220452278367307 0 0.0011601735759686348 0.001999569277142585 0 0.0017433728416296936 0.0019173252325793567 0 0.0026519497839567739 0.0015650551748412303 0 0.002929243522585515 0.0015827553122907897 0 0.0027815618268173564 0.0016016955642932868 0 0.0026519497839567739 0.0015650551748412303 0 0.0025442959599055069 0.0016075909366065806 0 0.0027815618268173564 0.0016016955642932868 0 0.0026519497839567739 0.0015650551748412303 0 0.0021606779417836799 0.0016458102140640034 0 0.0025442959599055069 0.0016075909366065806 0 0.0027415359455750859 0.0015169417174696988 0 0.0021606779417836799 0.0016458102140640034 0 0.0025442959599055069 0.0016075909366065806 0 0.0029149276433071093 0.0014278601386126073 0 0.003035908438253806 0.0015040055549524235 0 0.003065677534288166 0.0013156884315388207 0 0.0026519497839567739 0.0015650551748412303 0 0.0029149276433071093 0.0014278601386126073 0 0.002929243522585515 0.0015827553122907897 0 0.0029149276433071093 0.0014278601386126073 0 0.002929243522585515 0.0015827553122907897 0 0.003035908438253806 0.0015040055549524235 0 0.002929243522585515 0.0015827553122907897 0 0.003035908438253806 0.0015040055549524235 0 0.0030960140126676805 0.0015883490625011531 0 0.0031595666807515874 0.0015323953977371236 0 0.003065677534288166 0.0013156884315388207 0 0.0032562053471320539 0.0011891047293742852 0 0.0033369399425111431 0.0021216851126029893 0 0.0037220935222784506 0.0023534823117885781 0 0.003035908438253806 0.0015040055549524235 0 0.0031595666807515874 0.0015323953977371236 0 0.0030960140126676805 0.0015883490625011531 0 0.0036094048149209667 0.0026245698571926122 0 0.0035751991566930082 0.0032979458991757278 0 0.003249969996384583 0.0021656860621684262 0 0.003035908438253806 0.0015040055549524235 0 0.0031595666807515874 0.0015323953977371236 0 0.003065677534288166 0.0013156884315388207 0 0.003065677534288166 0.0013156884315388207 0 0.0031038916650239323 0.0011465036845318955 0 0.0032562053471320539 0.0011891047293742852 0 0.0030796614119587579 0.0010068525066375853 0 0.0031038916650239323 0.0011465036845318955 0 0.0032562053471320539 0.0011891047293742852 0 0.0037463207796325716 0.0035848769322989926 0 0.003343820913088112 0.0034282547773346801 0 0.0032322262951047119 0.0038043383744108803 0 0.0035751991566930082 0.0032979458991757278 0 0.0034261175532554009 0.0031432551430211285 0 0.003343820913088112 0.0034282547773346801 0 0.0037463207796325716 0.0035848769322989926 0 0.0035751991566930082 0.0032979458991757278 0 0.003343820913088112 0.0034282547773346801 0 0.0035751991566930082 0.0032979458991757278 0 0.003676648116686213 0.0028185078033218527 0 0.0043485464532110009 0.0024789312258799638 0 0.0035751991566930082 0.0032979458991757278 0 0.0034261175532554009 0.0031432551430211285 0 0.003676648116686213 0.0028185078033218527 0 0.0036094048149209667 0.0026245698571926122 0 0.0037463207796325716 0.0035848769322989926 0 0.0035751991566930082 0.0032979458991757278 0 0.0035925876587911028 0.0031814231725725691 0 0.0038161303627352681 0.0022931568562519601 0 0.0034261175532554009 0.0031432551430211285 0 0.003676648116686213 0.0028185078033218527 0 0.0032968461801021229 0.0029401066793175016 0 0.003676648116686213 0.0028185078033218527 0 0.0037935028541250656 0.0022267428291307041 0 0.0032230178927253206 0.0025577665096307152 0 0.0037935028541250656 0.0022267428291307041 0 0.0043485464532110009 0.0024789312258799638 0 0.0042670474001850981 0.0019259145123363326 0 0.003676648116686213 0.0028185078033218527 0 0.0037935028541250656 0.0022267428291307041 0 0.0043485464532110009 0.0024789312258799638 0 0.0033369399425111431 0.0021216851126029893 0 0.0032924072470540146 0.0017581949354502045 0 0.0036094048149209667 0.0026245698571926122 0 0.003249969996384583 0.0021656860621684262 0 0.003257749032301993 0.0016858408198087021 0 0.0031595666807515874 0.0015323953977371236 0 0.003257749032301993 0.0016858408198087021 0 0.0030960140126676805 0.0015883490625011531 0 0.003249969996384583 0.0021656860621684262 0 0.003257749032301993 0.0016858408198087021 0 0.0031283668197357815 0.0014080080559133389 0 0.0038161303627352681 0.0022931568562519601 0 0.0040909086439595756 0.0013053498730964562 0 0.0043485464532110009 0.0024789312258799638 0 0.0042670474001850981 0.0019259145123363326 0 0.005033772569193207 0.0012219264438348477 0 0.0043811375144417689 0.0014301380638236637 0 0.0042670474001850981 0.0019259145123363326 0 0.005033772569193207 0.0012219264438348477 0 0.0043811375144417689 0.0014301380638236637 0 0.0038905746314906123 0.0015701345716850213 0 0.0043545007893122075 0.00099755794649909572 0 0.0043811375144417689 0.0014301380638236637 0 0.0038905746314906123 0.0015701345716850213 0 0.0042670474001850981 0.0019259145123363326 0 0.0038905746314906123 0.0015701345716850213 0 0.0037146689339023287 0.0010449943919486645 0 0.0033570559106409249 0.0014605766813171077 0 0.0037935028541250656 0.0022267428291307041 0 0.0038905746314906123 0.0015701345716850213 0 0.0033097101075918122 0.0019792368550009512 0 0.0037935028541250656 0.0022267428291307041 0 0.0038905746314906123 0.0015701345716850213 0 0.0042670474001850981 0.0019259145123363326 0 0.0032351417934128896 0.0014095992608893649 0 0.0029023706444526614 0.0015104450115133372 0 0.0030833239393874266 0.0015217002720303539 0 0.0029023706444526614 0.0015104450115133372 0 0.0027815618268173564 0.0016016955642932868 0 0.0030833239393874266 0.0015217002720303539 0 0.0027415359455750859 0.0015169417174696988 0 0.0025442959599055069 0.0016075909366065806 0 0.0029023706444526614 0.0015104450115133372 0 0.0025442959599055069 0.0016075909366065806 0 0.0029023706444526614 0.0015104450115133372 0 0.0027815618268173564 0.0016016955642932868 0 0.002929243522585515 0.0015827553122907897 0 0.0027815618268173564 0.0016016955642932868 0 0.002949485115043924 0.0016016258780987992 0 0.0027815618268173564 0.0016016955642932868 0 0.0030833239393874266 0.0015217002720303539 0 0.002949485115043924 0.0016016258780987992 0 0.0030833239393874266 0.0015217002720303539 0 0.0030861350115238468 0.0016071255566826848 0 0.002949485115043924 0.0016016258780987992 0 0.002929243522585515 0.0015827553122907897 0 0.0030861350115238468 0.0016071255566826848 0 0.002949485115043924 0.0016016258780987992 0 0.002929243522585515 0.0015827553122907897 0 0.0030861350115238468 0.0016071255566826848 0 0.0030960140126676805 0.0015883490625011531 0 0.003257749032301993 0.0016858408198087021 0 0.0030861350115238468 0.0016071255566826848 0 0.0030960140126676805 0.0015883490625011531 0 0.003257749032301993 0.0016858408198087021 0 0.0030861350115238468 0.0016071255566826848 0 0.0032701251295673469 0.0015009940384808737 0 0.003257749032301993 0.0016858408198087021 0 0.0032701251295673469 0.0015009940384808737 0 0.003334193831489135 0.0014122158438932453 0 0.003257749032301993 0.0016858408198087021 0 0.003334193831489135 0.0014122158438932453 0 0.0031283668197357815 0.0014080080559133389 0 0.0030833239393874266 0.0015217002720303539 0 0.0030861350115238468 0.0016071255566826848 0 0.0032701251295673469 0.0015009940384808737 0 0.0030833239393874266 0.0015217002720303539 0 0.0032701251295673469 0.0015009940384808737 0 0.0033891337252721166 0.0013758949553266311 0 0.0032701251295673469 0.0015009940384808737 0 0.0033891337252721166 0.0013758949553266311 0 0.003525246657172099 0.0012638376956543786 0 0.0032351417934128896 0.0014095992608893649 0 0.0030833239393874266 0.0015217002720303539 0 0.0033891337252721166 0.0013758949553266311 0 0.0037372503050306532 0.0011435209403667991 0 0.003525246657172099 0.0012638376956543786 0 0.0039374652821637093 0.0008916744573969201 0 0.0035669848765145671 0.0012722960106762344 0 0.0033891337252721166 0.0013758949553266311 0 0.0037372503050306532 0.0011435209403667991 0 0.0033891337252721166 0.0013758949553266311 0 0.0037372503050306532 0.0011435209403667991 0 0.003525246657172099 0.0012638376956543786 0 0.003525246657172099 0.0012638376956543786 0 0.0034765126264294545 0.0011881516375555306 0 0.0039374652821637093 0.0008916744573969201 0 0.0034765126264294545 0.0011881516375555306 0 0.0035270199885779354 0.00091545122592444187 0 0.0031283668197357815 0.0014080080559133389 0 0.0032701251295673469 0.0015009940384808737 0 0.003525246657172099 0.0012638376956543786 0 0.003334193831489135 0.0014122158438932453 0 0.003525246657172099 0.0012638376956543786 0 0.0034765126264294545 0.0011881516375555306 0 0.003334193831489135 0.0014122158438932453 0 0.0034765126264294545 0.0011881516375555306 0 0.003334193831489135 0.0014122158438932453 0 0.0031283668197357815 0.0014080080559133389 0 0.0034765126264294545 0.0011881516375555306 0 0.0035270199885779354 0.00091545122592444187 0 0.0039374652821637093 0.0008916744573969201 0 0.0041004468653478825 0.00089255665379606045 0 0.0037372503050306532 0.0011435209403667991 0 0.0039374652821637093 0.0008916744573969201 0 0.0043545007893122075 0.00099755794649909572 0 0.0048451501713874185 0.00041078445684810218 0 0.0040523121200611856 0.00026053182133874505 0 0.0037146689339023287 0.0010449943919486645 0 0.0043545007893122075 0.00099755794649909572 0 0.0040523121200611856 0.00026053182133874505 0 0.0038905746314906123 0.0015701345716850213 0 0.0037146689339023287 0.0010449943919486645 0 0.0043545007893122075 0.00099755794649909572 0 0.0043545007893122075 0.00099755794649909572 0 0.005033772569193207 0.0012219264438348477 0 0.0048451501713874185 0.00041078445684810218 0 0.0043811375144417689 0.0014301380638236637 0 0.0043545007893122075 0.00099755794649909572 0 0.005033772569193207 0.0012219264438348477 0 0.00530270396913136 -9.1849820094795615e-05 0 0.005033772569193207 0.0012219264438348477 0 0.0048451501713874185 0.00041078445684810218 0 0.0043983105712944266 0.00048217374118932966 0 0.0040909086439595756 0.0013053498730964562 0 0.0052249656160218176 -4.4304993559499324e-05 0 0.0048216675509012595 0.00026244812076870204 0 0.005285644848258708 -9.1136843651902369e-05 0 0.0048451501713874185 0.00041078445684810218 0 0.0040523121200611856 0.00026053182133874505 0 0.005285644848258708 -9.1136843651902369e-05 0 0.00530270396913136 -9.1849820094795615e-05 0 0.0048451501713874185 0.00041078445684810218 0 0.0056424271417700811 7.184651449175549e-05 0 0.005285644848258708 -9.1136843651902369e-05 0 0.0056665758265859309 0.00018890245046224638 0 0.0055590425346009444 9.6550815391797121e-05 0 0.0056424271417700811 7.184651449175549e-05 0 0.0056665758265859309 0.00018890245046224638 0 0.00537968110628335 0.00022671815262730095 0 0.0052461898401496678 0.00069769781921028787 0 0.0051011112724028921 0.00039792713138911125 0 0.0055590425346009444 9.6550815391797121e-05 0 0.0056665758265859309 0.00018890245046224638 0 0.00537968110628335 0.00022671815262730095 0 0.0056665758265859309 0.00018890245046224638 0 0.00537968110628335 0.00022671815262730095 0 0.0052461898401496678 0.00069769781921028787 0 0.00537968110628335 0.00022671815262730095 0 0.0051011112724028921 0.00039792713138911125 0 0.0052164763083578976 0.00012844163428706008 0 0.0037146689339023287 0.0010449943919486645 0 0.0040523121200611856 0.00026053182133874505 0 0.00302622785100492 0.00094544349390853866 0 0.0048216675509012595 0.00026244812076870204 0 0.0041836119028975322 0.00074129210230659294 0 0.0037146689339023287 0.0010449943919486645 0 0.00302622785100492 0.00094544349390853866 0 0.0033570559106409249 0.0014605766813171077 0 0.0044822556070379885 0.00074845387360122928 0 0.0033518807412506266 0.0018797198566594378 0 0.0041836119028975322 0.00074129210230659294 0 0.0033518807412506266 0.0018797198566594378 0 0.0052461898401496678 0.00069769781921028787 0 0.0048355415214276342 0.00056760177170100013 0 0.0046944579075439028 0.0010679692862813756 0 0.0052461898401496678 0.00069769781921028787 0 0.0048355415214276342 0.00056760177170100013 0 0.0051011112724028921 0.00039792713138911125 0 0.0048355415214276342 0.00056760177170100013 0 0.0051011112724028921 0.00039792713138911125 0 0.0048393137774107378 0.0001633769303286653 0 0.0072431622265749073 -0.00078900192575963573 0 0.0062299840294437782 -1.7266055595381113e-05 0 0.0044822556070379885 0.00074845387360122928 0 0.0047552187125692045 0.00020127798335555888 0 0.0051634078549752044 -0.0001509034826783859 0 0.0048393137774107378 0.0001633769303286653 0 0.0031418230245633476 0.0010191835690746439 0 0.0040283181007645091 0.0011332411806976026 0 0.0048393137774107378 0.0001633769303286653 0 0.0031418230245633476 0.0010191835690746439 0 0.0051011112724028921 0.00039792713138911125 0 0.0048393137774107378 0.0001633769303286653 0 0.0052164763083578976 0.00012844163428706008 0 0.0094360662177719063 -0.0015021006440980962 0 0.0092768719950820349 -0.0014108060638573046 0 0.0093208174154723843 -0.0011413834025015791 0 0.0092768719950820349 -0.0014108060638573046 0 0.0091164768997682635 -0.0013025641773675067 0 0.0093208174154723843 -0.0011413834025015791 0 0.0091217389928342097 -0.0014436797246936371 0 0.0092768719950820349 -0.0014108060638573046 0 0.0091164768997682635 -0.0013025641773675067 0 0.0091164768997682635 -0.0013025641773675067 0 0.008830605115426278 -0.0012357746046298308 0 0.0093208174154723843 -0.0011413834025015791 0 0.0091217389928342097 -0.0014436797246936371 0 0.0089999709561221688 -0.001488073373297605 0 0.008830605115426278 -0.0012357746046298308 0 0.0091217389928342097 -0.0014436797246936371 0 0.0091164768997682635 -0.0013025641773675067 0 0.008830605115426278 -0.0012357746046298308 0 0.008830605115426278 -0.0012357746046298308 0 0.0084755292461143918 -1.1932694765896014e-05 0 0.0079835624768480259 -0.00066073019743291832 0 0.008830605115426278 -0.0012357746046298308 0 0.0093208174154723843 -0.0011413834025015791 0 0.0084755292461143918 -1.1932694765896014e-05 0 0.0062299840294437782 -1.7266055595381113e-05 0 0.0051383415686026444 0.0012339608274807609 0 0.0040283181007645091 0.0011332411806976026 0 0.0031418230245633476 0.0010191835690746439 0 0.0034686238041923764 0.0022749133705108767 0 0.0031418230245633476 0.0010191835690746439 0 0.0034686238041923764 0.0022749133705108767 0 0.0026272082118934826 0.0026328538309943346 0 0.0033518807412506266 0.0018797198566594378 0 0.0026840648250090653 0.002525300624854556 0 0.0033518807412506266 0.0018797198566594378 0 0.002200703741672944 0.0028993367699514821 0 0.0021868092207030882 0.001575977558783641 0 0.0020308685267748918 0.0025763147128223473 0 0.0025171289281606902 0.0021752027507954798 0 0.0029694383066991622 0.002436069544965694 0 0.0026272082118934826 0.0026328538309943346 0 0.0025035780718933032 0.0031717081422918394 0 0.0031418230245633476 0.0010191835690746439 0 0.0026272082118934826 0.0026328538309943346 0 0.0017785875324691299 0.0025048733931466128 0 0.0026272082118934826 0.0026328538309943346 0 0.0017785875324691299 0.0025048733931466128 0 0.0019464970047451042 0.0030758519709809225 0 0.0019464970047451042 0.0030758519709809225 0 0.0025035780718933032 0.0031717081422918394 0 0.0017963368680877162 0.0034171117660903405 0 0.0019464970047451042 0.0030758519709809225 0 0.0013346777763072765 0.0035027104629567433 0 0.0017963368680877162 0.0034171117660903405 0 0.0017785875324691299 0.0025048733931466128 0 0.0019464970047451042 0.0030758519709809225 0 0.0013346777763072765 0.0035027104629567433 0 0.0026272082118934826 0.0026328538309943346 0 0.0019464970047451042 0.0030758519709809225 0 0.0025035780718933032 0.0031717081422918394 0 0.0020308685267748918 0.0025763147128223473 0 0.0025171289281606902 0.0021752027507954798 0 0.0026454944570693428 0.002666379187000769 0 0.0025171289281606902 0.0021752027507954798 0 0.0029105125450130578 0.0022288486150916832 0 0.0026454944570693428 0.002666379187000769 0 0.0029105125450130578 0.0022288486150916832 0 0.0026454944570693428 0.002666379187000769 0 0.0032230178927253206 0.0025577665096307152 0 0.0026454944570693428 0.002666379187000769 0 0.0032230178927253206 0.0025577665096307152 0 0.0029400487702330607 0.003009340061838792 0 0.0037935028541250656 0.0022267428291307041 0 0.0032230178927253206 0.0025577665096307152 0 0.0033097101075918122 0.0019792368550009512 0 0.0029105125450130578 0.0022288486150916832 0 0.0032230178927253206 0.0025577665096307152 0 0.0033097101075918122 0.0019792368550009512 0 0.0029105125450130578 0.0022288486150916832 0 0.0033097101075918122 0.0019792368550009512 0 0.0028627863853256654 0.0017277745326685261 0 0.00302622785100492 0.00094544349390853866 0 0.0033570559106409249 0.0014605766813171077 0 0.0028627863853256654 0.0017277745326685261 0 0.0038905746314906123 0.0015701345716850213 0 0.0033097101075918122 0.0019792368550009512 0 0.0033570559106409249 0.0014605766813171077 0 0.0033097101075918122 0.0019792368550009512 0 0.0033570559106409249 0.0014605766813171077 0 0.0028627863853256654 0.0017277745326685261 0 0.00302622785100492 0.00094544349390853866 0 0.0021868092207030882 0.001575977558783641 0 0.0028627863853256654 0.0017277745326685261 0 0.0021868092207030882 0.001575977558783641 0 0.0025171289281606902 0.0021752027507954798 0 0.0028627863853256654 0.0017277745326685261 0 0.0025171289281606902 0.0021752027507954798 0 0.0029105125450130578 0.0022288486150916832 0 0.0028627863853256654 0.0017277745326685261 0 0.010228021687728026 0.00022220593589662618 0 0.010239799913834554 -7.5062784889119784e-05 0 0.010506958614202384 -3.1215603273119961e-05 0 0.0069625549150539338 0.00049823975266714718 0 0.0081221878368630072 6.5132150733417402e-06 0 0.0059467389880641175 0.00084201796737308845 0 0.006112384207146708 0.00034635835121432011 0 0.0055925023347735206 0.00061900087331568992 0 0.013482431391404603 0.00028988203907946036 0 0.0081221878368630072 6.5132150733417402e-06 0 0.010255615732343624 -0.00037053735202468907 0 0.010239799913834554 -7.5062784889119784e-05 0 0.010506958614202384 -3.1215603273119961e-05 0 0.010506958614202384 -3.1215603273119961e-05 0 0.010578308090857465 2.1186972862461685e-05 0 0.010640504985343109 -0.00017007816833587139 0 0.010255615732343624 -0.00037053735202468907 0 0.010506958614202384 -3.1215603273119961e-05 0 0.010722678751921171 -0.00023332219961440479 0 0.010103743327447004 0.00047591939051447633 0 0.01330861928403387 -0.00064084374146938003 0 0.0069625549150539338 0.00049823975266714718 0 0.0086604568290780046 -0.00062494927710960118 0 0.0052315469958231784 -0.00047549825698445757 0 0.0062736826708792281 -0.0010752452904099811 0 0.0061515219209877731 3.5632415952806826e-05 0 0.010228021687728026 0.00022220593589662618 0 0.010506958614202384 -3.1215603273119961e-05 0 0.010578308090857465 2.1186972862461685e-05 0 0.0062736826708792281 -0.0010752452904099811 0 0.0071026624925965582 -0.00047532704993543881 0 0.0061515219209877731 3.5632415952806826e-05 0 0.0062736826708792281 -0.0010752452904099811 0 0.0071026624925965582 -0.00047532704993543881 0 0.0074261834748219112 -0.001714656705330154 0 0.010578308090857465 2.1186972862461685e-05 0 0.010640504985343109 -0.00017007816833587139 0 0.010785659155821947 -0.00012850148642738521 0 0.0086604568290780046 -0.00062494927710960118 0 0.0086655331584394972 -0.0011839356576570598 0 0.01330861928403387 -0.00064084374146938003 0 0.0086655331584394972 -0.0011839356576570598 0 0.009118965895337899 -0.0015777000249610821 0 0.0086655331584394972 -0.0011839356576570598 0 0.0085365180491657876 -0.0013726593599839669 0 0.0086655331584394972 -0.0011839356576570598 0 0.0089999709561221688 -0.001488073373297605 0 0.008830605115426278 -0.0012357746046298308 0 0.0087149484862372693 -0.0013551243344513343 0 0.0071026624925965582 -0.00047532704993543881 0 0.0074261834748219112 -0.001714656705330154 0 0.0079835624768480259 -0.00066073019743291832 0 0.008830605115426278 -0.0012357746046298308 0 0.0074261834748219112 -0.001714656705330154 0 0.0079835624768480259 -0.00066073019743291832 0 0.0084755292461143918 -1.1932694765896014e-05 0 0.0079835624768480259 -0.00066073019743291832 0 0.0075466146421648223 6.4147994448061652e-05 0 0.0071026624925965582 -0.00047532704993543881 0 0.0079835624768480259 -0.00066073019743291832 0 0.0075466146421648223 6.4147994448061652e-05 0 0.0084755292461143918 -1.1932694765896014e-05 0 0.0075466146421648223 6.4147994448061652e-05 0 0.0073036749150913825 0.0010923801518545981 0 0.0075466146421648223 6.4147994448061652e-05 0 0.0073036749150913825 0.0010923801518545981 0 0.0068768114032670856 0.00035826015450873193 0 0.0051383415686026444 0.0012339608274807609 0 0.0043497199026559736 0.0022688084887926901 0 0.0073036749150913825 0.0010923801518545981 0 0.0068768114032670856 0.00035826015450873193 0 0.0061826346872557083 0.00099138565300598133 0 0.0071026624925965582 -0.00047532704993543881 0 0.0075466146421648223 6.4147994448061652e-05 0 0.0068768114032670856 0.00035826015450873193 0 0.0071026624925965582 -0.00047532704993543881 0 0.0068768114032670856 0.00035826015450873193 0 0.0061515219209877731 3.5632415952806826e-05 0 0.0061515219209877731 3.5632415952806826e-05 0 0.0061826346872557083 0.00099138565300598133 0 0.0052853499712440149 0.00067397571633697688 0 0.0068768114032670856 0.00035826015450873193 0 0.0061515219209877731 3.5632415952806826e-05 0 0.0061826346872557083 0.00099138565300598133 0 0.0054789150296842733 0.00091611875646844078 0 0.0054113116348568158 0.0012116271747523392 0 0.0053475716688236091 0.00098364375782354261 0 0.0052315469958231784 -0.00047549825698445757 0 0.0061515219209877731 3.5632415952806826e-05 0 0.0052853499712440149 0.00067397571633697688 0 0.0069625549150539338 0.00049823975266714718 0 0.0051904124338835716 0.00087791119199012854 0 0.0051184054290794459 0.0020836864667001108 0 0.0053305897509356775 0.001660152489154607 0 0.0062371056796161591 0.0019256709373480204 0 0.0061826346872557083 0.00099138565300598133 0 0.0052853499712440149 0.00067397571633697688 0 0.0053305897509356775 0.001660152489154607 0 0.0051904124338835716 0.00087791119199012854 0 0.0053676447861561753 0.0016355035650695235 0 0.0061826346872557083 0.00099138565300598133 0 0.0053305897509356775 0.001660152489154607 0 0.0062371056796161591 0.0019256709373480204 0 0.0017614230990662938 0.0038278665834017176 0 0.0012832273365161659 0.003793933346984761 0 0.0015628757569450531 0.003488703293938712 0 0.0043497199026559736 0.0022688084887926901 0 0.0040338021441471148 0.0028400225552149918 0 0.0013346777763072765 0.0035027104629567433 0 0.0017614230990662938 0.0038278665834017176 0 0.0012832273365161659 0.003793933346984761 0 0.0073036749150913825 0.0010923801518545981 0 0.0061826346872557083 0.00099138565300598133 0 0.0062371056796161591 0.0019256709373480204 0 0.0013346777763072765 0.0035027104629567433 0 0.0012832273365161659 0.003793933346984761 0 0.0017963368680877162 0.0034171117660903405 0 0.0012832273365161659 0.003793933346984761 0 0.0010610235535964522 0.0032336364777823942 0 0.0015628757569450531 0.003488703293938712 0 0.0012832273365161659 0.003793933346984761 0 0.0010610235535964522 0.0032336364777823942 0 0.00051605819295903158 0.003289537358569879 0 0.0010610235535964522 0.0032336364777823942 0 0.0010235934754477952 0.002730087601211208 0 0.0014883466600064941 0.003101261895544832 0 0.0010610235535964522 0.0032336364777823942 0 0.0014883466600064941 0.003101261895544832 0 0.0015628757569450531 0.003488703293938712 0 0.0010610235535964522 0.0032336364777823942 0 0.0010235934754477952 0.002730087601211208 0 0.00040194481667946098 0.0028026559477963811 0 0.0010235934754477952 0.002730087601211208 0 0.00045834277610625872 0.0022653830631402818 0 0.0010548233897097166 0.0021788018393478609 0 0.0010235934754477952 0.002730087601211208 0 0.00040194481667946098 0.0028026559477963811 0 0.00045834277610625872 0.0022653830631402818 0 0.0010235934754477952 0.002730087601211208 0 0.0015881835133652394 0.0026731769353126513 0 0.0010548233897097166 0.0021788018393478609 0 0.0010235934754477952 0.002730087601211208 0 0.0015881835133652394 0.0026731769353126513 0 0.0014883466600064941 0.003101261895544832 0 0.0015881835133652394 0.0026731769353126513 0 0.0021058353723930421 0.0026004348448772385 0 0.0017174284961216121 0.0021584211276913872 0 0.0015881835133652394 0.0026731769353126513 0 0.0014883466600064941 0.003101261895544832 0 0.002161857908988026 0.0031890778284137328 0 0.0015881835133652394 0.0026731769353126513 0 0.002161857908988026 0.0031890778284137328 0 0.0021058353723930421 0.0026004348448772385 0 0.0017614230990662938 0.0038278665834017176 0 0.0015628757569450531 0.003488703293938712 0 0.002161857908988026 0.0031890778284137328 0 0.0014883466600064941 0.003101261895544832 0 0.0015628757569450531 0.003488703293938712 0 0.002161857908988026 0.0031890778284137328 0 0.0017614230990662938 0.0038278665834017176 0 0.002161857908988026 0.0031890778284137328 0 0.0029619263025951028 0.0033762177646674421 0 0.0040338021441471148 0.0028400225552149918 0 0.0042043967462420196 0.0028557843137737922 0 0.002161857908988026 0.0031890778284137328 0 0.0021058353723930421 0.0026004348448772385 0 0.0029606068234709453 0.0028232183629754962 0 0.0021058353723930421 0.0026004348448772385 0 0.0029606068234709453 0.0028232183629754962 0 0.0022192645973928356 0.0021904545542673817 0 0.002161857908988026 0.0031890778284137328 0 0.0029606068234709453 0.0028232183629754962 0 0.0029619263025951028 0.0033762177646674421 0 0.0034781584995778559 0.0026644466957794219 0 0.0029619263025951028 0.0033762177646674421 0 0.0044916517453692691 0.0025595170310372113 0 0.0042043967462420196 0.0028557843137737922 0 0.0045118791584599933 0.0025324574242249543 0 0.0029606068234709453 0.0028232183629754962 0 0.0034781584995778559 0.0026644466957794219 0 0.0029619263025951028 0.0033762177646674421 0 0.0053860317843927386 0.0024430578922004179 0 0.004705925188534619 0.002528803766975762 0 0.0044916517453692691 0.0025595170310372113 0 0.0029606068234709453 0.0028232183629754962 0 0.0034781584995778559 0.0026644466957794219 0 0.003443695857160868 0.0023222806241727616 0 0.0051184054290794459 0.0020836864667001108 0 0.0053860317843927386 0.0024430578922004179 0 0.0047442286271667643 0.0023139991272732143 0 0.0051184054290794459 0.0020836864667001108 0 0.0062371056796161591 0.0019256709373480204 0 0.0053860317843927386 0.0024430578922004179 0 0.0023907938825536638 0.0036488162292324677 0 0.0020254500669118465 0.0039268897416454085 0 0.0027474933532554346 0.00408372611568207 0 0.0023907938825536638 0.0036488162292324677 0 0.0029049983008739236 0.0035014885595231748 0 0.0027474933532554346 0.00408372611568207 0 0.0023907938825536638 0.0036488162292324677 0 0.0029049983008739236 0.0035014885595231748 0 0.0024818258363483413 0.0032153337353611039 0 0.0029049983008739236 0.0035014885595231748 0 0.0027474933532554346 0.00408372611568207 0 0.0032322262951047119 0.0038043383744108803 0 0.003343820913088112 0.0034282547773346801 0 0.0029049983008739236 0.0035014885595231748 0 0.0032322262951047119 0.0038043383744108803 0 0.003343820913088112 0.0034282547773346801 0 0.0029049983008739236 0.0035014885595231748 0 0.0031809858592269941 0.0032226861483469036 0 0.0029049983008739236 0.0035014885595231748 0 0.0031809858592269941 0.0032226861483469036 0 0.0029400487702330607 0.003009340061838792 0 0.0034261175532554009 0.0031432551430211285 0 0.003343820913088112 0.0034282547773346801 0 0.0031809858592269941 0.0032226861483469036 0 0.0034261175532554009 0.0031432551430211285 0 0.0031809858592269941 0.0032226861483469036 0 0.0032968461801021229 0.0029401066793175016 0 0.003676648116686213 0.0028185078033218527 0 0.0032230178927253206 0.0025577665096307152 0 0.0032968461801021229 0.0029401066793175016 0 0.0032230178927253206 0.0025577665096307152 0 0.0032968461801021229 0.0029401066793175016 0 0.0029400487702330607 0.003009340061838792 0 0.0031809858592269941 0.0032226861483469036 0 0.0032968461801021229 0.0029401066793175016 0 0.0029400487702330607 0.003009340061838792 0 0.0026454944570693428 0.002666379187000769 0 0.0029400487702330607 0.003009340061838792 0 0.0024818258363483413 0.0032153337353611039 0 0.0029049983008739236 0.0035014885595231748 0 0.0029400487702330607 0.003009340061838792 0 0.0024818258363483413 0.0032153337353611039 0 0.0020308685267748918 0.0025763147128223473 0 0.0026454944570693428 0.002666379187000769 0 0.0024818258363483413 0.0032153337353611039 0 0.002200703741672944 0.0028993367699514821 0 0.0020577732113730616 0.003470859423303687 0 0.0025035780718933032 0.0031717081422918394 0 0.0017963368680877162 0.0034171117660903405 0 0.0020018039678743609 0.0035747466560662822 0 0.0020308685267748918 0.0025763147128223473 0 0.0024818258363483413 0.0032153337353611039 0 0.0020018039678743609 0.0035747466560662822 0 0.0012832273365161659 0.003793933346984761 0 0.0017963368680877162 0.0034171117660903405 0 0.0020018039678743609 0.0035747466560662822 0 0.0012306613708827992 0.0038004145223570029 0 0.00095408770686528934 0.0037260335778436168 0 0.0012832273365161659 0.003793933346984761 0 0.0020018039678743609 0.0035747466560662822 0 0.0020254500669118465 0.0039268897416454085 0 0.0012832273365161659 0.003793933346984761 0 -0.0001217586818836609 0.0035995610150569607 0 0.00051605819295903158 0.003289537358569879 0 0.0023907938825536638 0.0036488162292324677 0 0.0024818258363483413 0.0032153337353611039 0 0.0020018039678743609 0.0035747466560662822 0 0.0023907938825536638 0.0036488162292324677 0 0.0020018039678743609 0.0035747466560662822 0 0.0020254500669118465 0.0039268897416454085 0 -0.00015722390098226144 0.0029654476017566579 0 -0.00054262679788343732 0.002538943379706319 0 -0.0010552790749682104 0.0031521151452889133 0 -0.0001217586818836609 0.0035995610150569607 0 -0.00015722390098226144 0.0029654476017566579 0 -0.0010552790749682104 0.0031521151452889133 0 -0.0001217586818836609 0.0035995610150569607 0 -0.00015722390098226144 0.0029654476017566579 0 0.00051605819295903158 0.003289537358569879 0 -0.00015722390098226144 0.0029654476017566579 0 0.00051605819295903158 0.003289537358569879 0 0.00040194481667946098 0.0028026559477963811 0 0.0010610235535964522 0.0032336364777823942 0 0.00051605819295903158 0.003289537358569879 0 0.00040194481667946098 0.0028026559477963811 0 -0.00015722390098226144 0.0029654476017566579 0 0.00040194481667946098 0.0028026559477963811 0 -0.00010024483858041321 0.0023284500158516994 0 0.00040194481667946098 0.0028026559477963811 0 -0.00010024483858041321 0.0023284500158516994 0 0.00045834277610625872 0.0022653830631402818 0 -0.00015722390098226144 0.0029654476017566579 0 -0.00010024483858041321 0.0023284500158516994 0 -0.00054262679788343732 0.002538943379706319 0 -0.00054262679788343732 0.002538943379706319 0 -0.0010638875666631453 0.0023315349577200614 0 -0.0010552790749682104 0.0031521151452889133 0 0.00095408770686528934 0.0037260335778436168 0 0.00083060793939033985 0.0037605401801352489 0 0.0011139769171726961 0.0023581943355713312 0 0.00083060793939033985 0.0037605401801352489 0 0.0034672704656377139 0.0043107751282915703 0 0.0027474933532554346 0.00408372611568207 0 0.0032322262951047119 0.0038043383744108803 0 0.0011139769171726961 0.0023581943355713312 0 -0.0013307893223137922 0.0021242718977301004 0 -0.0018275029479372109 0.0028049985775443812 0 -0.0010638875666631453 0.0023315349577200614 0 -0.0010552790749682104 0.0031521151452889133 0 -0.0018275029479372109 0.0028049985775443812 0 -0.0010638875666631453 0.0023315349577200614 0 -0.0014643275494817757 0.0018606264315666247 0 -0.0010638875666631453 0.0023315349577200614 0 -0.0014643275494817757 0.0018606264315666247 0 -0.00097772317660647619 0.0018728163470161294 0 -0.00057816063586538344 0.0022394348940350181 0 -0.00074331482703864711 0.002617726434078255 0 -0.00049391724755255503 0.002474509220208723 0 -0.0013307893223137922 0.0021242718977301004 0 -0.0011390802107410199 0.0016765344590712761 0 -0.0009398050669258307 0.0014475602480737892 0 -0.00038958683279809506 0.0013971567188363532 0 -0.0010237639807562262 0.0011005662963201963 0 -0.0014643275494817757 0.0018606264315666247 0 -0.00083646414360179862 0.0014418499619661246 0 -0.00097772317660647619 0.0018728163470161294 0 -0.0014643275494817757 0.0018606264315666247 0 -0.00083646414360179862 0.0014418499619661246 0 -0.0011172891521037513 0.00099765219825359336 0 -0.00083646414360179862 0.0014418499619661246 0 -0.00097772317660647619 0.0018728163470161294 0 -0.00055419348078142609 0.001871219551713887 0 -0.00094139287055199615 0.0013564018838712467 0 -0.00059045256163006894 0.0018501465167856872 0 -0.00054262679788343732 0.002538943379706319 0 -0.0010638875666631453 0.0023315349577200614 0 -0.00055419348078142609 0.001871219551713887 0 -0.0010638875666631453 0.0023315349577200614 0 -0.00097772317660647619 0.0018728163470161294 0 -0.00055419348078142609 0.001871219551713887 0 -0.00010024483858041321 0.0023284500158516994 0 -0.00055419348078142609 0.001871219551713887 0 -2.4057188782261759e-05 0.0018222374252919219 0 -0.00010024483858041321 0.0023284500158516994 0 -0.00054262679788343732 0.002538943379706319 0 -0.00055419348078142609 0.001871219551713887 0 -0.00010024483858041321 0.0023284500158516994 0 0.00045834277610625872 0.0022653830631402818 0 -2.4057188782261759e-05 0.0018222374252919219 0 0.00045834277610625872 0.0022653830631402818 0 -2.4057188782261759e-05 0.0018222374252919219 0 0.00054322942429546692 0.0015961734704397171 0 -2.4057188782261759e-05 0.0018222374252919219 0 -0.0001410254584270068 0.00085405800611083882 0 -0.0011013255049187114 0.00074975946352383359 0 -0.00014346894814678911 0.0017360852653440484 0 -0.00059243744063039807 0.0011111890433570808 0 -2.4057188782261759e-05 0.0018222374252919219 0 -0.0001410254584270068 0.00085405800611083882 0 0.00054322942429546692 0.0015961734704397171 0 -0.00055419348078142609 0.001871219551713887 0 -2.4057188782261759e-05 0.0018222374252919219 0 -0.00038958683279809506 0.0013971567188363532 0 -0.0009398050669258307 0.0014475602480737892 0 -0.00055419348078142609 0.001871219551713887 0 -0.00038958683279809506 0.0013971567188363532 0 -0.00059243744063039807 0.0011111890433570808 0 -0.0025628325270826199 0.00071020282950473774 0 -0.0011013255049187114 0.00074975946352383359 0 -0.00084807557280606712 0.00013327548293867169 0 -0.0016735711369192908 -0.00013651269733749819 0 -0.00084807557280606712 0.00013327548293867169 0 -0.00077068656726776979 -0.0004787285949054104 0 -0.0016735711369192908 -0.00013651269733749819 0 -0.00038958683279809506 0.0013971567188363532 0 -0.0010237639807562262 0.0011005662963201963 0 -0.00087572848633420694 0.0008171290367633197 0 -0.0001410254584270068 0.00085405800611083882 0 -0.00084807557280606712 0.00013327548293867169 0 8.035882501283144e-05 6.1833225009630464e-05 0 -0.00084807557280606712 0.00013327548293867169 0 -0.00077068656726776979 -0.0004787285949054104 0 8.035882501283144e-05 6.1833225009630464e-05 0 -0.0001410254584270068 0.00085405800611083882 0 -0.0011013255049187114 0.00074975946352383359 0 -0.00084807557280606712 0.00013327548293867169 0 -0.00077068656726776979 -0.0004787285949054104 0 -0.00014585176305046348 -0.00050216505149540196 0 -0.0005136359242643297 -0.0010001274020941058 0 -0.00077068656726776979 -0.0004787285949054104 0 8.035882501283144e-05 6.1833225009630464e-05 0 -0.00014585176305046348 -0.00050216505149540196 0 -0.00077068656726776979 -0.0004787285949054104 0 -0.0016735711369192908 -0.00013651269733749819 0 -0.0010358353771990063 -0.0011304620474671845 0 -0.0025628325270826199 0.00071020282950473774 0 -0.0038286771801330642 8.288435609770921e-05 0 -0.0076322010218258405 0.0022063174717939617 0 -0.0025628325270826199 0.00071020282950473774 0 -0.0013812622933984219 0.00041688381959394019 0 -0.001307433419542923 0.00053763516903684644 0 -0.0009452044047525384 0.000880736729072083 0 -0.005690089435344773 0.0011413206590532869 0 -0.0058598746000645763 0.0008803235650221942 0 -0.0061126748401175391 0.0012919792178203667 0 -0.0012261225493189654 0.00076727621887871062 0 -0.001307433419542923 0.00053763516903684644 0 -0.0014402347958775063 0.00079270130422993794 0 -0.0010951842475966363 0.00057869219763663591 0 -0.0017529090540738023 0.0021782625717287783 0 -0.0012261225493189654 0.00076727621887871062 0 -0.001307433419542923 0.00053763516903684644 0 -0.0009452044047525384 0.000880736729072083 0 -0.0012261225493189654 0.00076727621887871062 0 -0.0014402347958775063 0.00079270130422993794 0 -0.001267171377742715 0.00085617221842088521 0 -0.001340225576407365 0.0032417525244610944 0 -0.0012047109372385189 0.003430827799359844 0 -0.0011972215134059239 0.0032940916925635684 0 -0.0013812622933984219 0.00041688381959394019 0 -0.001307433419542923 0.00053763516903684644 0 -0.0016908607462236235 0.00071918264735713379 0 -0.0076322010218258405 0.0022063174717939617 0 -0.004442358913950159 0.0021892329700306554 0 -0.001340225576407365 0.0032417525244610944 0 -0.001156727753611395 0.0032030629518646661 0 -0.0011972215134059239 0.0032940916925635684 0 -0.001307433419542923 0.00053763516903684644 0 -0.0016908607462236235 0.00071918264735713379 0 -0.0015684670467803377 0.00091904866688539023 0 -0.004442358913950159 0.0021892329700306554 0 -0.0017529090540738023 0.0021782625717287783 0 -0.0017529090540738023 0.0021782625717287783 0 -0.00081234343281767556 0.0027923555751909446 0 -0.0014717399807289797 0.0032487682216417635 0 -0.0012394517512689959 0.0029850063099139549 0 -0.0011243366342239289 0.0030416899106575296 0 -0.0017529090540738023 0.0021782625717287783 0 -0.0011390802107410199 0.0016765344590712761 0 -0.0014302940778827345 0.0033206947327747874 0 -0.0014717399807289797 0.0032487682216417635 0 -0.0011243366342239289 0.0030416899106575296 0 -0.004442358913950159 0.0021892329700306554 0 -0.00029853885048711703 0.0031211221697769417 0 -0.00068385357085392901 0.0027162075702107987 0 -0.00074331482703864711 0.002617726434078255 0 -0.00049391724755255503 0.002474509220208723 0 -0.00094139287055199615 0.0013564018838712467 0 -0.0011390802107410199 0.0016765344590712761 0 -0.0009398050669258307 0.0014475602480737892 0 -0.0010237639807562262 0.0011005662963201963 0 -0.001304141173354521 0.00099316425538412958 0 -0.0012261225493189654 0.00076727621887871062 0 -0.0009452044047525384 0.000880736729072083 0 -0.0011435419340676521 0.0009104988395397856 0 -0.0010237639807562262 0.0011005662963201963 0 -0.0009452044047525384 0.000880736729072083 0 -0.0011435419340676521 0.0009104988395397856 0 -0.0016289646987736272 0.00066123507058846967 0 -0.0025628325270826199 0.00071020282950473774 0 -0.0012261225493189654 0.00076727621887871062 0 -0.0011435419340676521 0.0009104988395397856 0 -0.001267171377742715 0.00085617221842088521 0 -0.0011435419340676521 0.0009104988395397856 0 -0.001267171377742715 0.00085617221842088521 0 -0.001304141173354521 0.00099316425538412958 0 -0.0014402347958775063 0.00079270130422993794 0 -0.001267171377742715 0.00085617221842088521 0 -0.001304141173354521 0.00099316425538412958 0 -0.0010237639807562262 0.0011005662963201963 0 -0.0011435419340676521 0.0009104988395397856 0 -0.001304141173354521 0.00099316425538412958 0 -0.0013907436947083597 0.0044049611034979565 0 -0.0013530029324559005 0.003935901279224171 0 -0.0010074266849567487 0.0044048217481562468 0 -0.0013907436947083597 0.0044049611034979565 0 -0.0016898664243765833 0.0042136372875298655 0 -0.0013530029324559005 0.003935901279224171 0 -0.0013907436947083597 0.0044049611034979565 0 -0.0010074266849567487 0.0044048217481562468 0 -0.00094766639280125236 0.0047756872557218185 0 0.003443695857160868 0.0023222806241727616 0 0.0025552388994152003 0.0018568221476702046 0 0.0043804875366560362 0.002234271512501722 0 -0.0013907436947083597 0.0044049611034979565 0 -0.0018103658198742047 0.0046994792060538818 0 -0.00094766639280125236 0.0047756872557218185 0 0.0014022182767890912 0.0026714078117416398 0 0.0014445173864128568 0.0035920274083060225 0 0.0039491311501459181 0.0024415524622480285 0 0.003443695857160868 0.0023222806241727616 0 0.0043804875366560362 0.002234271512501722 0 0.0034781584995778559 0.0026644466957794219 0 0.0039491311501459181 0.0024415524622480285 0 0.0044916517453692691 0.0025595170310372113 0 0.0034781584995778559 0.0026644466957794219 0 0.0039491311501459181 0.0024415524622480285 0 0.003443695857160868 0.0023222806241727616 0 0.0029606068234709453 0.0028232183629754962 0 0.0022192645973928356 0.0021904545542673817 0 0.0024549385160898664 0.0017014037652411005 0 0.0029647360234994571 0.0025643070829180267 0 0.0014022182767890912 0.0026714078117416398 0 0.0029606068234709453 0.0028232183629754962 0 0.003443695857160868 0.0023222806241727616 0 0.0025552388994152003 0.0018568221476702046 0 0.0014022182767890912 0.0026714078117416398 0 0.0021032494163154966 0.0022087516938485816 0 0.0022192645973928356 0.0021904545542673817 0 0.0024549385160898664 0.0017014037652411005 0 0.0019452053921800879 0.0017168910447150256 0 -0.0018103658198742047 0.0046994792060538818 0 -0.0016898664243765833 0.0042136372875298655 0 -0.0022043181832123891 0.0038145953363823847 0 0.0014022182767890912 0.0026714078117416398 0 -0.0016886034116110975 0.00077094192978838976 0 -0.0013907436947083597 0.0044049611034979565 0 -0.0018103658198742047 0.0046994792060538818 0 -0.0016898664243765833 0.0042136372875298655 0 0.0024492945006168937 0.0017614833823142184 0 0.0016702000366987599 0.0012577452803432451 0 0.0017648032812172304 0.00016864610081830447 0 0.0016702000366987599 0.0012577452803432451 0 0.00084795290307823103 0.00094377531728725875 0 0.0017648032812172304 0.00016864610081830447 0 0.0016702000366987599 0.0012577452803432451 0 0.0013158649095336614 0.0016578195259928251 0 0.00084795290307823103 0.00094377531728725875 0 0.0024492945006168937 0.0017614833823142184 0 0.0016702000366987599 0.0012577452803432451 0 0.0019452053921800879 0.0017168910447150256 0 0.0019452053921800879 0.0017168910447150256 0 0.0017174284961216121 0.0021584211276913872 0 0.0013158649095336614 0.0016578195259928251 0 0.0016702000366987599 0.0012577452803432451 0 0.0019452053921800879 0.0017168910447150256 0 0.0013158649095336614 0.0016578195259928251 0 0.0021058353723930421 0.0026004348448772385 0 0.0022192645973928356 0.0021904545542673817 0 0.0017174284961216121 0.0021584211276913872 0 0.0022192645973928356 0.0021904545542673817 0 0.0019452053921800879 0.0017168910447150256 0 0.0017174284961216121 0.0021584211276913872 0 0.0017174284961216121 0.0021584211276913872 0 0.0013158649095336614 0.0016578195259928251 0 0.0010548233897097166 0.0021788018393478609 0 0.0015881835133652394 0.0026731769353126513 0 0.0017174284961216121 0.0021584211276913872 0 0.0010548233897097166 0.0021788018393478609 0 0.0013158649095336614 0.0016578195259928251 0 0.0010548233897097166 0.0021788018393478609 0 0.00054322942429546692 0.0015961734704397171 0 0.00045834277610625872 0.0022653830631402818 0 0.0010548233897097166 0.0021788018393478609 0 0.00054322942429546692 0.0015961734704397171 0 -0.0001410254584270068 0.00085405800611083882 0 0.00054322942429546692 0.0015961734704397171 0 0.00084795290307823103 0.00094377531728725875 0 -0.0001410254584270068 0.00085405800611083882 0 0.00084795290307823103 0.00094377531728725875 0 8.035882501283144e-05 6.1833225009630464e-05 0 0.0013158649095336614 0.0016578195259928251 0 0.00054322942429546692 0.0015961734704397171 0 0.00084795290307823103 0.00094377531728725875 0 0.001283890962420471 -4.3315186798411991e-06 0 -0.0016886034116110975 0.00077094192978838976 0 0.00084795290307823103 0.00094377531728725875 0 8.035882501283144e-05 6.1833225009630464e-05 0 0.0017648032812172304 0.00016864610081830447 0 8.035882501283144e-05 6.1833225009630464e-05 0 -0.00014585176305046348 -0.00050216505149540196 0 0.00039246908287302848 -0.00043676170024546944 0 -0.00014585176305046348 -0.00050216505149540196 0 0.00039246908287302848 -0.00043676170024546944 0 7.5246558828512791e-06 -0.0011845197532297821 0 -0.0047199056940259027 -0.0012430418150019267 0 -0.0057860161002541216 -0.0014289300890664152 0 -0.005410297962871514 -0.00064236292649656171 0 -0.0047199056940259027 -0.0012430418150019267 0 -0.005203806199977578 -0.002293303660833944 0 -0.0057860161002541216 -0.0014289300890664152 0 8.035882501283144e-05 6.1833225009630464e-05 0 0.00039246908287302848 -0.00043676170024546944 0 0.0005901852655316762 2.8402598255095579e-05 0 -0.0022146589077196013 -0.00095229888281557322 0 -0.0016886034116110975 0.00077094192978838976 0 -0.005203806199977578 -0.002293303660833944 0 -0.0057860161002541216 -0.0014289300890664152 0 -0.0069667478081243709 -0.0023914467739958654 0 -0.0016898664243765833 0.0042136372875298655 0 -0.0022043181832123891 0.0038145953363823847 0 -0.0013530029324559005 0.003935901279224171 0 -0.0016886034116110975 0.00077094192978838976 0 -0.0045066160715790228 0.00079369263163710159 0 -0.0057860161002541216 -0.0014289300890664152 0 -0.006689683760922693 -0.00086377822599289209 0 -0.005410297962871514 -0.00064236292649656171 0 -0.0057860161002541216 -0.0014289300890664152 0 -0.006689683760922693 -0.00086377822599289209 0 -0.0069667478081243709 -0.0023914467739958654 0 -0.006689683760922693 -0.00086377822599289209 0 -0.0069667478081243709 -0.0023914467739958654 0 -0.0080706856731967459 -0.0015461408040199297 0 -0.0071906657850426114 0.0016027865417533873 0 -0.0068167288702625619 0.00028313497714951586 0 -0.0056821813434849615 0.00050819205051408432 0 -0.0071906657850426114 0.0016027865417533873 0 -0.0068167288702625619 0.00028313497714951586 0 -0.0080067676961602472 0.00026965506553077118 0 -0.006689683760922693 -0.00086377822599289209 0 -0.0068167288702625619 0.00028313497714951586 0 -0.0073740515204482526 -0.00028895704264996663 0 -0.006689683760922693 -0.00086377822599289209 0 -0.0073740515204482526 -0.00028895704264996663 0 -0.0080137144168046098 -0.00067876476422181777 0 -0.0068167288702625619 0.00028313497714951586 0 -0.0073740515204482526 -0.00028895704264996663 0 -0.0080067676961602472 0.00026965506553077118 0 -0.006689683760922693 -0.00086377822599289209 0 -0.0056821813434849615 0.00050819205051408432 0 -0.005410297962871514 -0.00064236292649656171 0 -0.006689683760922693 -0.00086377822599289209 0 -0.0068167288702625619 0.00028313497714951586 0 -0.0056821813434849615 0.00050819205051408432 0 -0.012725345157405268 -0.0020730626969083037 0 -0.0084672358222508473 -0.004102844905921158 0 -0.0096199673439842717 -0.00031616923852200465 0 -0.0084672358222508473 -0.004102844905921158 0 -0.0075226297563832367 -0.001577645578398587 0 -0.0096199673439842717 -0.00031616923852200465 0 -0.010433380755280755 -0.00052704461210422164 0 -0.0072060981286961347 -0.0018799034948652192 0 -0.0084672358222508473 -0.004102844905921158 0 -0.0051960833287698939 -0.0024467043604298713 0 -0.0075226297563832367 -0.001577645578398587 0 -0.0084672358222508473 -0.004102844905921158 0 -0.0051960833287698939 -0.0024467043604298713 0 -0.003921885717009771 -0.0063071779165700297 0 -0.0047199056940259027 -0.0012430418150019267 0 -0.005410297962871514 -0.00064236292649656171 0 -0.0042383320067063655 -0.00019124699940167926 0 -0.0022146589077196013 -0.00095229888281557322 0 -0.0026853396236918977 -0.0018621767649672396 0 -0.0056821813434849615 0.00050819205051408432 0 -0.005410297962871514 -0.00064236292649656171 0 -0.0042383320067063655 -0.00019124699940167926 0 -0.0072060981286961347 -0.0018799034948652192 0 -0.0026853396236918977 -0.0018621767649672396 0 -0.00014585176305046348 -0.00050216505149540196 0 7.5246558828512791e-06 -0.0011845197532297821 0 -0.0005136359242643297 -0.0010001274020941058 0 -0.0026853396236918977 -0.0018621767649672396 0 -0.00056299121811551685 -0.0017027798819167087 0 -0.00054652488271851075 -0.0011644184557402951 0 -0.00072586825171000241 -0.0011351927020184559 0 -0.001000568827691809 -0.0011984386216883931 0 -0.00054652488271851075 -0.0011644184557402951 0 -0.0005136359242643297 -0.0010001274020941058 0 -0.00072586825171000241 -0.0011351927020184559 0 -0.0051960833287698939 -0.0024467043604298713 0 -0.003921885717009771 -0.0063071779165700297 0 -0.0015409753238055637 -0.0011654898306090729 0 -0.00054652488271851075 -0.0011644184557402951 0 -0.001000568827691809 -0.0011984386216883931 0 -0.0015409753238055637 -0.0011654898306090729 0 -0.0026853396236918977 -0.0018621767649672396 0 -0.001507316785727623 -0.001962055435676336 0 -0.0051960833287698939 -0.0024467043604298713 0 -0.0015409753238055637 -0.0011654898306090729 0 -0.0039478270880942386 -0.00058175982628385541 0 -0.0026197188609695414 -0.0002265028307213812 0 -0.0035773653814518652 0.0040042103772181762 0 -0.00094137583996406103 -0.0010517844834053327 0 -0.0015409753238055637 -0.0011654898306090729 0 -0.0026197188609695414 -0.0002265028307213812 0 -0.00094137583996406103 -0.0010517844834053327 0 -0.0015409753238055637 -0.0011654898306090729 0 -0.0039478270880942386 -0.00058175982628385541 0 -0.0026197188609695414 -0.0002265028307213812 0 -0.0039478270880942386 -0.00058175982628385541 0 -0.0040930518850434104 0.0013829830465761281 0 -0.0051460827645402754 0.00070009109731981227 0 -0.0039478270880942386 -0.00058175982628385541 0 -0.0026197188609695414 -0.0002265028307213812 0 -0.0040930518850434104 0.0013829830465761281 0 -0.0026197188609695414 -0.0002265028307213812 0 -0.0035773653814518652 0.0040042103772181762 0 -0.0040930518850434104 0.0013829830465761281 0 -0.0076447390931699399 0.0030291648966072325 0 -0.0032610039069943348 0.00034319386532784659 0 -0.0076447390931699399 0.0030291648966072325 0 -0.008544723916413784 0.0018936683178135279 0 -0.0035773653814518652 0.0040042103772181762 0 -0.0047296656474525595 0.0032619827639168326 0 -0.0040930518850434104 0.0013829830465761281 0 -0.0047296656474525595 0.0032619827639168326 0 -0.0040930518850434104 0.0013829830465761281 0 -0.005188882866655883 0.001795177780340195 0 -0.0047296656474525595 0.0032619827639168326 0 -0.005188882866655883 0.001795177780340195 0 -0.0062246192776888205 0.002561585549769541 0 -0.0040930518850434104 0.0013829830465761281 0 -0.005188882866655883 0.001795177780340195 0 -0.0051460827645402754 0.00070009109731981227 0 -0.005188882866655883 0.001795177780340195 0 -0.0066338047866483498 0.0014395899709996663 0 -0.0051460827645402754 0.00070009109731981227 0 -0.005188882866655883 0.001795177780340195 0 -0.0062246192776888205 0.002561585549769541 0 -0.0066338047866483498 0.0014395899709996663 0 -0.0062246192776888205 0.002561585549769541 0 -0.0059592561420635471 0.0033889958395905283 0 -0.0065828854352194535 0.0033962222347928657 0 -0.0047296656474525595 0.0032619827639168326 0 -0.0062246192776888205 0.002561585549769541 0 -0.0059592561420635471 0.0033889958395905283 0 -0.0059592561420635471 0.0033889958395905283 0 -0.0065828854352194535 0.0033962222347928657 0 -0.0062939795584173929 0.0043514328466475868 0 -0.0047296656474525595 0.0032619827639168326 0 -0.0059592561420635471 0.0033889958395905283 0 -0.0062939795584173929 0.0043514328466475868 0 -0.0073896924622056945 0.0031439963376469373 0 -0.0077358031520550451 0.002039478602162787 0 -0.0088868773759926585 0.0041747611615625731 0 -0.0073753776305032241 0.0039777259452617843 0 -0.0073896924622056945 0.0031439963376469373 0 -0.0088868773759926585 0.0041747611615625731 0 -0.0073753776305032241 0.0039777259452617843 0 -0.0065828854352194535 0.0033962222347928657 0 -0.0073896924622056945 0.0031439963376469373 0 -0.0073753776305032241 0.0039777259452617843 0 -0.0065828854352194535 0.0033962222347928657 0 -0.0062939795584173929 0.0043514328466475868 0 -0.0062246192776888205 0.002561585549769541 0 -0.0065828854352194535 0.0033962222347928657 0 -0.0073896924622056945 0.0031439963376469373 0 -0.0062246192776888205 0.002561585549769541 0 -0.0077358031520550451 0.002039478602162787 0 -0.0066338047866483498 0.0014395899709996663 0 -0.0077358031520550451 0.002039478602162787 0 -0.0066338047866483498 0.0014395899709996663 0 -0.0088778867900875923 0.0014974384994698106 0 -0.0062246192776888205 0.002561585549769541 0 -0.0073896924622056945 0.0031439963376469373 0 -0.0077358031520550451 0.002039478602162787 0 -0.0066338047866483498 0.0014395899709996663 0 -0.0074341255937658583 -0.00023801097786790742 0 -0.0059032887927615227 -0.00052299304346801253 0 -0.0066338047866483498 0.0014395899709996663 0 -0.0051460827645402754 0.00070009109731981227 0 -0.0059032887927615227 -0.00052299304346801253 0 -0.0039478270880942386 -0.00058175982628385541 0 -0.0051460827645402754 0.00070009109731981227 0 -0.0059032887927615227 -0.00052299304346801253 0 -0.0051960833287698939 -0.0024467043604298713 0 -0.0059032887927615227 -0.00052299304346801253 0 -0.0075226297563832367 -0.001577645578398587 0 -0.0051960833287698939 -0.0024467043604298713 0 -0.0039478270880942386 -0.00058175982628385541 0 -0.0059032887927615227 -0.00052299304346801253 0 -0.0074341255937658583 -0.00023801097786790742 0 -0.0059032887927615227 -0.00052299304346801253 0 -0.0075226297563832367 -0.001577645578398587 0 -0.0066338047866483498 0.0014395899709996663 0 -0.009343142344496699 0.00026194236473210761 0 -0.0088778867900875923 0.0014974384994698106 0 -0.0068006492713602925 0.0013873756108298998 0 -0.0097226641576187364 -0.00016968554267064286 0 -0.0066338047866483498 0.0014395899709996663 0 -0.0074341255937658583 -0.00023801097786790742 0 -0.0096199673439842717 -0.00031616923852200465 0 -0.0074341255937658583 -0.00023801097786790742 0 -0.0075226297563832367 -0.001577645578398587 0 -0.0096199673439842717 -0.00031616923852200465 0 -0.009343142344496699 0.00026194236473210761 0 -0.0088778867900875923 0.0014974384994698106 0 -0.010777243855757136 0.0011229124768968193 0 -0.0077358031520550451 0.002039478602162787 0 -0.0088778867900875923 0.0014974384994698106 0 -0.009951317482996944 0.0024484283109850393 0 -0.0077358031520550451 0.002039478602162787 0 -0.009951317482996944 0.0024484283109850393 0 -0.01091316468584835 0.00437173907716567 0 -0.0077358031520550451 0.002039478602162787 0 -0.012773986120687227 0.00531604425870634 0 -0.0088868773759926585 0.0041747611615625731 0 -0.0073343463416090764 0.0027583166190833911 0 -0.014121019709857179 0.0023988588872266951 0 -0.0088778867900875923 0.0014974384994698106 0 -0.009951317482996944 0.0024484283109850393 0 -0.010777243855757136 0.0011229124768968193 0 -0.009951317482996944 0.0024484283109850393 0 -0.011463131079390676 0.0026580965514386352 0 -0.010777243855757136 0.0011229124768968193 0 -0.009951317482996944 0.0024484283109850393 0 -0.011463131079390676 0.0026580965514386352 0 -0.01091316468584835 0.00437173907716567 0 -0.011463131079390676 0.0026580965514386352 0 -0.012773139425179046 0.0033285486269694483 0 -0.01091316468584835 0.00437173907716567 0 -0.011463131079390676 0.0026580965514386352 0 -0.011847510455690772 0.0014792604387593381 0 -0.013077122151580528 0.0016927837885293625 0 -0.011463131079390676 0.0026580965514386352 0 -0.011847510455690772 0.0014792604387593381 0 -0.010777243855757136 0.0011229124768968193 0 -0.010433380755280755 -0.00052704461210422164 0 -0.0097226641576187364 -0.00016968554267064286 0 -0.011544518735818047 -0.00078846533073490736 0 -0.009343142344496699 0.00026194236473210761 0 -0.010777243855757136 0.0011229124768968193 0 -0.011847510455690772 0.0014792604387593381 0 -0.010777243855757136 0.0011229124768968193 0 -0.01223508810261921 0.00042120363015514523 0 -0.011544518735818047 -0.00078846533073490736 0 -0.010777243855757136 0.0011229124768968193 0 -0.01223508810261921 0.00042120363015514523 0 -0.012165275622258179 0.003276346966575844 0 -0.012004015569836409 0.0033626118464243683 0 -0.012011976416463736 0.0031869491352985585 0 -0.012165275622258179 0.003276346966575844 0 -0.012297803041897534 0.0034460596492499689 0 -0.01236916134687634 0.0032788293181077485 0 -0.012165275622258179 0.003276346966575844 0 -0.012297803041897534 0.0034460596492499689 0 -0.012133495574534667 0.0034405404859518102 0 -0.012165275622258179 0.003276346966575844 0 -0.012133495574534667 0.0034405404859518102 0 -0.012004015569836409 0.0033626118464243683 0 -0.012133495574534667 0.0034405404859518102 0 -0.012004015569836409 0.0033626118464243683 0 -0.012027612051195576 0.0035263815234116936 0 -0.012004015569836409 0.0033626118464243683 0 -0.011856458393926886 0.0034577297817022265 0 -0.012027612051195576 0.0035263815234116936 0 -0.012004015569836409 0.0033626118464243683 0 -0.011856458393926886 0.0034577297817022265 0 -0.011784161641440399 0.0032843615256942359 0 -0.012004015569836409 0.0033626118464243683 0 -0.011784161641440399 0.0032843615256942359 0 -0.012011976416463736 0.0031869491352985585 0 -0.012029771932238965 0.0029005461333339632 0 -0.011784161641440399 0.0032843615256942359 0 -0.012011976416463736 0.0031869491352985585 0 -0.011579884162156049 0.0032868848285731106 0 -0.011784161641440399 0.0032843615256942359 0 -0.01173532989407507 0.0032589347713023933 0 -0.011579884162156049 0.0032868848285731106 0 -0.011590874736720052 0.0033281757761795413 0 -0.01173532989407507 0.0032589347713023933 0 -0.0076322010218258405 0.0022063174717939617 0 -0.012857093479793105 0.0031556137367021188 0 -0.004442358913950159 0.0021892329700306554 0 -0.0066802773684349771 0.0034451600398463975 0 -0.0076322010218258405 0.0022063174717939617 0 -0.0094916313036289453 0.0023773145911708347 0 -0.012029771932238965 0.0029005461333339632 0 -0.012165275622258179 0.003276346966575844 0 -0.01236916134687634 0.0032788293181077485 0 -0.012029771932238965 0.0029005461333339632 0 -0.012165275622258179 0.003276346966575844 0 -0.012011976416463736 0.0031869491352985585 0 -0.005690089435344773 0.0011413206590532869 0 -0.0061126748401175391 0.0012919792178203667 0 -0.0059921011749854277 0.0014763157662780278 0 -0.00077068656726776979 -0.0004787285949054104 0 -0.0005136359242643297 -0.0010001274020941058 0 -0.00086734867278142323 -0.0011605154318789347 0 -0.00077068656726776979 -0.0004787285949054104 0 -0.0010358353771990063 -0.0011304620474671845 0 -0.00086734867278142323 -0.0011605154318789347 0 -0.0005136359242643297 -0.0010001274020941058 0 -0.00072586825171000241 -0.0011351927020184559 0 -0.00086734867278142323 -0.0011605154318789347 0 -0.00072586825171000241 -0.0011351927020184559 0 -0.001000568827691809 -0.0011984386216883931 0 -0.00086734867278142323 -0.0011605154318789347 0 -0.001000568827691809 -0.0011984386216883931 0 -0.00086734867278142323 -0.0011605154318789347 0 -0.00094137583996406103 -0.0010517844834053327 0 -0.0038286771801330642 8.288435609770921e-05 0 -0.0032610039069943348 0.00034319386532784659 0 -0.0010358353771990063 -0.0011304620474671845 0 -0.00086734867278142323 -0.0011605154318789347 0 -0.00094137583996406103 -0.0010517844834053327 0 -0.001000568827691809 -0.0011984386216883931 0 -0.0015409753238055637 -0.0011654898306090729 0 -0.00094137583996406103 -0.0010517844834053327 0 -0.0059921011749854277 0.0014763157662780278 0 -0.00608266106539802 0.001576039647237084 0 -0.0063825314029898579 0.0017389286966498652 0 -0.0061126748401175391 0.0012919792178203667 0 -0.0059921011749854277 0.0014763157662780278 0 -0.0063825314029898579 0.0017389286966498652 0 -0.0094916313036289453 0.0023773145911708347 0 -0.0096308627617524012 0.0023770547432054577 0 -0.012297803041897534 0.0034460596492499689 0 -0.012452010072063703 0.0033771266324364993 0 -0.012391420168208479 0.0035232092561544273 0 -0.012297803041897534 0.0034460596492499689 0 -0.01236916134687634 0.0032788293181077485 0 -0.012452010072063703 0.0033771266324364993 0 -0.012297803041897534 0.0034460596492499689 0 -0.012391420168208479 0.0035232092561544273 0 -0.012343943767570382 0.0036247616753052711 0 -0.012452010072063703 0.0033771266324364993 0 -0.012391420168208479 0.0035232092561544273 0 -0.012445812851969286 0.0036190210010387733 0 -0.0096308627617524012 0.0023770547432054577 0 -0.011817520863280164 0.0032186468983272792 0 -0.012452010072063703 0.0033771266324364993 0 -0.012445812851969286 0.0036190210010387733 0 -0.012568185650189242 0.0037383816666896838 0 -0.012445812851969286 0.0036190210010387733 0 -0.012343943767570382 0.0036247616753052711 0 -0.012423807860571947 0.0037800578086933821 0 -0.012391420168208479 0.0035232092561544273 0 -0.012445812851969286 0.0036190210010387733 0 -0.012343943767570382 0.0036247616753052711 0 -0.0067440761859471465 0.0023564065482021036 0 -0.0063825314029898579 0.0017389286966498652 0 -0.0063033510510837366 0.0018565407998394085 0 -0.00608266106539802 0.001576039647237084 0 -0.0063825314029898579 0.0017389286966498652 0 -0.0063033510510837366 0.0018565407998394085 0 -0.010393410706528041 0.0019655104007729753 0 -0.010686882586965121 0.0022833420623887598 0 -0.010574812158987285 0.0024567118030947924 0 -0.0096308627617524012 0.0023770547432054577 0 -0.008544723916413784 0.0018936683178135279 0 -0.010686882586965121 0.0022833420623887598 0 -0.010574812158987285 0.0024567118030947924 0 -0.010806785473671983 0.002647351424615944 0 -0.012568185650189242 0.0037383816666896838 0 -0.012496751014579198 0.0039177113525525947 0 -0.012659268426028285 0.0040258412549243295 0 -0.010574812158987285 0.0024567118030947924 0 -0.010806785473671983 0.002647351424615944 0 -0.010769057420997517 0.0029361248026412252 0 -0.011817520863280164 0.0032186468983272792 0 -0.011347922163058518 0.0034787981583521976 0 -0.011090673152775486 0.0027232026994954629 0 -0.010686882586965121 0.0022833420623887598 0 -0.010806785473671983 0.002647351424615944 0 -0.012343943767570382 0.0036247616753052711 0 -0.012423807860571947 0.0037800578086933821 0 -0.012264731778330507 0.0037562338920837531 0 -0.012568185650189242 0.0037383816666896838 0 -0.012423807860571947 0.0037800578086933821 0 -0.012496751014579198 0.0039177113525525947 0 -0.012445812851969286 0.0036190210010387733 0 -0.012568185650189242 0.0037383816666896838 0 -0.012423807860571947 0.0037800578086933821 0 -0.012423807860571947 0.0037800578086933821 0 -0.012264731778330507 0.0037562338920837531 0 -0.012364180175545247 0.0039358501023736975 0 -0.012423807860571947 0.0037800578086933821 0 -0.012364180175545247 0.0039358501023736975 0 -0.012496751014579198 0.0039177113525525947 0 -0.012264731778330507 0.0037562338920837531 0 -0.012139891541698549 0.0038921888543972799 0 -0.012364180175545247 0.0039358501023736975 0 -0.012264731778330507 0.0037562338920837531 0 -0.012087663122154228 0.0036887404169231048 0 -0.012139891541698549 0.0038921888543972799 0 -0.012343943767570382 0.0036247616753052711 0 -0.012264731778330507 0.0037562338920837531 0 -0.012194496416163094 0.0035855422089203408 0 -0.012194496416163094 0.0035855422089203408 0 -0.012027612051195576 0.0035263815234116936 0 -0.012087663122154228 0.0036887404169231048 0 -0.012264731778330507 0.0037562338920837531 0 -0.012194496416163094 0.0035855422089203408 0 -0.012087663122154228 0.0036887404169231048 0 -0.012133495574534667 0.0034405404859518102 0 -0.012194496416163094 0.0035855422089203408 0 -0.012027612051195576 0.0035263815234116936 0 -0.012297803041897534 0.0034460596492499689 0 -0.012133495574534667 0.0034405404859518102 0 -0.012194496416163094 0.0035855422089203408 0 -0.012297803041897534 0.0034460596492499689 0 -0.012343943767570382 0.0036247616753052711 0 -0.012194496416163094 0.0035855422089203408 0 -0.011856458393926886 0.0034577297817022265 0 -0.012027612051195576 0.0035263815234116936 0 -0.011891997010931864 0.0036111974389984752 0 -0.012027612051195576 0.0035263815234116936 0 -0.012087663122154228 0.0036887404169231048 0 -0.011891997010931864 0.0036111974389984752 0 -0.012087663122154228 0.0036887404169231048 0 -0.011891997010931864 0.0036111974389984752 0 -0.011981594180833778 0.0037988064208813776 0 -0.012087663122154228 0.0036887404169231048 0 -0.011981594180833778 0.0037988064208813776 0 -0.012139891541698549 0.0038921888543972799 0 -0.011981594180833778 0.0037988064208813776 0 -0.012139891541698549 0.0038921888543972799 0 -0.012030070262260589 0.0039779666276501735 0 -0.011981594180833778 0.0037988064208813776 0 -0.011915361274270826 0.0038854927717907285 0 -0.012030070262260589 0.0039779666276501735 0 -0.011915361274270826 0.0038854927717907285 0 -0.011775691708751829 0.0037534435807823206 0 -0.011739752531452827 0.0040067807769376242 0 -0.011981594180833778 0.0037988064208813776 0 -0.011915361274270826 0.0038854927717907285 0 -0.011775691708751829 0.0037534435807823206 0 -0.011891997010931864 0.0036111974389984752 0 -0.011981594180833778 0.0037988064208813776 0 -0.011775691708751829 0.0037534435807823206 0 -0.011775691708751829 0.0037534435807823206 0 -0.011402380173425429 0.0037816813919754268 0 -0.011739752531452827 0.0040067807769376242 0 -0.0010922800983772403 0.0036718660111408389 0 -0.0011226999676990927 0.0035684710087363655 0 -0.0010085077981999084 0.0035693158377155488 0 -0.011775691708751829 0.0037534435807823206 0 -0.011402380173425429 0.0037816813919754268 0 -0.011605697089370624 0.0034713336660660279 0 -0.0060367234745141085 0.0036982751538560919 0 -0.0063670233293938658 0.0035095078518687277 0 -0.011856458393926886 0.0034577297817022265 0 -0.011891997010931864 0.0036111974389984752 0 -0.011605697089370624 0.0034713336660660279 0 -0.011891997010931864 0.0036111974389984752 0 -0.011775691708751829 0.0037534435807823206 0 -0.011605697089370624 0.0034713336660660279 0 -0.011784161641440399 0.0032843615256942359 0 -0.011605697089370624 0.0034713336660660279 0 -0.01173532989407507 0.0032589347713023933 0 -0.011856458393926886 0.0034577297817022265 0 -0.011784161641440399 0.0032843615256942359 0 -0.011605697089370624 0.0034713336660660279 0 -0.0063670233293938658 0.0035095078518687277 0 -0.0066802773684349771 0.0034451600398463975 0 -0.0011226999676990927 0.0035684710087363655 0 -0.00098964528018974048 0.0034296458016506676 0 -0.0010085077981999084 0.0035693158377155488 0 -0.0011226999676990927 0.0035684710087363655 0 -0.00098964528018974048 0.0034296458016506676 0 -0.0012047109372385189 0.003430827799359844 0 -0.00098964528018974048 0.0034296458016506676 0 -0.0010881422019725306 0.0032953651364936707 0 -0.00093009924811569378 0.0032860076124597505 0 -0.0012047109372385189 0.003430827799359844 0 -0.0010881422019725306 0.0032953651364936707 0 -0.0011972215134059239 0.0032940916925635684 0 -0.00098964528018974048 0.0034296458016506676 0 -0.0012047109372385189 0.003430827799359844 0 -0.0010881422019725306 0.0032953651364936707 0 -0.00095556497642922079 0.0034786109579924636 0 -0.00073479501286686567 0.0033705797966576585 0 -0.00083190007579497978 0.0033826042226760985 0 -0.00097835528558715547 0.003482006938254316 0 -0.00095556497642922079 0.0034786109579924636 0 -0.00083190007579497978 0.0033826042226760985 0 -0.00097815617998534975 0.0035527731588902295 0 -0.00077527628494404989 0.0033274023595098404 0 -0.00098964528018974048 0.0034296458016506676 0 -0.00093009924811569378 0.0032860076124597505 0 -0.00074974312497445362 0.0033103451560099056 0 -0.00098964528018974048 0.0034296458016506676 0 -0.00086969468969766179 0.0034982815628886014 0 -0.00074974312497445362 0.0033103451560099056 0 -0.00098964528018974048 0.0034296458016506676 0 -0.00086969468969766179 0.0034982815628886014 0 -0.0010085077981999084 0.0035693158377155488 0 -0.00097835528558715547 0.003482006938254316 0 -0.0010918269345945974 0.0034466720262692377 0 -0.00095556497642922079 0.0034786109579924636 0 -0.00097815617998534975 0.0035527731588902295 0 -0.00043911946984023651 0.0031687532284537727 0 -0.00097835528558715547 0.003482006938254316 0 -0.0010298059860518562 0.0033354035147208274 0 -0.0010918269345945974 0.0034466720262692377 0 -0.0010298059860518562 0.0033354035147208274 0 -0.0010918269345945974 0.0034466720262692377 0 -0.0012110039372626035 0.0033541680144283351 0 -0.0010922800983772403 0.0036718660111408389 0 -0.00097667838496712602 0.0036388631572346914 0 -0.0010085077981999084 0.0035693158377155488 0 -0.00086969468969766179 0.0034982815628886014 0 -0.00097667838496712602 0.0036388631572346914 0 -0.0010085077981999084 0.0035693158377155488 0 -0.0010922800983772403 0.0036718660111408389 0 -0.0010506090234668815 0.0036975535620351616 0 -0.0011015146929676692 0.0037670685985918507 0 -0.0010922800983772403 0.0036718660111408389 0 -0.00097667838496712602 0.0036388631572346914 0 -0.0010506090234668815 0.0036975535620351616 0 -0.0010298059860518562 0.0033354035147208274 0 -0.0011615269733514576 0.0032129561797698543 0 -0.0010940757543845797 0.0030722309398232965 0 -0.0011615269733514576 0.0032129561797698543 0 -0.0013485707527263805 0.0031063154719417918 0 -0.0010940757543845797 0.0030722309398232965 0 -0.00097667838496712602 0.0036388631572346914 0 -0.0010506090234668815 0.0036975535620351616 0 -0.0010677162418966891 0.0037552487121833979 0 -0.0010298059860518562 0.0033354035147208274 0 -0.0011615269733514576 0.0032129561797698543 0 -0.0012110039372626035 0.0033541680144283351 0 -0.00043911946984023651 0.0031687532284537727 0 -0.0064667142926952562 0.0049349804526433848 0 -0.0011615269733514576 0.0032129561797698543 0 -0.0013485707527263805 0.0031063154719417918 0 -0.0012110039372626035 0.0033541680144283351 0 -0.0013485707527263805 0.0031063154719417918 0 -0.0015772114447122291 0.0035004969696942798 0 -0.0012110039372626035 0.0033541680144283351 0 -0.0048122154559359278 0.0048120328073235057 0 -0.0023262141109286882 0.0038873973892332631 0 -0.0082176099175156839 0.0061665312916872588 0 -0.0043639264711373155 0.0062576100776759614 0 -0.00216539680452415 0.0039561259399574786 0 -0.0082176099175156839 0.0061665312916872588 0 -0.0043639264711373155 0.0062576100776759614 0 -0.005732229678795297 0.007701389095570747 0 -0.0013485707527263805 0.0031063154719417918 0 -0.0015772114447122291 0.0035004969696942798 0 -0.00216539680452415 0.0039561259399574786 0 -0.0015772114447122291 0.0035004969696942798 0 -0.0017343053543693806 0.0033651521733215834 0 -0.00216539680452415 0.0039561259399574786 0 -0.0015772114447122291 0.0035004969696942798 0 -0.0017343053543693806 0.0033651521733215834 0 -0.0014921441738240426 0.0034044967969831422 0 -0.0017343053543693806 0.0033651521733215834 0 -0.0013932327122162184 0.0032830448268077557 0 -0.0014921441738240426 0.0034044967969831422 0 -0.0015772114447122291 0.0035004969696942798 0 -0.0014921441738240426 0.0034044967969831422 0 -0.00130837474033417 0.00345849507815966 0 -0.0014921441738240426 0.0034044967969831422 0 -0.00130837474033417 0.00345849507815966 0 -0.0011628864731547089 0.0034445377450172728 0 -0.0010918269345945974 0.0034466720262692377 0 -0.00130837474033417 0.00345849507815966 0 -0.0012110039372626035 0.0033541680144283351 0 -0.0015772114447122291 0.0035004969696942798 0 -0.00130837474033417 0.00345849507815966 0 -0.0012110039372626035 0.0033541680144283351 0 -0.015724509002597885 0.0093283955462854992 0 -0.015909458300734466 0.0081254442050439045 0 -0.01758965918149457 0.008190136875328817 0 -0.015909458300734466 0.0081254442050439045 0 -0.015816477300460496 0.006243172124398874 0 -0.01758965918149457 0.008190136875328817 0 -0.015909458300734466 0.0081254442050439045 0 -0.014593996626479018 0.0085378107580963876 0 -0.015816477300460496 0.006243172124398874 0 -0.015724509002597885 0.0093283955462854992 0 -0.015909458300734466 0.0081254442050439045 0 -0.014593996626479018 0.0085378107580963876 0 -0.015724509002597885 0.0093283955462854992 0 -0.014593996626479018 0.0085378107580963876 0 -0.014576553340467127 0.009804404170243983 0 -0.014593996626479018 0.0085378107580963876 0 -0.01332013266373272 0.010161884044517566 0 -0.013189463130216628 0.0068260760666839148 0 -0.0043639264711373155 0.0062576100776759614 0 -0.00216539680452415 0.0039561259399574786 0 -0.0026184822821361305 0.0077589692225103878 0 -0.0069610510843066192 0.0059135608117419306 0 -0.012044758846206174 0.01023349999538095 0 -0.00216539680452415 0.0039561259399574786 0 -0.0016154159053554937 0.0029654539136853872 0 -0.0026184822821361305 0.0077589692225103878 0 -0.0017343053543693806 0.0033651521733215834 0 -0.00216539680452415 0.0039561259399574786 0 -0.0016154159053554937 0.0029654539136853872 0 -0.0017343053543693806 0.0033651521733215834 0 -0.0013932327122162184 0.0032830448268077557 0 -0.0016154159053554937 0.0029654539136853872 0 -0.01332013266373272 0.010161884044517566 0 -0.014194553288431161 0.01044754019494379 0 -0.014025742790177802 0.011254553297487506 0 -0.01332013266373272 0.010161884044517566 0 -0.014194553288431161 0.01044754019494379 0 -0.014576553340467127 0.009804404170243983 0 -0.014593996626479018 0.0085378107580963876 0 -0.01332013266373272 0.010161884044517566 0 -0.014576553340467127 0.009804404170243983 0 -0.015032874942206434 0.010407908646934147 0 -0.015334490680546412 0.01115396424493679 0 -0.016451738974234069 0.010413139059088599 0 -0.015724509002597885 0.0093283955462854992 0 -0.015032874942206434 0.010407908646934147 0 -0.016451738974234069 0.010413139059088599 0 -0.015724509002597885 0.0093283955462854992 0 -0.014576553340467127 0.009804404170243983 0 -0.015032874942206434 0.010407908646934147 0 -0.014194553288431161 0.01044754019494379 0 -0.014576553340467127 0.009804404170243983 0 -0.015032874942206434 0.010407908646934147 0 -0.015032874942206434 0.010407908646934147 0 -0.015334490680546412 0.01115396424493679 0 -0.014025742790177802 0.011254553297487506 0 -0.014194553288431161 0.01044754019494379 0 -0.015032874942206434 0.010407908646934147 0 -0.014025742790177802 0.011254553297487506 0 -0.014718019715691647 0.012002144089436529 0 -0.015334490680546412 0.01115396424493679 0 -0.014025742790177802 0.011254553297487506 0 -0.014718019715691647 0.012002144089436529 0 -0.014025742790177802 0.011254553297487506 0 -0.013301016091021826 0.012420105596515548 0 -0.0013932327122162184 0.0032830448268077557 0 -0.0016154159053554937 0.0029654539136853872 0 -0.0010904703354158974 0.0035587172917748264 0 -0.0069610510843066192 0.0059135608117419306 0 -0.0072637169467780005 0.0080961882360105503 0 -0.01332013266373272 0.010161884044517566 0 -0.014025742790177802 0.011254553297487506 0 -0.013301016091021826 0.012420105596515548 0 -0.0010904703354158974 0.0035587172917748264 0 -0.00071100660819804816 0.0034450185240259496 0 -0.00041462926155405567 0.003373020814955096 0 -0.0072637169467780005 0.0080961882360105503 0 -0.0069365228576126385 0.0082540489741061152 0 -0.014718019715691647 0.012002144089436529 0 -0.0141561926319782 0.013056765504978224 0 -0.016038840962450722 0.01191277546212996 0 -0.014718019715691647 0.012002144089436529 0 -0.013301016091021826 0.012420105596515548 0 -0.0141561926319782 0.013056765504978224 0 -0.013301016091021826 0.012420105596515548 0 -0.0141561926319782 0.013056765504978224 0 -0.013016954190674508 0.013635455925172053 0 -0.0010918269345945974 0.0034466720262692377 0 -0.00130837474033417 0.00345849507815966 0 -0.00095556497642922079 0.0034786109579924636 0 -0.00130837474033417 0.00345849507815966 0 -0.0011628864731547089 0.0034445377450172728 0 -0.00095556497642922079 0.0034786109579924636 0 -0.0013932327122162184 0.0032830448268077557 0 -0.0010904703354158974 0.0035587172917748264 0 -0.0011628864731547089 0.0034445377450172728 0 -0.0013932327122162184 0.0032830448268077557 0 -0.0014921441738240426 0.0034044967969831422 0 -0.0011628864731547089 0.0034445377450172728 0 -0.0010904703354158974 0.0035587172917748264 0 -0.00080044848093942169 0.0034620607860845493 0 -0.00071100660819804816 0.0034450185240259496 0 -0.0010904703354158974 0.0035587172917748264 0 -0.0011628864731547089 0.0034445377450172728 0 -0.00080044848093942169 0.0034620607860845493 0 -0.0011628864731547089 0.0034445377450172728 0 -0.00080044848093942169 0.0034620607860845493 0 -0.00095556497642922079 0.0034786109579924636 0 -0.00080044848093942169 0.0034620607860845493 0 -0.00095556497642922079 0.0034786109579924636 0 -0.00073479501286686567 0.0033705797966576585 0 -0.00080044848093942169 0.0034620607860845493 0 -0.00073479501286686567 0.0033705797966576585 0 -0.00050521644863008735 0.0032307871425068437 0 -0.00073479501286686567 0.0033705797966576585 0 -0.00050521644863008735 0.0032307871425068437 0 -0.00060983195092313887 0.0032214189755415431 0 -0.00080044848093942169 0.0034620607860845493 0 -0.0005447472755822938 0.0033394068444558556 0 -0.00050521644863008735 0.0032307871425068437 0 -0.00080044848093942169 0.0034620607860845493 0 -0.00071100660819804816 0.0034450185240259496 0 -0.0005447472755822938 0.0033394068444558556 0 -0.00027186334763805924 0.0031209444991983919 0 -0.00050521644863008735 0.0032307871425068437 0 -0.00024339441088675143 0.0029691698375557346 0 -0.0005447472755822938 0.0033394068444558556 0 -0.00027186334763805924 0.0031209444991983919 0 -0.00050521644863008735 0.0032307871425068437 0 -0.0005447472755822938 0.0033394068444558556 0 -0.00027186334763805924 0.0031209444991983919 0 -0.00041462926155405567 0.003373020814955096 0 -0.00050521644863008735 0.0032307871425068437 0 -0.00038197497523179125 0.0029976245429393965 0 -0.00024339441088675143 0.0029691698375557346 0 -0.00050521644863008735 0.0032307871425068437 0 -0.00038197497523179125 0.0029976245429393965 0 -0.00060983195092313887 0.0032214189755415431 0 -0.0141561926319782 0.013056765504978224 0 -0.013016954190674508 0.013635455925172053 0 -0.014503902699833437 0.014197172561984441 0 -0.012874993955875103 0.013680155793207338 0 -0.011161868524524063 0.013143147845265577 0 -0.013301016091021826 0.012420105596515548 0 -0.013016954190674508 0.013635455925172053 0 -0.013481426593236165 0.013451424157206439 0 -0.00071100660819804816 0.0034450185240259496 0 -0.0005447472755822938 0.0033394068444558556 0 -0.00041462926155405567 0.003373020814955096 0 -0.0069365228576126385 0.0082540489741061152 0 -0.0066321965419541221 0.0056979165668110043 0 -0.013016954190674508 0.013635455925172053 0 -0.013481426593236165 0.013451424157206439 0 -0.011486012258195793 0.010789491762763717 0 -0.013481426593236165 0.013451424157206439 0 -0.011486012258195793 0.010789491762763717 0 -0.013320868110854049 0.0083675661052463393 0 -0.00027186334763805924 0.0031209444991983919 0 -0.00041462926155405567 0.003373020814955096 0 8.9148569538056373e-05 0.0029330759415729622 0 -0.013016954190674508 0.013635455925172053 0 -0.011486012258195793 0.010789491762763717 0 -0.008464392294911376 0.012367100181723441 0 -0.011486012258195793 0.010789491762763717 0 -0.008464392294911376 0.012367100181723441 0 -0.0073294564701293363 0.0097791587744044828 0 -0.011486012258195793 0.010789491762763717 0 -0.0079542300684509164 0.0065008089205907055 0 -0.0073294564701293363 0.0097791587744044828 0 -0.011486012258195793 0.010789491762763717 0 -0.011348176954100319 0.0056715294293228436 0 -0.0079542300684509164 0.0065008089205907055 0 8.9148569538056373e-05 0.0029330759415729622 0 -3.0109545656210461e-05 0.0028062518836383709 0 0.00018069591852194514 0.0026149174680695562 0 -0.011486012258195793 0.010789491762763717 0 -0.013320868110854049 0.0083675661052463393 0 -0.011348176954100319 0.0056715294293228436 0 -0.0059943116440359309 0.0024487155261260093 0 -0.0066321965419541221 0.0056979165668110043 0 0.00040626045835767075 0.0024308419911742559 0 8.9148569538056373e-05 0.0029330759415729622 0 0.00018069591852194514 0.0026149174680695562 0 -0.012772153288613666 0.0028171575786544497 0 -0.013320868110854049 0.0083675661052463393 0 -0.011348176954100319 0.0056715294293228436 0 -0.010415037267802607 0.0019055943918616326 0 -0.011348176954100319 0.0056715294293228436 0 -0.0079542300684509164 0.0065008089205907055 0 -0.0095607982831407683 0.0026457859574742842 0 -0.0078091797076999892 0.0064646096923435519 0 -0.012772153288613666 0.0028171575786544497 0 -0.010415037267802607 0.0019055943918616326 0 -0.011348176954100319 0.0056715294293228436 0 -0.00038197497523179125 0.0029976245429393965 0 -0.00024339441088675143 0.0029691698375557346 0 -7.2389433066215119e-05 0.0027129553997442221 0 -0.00027186334763805924 0.0031209444991983919 0 8.9148569538056373e-05 0.0029330759415729622 0 -3.0109545656210461e-05 0.0028062518836383709 0 -0.00024339441088675143 0.0029691698375557346 0 -3.0109545656210461e-05 0.0028062518836383709 0 -7.2389433066215119e-05 0.0027129553997442221 0 -0.00027186334763805924 0.0031209444991983919 0 -0.00024339441088675143 0.0029691698375557346 0 -3.0109545656210461e-05 0.0028062518836383709 0 -3.0109545656210461e-05 0.0028062518836383709 0 0.00018069591852194514 0.0026149174680695562 0 0.00016767728300340017 0.002527498191040103 0 -3.0109545656210461e-05 0.0028062518836383709 0 0.00016767728300340017 0.002527498191040103 0 -7.2389433066215119e-05 0.0027129553997442221 0 0.00030394098907692604 0.0024086094562473211 0 0.00018069591852194514 0.0026149174680695562 0 0.00016767728300340017 0.002527498191040103 0 0.00021888974829452573 0.0024204996062799139 0 -7.2389433066215119e-05 0.0027129553997442221 0 -2.4860264773372917e-05 0.002553165647731853 0 0.00021888974829452573 0.0024204996062799139 0 0.00016767728300340017 0.002527498191040103 0 -7.2389433066215119e-05 0.0027129553997442221 0 -7.2389433066215119e-05 0.0027129553997442221 0 -2.4860264773372917e-05 0.002553165647731853 0 -0.00030229065297320023 0.0027831668921876932 0 -2.4860264773372917e-05 0.002553165647731853 0 -0.00030229065297320023 0.0027831668921876932 0 -0.00025210314243848862 0.0025332079391771675 0 -0.00038197497523179125 0.0029976245429393965 0 -7.2389433066215119e-05 0.0027129553997442221 0 -0.00030229065297320023 0.0027831668921876932 0 -0.00038197497523179125 0.0029976245429393965 0 -0.00030229065297320023 0.0027831668921876932 0 -0.00060073294076473812 0.0030691203744999075 0 -0.00060045747791500118 0.00282908065647675 0 -0.00082861481887783748 0.0031275018543439523 0 -0.00060073294076473812 0.0030691203744999075 0 -0.00030229065297320023 0.0027831668921876932 0 -0.00060045747791500118 0.00282908065647675 0 -0.00060073294076473812 0.0030691203744999075 0 -0.00030229065297320023 0.0027831668921876932 0 -0.00060045747791500118 0.00282908065647675 0 -0.00025210314243848862 0.0025332079391771675 0 -0.00072902776191384271 0.0023576547720313978 0 -0.00060045747791500118 0.00282908065647675 0 -0.00025210314243848862 0.0025332079391771675 0 -0.00072902776191384271 0.0023576547720313978 0 -0.00060045747791500118 0.00282908065647675 0 -0.0010249723138200946 0.0027213283026722443 0 0.0007317814245745522 0.001836368972780933 0 -0.00080950056090260626 0.0025790345200282735 0 -0.00039986912362341534 0.0018330306564490744 0 -0.00057816063586538344 0.0022394348940350181 0 -0.00029141119744977684 0.0022220343590810729 0 -0.0010249723138200946 0.0027213283026722443 0 -0.00089282521381785489 0.0029454423981998532 0 -0.0011243366342239289 0.0030416899106575296 0 -0.00057816063586538344 0.0022394348940350181 0 -0.00029141119744977684 0.0022220343590810729 0 -0.00049391724755255503 0.002474509220208723 0 -0.0010249723138200946 0.0027213283026722443 0 -0.0012394517512689959 0.0029850063099139549 0 -0.0011243366342239289 0.0030416899106575296 0 -0.00080950056090260626 0.0025790345200282735 0 -0.00081234343281767556 0.0027923555751909446 0 -0.00060045747791500118 0.00282908065647675 0 -0.00089282521381785489 0.0029454423981998532 0 -0.00082861481887783748 0.0031275018543439523 0 -0.00060045747791500118 0.00282908065647675 0 -0.0010249723138200946 0.0027213283026722443 0 -0.00089282521381785489 0.0029454423981998532 0 -0.00089282521381785489 0.0029454423981998532 0 -0.00082861481887783748 0.0031275018543439523 0 -0.001007016940801477 0.0031558284838543141 0 -0.00082861481887783748 0.0031275018543439523 0 -0.001007016940801477 0.0031558284838543141 0 -0.00093009924811569378 0.0032860076124597505 0 -0.001340225576407365 0.0032417525244610944 0 -0.0011243366342239289 0.0030416899106575296 0 -0.001156727753611395 0.0032030629518646661 0 -0.00089282521381785489 0.0029454423981998532 0 -0.001007016940801477 0.0031558284838543141 0 -0.0011243366342239289 0.0030416899106575296 0 -0.001007016940801477 0.0031558284838543141 0 -0.0011243366342239289 0.0030416899106575296 0 -0.001156727753611395 0.0032030629518646661 0 -0.001007016940801477 0.0031558284838543141 0 -0.001156727753611395 0.0032030629518646661 0 -0.0010881422019725306 0.0032953651364936707 0 -0.001156727753611395 0.0032030629518646661 0 -0.0010881422019725306 0.0032953651364936707 0 -0.0011972215134059239 0.0032940916925635684 0 -0.001007016940801477 0.0031558284838543141 0 -0.0010881422019725306 0.0032953651364936707 0 -0.00093009924811569378 0.0032860076124597505 0 -0.00082861481887783748 0.0031275018543439523 0 -0.00093009924811569378 0.0032860076124597505 0 -0.00074974312497445362 0.0033103451560099056 0 -0.00073479501286686567 0.0033705797966576585 0 -0.00083190007579497978 0.0033826042226760985 0 -0.00060983195092313887 0.0032214189755415431 0 -0.00077527628494404989 0.0033274023595098404 0 -0.00064164283049980477 0.0030994069671469271 0 -0.00083190007579497978 0.0033826042226760985 0 -0.00060073294076473812 0.0030691203744999075 0 -0.00060983195092313887 0.0032214189755415431 0 -0.00038197497523179125 0.0029976245429393965 0 -0.00060073294076473812 0.0030691203744999075 0 -0.00060983195092313887 0.0032214189755415431 0 -0.00082861481887783748 0.0031275018543439523 0 -0.00074974312497445362 0.0033103451560099056 0 -0.00060073294076473812 0.0030691203744999075 0 -0.010457783799133282 -0.00045931607396982037 0 -0.012038524712786724 -0.00042365728853156965 0 -0.011460217726998276 -0.0006211000853190168 0 -0.010457783799133282 -0.00045931607396982037 0 -0.011866838036806989 -1.1331743477154646e-06 0 -0.012038524712786724 -0.00042365728853156965 0 -0.011866838036806989 -1.1331743477154646e-06 0 -0.012038524712786724 -0.00042365728853156965 0 -0.015107900987089456 2.3083162515335352e-07 0 -0.012038524712786724 -0.00042365728853156965 0 -0.012396441734570668 -0.00049480476722461332 0 -0.013050148268131802 -0.00033850543686480048 0 -0.012038524712786724 -0.00042365728853156965 0 -0.012396441734570668 -0.00049480476722461332 0 -0.011460217726998276 -0.0006211000853190168 0 -0.012396441734570668 -0.00049480476722461332 0 -0.012775448989179931 -0.00067550799773895818 0 -0.011460217726998276 -0.0006211000853190168 0 -0.012775448989179931 -0.00067550799773895818 0 -0.011746816652307075 -0.00069967629957821856 0 -0.011460217726998276 -0.0006211000853190168 0 -0.011746816652307075 -0.00069967629957821856 0 -0.010992278756416255 -0.00068753575873407673 0 -0.011460217726998276 -0.0006211000853190168 0 -0.011746816652307075 -0.00069967629957821856 0 -0.010992278756416255 -0.00068753575873407673 0 -0.010913192721011699 -0.00074145529693336344 0 -0.010457783799133282 -0.00045931607396982037 0 -0.011460217726998276 -0.0006211000853190168 0 -0.010280053194671276 -0.00063871692242774844 0 -0.010992278756416255 -0.00068753575873407673 0 -0.011460217726998276 -0.0006211000853190168 0 -0.010280053194671276 -0.00063871692242774844 0 -0.010280053194671276 -0.00063871692242774844 0 -0.010210493005575919 -0.00068609915476488181 0 -0.0092557913019180559 -0.00057287798163613757 0 -0.010992278756416255 -0.00068753575873407673 0 -0.010210493005575919 -0.00068609915476488181 0 -0.010913192721011699 -0.00074145529693336344 0 -0.010992278756416255 -0.00068753575873407673 0 -0.010280053194671276 -0.00063871692242774844 0 -0.010210493005575919 -0.00068609915476488181 0 -0.010210493005575919 -0.00068609915476488181 0 -0.010322723000110296 -0.00070738860115893002 0 -0.010913192721011699 -0.00074145529693336344 0 -0.010210493005575919 -0.00068609915476488181 0 -0.0096413462027864199 -0.00058944581203513051 0 -0.010322723000110296 -0.00070738860115893002 0 -0.010210493005575919 -0.00068609915476488181 0 -0.0096413462027864199 -0.00058944581203513051 0 -0.0092557913019180559 -0.00057287798163613757 0 -0.0096413462027864199 -0.00058944581203513051 0 -0.0092557913019180559 -0.00057287798163613757 0 -0.0088588285819598475 -0.00045178102036570614 0 -0.010280053194671276 -0.00063871692242774844 0 -0.0092557913019180559 -0.00057287798163613757 0 -0.0088796170459824707 -0.00045690755725518085 0 -0.0092557913019180559 -0.00057287798163613757 0 -0.0088796170459824707 -0.00045690755725518085 0 -0.0078826996456824606 -0.00041858802493885687 0 -0.0088796170459824707 -0.00045690755725518085 0 -0.0071816828364224218 -0.00028935670495445397 0 -0.0078826996456824606 -0.00041858802493885687 0 -0.010457783799133282 -0.00045931607396982037 0 -0.0088796170459824707 -0.00045690755725518085 0 -0.0086167329172326772 -6.6810814814379456e-07 0 -0.010457783799133282 -0.00045931607396982037 0 -0.010280053194671276 -0.00063871692242774844 0 -0.0088796170459824707 -0.00045690755725518085 0 -0.010457783799133282 -0.00045931607396982037 0 -0.011866838036806989 -1.1331743477154646e-06 0 -0.0086167329172326772 -6.6810814814379456e-07 0 -0.0088796170459824707 -0.00045690755725518085 0 -0.0086167329172326772 -6.6810814814379456e-07 0 -0.0071816828364224218 -0.00028935670495445397 0 -0.0053684071390099116 -6.3093150165151222e-07 0 -0.0071816828364224218 -0.00028935670495445397 0 -0.0063399840413822612 -0.00021434541188815502 0 -0.0086167329172326772 -6.6810814814379456e-07 0 -0.0053684071390099116 -6.3093150165151222e-07 0 -0.0071816828364224218 -0.00028935670495445397 0 -0.0071816828364224218 -0.00028935670495445397 0 -0.0063399840413822612 -0.00021434541188815502 0 -0.0078826996456824606 -0.00041858802493885687 0 -0.0063399840413822612 -0.00021434541188815502 0 -0.0046354335864602723 -7.6614652469206141e-05 0 -0.006748760103215891 -0.00015088263541925283 0 -0.0053684071390099116 -6.3093150165151222e-07 0 -0.0063399840413822612 -0.00021434541188815502 0 -0.0046354335864602723 -7.6614652469206141e-05 0 -0.0053684071390099116 -6.3093150165151222e-07 0 -0.0021202222658849067 -8.1290454461377987e-08 0 -0.0046354335864602723 -7.6614652469206141e-05 0 -0.0021202222658849067 -8.1290454461377987e-08 0 -0.0046354335864602723 -7.6614652469206141e-05 0 -0.0024262525525675155 0.00024171514230879529 0 -0.0046354335864602723 -7.6614652469206141e-05 0 -0.0024262525525675155 0.00024171514230879529 0 -0.0045674481291283113 0.00028068375092314181 0 0.0011289341660978302 2.9639837208902491e-07 0 -0.0021202222658849067 -8.1290454461377987e-08 0 -0.0024262525525675155 0.00024171514230879529 0 -0.006312319474261285 0.0029759156735848142 0 -0.0068229752999823916 0.0015806261476390472 0 -0.0083034340044380803 0.0013451276666490569 0 0.0054313616218117028 -0.0023831395762763333 0 0.0047107479933504934 -0.0024197425396123321 0 0.0045024573855442472 -0.0031052968786359188 0 0.00043765856003285294 0.00066859092555000572 0 -0.002127272716422482 -0.0010315679683901998 0 0.00043765856003285294 0.00066859092555000572 0 -0.00625626070951763 0.00080251193081012592 0 -0.0047234476324652655 0.0010012837849046187 0 -0.0058042782160136639 0.00045735074036066885 0 -0.0045674481291283113 0.00028068375092314181 0 -0.0047234476324652655 0.0010012837849046187 0 -0.0024262525525675155 0.00024171514230879529 0 -0.0045674481291283113 0.00028068375092314181 0 -0.0058042782160136639 0.00045735074036066885 0 -0.0045674481291283113 0.00028068375092314181 0 -0.0058421360318260231 0.00016720578041753926 0 -0.0046354335864602723 -7.6614652469206141e-05 0 -0.0058421360318260231 0.00016720578041753926 0 -0.006748760103215891 -0.00015088263541925283 0 -0.0046354335864602723 -7.6614652469206141e-05 0 -0.0045674481291283113 0.00028068375092314181 0 -0.0058421360318260231 0.00016720578041753926 0 -0.0058042782160136639 0.00045735074036066885 0 -0.0058421360318260231 0.00016720578041753926 0 -0.0073115475364025672 0.00029445323903120311 0 -0.0058421360318260231 0.00016720578041753926 0 -0.0073115475364025672 0.00029445323903120311 0 -0.006748760103215891 -0.00015088263541925283 0 -0.0073115475364025672 0.00029445323903120311 0 -0.008454086503273792 8.5892988873222006e-05 0 -0.0083034340044380803 0.0013451276666490569 0 -0.0068229752999823916 0.0015806261476390472 0 -0.0073115475364025672 0.00029445323903120311 0 -0.0083034340044380803 0.0013451276666490569 0 -0.00625626070951763 0.00080251193081012592 0 -0.0070327433116209089 0.00025940191852134062 0 -0.0073115475364025672 0.00029445323903120311 0 -0.0083064786247773626 -0.00025973927006926794 0 -0.006748760103215891 -0.00015088263541925283 0 -0.0073115475364025672 0.00029445323903120311 0 -0.0083064786247773626 -0.00025973927006926794 0 -0.008454086503273792 8.5892988873222006e-05 0 -0.0063399840413822612 -0.00021434541188815502 0 -0.006748760103215891 -0.00015088263541925283 0 -0.0078826996456824606 -0.00041858802493885687 0 -0.0083064786247773626 -0.00025973927006926794 0 -0.006748760103215891 -0.00015088263541925283 0 -0.0078826996456824606 -0.00041858802493885687 0 -0.0092557913019180559 -0.00057287798163613757 0 -0.0078826996456824606 -0.00041858802493885687 0 -0.0088588285819598475 -0.00045178102036570614 0 -0.0083064786247773626 -0.00025973927006926794 0 -0.0088588285819598475 -0.00045178102036570614 0 -0.0093896831151096087 -0.00030387195920799764 0 -0.0096413462027864199 -0.00058944581203513051 0 -0.0088588285819598475 -0.00045178102036570614 0 -0.0093896831151096087 -0.00030387195920799764 0 -0.0083064786247773626 -0.00025973927006926794 0 -0.0078826996456824606 -0.00041858802493885687 0 -0.0088588285819598475 -0.00045178102036570614 0 -0.0083064786247773626 -0.00025973927006926794 0 -0.0093896831151096087 -0.00030387195920799764 0 -0.0092576886049493667 -0.00026887087255740902 0 -0.0093896831151096087 -0.00030387195920799764 0 -0.010805518451230874 -0.00048196061242748267 0 -0.010034164285844145 -0.00055724881880160561 0 -0.00933980267297101 -0.00022282965658708732 0 -0.0092576886049493667 -0.00026887087255740902 0 -0.0093051540938939772 -0.00026471718314659281 0 -0.0099774187048470193 -0.0001886081553315461 0 -0.0085847448546028712 -0.0011699779564202067 0 -0.0093896831151096087 -0.00030387195920799764 0 -0.0092576886049493667 -0.00026887087255740902 0 -0.0093051540938939772 -0.00026471718314659281 0 -0.00933980267297101 -0.00022282965658708732 0 -0.0092787162994993639 -0.00023568639872006524 0 -0.0093051540938939772 -0.00026471718314659281 0 0.0020141372442216022 -0.00086833558391633003 0 0.0021026584370312175 -0.00090144419919344629 0 0.0021000680230689891 -0.00077975169484210353 0 -0.00933980267297101 -0.00022282965658708732 0 -0.0093033454117386425 -0.00025524186017805413 0 -0.0092787162994993639 -0.00023568639872006524 0 -0.00933980267297101 -0.00022282965658708732 0 -0.0095455924581212825 0.00017192867126411811 0 -0.0090105619024262416 0.00012497878075546398 0 -0.0065044521043140001 0.0004333574708706593 0 -0.0026399201431552988 -0.0015426704449597241 0 -0.0026399201431552988 -0.0015426704449597241 0 -0.0009059900610496436 -0.00067535048295607998 0 -0.0083064786247773626 -0.00025973927006926794 0 -0.0092576886049493667 -0.00026887087255740902 0 -0.008454086503273792 8.5892988873222006e-05 0 -0.00933980267297101 -0.00022282965658708732 0 -0.0092576886049493667 -0.00026887087255740902 0 -0.0090105619024262416 0.00012497878075546398 0 -0.0092576886049493667 -0.00026887087255740902 0 -0.0090105619024262416 0.00012497878075546398 0 -0.008454086503273792 8.5892988873222006e-05 0 -0.0095455924581212825 0.00017192867126411811 0 -0.0090105619024262416 0.00012497878075546398 0 -0.0083034340044380803 0.0013451276666490569 0 -0.0026399201431552988 -0.0015426704449597241 0 -0.002127272716422482 -0.0010315679683901998 0 0.0035975200276507613 -0.0037941685538869286 0 0.0045024573855442472 -0.0031052968786359188 0 0.0039258536850062002 -0.0030864012869860837 0 -0.0090105619024262416 0.00012497878075546398 0 -0.008454086503273792 8.5892988873222006e-05 0 -0.0083034340044380803 0.0013451276666490569 0 0.0035975200276507613 -0.0037941685538869286 0 0.0034991619344463838 -0.0027565324945618102 0 0.0039258536850062002 -0.0030864012869860837 0 -0.0026399201431552988 -0.0015426704449597241 0 0.0034498589270568758 -0.0021900594366852798 0 0.0020141372442216022 -0.00086833558391633003 0 0.002089968690191429 -0.0010341763053081752 0 0.0021205322413712694 -0.00096410656514831156 0 0.0020141372442216022 -0.00086833558391633003 0 0.0021205322413712694 -0.00096410656514831156 0 0.0021026584370312175 -0.00090144419919344629 0 0.0034991619344463838 -0.0027565324945618102 0 0.00411828443551148 -0.0026876225875727459 0 0.0039258536850062002 -0.0030864012869860837 0 0.0041047524878615183 -0.0020656771953119412 0 0.0034991619344463838 -0.0027565324945618102 0 0.00411828443551148 -0.0026876225875727459 0 0.0047107479933504934 -0.0024197425396123321 0 0.00411828443551148 -0.0026876225875727459 0 0.0045024573855442472 -0.0031052968786359188 0 0.00411828443551148 -0.0026876225875727459 0 0.0045024573855442472 -0.0031052968786359188 0 0.0039258536850062002 -0.0030864012869860837 0 0.0036493568872724997 0.0008433191466057766 0 0.0031485900455593442 0.00069037114875892473 0 0.0032994009242790327 0.00089150517290356875 0 0.0031485900455593442 0.00069037114875892473 0 0.0032994009242790327 0.00089150517290356875 0 0.0031256278694162766 0.00094192200282929429 0 0.0022480310172821715 -0.0010567151594755022 0 0.0021886342613168241 -0.001033120927216075 0 0.0021882526659377419 -0.0009476777176264464 0 0.0024965359304961769 -0.00021746856812180864 0 0.0030375072723769357 6.1622459702810215e-05 0 0.002089968690191429 -0.0010341763053081752 0 0.0021886342613168241 -0.001033120927216075 0 0.0021205322413712694 -0.00096410656514831156 0 0.0021886342613168241 -0.001033120927216075 0 0.0021882526659377419 -0.0009476777176264464 0 0.0021205322413712694 -0.00096410656514831156 0 0.0021882526659377419 -0.0009476777176264464 0 0.0021026584370312175 -0.00090144419919344629 0 0.0021000680230689891 -0.00077975169484210353 0 0.0021882526659377419 -0.0009476777176264464 0 0.0021205322413712694 -0.00096410656514831156 0 0.0021026584370312175 -0.00090144419919344629 0 0.0032994009242790327 0.00089150517290356875 0 0.0031271789299386521 0.00098587470963510293 0 0.0033214520543920992 0.00088631959727413553 0 0.0032994009242790327 0.00089150517290356875 0 0.0031256278694162766 0.00094192200282929429 0 0.0031271789299386521 0.00098587470963510293 0 0.0031271789299386521 0.00098587470963510293 0 0.0030337027194704078 0.00099541466618593239 0 0.0030167057752662008 0.0010398830796259861 0 0.0031256278694162766 0.00094192200282929429 0 0.0031271789299386521 0.00098587470963510293 0 0.0030337027194704078 0.00099541466618593239 0 0.0030375072723769357 6.1622459702810215e-05 0 -0.0009059900610496436 -0.00067535048295607998 0 -0.0009059900610496436 -0.00067535048295607998 0 0.00206625231290975 0.00013565510938715592 0 -0.0009059900610496436 -0.00067535048295607998 0 -0.0085847448546028712 -0.0011699779564202067 0 -0.0017142844005118734 -0.0030997303127877312 0 0.00077282709888114223 -0.00097972539534329052 0 -0.0026130395490147171 7.2420418385783376e-05 0 0.0031271789299386521 0.00098587470963510293 0 0.0030167057752662008 0.0010398830796259861 0 0.0030428874504193999 0.0010398401396707645 0 0.00206625231290975 0.00013565510938715592 0 0.0025942029259363891 0.00091822832197318259 0 0.00077282709888114223 -0.00097972539534329052 0 0.0011164204148980479 0.0015682748358515793 0 0.002688629344366894 0.0010956147909150771 0 -0.007280591593444281 -0.0037739830740406931 0 -0.0063494302621976677 -0.0017651508118080345 0 -0.0087437479006986455 -0.0022342677726331496 0 -0.0087437479006986455 -0.0022342677726331496 0 -0.0073849399948072471 -0.00053947263623737088 0 -0.0093761953738450178 -0.00064719146196752107 0 -0.0063494302621976677 -0.0017651508118080345 0 -0.0087437479006986455 -0.0022342677726331496 0 -0.0073849399948072471 -0.00053947263623737088 0 -0.0063494302621976677 -0.0017651508118080345 0 -0.0073849399948072471 -0.00053947263623737088 0 -0.0049923001983856402 -0.00027844768551834231 0 -0.007280591593444281 -0.0037739830740406931 0 -0.0087437479006986455 -0.0022342677726331496 0 -0.01039452352831856 -0.0035063364119861649 0 -0.010227681222501894 -0.0015362708525062149 0 -0.0093761953738450178 -0.00064719146196752107 0 -0.010925334460658742 -0.00062131848065450843 0 -0.010227681222501894 -0.0015362708525062149 0 -0.011305250136768936 -0.0012190045532690724 0 -0.010925334460658742 -0.00062131848065450843 0 -0.010227681222501894 -0.0015362708525062149 0 -0.0087437479006986455 -0.0022342677726331496 0 -0.0093761953738450178 -0.00064719146196752107 0 -0.010227681222501894 -0.0015362708525062149 0 -0.0087437479006986455 -0.0022342677726331496 0 -0.01039452352831856 -0.0035063364119861649 0 -0.010227681222501894 -0.0015362708525062149 0 -0.01039452352831856 -0.0035063364119861649 0 -0.011305250136768936 -0.0012190045532690724 0 0.00077282709888114223 -0.00097972539534329052 0 0.0011164204148980479 0.0015682748358515793 0 -0.0026130395490147171 7.2420418385783376e-05 0 -0.002846553479026064 -0.0012698456996041696 0 -0.0085847448546028712 -0.0011699779564202067 0 -0.007280591593444281 -0.0037739830740406931 0 -0.01039452352831856 -0.0035063364119861649 0 -0.011199756528674 -0.0055156876723906588 0 -0.010805518451230874 -0.00048196061242748267 0 -0.010034164285844145 -0.00055724881880160561 0 -0.010527011174092162 -0.00069954019239293656 0 -0.010805518451230874 -0.00048196061242748267 0 -0.010527011174092162 -0.00069954019239293656 0 -0.010784290304511489 -0.00075269556076847403 0 -0.0096413462027864199 -0.00058944581203513051 0 -0.0093896831151096087 -0.00030387195920799764 0 -0.010034164285844145 -0.00055724881880160561 0 -0.010034164285844145 -0.00055724881880160561 0 -0.010527011174092162 -0.00069954019239293656 0 -0.010322723000110296 -0.00070738860115893002 0 -0.0096413462027864199 -0.00058944581203513051 0 -0.010034164285844145 -0.00055724881880160561 0 -0.010322723000110296 -0.00070738860115893002 0 -0.010322723000110296 -0.00070738860115893002 0 -0.010849305604659333 -0.000785030683738052 0 -0.010913192721011699 -0.00074145529693336344 0 -0.010527011174092162 -0.00069954019239293656 0 -0.010322723000110296 -0.00070738860115893002 0 -0.010849305604659333 -0.000785030683738052 0 -0.010527011174092162 -0.00069954019239293656 0 -0.010849305604659333 -0.000785030683738052 0 -0.010784290304511489 -0.00075269556076847403 0 -0.010849305604659333 -0.000785030683738052 0 -0.011002807588186975 -0.00081359976465980588 0 -0.011423186242830173 -0.00075895161327247545 0 -0.010849305604659333 -0.000785030683738052 0 -0.010913192721011699 -0.00074145529693336344 0 -0.011423186242830173 -0.00075895161327247545 0 -0.01039452352831856 -0.0035063364119861649 0 -0.011199756528674 -0.0055156876723906588 0 -0.012503712809809022 -0.00046909930859238537 0 -0.0085847448546028712 -0.0011699779564202067 0 -0.012151810825081278 -0.0011335630651485109 0 -0.010805518451230874 -0.00048196061242748267 0 -0.010784290304511489 -0.00075269556076847403 0 -0.010988059412483512 -0.00083205808962045808 0 -0.01039452352831856 -0.0035063364119861649 0 -0.012503712809809022 -0.00046909930859238537 0 -0.011305250136768936 -0.0012190045532690724 0 -0.010849305604659333 -0.000785030683738052 0 -0.010784290304511489 -0.00075269556076847403 0 -0.011002807588186975 -0.00081359976465980588 0 -0.010784290304511489 -0.00075269556076847403 0 -0.010988059412483512 -0.00083205808962045808 0 -0.011002807588186975 -0.00081359976465980588 0 -0.012503712809809022 -0.00046909930859238537 0 -0.011305250136768936 -0.0012190045532690724 0 -0.012460294356096467 -0.000374097481633189 0 -0.011305250136768936 -0.0012190045532690724 0 -0.012460294356096467 -0.000374097481633189 0 -0.010925334460658742 -0.00062131848065450843 0 -0.012460294356096467 -0.000374097481633189 0 -0.011007735230643318 0.00024588507307234911 0 -0.010925334460658742 -0.00062131848065450843 0 -0.012151810825081278 -0.0011335630651485109 0 -0.012667704180493053 -0.00058982114549877517 0 -0.012503712809809022 -0.00046909930859238537 0 -0.012460294356096467 -0.000374097481633189 0 -0.012960055100768206 -0.00073571483424308851 0 -0.010988059412483512 -0.00083205808962045808 0 -0.011423186242830173 -0.00075895161327247545 0 -0.012960055100768206 -0.00073571483424308851 0 -0.010988059412483512 -0.00083205808962045808 0 -0.011002807588186975 -0.00081359976465980588 0 -0.011423186242830173 -0.00075895161327247545 0 -0.011746816652307075 -0.00069967629957821856 0 -0.011423186242830173 -0.00075895161327247545 0 -0.012960055100768206 -0.00073571483424308851 0 -0.011746816652307075 -0.00069967629957821856 0 -0.010913192721011699 -0.00074145529693336344 0 -0.011423186242830173 -0.00075895161327247545 0 -0.012775448989179931 -0.00067550799773895818 0 -0.011746816652307075 -0.00069967629957821856 0 -0.012960055100768206 -0.00073571483424308851 0 -0.012460294356096467 -0.000374097481633189 0 -0.012960055100768206 -0.00073571483424308851 0 -0.013739891098007462 -0.00070798362440563042 0 -0.010473883976950489 0.0019960953159812132 0 -0.009482024816243351 0.0017725371282398079 0 -0.011007735230643318 0.00024588507307234911 0 -0.010473883976950489 0.0019960953159812132 0 -0.009482024816243351 0.0017725371282398079 0 -0.0093859298564456777 0.0023205444464177469 0 -0.0068145512576100742 0.0027291755288295599 0 -0.0073849399948072471 -0.00053947263623737088 0 -0.0049923001983856402 -0.00027844768551834231 0 -0.0068145512576100742 0.0027291755288295599 0 -0.0073849399948072471 -0.00053947263623737088 0 -0.0093761953738450178 -0.00064719146196752107 0 -0.0068145512576100742 0.0027291755288295599 0 -0.0093761953738450178 -0.00064719146196752107 0 -0.011007735230643318 0.00024588507307234911 0 -0.008198712739995364 0.0021870433354780668 0 -0.010876461910696219 0.00035008429652561165 0 -0.012460294356096467 -0.000374097481633189 0 -0.010473883976950489 0.0019960953159812132 0 -0.011007735230643318 0.00024588507307234911 0 -0.01251295520641192 -0.00036335650023542893 0 -0.012098181084301876 0.00058708001138073069 0 -0.0093761953738450178 -0.00064719146196752107 0 -0.011007735230643318 0.00024588507307234911 0 -0.010925334460658742 -0.00062131848065450843 0 -0.0034195874245386906 0.0014524682195337527 0 -3.4112349098055667e-05 -0.00015695360103297368 0 -0.0034547839189240787 -0.0019733104123613333 0 -0.0034195874245386906 0.0014524682195337527 0 -0.0011044777018390721 0.0027792190845652097 0 -3.4112349098055667e-05 -0.00015695360103297368 0 -0.0034195874245386906 0.0014524682195337527 0 -0.0049923001983856402 -0.00027844768551834231 0 -0.0034547839189240787 -0.0019733104123613333 0 -0.0068145512576100742 0.0027291755288295599 0 -0.0034195874245386906 0.0014524682195337527 0 -0.0049923001983856402 -0.00027844768551834231 0 -0.008198712739995364 0.0021870433354780668 0 -0.0061804064266472109 0.0032950874861000646 0 -0.0068145512576100742 0.0027291755288295599 0 -0.0034195874245386906 0.0014524682195337527 0 -0.0031000647303381259 0.0044834808032382326 0 -0.0034195874245386906 0.0014524682195337527 0 -0.0011044777018390721 0.0027792190845652097 0 -0.0031000647303381259 0.0044834808032382326 0 -0.0011044777018390721 0.0027792190845652097 0 0.0012132139098197006 0.0026463148660893485 0 -3.4112349098055667e-05 -0.00015695360103297368 0 -0.0011044777018390721 0.0027792190845652097 0 0.0012132139098197006 0.0026463148660893485 0 0.00039748972298893554 0.0043996550424109026 0 0.0012132139098197006 0.0026463148660893485 0 0.0030482066143840015 0.0018073051927023046 0 0.0034896888291224646 0.0037791405025272987 0 0.0012132139098197006 0.0026463148660893485 0 0.0030482066143840015 0.0018073051927023046 0 -3.4112349098055667e-05 -0.00015695360103297368 0 0.0030482066143840015 0.0018073051927023046 0 0.0033138254944861893 0.001723206989007993 0 0.003518927354103476 0.001633431652299731 0 0.0029668489818175763 0.0016916291619046215 0 0.0016413547383038046 0.00081620902994215371 0 0.0033138254944861893 0.001723206989007993 0 0.0034400213549024565 0.0015175723301333185 0 0.0033098898555532748 0.0015877162465562965 0 0.0033138254944861893 0.001723206989007993 0 0.003518927354103476 0.001633431652299731 0 0.0034400213549024565 0.0015175723301333185 0 0.003518927354103476 0.001633431652299731 0 0.0034400213549024565 0.0015175723301333185 0 0.0036093904048107341 0.0012793413307105057 0 0.003518927354103476 0.001633431652299731 0 0.0036093904048107341 0.0012793413307105057 0 0.0038821103258024794 0.0013572584602930455 0 0.0034400213549024565 0.0015175723301333185 0 0.0033760532490121854 0.0012965279302194768 0 0.0033098898555532748 0.0015877162465562965 0 0.0034400213549024565 0.0015175723301333185 0 0.0033760532490121854 0.0012965279302194768 0 0.0036093904048107341 0.0012793413307105057 0 0.0033760532490121854 0.0012965279302194768 0 0.0031402811333496906 0.0011850852892174321 0 0.0033098898555532748 0.0015877162465562965 0 0.0031402811333496906 0.0011850852892174321 0 0.0033098898555532748 0.0015877162465562965 0 0.0031331165078245585 0.0017780241310458823 0 0.0033138254944861893 0.001723206989007993 0 0.0033098898555532748 0.0015877162465562965 0 0.0031331165078245585 0.0017780241310458823 0 0.0016413547383038046 0.00081620902994215371 0 -0.00027472198997350911 -8.6749156189638296e-05 0 -0.007280591593444281 -0.0037739830740406931 0 -0.0063494302621976677 -0.0017651508118080345 0 -0.0034547839189240787 -0.0019733104123613333 0 -0.0063494302621976677 -0.0017651508118080345 0 -0.0049923001983856402 -0.00027844768551834231 0 -0.0034547839189240787 -0.0019733104123613333 0 -0.002846553479026064 -0.0012698456996041696 0 -0.00027472198997350911 -8.6749156189638296e-05 0 0.0031402811333496906 0.0011850852892174321 0 0.0031331165078245585 0.0017780241310458823 0 0.002688629344366894 0.0010956147909150771 0 0.0011164204148980479 0.0015682748358515793 0 0.0031331165078245585 0.0017780241310458823 0 0.002688629344366894 0.0010956147909150771 0 0.0031402811333496906 0.0011850852892174321 0 0.002688629344366894 0.0010956147909150771 0 0.0030428874504193999 0.0010398401396707645 0 0.0030167057752662008 0.0010398830796259861 0 0.002688629344366894 0.0010956147909150771 0 0.0030428874504193999 0.0010398401396707645 0 0.0031402811333496906 0.0011850852892174321 0 0.0030428874504193999 0.0010398401396707645 0 0.0033551470031703552 0.0010829965968920845 0 0.0033760532490121854 0.0012965279302194768 0 0.0031402811333496906 0.0011850852892174321 0 0.0033551470031703552 0.0010829965968920845 0 0.0030428874504193999 0.0010398401396707645 0 0.0033551470031703552 0.0010829965968920845 0 0.0033049418372681767 0.00093295082378619723 0 0.0030428874504193999 0.0010398401396707645 0 0.0033049418372681767 0.00093295082378619723 0 0.0031899980734833894 0.00096460474521063862 0 0.0031271789299386521 0.00098587470963510293 0 0.0030428874504193999 0.0010398401396707645 0 0.0031899980734833894 0.00096460474521063862 0 0.0033049418372681767 0.00093295082378619723 0 0.0031899980734833894 0.00096460474521063862 0 0.0033214520543920992 0.00088631959727413553 0 0.0031271789299386521 0.00098587470963510293 0 0.0031899980734833894 0.00096460474521063862 0 0.0033214520543920992 0.00088631959727413553 0 0.0033049418372681767 0.00093295082378619723 0 0.0034206878047194967 0.00079501581806960266 0 0.0035156877479490226 0.00077964619421272939 0 0.0033049418372681767 0.00093295082378619723 0 0.0033214520543920992 0.00088631959727413553 0 0.0034206878047194967 0.00079501581806960266 0 0.0036493568872724997 0.0008433191466057766 0 0.0034206878047194967 0.00079501581806960266 0 0.0034594034903562259 0.00074601254651931635 0 0.0034206878047194967 0.00079501581806960266 0 0.0034594034903562259 0.00074601254651931635 0 0.0035156877479490226 0.00077964619421272939 0 0.0036493568872724997 0.0008433191466057766 0 0.0033214520543920992 0.00088631959727413553 0 0.0034206878047194967 0.00079501581806960266 0 0.0036493568872724997 0.0008433191466057766 0 0.0032994009242790327 0.00089150517290356875 0 0.0033214520543920992 0.00088631959727413553 0 0.0049152916848190821 0.00082043116594719679 0 0.0047201407852895576 0.00024463910665169561 0 0.0037476354867174494 0.00067154097291926272 0 0.0036506046260130162 0.00060872377536923337 0 0.0038765657398509503 0.00057093825793633679 0 0.0037476354867174494 0.00067154097291926272 0 0.0036506046260130162 0.00060872377536923337 0 0.0035156877479490226 0.00077964619421272939 0 0.0042762708289459583 0.00087841617371764056 0 0.0049152916848190821 0.00082043116594719679 0 0.0034594034903562259 0.00074601254651931635 0 0.0036506046260130162 0.00060872377536923337 0 0.0035156877479490226 0.00077964619421272939 0 0.0035156877479490226 0.00077964619421272939 0 0.0036581599680709188 0.00081293202162681952 0 0.0035681930209150075 0.0009980039170110447 0 0.0036581599680709188 0.00081293202162681952 0 0.0039302911625086149 0.0010604703659112932 0 0.0039064692782175949 0.00072763023030313165 0 0.0037476354867174494 0.00067154097291926272 0 0.0035156877479490226 0.00077964619421272939 0 0.0036581599680709188 0.00081293202162681952 0 0.0037476354867174494 0.00067154097291926272 0 0.0036581599680709188 0.00081293202162681952 0 0.0039064692782175949 0.00072763023030313165 0 0.0036581599680709188 0.00081293202162681952 0 0.0035681930209150075 0.0009980039170110447 0 0.0039302911625086149 0.0010604703659112932 0 0.0033049418372681767 0.00093295082378619723 0 0.0035156877479490226 0.00077964619421272939 0 0.0035681930209150075 0.0009980039170110447 0 0.0033551470031703552 0.0010829965968920845 0 0.0033049418372681767 0.00093295082378619723 0 0.0035681930209150075 0.0009980039170110447 0 0.0033551470031703552 0.0010829965968920845 0 0.0035681930209150075 0.0009980039170110447 0 0.0036093904048107341 0.0012793413307105057 0 0.0033760532490121854 0.0012965279302194768 0 0.0033551470031703552 0.0010829965968920845 0 0.0036093904048107341 0.0012793413307105057 0 0.0036093904048107341 0.0012793413307105057 0 0.0039302911625086149 0.0010604703659112932 0 0.0038821103258024794 0.0013572584602930455 0 0.0035681930209150075 0.0009980039170110447 0 0.0036093904048107341 0.0012793413307105057 0 0.0039302911625086149 0.0010604703659112932 0 0.0043068061962303139 0.0013392380577391058 0 0.0039302911625086149 0.0010604703659112932 0 0.0038821103258024794 0.0013572584602930455 0 0.0043068061962303139 0.0013392380577391058 0 0.0044697540276127873 0.0010816107173847358 0 0.0049086254086229504 0.0013114031726745995 0 0.0043068061962303139 0.0013392380577391058 0 0.0044697540276127873 0.0010816107173847358 0 0.0039302911625086149 0.0010604703659112932 0 0.0044697540276127873 0.0010816107173847358 0 0.0042619255661229252 0.00086628476838989733 0 0.0046728848176727919 0.00081506128010979263 0 0.0044697540276127873 0.0010816107173847358 0 0.0046728848176727919 0.00081506128010979263 0 0.0049113765514527579 0.0010047511823152565 0 0.0044697540276127873 0.0010816107173847358 0 0.0039302911625086149 0.0010604703659112932 0 0.0042619255661229252 0.00086628476838989733 0 0.0039302911625086149 0.0010604703659112932 0 0.0042619255661229252 0.00086628476838989733 0 0.0039064692782175949 0.00072763023030313165 0 0.0042619255661229252 0.00086628476838989733 0 0.0039064692782175949 0.00072763023030313165 0 0.0044193274386313047 0.00052792306240079104 0 0.0042619255661229252 0.00086628476838989733 0 0.0046728848176727919 0.00081506128010979263 0 0.0044193274386313047 0.00052792306240079104 0 0.0046728848176727919 0.00081506128010979263 0 0.0044193274386313047 0.00052792306240079104 0 0.0048877246359164822 0.00043751061215437364 0 0.0044193274386313047 0.00052792306240079104 0 0.0048877246359164822 0.00043751061215437364 0 0.0046932932106808151 8.8280620113636115e-05 0 0.0048877246359164822 0.00043751061215437364 0 0.0046932932106808151 8.8280620113636115e-05 0 0.0052139509296322863 2.7065155955606311e-05 0 0.0037476354867174494 0.00067154097291926272 0 0.0039064692782175949 0.00072763023030313165 0 0.0038765657398509503 0.00057093825793633679 0 0.0044193274386313047 0.00052792306240079104 0 0.0046932932106808151 8.8280620113636115e-05 0 0.0040636553987048133 3.1943866505627642e-05 0 0.0039064692782175949 0.00072763023030313165 0 0.0044193274386313047 0.00052792306240079104 0 0.0040636553987048133 3.1943866505627642e-05 0 0.0044318062879199309 7.1918774426569664e-05 0 0.0047201407852895576 0.00024463910665169561 0 0.0044567735167354927 -0.00015283178173522235 0 0.0046932932106808151 8.8280620113636115e-05 0 0.0042091481473930667 6.6650301964617218e-05 0 0.0038039140081838211 0.00075655670003063483 0 0.0047201407852895576 0.00024463910665169561 0 0.0057297145736775502 0.00016110391885560367 0 0.0053438292454846843 0.00040698577717478357 0 0.0055925023347735206 0.00061900087331568992 0 0.006112384207146708 0.00034635835121432011 0 0.0057297145736775502 0.00016110391885560367 0 0.0055925023347735206 0.00061900087331568992 0 0.0064403227337954125 -0.00012716782411004176 0 0.006112384207146708 0.00034635835121432011 0 0.0057297145736775502 0.00016110391885560367 0 0.0057297145736775502 0.00016110391885560367 0 0.0052139509296322863 2.7065155955606311e-05 0 0.0053438292454846843 0.00040698577717478357 0 0.0048877246359164822 0.00043751061215437364 0 0.0052139509296322863 2.7065155955606311e-05 0 0.0053438292454846843 0.00040698577717478357 0 0.0048877246359164822 0.00043751061215437364 0 0.0053438292454846843 0.00040698577717478357 0 0.0051287062547337109 0.00072529985640675866 0 0.0046728848176727919 0.00081506128010979263 0 0.0048877246359164822 0.00043751061215437364 0 0.0051287062547337109 0.00072529985640675866 0 0.0051287062547337109 0.00072529985640675866 0 0.0055925023347735206 0.00061900087331568992 0 0.0053475716688236091 0.00098364375782354261 0 0.0053438292454846843 0.00040698577717478357 0 0.0051287062547337109 0.00072529985640675866 0 0.0055925023347735206 0.00061900087331568992 0 0.0059467389880641175 0.00084201796737308845 0 0.0055925023347735206 0.00061900087331568992 0 0.0053475716688236091 0.00098364375782354261 0 0.0069625549150539338 0.00049823975266714718 0 0.0051264621461977059 0.0011703943192634971 0 0.0053475716688236091 0.00098364375782354261 0 0.0049113765514527579 0.0010047511823152565 0 0.0049086254086229504 0.0013114031726745995 0 0.0051287062547337109 0.00072529985640675866 0 0.0053475716688236091 0.00098364375782354261 0 0.0049113765514527579 0.0010047511823152565 0 0.0046728848176727919 0.00081506128010979263 0 0.0051287062547337109 0.00072529985640675866 0 0.0049113765514527579 0.0010047511823152565 0 0.0044697540276127873 0.0010816107173847358 0 0.0049113765514527579 0.0010047511823152565 0 0.0049086254086229504 0.0013114031726745995 0 0.0054113116348568158 0.0012116271747523392 0 0.0053475716688236091 0.00098364375782354261 0 0.0049086254086229504 0.0013114031726745995 0 0.0054113116348568158 0.0012116271747523392 0 0.0053305897509356775 0.001660152489154607 0 0.0049086254086229504 0.0013114031726745995 0 0.0053305897509356775 0.001660152489154607 0 0.0049086254086229504 0.0013114031726745995 0 0.0048446889049794904 0.0017325100429574976 0 0.0051184054290794459 0.0020836864667001108 0 0.0053305897509356775 0.001660152489154607 0 0.0048446889049794904 0.0017325100429574976 0 0.0051184054290794459 0.0020836864667001108 0 0.0048446889049794904 0.0017325100429574976 0 0.004800183150396156 0.0020361444282642445 0 0.0048446889049794904 0.0017325100429574976 0 0.0045314913575529017 0.0015694760229221928 0 0.0045085466738992693 0.0020176418577298435 0 0.0048446889049794904 0.0017325100429574976 0 0.004800183150396156 0.0020361444282642445 0 0.0045085466738992693 0.0020176418577298435 0 0.0043068061962303139 0.0013392380577391058 0 0.0049086254086229504 0.0013114031726745995 0 0.0045314913575529017 0.0015694760229221928 0 0.0049086254086229504 0.0013114031726745995 0 0.0048446889049794904 0.0017325100429574976 0 0.0045314913575529017 0.0015694760229221928 0 0.0043068061962303139 0.0013392380577391058 0 0.0038821103258024794 0.0013572584602930455 0 0.0041122736574226177 0.0016796914830630573 0 0.0043068061962303139 0.0013392380577391058 0 0.0045314913575529017 0.0015694760229221928 0 0.0041122736574226177 0.0016796914830630573 0 0.003518927354103476 0.001633431652299731 0 0.0038821103258024794 0.0013572584602930455 0 0.0041122736574226177 0.0016796914830630573 0 0.003518927354103476 0.001633431652299731 0 0.0041122736574226177 0.0016796914830630573 0 0.0039453620456226671 0.0019295002243817749 0 0.0045314913575529017 0.0015694760229221928 0 0.0041122736574226177 0.0016796914830630573 0 0.0045085466738992693 0.0020176418577298435 0 0.0041122736574226177 0.0016796914830630573 0 0.0039453620456226671 0.0019295002243817749 0 0.0045085466738992693 0.0020176418577298435 0 0.0039453620456226671 0.0019295002243817749 0 0.0045085466738992693 0.0020176418577298435 0 0.004397662394667475 0.00235269689517079 0 0.0039453620456226671 0.0019295002243817749 0 0.0039637050203845175 0.0024508460844919716 0 0.004397662394667475 0.00235269689517079 0 0.0030482066143840015 0.0018073051927023046 0 0.003518927354103476 0.001633431652299731 0 0.0039453620456226671 0.0019295002243817749 0 0.0030482066143840015 0.0018073051927023046 0 0.0039453620456226671 0.0019295002243817749 0 0.0039637050203845175 0.0024508460844919716 0 0.0030482066143840015 0.0018073051927023046 0 0.0039637050203845175 0.0024508460844919716 0 0.0034896888291224646 0.0037791405025272987 0 0.0039637050203845175 0.0024508460844919716 0 0.0043302765267041188 0.0027564144131306668 0 0.0034896888291224646 0.0037791405025272987 0 0.0039637050203845175 0.0024508460844919716 0 0.0043302765267041188 0.0027564144131306668 0 0.004397662394667475 0.00235269689517079 0 0.0045789671683649363 0.0026066961697053187 0 0.0047442286271667643 0.0023139991272732143 0 0.004397662394667475 0.00235269689517079 0 0.0043302765267041188 0.0027564144131306668 0 0.0045789671683649363 0.0026066961697053187 0 0.004397662394667475 0.00235269689517079 0 0.0053860317843927386 0.0024430578922004179 0 0.004705925188534619 0.002528803766975762 0 0.0047442286271667643 0.0023139991272732143 0 0.004705925188534619 0.002528803766975762 0 0.0044916517453692691 0.0025595170310372113 0 0.0045735091948816368 0.0026346715756818333 0 0.0045789671683649363 0.0026066961697053187 0 0.004705925188534619 0.002528803766975762 0 0.0045735091948816368 0.0026346715756818333 0 0.0045789671683649363 0.0026066961697053187 0 0.004705925188534619 0.002528803766975762 0 0.0047442286271667643 0.0023139991272732143 0 0.0051184054290794459 0.0020836864667001108 0 0.004800183150396156 0.0020361444282642445 0 0.0047442286271667643 0.0023139991272732143 0 0.0047442286271667643 0.0023139991272732143 0 0.0045085466738992693 0.0020176418577298435 0 0.004397662394667475 0.00235269689517079 0 0.004800183150396156 0.0020361444282642445 0 0.0047442286271667643 0.0023139991272732143 0 0.0045085466738992693 0.0020176418577298435 0 -0.00025499020893825751 0.0044991907075596837 0 0.00026783938792816135 0.0042010186444728743 0 -0.00052374937013219204 0.0040947291774230399 0 -0.00025499020893825751 0.0044991907075596837 0 -0.00057099274026360051 0.0045352888057868116 0 -0.00012361680399611575 0.0048480307338616951 0 -0.00025499020893825751 0.0044991907075596837 0 -0.00057099274026360051 0.0045352888057868116 0 -0.00052374937013219204 0.0040947291774230399 0 -0.0010074266849567487 0.0044048217481562468 0 -0.00057099274026360051 0.0045352888057868116 0 -0.00052374937013219204 0.0040947291774230399 0 -0.0013530029324559005 0.003935901279224171 0 -0.0010074266849567487 0.0044048217481562468 0 -0.00052374937013219204 0.0040947291774230399 0 -0.0010074266849567487 0.0044048217481562468 0 -0.00057099274026360051 0.0045352888057868116 0 -0.00094766639280125236 0.0047756872557218185 0 0.0043804875366560362 0.002234271512501722 0 0.0045735091948816368 0.0026346715756818333 0 0.0045561049042693157 0.002988334452652174 0 0.0043804875366560362 0.002234271512501722 0 0.0044916517453692691 0.0025595170310372113 0 0.0045735091948816368 0.0026346715756818333 0 0.0039491311501459181 0.0024415524622480285 0 0.0043804875366560362 0.002234271512501722 0 0.0044916517453692691 0.0025595170310372113 0 0.0045789671683649363 0.0026066961697053187 0 0.0045735091948816368 0.0026346715756818333 0 0.0045561049042693157 0.002988334452652174 0 0.0014445173864128568 0.0035920274083060225 0 0.0022246964920200098 0.0039091442632836924 0 -0.00057099274026360051 0.0045352888057868116 0 -0.00094766639280125236 0.0047756872557218185 0 -0.00012361680399611575 0.0048480307338616951 0 0.0043302765267041188 0.0027564144131306668 0 0.0045789671683649363 0.0026066961697053187 0 0.0045561049042693157 0.002988334452652174 0 0.0022246964920200098 0.0039091442632836924 0 0.0018140384731658635 0.0042821882740724116 0 -0.00012361680399611575 0.0048480307338616951 0 0.00035768779243440936 0.0048270466305259975 0 0.00010555436704547347 0.0046979254417857446 0 0.0043302765267041188 0.0027564144131306668 0 0.0045561049042693157 0.002988334452652174 0 0.0034896888291224646 0.0037791405025272987 0 0.00061797575683826902 0.00480906221902354 0 -0.0028148752667904835 0.0028635742655892362 0 0.00029594427450278023 0.004725597951387466 0 0.00034562008113128256 0.0047437897861496185 0 0.0001584924056940621 0.0045340464361800581 0 0.00035768779243440936 0.0048270466305259975 0 0.00029594427450278023 0.004725597951387466 0 0.00035652268119524058 0.0047872586190479413 0 0.00029594427450278023 0.004725597951387466 0 0.00034562008113128256 0.0047437897861496185 0 0.00035652268119524058 0.0047872586190479413 0 0.00035768779243440936 0.0048270466305259975 0 0.00029594427450278023 0.004725597951387466 0 0.00010555436704547347 0.0046979254417857446 0 -0.00025499020893825751 0.0044991907075596837 0 0.00010555436704547347 0.0046979254417857446 0 0.0001584924056940621 0.0045340464361800581 0 0.00059372116826538228 0.0044281764336038306 0 -0.0028148752667904835 0.0028635742655892362 0 -0.00025499020893825751 0.0044991907075596837 0 -0.00012361680399611575 0.0048480307338616951 0 0.00010555436704547347 0.0046979254417857446 0 0.00029594427450278023 0.004725597951387466 0 0.00010555436704547347 0.0046979254417857446 0 0.0001584924056940621 0.0045340464361800581 0 -0.0098011638834577045 -0.0023771164542616022 0 -0.00970178451534345 -0.0021356232264107813 0 -0.0085469807450748898 -0.0023813068826022028 0 -0.00970178451534345 -0.0021356232264107813 0 -0.01034445409180209 -0.0021850394766386293 0 -0.0097567487242744399 -0.0013615240281524763 0 -0.00970178451534345 -0.0021356232264107813 0 -0.0097567487242744399 -0.0013615240281524763 0 -0.0090798090086370246 -0.0017518080574090535 0 -0.0098011638834577045 -0.0023771164542616022 0 -0.00970178451534345 -0.0021356232264107813 0 -0.010131678642884374 -0.00216763363646449 0 -0.013572004997324435 -0.0017615782170311625 0 -0.013020743234985645 -0.003562923413219227 0 0.0001075135200485845 0.0048848182078032459 0 -0.00053346154275499399 0.0048270974994238623 0 -0.00011529518239027727 0.0046498109648217033 0 -0.01034445409180209 -0.0021850394766386293 0 -0.010703470974933399 -0.0020126194696801917 0 -0.0097567487242744399 -0.0013615240281524763 0 -0.0070558885235426014 -0.00014646426771747095 0 -0.0065262807688458652 0.0025820270982268908 0 -0.0093256581447720248 0.00063340269509553531 0 -0.0090211556364488635 0.00049286364730405396 0 -0.0087212624393290371 0.0007126736660357136 0 0.0001075135200485845 0.0048848182078032459 0 -0.00011529518239027727 0.0046498109648217033 0 0.00028421577448178284 0.0048225987235548367 0 -0.0070558885235426014 -0.00014646426771747095 0 -0.013572004997324435 -0.0017615782170311625 0 -0.010560496549873725 -0.0018135387786064241 0 -0.0070558885235426014 -0.00014646426771747095 0 -0.0028148752667904835 0.0028635742655892362 0 -0.0070558885235426014 -0.00014646426771747095 0 -0.019151285596924628 -0.0069655654154819691 0 -0.018796265123749219 -0.0044056917080294317 0 -0.015536958178466042 -0.0049486589156226869 0 -0.018570645123742003 -0.0042492246514668564 0 -0.015683227130456574 -0.0025725971731442791 0 -0.013020743234985645 -0.003562923413219227 0 -0.0099965549402092468 -0.0013015246558525906 0 -0.018796265123749219 -0.0044056917080294317 0 -0.015536958178466042 -0.0049486589156226869 0 -0.014641508436790454 -0.0019027717420579823 0 -0.0097567487242744399 -0.0013615240281524763 0 -0.0087266844081318393 -0.001246648416795912 0 -0.0090798090086370246 -0.0017518080574090535 0 -0.0097567487242744399 -0.0013615240281524763 0 -0.0087266844081318393 -0.001246648416795912 0 -0.0088128582216965741 -0.00061332864097387034 0 -0.0087266844081318393 -0.001246648416795912 0 -0.0090798090086370246 -0.0017518080574090535 0 -0.0080706856731967459 -0.0015461408040199297 0 -0.0087266844081318393 -0.001246648416795912 0 -0.0080137144168046098 -0.00067876476422181777 0 -0.0088128582216965741 -0.00061332864097387034 0 -0.0028148752667904835 0.0028635742655892362 0 -0.0048826874988689116 0.0006036317879479857 0 -0.00970178451534345 -0.0021356232264107813 0 -0.0090798090086370246 -0.0017518080574090535 0 -0.0085469807450748898 -0.0023813068826022028 0 -0.0090798090086370246 -0.0017518080574090535 0 -0.0085469807450748898 -0.0023813068826022028 0 -0.0080706856731967459 -0.0015461408040199297 0 -0.0069667478081243709 -0.0023914467739958654 0 -0.0085469807450748898 -0.0023813068826022028 0 -0.0080706856731967459 -0.0015461408040199297 0 -0.0045066160715790228 0.00079369263163710159 0 -0.0048826874988689116 0.0006036317879479857 0 -0.006689683760922693 -0.00086377822599289209 0 -0.0080706856731967459 -0.0015461408040199297 0 -0.0080137144168046098 -0.00067876476422181777 0 -0.0087266844081318393 -0.001246648416795912 0 -0.0080706856731967459 -0.0015461408040199297 0 -0.0080137144168046098 -0.00067876476422181777 0 -0.011389366338359092 -0.0022287920106852516 0 -0.010299445092961336 0.00029740523378261023 0 -0.0080067676961602472 0.00026965506553077118 0 -0.0073740515204482526 -0.00028895704264996663 0 -0.0080137144168046098 -0.00067876476422181777 0 -0.0080067676961602472 0.00026965506553077118 0 -0.0080137144168046098 -0.00067876476422181777 0 -0.0088128582216965741 -0.00061332864097387034 0 -0.0080067676961602472 0.00026965506553077118 0 -0.0099965549402092468 -0.0013015246558525906 0 -0.0081582470925381876 0.00010424825278063092 0 -0.011389366338359092 -0.0022287920106852516 0 -0.010299445092961336 0.00029740523378261023 0 -0.014641508436790454 -0.0019027717420579823 0 -0.012014453192359229 -0.00057271649836659378 0 -0.015683227130456574 -0.0025725971731442791 0 -0.014137908642226979 -0.0017705710450907426 0 -0.015121137978733077 -0.0010862750667071813 0 -0.016563533184304109 -0.0030825145002980675 0 -0.015121137978733077 -0.0010862750667071813 0 -0.013681135667739163 -0.00047109430834443844 0 -0.015107114067939824 0.00039712327740490838 0 -0.014137908642226979 -0.0017705710450907426 0 -0.015121137978733077 -0.0010862750667071813 0 -0.013681135667739163 -0.00047109430834443844 0 -0.015121137978733077 -0.0010862750667071813 0 -0.015107114067939824 0.00039712327740490838 0 -0.016138236519384522 -0.00052104022150088519 0 -0.0071906657850426114 0.0016027865417533873 0 -0.010299445092961336 0.00029740523378261023 0 -0.0080067676961602472 0.00026965506553077118 0 -0.010433380755280755 -0.00052704461210422164 0 -0.012014453192359229 -0.00057271649836659378 0 -0.011784585897776331 -0.0004802171112284144 0 -0.014137908642226979 -0.0017705710450907426 0 -0.013681135667739163 -0.00047109430834443844 0 -0.011544518735818047 -0.00078846533073490736 0 -0.01223508810261921 0.00042120363015514523 0 -0.013516652524414478 0.00030539003836688405 0 -0.013516652524414478 0.00030539003836688405 0 -0.014502216704332209 0.0023463144668505772 0 -0.013077122151580528 0.0016927837885293625 0 -0.013681135667739163 -0.00047109430834443844 0 -0.013516652524414478 0.00030539003836688405 0 -0.014502216704332209 0.0023463144668505772 0 -0.013448976767295569 -8.4100363124749194e-05 0 -0.015821762817690547 0.0016715128186291788 0 -0.011784585897776331 -0.0004802171112284144 0 -0.013681135667739163 -0.00047109430834443844 0 -0.013516652524414478 0.00030539003836688405 0 -0.010433380755280755 -0.00052704461210422164 0 -0.01361920278386204 0.00032747147222495794 0 -0.01223508810261921 0.00042120363015514523 0 -0.013516652524414478 0.00030539003836688405 0 -0.013077122151580528 0.0016927837885293625 0 -0.011847510455690772 0.0014792604387593381 0 -0.01223508810261921 0.00042120363015514523 0 -0.013077122151580528 0.0016927837885293625 0 -0.015107114067939824 0.00039712327740490838 0 -0.014459172571243472 0.0024518426268276129 0 -0.016549019290659498 0.001403765805456484 0 -0.013681135667739163 -0.00047109430834443844 0 -0.015107114067939824 0.00039712327740490838 0 -0.014459172571243472 0.0024518426268276129 0 -0.017794879827750361 0.0010770455388674131 0 -0.018545807693273787 0.0013024643130635496 0 -0.018077455920915225 0.0020795920633334942 0 -0.015821762817690547 0.0016715128186291788 0 -0.018609446105061118 0.0014328482359286156 0 -0.017794879827750361 0.0010770455388674131 0 -0.018545807693273787 0.0013024643130635496 0 -0.018964527696813435 0.00049832439845992886 0 -0.015821762817690547 0.0016715128186291788 0 -0.01779754274366693 0.00095083054652290186 0 -0.016768939089020662 0.0011378616415614695 0 -0.016284412678669001 0.0013779079682571162 0 -0.016923963332920938 0.0016633004800504915 0 -0.015821762817690547 0.0016715128186291788 0 -0.014353013263358552 0.0024365442250776572 0 -0.014502216704332209 0.0023463144668505772 0 -0.012773139425179046 0.0033285486269694483 0 -0.013077122151580528 0.0016927837885293625 0 -0.011463131079390676 0.0026580965514386352 0 -0.012773139425179046 0.0033285486269694483 0 -0.013077122151580528 0.0016927837885293625 0 -0.019750976211407447 0.00074251783178504161 0 -0.019343431264241106 0.001550830093248989 0 -0.020624283934733267 0.00098510871992708599 0 -0.019927951769235605 0.0013693091026674743 0 -0.020545702957524375 0.0010316095944219912 0 -0.019750976211407447 0.00074251783178504161 0 -0.019343431264241106 0.001550830093248989 0 -0.018964527696813435 0.00049832439845992886 0 -0.018545807693273787 0.0013024643130635496 0 -0.019343431264241106 0.001550830093248989 0 -0.018964527696813435 0.00049832439845992886 0 -0.016549019290659498 0.001403765805456484 0 -0.017188431234461385 6.9739898431730139e-05 0 -0.016138236519384522 -0.00052104022150088519 0 -0.016549019290659498 0.001403765805456484 0 -0.017188431234461385 6.9739898431730139e-05 0 -0.018648932735044491 0.00043694400221362412 0 -0.01779754274366693 0.00095083054652290186 0 -0.019382049892438954 0.00018200933861522975 0 -0.015107114067939824 0.00039712327740490838 0 -0.016549019290659498 0.001403765805456484 0 -0.016138236519384522 -0.00052104022150088519 0 -0.019750976211407447 0.00074251783178504161 0 -0.018964527696813435 0.00049832439845992886 0 -0.020064932005081214 -2.25114184024197e-05 0 -0.019750976211407447 0.00074251783178504161 0 -0.020064932005081214 -2.25114184024197e-05 0 -0.020624283934733267 0.00098510871992708599 0 -0.020064932005081214 -2.25114184024197e-05 0 -0.020763899413646585 0.00031389905854951254 0 -0.020624283934733267 0.00098510871992708599 0 -0.018648932735044491 0.00043694400221362412 0 -0.018662037269608033 -0.0020573627251989652 0 -0.020963557960170857 -0.00062383249460111706 0 -0.018648932735044491 0.00043694400221362412 0 -0.01742734898660114 -0.001043782408341992 0 -0.018662037269608033 -0.0020573627251989652 0 -0.017188431234461385 6.9739898431730139e-05 0 -0.018648932735044491 0.00043694400221362412 0 -0.01742734898660114 -0.001043782408341992 0 -0.015121137978733077 -0.0010862750667071813 0 -0.016138236519384522 -0.00052104022150088519 0 -0.016563533184304109 -0.0030825145002980675 0 -0.016138236519384522 -0.00052104022150088519 0 -0.01742734898660114 -0.001043782408341992 0 -0.016563533184304109 -0.0030825145002980675 0 -0.017188431234461385 6.9739898431730139e-05 0 -0.016138236519384522 -0.00052104022150088519 0 -0.01742734898660114 -0.001043782408341992 0 -0.01742734898660114 -0.001043782408341992 0 -0.016563533184304109 -0.0030825145002980675 0 -0.018662037269608033 -0.0020573627251989652 0 -0.015536958178466042 -0.0049486589156226869 0 -0.011389366338359092 -0.0022287920106852516 0 -0.014641508436790454 -0.0019027717420579823 0 -0.018796265123749219 -0.0044056917080294317 0 -0.016563533184304109 -0.0030825145002980675 0 -0.018662037269608033 -0.0020573627251989652 0 -0.018796265123749219 -0.0044056917080294317 0 -0.018662037269608033 -0.0020573627251989652 0 -0.020157833252889903 -0.0028717425137869588 0 -0.020157833252889903 -0.0028717425137869588 0 -0.021751219043328014 -0.0023979535751860975 0 -0.020963557960170857 -0.00062383249460111706 0 -0.020157833252889903 -0.0028717425137869588 0 -0.021751219043328014 -0.0023979535751860975 0 -0.020812047805434414 -0.0041876376339901426 0 -0.022779841895465221 -0.0025189416612726211 0 -0.022548797107703623 -0.00069671997959243836 0 -0.024120527616574534 -0.0032748177871870349 0 -0.022779841895465221 -0.0025189416612726211 0 -0.024120527616574534 -0.0032748177871870349 0 -0.022679846437072951 -0.0037946200200954408 0 -0.021751219043328014 -0.0023979535751860975 0 -0.022779841895465221 -0.0025189416612726211 0 -0.022679846437072951 -0.0037946200200954408 0 -0.021751219043328014 -0.0023979535751860975 0 -0.022679846437072951 -0.0037946200200954408 0 -0.020812047805434414 -0.0041876376339901426 0 -0.021751219043328014 -0.0023979535751860975 0 -0.022548797107703623 -0.00069671997959243836 0 -0.020963557960170857 -0.00062383249460111706 0 -0.021751219043328014 -0.0023979535751860975 0 -0.022779841895465221 -0.0025189416612726211 0 -0.022548797107703623 -0.00069671997959243836 0 -0.018662037269608033 -0.0020573627251989652 0 -0.020157833252889903 -0.0028717425137869588 0 -0.020963557960170857 -0.00062383249460111706 0 -0.019382049892438954 0.00018200933861522975 0 -0.020837827092102166 -0.00055337521346357466 0 -0.020064932005081214 -2.25114184024197e-05 0 -0.020963557960170857 -0.00062383249460111706 0 -0.020763899413646585 0.00031389905854951254 0 -0.020963557960170857 -0.00062383249460111706 0 -0.020763899413646585 0.00031389905854951254 0 -0.021429393894045776 0.00086547523792498005 0 -0.023445232081990997 -0.0013559868858909502 0 -0.023018847121715497 -0.00024317823220736343 0 -0.024282218720815301 -0.0018070319998518514 0 -0.024578031518144187 -0.0014396941372812975 0 -0.024575426881032578 -0.0012627647484464214 0 -0.022548797107703623 -0.00069671997959243836 0 -0.020963557960170857 -0.00062383249460111706 0 -0.021429393894045776 0.00086547523792498005 0 -0.024575426881032578 -0.0012627647484464214 0 -0.024727433266758542 -0.0011838166787746887 0 -0.024861402433039002 -0.0011423402228621753 0 -0.024578031518144187 -0.0014396941372812975 0 -0.024575426881032578 -0.0012627647484464214 0 -0.024727433266758542 -0.0011838166787746887 0 -0.023018847121715497 -0.00024317823220736343 0 -0.022888749505658897 0.00015322943257774533 0 -0.020763899413646585 0.00031389905854951254 0 -0.021429393894045776 0.00086547523792498005 0 -0.020624283934733267 0.00098510871992708599 0 -0.021429393894045776 0.00086547523792498005 0 -0.020624283934733267 0.00098510871992708599 0 -0.020868089687326223 0.0014636963002328052 0 -0.024636190066144387 -0.00037125118501642044 0 -0.024653788186838017 -0.00027270525558184777 0 -0.024512293200245398 -0.00029314068434752754 0 -0.024636190066144387 -0.00037125118501642044 0 -0.024653788186838017 -0.00027270525558184777 0 -0.024846416543333569 -0.00045393321801125478 0 -0.024578031518144187 -0.0014396941372812975 0 -0.024727433266758542 -0.0011838166787746887 0 -0.024845883327725374 -0.001379102011131522 0 -0.024727433266758542 -0.0011838166787746887 0 -0.024845883327725374 -0.001379102011131522 0 -0.024859982027287987 -0.0011646494314423075 0 -0.024706529793688224 -0.0007585096607132778 0 -0.024846683084905147 -0.00084857334814965866 0 -0.024578031518144187 -0.0014396941372812975 0 -0.024845883327725374 -0.001379102011131522 0 -0.024818951131509337 -0.0020137505278611354 0 -0.024706529793688224 -0.0007585096607132778 0 -0.025272524800404157 -0.0015167005710315109 0 -0.024653788186838017 -0.00027270525558184777 0 -0.024494102949518762 -0.00019997876079634169 0 -0.024512293200245398 -0.00029314068434752754 0 -0.024494102949518762 -0.00019997876079634169 0 -0.024470119518785291 -0.00018083187275162838 0 -0.024447730546726269 -0.00017311249042603559 0 -0.024494102949518762 -0.00019997876079634169 0 -0.024522713204912339 -0.00019370643635876916 0 -0.024470119518785291 -0.00018083187275162838 0 -0.024653788186838017 -0.00027270525558184777 0 -0.024494102949518762 -0.00019997876079634169 0 -0.024522713204912339 -0.00019370643635876916 0 -0.024282218720815301 -0.0018070319998518514 0 -0.024578031518144187 -0.0014396941372812975 0 -0.024818951131509337 -0.0020137505278611354 0 -0.024282218720815301 -0.0018070319998518514 0 -0.024818951131509337 -0.0020137505278611354 0 -0.024120527616574534 -0.0032748177871870349 0 -0.024120527616574534 -0.0032748177871870349 0 -0.024734278567466576 -0.0036423792138020809 0 -0.022679846437072951 -0.0037946200200954408 0 -0.024818951131509337 -0.0020137505278611354 0 -0.024120527616574534 -0.0032748177871870349 0 -0.024734278567466576 -0.0036423792138020809 0 -0.024522713204912339 -0.00019370643635876916 0 -0.024470119518785291 -0.00018083187275162838 0 -0.024421816587207688 -0.00017713126830489926 0 -0.025272524800404157 -0.0015167005710315109 0 -0.016998113712738093 7.8826315172785393e-05 0 -0.023445232081990997 -0.0013559868858909502 0 -0.024115140168710532 -0.00318878353475005 0 -0.016998113712738093 7.8826315172785393e-05 0 -0.01867765829624245 0.00013387954612763175 0 -0.024470119518785291 -0.00018083187275162838 0 -0.024421816587207688 -0.00017713126830489926 0 -0.024447730546726269 -0.00017311249042603559 0 -0.014139019734577018 -0.00058055041076785928 0 -0.013813104986048621 -0.00064758902122980986 0 -0.014229321152909915 -0.00041998334468443103 0 -0.010916065263986316 0.0012391142306325698 0 -0.016998113712738093 7.8826315172785393e-05 0 -0.014139019734577018 -0.00058055041076785928 0 -0.014040391611654594 -0.00075399135038164674 0 -0.014141641157092783 -0.00074463271476176546 0 -0.014139019734577018 -0.00058055041076785928 0 -0.014040391611654594 -0.00075399135038164674 0 -0.013813104986048621 -0.00064758902122980986 0 -0.014040391611654594 -0.00075399135038164674 0 -0.014141656284665349 -0.0010922355442150393 0 -0.013813104986048621 -0.00064758902122980986 0 -0.014040391611654594 -0.00075399135038164674 0 -0.014153603039489825 -0.0008710323472000635 0 -0.014141656284665349 -0.0010922355442150393 0 -0.014040391611654594 -0.00075399135038164674 0 -0.014141641157092783 -0.00074463271476176546 0 -0.014153603039489825 -0.0008710323472000635 0 -0.0093234553907612996 0.0028328864569420048 0 -0.009778209411684129 0.0030046087467528711 0 -0.009903196661410674 0.0020274781212562929 0 -0.014153603039489825 -0.0008710323472000635 0 -0.014141656284665349 -0.0010922355442150393 0 -0.014246958972901794 -0.0009997764561742149 0 -0.0093234553907612996 0.0028328864569420048 0 -0.009778209411684129 0.0030046087467528711 0 -0.0093536404213409568 0.0028752848103334515 0 -0.013423464836950246 0.00078892880511182318 0 -0.013693228447192974 0.00043097498624598477 0 -0.013149720652032361 0.00045708945074366211 0 -0.013423464836950246 0.00078892880511182318 0 -0.013693228447192974 0.00043097498624598477 0 -0.013764758139056086 0.0012915982014530501 0 -0.0099453567904251514 0.002685033380165903 0 -0.011622624912962313 0.0016628104338819293 0 -0.0099453567904251514 0.002685033380165903 0 -0.016998113712738093 7.8826315172785393e-05 0 -0.016998113712738093 7.8826315172785393e-05 0 -0.018296341336829988 -0.0022852602361439463 0 -0.013423464836950246 0.00078892880511182318 0 -0.013764758139056086 0.0012915982014530501 0 -0.013078598608490899 0.00097442448393561174 0 -0.024734278567466576 -0.0036423792138020809 0 -0.022679846437072951 -0.0037946200200954408 0 -0.022117145971639041 -0.0052148896057838401 0 -0.022679846437072951 -0.0037946200200954408 0 -0.022117145971639041 -0.0052148896057838401 0 -0.020812047805434414 -0.0041876376339901426 0 -0.019151285596924628 -0.0069655654154819691 0 -0.018796265123749219 -0.0044056917080294317 0 -0.020812047805434414 -0.0041876376339901426 0 -0.019151285596924628 -0.0069655654154819691 0 -0.022117145971639041 -0.0052148896057838401 0 -0.020812047805434414 -0.0041876376339901426 0 -0.018796265123749219 -0.0044056917080294317 0 -0.020157833252889903 -0.0028717425137869588 0 -0.020812047805434414 -0.0041876376339901426 0 -0.012337669710368426 0.00062372644295528011 0 -0.013078598608490899 0.00097442448393561174 0 -0.012807713466688254 0.00064424433506979416 0 -0.013572004997324435 -0.0017615782170311625 0 -0.018296341336829988 -0.0022852602361439463 0 -0.012807713466688254 0.00064424433506979416 0 -0.012550085508063405 0.00048193703876832713 0 -0.013149720652032361 0.00045708945074366211 0 -0.0065262807688458652 0.0025820270982268908 0 -0.011622624912962313 0.0016628104338819293 0 -0.012337669710368426 0.00062372644295528011 0 -0.012807713466688254 0.00064424433506979416 0 -0.012550085508063405 0.00048193703876832713 0 -0.013572004997324435 -0.0017615782170311625 0 -0.0065262807688458652 0.0025820270982268908 0 -0.013078598608490899 0.00097442448393561174 0 -0.012807713466688254 0.00064424433506979416 0 -0.013149720652032361 0.00045708945074366211 0 -0.013423464836950246 0.00078892880511182318 0 -0.013078598608490899 0.00097442448393561174 0 -0.013149720652032361 0.00045708945074366211 0 -0.0083155084932471073 0.0030870474534944667 0 -0.0083971800712667605 0.0026939426353653076 0 -0.0088684303407814465 0.0028411105237820182 0 -0.0077037727233491898 0.003121095384304062 0 -0.0083155084932471073 0.0030870474534944667 0 -0.0083971800712667605 0.0026939426353653076 0 -0.0065262807688458652 0.0025820270982268908 0 -0.0037823522584994433 0.0043171155847159083 0 0.00022139434326618132 0.0049011763646787439 0 -0.00020989884793671078 0.0053144002213491755 0 0.00015009356160588708 0.0049791147383175241 0 0.00028421577448178284 0.0048225987235548367 0 -0.00020989884793671078 0.0053144002213491755 0 0.00015009356160588708 0.0049791147383175241 0 0.0001075135200485845 0.0048848182078032459 0 0.00028421577448178284 0.0048225987235548367 0 0.00015009356160588708 0.0049791147383175241 0 0.00061797575683826902 0.00480906221902354 0 3.0105630782097759e-05 0.0049009237537487871 0 0.00034562008113128256 0.0047437897861496185 0 0.00015009356160588708 0.0049791147383175241 0 0.00035652268119524058 0.0047872586190479413 0 0.00022139434326618132 0.0049011763646787439 0 0.00015009356160588708 0.0049791147383175241 0 0.00035652268119524058 0.0047872586190479413 0 0.0012132139098197006 0.0026463148660893485 0 0.0034896888291224646 0.0037791405025272987 0 0.00039748972298893554 0.0043996550424109026 0 0.00022139434326618132 0.0049011763646787439 0 0.00035652268119524058 0.0047872586190479413 0 0.00039748972298893554 0.0043996550424109026 0 0.0018140384731658635 0.0042821882740724116 0 0.00044199384965525263 0.0043770311495400791 0 0.00035768779243440936 0.0048270466305259975 0 0.00035652268119524058 0.0047872586190479413 0 0.00039748972298893554 0.0043996550424109026 0 0.00022139434326618132 0.0049011763646787439 0 -0.00020989884793671078 0.0053144002213491755 0 0.00039748972298893554 0.0043996550424109026 0 -0.0037823522584994433 0.0043171155847159083 0 -0.0061804064266472109 0.0032950874861000646 0 -0.0011044777018390721 0.0027792190845652097 0 0.00039748972298893554 0.0043996550424109026 0 -0.0031000647303381259 0.0044834808032382326 0 -0.00020989884793671078 0.0053144002213491755 0 0.00039748972298893554 0.0043996550424109026 0 -0.0031000647303381259 0.0044834808032382326 0 -0.0089691049154610163 0.0023470201167679664 0 -0.0091619937532675874 0.0026528870989075749 0 -0.0093859298564456777 0.0023205444464177469 0 -0.009482024816243351 0.0017725371282398079 0 -0.0089691049154610163 0.0023470201167679664 0 -0.0093859298564456777 0.0023205444464177469 0 -0.0089691049154610163 0.0023470201167679664 0 -0.0091619937532675874 0.0026528870989075749 0 -0.0088684303407814465 0.0028411105237820182 0 -0.0091619937532675874 0.0026528870989075749 0 -0.0091026111090590778 0.0028246673302710409 0 -0.0088684303407814465 0.0028411105237820182 0 -0.0091619937532675874 0.0026528870989075749 0 -0.0093536404213409568 0.0028752848103334515 0 -0.0096409867968888438 0.0027307049993007802 0 -0.0091619937532675874 0.0026528870989075749 0 -0.0093536404213409568 0.0028752848103334515 0 -0.0091026111090590778 0.0028246673302710409 0 -0.0099453567904251514 0.002685033380165903 0 -0.0091696101411207608 0.0029186757538183466 0 -0.0088761054717440297 0.0030169140571544655 0 -0.0093536404213409568 0.0028752848103334515 0 -0.0091026111090590778 0.0028246673302710409 0 -0.0088761054717440297 0.0030169140571544655 0 -0.0091026111090590778 0.0028246673302710409 0 -0.0088684303407814465 0.0028411105237820182 0 -0.0083971800712667605 0.0026939426353653076 0 -0.0089691049154610163 0.0023470201167679664 0 -0.0088684303407814465 0.0028411105237820182 0 -0.0088780024140669607 0.0030279819006285404 0 -0.0083155084932471073 0.0030870474534944667 0 -0.0088684303407814465 0.0028411105237820182 0 -0.0099453567904251514 0.002685033380165903 0 -0.0096246711210661064 0.0028370253437886798 0 -0.014004614247857424 -0.0011065088725304532 0 -0.014405286960629345 -0.001191469179135238 0 -0.014315049550822091 -0.0011530973276448015 0 -0.014262550725629205 -0.0011262681919293775 0 -0.014004614247857424 -0.0011065088725304532 0 -0.014315049550822091 -0.0011530973276448015 0 -0.010916065263986316 0.0012391142306325698 0 -0.012089192750512465 0.00068478557302322808 0 -0.014141656284665349 -0.0010922355442150393 0 -0.014262550725629205 -0.0011262681919293775 0 -0.014315049550822091 -0.0011530973276448015 0 -0.0093234553907612996 0.0028328864569420048 0 -0.0093536404213409568 0.0028752848103334515 0 -0.0096409867968888438 0.0027307049993007802 0 -0.010473883976950489 0.0019960953159812132 0 -0.0096409867968888438 0.0027307049993007802 0 -0.0093859298564456777 0.0023205444464177469 0 -0.0091619937532675874 0.0026528870989075749 0 -0.0096409867968888438 0.0027307049993007802 0 -0.0093859298564456777 0.0023205444464177469 0 -0.013739891098007462 -0.00070798362440563042 0 -0.014262550725629205 -0.0011262681919293775 0 -0.014004614247857424 -0.0011065088725304532 0 -0.012098181084301876 0.00058708001138073069 0 -0.012089192750512465 0.00068478557302322808 0 -0.012960055100768206 -0.00073571483424308851 0 -0.014004614247857424 -0.0011065088725304532 0 -0.013832473213437044 -0.0010270295246625116 0 -0.012960055100768206 -0.00073571483424308851 0 -0.013739891098007462 -0.00070798362440563042 0 -0.014004614247857424 -0.0011065088725304532 0 -0.012775448989179931 -0.00067550799773895818 0 -0.012960055100768206 -0.00073571483424308851 0 -0.013832473213437044 -0.0010270295246625116 0 -0.013832473213437044 -0.0010270295246625116 0 -0.014957458004057149 -0.0011920912566338252 0 -0.014359094102167633 -0.00095224948027367972 0 -0.014004614247857424 -0.0011065088725304532 0 -0.013832473213437044 -0.0010270295246625116 0 -0.014405286960629345 -0.001191469179135238 0 -0.013832473213437044 -0.0010270295246625116 0 -0.014405286960629345 -0.001191469179135238 0 -0.014957458004057149 -0.0011920912566338252 0 -0.014405286960629345 -0.001191469179135238 0 -0.014957458004057149 -0.0011920912566338252 0 -0.014717021213724908 -0.0010343489342527262 0 -0.014957458004057149 -0.0011920912566338252 0 -0.015872054333600345 -0.00093053198530007987 0 -0.016487606418975086 -0.0012591647184958662 0 -0.014957458004057149 -0.0011920912566338252 0 -0.015872054333600345 -0.00093053198530007987 0 -0.014717021213724908 -0.0010343489342527262 0 -0.015872054333600345 -0.00093053198530007987 0 -0.014717021213724908 -0.0010343489342527262 0 -0.015755026946929863 -0.00038620616248493924 0 -0.014717021213724908 -0.0010343489342527262 0 -0.014385612602317929 -0.00094688518786872726 0 -0.014445158234462668 -0.00063239220237545175 0 -0.014717021213724908 -0.0010343489342527262 0 -0.014445158234462668 -0.00063239220237545175 0 -0.014871979970852959 -0.00051281885229634782 0 -0.014717021213724908 -0.0010343489342527262 0 -0.014315049550822091 -0.0011530973276448015 0 -0.014385612602317929 -0.00094688518786872726 0 -0.014405286960629345 -0.001191469179135238 0 -0.014717021213724908 -0.0010343489342527262 0 -0.014315049550822091 -0.0011530973276448015 0 -0.014141656284665349 -0.0010922355442150393 0 -0.014315049550822091 -0.0011530973276448015 0 -0.014246958972901794 -0.0009997764561742149 0 -0.014315049550822091 -0.0011530973276448015 0 -0.014246958972901794 -0.0009997764561742149 0 -0.014385612602317929 -0.00094688518786872726 0 -0.014153603039489825 -0.0008710323472000635 0 -0.014246958972901794 -0.0009997764561742149 0 -0.014260712146027092 -0.00079663749302549575 0 -0.014246958972901794 -0.0009997764561742149 0 -0.014385612602317929 -0.00094688518786872726 0 -0.014260712146027092 -0.00079663749302549575 0 -0.014141641157092783 -0.00074463271476176546 0 -0.014153603039489825 -0.0008710323472000635 0 -0.014260712146027092 -0.00079663749302549575 0 -0.014385612602317929 -0.00094688518786872726 0 -0.014260712146027092 -0.00079663749302549575 0 -0.014445158234462668 -0.00063239220237545175 0 -0.014139019734577018 -0.00058055041076785928 0 -0.014141641157092783 -0.00074463271476176546 0 -0.014260712146027092 -0.00079663749302549575 0 -0.014139019734577018 -0.00058055041076785928 0 -0.014260712146027092 -0.00079663749302549575 0 -0.014445158234462668 -0.00063239220237545175 0 -0.014445158234462668 -0.00063239220237545175 0 -0.014186283996778619 -0.00035071921979427397 0 -0.014756977458823317 0.00012387518810464006 0 -0.01867765829624245 0.00013387954612763175 0 -0.016814265976045708 9.6668940925938513e-05 0 -0.014139019734577018 -0.00058055041076785928 0 -0.014445158234462668 -0.00063239220237545175 0 -0.014186283996778619 -0.00035071921979427397 0 -0.015825936370370653 -0.001351361647890739 0 -0.01867765829624245 0.00013387954612763175 0 -0.014445158234462668 -0.00063239220237545175 0 -0.014871979970852959 -0.00051281885229634782 0 -0.014756977458823317 0.00012387518810464006 0 -0.014871979970852959 -0.00051281885229634782 0 -0.014756977458823317 0.00012387518810464006 0 -0.015755026946929863 -0.00038620616248493924 0 -0.019513719161688835 0.00027099221244851116 0 -0.019501584918608338 0.0003123374844777061 0 -0.019542599685280451 0.00032283808745419876 0 -0.024494102949518762 -0.00019997876079634169 0 -0.024447730546726269 -0.00017311249042603559 0 -0.024428590457059734 -0.00021197071746586086 0 -0.01867765829624245 0.00013387954612763175 0 -0.022358990977270517 0.00010439178535351797 0 -0.019440698571153967 0.00023010445607040095 0 -0.019513719161688835 0.00027099221244851116 0 -0.019501584918608338 0.0003123374844777061 0 -0.024494102949518762 -0.00019997876079634169 0 -0.024428590457059734 -0.00021197071746586086 0 -0.024512293200245398 -0.00029314068434752754 0 -0.024428590457059734 -0.00021197071746586086 0 -0.024318412251669044 -0.0003690222564391028 0 -0.024512293200245398 -0.00029314068434752754 0 -0.022358990977270517 0.00010439178535351797 0 -0.022187538376830282 0.0001927251246467331 0 -0.019501584918608338 0.0003123374844777061 0 -0.019542599685280451 0.00032283808745419876 0 -0.019552766712462828 0.00036134819141705191 0 -0.022187538376830282 0.0001927251246467331 0 -0.024568706081080471 -0.00026151650967323189 0 -0.024318412251669044 -0.0003690222564391028 0 -0.024512293200245398 -0.00029314068434752754 0 -0.024470021893357355 -0.00043619291755152029 0 -0.024636190066144387 -0.00037125118501642044 0 -0.024512293200245398 -0.00029314068434752754 0 -0.024470021893357355 -0.00043619291755152029 0 -0.020598898299484105 0.00091742535334777761 0 -0.021378671115705787 0.0013143080977994629 0 -0.020184750134078309 0.0011869825378268567 0 -0.020598898299484105 0.00091742535334777761 0 -0.021085728721296809 0.00078936657730818596 0 -0.021378671115705787 0.0013143080977994629 0 -0.020598898299484105 0.00091742535334777761 0 -0.021085728721296809 0.00078936657730818596 0 -0.020626101570997889 0.00074217505124473315 0 -0.020598898299484105 0.00091742535334777761 0 -0.020389323728932995 0.00080352589926887565 0 -0.020626101570997889 0.00074217505124473315 0 -0.019542599685280451 0.00032283808745419876 0 -0.019552766712462828 0.00036134819141705191 0 -0.019572971139636398 0.00034436900430878192 0 -0.021085728721296809 0.00078936657730818596 0 -0.021378671115705787 0.0013143080977994629 0 -0.021812703816301973 0.00054546775083805438 0 -0.022615944617135012 0.00098371139582789169 0 -0.021378671115705787 0.0013143080977994629 0 -0.021812703816301973 0.00054546775083805438 0 -0.022187538376830282 0.0001927251246467331 0 -0.020352351459830643 0.00086237018416923151 0 -0.019542599685280451 0.00032283808745419876 0 -0.019572971139636398 0.00034436900430878192 0 -0.019562347756658917 0.00030894067243220406 0 -0.020352351459830643 0.00086237018416923151 0 -0.019518917236126972 0.00078277457065414207 0 -0.017808021675603969 0.00055314011435060367 0 -0.019518917236126972 0.00078277457065414207 0 -0.019572971139636398 0.00034436900430878192 0 -0.019562347756658917 0.00030894067243220406 0 -0.019598691069122005 0.00033449241926054217 0 -0.017261261581319028 0.00020590933580432198 0 -0.016039486789420007 0.00083010051348250452 0 -0.018618855017736982 0.0014352175640941235 0 -0.017261261581319028 0.00020590933580432198 0 -0.016039486789420007 0.00083010051348250452 0 -0.015755026946929863 -0.00038620616248493924 0 -0.016814265976045708 9.6668940925938513e-05 0 -0.017808021675603969 0.00055314011435060367 0 -0.014756977458823317 0.00012387518810464006 0 -0.016039486789420007 0.00083010051348250452 0 -0.015755026946929863 -0.00038620616248493924 0 -0.019513719161688835 0.00027099221244851116 0 -0.019542599685280451 0.00032283808745419876 0 -0.019562347756658917 0.00030894067243220406 0 -0.014717021213724908 -0.0010343489342527262 0 -0.014871979970852959 -0.00051281885229634782 0 -0.015755026946929863 -0.00038620616248493924 0 -0.017261261581319028 0.00020590933580432198 0 -0.015755026946929863 -0.00038620616248493924 0 -0.017392840387956843 -0.00041303809075992498 0 -0.015872054333600345 -0.00093053198530007987 0 -0.015755026946929863 -0.00038620616248493924 0 -0.017392840387956843 -0.00041303809075992498 0 -0.017392840387956843 -0.00041303809075992498 0 -0.018443976972901486 -0.00057520067492943796 0 -0.018997736530910497 -0.00018050840202234617 0 -0.018443976972901486 -0.00057520067492943796 0 -0.018997736530910497 -0.00018050840202234617 0 -0.020137197416645072 -0.00023962761792233709 0 -0.020027446704493811 0.00018353229999179205 0 -0.020981157975321733 3.3781881382939486e-05 0 -0.020137197416645072 -0.00023962761792233709 0 -0.018997736530910497 -0.00018050840202234617 0 -0.020027446704493811 0.00018353229999179205 0 -0.020137197416645072 -0.00023962761792233709 0 -0.020027446704493811 0.00018353229999179205 0 -0.020812140338752474 0.00043889436754238135 0 -0.020981157975321733 3.3781881382939486e-05 0 -0.017261261581319028 0.00020590933580432198 0 -0.017392840387956843 -0.00041303809075992498 0 -0.018940998212397697 0.00038222044300984811 0 -0.017261261581319028 0.00020590933580432198 0 -0.018940998212397697 0.00038222044300984811 0 -0.018618855017736982 0.0014352175640941235 0 -0.017392840387956843 -0.00041303809075992498 0 -0.018997736530910497 -0.00018050840202234617 0 -0.018940998212397697 0.00038222044300984811 0 -0.020027446704493811 0.00018353229999179205 0 -0.018940998212397697 0.00038222044300984811 0 -0.019997270701439473 0.00070345592344431122 0 -0.018997736530910497 -0.00018050840202234617 0 -0.020027446704493811 0.00018353229999179205 0 -0.018940998212397697 0.00038222044300984811 0 -0.018940998212397697 0.00038222044300984811 0 -0.019413202503738434 0.0011645536411330356 0 -0.018618855017736982 0.0014352175640941235 0 -0.020184750134078309 0.0011869825378268567 0 -0.019929370859696198 0.0010533536823040981 0 -0.02024937343339064 0.00088878792643713343 0 -0.019518917236126972 0.00078277457065414207 0 -0.019676017320447211 0.0008664975384883039 0 -0.019413202503738434 0.0011645536411330356 0 -0.019929370859696198 0.0010533536823040981 0 -0.019926889735338776 0.0009423253748729461 0 -0.019457435157300626 0.00088418420532717984 0 -0.019518917236126972 0.00078277457065414207 0 -0.019413202503738434 0.0011645536411330356 0 -0.020185163387265049 0.001179397685236717 0 -0.019929370859696198 0.0010533536823040981 0 -0.019929370859696198 0.0010533536823040981 0 -0.020152470880603044 0.00087259904227640248 0 -0.02024937343339064 0.00088878792643713343 0 -0.019929370859696198 0.0010533536823040981 0 -0.020152470880603044 0.00087259904227640248 0 -0.019926889735338776 0.0009423253748729461 0 -0.020446016140579552 0.00074438557396444246 0 -0.019926889735338776 0.0009423253748729461 0 -0.019997270701439473 0.00070345592344431122 0 -0.020446016140579552 0.00074438557396444246 0 -0.020152470880603044 0.00087259904227640248 0 -0.019926889735338776 0.0009423253748729461 0 -0.019413202503738434 0.0011645536411330356 0 -0.019926889735338776 0.0009423253748729461 0 -0.019997270701439473 0.00070345592344431122 0 -0.018940998212397697 0.00038222044300984811 0 -0.019413202503738434 0.0011645536411330356 0 -0.019997270701439473 0.00070345592344431122 0 -0.020027446704493811 0.00018353229999179205 0 -0.019997270701439473 0.00070345592344431122 0 -0.020812140338752474 0.00043889436754238135 0 -0.020812140338752474 0.00043889436754238135 0 -0.022052282169407703 0.00025438873816489713 0 -0.020981157975321733 3.3781881382939486e-05 0 -0.020812140338752474 0.00043889436754238135 0 -0.021345237618702991 0.00062381170375023197 0 -0.022052282169407703 0.00025438873816489713 0 -0.020446016140579552 0.00074438557396444246 0 -0.019997270701439473 0.00070345592344431122 0 -0.020812140338752474 0.00043889436754238135 0 -0.020446016140579552 0.00074438557396444246 0 -0.020812140338752474 0.00043889436754238135 0 -0.021345237618702991 0.00062381170375023197 0 -0.021345237618702991 0.00062381170375023197 0 -0.022807220366575662 0.00072292341004332947 0 -0.022052282169407703 0.00025438873816489713 0 -0.021345237618702991 0.00062381170375023197 0 -0.020809689433923497 0.00081721919627518122 0 -0.022807220366575662 0.00072292341004332947 0 -0.020446016140579552 0.00074438557396444246 0 -0.021345237618702991 0.00062381170375023197 0 -0.020471134086510401 0.00078655914966737511 0 -0.021345237618702991 0.00062381170375023197 0 -0.020809689433923497 0.00081721919627518122 0 -0.020471134086510401 0.00078655914966737511 0 -0.020809689433923497 0.00081721919627518122 0 -0.020389323728932995 0.00080352589926887565 0 -0.020471134086510401 0.00078655914966737511 0 -0.020389323728932995 0.00080352589926887565 0 -0.020251361609085767 0.00086394669832367502 0 -0.020626101570997889 0.00074217505124473315 0 -0.020809689433923497 0.00081721919627518122 0 -0.020389323728932995 0.00080352589926887565 0 -0.020251361609085767 0.00086394669832367502 0 -0.020389323728932995 0.00080352589926887565 0 -0.02024937343339064 0.00088878792643713343 0 -0.020471134086510401 0.00078655914966737511 0 -0.020598898299484105 0.00091742535334777761 0 -0.020184750134078309 0.0011869825378268567 0 -0.02024937343339064 0.00088878792643713343 0 -0.020598898299484105 0.00091742535334777761 0 -0.020389323728932995 0.00080352589926887565 0 -0.02024937343339064 0.00088878792643713343 0 -0.020152470880603044 0.00087259904227640248 0 -0.02024937343339064 0.00088878792643713343 0 -0.020471134086510401 0.00078655914966737511 0 -0.020446016140579552 0.00074438557396444246 0 -0.020152470880603044 0.00087259904227640248 0 -0.020471134086510401 0.00078655914966737511 0 -0.026705384742398242 -1.3095010217213757e-06 0 -0.024044315436832012 3.3347207924371953e-06 0 -0.02562539170458206 0.00049259848374077174 0 -0.022807220366575662 0.00072292341004332947 0 -0.022052282169407703 0.00025438873816489713 0 -0.024044315436832012 3.3347207924371953e-06 0 -0.022807220366575662 0.00072292341004332947 0 -0.024044315436832012 3.3347207924371953e-06 0 -0.02562539170458206 0.00049259848374077174 0 -0.022052282169407703 0.00025438873816489713 0 -0.024044315436832012 3.3347207924371953e-06 0 -0.022118562443944154 -7.0813617094926443e-05 0 -0.022052282169407703 0.00025438873816489713 0 -0.020981157975321733 3.3781881382939486e-05 0 -0.022118562443944154 -7.0813617094926443e-05 0 -0.024044315436832012 3.3347207924371953e-06 0 -0.023806907097689269 -7.8798840340608354e-09 0 -0.022118562443944154 -7.0813617094926443e-05 0 -0.026705384742398242 -1.3095010217213757e-06 0 -0.024044315436832012 3.3347207924371953e-06 0 -0.023806907097689269 -7.8798840340608354e-09 0 -0.023806907097689269 -7.8798840340608354e-09 0 -0.022118562443944154 -7.0813617094926443e-05 0 -0.021280560810777303 -0.00022688878402399231 0 -0.022118562443944154 -7.0813617094926443e-05 0 -0.020137197416645072 -0.00023962761792233709 0 -0.021280560810777303 -0.00022688878402399231 0 -0.020981157975321733 3.3781881382939486e-05 0 -0.022118562443944154 -7.0813617094926443e-05 0 -0.020137197416645072 -0.00023962761792233709 0 -0.018443976972901486 -0.00057520067492943796 0 -0.020137197416645072 -0.00023962761792233709 0 -0.019424358707657397 -0.00059354760569669347 0 -0.020137197416645072 -0.00023962761792233709 0 -0.021280560810777303 -0.00022688878402399231 0 -0.019424358707657397 -0.00059354760569669347 0 -0.023806907097689269 -7.8798840340608354e-09 0 -0.021280560810777303 -0.00022688878402399231 0 -0.020910059590907044 -5.8025811755857088e-07 0 -0.021280560810777303 -0.00022688878402399231 0 -0.020910059590907044 -5.8025811755857088e-07 0 -0.019424358707657397 -0.00059354760569669347 0 -0.020910059590907044 -5.8025811755857088e-07 0 -0.018012020887032146 -2.0294621459017297e-06 0 -0.019424358707657397 -0.00059354760569669347 0 -0.018012020887032146 -2.0294621459017297e-06 0 -0.019424358707657397 -0.00059354760569669347 0 -0.018545859115003588 -0.00065329316654700285 0 -0.018443976972901486 -0.00057520067492943796 0 -0.019424358707657397 -0.00059354760569669347 0 -0.016487606418975086 -0.0012591647184958662 0 -0.017392840387956843 -0.00041303809075992498 0 -0.018443976972901486 -0.00057520067492943796 0 -0.016487606418975086 -0.0012591647184958662 0 -0.015872054333600345 -0.00093053198530007987 0 -0.017392840387956843 -0.00041303809075992498 0 -0.016487606418975086 -0.0012591647184958662 0 -0.014957458004057149 -0.0011920912566338252 0 -0.016487606418975086 -0.0012591647184958662 0 -0.014359094102167633 -0.00095224948027367972 0 -0.016321068146680866 -0.0010897024592330701 0 -0.015918034467707072 -0.00058894983252471644 0 -0.019424358707657397 -0.00059354760569669347 0 -0.016487606418975086 -0.0012591647184958662 0 -0.018545859115003588 -0.00065329316654700285 0 -0.016487606418975086 -0.0012591647184958662 0 -0.013529888984613244 -0.00045626559812881153 0 -0.01323713490449065 -0.00042795443991161861 0 -0.016487606418975086 -0.0012591647184958662 0 -0.013529888984613244 -0.00045626559812881153 0 -0.014359094102167633 -0.00095224948027367972 0 -0.012775448989179931 -0.00067550799773895818 0 -0.013832473213437044 -0.0010270295246625116 0 -0.014359094102167633 -0.00095224948027367972 0 -0.012775448989179931 -0.00067550799773895818 0 -0.013529888984613244 -0.00045626559812881153 0 -0.014359094102167633 -0.00095224948027367972 0 -0.012396441734570668 -0.00049480476722461332 0 -0.012775448989179931 -0.00067550799773895818 0 -0.013529888984613244 -0.00045626559812881153 0 -0.012396441734570668 -0.00049480476722461332 0 -0.013529888984613244 -0.00045626559812881153 0 -0.013050148268131802 -0.00033850543686480048 0 -0.012038524712786724 -0.00042365728853156965 0 -0.013050148268131802 -0.00033850543686480048 0 -0.015107900987089456 2.3083162515335352e-07 0 -0.018012020887032146 -2.0294621459017297e-06 0 -0.015119286266253308 1.804158485321872e-06 0 -0.018545859115003588 -0.00065329316654700285 0 -0.013050148268131802 -0.00033850543686480048 0 -0.015107900987089456 2.3083162515335352e-07 0 -0.01323713490449065 -0.00042795443991161861 0 -0.015115285157019166 -4.3667409719562823e-07 0 -0.015918034467707072 -0.00058894983252471644 0 -0.013529888984613244 -0.00045626559812881153 0 -0.013050148268131802 -0.00033850543686480048 0 -0.01323713490449065 -0.00042795443991161861 0 -0.038573759050448027 -0.00032125582518736972 0 -0.038414147034999811 -0.0002827817414223099 0 -0.038957512406167932 -0.00025659946614098452 0 -0.038573759050448027 -0.00032125582518736972 0 -0.038414147034999811 -0.0002827817414223099 0 -0.038692115105432065 7.7374959990070545e-06 0 -0.03900236988866275 -0.00021264296714466739 0 -0.036823887797971945 0.00018310592287430354 0 -0.03807565305503402 -0.00023985505904722921 0 -0.038957512406167932 -0.00025659946614098452 0 -0.039945042049574032 -6.9824202734096756e-08 0 -0.038414147034999811 -0.0002827817414223099 0 -0.03807565305503402 -0.00023985505904722921 0 -0.038957512406167932 -0.00025659946614098452 0 -0.03807565305503402 -0.00023985505904722921 0 -0.039945042049574032 -6.9824202734096756e-08 0 -0.037048200148439729 -6.9873966771016034e-07 0 -0.038957512406167932 -0.00025659946614098452 0 -0.040351755871532453 4.0784575946728211e-05 0 -0.039081969117411838 0.00010966135898060248 0 -0.039945042049574032 -6.9824202734096756e-08 0 -0.040351755871532453 4.0784575946728211e-05 0 -0.041836274791925164 0.00022049219284945535 0 -0.038957512406167932 -0.00025659946614098452 0 -0.039945042049574032 -6.9824202734096756e-08 0 -0.040351755871532453 4.0784575946728211e-05 0 -0.040351755871532453 4.0784575946728211e-05 0 -0.039081969117411838 0.00010966135898060248 0 -0.041836274791925164 0.00022049219284945535 0 -0.04287828842000433 0.0003388351722834688 0 -0.042768083163688318 0.00031239232494157277 0 -0.041836274791925164 0.00022049219284945535 0 -0.041106854653222946 0.00019795949145335953 0 -0.041458262207973363 0.0001387615826942104 0 -0.038573759050448027 -0.00032125582518736972 0 -0.038957512406167932 -0.00025659946614098452 0 -0.039081969117411838 0.00010966135898060248 0 -0.04287828842000433 0.0003388351722834688 0 -0.042541826543932022 0.00022821344818515111 0 -0.042802472117887749 0.00053664046773802346 0 -0.042340182969347086 -0.00040779467511452912 0 -0.042541826543932022 0.00022821344818515111 0 -0.042046318013865748 0.00038871301164639365 0 -0.03900236988866275 -0.00021264296714466739 0 -0.041541359358581574 0.00068679829020250587 0 -0.04287828842000433 0.0003388351722834688 0 -0.042802472117887749 0.00053664046773802346 0 -0.042768083163688318 0.00031239232494157277 0 -0.042340182969347086 -0.00040779467511452912 0 -0.04287828842000433 0.0003388351722834688 0 -0.042541826543932022 0.00022821344818515111 0 -0.03900236988866275 -0.00021264296714466739 0 -0.041106854653222946 0.00019795949145335953 0 -0.042541826543932022 0.00022821344818515111 0 -0.042046318013865748 0.00038871301164639365 0 -0.042802472117887749 0.00053664046773802346 0 -0.040982894873543479 -0.0013619229366022239 0 -0.039700973132194256 0.00064188449208006627 0 -0.038594512129155406 -0.0004498363652764063 0 -0.040982894873543479 -0.0013619229366022239 0 -0.040952516657930503 0.00098619144440769985 0 -0.039700973132194256 0.00064188449208006627 0 -0.038594512129155406 -0.0004498363652764063 0 -0.037375216082684438 -0.0018530687137603009 0 -0.035672261004706517 0.00048664240239347831 0 -0.039700973132194256 0.00064188449208006627 0 -0.038594512129155406 -0.0004498363652764063 0 -0.038155146445548065 0.0018850384908543395 0 -0.038594512129155406 -0.0004498363652764063 0 -0.035672261004706517 0.00048664240239347831 0 -0.038155146445548065 0.0018850384908543395 0 -0.038594512129155406 -0.0004498363652764063 0 -0.037375216082684438 -0.0018530687137603009 0 -0.03910776003512724 -0.0030551453587541709 0 -0.040982894873543479 -0.0013619229366022239 0 -0.038594512129155406 -0.0004498363652764063 0 -0.03910776003512724 -0.0030551453587541709 0 -0.03900236988866275 -0.00021264296714466739 0 -0.036467572133421916 -0.0014573549504291611 0 -0.035105929483355246 0.0011835688199736429 0 -0.034074043909264218 0.00026050642812865295 0 -0.035120452917769614 -0.00031022289197769236 0 -0.034074043909264218 0.00026050642812865295 0 -0.034149358429186531 -0.00064832083039956007 0 -0.035120452917769614 -0.00031022289197769236 0 -0.037375216082684438 -0.0018530687137603009 0 -0.03910776003512724 -0.0030551453587541709 0 -0.037245926660096386 -0.0047035752888980806 0 -0.034074043909264218 0.00026050642812865295 0 -0.034149358429186531 -0.00064832083039956007 0 -0.033047902536438967 -0.00067196244645096703 0 -0.036467572133421916 -0.0014573549504291611 0 -0.035290332865852973 -0.0026840050058445854 0 -0.034149358429186531 -0.00064832083039956007 0 -0.033047902536438967 -0.00067196244645096703 0 -0.033821415656401399 -0.0012586539946614608 0 -0.033047902536438967 -0.00067196244645096703 0 -0.033821415656401399 -0.0012586539946614608 0 -0.033279264719799216 -0.0015354414452715154 0 -0.033821415656401399 -0.0012586539946614608 0 -0.033279264719799216 -0.0015354414452715154 0 -0.03413358629865583 -0.0017743065320641768 0 -0.034536108579408802 -0.0011904476945199288 0 -0.035120452917769614 -0.00031022289197769236 0 -0.035161163104012107 -0.0018256609964267705 0 -0.034149358429186531 -0.00064832083039956007 0 -0.034536108579408802 -0.0011904476945199288 0 -0.035120452917769614 -0.00031022289197769236 0 -0.034149358429186531 -0.00064832083039956007 0 -0.033821415656401399 -0.0012586539946614608 0 -0.034536108579408802 -0.0011904476945199288 0 -0.033821415656401399 -0.0012586539946614608 0 -0.034536108579408802 -0.0011904476945199288 0 -0.03413358629865583 -0.0017743065320641768 0 -0.034536108579408802 -0.0011904476945199288 0 -0.035161163104012107 -0.0018256609964267705 0 -0.03413358629865583 -0.0017743065320641768 0 -0.036823887797971945 0.00018310592287430354 0 -0.035835706063196963 -0.00089959041256120007 0 -0.038107202196583603 0.00066394163735269116 0 -0.038692115105432065 7.7374959990070545e-06 0 -0.038790113057708936 0.0017081679770197054 0 -0.038107202196583603 0.00066394163735269116 0 -0.038790113057708936 0.0017081679770197054 0 -0.03808784140703788 0.0018093697131377924 0 -0.038107202196583603 0.00066394163735269116 0 -0.038692115105432065 7.7374959990070545e-06 0 -0.037979644128132053 -3.9214986971025965e-05 0 -0.038414147034999811 -0.0002827817414223099 0 -0.038692115105432065 7.7374959990070545e-06 0 -0.037979644128132053 -3.9214986971025965e-05 0 -0.03807565305503402 -0.00023985505904722921 0 -0.037048200148439729 -6.9873966771016034e-07 0 -0.03669936959630505 4.0397204961689967e-05 0 -0.03807565305503402 -0.00023985505904722921 0 -0.037979644128132053 -3.9214986971025965e-05 0 -0.03669936959630505 4.0397204961689967e-05 0 -0.038414147034999811 -0.0002827817414223099 0 -0.03807565305503402 -0.00023985505904722921 0 -0.037979644128132053 -3.9214986971025965e-05 0 -0.038107202196583603 0.00066394163735269116 0 -0.037979644128132053 -3.9214986971025965e-05 0 -0.03669936959630505 4.0397204961689967e-05 0 -0.037048200148439729 -6.9873966771016034e-07 0 -0.03669936959630505 4.0397204961689967e-05 0 -0.034156033083425692 1.2949915347720594e-06 0 -0.03669936959630505 4.0397204961689967e-05 0 -0.034934767105202033 0.00012922565926445966 0 -0.035172720218126931 0.00012851227171219368 0 -0.03669936959630505 4.0397204961689967e-05 0 -0.034156033083425692 1.2949915347720594e-06 0 -0.034934767105202033 0.00012922565926445966 0 -0.038107202196583603 0.00066394163735269116 0 -0.03669936959630505 4.0397204961689967e-05 0 -0.03808784140703788 0.0018093697131377924 0 -0.036942774933865559 0.00042340027638931892 0 -0.035561120543808465 0.00020531926326205628 0 -0.033993226953496498 7.6728600453586661e-05 0 -0.033226532088584636 -0.00055935967529183877 0 -0.034151987744794235 1.8496264345122701e-07 0 -0.033993226953496498 7.6728600453586661e-05 0 -0.033289829870455791 0.00027556559557921547 0 -0.032099573965543818 -0.00015746282428641105 0 -0.031831562405017159 0.00019037493026779497 0 -0.034149015927339856 1.7971565726613442e-06 0 -0.033289829870455791 0.00027556559557921547 0 -0.032099573965543818 -0.00015746282428641105 0 -0.034149015927339856 1.7971565726613442e-06 0 -0.032099573965543818 -0.00015746282428641105 0 -0.031830940447645888 -1.68901955414952e-06 0 -0.033993226953496498 7.6728600453586661e-05 0 -0.035561120543808465 0.00020531926326205628 0 -0.032099573965543818 -0.00015746282428641105 0 -0.031831562405017159 0.00019037493026779497 0 -0.03172913435844342 -0.0002095262044706662 0 -0.03401879834132801 2.930041979985472e-05 0 -0.034522774186061124 7.6535932067677527e-05 0 -0.034465884606623323 -4.9012425268473786e-06 0 -0.033226532088584636 -0.00055935967529183877 0 -0.030990580562841343 -0.00083337547017769454 0 -0.035835706063196963 -0.00089959041256120007 0 -0.035561120543808465 0.00020531926326205628 0 -0.034990870095710759 -0.0017888069445941078 0 -0.035416320033957831 -0.0019719740211869546 0 -0.035533423460515592 -0.0017985763624587803 0 -0.035835706063196963 -0.00089959041256120007 0 -0.035813565372960057 -0.0010041948019694628 0 -0.034990870095710759 -0.0017888069445941078 0 -0.034993684903208921 -0.0018947358820787226 0 -0.035416320033957831 -0.0019719740211869546 0 -0.033226532088584636 -0.00055935967529183877 0 -0.035561120543808465 0.00020531926326205628 0 -0.032099573965543818 -0.00015746282428641105 0 -0.031470533354120332 -0.0002177300818124145 0 -0.03172913435844342 -0.0002095262044706662 0 -0.031470533354120332 -0.0002177300818124145 0 -0.031691932530099914 0.00016707223226303331 0 -0.03172913435844342 -0.0002095262044706662 0 -0.032099573965543818 -0.00015746282428641105 0 -0.031830940447645888 -1.68901955414952e-06 0 -0.031470533354120332 -0.0002177300818124145 0 -0.031830940447645888 -1.68901955414952e-06 0 -0.031470533354120332 -0.0002177300818124145 0 -0.02960772683242659 1.5582054889402381e-06 0 -0.029603546954097348 5.7284722294559066e-07 0 -0.027771608210725662 0.0015006177283807419 0 -0.031470533354120332 -0.0002177300818124145 0 -0.02960772683242659 1.5582054889402381e-06 0 -0.031691932530099914 0.00016707223226303331 0 -0.022807220366575662 0.00072292341004332947 0 -0.02562539170458206 0.00049259848374077174 0 -0.022657496767286657 0.0018077364490901781 0 -0.024388859242504213 0.0026635414123829301 0 -0.02562539170458206 0.00049259848374077174 0 -0.022657496767286657 0.0018077364490901781 0 -0.026705384742398242 -1.3095010217213757e-06 0 -0.029597898649734493 6.7221302483818035e-06 0 -0.02562539170458206 0.00049259848374077174 0 -0.029597898649734493 6.7221302483818035e-06 0 -0.024388859242504213 0.0026635414123829301 0 -0.02562539170458206 0.00049259848374077174 0 -0.019921831081081986 0.00033408716811574322 0 -0.020251361609085767 0.00086394669832367502 0 -0.020731414808415508 0.00027910179465300949 0 -0.022863168742017659 0.000443981010379228 0 -0.021670121463641008 0.00018926736004442165 0 -0.020809689433923497 0.00081721919627518122 0 -0.020347380630585638 0.001501950198847219 0 -0.020251361609085767 0.00086394669832367502 0 -0.021773048538013786 0.0012042589238538866 0 -0.022863168742017659 0.000443981010379228 0 -0.022807220366575662 0.00072292341004332947 0 -0.020977911254111487 0.0016220726498837222 0 -0.022657496767286657 0.0018077364490901781 0 -0.020977911254111487 0.0016220726498837222 0 -0.022657496767286657 0.0018077364490901781 0 -0.021650270457543981 0.0028784560930423262 0 -0.020809689433923497 0.00081721919627518122 0 -0.022807220366575662 0.00072292341004332947 0 -0.020347380630585638 0.001501950198847219 0 -0.027771608210725662 0.0015006177283807419 0 -0.027625629507503139 -0.001029042843433421 0 -0.024388859242504213 0.0026635414123829301 0 -0.022657496767286657 0.0018077364490901781 0 -0.021650270457543981 0.0028784560930423262 0 -0.031691932530099914 0.00016707223226303331 0 -0.031881379400886138 5.457568056209586e-05 0 -0.03172913435844342 -0.0002095262044706662 0 -0.029184395196851273 -0.0027946841837939375 0 -0.028248891771715749 -0.0020979953920173397 0 -0.027750517647139709 -0.0026035196846747664 0 -0.028110825947039963 -0.0030873799829333969 0 -0.028394039879182088 -0.0026558867473580063 0 -0.027750517647139709 -0.0026035196846747664 0 -0.027625629507503139 -0.001029042843433421 0 -0.028319508705282982 -0.0028498743941179662 0 -0.022863168742017659 0.000443981010379228 0 -0.027625629507503139 -0.001029042843433421 0 -0.028248891771715749 -0.0020979953920173397 0 -0.02888311107986254 -0.0017530135551033479 0 -0.027991679909314469 -0.0015119316921387163 0 -0.02888311107986254 -0.0017530135551033479 0 -0.029023315545848812 -0.00072292409476935025 0 -0.027991679909314469 -0.0015119316921387163 0 -0.029184395196851273 -0.0027946841837939375 0 -0.028248891771715749 -0.0020979953920173397 0 -0.02888311107986254 -0.0017530135551033479 0 -0.029184395196851273 -0.0027946841837939375 0 -0.02888311107986254 -0.0017530135551033479 0 -0.030023909742059103 -0.0016579225438197553 0 -0.02888311107986254 -0.0017530135551033479 0 -0.030023909742059103 -0.0016579225438197553 0 -0.029023315545848812 -0.00072292409476935025 0 -0.027625629507503139 -0.001029042843433421 0 -0.030990580562841343 -0.00083337547017769454 0 -0.034993684903208921 -0.0018947358820787226 0 -0.03413358629865583 -0.0017743065320641768 0 -0.033815234577747634 -0.0022394808796146145 0 -0.030881726261363245 -0.00047308939852842217 0 -0.030023909742059103 -0.0016579225438197553 0 -0.029023315545848812 -0.00072292409476935025 0 -0.034993684903208921 -0.0018947358820787226 0 -0.035416320033957831 -0.0019719740211869546 0 -0.033815234577747634 -0.0022394808796146145 0 -0.033226532088584636 -0.00055935967529183877 0 -0.031552244316648555 -0.0015694600026224419 0 -0.034990300831374999 -0.0017935882652306203 0 -0.034993684903208921 -0.0018947358820787226 0 -0.03413358629865583 -0.0017743065320641768 0 -0.035835706063196963 -0.00089959041256120007 0 -0.034088200827121724 -0.0016515796511090467 0 -0.031552244316648555 -0.0015694600026224419 0 -0.028905476076297804 -0.0016358820520549397 0 -0.033279264719799216 -0.0015354414452715154 0 -0.033815234577747634 -0.0022394808796146145 0 -0.031983936369951678 -0.0024789240856642183 0 -0.033279264719799216 -0.0015354414452715154 0 -0.03413358629865583 -0.0017743065320641768 0 -0.033815234577747634 -0.0022394808796146145 0 -0.029023315545848812 -0.00072292409476935025 0 -0.027319068832558305 -0.001025521212714559 0 -0.027991679909314469 -0.0015119316921387163 0 -0.033279264719799216 -0.0015354414452715154 0 -0.031983936369951678 -0.0024789240856642183 0 -0.032026418155085071 -0.0016013408157090321 0 -0.027636724582750145 -0.001058703569343581 0 -0.027154744990885746 -0.00064912716031836188 0 -0.027289904376766712 -0.0006749251676914865 0 -0.028905476076297804 -0.0016358820520549397 0 -0.032091343867025605 -0.0028202327631122134 0 -0.02732250040928744 -0.0010475855564734465 0 -0.027315966347322189 -0.0012193421040831917 0 -0.026999652952689492 -0.0016048099932850887 0 -0.027319068832558305 -0.001025521212714559 0 -0.027315966347322189 -0.0012193421040831917 0 -0.027991679909314469 -0.0015119316921387163 0 -0.028905476076297804 -0.0016358820520549397 0 -0.028771769782121891 -0.0015062686493612794 0 -0.02732250040928744 -0.0010475855564734465 0 -0.026525343856877607 -0.0015455465189903384 0 -0.025646256544832768 -0.0013448512117599286 0 -0.027636724582750145 -0.001058703569343581 0 -0.026906913625065303 -0.00062351084524001315 0 -0.025646256544832768 -0.0013448512117599286 0 -0.028905476076297804 -0.0016358820520549397 0 -0.025107470984587335 -0.0011834039148678978 0 -0.027636724582750145 -0.001058703569343581 0 -0.026906913625065303 -0.00062351084524001315 0 -0.027154744990885746 -0.00064912716031836188 0 -0.026525343856877607 -0.0015455465189903384 0 -0.0268110628156162 -0.0020816040614076332 0 -0.025983021914032782 -0.0017348862545812007 0 -0.02732250040928744 -0.0010475855564734465 0 -0.026525343856877607 -0.0015455465189903384 0 -0.026999652952689492 -0.0016048099932850887 0 -0.026525343856877607 -0.0015455465189903384 0 -0.026999652952689492 -0.0016048099932850887 0 -0.0268110628156162 -0.0020816040614076332 0 -0.0268110628156162 -0.0020816040614076332 0 -0.02723096684863887 -0.0019733457588595833 0 -0.02736358767520455 -0.0023167170701679863 0 -0.026999652952689492 -0.0016048099932850887 0 -0.0268110628156162 -0.0020816040614076332 0 -0.02723096684863887 -0.0019733457588595833 0 -0.0268110628156162 -0.0020816040614076332 0 -0.02615384924789935 -0.0023413517528206489 0 -0.025983021914032782 -0.0017348862545812007 0 -0.027991679909314469 -0.0015119316921387163 0 -0.027427225077326329 -0.0016856978999087858 0 -0.027650746983187497 -0.0020732841937884028 0 -0.027315966347322189 -0.0012193421040831917 0 -0.027991679909314469 -0.0015119316921387163 0 -0.027427225077326329 -0.0016856978999087858 0 -0.027315966347322189 -0.0012193421040831917 0 -0.026999652952689492 -0.0016048099932850887 0 -0.027427225077326329 -0.0016856978999087858 0 -0.026999652952689492 -0.0016048099932850887 0 -0.027427225077326329 -0.0016856978999087858 0 -0.02723096684863887 -0.0019733457588595833 0 -0.027427225077326329 -0.0016856978999087858 0 -0.02723096684863887 -0.0019733457588595833 0 -0.027650746983187497 -0.0020732841937884028 0 -0.02723096684863887 -0.0019733457588595833 0 -0.027650746983187497 -0.0020732841937884028 0 -0.02736358767520455 -0.0023167170701679863 0 -0.028248891771715749 -0.0020979953920173397 0 -0.027991679909314469 -0.0015119316921387163 0 -0.027650746983187497 -0.0020732841937884028 0 -0.028110825947039963 -0.0030873799829333969 0 -0.027750517647139709 -0.0026035196846747664 0 -0.027350741362743888 -0.002818647525512035 0 -0.028248891771715749 -0.0020979953920173397 0 -0.027650746983187497 -0.0020732841937884028 0 -0.027750517647139709 -0.0026035196846747664 0 -0.027750517647139709 -0.0026035196846747664 0 -0.027350741362743888 -0.002818647525512035 0 -0.02736358767520455 -0.0023167170701679863 0 -0.027650746983187497 -0.0020732841937884028 0 -0.027750517647139709 -0.0026035196846747664 0 -0.02736358767520455 -0.0023167170701679863 0 -0.0268110628156162 -0.0020816040614076332 0 -0.027350741362743888 -0.002818647525512035 0 -0.02736358767520455 -0.0023167170701679863 0 -0.021330546763165519 -0.00070202388087339676 0 -0.022211648832463234 -0.00061916647680927933 0 -0.023047843950073914 -0.0014574007371999003 0 -0.0268110628156162 -0.0020816040614076332 0 -0.027350741362743888 -0.002818647525512035 0 -0.02615384924789935 -0.0023413517528206489 0 -0.024653751690786919 -0.001999419600187533 0 -0.024516428858580824 -0.0018023386435203545 0 -0.021330546763165519 -0.00070202388087339676 0 -0.022211648832463234 -0.00061916647680927933 0 -0.021580167139473621 -7.0246190346207252e-05 0 -0.022187538376830282 0.0001927251246467331 0 -0.022486953585855344 -0.00028241349152666271 0 -0.022615944617135012 0.00098371139582789169 0 -0.022211648832463234 -0.00061916647680927933 0 -0.021812703816301973 0.00054546775083805438 0 -0.022211648832463234 -0.00061916647680927933 0 -0.021580167139473621 -7.0246190346207252e-05 0 -0.021812703816301973 0.00054546775083805438 0 -0.021580167139473621 -7.0246190346207252e-05 0 -0.021812703816301973 0.00054546775083805438 0 -0.021177065779166379 0.00039185391505512933 0 -0.019921831081081986 0.00033408716811574322 0 -0.021330546763165519 -0.00070202388087339676 0 -0.020731414808415508 0.00027910179465300949 0 -0.021085728721296809 0.00078936657730818596 0 -0.021177065779166379 0.00039185391505512933 0 -0.020626101570997889 0.00074217505124473315 0 -0.021085728721296809 0.00078936657730818596 0 -0.021812703816301973 0.00054546775083805438 0 -0.021177065779166379 0.00039185391505512933 0 -0.022863168742017659 0.000443981010379228 0 -0.024653751690786919 -0.001999419600187533 0 -0.021177065779166379 0.00039185391505512933 0 -0.020626101570997889 0.00074217505124473315 0 -0.020731414808415508 0.00027910179465300949 0 -0.020251361609085767 0.00086394669832367502 0 -0.020626101570997889 0.00074217505124473315 0 -0.020731414808415508 0.00027910179465300949 0 -0.021330546763165519 -0.00070202388087339676 0 -0.020731414808415508 0.00027910179465300949 0 -0.021204126236017966 -7.8563856360275894e-06 0 -0.021330546763165519 -0.00070202388087339676 0 -0.021580167139473621 -7.0246190346207252e-05 0 -0.021204126236017966 -7.8563856360275894e-06 0 -0.021580167139473621 -7.0246190346207252e-05 0 -0.021177065779166379 0.00039185391505512933 0 -0.021204126236017966 -7.8563856360275894e-06 0 -0.021177065779166379 0.00039185391505512933 0 -0.020731414808415508 0.00027910179465300949 0 -0.021204126236017966 -7.8563856360275894e-06 0 -0.024404557817717835 -0.0005081935957960504 0 -0.024193947375880476 0.00012073468637122536 0 -0.024713446164670666 -0.0005161543537772486 0 -0.024568706081080471 -0.00026151650967323189 0 -0.024572375993000276 -0.00039612636604679179 0 -0.024005052188751392 -0.00039511249691425072 0 -0.024404557817717835 -0.0005081935957960504 0 -0.024193947375880476 0.00012073468637122536 0 -0.024005052188751392 -0.00039511249691425072 0 -0.024404557817717835 -0.0005081935957960504 0 -0.024331165192932006 -0.00085409956718938453 0 -0.024005052188751392 -0.00039511249691425072 0 -0.024193947375880476 0.00012073468637122536 0 -0.02350885766538752 -0.00016782077842618313 0 -0.023249713284310115 0.00069826389841188305 0 -0.024193947375880476 0.00012073468637122536 0 -0.02350885766538752 -0.00016782077842618313 0 -0.023249713284310115 0.00069826389841188305 0 -0.022211648832463234 -0.00061916647680927933 0 -0.02350885766538752 -0.00016782077842618313 0 -0.024005052188751392 -0.00039511249691425072 0 -0.02350885766538752 -0.00016782077842618313 0 -0.023602472081403529 -0.00073420355339147501 0 -0.022211648832463234 -0.00061916647680927933 0 -0.023602472081403529 -0.00073420355339147501 0 -0.023047843950073914 -0.0014574007371999003 0 -0.022211648832463234 -0.00061916647680927933 0 -0.02350885766538752 -0.00016782077842618313 0 -0.023602472081403529 -0.00073420355339147501 0 -0.023602472081403529 -0.00073420355339147501 0 -0.023047843950073914 -0.0014574007371999003 0 -0.024202227025793041 -0.0011664963935030961 0 -0.023602472081403529 -0.00073420355339147501 0 -0.024202227025793041 -0.0011664963935030961 0 -0.024331165192932006 -0.00085409956718938453 0 -0.024005052188751392 -0.00039511249691425072 0 -0.023602472081403529 -0.00073420355339147501 0 -0.024331165192932006 -0.00085409956718938453 0 -0.024404557817717835 -0.0005081935957960504 0 -0.024331165192932006 -0.00085409956718938453 0 -0.024641180054138703 -0.00084890931826827416 0 -0.024331165192932006 -0.00085409956718938453 0 -0.024681321916576522 -0.0012318239212813263 0 -0.024641180054138703 -0.00084890931826827416 0 -0.024202227025793041 -0.0011664963935030961 0 -0.024331165192932006 -0.00085409956718938453 0 -0.024681321916576522 -0.0012318239212813263 0 -0.024202227025793041 -0.0011664963935030961 0 -0.024714674914442864 -0.0015987575101039115 0 -0.024681321916576522 -0.0012318239212813263 0 -0.02615384924789935 -0.0023413517528206489 0 -0.024714674914442864 -0.0015987575101039115 0 -0.025983021914032782 -0.0017348862545812007 0 -0.023047843950073914 -0.0014574007371999003 0 -0.024202227025793041 -0.0011664963935030961 0 -0.024714674914442864 -0.0015987575101039115 0 -0.024516428858580824 -0.0018023386435203545 0 -0.024683601283108536 -0.001672159216334738 0 -0.024714674914442864 -0.0015987575101039115 0 -0.025983021914032782 -0.0017348862545812007 0 -0.025646256544832768 -0.0013448512117599286 0 -0.026525343856877607 -0.0015455465189903384 0 -0.025983021914032782 -0.0017348862545812007 0 -0.025646256544832768 -0.0013448512117599286 0 -0.026894009549885443 -0.00063243377078850947 0 -0.026386433821365279 -0.00079604283004922082 0 -0.026906913625065303 -0.00062351084524001315 0 -0.025646256544832768 -0.0013448512117599286 0 -0.024755418340248192 -0.00098335997505084958 0 -0.024714674914442864 -0.0015987575101039115 0 -0.025646256544832768 -0.0013448512117599286 0 -0.024755418340248192 -0.00098335997505084958 0 -0.024714674914442864 -0.0015987575101039115 0 -0.024755418340248192 -0.00098335997505084958 0 -0.024714537003011891 -0.0013218043937388939 0 -0.027961506899957283 -0.00054284541185344146 0 -0.027975697984376803 -0.00077037077567912481 0 -0.027499178171648611 -0.00078202025590649979 0 -0.027975697984376803 -0.00077037077567912481 0 -0.027496428191745477 -0.00095931356529555109 0 -0.027499178171648611 -0.00078202025590649979 0 -0.027975697984376803 -0.00077037077567912481 0 -0.027828751699438947 -0.00105049476982444 0 -0.027496428191745477 -0.00095931356529555109 0 -0.027496428191745477 -0.00095931356529555109 0 -0.027499178171648611 -0.00078202025590649979 0 -0.02726511497943351 -0.00081175770556302009 0 -0.026906913625065303 -0.00062351084524001315 0 -0.027961506899957283 -0.00054284541185344146 0 -0.027499178171648611 -0.00078202025590649979 0 -0.026906913625065303 -0.00062351084524001315 0 -0.027499178171648611 -0.00078202025590649979 0 -0.02726511497943351 -0.00081175770556302009 0 -0.026906913625065303 -0.00062351084524001315 0 -0.027154744990885746 -0.00064912716031836188 0 -0.02726511497943351 -0.00081175770556302009 0 -0.027154744990885746 -0.00064912716031836188 0 -0.027226374507964255 -0.00073263991722048976 0 -0.027289904376766712 -0.0006749251676914865 0 -0.027154744990885746 -0.00064912716031836188 0 -0.027226374507964255 -0.00073263991722048976 0 -0.02726511497943351 -0.00081175770556302009 0 -0.027226374507964255 -0.00073263991722048976 0 -0.027289904376766712 -0.0006749251676914865 0 -0.027173240825814033 -0.00098061815681181543 0 -0.033047902536438967 -0.00067196244645096703 0 -0.033279264719799216 -0.0015354414452715154 0 -0.032026418155085071 -0.0016013408157090321 0 -0.035290332865852973 -0.0026840050058445854 0 -0.032091343867025605 -0.0028202327631122134 0 -0.037245926660096386 -0.0047035752888980806 0 -0.035439863603985045 -0.0063218596910600043 0 -0.035579221910758366 -0.0029707992724190462 0 -0.037375216082684438 -0.0018530687137603009 0 -0.037245926660096386 -0.0047035752888980806 0 -0.035579221910758366 -0.0029707992724190462 0 -0.032091343867025605 -0.0028202327631122134 0 -0.031157845786604587 -0.0023694654432348931 0 -0.027226374507964255 -0.00073263991722048976 0 -0.02726511497943351 -0.00081175770556302009 0 -0.027173240825814033 -0.00098061815681181543 0 -0.027496428191745477 -0.00095931356529555109 0 -0.02726511497943351 -0.00081175770556302009 0 -0.027173240825814033 -0.00098061815681181543 0 -0.027173240825814033 -0.00098061815681181543 0 -0.027254227118903029 -0.0012495441952048907 0 -0.027431589871656149 -0.0011544279789613291 0 -0.027496428191745477 -0.00095931356529555109 0 -0.027173240825814033 -0.00098061815681181543 0 -0.027431589871656149 -0.0011544279789613291 0 -0.037375216082684438 -0.0018530687137603009 0 -0.035579221910758366 -0.0029707992724190462 0 -0.035672261004706517 0.00048664240239347831 0 -0.031157845786604587 -0.0023694654432348931 0 -0.032400291392521152 0.00074498104563297171 0 -0.035263630158392976 0.0018947974899659345 0 -0.032913299639026818 0.00071572590267370364 0 -0.033200395377182876 0.0027569768864299394 0 -0.032400291392521152 0.00074498104563297171 0 -0.029953688361145148 -0.00032236441286052919 0 -0.030873040765550759 0.0021830554505055805 0 -0.032913299639026818 0.00071572590267370364 0 -0.033200395377182876 0.0027569768864299394 0 -0.030540756165889461 -0.00023329738151368307 0 -0.030873040765550759 0.0021830554505055805 0 -0.032913299639026818 0.00071572590267370364 0 -0.030540756165889461 -0.00023329738151368307 0 -0.030873040765550759 0.0021830554505055805 0 -0.02951896604923324 0.0010986909081265046 0 -0.02924547685051062 -0.00056290261134038923 0 -0.029953688361145148 -0.00032236441286052919 0 -0.027828751699438947 -0.00105049476982444 0 -0.027496428191745477 -0.00095931356529555109 0 -0.027431589871656149 -0.0011544279789613291 0 -0.028316749279080445 0.00093706635069819939 0 -0.02951896604923324 0.0010986909081265046 0 -0.028763022076358662 0.00012690507950125795 0 -0.030540756165889461 -0.00023329738151368307 0 -0.02951896604923324 0.0010986909081265046 0 -0.028763022076358662 0.00012690507950125795 0 -0.030873040765550759 0.0021830554505055805 0 -0.02951896604923324 0.0010986909081265046 0 -0.028827866983799365 0.0031905155247786612 0 -0.028316749279080445 0.00093706635069819939 0 -0.02951896604923324 0.0010986909081265046 0 -0.028827866983799365 0.0031905155247786612 0 -0.028490538271381184 0.0028352314332441056 0 -0.027122941750719831 0.0040372401090790436 0 -0.028714664908657546 0.0050320618882785982 0 -0.028346087532958926 0.0018699281008597531 0 -0.028889521291621333 0.0040367014259823355 0 -0.026107047887646995 0.0041091309454412755 0 -0.02602290752622307 0.0046950082715030411 0 -0.026714776943005291 0.0047523902358582223 0 -0.027122941750719831 0.0040372401090790436 0 -0.026107047887646995 0.0041091309454412755 0 -0.026714776943005291 0.0047523902358582223 0 -0.027122941750719831 0.0040372401090790436 0 -0.026107047887646995 0.0041091309454412755 0 -0.026403548708204421 0.0036534088623774975 0 -0.026107047887646995 0.0041091309454412755 0 -0.026403548708204421 0.0036534088623774975 0 -0.025561125710027856 0.0038461369836338211 0 -0.027027910335707478 0.0039800361467563251 0 -0.026110094689876334 0.0027759847199899904 0 -0.027122941750719831 0.0040372401090790436 0 -0.025732332566175818 0.0018311550412829574 0 -0.027137487465027466 0.0017525526660525253 0 -0.028490538271381184 0.0028352314332441056 0 -0.027122941750719831 0.0040372401090790436 0 -0.027137487465027466 0.0017525526660525253 0 -0.027137487465027466 0.0017525526660525253 0 -0.026646970494087728 0.00033756518003322049 0 -0.027666392736819884 -0.00032700409344581433 0 -0.025732332566175818 0.0018311550412829574 0 -0.027137487465027466 0.0017525526660525253 0 -0.026646970494087728 0.00033756518003322049 0 -0.026403548708204421 0.0036534088623774975 0 -0.025838183421309838 0.0031752014974697875 0 -0.025551118369079698 0.0034418501090208134 0 -0.026110094689876334 0.0027759847199899904 0 -0.025527850214706597 0.0015333151579943567 0 -0.025732332566175818 0.0018311550412829574 0 -0.026646970494087728 0.00033756518003322049 0 -0.02490591418865536 -5.5769245675475102e-05 0 -0.026646970494087728 0.00033756518003322049 0 -0.02490591418865536 -5.5769245675475102e-05 0 -0.026018406438938078 -0.00046542968146392306 0 -0.02490591418865536 -5.5769245675475102e-05 0 -0.026018406438938078 -0.00046542968146392306 0 -0.025362888261541774 -0.0013337232298591805 0 -0.02490591418865536 -5.5769245675475102e-05 0 -0.025362888261541774 -0.0013337232298591805 0 -0.024974643234754221 -0.0010949283667083716 0 -0.026018406438938078 -0.00046542968146392306 0 -0.027031920473354894 -0.00063806363550716644 0 -0.025362888261541774 -0.0013337232298591805 0 -0.026646970494087728 0.00033756518003322049 0 -0.027031920473354894 -0.00063806363550716644 0 -0.027666392736819884 -0.00032700409344581433 0 -0.026646970494087728 0.00033756518003322049 0 -0.026018406438938078 -0.00046542968146392306 0 -0.027031920473354894 -0.00063806363550716644 0 -0.027031920473354894 -0.00063806363550716644 0 -0.028161020637845615 -0.00078362925756330617 0 -0.027666392736819884 -0.00032700409344581433 0 -0.027031920473354894 -0.00063806363550716644 0 -0.028161020637845615 -0.00078362925756330617 0 -0.027916610424385414 -0.0012036069959043241 0 -0.028161020637845615 -0.00078362925756330617 0 -0.028260225771144034 -0.00065638547138520008 0 -0.027666392736819884 -0.00032700409344581433 0 -0.028316749279080445 0.00093706635069819939 0 -0.027666392736819884 -0.00032700409344581433 0 -0.028763022076358662 0.00012690507950125795 0 -0.028490538271381184 0.0028352314332441056 0 -0.027137487465027466 0.0017525526660525253 0 -0.027666392736819884 -0.00032700409344581433 0 -0.028346087532958926 0.0018699281008597531 0 -0.027739367643559623 -0.00024189823462339067 0 -0.028260225771144034 -0.00065638547138520008 0 -0.027666392736819884 -0.00032700409344581433 0 -0.028763022076358662 0.00012690507950125795 0 -0.02924547685051062 -0.00056290261134038923 0 -0.028351508101236295 -0.00070556235229529468 0 -0.030540756165889461 -0.00023329738151368307 0 -0.028260225771144034 -0.00065638547138520008 0 -0.028763022076358662 0.00012690507950125795 0 -0.027975697984376803 -0.00077037077567912481 0 -0.027828751699438947 -0.00105049476982444 0 -0.028260225771144034 -0.00065638547138520008 0 -0.027975697984376803 -0.00077037077567912481 0 -0.028161020637845615 -0.00078362925756330617 0 -0.028260225771144034 -0.00065638547138520008 0 -0.027961506899957283 -0.00054284541185344146 0 -0.027975697984376803 -0.00077037077567912481 0 -0.028161020637845615 -0.00078362925756330617 0 -0.027961506899957283 -0.00054284541185344146 0 -0.028161020637845615 -0.00078362925756330617 0 -0.027916610424385414 -0.0012036069959043241 0 -0.026386433821365279 -0.00079604283004922082 0 -0.026310190830686114 -0.0012442331800418636 0 -0.024755418340248192 -0.00098335997505084958 0 -0.02480482135940415 -0.0013670410365171487 0 -0.024714537003011891 -0.0013218043937388939 0 -0.02480482135940415 -0.0013670410365171487 0 -0.024847668389530012 -0.0012654417039957063 0 -0.024714537003011891 -0.0013218043937388939 0 -0.024847668389530012 -0.0012654417039957063 0 -0.024865824157528717 -0.0011138039238670996 0 -0.024965970186838809 -0.0012207580727128364 0 -0.02480482135940415 -0.0013670410365171487 0 -0.024847668389530012 -0.0012654417039957063 0 -0.024965970186838809 -0.0012207580727128364 0 -0.024847668389530012 -0.0012654417039957063 0 -0.024714537003011891 -0.0013218043937388939 0 -0.024865824157528717 -0.0011138039238670996 0 -0.024714674914442864 -0.0015987575101039115 0 -0.024714537003011891 -0.0013218043937388939 0 -0.024681321916576522 -0.0012318239212813263 0 -0.024714537003011891 -0.0013218043937388939 0 -0.024681321916576522 -0.0012318239212813263 0 -0.024865824157528717 -0.0011138039238670996 0 -0.024681321916576522 -0.0012318239212813263 0 -0.024641180054138703 -0.00084890931826827416 0 -0.024865824157528717 -0.0011138039238670996 0 -0.024641180054138703 -0.00084890931826827416 0 -0.024865824157528717 -0.0011138039238670996 0 -0.024713446164670666 -0.0005161543537772486 0 -0.024865824157528717 -0.0011138039238670996 0 -0.024853078015226907 -0.001158225830411774 0 -0.024965970186838809 -0.0012207580727128364 0 -0.024863082374117565 -0.0010795276643786815 0 -0.024846683084905147 -0.00084857334814965866 0 -0.024865824157528717 -0.0011138039238670996 0 -0.024831721510434692 -0.001147088894016773 0 -0.024853078015226907 -0.001158225830411774 0 -0.024727433266758542 -0.0011838166787746887 0 -0.024831721510434692 -0.001147088894016773 0 -0.024859982027287987 -0.0011646494314423075 0 -0.024865824157528717 -0.0011138039238670996 0 -0.024831721510434692 -0.001147088894016773 0 -0.024859982027287987 -0.0011646494314423075 0 -0.024865824157528717 -0.0011138039238670996 0 -0.024846416543333569 -0.00045393321801125478 0 -0.024713446164670666 -0.0005161543537772486 0 -0.024636190066144387 -0.00037125118501642044 0 -0.024470021893357355 -0.00043619291755152029 0 -0.024713446164670666 -0.0005161543537772486 0 -0.024636190066144387 -0.00037125118501642044 0 -0.024846416543333569 -0.00045393321801125478 0 -0.024713446164670666 -0.0005161543537772486 0 -0.024404557817717835 -0.0005081935957960504 0 -0.024641180054138703 -0.00084890931826827416 0 -0.024713446164670666 -0.0005161543537772486 0 -0.024727433266758542 -0.0011838166787746887 0 -0.024831721510434692 -0.001147088894016773 0 -0.024853078015226907 -0.001158225830411774 0 -0.024727433266758542 -0.0011838166787746887 0 -0.024861402433039002 -0.0011423402228621753 0 -0.024853078015226907 -0.001158225830411774 0 -0.024853078015226907 -0.001158225830411774 0 -0.024956860122220412 -0.0012215071659334299 0 -0.024965970186838809 -0.0012207580727128364 0 -0.024861402433039002 -0.0011423402228621753 0 -0.024853078015226907 -0.001158225830411774 0 -0.024956860122220412 -0.0012215071659334299 0 -0.024861402433039002 -0.0011423402228621753 0 -0.024956860122220412 -0.0012215071659334299 0 -0.025069673643828956 -0.0013328131352614997 0 -0.022888749505658897 0.00015322943257774533 0 -0.022746464409578226 0.00012087581815170678 0 -0.025102990444982189 -0.0012947613127028889 0 -0.024965970186838809 -0.0012207580727128364 0 -0.025362888261541774 -0.0013337232298591805 0 -0.024956860122220412 -0.0012215071659334299 0 -0.025102990444982189 -0.0012947613127028889 0 -0.025069673643828956 -0.0013328131352614997 0 -0.025102990444982189 -0.0012947613127028889 0 -0.025053406138304462 -0.0012891940788116224 0 -0.025069673643828956 -0.0013328131352614997 0 -0.024956860122220412 -0.0012215071659334299 0 -0.025102990444982189 -0.0012947613127028889 0 -0.024965970186838809 -0.0012207580727128364 0 -0.026310190830686114 -0.0012442331800418636 0 -0.025420900056613856 -0.0013411017034542809 0 -0.027031920473354894 -0.00063806363550716644 0 -0.027916610424385414 -0.0012036069959043241 0 -0.025362888261541774 -0.0013337232298591805 0 -0.02480482135940415 -0.0013670410365171487 0 -0.024965970186838809 -0.0012207580727128364 0 -0.025362888261541774 -0.0013337232298591805 0 -0.025102990444982189 -0.0012947613127028889 0 -0.025053406138304462 -0.0012891940788116224 0 -0.025362888261541774 -0.0013337232298591805 0 -0.025053406138304462 -0.0012891940788116224 0 -0.025362888261541774 -0.0013337232298591805 0 -0.024974643234754221 -0.0010949283667083716 0 -0.025053406138304462 -0.0012891940788116224 0 -0.024653526059945117 -0.0011854873567714078 0 -0.025069673643828956 -0.0013328131352614997 0 -0.020554033862876509 0.0021206956589435518 0 -0.020535775313350071 0.0020611276128887604 0 -0.020678055217278932 0.0017835017113331172 0 -0.025053406138304462 -0.0012891940788116224 0 -0.024974643234754221 -0.0010949283667083716 0 -0.024653526059945117 -0.0011854873567714078 0 -0.025441365436640762 0.0021278899178313231 0 -0.02499126389468101 0.00204383098059025 0 -0.025174285454262191 0.0015216280506760184 0 -0.020535775313350071 0.0020611276128887604 0 -0.020481940363918011 0.0020279329938446239 0 -0.02048042622551664 0.0018808425368435401 0 -0.023665777665226293 0.0012467493477781549 0 -0.022101044500253728 0.0018511616244646792 0 -0.020554033862876509 0.0021206956589435518 0 -0.020535775313350071 0.0020611276128887604 0 -0.020495265923618874 0.0020263834653926525 0 -0.021603965435299025 0.0016693681250500533 0 -0.022101044500253728 0.0018511616244646792 0 -0.024237922109745239 0.0016328903259966601 0 -0.024100553391237914 0.0025548916908989133 0 -0.024764638870664994 0.0025526259277823451 0 -0.024237922109745239 0.0016328903259966601 0 -0.023295667082155958 0.0020652417971221541 0 -0.024100553391237914 0.0025548916908989133 0 -0.02499126389468101 0.00204383098059025 0 -0.024237922109745239 0.0016328903259966601 0 -0.024764638870664994 0.0025526259277823451 0 -0.025441365436640762 0.0021278899178313231 0 -0.02499126389468101 0.00204383098059025 0 -0.024764638870664994 0.0025526259277823451 0 -0.02499126389468101 0.00204383098059025 0 -0.024712932583427504 0.0016119904906945731 0 -0.024237922109745239 0.0016328903259966601 0 -0.025174285454262191 0.0015216280506760184 0 -0.024712932583427504 0.0016119904906945731 0 -0.023917414151809844 0.00051291135798306941 0 -0.02499126389468101 0.00204383098059025 0 -0.025174285454262191 0.0015216280506760184 0 -0.024712932583427504 0.0016119904906945731 0 -0.022101044500253728 0.0018511616244646792 0 -0.021386986885027329 0.0015938285527202871 0 -0.024712932583427504 0.0016119904906945731 0 -0.024237922109745239 0.0016328903259966601 0 -0.023917414151809844 0.00051291135798306941 0 -0.02389724741542722 0.0014188751177790235 0 -0.022142032984023983 0.0010453938435144086 0 -0.020420678849597175 0.0019525194000442159 0 -0.020341805478523121 0.0017837652907439921 0 -0.020214501874924504 0.0018553973792412588 0 -0.022101044500253728 0.0018511616244646792 0 -0.022142032984023983 0.0010453938435144086 0 -0.020481940363918011 0.0020279329938446239 0 -0.020420678849597175 0.0019525194000442159 0 -0.02048042622551664 0.0018808425368435401 0 -0.020483319625261752 0.0020399879210223305 0 -0.020420678849597175 0.0019525194000442159 0 -0.020214501874924504 0.0018553973792412588 0 -0.020420678849597175 0.0019525194000442159 0 -0.020341805478523121 0.0017837652907439921 0 -0.02048042622551664 0.0018808425368435401 0 -0.020341805478523121 0.0017837652907439921 0 -0.02048042622551664 0.0018808425368435401 0 -0.020416576729271149 0.0016604763174367786 0 -0.020341805478523121 0.0017837652907439921 0 -0.020214501874924504 0.0018553973792412588 0 -0.02012339320561744 0.0016087073895191667 0 -0.02048042622551664 0.0018808425368435401 0 -0.020678055217278932 0.0017835017113331172 0 -0.020416576729271149 0.0016604763174367786 0 -0.023665777665226293 0.0012467493477781549 0 -0.022746464409578226 0.00012087581815170678 0 -0.020535775313350071 0.0020611276128887604 0 -0.02048042622551664 0.0018808425368435401 0 -0.020678055217278932 0.0017835017113331172 0 -0.020868089687326223 0.0014636963002328052 0 -0.020678055217278932 0.0017835017113331172 0 -0.020533838082462268 0.0014694059332643246 0 -0.020678055217278932 0.0017835017113331172 0 -0.020416576729271149 0.0016604763174367786 0 -0.020533838082462268 0.0014694059332643246 0 -0.020416576729271149 0.0016604763174367786 0 -0.020290409418653746 0.0014634480535350239 0 -0.02012339320561744 0.0016087073895191667 0 -0.020341805478523121 0.0017837652907439921 0 -0.020416576729271149 0.0016604763174367786 0 -0.02012339320561744 0.0016087073895191667 0 -0.020416576729271149 0.0016604763174367786 0 -0.020290409418653746 0.0014634480535350239 0 -0.020533838082462268 0.0014694059332643246 0 -0.020346615123442251 0.0012082209472895286 0 -0.020290409418653746 0.0014634480535350239 0 -0.020036843423537933 0.001360539494018629 0 -0.018545807693273787 0.0013024643130635496 0 -0.019343431264241106 0.001550830093248989 0 -0.018077455920915225 0.0020795920633334942 0 -0.020346615123442251 0.0012082209472895286 0 -0.020290409418653746 0.0014634480535350239 0 -0.020533838082462268 0.0014694059332643246 0 -0.019927951769235605 0.0013693091026674743 0 -0.018609446105061118 0.0014328482359286156 0 -0.020624283934733267 0.00098510871992708599 0 -0.020868089687326223 0.0014636963002328052 0 -0.020533838082462268 0.0014694059332643246 0 -0.020346615123442251 0.0012082209472895286 0 -0.020624283934733267 0.00098510871992708599 0 -0.020533838082462268 0.0014694059332643246 0 -0.016284412678669001 0.0013779079682571162 0 -0.016923963332920938 0.0016633004800504915 0 -0.016234544112086188 0.0019456333606904972 0 -0.018609446105061118 0.0014328482359286156 0 -0.018420137136543474 -0.00050739866244184687 0 -0.020087715610089412 -5.7404278581793276e-05 0 -0.019833129747177099 0.00046047049313327097 0 -0.019068886365948862 0.00035440326676165691 0 -0.018609446105061118 0.0014328482359286156 0 -0.020214274413448797 0.0011218241749615134 0 -0.020290409418653746 0.0014634480535350239 0 -0.020036843423537933 0.001360539494018629 0 -0.02012339320561744 0.0016087073895191667 0 -0.020087715610089412 -5.7404278581793276e-05 0 -0.019833129747177099 0.00046047049313327097 0 -0.02030956575978245 0.00070855460942720338 0 -0.019833129747177099 0.00046047049313327097 0 -0.02030956575978245 0.00070855460942720338 0 -0.019796011310519328 0.00092004960050320872 0 -0.020537238437582279 0.0014858360345337946 0 -0.02030956575978245 0.00070855460942720338 0 -0.019796011310519328 0.00092004960050320872 0 -0.022142032984023983 0.0010453938435144086 0 -0.020214274413448797 0.0011218241749615134 0 -0.022046492646097912 -0.0012318169453684089 0 -0.020199414163420387 -0.0026302037661732813 0 -0.01994418414730461 -0.00053190684416246222 0 -0.019833129747177099 0.00046047049313327097 0 -0.019796011310519328 0.00092004960050320872 0 -0.019068886365948862 0.00035440326676165691 0 -0.020996741732947816 -0.00013290064835975158 0 -0.018420137136543474 -0.00050739866244184687 0 -0.022046492646097912 -0.0012318169453684089 0 -0.01994418414730461 -0.00053190684416246222 0 -0.02190340822935619 0.00049523956562367146 0 -0.020382492874107719 0.00074135687885866844 0 -0.02190340822935619 0.00049523956562367146 0 -0.021020482248905358 0.0017685443700697003 0 -0.01994418414730461 -0.00053190684416246222 0 -0.020382492874107719 0.00074135687885866844 0 -0.02190340822935619 0.00049523956562367146 0 -0.02379361494666489 6.3654252830581392e-05 0 -0.02190340822935619 0.00049523956562367146 0 -0.023203778705249884 0.0011401452995405111 0 -0.02379361494666489 6.3654252830581392e-05 0 -0.022046492646097912 -0.0012318169453684089 0 -0.02190340822935619 0.00049523956562367146 0 -0.022142032984023983 0.0010453938435144086 0 -0.020996741732947816 -0.00013290064835975158 0 -0.024237922109745239 0.0016328903259966601 0 -0.02379361494666489 6.3654252830581392e-05 0 -0.023203778705249884 0.0011401452995405111 0 -0.023203778705249884 0.0011401452995405111 0 -0.022416204497489396 0.0016155078737590855 0 -0.023295667082155958 0.0020652417971221541 0 -0.024237922109745239 0.0016328903259966601 0 -0.023203778705249884 0.0011401452995405111 0 -0.023295667082155958 0.0020652417971221541 0 -0.02190340822935619 0.00049523956562367146 0 -0.023203778705249884 0.0011401452995405111 0 -0.022416204497489396 0.0016155078737590855 0 -0.022416204497489396 0.0016155078737590855 0 -0.022080344412823669 0.0025521343985562602 0 -0.023295667082155958 0.0020652417971221541 0 -0.022080344412823669 0.0025521343985562602 0 -0.023295667082155958 0.0020652417971221541 0 -0.023353213161962962 0.0030087670397958202 0 -0.023295667082155958 0.0020652417971221541 0 -0.023353213161962962 0.0030087670397958202 0 -0.024100553391237914 0.0025548916908989133 0 -0.020382492874107719 0.00074135687885866844 0 -0.021020482248905358 0.0017685443700697003 0 -0.01964993182969068 0.001425096146176766 0 -0.021020482248905358 0.0017685443700697003 0 -0.019754972370735438 0.0025107195704792925 0 -0.01964993182969068 0.001425096146176766 0 -0.02190340822935619 0.00049523956562367146 0 -0.022416204497489396 0.0016155078737590855 0 -0.021020482248905358 0.0017685443700697003 0 -0.022416204497489396 0.0016155078737590855 0 -0.022080344412823669 0.0025521343985562602 0 -0.021020482248905358 0.0017685443700697003 0 -0.022080344412823669 0.0025521343985562602 0 -0.021020482248905358 0.0017685443700697003 0 -0.02083605779297492 0.0026207003292134652 0 -0.021020482248905358 0.0017685443700697003 0 -0.02083605779297492 0.0026207003292134652 0 -0.019754972370735438 0.0025107195704792925 0 -0.021023701270945029 0.0038710628700297468 0 -0.020136484185452885 0.0048188915829898019 0 -0.022659636915912714 0.0043256009553237027 0 -0.024114464453806456 0.0036228082818003577 0 -0.023537984328990444 0.0038763698438995155 0 -0.02083605779297492 0.0026207003292134652 0 -0.02029081016952863 0.0032715137000011792 0 -0.019754972370735438 0.0025107195704792925 0 -0.02083605779297492 0.0026207003292134652 0 -0.02029081016952863 0.0032715137000011792 0 -0.021254795353276682 0.0032460775148106585 0 -0.02029081016952863 0.0032715137000011792 0 -0.021254795353276682 0.0032460775148106585 0 -0.021023701270945029 0.0038710628700297468 0 -0.021254795353276682 0.0032460775148106585 0 -0.021023701270945029 0.0038710628700297468 0 -0.022053133951960558 0.003398616292288052 0 -0.022080344412823669 0.0025521343985562602 0 -0.02083605779297492 0.0026207003292134652 0 -0.021254795353276682 0.0032460775148106585 0 -0.022080344412823669 0.0025521343985562602 0 -0.021254795353276682 0.0032460775148106585 0 -0.022053133951960558 0.003398616292288052 0 -0.021023701270945029 0.0038710628700297468 0 -0.022659636915912714 0.0043256009553237027 0 -0.022053133951960558 0.003398616292288052 0 -0.021023701270945029 0.0038710628700297468 0 -0.020136484185452885 0.0048188915829898019 0 -0.019733511504019335 0.0039722671697340001 0 -0.02029081016952863 0.0032715137000011792 0 -0.021023701270945029 0.0038710628700297468 0 -0.019733511504019335 0.0039722671697340001 0 -0.025017058312519786 0.0036204875685394151 0 -0.024856907445914837 0.0034935963278158052 0 -0.024746412774605285 0.003679684091328155 0 -0.027862176184175923 0.0032669237512633416 0 -0.027658195747557929 0.0031044999309683291 0 -0.028007633565571642 0.0030448065771594129 0 -0.024114464453806456 0.0036228082818003577 0 -0.027114271823548725 0.0033153071833491921 0 -0.024631116809826544 0.0036343288384729005 0 -0.024531273162724101 0.0034973289517593285 0 -0.02469611627983135 0.0035136867795394996 0 -0.024631116809826544 0.0036343288384729005 0 -0.02469611627983135 0.0035136867795394996 0 -0.02485135627314974 0.0036979919795916295 0 -0.024358094410798021 0.0035624041588152612 0 -0.024447383260802383 0.0036519443571292444 0 -0.024531273162724101 0.0034973289517593285 0 -0.024631116809826544 0.0036343288384729005 0 -0.024447383260802383 0.0036519443571292444 0 -0.024531273162724101 0.0034973289517593285 0 -0.027114271823548725 0.0033153071833491921 0 -0.026409865993626522 0.0036827489943917092 0 -0.024358094410798021 0.0035624041588152612 0 -0.024531273162724101 0.0034973289517593285 0 -0.024510727745728739 0.003337663386141341 0 -0.027114271823548725 0.0033153071833491921 0 -0.023537984328990444 0.0038763698438995155 0 -0.024531273162724101 0.0034973289517593285 0 -0.024603091471109499 0.0033838410396915034 0 -0.02469611627983135 0.0035136867795394996 0 -0.024531273162724101 0.0034973289517593285 0 -0.024603091471109499 0.0033838410396915034 0 -0.024510727745728739 0.003337663386141341 0 -0.024603091471109499 0.0033838410396915034 0 -0.024510727745728739 0.003337663386141341 0 -0.024542400145187649 0.0032580649792048177 0 -0.023537984328990444 0.0038763698438995155 0 -0.024472629127344037 0.0033631268318689233 0 -0.022866508689457068 0.0038894617848166581 0 -0.023353213161962962 0.0030087670397958202 0 -0.024542400145187649 0.0032580649792048177 0 -0.022659636915912714 0.0043256009553237027 0 -0.022053133951960558 0.003398616292288052 0 -0.023353213161962962 0.0030087670397958202 0 -0.023537984328990444 0.0038763698438995155 0 -0.023362811719328427 0.0034655581453004397 0 -0.022080344412823669 0.0025521343985562602 0 -0.022053133951960558 0.003398616292288052 0 -0.023353213161962962 0.0030087670397958202 0 -0.023665777665226293 0.0012467493477781549 0 -0.025199634794430655 0.003439591484874078 0 -0.023353213161962962 0.0030087670397958202 0 -0.024100553391237914 0.0025548916908989133 0 -0.024542400145187649 0.0032580649792048177 0 -0.024100553391237914 0.0025548916908989133 0 -0.024764638870664994 0.0025526259277823451 0 -0.024542400145187649 0.0032580649792048177 0 -0.025441365436640762 0.0021278899178313231 0 -0.024764638870664994 0.0025526259277823451 0 -0.024951954087308405 0.0033270344761746054 0 -0.024764638870664994 0.0025526259277823451 0 -0.024951954087308405 0.0033270344761746054 0 -0.024542400145187649 0.0032580649792048177 0 -0.024603091471109499 0.0033838410396915034 0 -0.024542400145187649 0.0032580649792048177 0 -0.024756856073145317 0.0034074250377300343 0 -0.024951954087308405 0.0033270344761746054 0 -0.024542400145187649 0.0032580649792048177 0 -0.024756856073145317 0.0034074250377300343 0 -0.02490591418865536 -5.5769245675475102e-05 0 -0.024974643234754221 -0.0010949283667083716 0 -0.024653526059945117 -0.0011854873567714078 0 -0.025527850214706597 0.0015333151579943567 0 -0.023665777665226293 0.0012467493477781549 0 -0.025838183421309838 0.0031752014974697875 0 -0.02533289013443717 0.002341451782631098 0 -0.025422067228868264 0.0031028635739143331 0 -0.02533289013443717 0.002341451782631098 0 -0.024951954087308405 0.0033270344761746054 0 -0.025422067228868264 0.0031028635739143331 0 -0.025838183421309838 0.0031752014974697875 0 -0.025422067228868264 0.0031028635739143331 0 -0.025551118369079698 0.0034418501090208134 0 -0.024951954087308405 0.0033270344761746054 0 -0.025422067228868264 0.0031028635739143331 0 -0.025551118369079698 0.0034418501090208134 0 -0.025551118369079698 0.0034418501090208134 0 -0.025096263348838365 0.0035940900581235957 0 -0.025561125710027856 0.0038461369836338211 0 -0.024603091471109499 0.0033838410396915034 0 -0.024756856073145317 0.0034074250377300343 0 -0.02469611627983135 0.0035136867795394996 0 -0.024951954087308405 0.0033270344761746054 0 -0.024756856073145317 0.0034074250377300343 0 -0.025096263348838365 0.0035940900581235957 0 -0.024951954087308405 0.0033270344761746054 0 -0.025551118369079698 0.0034418501090208134 0 -0.025096263348838365 0.0035940900581235957 0 -0.024756856073145317 0.0034074250377300343 0 -0.025096263348838365 0.0035940900581235957 0 -0.02469611627983135 0.0035136867795394996 0 -0.025096263348838365 0.0035940900581235957 0 -0.02469611627983135 0.0035136867795394996 0 -0.02485135627314974 0.0036979919795916295 0 -0.02485135627314974 0.0036979919795916295 0 -0.025014274676149636 0.0039244600764997434 0 -0.024661999802377332 0.0038472931392143964 0 -0.025014274676149636 0.0039244600764997434 0 -0.025561125710027856 0.0038461369836338211 0 -0.025312283912825365 0.0043943385096905825 0 -0.025096263348838365 0.0035940900581235957 0 -0.02485135627314974 0.0036979919795916295 0 -0.025014274676149636 0.0039244600764997434 0 -0.025096263348838365 0.0035940900581235957 0 -0.025014274676149636 0.0039244600764997434 0 -0.025561125710027856 0.0038461369836338211 0 -0.026403548708204421 0.0036534088623774975 0 -0.025551118369079698 0.0034418501090208134 0 -0.025561125710027856 0.0038461369836338211 0 -0.026107047887646995 0.0041091309454412755 0 -0.025312283912825365 0.0043943385096905825 0 -0.02602290752622307 0.0046950082715030411 0 -0.026107047887646995 0.0041091309454412755 0 -0.025561125710027856 0.0038461369836338211 0 -0.025312283912825365 0.0043943385096905825 0 -0.025014274676149636 0.0039244600764997434 0 -0.025312283912825365 0.0043943385096905825 0 -0.024642432506504355 0.0042579306205301195 0 -0.025312283912825365 0.0043943385096905825 0 -0.024642432506504355 0.0042579306205301195 0 -0.02494549453724627 0.0050313029096798753 0 -0.030681718023363499 0.0030343420911376376 0 -0.030643256778241663 0.0030535524965761866 0 -0.030699976013278875 0.003090162658492393 0 -0.027750402115498788 0.0035934831759801356 0 -0.027547424981911452 0.0043937634208587343 0 -0.030681718023363499 0.0030343420911376376 0 -0.030699976013278875 0.003090162658492393 0 -0.030761415680007221 0.0031055355175033188 0 -0.030681718023363499 0.0030343420911376376 0 -0.030643256778241663 0.0030535524965761866 0 -0.030606553111529548 0.0030115085981243413 0 -0.032862327769929561 0.0025077387324604918 0 -0.031652106189496751 0.0028057960136437287 0 -0.030643256778241663 0.0030535524965761866 0 -0.030651371788014553 0.0030973698537114869 0 -0.030597463653618231 0.0030555884940217295 0 -0.029220797739601078 0.0029181488433098262 0 -0.031652106189496751 0.0028057960136437287 0 -0.030643256778241663 0.0030535524965761866 0 -0.030606553111529548 0.0030115085981243413 0 -0.030597463653618231 0.0030555884940217295 0 -0.027658195747557929 0.0031044999309683291 0 -0.02782553679847324 0.0028415154157986422 0 -0.028007633565571642 0.0030448065771594129 0 -0.027114271823548725 0.0033153071833491921 0 -0.029220797739601078 0.0029181488433098262 0 -0.03060474549620051 0.0029739012373674678 0 -0.030623719759463645 0.0029822106771958908 0 -0.030606553111529548 0.0030115085981243413 0 -0.030623719759463645 0.0029822106771958908 0 -0.030681718023363499 0.0030343420911376376 0 -0.030606553111529548 0.0030115085981243413 0 -0.024413167724603831 0.0036385177067340319 0 -0.024642432506504355 0.0042579306205301195 0 -0.024661999802377332 0.0038472931392143964 0 -0.026409865993626522 0.0036827489943917092 0 -0.024678511495564739 0.0033439344994768633 0 -0.026409865993626522 0.0036827489943917092 0 -0.027750402115498788 0.0035934831759801356 0 -0.024631116809826544 0.0036343288384729005 0 -0.02485135627314974 0.0036979919795916295 0 -0.024661999802377332 0.0038472931392143964 0 -0.024631116809826544 0.0036343288384729005 0 -0.024447383260802383 0.0036519443571292444 0 -0.024661999802377332 0.0038472931392143964 0 -0.025014274676149636 0.0039244600764997434 0 -0.024642432506504355 0.0042579306205301195 0 -0.024661999802377332 0.0038472931392143964 0 -0.040505830107282058 0.0015826530651832154 0 -0.039861111150506015 0.0012912113715864073 0 -0.040386141205487343 0.0021345950028848473 0 -0.037275174988419146 0.0017268007713256708 0 -0.03769217636702378 0.001833379111201134 0 -0.037275174988419146 0.0017268007713256708 0 -0.040441784606299006 0.0014902061186420402 0 -0.039114375937811509 -0.00032196078859231492 0 -0.038796832722426053 -0.00046231377266389603 0 -0.039514792030187283 0.00083370538134089529 0 -0.035727765400431967 0.0024049413013967728 0 -0.035785736884744179 0.0025117363102582493 0 -0.035128840683637849 0.0022149688822296998 0 -0.03598106139961333 0.0018555578353589418 0 -0.035707196070515292 0.001640929665115047 0 -0.035916890878736292 0.0017351320108196118 0 -0.035209288475465693 0.0016940621349372203 0 -0.037275174988419146 0.0017268007713256708 0 -0.035209288475465693 0.0016940621349372203 0 -0.035565789522151593 0.0011844460234755453 0 -0.0307302386333945 0.0031471207680847232 0 -0.030771485098770691 0.0031716032844109148 0 -0.030754219830424367 0.003140949207141191 0 -0.035565789522151593 0.0011844460234755453 0 -0.037275174988419146 0.0017268007713256708 0 -0.039861111150506015 0.0012912113715864073 0 -0.039815603781116829 0.0023125008622568079 0 -0.039348695404329274 0.0019485268309429613 0 -0.039861111150506015 0.0012912113715864073 0 -0.040386141205487343 0.0021345950028848473 0 -0.039815603781116829 0.0023125008622568079 0 -0.03769217636702378 0.001833379111201134 0 -0.036492187582546042 0.0016024316636912392 0 -0.035128840683637849 0.0022149688822296998 0 -0.035191836766499146 0.001988181722262213 0 -0.034480631200301641 0.0019162347702362508 0 -0.035727765400431967 0.0024049413013967728 0 -0.035128840683637849 0.0022149688822296998 0 -0.035191836766499146 0.001988181722262213 0 -0.030643256778241663 0.0030535524965761866 0 -0.030651371788014553 0.0030973698537114869 0 -0.030699976013278875 0.003090162658492393 0 -0.0307302386333945 0.0031471207680847232 0 -0.030651371788014553 0.0030973698537114869 0 -0.030699976013278875 0.003090162658492393 0 -0.035209288475465693 0.0016940621349372203 0 -0.032862327769929561 0.0025077387324604918 0 -0.030699976013278875 0.003090162658492393 0 -0.030754219830424367 0.003140949207141191 0 -0.030761415680007221 0.0031055355175033188 0 -0.0307302386333945 0.0031471207680847232 0 -0.030699976013278875 0.003090162658492393 0 -0.030754219830424367 0.003140949207141191 0 -0.025312283912825365 0.0043943385096905825 0 -0.02494549453724627 0.0050313029096798753 0 -0.025739263550103447 0.005305647434168395 0 -0.025312283912825365 0.0043943385096905825 0 -0.02602290752622307 0.0046950082715030411 0 -0.025739263550103447 0.005305647434168395 0 -0.02602290752622307 0.0046950082715030411 0 -0.025739263550103447 0.005305647434168395 0 -0.026614979324875918 0.0055203892771130778 0 -0.025739263550103447 0.005305647434168395 0 -0.02534643078399838 0.0059365541554821351 0 -0.026286971967035951 0.006441567945568335 0 -0.030754219830424367 0.003140949207141191 0 -0.030761415680007221 0.0031055355175033188 0 -0.030850229725249451 0.0031919675420958335 0 -0.027547424981911452 0.0043937634208587343 0 -0.033611241959420841 0.0013659800783187692 0 -0.02494549453724627 0.0050313029096798753 0 -0.025739263550103447 0.005305647434168395 0 -0.02534643078399838 0.0059365541554821351 0 -0.030771485098770691 0.0031716032844109148 0 -0.030754219830424367 0.003140949207141191 0 -0.030850229725249451 0.0031919675420958335 0 -0.035876319662781007 0.00031357246683858827 0 -0.036307195979905435 0.00050806363705378722 0 -0.036397897416448985 0.00072122178999676546 0 -0.033611241959420841 0.0013659800783187692 0 -0.038554809978748654 -0.0001800668214283496 0 -0.035565789522151593 0.0011844460234755453 0 -0.033611241959420841 0.0013659800783187692 0 -0.035565789522151593 0.0011844460234755453 0 -0.038554809978748654 -0.0001800668214283496 0 -0.039514792030187283 0.00083370538134089529 0 -0.040042938293551537 0.00039277008038346217 0 -0.040736011323359363 0.0019807265630851279 0 -0.039114375937811509 -0.00032196078859231492 0 -0.039514792030187283 0.00083370538134089529 0 -0.040042938293551537 0.00039277008038346217 0 -0.040932835700534541 -0.0024556479250547598 0 -0.040781558029688386 -0.0023544388568609276 0 -0.040919581570222997 -0.0023529201941235446 0 -0.033611241959420841 0.0013659800783187692 0 -0.033450946610522288 0.0021633114961935153 0 -0.038554809978748654 -0.0001800668214283496 0 -0.041453153248084976 0.00080623343715134415 0 -0.041048730539099319 -0.0022756114335026776 0 -0.041881126196638599 -0.001621175393214867 0 -0.040932835700534541 -0.0024556479250547598 0 -0.040919581570222997 -0.0023529201941235446 0 -0.04074531862742916 -0.0021536161702021975 0 -0.040459542213524852 -0.0024087546199538508 0 -0.041322051212830627 -0.0018547241174776458 0 -0.041952844858407612 -8.8275039147155858e-05 0 -0.040919581570222997 -0.0023529201941235446 0 -0.04074531862742916 -0.0021536161702021975 0 -0.040683441610209856 -0.0020754901585312816 0 -0.040919581570222997 -0.0023529201941235446 0 -0.041322051212830627 -0.0018547241174776458 0 -0.043063187468958375 -0.0012593047098549191 0 -0.038554809978748654 -0.0001800668214283496 0 -0.040313775112308825 -0.00096225216244378968 0 -0.040781558029688386 -0.0023544388568609276 0 -0.040919581570222997 -0.0023529201941235446 0 -0.041322051212830627 -0.0018547241174776458 0 -0.041322051212830627 -0.0018547241174776458 0 -0.042317665062303146 -0.00082986985825940572 0 -0.043063187468958375 -0.0012593047098549191 0 -0.041322051212830627 -0.0018547241174776458 0 -0.042317665062303146 -0.00082986985825940572 0 -0.041952844858407612 -8.8275039147155858e-05 0 -0.041952844858407612 -8.8275039147155858e-05 0 -0.042913677629114695 0.00060691689280463175 0 -0.042916774735574981 -0.00015452534312399301 0 -0.042317665062303146 -0.00082986985825940572 0 -0.041952844858407612 -8.8275039147155858e-05 0 -0.042916774735574981 -0.00015452534312399301 0 -0.040441784606299006 0.0014902061186420402 0 -0.040611566658218592 0.0026697517673313063 0 -0.039514792030187283 0.00083370538134089529 0 -0.040240324686638032 0.0021390271005624823 0 -0.040736011323359363 0.0019807265630851279 0 -0.04135139576783272 0.0030932785499397106 0 -0.040401554552541685 0.0027927867106750355 0 -0.040685019910495078 0.0035202532522929002 0 -0.040928431292051995 0.0023349891051786084 0 -0.04135139576783272 0.0030932785499397106 0 -0.040401554552541685 0.0027927867106750355 0 -0.040401554552541685 0.0027927867106750355 0 -0.039611498822673868 0.0031820973258492448 0 -0.040685019910495078 0.0035202532522929002 0 -0.040401554552541685 0.0027927867106750355 0 -0.040386141205487343 0.0021345950028848473 0 -0.039815603781116829 0.0023125008622568079 0 -0.040928431292051995 0.0023349891051786084 0 -0.040401554552541685 0.0027927867106750355 0 -0.040386141205487343 0.0021345950028848473 0 -0.040505830107282058 0.0015826530651832154 0 -0.040928431292051995 0.0023349891051786084 0 -0.040386141205487343 0.0021345950028848473 0 -0.039815603781116829 0.0023125008622568079 0 -0.039611498822673868 0.0031820973258492448 0 -0.039306357843215955 0.0024969159422642754 0 -0.040401554552541685 0.0027927867106750355 0 -0.039815603781116829 0.0023125008622568079 0 -0.039611498822673868 0.0031820973258492448 0 -0.04239705105737674 0.0026587572981300062 0 -0.043109431041226519 0.0028960671375229947 0 -0.045212650171544244 0.0021072916011426633 0 -0.045421772603310415 0.0022063655302980443 0 -0.045275965143425287 0.0022081648275326881 0 -0.045421772603310415 0.0022063655302980443 0 -0.045368709222404102 0.0022622615242321748 0 -0.045275965143425287 0.0022081648275326881 0 -0.045421772603310415 0.0022063655302980443 0 -0.045368709222404102 0.0022622615242321748 0 -0.045422848176887451 0.0021940685378671141 0 -0.045368709222404102 0.0022622615242321748 0 -0.045275965143425287 0.0022081648275326881 0 -0.045210321201075321 0.0022779813275906786 0 -0.045879146903899742 0.0021843221074439663 0 -0.046215678836020894 0.0021045005042030782 0 -0.051058940003038331 0.00072186911620071657 0 -0.050537131364270647 0.00075421565958072687 0 -0.046421563337278149 0.0021236432307313161 0 -0.04716093684965781 0.0014246931983422032 0 -0.047243849679519792 0.0019445807590753508 0 -0.046421563337278149 0.0021236432307313161 0 -0.046092134680283468 0.0014775380985161046 0 -0.045855940621679844 0.0019040313535336518 0 -0.046421563337278149 0.0021236432307313161 0 -0.04716093684965781 0.0014246931983422032 0 -0.046092134680283468 0.0014775380985161046 0 -0.054976237333374492 8.3491035660777659e-06 0 -0.054973470884578643 1.8967293526395653e-05 0 -0.054999943998623263 9.3305965816608084e-09 0 -0.054976237333374492 8.3491035660777659e-06 0 -0.054999943998623263 9.3305965816608084e-09 0 -0.054999963081725688 6.7728268176180478e-09 0 -0.055000025294682585 4.0024076223700673e-08 0 -0.054946902828655914 6.045388327204391e-05 0 -0.054925674403103343 3.0898482541612978e-05 0 -0.054973470884578643 1.8967293526395653e-05 0 -0.054999943998623263 9.3305965816608084e-09 0 -0.055000025294682585 4.0024076223700673e-08 0 -0.054973470884578643 1.8967293526395653e-05 0 -0.055000025294682585 4.0024076223700673e-08 0 -0.054946902828655914 6.045388327204391e-05 0 -0.050537131364270647 0.00075421565958072687 0 -0.050043465259988061 0.0008882803252498252 0 -0.046092134680283468 0.0014775380985161046 0 -0.045527658218743147 0.0018655411982287237 0 -0.045121043182022598 0.0016967113100961988 0 -0.046092134680283468 0.0014775380985161046 0 -0.045855940621679844 0.0019040313535336518 0 -0.045527658218743147 0.0018655411982287237 0 -0.045855940621679844 0.0019040313535336518 0 -0.045527658218743147 0.0018655411982287237 0 -0.045422848176887451 0.0021940685378671141 0 -0.045527658218743147 0.0018655411982287237 0 -0.045207884576775242 0.0020129112478152167 0 -0.045121043182022598 0.0016967113100961988 0 -0.045207884576775242 0.0020129112478152167 0 -0.045121043182022598 0.0016967113100961988 0 -0.044850100888640741 0.0019305475549782707 0 -0.043211710052244293 0.0028906130854863894 0 -0.045054331349052339 0.0019234841756362909 0 -0.045207884576775242 0.0020129112478152167 0 -0.045213395479871306 0.0022929090134315511 0 -0.044850100888640741 0.0019305475549782707 0 -0.045207884576775242 0.0020129112478152167 0 -0.045213395479871306 0.0022929090134315511 0 -0.045422848176887451 0.0021940685378671141 0 -0.043211710052244293 0.0028906130854863894 0 -0.042949885492926519 0.0026618207464399754 0 -0.045879146903899742 0.0021843221074439663 0 -0.045454914345611774 0.0022006046496649704 0 -0.046421563337278149 0.0021236432307313161 0 -0.045855940621679844 0.0019040313535336518 0 -0.045422848176887451 0.0021940685378671141 0 -0.045421772603310415 0.0022063655302980443 0 -0.045213395479871306 0.0022929090134315511 0 -0.045422848176887451 0.0021940685378671141 0 -0.045527658218743147 0.0018655411982287237 0 -0.045207884576775242 0.0020129112478152167 0 -0.045422848176887451 0.0021940685378671141 0 -0.04135139576783272 0.0030932785499397106 0 -0.040685019910495078 0.0035202532522929002 0 -0.041771440201717976 0.0038555497917022305 0 -0.043109431041226519 0.0028960671375229947 0 -0.043211710052244293 0.0028906130854863894 0 -0.040611566658218592 0.0026697517673313063 0 -0.043211710052244293 0.0028906130854863894 0 -0.041952844858407612 -8.8275039147155858e-05 0 -0.042913677629114695 0.00060691689280463175 0 -0.043287363616849359 0.001931038968848576 0 -0.040736011323359363 0.0019807265630851279 0 -0.0409679849268215 0.0034633740814029508 0 -0.041425838154335502 0.003604766124603202 0 -0.041453153248084976 0.00080623343715134415 0 -0.042949885492926519 0.0026618207464399754 0 -0.040240324686638032 0.0021390271005624823 0 -0.040736011323359363 0.0019807265630851279 0 -0.0409679849268215 0.0034633740814029508 0 -0.043505356109415159 0.00073434630612588439 0 -0.042913677629114695 0.00060691689280463175 0 -0.042916774735574981 -0.00015452534312399301 0 -0.043505356109415159 0.00073434630612588439 0 -0.042913677629114695 0.00060691689280463175 0 -0.043287363616849359 0.001931038968848576 0 -0.043505356109415159 0.00073434630612588439 0 -0.044477271961028887 0.0010072350829176109 0 -0.043732310289927981 0.00012700947867663783 0 -0.043505356109415159 0.00073434630612588439 0 -0.044076980975373596 0.0014485845692829246 0 -0.044477271961028887 0.0010072350829176109 0 -0.043505356109415159 0.00073434630612588439 0 -0.044076980975373596 0.0014485845692829246 0 -0.043287363616849359 0.001931038968848576 0 -0.044477271961028887 0.0010072350829176109 0 -0.045611323699561133 0.0011314842126055988 0 -0.044636799791699037 7.8955858286255414e-05 0 -0.044477271961028887 0.0010072350829176109 0 -0.044747619396885645 0.0017045241126796872 0 -0.045611323699561133 0.0011314842126055988 0 -0.042596039032902398 0.0013047312213963502 0 -0.042560547398722497 -0.0010825099718157118 0 -0.044477271961028887 0.0010072350829176109 0 -0.044636799791699037 7.8955858286255414e-05 0 -0.043732310289927981 0.00012700947867663783 0 -0.044076980975373596 0.0014485845692829246 0 -0.044477271961028887 0.0010072350829176109 0 -0.044747619396885645 0.0017045241126796872 0 -0.044747619396885645 0.0017045241126796872 0 -0.045174090352256724 0.0019246875202437723 0 -0.045611323699561133 0.0011314842126055988 0 -0.044747619396885645 0.0017045241126796872 0 -0.044803636889576504 0.0020256877131692988 0 -0.044458531421777879 0.0020120966216524874 0 -0.044803636889576504 0.0020256877131692988 0 -0.044458531421777879 0.0020120966216524874 0 -0.044696527652807946 0.0020062760101523754 0 -0.044747619396885645 0.0017045241126796872 0 -0.044803636889576504 0.0020256877131692988 0 -0.045174090352256724 0.0019246875202437723 0 -0.044755525131312042 0.0021193977680622196 0 -0.044458531421777879 0.0020120966216524874 0 -0.044850100888640741 0.0019305475549782707 0 -0.044798781064707312 0.0021484857117181231 0 -0.044755525131312042 0.0021193977680622196 0 -0.044850100888640741 0.0019305475549782707 0 -0.042949885492926519 0.0026618207464399754 0 -0.044359308556266637 0.0023568009666211894 0 -0.044076980975373596 0.0014485845692829246 0 -0.044747619396885645 0.0017045241126796872 0 -0.044458531421777879 0.0020120966216524874 0 -0.044076980975373596 0.0014485845692829246 0 -0.043287363616849359 0.001931038968848576 0 -0.044458531421777879 0.0020120966216524874 0 -0.045121043182022598 0.0016967113100961988 0 -0.044850100888640741 0.0019305475549782707 0 -0.044777611879175158 0.0019669179122095066 0 -0.050043465259988061 0.0008882803252498252 0 -0.04980522091255523 0.0010392678525442834 0 -0.054946902828655914 6.045388327204391e-05 0 -0.054773334216865782 0.00013273595392876352 0 -0.054925674403103343 3.0898482541612978e-05 0 -0.054773334216865782 0.00013273595392876352 0 -0.054685208141338634 0.00014027030342703397 0 -0.054925674403103343 3.0898482541612978e-05 0 -0.044458531421777879 0.0020120966216524874 0 -0.044850100888640741 0.0019305475549782707 0 -0.044696527652807946 0.0020062760101523754 0 -0.044850100888640741 0.0019305475549782707 0 -0.044777611879175158 0.0019669179122095066 0 -0.044696527652807946 0.0020062760101523754 0 -0.044803636889576504 0.0020256877131692988 0 -0.044928197120667569 0.0021550305691597138 0 -0.044880085340525351 0.0021070499454790303 0 -0.044803636889576504 0.0020256877131692988 0 -0.044696527652807946 0.0020062760101523754 0 -0.044880085340525351 0.0021070499454790303 0 -0.043662996181937204 0.0031871061153292118 0 -0.049204865664028034 0.0011164556725620576 0 -0.044803636889576504 0.0020256877131692988 0 -0.045174090352256724 0.0019246875202437723 0 -0.044928197120667569 0.0021550305691597138 0 -0.049204865664028034 0.0011164556725620576 0 -0.049664734740209868 0.0010883848981623405 0 -0.044777611879175158 0.0019669179122095066 0 -0.044696527652807946 0.0020062760101523754 0 -0.044880085340525351 0.0021070499454790303 0 -0.04980522091255523 0.0010392678525442834 0 -0.049664734740209868 0.0010883848981623405 0 -0.054623915901999949 0.00014325887558214748 0 -0.054685208141338634 0.00014027030342703397 0 -0.054999368345110045 -3.1384139834221243e-08 0 -0.054960488822466513 1.7891298487771235e-05 0 -0.054999968681884483 1.0666314616795085e-08 0 -0.054999965553191532 1.2474243039128976e-08 0 -0.049204865664028034 0.0011164556725620576 0 -0.055002485870375664 -2.7954906813848733e-06 0 -0.055000025294682585 4.0024076223700673e-08 0 -0.054999368345110045 -3.1384139834221243e-08 0 -0.054925674403103343 3.0898482541612978e-05 0 -0.054685208141338634 0.00014027030342703397 0 -0.054999368345110045 -3.1384139834221243e-08 0 -0.054925674403103343 3.0898482541612978e-05 0 -0.054999965553191532 1.2474243039128976e-08 0 -0.054972041650164907 1.3063623369829001e-05 0 -0.054999961172374642 3.1058745241545581e-09 0 -0.054972041650164907 1.3063623369829001e-05 0 -0.054975138279162741 1.8256849728957132e-05 0 -0.054999961172374642 3.1058745241545581e-09 0 -0.054960488822466513 1.7891298487771235e-05 0 -0.054999965553191532 1.2474243039128976e-08 0 -0.054972041650164907 1.3063623369829001e-05 0 -0.049204865664028034 0.0011164556725620576 0 -0.052458663673351127 0.00077799334098462133 0 -0.049204865664028034 0.0011164556725620576 0 -0.044482139670678454 0.0025660568331622698 0 -0.042501008766744779 0.0029937129993715204 0 -0.042148049665026714 0.0032516190063562518 0 -0.041830265338554849 0.0031412461172629796 0 -0.049031263108357433 0.0015019976091821541 0 -0.048761461985063946 0.0016043262901590774 0 -0.048696543850915125 0.0016479593869279886 0 -0.042346474010320961 0.0033649743136787572 0 -0.042501008766744779 0.0029937129993715204 0 -0.042148049665026714 0.0032516190063562518 0 -0.048761461985063946 0.0016043262901590774 0 -0.048696543850915125 0.0016479593869279886 0 -0.048502917940277127 0.0016907735786847596 0 -0.052458663673351127 0.00077799334098462133 0 -0.051559840633153761 0.00086604853900259658 0 -0.041830265338554849 0.0031412461172629796 0 -0.041937300541780229 0.0034903656851054776 0 -0.041686926717385914 0.0033364120518596819 0 -0.041937300541780229 0.0034903656851054776 0 -0.041721802598565644 0.0037179668399814087 0 -0.041686926717385914 0.0033364120518596819 0 -0.042148049665026714 0.0032516190063562518 0 -0.041830265338554849 0.0031412461172629796 0 -0.041937300541780229 0.0034903656851054776 0 -0.042346474010320961 0.0033649743136787572 0 -0.041937300541780229 0.0034903656851054776 0 -0.042208924108679165 0.0037024865619536777 0 -0.042346474010320961 0.0033649743136787572 0 -0.042148049665026714 0.0032516190063562518 0 -0.041937300541780229 0.0034903656851054776 0 -0.043662996181937204 0.0031871061153292118 0 -0.042596039032902398 0.0013047312213963502 0 -0.042596039032902398 0.0013047312213963502 0 -0.034685908660338188 0.0037475882638264672 0 -0.040600043653708222 -0.0018168932670048577 0 -0.040584828800889691 -0.0018586163508095143 0 -0.040580865984217993 -0.0019141529959532725 0 -0.042001605205651521 0.0035926449544907237 0 -0.04188825303158026 0.0036515366928986767 0 -0.041899355499140888 0.003783636077371204 0 -0.042391057463452647 0.0034246622175351359 0 -0.042596039032902398 0.0013047312213963502 0 -0.041937300541780229 0.0034903656851054776 0 -0.042001605205651521 0.0035926449544907237 0 -0.04188825303158026 0.0036515366928986767 0 -0.03573291491795761 0.0059921503175986391 0 -0.043096120456384536 0.0025593323399195293 0 -0.041937300541780229 0.0034903656851054776 0 -0.04188825303158026 0.0036515366928986767 0 -0.041721802598565644 0.0037179668399814087 0 -0.04188825303158026 0.0036515366928986767 0 -0.041721802598565644 0.0037179668399814087 0 -0.041899355499140888 0.003783636077371204 0 -0.03573291491795761 0.0059921503175986391 0 -0.028378045173617677 0.006515811716403151 0 -0.029404447950810372 0.0076037098080136865 0 -0.028815964278678951 0.0065361279373357499 0 -0.028673236491162466 0.0072774665987618619 0 -0.03573291491795761 0.0059921503175986391 0 -0.034685908660338188 0.0037475882638264672 0 -0.029946566671901678 0.0086959778580196767 0 -0.029351615223205608 0.0058150933087969849 0 -0.030860672714056795 0.0069554152056886948 0 -0.029404447950810372 0.0076037098080136865 0 -0.029023941661209425 0.006462751517125177 0 -0.028815964278678951 0.0065361279373357499 0 -0.028815964278678951 0.0065361279373357499 0 -0.02810434581384829 0.0068528588324393768 0 -0.028501807118687952 0.0075244973895968684 0 -0.028273337331167752 0.0062804351298421292 0 -0.02810434581384829 0.0068528588324393768 0 -0.027345363148893027 0.0069911638398992134 0 -0.029023941661209425 0.006462751517125177 0 -0.028815964278678951 0.0065361279373357499 0 -0.028273337331167752 0.0062804351298421292 0 -0.028815964278678951 0.0065361279373357499 0 -0.028273337331167752 0.0062804351298421292 0 -0.02810434581384829 0.0068528588324393768 0 -0.034685908660338188 0.0037475882638264672 0 -0.033904474249984315 0.0024056657866430987 0 -0.02810434581384829 0.0068528588324393768 0 -0.028501807118687952 0.0075244973895968684 0 -0.027345363148893027 0.0069911638398992134 0 -0.027819646337425445 0.0083742038185221374 0 -0.034685908660338188 0.0037475882638264672 0 -0.040584828800889691 -0.0018586163508095143 0 -0.040580865984217993 -0.0019141529959532725 0 -0.040578931361992282 -0.0019488363011271265 0 -0.040580865984217993 -0.0019141529959532725 0 -0.040683441610209856 -0.0020754901585312816 0 -0.040578931361992282 -0.0019488363011271265 0 -0.044636799791699037 7.8955858286255414e-05 0 -0.043732310289927981 0.00012700947867663783 0 -0.043063187468958375 -0.0012593047098549191 0 -0.042560547398722497 -0.0010825099718157118 0 -0.041881126196638599 -0.001621175393214867 0 -0.042916774735574981 -0.00015452534312399301 0 -0.043732310289927981 0.00012700947867663783 0 -0.043063187468958375 -0.0012593047098549191 0 -0.043505356109415159 0.00073434630612588439 0 -0.042916774735574981 -0.00015452534312399301 0 -0.043732310289927981 0.00012700947867663783 0 -0.042317665062303146 -0.00082986985825940572 0 -0.042916774735574981 -0.00015452534312399301 0 -0.043063187468958375 -0.0012593047098549191 0 -0.033450946610522288 0.0021633114961935153 0 -0.033904474249984315 0.0024056657866430987 0 -0.04074531862742916 -0.0021536161702021975 0 -0.040683441610209856 -0.0020754901585312816 0 -0.040578931361992282 -0.0019488363011271265 0 -0.026286971967035951 0.006441567945568335 0 -0.027345363148893027 0.0069911638398992134 0 -0.026614979324875918 0.0055203892771130778 0 -0.028273337331167752 0.0062804351298421292 0 -0.027345363148893027 0.0069911638398992134 0 -0.027659761615790906 0.0057609289310586193 0 -0.027659761615790906 0.0057609289310586193 0 -0.026614979324875918 0.0055203892771130778 0 -0.027406684109804427 0.0050182080653323781 0 -0.027345363148893027 0.0069911638398992134 0 -0.027659761615790906 0.0057609289310586193 0 -0.026614979324875918 0.0055203892771130778 0 -0.025739263550103447 0.005305647434168395 0 -0.026286971967035951 0.006441567945568335 0 -0.026614979324875918 0.0055203892771130778 0 -0.02602290752622307 0.0046950082715030411 0 -0.026614979324875918 0.0055203892771130778 0 -0.026714776943005291 0.0047523902358582223 0 -0.027122941750719831 0.0040372401090790436 0 -0.026714776943005291 0.0047523902358582223 0 -0.027406684109804427 0.0050182080653323781 0 -0.026614979324875918 0.0055203892771130778 0 -0.026714776943005291 0.0047523902358582223 0 -0.027406684109804427 0.0050182080653323781 0 -0.027122941750719831 0.0040372401090790436 0 -0.027406684109804427 0.0050182080653323781 0 -0.028714664908657546 0.0050320618882785982 0 -0.027659761615790906 0.0057609289310586193 0 -0.027406684109804427 0.0050182080653323781 0 -0.028714664908657546 0.0050320618882785982 0 -0.030873040765550759 0.0021830554505055805 0 -0.028827866983799365 0.0031905155247786612 0 -0.030167420353099664 0.0041224883916191335 0 -0.028378045173617677 0.006515811716403151 0 -0.028889521291621333 0.0040367014259823355 0 -0.029351615223205608 0.0058150933087969849 0 -0.028827866983799365 0.0031905155247786612 0 -0.030167420353099664 0.0041224883916191335 0 -0.029351615223205608 0.0058150933087969849 0 -0.030167420353099664 0.0041224883916191335 0 -0.030900221495146596 0.0054286432988682742 0 -0.028273337331167752 0.0062804351298421292 0 -0.027659761615790906 0.0057609289310586193 0 -0.028714664908657546 0.0050320618882785982 0 -0.029023941661209425 0.006462751517125177 0 -0.028273337331167752 0.0062804351298421292 0 -0.028714664908657546 0.0050320618882785982 0 -0.033445971548606228 0.0047397354272626785 0 -0.031586890631210875 0.0037626811671108277 0 -0.030900221495146596 0.0054286432988682742 0 -0.030167420353099664 0.0041224883916191335 0 -0.031586890631210875 0.0037626811671108277 0 -0.030900221495146596 0.0054286432988682742 0 -0.030873040765550759 0.0021830554505055805 0 -0.030167420353099664 0.0041224883916191335 0 -0.031586890631210875 0.0037626811671108277 0 -0.030873040765550759 0.0021830554505055805 0 -0.031586890631210875 0.0037626811671108277 0 -0.033200395377182876 0.0027569768864299394 0 -0.033445971548606228 0.0047397354272626785 0 -0.031586890631210875 0.0037626811671108277 0 -0.033200395377182876 0.0027569768864299394 0 -0.035263630158392976 0.0018947974899659345 0 -0.033200395377182876 0.0027569768864299394 0 -0.035763290625725225 0.0043261689247581989 0 -0.035672261004706517 0.00048664240239347831 0 -0.035763290625725225 0.0043261689247581989 0 -0.038155146445548065 0.0018850384908543395 0 -0.032400291392521152 0.00074498104563297171 0 -0.036549688944265919 0.0044268526446982924 0 -0.033445971548606228 0.0047397354272626785 0 -0.035763290625725225 0.0043261689247581989 0 -0.03434314114512748 0.0064321454728914458 0 -0.033445971548606228 0.0047397354272626785 0 -0.033200395377182876 0.0027569768864299394 0 -0.035763290625725225 0.0043261689247581989 0 -0.035763290625725225 0.0043261689247581989 0 -0.03434314114512748 0.0064321454728914458 0 -0.03739404086574729 0.0065579558558106592 0 -0.035289884544145902 0.0086216614984349228 0 -0.037890844855860209 0.0084848939090237403 0 -0.03739404086574729 0.0065579558558106592 0 -0.03434314114512748 0.0064321454728914458 0 -0.035289884544145902 0.0086216614984349228 0 -0.03739404086574729 0.0065579558558106592 0 -0.03434314114512748 0.0064321454728914458 0 -0.033216799821536712 0.0079269294550567138 0 -0.035289884544145902 0.0086216614984349228 0 -0.03434314114512748 0.0064321454728914458 0 -0.033216799821536712 0.0079269294550567138 0 -0.032353974845404768 0.0066189082859180398 0 -0.033216799821536712 0.0079269294550567138 0 -0.032353974845404768 0.0066189082859180398 0 -0.031768113224045866 0.0080863465084903986 0 -0.033445971548606228 0.0047397354272626785 0 -0.032353974845404768 0.0066189082859180398 0 -0.030900221495146596 0.0054286432988682742 0 -0.033445971548606228 0.0047397354272626785 0 -0.03434314114512748 0.0064321454728914458 0 -0.032353974845404768 0.0066189082859180398 0 -0.029351615223205608 0.0058150933087969849 0 -0.030900221495146596 0.0054286432988682742 0 -0.030860672714056795 0.0069554152056886948 0 -0.032353974845404768 0.0066189082859180398 0 -0.030900221495146596 0.0054286432988682742 0 -0.030860672714056795 0.0069554152056886948 0 -0.029946566671901678 0.0086959778580196767 0 -0.030860672714056795 0.0069554152056886948 0 -0.031768113224045866 0.0080863465084903986 0 -0.032353974845404768 0.0066189082859180398 0 -0.030860672714056795 0.0069554152056886948 0 -0.031768113224045866 0.0080863465084903986 0 -0.041570808515449718 0.0034792653432301206 0 -0.041570038508280921 0.0034306984098835267 0 -0.041615993257557597 0.0033895763068926802 0 -0.029946566671901678 0.0086959778580196767 0 -0.031768113224045866 0.0080863465084903986 0 -0.03237405104229895 0.0099303283350255581 0 -0.03573291491795761 0.0059921503175986391 0 -0.037088830394281132 0.0067003833703276408 0 -0.041570808515449718 0.0034792653432301206 0 -0.041570038508280921 0.0034306984098835267 0 -0.041573364489507145 0.0034466928737288877 0 -0.033216799821536712 0.0079269294550567138 0 -0.03237405104229895 0.0099303283350255581 0 -0.035289884544145902 0.0086216614984349228 0 -0.033216799821536712 0.0079269294550567138 0 -0.031768113224045866 0.0080863465084903986 0 -0.03237405104229895 0.0099303283350255581 0 -0.041573364489507145 0.0034466928737288877 0 -0.041663091201779162 0.0036287884271091779 0 -0.04181816885277255 0.0036501736234733676 0 -0.041720431749956099 0.0035109695960325316 0 -0.041248480607812006 0.0033794333277364437 0 -0.041570038508280921 0.0034306984098835267 0 -0.04159617701329673 0.0033520873783788913 0 -0.041619382604799776 0.0033169574461553138 0 -0.041570038508280921 0.0034306984098835267 0 -0.041573364489507145 0.0034466928737288877 0 -0.041663091201779162 0.0036287884271091779 0 -0.037088830394281132 0.0067003833703276408 0 -0.037845236973896572 0.0076537233835178098 0 -0.04159617701329673 0.0033520873783788913 0 -0.041619382604799776 0.0033169574461553138 0 -0.041582370495092252 0.003325494543977976 0 -0.041570808515449718 0.0034792653432301206 0 -0.041615993257557597 0.0033895763068926802 0 -0.041686926717385914 0.0033364120518596819 0 -0.041570038508280921 0.0034306984098835267 0 -0.04159617701329673 0.0033520873783788913 0 -0.041615993257557597 0.0033895763068926802 0 -0.04159617701329673 0.0033520873783788913 0 -0.041615993257557597 0.0033895763068926802 0 -0.041626115771873348 0.0033340011205496168 0 -0.04159617701329673 0.0033520873783788913 0 -0.041626115771873348 0.0033340011205496168 0 -0.041582370495092252 0.003325494543977976 0 -0.041615993257557597 0.0033895763068926802 0 -0.041626115771873348 0.0033340011205496168 0 -0.041686926717385914 0.0033364120518596819 0 -0.041830265338554849 0.0031412461172629796 0 -0.041626115771873348 0.0033340011205496168 0 -0.041582370495092252 0.003325494543977976 0 -0.044482139670678454 0.0025660568331622698 0 -0.045170691679029144 0.0025139383564903722 0 -0.048696543850915125 0.0016479593869279886 0 -0.048502917940277127 0.0016907735786847596 0 -0.04838065189306829 0.0017612835079365062 0 -0.041830265338554849 0.0031412461172629796 0 -0.041626115771873348 0.0033340011205496168 0 -0.041686926717385914 0.0033364120518596819 0 -0.051559840633153761 0.00086604853900259658 0 -0.05194418735877538 0.00079504097777113977 0 -0.048502917940277127 0.0016907735786847596 0 -0.04838065189306829 0.0017612835079365062 0 -0.048255230156504757 0.0017553726106734507 0 -0.054975138279162741 1.8256849728957132e-05 0 -0.0550000347201633 3.2475626576244123e-08 0 -0.054971999562567764 3.8266784864059293e-05 0 -0.054975138279162741 1.8256849728957132e-05 0 -0.0550000347201633 3.2475626576244123e-08 0 -0.054999961172374642 3.1058745241545581e-09 0 -0.055001931245539079 -7.9933584588261619e-07 0 -0.053677172996224855 0.00048627830591248337 0 -0.055000001608636356 -9.4251486295797205e-10 0 -0.054995965023369363 1.6508294582117102e-06 0 -0.054999988544804042 2.5402119610479141e-09 0 -0.054999760986641624 -3.9383701543404562e-08 0 -0.05491353688147968 8.2981958348717912e-05 0 -0.054808001596784291 3.5242710209538944e-05 0 -0.054999760986641624 -3.9383701543404562e-08 0 -0.054971999562567764 3.8266784864059293e-05 0 -0.05491353688147968 8.2981958348717912e-05 0 -0.0550000347201633 3.2475626576244123e-08 0 -0.054999760986641624 -3.9383701543404562e-08 0 -0.054971999562567764 3.8266784864059293e-05 0 -0.04838065189306829 0.0017612835079365062 0 -0.048255230156504757 0.0017553726106734507 0 -0.048081426498755166 0.0018374924371014679 0 -0.05194418735877538 0.00079504097777113977 0 -0.049996267097004658 0.0021638513787507448 0 -0.048255230156504757 0.0017553726106734507 0 -0.048081426498755166 0.0018374924371014679 0 -0.048015829941983112 0.0018018429334954844 0 -0.045170691679029144 0.0025139383564903722 0 -0.044850031162380358 0.0025691981638368624 0 -0.041619382604799776 0.0033169574461553138 0 -0.041582370495092252 0.003325494543977976 0 -0.041742930514405252 0.0033637040986829038 0 -0.044850031162380358 0.0025691981638368624 0 -0.043372864298426635 0.0053501989970942982 0 -0.047569221671395108 0.0026973202097844784 0 -0.047901111615243859 0.0026939005761787448 0 -0.049067621542992566 0.0036622718797650645 0 -0.046978722667587514 0.0023155970527383423 0 -0.047901111615243859 0.0026939005761787448 0 -0.048563368085701809 0.002229563903609239 0 -0.041911398775658491 0.0038719255293184446 0 -0.04181816885277255 0.0036501736234733676 0 -0.042279537702260936 0.003875199882814602 0 -0.046978722667587514 0.0023155970527383423 0 -0.047561557165629188 0.0026968049261791738 0 -0.047901111615243859 0.0026939005761787448 0 -0.044850031162380358 0.0025691981638368624 0 -0.049996267097004658 0.0021638513787507448 0 -0.049996267097004658 0.0021638513787507448 0 -0.049010759308014185 0.0022476768764216133 0 -0.037845236973896572 0.0076537233835178098 0 -0.043372864298426635 0.0053501989970942982 0 -0.034992494810222652 0.011204146107256896 0 -0.037089736800940964 0.010273507238174709 0 -0.037731321052235686 0.012453708209736796 0 -0.041248480607812006 0.0033794333277364437 0 -0.044850031162380358 0.0025691981638368624 0 -0.041663091201779162 0.0036287884271091779 0 -0.041911398775658491 0.0038719255293184446 0 -0.04181816885277255 0.0036501736234733676 0 -0.03237405104229895 0.0099303283350255581 0 -0.034992494810222652 0.011204146107256896 0 -0.035289884544145902 0.0086216614984349228 0 -0.035289884544145902 0.0086216614984349228 0 -0.037089736800940964 0.010273507238174709 0 -0.037890844855860209 0.0084848939090237403 0 -0.034992494810222652 0.011204146107256896 0 -0.035289884544145902 0.0086216614984349228 0 -0.037089736800940964 0.010273507238174709 0 -0.037089736800940964 0.010273507238174709 0 -0.039829492134490378 0.010140001179072695 0 -0.037890844855860209 0.0084848939090237403 0 -0.039829492134490378 0.010140001179072695 0 -0.039914496220455412 0.0079446667456866144 0 -0.037890844855860209 0.0084848939090237403 0 -0.039829492134490378 0.010140001179072695 0 -0.04215080224698118 0.0095075288396286751 0 -0.039914496220455412 0.0079446667456866144 0 -0.039829492134490378 0.010140001179072695 0 -0.040050056766679408 0.012276302837935515 0 -0.042338753174105619 0.012061784067016487 0 -0.039829492134490378 0.010140001179072695 0 -0.037731321052235686 0.012453708209736796 0 -0.040050056766679408 0.012276302837935515 0 -0.037089736800940964 0.010273507238174709 0 -0.039829492134490378 0.010140001179072695 0 -0.037731321052235686 0.012453708209736796 0 -0.043372864298426635 0.0053501989970942982 0 -0.050500628510960932 0.0032154185148174533 0 -0.048563368085701809 0.002229563903609239 0 -0.050424629141729425 0.0030921067024138435 0 -0.049067621542992566 0.0036622718797650645 0 -0.047901111615243859 0.0026939005761787448 0 -0.048563368085701809 0.002229563903609239 0 -0.049067621542992566 0.0036622718797650645 0 -0.049996267097004658 0.0021638513787507448 0 -0.053677172996224855 0.00048627830591248337 0 -0.043372864298426635 0.0053501989970942982 0 -0.042797134759161422 0.0081809111628688719 0 -0.044983470639706057 0.0036133889710795158 0 -0.047213459382456496 0.0034552078547513874 0 -0.047458684259683158 0.0047142912971782297 0 -0.047213459382456496 0.0034552078547513874 0 -0.047458684259683158 0.0047142912971782297 0 -0.048193205849519992 0.0038957047123539547 0 -0.050500628510960932 0.0032154185148174533 0 -0.053677172996224855 0.00048627830591248337 0 -0.05500074767349189 3.4197459895044756e-07 0 -0.053677172996224855 0.00048627830591248337 0 -0.054968507835143871 -2.0927972323491972e-06 0 -0.054999877211362402 4.6505414215044994e-08 0 -0.054937064527100683 2.5485921260748121e-06 0 -0.054999997382315514 3.5625804435829013e-10 0 -0.054995965023369363 1.6508294582117102e-06 0 -0.054999988544804042 2.5402119610479141e-09 0 -0.054964575319105757 1.2440253889508013e-06 0 -0.053086899657572378 -0.0001248511568667347 0 -0.053249776800633725 -1.1874267392766233e-06 0 -0.053086899657572378 -0.0001248511568667347 0 -0.052741867584457827 -0.00010676598037300359 0 -0.053249776800633725 -1.1874267392766233e-06 0 -0.054968122753280474 2.5666371248232798e-08 0 -0.052929875960226573 0.0011525733503064924 0 -0.054968002775985091 -1.9318465012505311e-09 0 -0.054999982085413915 1.0261460164883901e-08 0 -0.054994790000603033 2.1046497827653417e-05 0 -0.054968507835143871 -2.0927972323491972e-06 0 -0.054999877211362402 4.6505414215044994e-08 0 -0.05499026342459528 3.4428513028740493e-06 0 -0.054999877211362402 4.6505414215044994e-08 0 -0.055000025257928908 -1.5452199141214731e-08 0 -0.05499026342459528 3.4428513028740493e-06 0 -0.054998113259306966 1.4283037420250792e-07 0 -0.052929875960226573 0.0011525733503064924 0 -0.050500628510960932 0.0032154185148174533 0 -0.052929875960226573 0.0011525733503064924 0 -0.047458684259683158 0.0047142912971782297 0 -0.048193205849519992 0.0038957047123539547 0 -0.049152736100735013 0.0038975841575075785 0 -0.047962924835042997 0.0044076535522254694 0 -0.049385064950145378 0.0051157445083676806 0 -0.049152736100735013 0.0038975841575075785 0 -0.050500628510960932 0.0032154185148174533 0 -0.048028156884187267 0.0043933289980822689 0 -0.047213459382456496 0.0034552078547513874 0 -0.048193205849519992 0.0038957047123539547 0 -0.049277317930911446 0.0034169585647007123 0 -0.052929875960226573 0.0011525733503064924 0 -0.047957701018488813 0.0044161448816867023 0 -0.049385064950145378 0.0051157445083676806 0 -0.049152736100735013 0.0038975841575075785 0 -0.049277317930911446 0.0034169585647007123 0 -0.042797134759161422 0.0081809111628688719 0 -0.047957701018488813 0.0044161448816867023 0 -0.048193205849519992 0.0038957047123539547 0 -0.049152736100735013 0.0038975841575075785 0 -0.049277317930911446 0.0034169585647007123 0 -0.053086899657572378 -0.0001248511568667347 0 -0.053116547803707378 0.00021458724882833776 0 -0.052741867584457827 -0.00010676598037300359 0 -0.053116547803707378 0.00021458724882833776 0 -0.052741867584457827 -0.00010676598037300359 0 -0.051533078549655338 1.2056448938705593e-06 0 -0.047957701018488813 0.0044161448816867023 0 -0.051533686348047177 -3.1904944253131727e-07 0 -0.052741867584457827 -0.00010676598037300359 0 -0.053249776800633725 -1.1874267392766233e-06 0 -0.051533078549655338 1.2056448938705593e-06 0 -0.048931992673164816 0.00086407092736195924 0 -0.051526349586735042 2.6606803159653305e-06 0 -0.04945288463296206 -1.3640157275603378e-05 0 -0.051526349586735042 2.6606803159653305e-06 0 -0.04945288463296206 -1.3640157275603378e-05 0 -0.048634207224580187 -1.1324853971654827e-06 0 -0.039829492134490378 0.010140001179072695 0 -0.042338753174105619 0.012061784067016487 0 -0.04215080224698118 0.0095075288396286751 0 -0.048931992673164816 0.00086407092736195924 0 -0.04945288463296206 -1.3640157275603378e-05 0 -0.048247413776678294 -0.00014179690972614974 0 -0.047957701018488813 0.0044161448816867023 0 -0.044934808100726524 0.0050369864736496892 0 -0.04945288463296206 -1.3640157275603378e-05 0 -0.048247413776678294 -0.00014179690972614974 0 -0.048634207224580187 -1.1324853971654827e-06 0 -0.048634207224580187 -1.1324853971654827e-06 0 -0.045737782602241421 -2.7519925786192223e-07 0 -0.046215426270361216 -0.00014462537027920777 0 -0.048247413776678294 -0.00014179690972614974 0 -0.048634207224580187 -1.1324853971654827e-06 0 -0.046215426270361216 -0.00014462537027920777 0 -0.045737782602241421 -2.7519925786192223e-07 0 -0.046215426270361216 -0.00014462537027920777 0 -0.044247014539585024 -0.00010446114046504656 0 -0.042076993110135977 0.0069534133220982303 0 -0.040887189725910066 0.0049222204199751629 0 -0.042228884321063552 0.0041920472719838104 0 -0.046215426270361216 -0.00014462537027920777 0 -0.044247014539585024 -0.00010446114046504656 0 -0.044249260223005266 -0.00013358665733328681 0 -0.044170381397126264 0.0031914868788232033 0 -0.043273640552827571 0.0018980633985183084 0 -0.044934808100726524 0.0050369864736496892 0 -0.044170381397126264 0.0031914868788232033 0 -0.04215080224698118 0.0095075288396286751 0 -0.042076993110135977 0.0069534133220982303 0 -0.039914496220455412 0.0079446667456866144 0 -0.042076993110135977 0.0069534133220982303 0 -0.039914496220455412 0.0079446667456866144 0 -0.039956172961404232 0.0059065703946806613 0 -0.039914496220455412 0.0079446667456866144 0 -0.037890844855860209 0.0084848939090237403 0 -0.03739404086574729 0.0065579558558106592 0 -0.03739404086574729 0.0065579558558106592 0 -0.039956172961404232 0.0059065703946806613 0 -0.038994227730545922 0.0040632322102120725 0 -0.039914496220455412 0.0079446667456866144 0 -0.03739404086574729 0.0065579558558106592 0 -0.039956172961404232 0.0059065703946806613 0 -0.042076993110135977 0.0069534133220982303 0 -0.039956172961404232 0.0059065703946806613 0 -0.040887189725910066 0.0049222204199751629 0 -0.039956172961404232 0.0059065703946806613 0 -0.040887189725910066 0.0049222204199751629 0 -0.038994227730545922 0.0040632322102120725 0 -0.040887189725910066 0.0049222204199751629 0 -0.041049357865743381 0.0032698352202839348 0 -0.038994227730545922 0.0040632322102120725 0 -0.041049357865743381 0.0032698352202839348 0 -0.038994227730545922 0.0040632322102120725 0 -0.039772171101382724 0.0021634350065195878 0 -0.035763290625725225 0.0043261689247581989 0 -0.038994227730545922 0.0040632322102120725 0 -0.038155146445548065 0.0018850384908543395 0 -0.035763290625725225 0.0043261689247581989 0 -0.03739404086574729 0.0065579558558106592 0 -0.038994227730545922 0.0040632322102120725 0 -0.038994227730545922 0.0040632322102120725 0 -0.038155146445548065 0.0018850384908543395 0 -0.039772171101382724 0.0021634350065195878 0 -0.040952516657930503 0.00098619144440769985 0 -0.041049357865743381 0.0032698352202839348 0 -0.039772171101382724 0.0021634350065195878 0 -0.041541359358581574 0.00068679829020250587 0 -0.041156063861025084 0.0031271815150078889 0 -0.039700973132194256 0.00064188449208006627 0 -0.038155146445548065 0.0018850384908543395 0 -0.039772171101382724 0.0021634350065195878 0 -0.040952516657930503 0.00098619144440769985 0 -0.039700973132194256 0.00064188449208006627 0 -0.039772171101382724 0.0021634350065195878 0 -0.042046318013865748 0.00038871301164639365 0 -0.041049357865743381 0.0032698352202839348 0 -0.042802472117887749 0.00053664046773802346 0 -0.041049357865743381 0.0032698352202839348 0 -0.042802472117887749 0.00053664046773802346 0 -0.042228884321063552 0.0041920472719838104 0 -0.042802472117887749 0.00053664046773802346 0 -0.043231376480064566 6.441067657882869e-05 0 -0.044249260223005266 -0.00013358665733328681 0 -0.042867657771605241 0.00050996847540284087 0 -0.043273640552827571 0.0018980633985183084 0 -0.042802472117887749 0.00053664046773802346 0 -0.042768083163688318 0.00031239232494157277 0 -0.043231376480064566 6.441067657882869e-05 0 -0.039945042049574032 -6.9824202734096756e-08 0 -0.041836274791925164 0.00022049219284945535 0 -0.042841702269724689 4.2552774799448387e-07 0 -0.042768083163688318 0.00031239232494157277 0 -0.041836274791925164 0.00022049219284945535 0 -0.043231376480064566 6.441067657882869e-05 0 -0.041836274791925164 0.00022049219284945535 0 -0.042841702269724689 4.2552774799448387e-07 0 -0.043231376480064566 6.441067657882869e-05 0 -0.042841702269724689 4.2552774799448387e-07 0 -0.043231376480064566 6.441067657882869e-05 0 -0.044247014539585024 -0.00010446114046504656 0 -0.045737782602241421 -2.7519925786192223e-07 0 -0.042841702269724689 4.2552774799448387e-07 0 -0.044247014539585024 -0.00010446114046504656 0 -0.040887189725910066 0.0049222204199751629 0 -0.041049357865743381 0.0032698352202839348 0 -0.042228884321063552 0.0041920472719838104 0 -0.043231376480064566 6.441067657882869e-05 0 -0.044247014539585024 -0.00010446114046504656 0 -0.044249260223005266 -0.00013358665733328681 0 -0.03397002225669974 -0.0035861255076320105 0 -0.029685538265544657 -0.0029926471380208983 0 -0.03291239770438114 -0.0029035762253646832 0 -0.030562491345058274 -0.0032878234515819234 0 -0.030419928777033357 -0.0016674632479694532 0 -0.03944787869885788 -0.0046807495866234439 0 -0.038316071302622136 -0.0016452203991753726 0 -0.035034868495122974 -0.0030803755178043907 0 -0.03397002225669974 -0.0035861255076320105 0 -0.0330441482695518 -0.0024331215339792249 0 -0.027713892601652617 -0.0043225178623847935 0 -0.028029194786734164 -0.0040448413599108776 0 -0.028007436120830554 -0.003995141847282598 0 -0.03397002225669974 -0.0035861255076320105 0 -0.028522411062440575 -0.0037496133342856462 0 -0.028007436120830554 -0.003995141847282598 0 -0.027940616880113608 -0.0039930325126136829 0 -0.027872770238450223 -0.0042931076913126781 0 -0.028029194786734164 -0.0040448413599108776 0 -0.028007436120830554 -0.003995141847282598 0 -0.027940616880113608 -0.0039930325126136829 0 -0.028007436120830554 -0.003995141847282598 0 -0.027872770238450223 -0.0042931076913126781 0 -0.027998661618417686 -0.0043468854312387313 0 -0.028007436120830554 -0.003995141847282598 0 -0.027697240662896163 -0.0036932770671947433 0 -0.027574735737126186 -0.0039711317902968663 0 -0.027574735737126186 -0.0039711317902968663 0 -0.027144652800248147 -0.0041762688945731121 0 -0.027276807928440009 -0.0035527389551313214 0 -0.027713892601652617 -0.0043225178623847935 0 -0.028007436120830554 -0.003995141847282598 0 -0.027574735737126186 -0.0039711317902968663 0 -0.027713892601652617 -0.0043225178623847935 0 -0.027574735737126186 -0.0039711317902968663 0 -0.027144652800248147 -0.0041762688945731121 0 -0.027697240662896163 -0.0036932770671947433 0 -0.027574735737126186 -0.0039711317902968663 0 -0.027276807928440009 -0.0035527389551313214 0 -0.021838105363735309 -0.00048026308773451017 0 -0.020792795923253667 -0.0016036492651758702 0 -0.027144652800248147 -0.0041762688945731121 0 -0.026547302287934917 -0.0038424593720089418 0 -0.027276807928440009 -0.0035527389551313214 0 -0.029685538265544657 -0.0029926471380208983 0 -0.024703959831904633 -0.0013160084254181265 0 -0.027144652800248147 -0.0041762688945731121 0 -0.026547302287934917 -0.0038424593720089418 0 -0.026559867254010435 -0.0039060985173734277 0 -0.029544098636180228 -0.00080378235938375177 0 -0.030017076972379292 -0.00065345325758877357 0 -0.02946399573099328 -5.196191068072604e-05 0 -0.021797811853879252 -0.00017275149463541383 0 -0.021117210693012728 0.00016861804664646197 0 -0.022217084182841174 0.00068891356730344769 0 -0.017923844445636373 0.0018901065367874915 0 -0.024099058691113433 0.00066713373668454354 0 -0.017923844445636373 0.0018901065367874915 0 -0.023126782353449952 -0.00022218093611561278 0 -0.01804568428035646 0.0010769806956589601 0 -0.018659249965631695 0.00088897876602688874 0 -0.018447069345412563 0.0019627974694437938 0 -0.01804568428035646 0.0010769806956589601 0 -0.018535101615179617 0.00083100457420272106 0 -0.018659249965631695 0.00088897876602688874 0 -0.023126782353449952 -0.00022218093611561278 0 -0.024703959831904633 -0.0013160084254181265 0 -0.021838105363735309 -0.00048026308773451017 0 -0.024703959831904633 -0.0013160084254181265 0 -0.023257244747086969 0.00073134254570532951 0 -0.02263363999015526 0.00043833624642633582 0 -0.022522431368404362 0.0010995498846407897 0 -0.023126782353449952 -0.00022218093611561278 0 -0.021838105363735309 -0.00048026308773451017 0 -0.029616305137195011 -0.00084136114085775959 0 -0.029544098636180228 -0.00080378235938375177 0 -0.030017076972379292 -0.00065345325758877357 0 -0.023126782353449952 -0.00022218093611561278 0 -0.024099058691113433 0.00066713373668454354 0 -0.035900221019750836 -0.0012425198293977279 0 -0.032305519998760579 0.00054222956421853298 0 -0.030017076972379292 -0.00065345325758877357 0 -0.02946399573099328 -5.196191068072604e-05 0 -0.030420353668056319 0.00012062910693160687 0 -0.024703959831904633 -0.0013160084254181265 0 -0.035900221019750836 -0.0012425198293977279 0 -0.034011165459425334 -0.0027659177665818415 0 -0.031992646652713272 -0.0017462952475305544 0 -0.030445185436485962 -0.0033546240311831846 0 -0.031992646652713272 -0.0017462952475305544 0 -0.029951183361108386 -0.00072517446186370351 0 -0.030445185436485962 -0.0033546240311831846 0 -0.03397002225669974 -0.0035861255076320105 0 -0.035900221019750836 -0.0012425198293977279 0 -0.03944787869885788 -0.0046807495866234439 0 -0.044237324982935346 -0.0036824236223918666 0 -0.040866810274156055 -0.001312437627969873 0 -0.044237324982935346 -0.0036824236223918666 0 -0.04357140465352638 0.00018080541159675961 0 -0.040866810274156055 -0.001312437627969873 0 -0.035900221019750836 -0.0012425198293977279 0 -0.04086773117212629 -5.4631741044302676e-05 0 -0.04357140465352638 0.00018080541159675961 0 -0.040734566464844482 0.001242619623563976 0 -0.040866810274156055 -0.001312437627969873 0 -0.037462512643389401 0.00071094980333219243 0 -0.037149173000503813 0.00031957800343664799 0 -0.036798159853510377 0.00061135553432351323 0 -0.037462512643389401 0.00071094980333219243 0 -0.037149173000503813 0.00031957800343664799 0 -0.037585348775852186 0.00017435416731916283 0 -0.037149173000503813 0.00031957800343664799 0 -0.037139432440739972 -0.00011912730759281396 0 -0.037585348775852186 0.00017435416731916283 0 -0.038429843509598945 0.00070365564599586419 0 -0.040287676500741894 0.0021095231468790726 0 -0.037139432440739972 -0.00011912730759281396 0 -0.037585348775852186 0.00017435416731916283 0 -0.037705269970398976 -0.0003608395154266225 0 -0.04357140465352638 0.00018080541159675961 0 -0.041638271482359775 0.002664556191642878 0 -0.042809401057588389 0.0038818045188200555 0 -0.04086773117212629 -5.4631741044302676e-05 0 -0.040287676500741894 0.0021095231468790726 0 -0.04357140465352638 0.00018080541159675961 0 -0.041638271482359775 0.002664556191642878 0 -0.040734566464844482 0.001242619623563976 0 -0.038564866864097387 0.0026757833193505496 0 -0.040734566464844482 0.001242619623563976 0 -0.040279841147668222 0.0031607656555792357 0 -0.041638271482359775 0.002664556191642878 0 -0.040734566464844482 0.001242619623563976 0 -0.040279841147668222 0.0031607656555792357 0 -0.038564866864097387 0.0026757833193505496 0 -0.038767007167948793 0.00075535180549516669 0 -0.040734566464844482 0.001242619623563976 0 -0.038767007167948793 0.00075535180549516669 0 -0.040734566464844482 0.001242619623563976 0 -0.040866810274156055 -0.001312437627969873 0 -0.03944787869885788 -0.0046807495866234439 0 -0.040866810274156055 -0.001312437627969873 0 -0.038316071302622136 -0.0016452203991753726 0 -0.038767007167948793 0.00075535180549516669 0 -0.040866810274156055 -0.001312437627969873 0 -0.038316071302622136 -0.0016452203991753726 0 -0.038316071302622136 -0.0016452203991753726 0 -0.035034868495122974 -0.0030803755178043907 0 -0.036367998746840359 0.001284515989085332 0 -0.038767007167948793 0.00075535180549516669 0 -0.038316071302622136 -0.0016452203991753726 0 -0.036367998746840359 0.001284515989085332 0 -0.035573738428413965 0.0028479059888687616 0 -0.036698395019622479 0.0018450651505282963 0 -0.036367998746840359 0.001284515989085332 0 -0.03705630791177493 0.0035868477901285544 0 -0.035971370969109809 0.0037958898899059382 0 -0.038564866864097387 0.0026757833193505496 0 -0.038767007167948793 0.00075535180549516669 0 -0.036367998746840359 0.001284515989085332 0 -0.038564866864097387 0.0026757833193505496 0 -0.036367998746840359 0.001284515989085332 0 -0.03705630791177493 0.0035868477901285544 0 -0.036367998746840359 0.001284515989085332 0 -0.032725763978370459 0.0029994450438769206 0 -0.033187329569465698 0.00658048613053306 0 -0.036367998746840359 0.001284515989085332 0 -0.032725763978370459 0.0029994450438769206 0 -0.032342685171447338 0.00083542095532534826 0 -0.032725763978370459 0.0029994450438769206 0 -0.032342685171447338 0.00083542095532534826 0 -0.029156046114723503 0.0033183466799918044 0 -0.032342685171447338 0.00083542095532534826 0 -0.029156046114723503 0.0033183466799918044 0 -0.028547977273740921 -0.00037489498800645748 0 -0.032725763978370459 0.0029994450438769206 0 -0.029156046114723503 0.0033183466799918044 0 -0.033187329569465698 0.00658048613053306 0 -0.034574085127444386 -0.00050879673562600548 0 -0.036698395019622479 0.0018450651505282963 0 -0.040415120608014915 -0.0038413601406765453 0 -0.041012352937505311 -0.0039990602488080588 0 -0.040638281504975129 -0.0045510016628149286 0 -0.040415120608014915 -0.0038413601406765453 0 -0.041012352937505311 -0.0039990602488080588 0 -0.041103710762115067 -0.0033281580216726137 0 -0.034574085127444386 -0.00050879673562600548 0 -0.036797621615385197 -0.0024808356772494599 0 -0.029156046114723503 0.0033183466799918044 0 -0.026490429456465129 0.0004224216411464528 0 -0.028547977273740921 -0.00037489498800645748 0 -0.026490429456465129 0.0004224216411464528 0 -0.028547977273740921 -0.00037489498800645748 0 -0.026542314162634723 -0.0032891012808941079 0 -0.035034868495122974 -0.0030803755178043907 0 -0.032342685171447338 0.00083542095532534826 0 -0.028547977273740921 -0.00037489498800645748 0 -0.035034868495122974 -0.0030803755178043907 0 -0.036367998746840359 0.001284515989085332 0 -0.032342685171447338 0.00083542095532534826 0 -0.0330441482695518 -0.0024331215339792249 0 -0.028656602980491809 -0.00042350571795043149 0 -0.030419928777033357 -0.0016674632479694532 0 -0.028547977273740921 -0.00037489498800645748 0 -0.028765098665664755 -0.002195513729576905 0 -0.042313747725221583 -0.003633631118995556 0 -0.04204813768145068 -0.0044675063926015272 0 -0.043153194728826227 -0.0042369087800651298 0 -0.042313747725221583 -0.003633631118995556 0 -0.041520384983304778 -0.0036981822772202862 0 -0.04186738315405391 -0.0025988359052101194 0 -0.042313747725221583 -0.003633631118995556 0 -0.041520384983304778 -0.0036981822772202862 0 -0.04204813768145068 -0.0044675063926015272 0 -0.041012352937505311 -0.0039990602488080588 0 -0.041520384983304778 -0.0036981822772202862 0 -0.041369602813765699 -0.0044780065923310112 0 -0.041012352937505311 -0.0039990602488080588 0 -0.041103710762115067 -0.0033281580216726137 0 -0.041520384983304778 -0.0036981822772202862 0 -0.040064179082947356 -0.0036249442916110861 0 -0.041302539641904723 -0.002716363139747241 0 -0.04019589729034341 -0.0015630238349764397 0 -0.041103710762115067 -0.0033281580216726137 0 -0.041520384983304778 -0.0036981822772202862 0 -0.04186738315405391 -0.0025988359052101194 0 -0.036797621615385197 -0.0024808356772494599 0 -0.032794746625924007 -0.0019021228798204589 0 -0.036797621615385197 -0.0024808356772494599 0 -0.042061966852510665 -0.0024378989104715185 0 -0.04186738315405391 -0.0025988359052101194 0 -0.042588434645218248 -0.0017795953069247371 0 -0.04319472719197405 -0.003053474286532654 0 -0.042313747725221583 -0.003633631118995556 0 -0.04186738315405391 -0.0025988359052101194 0 -0.04319472719197405 -0.003053474286532654 0 -0.041302539641904723 -0.002716363139747241 0 -0.042588434645218248 -0.0017795953069247371 0 -0.041521859846301606 -0.00060441331882791474 0 -0.042061966852510665 -0.0024378989104715185 0 -0.042372014341755262 -0.0019652042925807764 0 -0.041302539641904723 -0.002716363139747241 0 -0.04019589729034341 -0.0015630238349764397 0 -0.041521859846301606 -0.00060441331882791474 0 -0.032794746625924007 -0.0019021228798204589 0 -0.034312424861578927 -0.0039087565248710661 0 -0.04019589729034341 -0.0015630238349764397 0 -0.041521859846301606 -0.00060441331882791474 0 -0.040334591826682163 0.00026451627266174096 0 -0.028522411062440575 -0.0037496133342856462 0 -0.028259079699934412 -0.0036604361921516041 0 -0.030562491345058274 -0.0032878234515819234 0 -0.028765098665664755 -0.002195513729576905 0 -0.027871253994336129 -0.003651124346870259 0 -0.030562491345058274 -0.0032878234515819234 0 -0.030419928777033357 -0.0016674632479694532 0 -0.028765098665664755 -0.002195513729576905 0 -0.026542314162634723 -0.0032891012808941079 0 -0.028765098665664755 -0.002195513729576905 0 -0.027871253994336129 -0.003651124346870259 0 -0.028547977273740921 -0.00037489498800645748 0 -0.026542314162634723 -0.0032891012808941079 0 -0.028765098665664755 -0.002195513729576905 0 -0.026542314162634723 -0.0032891012808941079 0 -0.027871253994336129 -0.003651124346870259 0 -0.027337076196556218 -0.0045594037644217491 0 -0.026542314162634723 -0.0032891012808941079 0 -0.027337076196556218 -0.0045594037644217491 0 -0.026161822566464085 -0.0049171910866418009 0 -0.028029194786734164 -0.0040448413599108776 0 -0.027871253994336129 -0.003651124346870259 0 -0.027940616880113608 -0.0039930325126136829 0 -0.027940616880113608 -0.0039930325126136829 0 -0.027872770238450223 -0.0042931076913126781 0 -0.027337076196556218 -0.0045594037644217491 0 -0.027871253994336129 -0.003651124346870259 0 -0.027940616880113608 -0.0039930325126136829 0 -0.027337076196556218 -0.0045594037644217491 0 -0.030076166896963494 -0.0064911555203733418 0 -0.022393934189742351 6.5553133374957143e-05 0 -0.027872770238450223 -0.0042931076913126781 0 -0.027337076196556218 -0.0045594037644217491 0 -0.028054520265905949 -0.004520032890654605 0 -0.027337076196556218 -0.0045594037644217491 0 -0.027308365892394593 -0.0062510758425774636 0 -0.028693767093804765 -0.0055029953510738576 0 -0.027337076196556218 -0.0045594037644217491 0 -0.027308365892394593 -0.0062510758425774636 0 -0.026161822566464085 -0.0049171910866418009 0 -0.015699834683197304 0.0032942264503933462 0 -0.024394688371077115 0.0042845194499120508 0 -0.027308365892394593 -0.0062510758425774636 0 -0.026161822566464085 -0.0049171910866418009 0 -0.025492134138202255 -0.007071729812948957 0 -0.0080304952379635312 0.013394143902390999 0 -0.010834643724076481 0.012896340245827654 0 -0.01136190294641069 0.014758626740292415 0 -0.0080304952379635312 0.013394143902390999 0 -0.0088779199225923582 0.011000477287886001 0 -0.010834643724076481 0.012896340245827654 0 -0.015699834683197304 0.0032942264503933462 0 -0.022393934189742351 6.5553133374957143e-05 0 -0.041521859846301606 -0.00060441331882791474 0 -0.041523381348380302 0.001273480652746337 0 -0.042644098264400784 0.00051118077965965343 0 -0.041521859846301606 -0.00060441331882791474 0 -0.040334591826682163 0.00026451627266174096 0 -0.041523381348380302 0.001273480652746337 0 -0.034312424861578927 -0.0039087565248710661 0 -0.024394688371077115 0.0042845194499120508 0 -0.040334591826682163 0.00026451627266174096 0 -0.041523381348380302 0.001273480652746337 0 -0.04027867595486935 0.0018617526843685579 0 -0.041523381348380302 0.001273480652746337 0 -0.041674659071946091 0.0023102979943722887 0 -0.042739134069502492 0.0017928869373776434 0 -0.041523381348380302 0.001273480652746337 0 -0.041674659071946091 0.0023102979943722887 0 -0.04027867595486935 0.0018617526843685579 0 -0.026356731505186155 0.011987518296090899 0 -0.024627214283661769 0.011145505769380707 0 -0.025375885198495443 0.012504435960316663 0 -0.024627214283661769 0.011145505769380707 0 -0.02439802957620734 0.013268887724002183 0 -0.025375885198495443 0.012504435960316663 0 -0.036553924138409494 0.0081530565148590119 0 -0.024394688371077115 0.0042845194499120508 0 -0.024394688371077115 0.0042845194499120508 0 -0.012044758846206174 0.01023349999538095 0 -0.014593996626479018 0.0085378107580963876 0 -0.013189463130216628 0.0068260760666839148 0 -0.015816477300460496 0.006243172124398874 0 -0.012044758846206174 0.01023349999538095 0 -0.021224423003269283 0.0097747389456292223 0 -0.02439802957620734 0.013268887724002183 0 -0.025375885198495443 0.012504435960316663 0 -0.026333571400339869 0.013064238046822677 0 -0.026356731505186155 0.011987518296090899 0 -0.026333571400339869 0.013064238046822677 0 -0.028229440589000503 0.012743222405977594 0 -0.026356731505186155 0.011987518296090899 0 -0.025375885198495443 0.012504435960316663 0 -0.026333571400339869 0.013064238046822677 0 -0.0088779199225923582 0.011000477287886001 0 -0.010646345429003754 0.010305316585361551 0 -0.010834643724076481 0.012896340245827654 0 -0.0080304952379635312 0.013394143902390999 0 -0.0088779199225923582 0.011000477287886001 0 -0.0064746917621417016 0.010049750734596219 0 -0.0088779199225923582 0.011000477287886001 0 -0.0064746917621417016 0.010049750734596219 0 -0.0087766559561534511 0.0089762606735323131 0 -0.0088779199225923582 0.011000477287886001 0 -0.0087766559561534511 0.0089762606735323131 0 -0.010646345429003754 0.010305316585361551 0 -0.0080304952379635312 0.013394143902390999 0 -0.0046241594747197254 0.011830886796110582 0 -0.0064746917621417016 0.010049750734596219 0 -0.0046241594747197254 0.011830886796110582 0 -0.0040384790263910406 0.0079781118113722588 0 -0.0064746917621417016 0.010049750734596219 0 -0.0064746917621417016 0.010049750734596219 0 -0.005732229678795297 0.007701389095570747 0 -0.0087766559561534511 0.0089762606735323131 0 -0.0040384790263910406 0.0079781118113722588 0 -0.0064746917621417016 0.010049750734596219 0 -0.005732229678795297 0.007701389095570747 0 -0.0043639264711373155 0.0062576100776759614 0 -0.0026184822821361305 0.0077589692225103878 0 -0.005732229678795297 0.007701389095570747 0 -0.012044758846206174 0.01023349999538095 0 -0.0035634905947717517 0.0086307249129384204 0 -0.0082176099175156839 0.0061665312916872588 0 -0.0087766559561534511 0.0089762606735323131 0 -0.012395082706974259 0.0083949197805969385 0 -0.0082176099175156839 0.0061665312916872588 0 -0.005732229678795297 0.007701389095570747 0 -0.0087766559561534511 0.0089762606735323131 0 -0.0048122154559359278 0.0048120328073235057 0 -0.0064667142926952562 0.0049349804526433848 0 -0.0087766559561534511 0.0089762606735323131 0 -0.012395082706974259 0.0083949197805969385 0 -0.010646345429003754 0.010305316585361551 0 -0.0060367234745141085 0.0036982751538560919 0 -0.0079052705438193011 0.0046696396518350865 0 -0.0010506090234668815 0.0036975535620351616 0 -0.0010677162418966891 0.0037552487121833979 0 -0.0011015146929676692 0.0037670685985918507 0 -0.011086364489508865 0.0042051219702549025 0 -0.011494840454185957 0.004418558030603508 0 -0.011456914956998845 0.0041118532953021876 0 -0.011402380173425429 0.0037816813919754268 0 -0.011086364489508865 0.0042051219702549025 0 -0.011456914956998845 0.0041118532953021876 0 -0.010657568391028271 0.0041188360054409106 0 -0.010863799616758119 0.0042243800044284106 0 -0.010757941899373366 0.0044322467748341317 0 -0.0064667142926952562 0.0049349804526433848 0 -0.0079052705438193011 0.0046696396518350865 0 -0.010901385680373028 0.0041816648874368157 0 -0.011009664803036326 0.0045850147064527341 0 -0.011494840454185957 0.004418558030603508 0 -0.0079052705438193011 0.0046696396518350865 0 -0.012339115586462794 0.0047036764697956437 0 -0.010901385680373028 0.0041816648874368157 0 -0.011009664803036326 0.0045850147064527341 0 -0.010757941899373366 0.0044322467748341317 0 -0.0079052705438193011 0.0046696396518350865 0 -0.0097938880381562201 0.0037547626025034721 0 -0.011009664803036326 0.0045850147064527341 0 -0.010682446490065556 0.0046596845861269576 0 -0.010942917532423768 0.0048317582434994899 0 -0.011009664803036326 0.0045850147064527341 0 -0.010757941899373366 0.0044322467748341317 0 -0.010682446490065556 0.0046596845861269576 0 -0.011009664803036326 0.0045850147064527341 0 -0.010942917532423768 0.0048317582434994899 0 -0.011382935676340635 0.0048480329298801932 0 -0.011009664803036326 0.0045850147064527341 0 -0.011382935676340635 0.0048480329298801932 0 -0.011494840454185957 0.004418558030603508 0 -0.010646345429003754 0.010305316585361551 0 -0.012259049014741962 0.011472081898509633 0 -0.010834643724076481 0.012896340245827654 0 -0.0064667142926952562 0.0049349804526433848 0 -0.011474317674038439 0.0090196671255224764 0 -0.012395082706974259 0.0083949197805969385 0 -0.010646345429003754 0.010305316585361551 0 -0.012259049014741962 0.011472081898509633 0 -0.010657568391028271 0.0041188360054409106 0 -0.010757941899373366 0.0044322467748341317 0 -0.010682446490065556 0.0046596845861269576 0 -0.011474317674038439 0.0090196671255224764 0 -0.01498746462090403 0.0054868528717663505 0 -0.010682446490065556 0.0046596845861269576 0 -0.010697815571609119 0.0052335373769986744 0 -0.010942917532423768 0.0048317582434994899 0 -0.012259049014741962 0.011472081898509633 0 -0.010834643724076481 0.012896340245827654 0 -0.012206747193140868 0.014313156287248352 0 -0.010834643724076481 0.012896340245827654 0 -0.012206747193140868 0.014313156287248352 0 -0.01136190294641069 0.014758626740292415 0 -0.01498746462090403 0.0054868528717663505 0 -0.022393934189742351 6.5553133374957143e-05 0 -0.010697815571609119 0.0052335373769986744 0 -0.010942917532423768 0.0048317582434994899 0 -0.011382935676340635 0.0048480329298801932 0 -0.01498746462090403 0.0054868528717663505 0 -0.01281408933468167 0.0038981160846441767 0 -0.016822065832119419 0.0021702966762573279 0 -0.015366603813658399 0.0020805313255576404 0 -0.014595900416939016 0.003330977273377582 0 -0.016822065832119419 0.0021702966762573279 0 -0.015366603813658399 0.0020805313255576404 0 -0.016841576353273553 0.0016334201877247875 0 -0.021671050424917512 -0.00082491476117235089 0 -0.020792795923253667 -0.0016036492651758702 0 -0.015366603813658399 0.0020805313255576404 0 -0.016841576353273553 0.0016334201877247875 0 -0.014900994917805596 0.00073552201865689196 0 -0.027697240662896163 -0.0036932770671947433 0 -0.027945179690338322 -0.0032298452234430629 0 -0.027276807928440009 -0.0035527389551313214 0 -0.028581891411564198 -0.005164279636354633 0 -0.021671050424917512 -0.00082491476117235089 0 -0.028007436120830554 -0.003995141847282598 0 -0.027697240662896163 -0.0036932770671947433 0 -0.027945179690338322 -0.0032298452234430629 0 -0.028007436120830554 -0.003995141847282598 0 -0.027998661618417686 -0.0043468854312387313 0 -0.028143812128190716 -0.0044807318067089652 0 -0.027872770238450223 -0.0042931076913126781 0 -0.027998661618417686 -0.0043468854312387313 0 -0.028054520265905949 -0.004520032890654605 0 -0.027998661618417686 -0.0043468854312387313 0 -0.028054520265905949 -0.004520032890654605 0 -0.028143812128190716 -0.0044807318067089652 0 -0.022393934189742351 6.5553133374957143e-05 0 -0.021671050424917512 -0.00082491476117235089 0 -0.016742947402478826 0.0024410790602925631 0 -0.016685881605556313 0.0024695605950377435 0 -0.016757269034136806 0.002497274860322253 0 -0.01498746462090403 0.0054868528717663505 0 -0.021671050424917512 -0.00082491476117235089 0 -0.01214958873477574 0.0043999476443553386 0 -0.012107911108985816 0.0043406209189778937 0 -0.012186258560863895 0.0043914707903803312 0 -0.014586537817387236 0.0022427068138804042 0 -0.012207983968974987 0.0036858212763388617 0 -0.013077808950182603 -0.00010691271350105493 0 -0.01280898038284444 0.0011600931471846877 0 -0.013922314590760864 0.0015063945574553697 0 -0.012188914500196298 0.0044347158903060733 0 -0.01214958873477574 0.0043999476443553386 0 -0.012186258560863895 0.0043914707903803312 0 -0.014586537817387236 0.0022427068138804042 0 -0.013055669721977739 0.0019259366019631901 0 -0.017923844445636373 0.0018901065367874915 0 -0.014586537817387236 0.0022427068138804042 0 -0.021838105363735309 -0.00048026308773451017 0 -0.014586537817387236 0.0022427068138804042 0 -0.013077808950182603 -0.00010691271350105493 0 -0.014900994917805596 0.00073552201865689196 0 -0.013922314590760864 0.0015063945574553697 0 -0.015366603813658399 0.0020805313255576404 0 -0.014900994917805596 0.00073552201865689196 0 -0.013922314590760864 0.0015063945574553697 0 -0.01280898038284444 0.0011600931471846877 0 -0.013922314590760864 0.0015063945574553697 0 -0.013366181221121074 0.0026411055100128288 0 -0.013922314590760864 0.0015063945574553697 0 -0.013366181221121074 0.0026411055100128288 0 -0.014315723187247069 0.0023829250390636218 0 -0.014595900416939016 0.003330977273377582 0 -0.013117341292720814 0.0031564016806129441 0 -0.01280506604552941 0.0035675499793385275 0 -0.015366603813658399 0.0020805313255576404 0 -0.013922314590760864 0.0015063945574553697 0 -0.014315723187247069 0.0023829250390636218 0 -0.015366603813658399 0.0020805313255576404 0 -0.014315723187247069 0.0023829250390636218 0 -0.014595900416939016 0.003330977273377582 0 -0.013366181221121074 0.0026411055100128288 0 -0.014315723187247069 0.0023829250390636218 0 -0.014595900416939016 0.003330977273377582 0 -0.013366181221121074 0.0026411055100128288 0 -0.014595900416939016 0.003330977273377582 0 -0.013117341292720814 0.0031564016806129441 0 -0.012614634448817674 0.0010671663324139894 0 -0.013366181221121074 0.0026411055100128288 0 -0.012305854409986425 0.0027240526323560419 0 -0.013366181221121074 0.0026411055100128288 0 -0.013117341292720814 0.0031564016806129441 0 -0.012305854409986425 0.0027240526323560419 0 -0.013117341292720814 0.0031564016806129441 0 -0.012305854409986425 0.0027240526323560419 0 -0.01280506604552941 0.0035675499793385275 0 -0.012107911108985816 0.0043406209189778937 0 -0.012100005328365342 0.004309380459151981 0 -0.012143072029355471 0.0043422545877076701 0 -0.014595900416939016 0.003330977273377582 0 -0.01280506604552941 0.0035675499793385275 0 -0.012142131552725654 0.0043576143361852291 0 -0.012107911108985816 0.0043406209189778937 0 -0.011998278475308585 0.0042681554745394364 0 -0.012100005328365342 0.004309380459151981 0 -0.01280506604552941 0.0035675499793385275 0 -0.011998278475308585 0.0042681554745394364 0 -0.012142131552725654 0.0043576143361852291 0 -0.012305854409986425 0.0027240526323560419 0 -0.01280506604552941 0.0035675499793385275 0 -0.011998278475308585 0.0042681554745394364 0 -0.012207983968974987 0.0036858212763388617 0 -0.012052667465127934 0.0041274994295782781 0 -0.011952541951349233 0.0043024412150026604 0 -0.012142131552725654 0.0043576143361852291 0 -0.011785938752989682 0.004409888806475951 0 -0.011952541951349233 0.0043024412150026604 0 -0.011785938752989682 0.004409888806475951 0 -0.011856807583262565 0.00421280740482917 0 -0.011952541951349233 0.0043024412150026604 0 -0.01200989166747572 0.0042591915188063077 0 -0.011856807583262565 0.00421280740482917 0 -0.011952541951349233 0.0043024412150026604 0 -0.01200989166747572 0.0042591915188063077 0 -0.012142131552725654 0.0043576143361852291 0 -0.01200989166747572 0.0042591915188063077 0 -0.012039473001988122 0.0042840276709208459 0 -0.012142131552725654 0.0043576143361852291 0 -0.01200989166747572 0.0042591915188063077 0 -0.012039473001988122 0.0042840276709208459 0 -0.012030951979672494 0.0042098289355799526 0 -0.012039473001988122 0.0042840276709208459 0 -0.012030951979672494 0.0042098289355799526 0 -0.012055764696603084 0.0042377781366174528 0 -0.012039473001988122 0.0042840276709208459 0 -0.011998278475308585 0.0042681554745394364 0 -0.012055764696603084 0.0042377781366174528 0 -0.012039473001988122 0.0042840276709208459 0 -0.011998278475308585 0.0042681554745394364 0 -0.012142131552725654 0.0043576143361852291 0 -0.011382935676340635 0.0048480329298801932 0 -0.012142131552725654 0.0043576143361852291 0 -0.011785938752989682 0.004409888806475951 0 -0.01281408933468167 0.0038981160846441767 0 -0.012258531636093232 0.0043908585383961411 0 -0.011382935676340635 0.0048480329298801932 0 -0.011785938752989682 0.004409888806475951 0 -0.011494840454185957 0.004418558030603508 0 -0.011785938752989682 0.004409888806475951 0 -0.011494840454185957 0.004418558030603508 0 -0.011653935031665516 0.0042432743293803893 0 -0.011785938752989682 0.004409888806475951 0 -0.011653935031665516 0.0042432743293803893 0 -0.011856807583262565 0.00421280740482917 0 -0.011402380173425429 0.0037816813919754268 0 -0.011456914956998845 0.0041118532953021876 0 -0.011739752531452827 0.0040067807769376242 0 -0.011494840454185957 0.004418558030603508 0 -0.011456914956998845 0.0041118532953021876 0 -0.011653935031665516 0.0042432743293803893 0 -0.011456914956998845 0.0041118532953021876 0 -0.011653935031665516 0.0042432743293803893 0 -0.011739752531452827 0.0040067807769376242 0 -0.011945400831843577 0.0041406309662972828 0 -0.011938267953823885 0.004026482265782695 0 -0.012021090193828214 0.0041106164984672112 0 -0.011945400831843577 0.0041406309662972828 0 -0.012030951979672494 0.0042098289355799526 0 -0.012021090193828214 0.0041106164984672112 0 -0.01200989166747572 0.0042591915188063077 0 -0.011945400831843577 0.0041406309662972828 0 -0.012030951979672494 0.0042098289355799526 0 -0.011945400831843577 0.0041406309662972828 0 -0.011856807583262565 0.00421280740482917 0 -0.011739752531452827 0.0040067807769376242 0 -0.01200989166747572 0.0042591915188063077 0 -0.011945400831843577 0.0041406309662972828 0 -0.011856807583262565 0.00421280740482917 0 -0.011653935031665516 0.0042432743293803893 0 -0.011856807583262565 0.00421280740482917 0 -0.011739752531452827 0.0040067807769376242 0 -0.011945400831843577 0.0041406309662972828 0 -0.011739752531452827 0.0040067807769376242 0 -0.011938267953823885 0.004026482265782695 0 -0.011915361274270826 0.0038854927717907285 0 -0.011938267953823885 0.004026482265782695 0 -0.012030070262260589 0.0039779666276501735 0 -0.011915361274270826 0.0038854927717907285 0 -0.011739752531452827 0.0040067807769376242 0 -0.011938267953823885 0.004026482265782695 0 -0.012030070262260589 0.0039779666276501735 0 -0.012109711572783115 0.0040966905073312639 0 -0.012021090193828214 0.0041106164984672112 0 -0.011938267953823885 0.004026482265782695 0 -0.012030070262260589 0.0039779666276501735 0 -0.012021090193828214 0.0041106164984672112 0 -0.012121151665225932 0.0039985464413853002 0 -0.012109711572783115 0.0040966905073312639 0 -0.012203939091991847 0.0040518666901890547 0 -0.012139891541698549 0.0038921888543972799 0 -0.012030070262260589 0.0039779666276501735 0 -0.012121151665225932 0.0039985464413853002 0 -0.012030070262260589 0.0039779666276501735 0 -0.012121151665225932 0.0039985464413853002 0 -0.012109711572783115 0.0040966905073312639 0 -0.012139891541698549 0.0038921888543972799 0 -0.012121151665225932 0.0039985464413853002 0 -0.012203939091991847 0.0040518666901890547 0 -0.012109711572783115 0.0040966905073312639 0 -0.012141398140613602 0.0042126010026738809 0 -0.012203939091991847 0.0040518666901890547 0 -0.012109711572783115 0.0040966905073312639 0 -0.012021090193828214 0.0041106164984672112 0 -0.012074757119621037 0.004174158783242227 0 -0.012109711572783115 0.0040966905073312639 0 -0.012074757119621037 0.004174158783242227 0 -0.012141398140613602 0.0042126010026738809 0 -0.012030951979672494 0.0042098289355799526 0 -0.012021090193828214 0.0041106164984672112 0 -0.012074757119621037 0.004174158783242227 0 -0.012055764696603084 0.0042377781366174528 0 -0.012141398140613602 0.0042126010026738809 0 -0.012100075167693626 0.0042682631280408119 0 -0.012030951979672494 0.0042098289355799526 0 -0.012074757119621037 0.004174158783242227 0 -0.012055764696603084 0.0042377781366174528 0 -0.012074757119621037 0.004174158783242227 0 -0.012055764696603084 0.0042377781366174528 0 -0.012141398140613602 0.0042126010026738809 0 -0.011998278475308585 0.0042681554745394364 0 -0.012055764696603084 0.0042377781366174528 0 -0.012100075167693626 0.0042682631280408119 0 -0.012141398140613602 0.0042126010026738809 0 -0.012100075167693626 0.0042682631280408119 0 -0.012186803954578718 0.004310368837124586 0 -0.012141398140613602 0.0042126010026738809 0 -0.012297162428053595 0.0041944961073261938 0 -0.012186803954578718 0.004310368837124586 0 -0.012100075167693626 0.0042682631280408119 0 -0.012100005328365342 0.004309380459151981 0 -0.012186803954578718 0.004310368837124586 0 -0.011998278475308585 0.0042681554745394364 0 -0.012100075167693626 0.0042682631280408119 0 -0.012100005328365342 0.004309380459151981 0 -0.012297162428053595 0.0041944961073261938 0 -0.012438065574072297 0.0042415664553888685 0 -0.012334676702915751 0.0043188643266062633 0 -0.012297162428053595 0.0041944961073261938 0 -0.012186803954578718 0.004310368837124586 0 -0.012334676702915751 0.0043188643266062633 0 -0.012141398140613602 0.0042126010026738809 0 -0.012297162428053595 0.0041944961073261938 0 -0.012203939091991847 0.0040518666901890547 0 -0.012297162428053595 0.0041944961073261938 0 -0.01233038923996195 0.0040670181714682046 0 -0.012465498024491893 0.0040912520289372754 0 -0.012139891541698549 0.0038921888543972799 0 -0.012203939091991847 0.0040518666901890547 0 -0.012364180175545247 0.0039358501023736975 0 -0.012297162428053595 0.0041944961073261938 0 -0.01233038923996195 0.0040670181714682046 0 -0.012203939091991847 0.0040518666901890547 0 -0.01233038923996195 0.0040670181714682046 0 -0.012203939091991847 0.0040518666901890547 0 -0.012364180175545247 0.0039358501023736975 0 -0.012496751014579198 0.0039177113525525947 0 -0.012465498024491893 0.0040912520289372754 0 -0.012659268426028285 0.0040258412549243295 0 -0.012364180175545247 0.0039358501023736975 0 -0.012496751014579198 0.0039177113525525947 0 -0.012465498024491893 0.0040912520289372754 0 -0.01233038923996195 0.0040670181714682046 0 -0.012364180175545247 0.0039358501023736975 0 -0.012465498024491893 0.0040912520289372754 0 -0.010806785473671983 0.002647351424615944 0 -0.010769057420997517 0.0029361248026412252 0 -0.010970909703246953 0.002918310363482893 0 -0.011347922163058518 0.0034787981583521976 0 -0.01518282118993637 0.0031009489800423286 0 -0.012465498024491893 0.0040912520289372754 0 -0.012659268426028285 0.0040258412549243295 0 -0.012582942015424155 0.0042065245661938519 0 -0.010769057420997517 0.0029361248026412252 0 -0.010970909703246953 0.002918310363482893 0 -0.010969710271445011 0.0034104604423011121 0 -0.012659268426028285 0.0040258412549243295 0 -0.012582942015424155 0.0042065245661938519 0 -0.012763725192308173 0.0042711942288716134 0 -0.012297162428053595 0.0041944961073261938 0 -0.012465498024491893 0.0040912520289372754 0 -0.012438065574072297 0.0042415664553888685 0 -0.012465498024491893 0.0040912520289372754 0 -0.012582942015424155 0.0042065245661938519 0 -0.012438065574072297 0.0042415664553888685 0 -0.012582942015424155 0.0042065245661938519 0 -0.012438065574072297 0.0042415664553888685 0 -0.012501619880230679 0.0043864509467662861 0 -0.012438065574072297 0.0042415664553888685 0 -0.012501619880230679 0.0043864509467662861 0 -0.012334676702915751 0.0043188643266062633 0 -0.015844698395919371 0.0034767498243023663 0 -0.01518282118993637 0.0031009489800423286 0 -0.012582942015424155 0.0042065245661938519 0 -0.012501619880230679 0.0043864509467662861 0 -0.012763725192308173 0.0042711942288716134 0 -0.018881562684321576 0.0025954425549343215 0 -0.018570672960479442 0.0025423980812279033 0 -0.018392292016739812 0.0028139264200286486 0 -0.018881562684321576 0.0025954425549343215 0 -0.018563731672158839 0.0022954917729625713 0 -0.018828362477339902 0.0021322262188145356 0 -0.018881562684321576 0.0025954425549343215 0 -0.018570672960479442 0.0025423980812279033 0 -0.018563731672158839 0.0022954917729625713 0 -0.018570672960479442 0.0025423980812279033 0 -0.018563731672158839 0.0022954917729625713 0 -0.018305244163854938 0.0025012514034670535 0 -0.018563731672158839 0.0022954917729625713 0 -0.018390652024486524 0.0022619851316331911 0 -0.018543496629990983 0.0021005176639549931 0 -0.018881562684321576 0.0025954425549343215 0 -0.019126500471931037 0.0022314864733744156 0 -0.018828362477339902 0.0021322262188145356 0 -0.015844698395919371 0.0034767498243023663 0 -0.015386171468258627 0.003676668915817883 0 -0.018881562684321576 0.0025954425549343215 0 -0.019364714171165177 0.0023957392837402631 0 -0.019126500471931037 0.0022314864733744156 0 -0.012188914500196298 0.0044347158903060733 0 -0.012279838639894378 0.0044365272699453317 0 -0.012186258560863895 0.0043914707903803312 0 -0.017923844445636373 0.0018901065367874915 0 -0.015386171468258627 0.003676668915817883 0 -0.012279838639894378 0.0044365272699453317 0 -0.012186258560863895 0.0043914707903803312 0 -0.012186803954578718 0.004310368837124586 0 -0.012186258560863895 0.0043914707903803312 0 -0.012143072029355471 0.0043422545877076701 0 -0.012186803954578718 0.004310368837124586 0 -0.012107911108985816 0.0043406209189778937 0 -0.012186258560863895 0.0043914707903803312 0 -0.012143072029355471 0.0043422545877076701 0 -0.012100005328365342 0.004309380459151981 0 -0.012143072029355471 0.0043422545877076701 0 -0.012186803954578718 0.004310368837124586 0 -0.012279838639894378 0.0044365272699453317 0 -0.012186803954578718 0.004310368837124586 0 -0.012334676702915751 0.0043188643266062633 0 -0.012501619880230679 0.0043864509467662861 0 -0.012279838639894378 0.0044365272699453317 0 -0.012334676702915751 0.0043188643266062633 0 -0.01994418414730461 -0.00053190684416246222 0 -0.017651337304745069 -0.001443943181092122 0 -0.018397045429554629 -0.0002040817480570837 0 -0.018420137136543474 -0.00050739866244184687 0 -0.018338011396047366 -0.0018701337560101923 0 -0.020199414163420387 -0.0026302037661732813 0 -0.01994418414730461 -0.00053190684416246222 0 -0.017651337304745069 -0.001443943181092122 0 -0.018766475398334915 -0.0019606489851953716 0 -0.01790496529063559 -0.0026324952336957068 0 -0.017651337304745069 -0.001443943181092122 0 -0.018420137136543474 -0.00050739866244184687 0 -0.014121019709857179 0.0023988588872266951 0 -0.016284412678669001 0.0013779079682571162 0 -0.016234544112086188 0.0019456333606904972 0 -0.015791900158318477 0.001619834587387399 0 -0.014353013263358552 0.0024365442250776572 0 -0.014121019709857179 0.0023988588872266951 0 -0.012773986120687227 0.00531604425870634 0 -0.010043416874164315 0.0055978798035474214 0 -0.0088868773759926585 0.0041747611615625731 0 -0.012773986120687227 0.00531604425870634 0 -0.010043416874164315 0.0055978798035474214 0 -0.0073842956870574274 0.0080390593428624306 0 -0.01790496529063559 -0.0026324952336957068 0 -0.016826508369832623 -0.0016291027770634662 0 -0.015730028433539045 -0.0017191908861927158 0 -0.014121019709857179 0.0023988588872266951 0 -0.012490219509860966 0.0030783212414588266 0 -0.0088868773759926585 0.0041747611615625731 0 -0.0088480249669295723 0.0051447966038370438 0 -0.0081346817018475102 0.0047579575622445315 0 -0.0073753776305032241 0.0039777259452617843 0 -0.0088868773759926585 0.0041747611615625731 0 -0.0081346817018475102 0.0047579575622445315 0 -0.010043416874164315 0.0055978798035474214 0 -0.0088868773759926585 0.0041747611615625731 0 -0.0088480249669295723 0.0051447966038370438 0 -0.010043416874164315 0.0055978798035474214 0 -0.0088480249669295723 0.0051447966038370438 0 -0.0086772664260981094 0.0060870731447382658 0 -0.0088480249669295723 0.0051447966038370438 0 -0.0081702027978731301 0.0055410922337649025 0 -0.0081346817018475102 0.0047579575622445315 0 -0.0088480249669295723 0.0051447966038370438 0 -0.0086772664260981094 0.0060870731447382658 0 -0.0081702027978731301 0.0055410922337649025 0 -0.0086772664260981094 0.0060870731447382658 0 -0.0079999357772246905 0.0064628274721256745 0 -0.0081702027978731301 0.0055410922337649025 0 -0.010043416874164315 0.0055978798035474214 0 -0.0086772664260981094 0.0060870731447382658 0 -0.0073842956870574274 0.0080390593428624306 0 -0.01790496529063559 -0.0026324952336957068 0 -0.016826508369832623 -0.0016291027770634662 0 -0.017651337304745069 -0.001443943181092122 0 -0.016826508369832623 -0.0016291027770634662 0 -0.015730028433539045 -0.0017191908861927158 0 -0.015844597221299616 -0.0015953221080814181 0 -0.016826508369832623 -0.0016291027770634662 0 -0.017651337304745069 -0.001443943181092122 0 -0.016888083458378448 -0.00043683936392277409 0 -0.017651337304745069 -0.001443943181092122 0 -0.016888083458378448 -0.00043683936392277409 0 -0.018397045429554629 -0.0002040817480570837 0 -0.016826508369832623 -0.0016291027770634662 0 -0.015844597221299616 -0.0015953221080814181 0 -0.016888083458378448 -0.00043683936392277409 0 -0.014331671339172403 0.0017302358643808812 0 -0.016927703269063246 -0.00042703499361222745 0 -0.018067133327461477 0.0025724680443612513 0 -0.01801224308992597 0.0026159171802022066 0 -0.018041953022412936 0.0025562748875802978 0 -0.018067133327461477 0.0025724680443612513 0 -0.01801857409963057 0.0026315703574473557 0 -0.018165609418543321 0.0025572063482962627 0 -0.018067133327461477 0.0025724680443612513 0 -0.01801857409963057 0.0026315703574473557 0 -0.01801224308992597 0.0026159171802022066 0 -0.012490219509860966 0.0030783212414588266 0 -0.014331671339172403 0.0017302358643808812 0 -0.0038053805654231008 0.0049633739750256081 0 -0.012490219509860966 0.0030783212414588266 0 -0.0047296656474525595 0.0032619827639168326 0 -0.0073842956870574274 0.0080390593428624306 0 -0.0065273731065409752 0.0053286237819325094 0 -0.0076447390931699399 0.0030291648966072325 0 -0.012490219509860966 0.0030783212414588266 0 -0.0086772664260981094 0.0060870731447382658 0 -0.0073842956870574274 0.0080390593428624306 0 -0.0079999357772246905 0.0064628274721256745 0 -0.0073842956870574274 0.0080390593428624306 0 -0.0071840337591612983 0.0062118200974385631 0 -0.0065273731065409752 0.0053286237819325094 0 -0.0073842956870574274 0.0080390593428624306 0 -0.0075682748831546343 0.0066949034659410144 0 -0.0071840337591612983 0.0062118200974385631 0 -0.011084363146042274 0.0027197013795310456 0 -0.011490492910065009 0.003141584284631281 0 -0.011196548921207692 0.0028995765870025122 0 -0.0073842956870574274 0.0080390593428624306 0 -0.0075682748831546343 0.0066949034659410144 0 -0.0079999357772246905 0.0064628274721256745 0 -0.0035773653814518652 0.0040042103772181762 0 -0.0047296656474525595 0.0032619827639168326 0 -0.0071420404937233848 0.0077489341655422716 0 -0.0071840337591612983 0.0062118200974385631 0 -0.0076164216908163234 0.0061111509706242911 0 -0.0072304602503867116 0.0055365083552139397 0 -0.0076164216908163234 0.0061111509706242911 0 -0.0081702027978731301 0.0055410922337649025 0 -0.0072304602503867116 0.0055365083552139397 0 -0.0079999357772246905 0.0064628274721256745 0 -0.0076164216908163234 0.0061111509706242911 0 -0.0081702027978731301 0.0055410922337649025 0 -0.0075682748831546343 0.0066949034659410144 0 -0.0071840337591612983 0.0062118200974385631 0 -0.0076164216908163234 0.0061111509706242911 0 -0.0075682748831546343 0.0066949034659410144 0 -0.0079999357772246905 0.0064628274721256745 0 -0.0076164216908163234 0.0061111509706242911 0 -0.0081702027978731301 0.0055410922337649025 0 -0.0073924224104886388 0.0049573849595909835 0 -0.0072304602503867116 0.0055365083552139397 0 -0.0081702027978731301 0.0055410922337649025 0 -0.0073924224104886388 0.0049573849595909835 0 -0.0081346817018475102 0.0047579575622445315 0 -0.0071840337591612983 0.0062118200974385631 0 -0.0065273731065409752 0.0053286237819325094 0 -0.0072304602503867116 0.0055365083552139397 0 -0.0073924224104886388 0.0049573849595909835 0 -0.0065273731065409752 0.0053286237819325094 0 -0.0072304602503867116 0.0055365083552139397 0 -0.0073753776305032241 0.0039777259452617843 0 -0.0073924224104886388 0.0049573849595909835 0 -0.0062939795584173929 0.0043514328466475868 0 -0.0073924224104886388 0.0049573849595909835 0 -0.0065273731065409752 0.0053286237819325094 0 -0.0062939795584173929 0.0043514328466475868 0 -0.0073753776305032241 0.0039777259452617843 0 -0.0073924224104886388 0.0049573849595909835 0 -0.0081346817018475102 0.0047579575622445315 0 -0.0047296656474525595 0.0032619827639168326 0 -0.0065273731065409752 0.0053286237819325094 0 -0.0062939795584173929 0.0043514328466475868 0 -0.0076447390931699399 0.0030291648966072325 0 -0.010025844689736571 0.0035773320861896231 0 -0.011090673152775486 0.0027232026994954629 0 -0.011196548921207692 0.0028995765870025122 0 -0.010970909703246953 0.002918310363482893 0 -0.011090673152775486 0.0027232026994954629 0 -0.010806785473671983 0.002647351424615944 0 -0.010970909703246953 0.002918310363482893 0 -0.012490219509860966 0.0030783212414588266 0 -0.01518282118993637 0.0031009489800423286 0 -0.01801857409963057 0.0026315703574473557 0 -0.018273768740132409 0.0025903002472838915 0 -0.018165609418543321 0.0025572063482962627 0 -0.011196548921207692 0.0028995765870025122 0 -0.010970909703246953 0.002918310363482893 0 -0.010969710271445011 0.0034104604423011121 0 -0.011490492910065009 0.003141584284631281 0 -0.011196548921207692 0.0028995765870025122 0 -0.010969710271445011 0.0034104604423011121 0 -0.018273768740132409 0.0025903002472838915 0 -0.018165609418543321 0.0025572063482962627 0 -0.018305244163854938 0.0025012514034670535 0 -0.01518282118993637 0.0031009489800423286 0 -0.017900748422983549 0.0028502816663570902 0 -0.018165609418543321 0.0025572063482962627 0 -0.018305244163854938 0.0025012514034670535 0 -0.018147819018747385 0.0024736812335055744 0 -0.018570672960479442 0.0025423980812279033 0 -0.018392292016739812 0.0028139264200286486 0 -0.018305244163854938 0.0025012514034670535 0 -0.018563731672158839 0.0022954917729625713 0 -0.018305244163854938 0.0025012514034670535 0 -0.018390652024486524 0.0022619851316331911 0 -0.018390652024486524 0.0022619851316331911 0 -0.018235638382859756 0.0023604150416911131 0 -0.018291154114711022 0.0021448106254618317 0 -0.018305244163854938 0.0025012514034670535 0 -0.018235638382859756 0.0023604150416911131 0 -0.018147819018747385 0.0024736812335055744 0 -0.018305244163854938 0.0025012514034670535 0 -0.018390652024486524 0.0022619851316331911 0 -0.018235638382859756 0.0023604150416911131 0 -0.018235638382859756 0.0023604150416911131 0 -0.018051979634220415 0.0023988695885213784 0 -0.018147819018747385 0.0024736812335055744 0 -0.018551552492879202 0.0022996019886697421 0 -0.018231156165653982 0.0023068550667173786 0 -0.018235638382859756 0.0023604150416911131 0 -0.018051979634220415 0.0023988695885213784 0 -0.018291154114711022 0.0021448106254618317 0 -0.018067133327461477 0.0025724680443612513 0 -0.017946265670485451 0.0026210595918351219 0 -0.018041953022412936 0.0025562748875802978 0 -0.018067133327461477 0.0025724680443612513 0 -0.018109191961587553 0.0024385045186886838 0 -0.018147819018747385 0.0024736812335055744 0 -0.017946265670485451 0.0026210595918351219 0 -0.018041953022412936 0.0025562748875802978 0 -0.018034346172975304 0.0025795082297055392 0 -0.017990306753730766 0.0026605960992097323 0 -0.018551552492879202 0.0022996019886697421 0 -0.018067133327461477 0.0025724680443612513 0 -0.018165609418543321 0.0025572063482962627 0 -0.018147819018747385 0.0024736812335055744 0 -0.016148695029683816 -0.0014034534171024117 0 -0.017241271117599873 -0.00021683942270379108 0 -0.017254179598811266 0.00066324848062732447 0 -0.014331671339172403 0.0017302358643808812 0 -0.017988755843627632 0.0015373831738833732 0 -0.01801224308992597 0.0026159171802022066 0 -0.018041953022412936 0.0025562748875802978 0 -0.018087502792697181 0.0025045129576805052 0 -0.016888083458378448 -0.00043683936392277409 0 -0.018442867080982427 0.0010169601914570361 0 -0.018397045429554629 -0.0002040817480570837 0 -0.016927703269063246 -0.00042703499361222745 0 -0.018275012640149035 0.00090835488835683026 0 -0.017241271117599873 -0.00021683942270379108 0 -0.017254179598811266 0.00066324848062732447 0 -0.018442867080982427 0.0010169601914570361 0 -0.018041953022412936 0.0025562748875802978 0 -0.018087502792697181 0.0025045129576805052 0 -0.018034346172975304 0.0025795082297055392 0 -0.018087502792697181 0.0025045129576805052 0 -0.018034346172975304 0.0025795082297055392 0 -0.018087976259952961 0.0027141375052043698 0 -0.017988755843627632 0.0015373831738833732 0 -0.018497381069292069 0.0029355382203411786 0 -0.017946265670485451 0.0026210595918351219 0 -0.018034346172975304 0.0025795082297055392 0 -0.018087976259952961 0.0027141375052043698 0 -0.018087502792697181 0.0025045129576805052 0 -0.018087976259952961 0.0027141375052043698 0 -0.018654507470369428 0.003013441728283241 0 -0.017946265670485451 0.0026210595918351219 0 -0.018087976259952961 0.0027141375052043698 0 -0.018177441735716702 0.0029657662819981274 0 -0.018551552492879202 0.0022996019886697421 0 -0.019487202271281149 0.0027267761971639772 0 -0.018087976259952961 0.0027141375052043698 0 -0.018177441735716702 0.0029657662819981274 0 -0.018654507470369428 0.003013441728283241 0 -0.018746525805664264 0.0018099760127409004 0 -0.01964993182969068 0.001425096146176766 0 -0.018442867080982427 0.0010169601914570361 0 -0.017254179598811266 0.00066324848062732447 0 -0.018746525805664264 0.0018099760127409004 0 -0.018654507470369428 0.003013441728283241 0 -0.018746525805664264 0.0018099760127409004 0 -0.019754972370735438 0.0025107195704792925 0 -0.018654507470369428 0.003013441728283241 0 -0.018746525805664264 0.0018099760127409004 0 -0.019754972370735438 0.0025107195704792925 0 -0.01964993182969068 0.001425096146176766 0 -0.020382492874107719 0.00074135687885866844 0 -0.01964993182969068 0.001425096146176766 0 -0.019362791447029307 0.0005035698145570796 0 -0.01964993182969068 0.001425096146176766 0 -0.019362791447029307 0.0005035698145570796 0 -0.018442867080982427 0.0010169601914570361 0 -0.01994418414730461 -0.00053190684416246222 0 -0.020382492874107719 0.00074135687885866844 0 -0.019362791447029307 0.0005035698145570796 0 -0.017254179598811266 0.00066324848062732447 0 -0.018746525805664264 0.0018099760127409004 0 -0.018442867080982427 0.0010169601914570361 0 -0.019362791447029307 0.0005035698145570796 0 -0.018442867080982427 0.0010169601914570361 0 -0.018397045429554629 -0.0002040817480570837 0 -0.01994418414730461 -0.00053190684416246222 0 -0.019362791447029307 0.0005035698145570796 0 -0.018397045429554629 -0.0002040817480570837 0 -0.027862176184175923 0.0032669237512633416 0 -0.028007633565571642 0.0030448065771594129 0 -0.028167911848460198 0.0032013337837241457 0 -0.024114464453806456 0.0036228082818003577 0 -0.026273688438382129 0.0030198573233658436 0 -0.023246958668020408 0.0030805216092506739 0 -0.023558503993673256 0.0033177599044515939 0 -0.023962129126679152 0.0029230753025932788 0 -0.028007633565571642 0.0030448065771594129 0 -0.028167911848460198 0.0032013337837241457 0 -0.028263645971968822 0.003029591119362698 0 -0.024114464453806456 0.0036228082818003577 0 -0.021398407932459795 0.0032699778860338239 0 -0.020136484185452885 0.0048188915829898019 0 -0.019174068211738744 0.0040611115178518778 0 -0.019733511504019335 0.0039722671697340001 0 -0.019179615682470806 0.0039506189845220458 0 -0.019733511504019335 0.0039722671697340001 0 -0.01936443196464032 0.0032927141397890375 0 -0.021398407932459795 0.0032699778860338239 0 -0.020416322108328396 0.0035048595745780418 0 -0.019754972370735438 0.0025107195704792925 0 -0.01936443196464032 0.0032927141397890375 0 -0.018654507470369428 0.003013441728283241 0 -0.02029081016952863 0.0032715137000011792 0 -0.019733511504019335 0.0039722671697340001 0 -0.01936443196464032 0.0032927141397890375 0 -0.02029081016952863 0.0032715137000011792 0 -0.019754972370735438 0.0025107195704792925 0 -0.01936443196464032 0.0032927141397890375 0 -0.019487202271281149 0.0027267761971639772 0 -0.021398407932459795 0.0032699778860338239 0 -0.019179615682470806 0.0039506189845220458 0 -0.01936443196464032 0.0032927141397890375 0 -0.018654507470369428 0.003013441728283241 0 -0.018177441735716702 0.0029657662819981274 0 -0.019179615682470806 0.0039506189845220458 0 -0.018654507470369428 0.003013441728283241 0 -0.021398407932459795 0.0032699778860338239 0 -0.022668959510880479 0.0025808926655464782 0 -0.020848395404311281 0.0024816253936831519 0 -0.021364649343268604 0.0028756066697627242 0 -0.02044158930922595 0.0030250380297807658 0 -0.020322878139183934 0.0020876239460921372 0 -0.020848395404311281 0.0024816253936831519 0 -0.02044158930922595 0.0030250380297807658 0 -0.028167911848460198 0.0032013337837241457 0 -0.028263645971968822 0.003029591119362698 0 -0.028462225108881124 0.0031348737445603286 0 -0.023558503993673256 0.0033177599044515939 0 -0.023962129126679152 0.0029230753025932788 0 -0.024706463722771556 0.0031182548812841654 0 -0.026273688438382129 0.0030198573233658436 0 -0.026693713146774798 0.002392748804158005 0 -0.023962129126679152 0.0029230753025932788 0 -0.024678954784873235 0.0027675163771652377 0 -0.024706463722771556 0.0031182548812841654 0 -0.028263645971968822 0.003029591119362698 0 -0.028462225108881124 0.0031348737445603286 0 -0.028453296035513678 0.0029822062568996715 0 -0.026545583914023316 0.0018532450242968717 0 -0.026530000009758227 0.0018743403682750079 0 -0.026549883570415347 0.0017879224056544995 0 -0.026530947126999868 0.0018528102259884013 0 -0.026554665080118972 0.001852923990416328 0 -0.026545583914023316 0.0018532450242968717 0 -0.028395384860763394 0.0019220996100400844 0 -0.02998888951942395 0.0024031298808870013 0 -0.028598541468773889 0.0018317850549428721 0 -0.028150863356960574 0.0019237513238393035 0 -0.028654082769634038 0.0023314779662008574 0 -0.026693713146774798 0.002392748804158005 0 -0.028395384860763394 0.0019220996100400844 0 -0.026693713146774798 0.002392748804158005 0 -0.02998888951942395 0.0024031298808870013 0 -0.026530947126999868 0.0018528102259884013 0 -0.026545583914023316 0.0018532450242968717 0 -0.026530000009758227 0.0018743403682750079 0 -0.026693713146774798 0.002392748804158005 0 -0.022668959510880479 0.0025808926655464782 0 -0.018551552492879202 0.0022996019886697421 0 -0.022668959510880479 0.0025808926655464782 0 -0.018051979634220415 0.0023988695885213784 0 -0.018043556426582331 0.0019456500603026237 0 -0.018291154114711022 0.0021448106254618317 0 -0.018043556426582331 0.0019456500603026237 0 -0.018291154114711022 0.0021448106254618317 0 -0.018535907800712161 0.0018253835174185131 0 -0.018291154114711022 0.0021448106254618317 0 -0.018543496629990983 0.0021005176639549931 0 -0.018535907800712161 0.0018253835174185131 0 -0.018390652024486524 0.0022619851316331911 0 -0.018291154114711022 0.0021448106254618317 0 -0.018543496629990983 0.0021005176639549931 0 -0.022668959510880479 0.0025808926655464782 0 -0.02209419975717854 0.0017388963212098105 0 -0.030058811052483803 0.0012293244801987624 0 -0.0282140222000303 0.001629837633594376 0 -0.029885621573638894 0.0026115906902924161 0 -0.026554665080118972 0.001852923990416328 0 -0.026572282913145357 0.0018598666314477742 0 -0.026549883570415347 0.0017879224056544995 0 -0.026554665080118972 0.001852923990416328 0 -0.026545583914023316 0.0018532450242968717 0 -0.026549883570415347 0.0017879224056544995 0 -0.028395384860763394 0.0019220996100400844 0 -0.027363899845303095 0.0017747644654118866 0 -0.0282140222000303 0.001629837633594376 0 -0.028608262538993574 0.0034213188901281596 0 -0.026379708228690634 0.0020520059214680546 0 -0.0282140222000303 0.001629837633594376 0 -0.028608262538993574 0.0034213188901281596 0 -0.029885621573638894 0.0026115906902924161 0 -0.03319908868902436 0.0022913171113201039 0 -0.032643537999287806 0.0019603078220358102 0 -0.037820833134384522 0.0010688822887256204 0 -0.037537477030121801 0.00091005597353043368 0 -0.037518802094086756 0.0011387309664842543 0 -0.037820833134384522 0.0010688822887256204 0 -0.037924372572947451 0.0013856916636676888 0 -0.037607344224760648 0.0013545381385842443 0 -0.037820833134384522 0.0010688822887256204 0 -0.037518802094086756 0.0011387309664842543 0 -0.037607344224760648 0.0013545381385842443 0 -0.037924372572947451 0.0013856916636676888 0 -0.038365680909459993 0.0013384739840451886 0 -0.038161096808843109 0.0014973721224001079 0 -0.03319908868902436 0.0022913171113201039 0 -0.03491254445524028 0.00261843426425089 0 -0.037820833134384522 0.0010688822887256204 0 -0.037924372572947451 0.0013856916636676888 0 -0.038365680909459993 0.0013384739840451886 0 -0.038365680909459993 0.0013384739840451886 0 -0.038398883983526658 0.0015725605018787052 0 -0.038161096808843109 0.0014973721224001079 0 -0.029885621573638894 0.0026115906902924161 0 -0.031132940192970405 0.0020831515707523968 0 -0.031439719721488436 0.004721927762972057 0 -0.028608262538993574 0.0034213188901281596 0 -0.029885621573638894 0.0026115906902924161 0 -0.031439719721488436 0.004721927762972057 0 -0.030058811052483803 0.0012293244801987624 0 -0.029885621573638894 0.0026115906902924161 0 -0.031132940192970405 0.0020831515707523968 0 -0.02998888951942395 0.0024031298808870013 0 -0.03491254445524028 0.00261843426425089 0 -0.032483533074825384 0.0016553384733384452 0 -0.033063327812999053 0.0021084024613382988 0 -0.032602339624198763 0.0025370226265261434 0 -0.028263645971968822 0.003029591119362698 0 -0.028453296035513678 0.0029822062568996715 0 -0.028222397806669745 0.0027855733290942076 0 -0.02998888951942395 0.0024031298808870013 0 -0.030577473556612608 0.0023937189881850021 0 -0.032602339624198763 0.0025370226265261434 0 -0.033186564490199064 0.0025314314063671342 0 -0.033445287064961471 0.0029187705076424296 0 -0.03491254445524028 0.00261843426425089 0 -0.036492187582546042 0.0016024316636912392 0 -0.03491254445524028 0.00261843426425089 0 -0.037037218795498011 0.0015520819851133772 0 -0.033063327812999053 0.0021084024613382988 0 -0.032602339624198763 0.0025370226265261434 0 -0.033186564490199064 0.0025314314063671342 0 -0.033063327812999053 0.0021084024613382988 0 -0.033186564490199064 0.0025314314063671342 0 -0.033633505389674662 0.002561264485718921 0 -0.02782553679847324 0.0028415154157986422 0 -0.028222397806669745 0.0027855733290942076 0 -0.027992147260077756 0.0025862942409517154 0 -0.030577473556612608 0.0023937189881850021 0 -0.031652106189496751 0.0028057960136437287 0 -0.033186564490199064 0.0025314314063671342 0 -0.033633505389674662 0.002561264485718921 0 -0.033445287064961471 0.0029187705076424296 0 -0.031652106189496751 0.0028057960136437287 0 -0.036492187582546042 0.0016024316636912392 0 -0.02782553679847324 0.0028415154157986422 0 -0.028007633565571642 0.0030448065771594129 0 -0.028222397806669745 0.0027855733290942076 0 -0.028007633565571642 0.0030448065771594129 0 -0.028263645971968822 0.003029591119362698 0 -0.028222397806669745 0.0027855733290942076 0 -0.02857318150115068 0.00069214094029688305 0 -0.027242113653923303 0.0014380389288300341 0 -0.029520579018307049 0.0018335693904043644 0 -0.019311636365355534 0.0017641945526127652 0 -0.019117148467469851 0.0019616604578997607 0 -0.019149891439166209 0.0016872656579826522 0 -0.02857318150115068 0.00069214094029688305 0 -0.029324664849745271 0.0010436235765216735 0 -0.029520579018307049 0.0018335693904043644 0 -0.02365278609669353 0.0012702941002106464 0 -0.024139436772253754 0.0017638082454104797 0 -0.024099058691113433 0.00066713373668454354 0 -0.02365278609669353 0.0012702941002106464 0 -0.026363297856450217 -0.0003331815613737211 0 -0.02857318150115068 0.00069214094029688305 0 -0.027242113653923303 0.0014380389288300341 0 -0.024099058691113433 0.00066713373668454354 0 -0.032305519998760579 0.00054222956421853298 0 -0.019799358851198819 0.00199314249108745 0 -0.019311636365355534 0.0017641945526127652 0 -0.019454239733830297 0.0020582234248794828 0 -0.019867251944662826 0.0021575259305259557 0 -0.019799358851198819 0.00199314249108745 0 -0.019454239733830297 0.0020582234248794828 0 -0.019867251944662826 0.0021575259305259557 0 -0.019364714171165177 0.0023957392837402631 0 -0.019454239733830297 0.0020582234248794828 0 -0.019364714171165177 0.0023957392837402631 0 -0.019126500471931037 0.0022314864733744156 0 -0.019454239733830297 0.0020582234248794828 0 -0.019311636365355534 0.0017641945526127652 0 -0.019454239733830297 0.0020582234248794828 0 -0.019117148467469851 0.0019616604578997607 0 -0.019126500471931037 0.0022314864733744156 0 -0.019454239733830297 0.0020582234248794828 0 -0.019117148467469851 0.0019616604578997607 0 -0.019126500471931037 0.0022314864733744156 0 -0.018828362477339902 0.0021322262188145356 0 -0.019117148467469851 0.0019616604578997607 0 -0.018828362477339902 0.0021322262188145356 0 -0.019117148467469851 0.0019616604578997607 0 -0.018863424592737873 0.0018928555470498455 0 -0.018828362477339902 0.0021322262188145356 0 -0.018543496629990983 0.0021005176639549931 0 -0.018691929717720698 0.0019872149597654435 0 -0.018563731672158839 0.0022954917729625713 0 -0.018828362477339902 0.0021322262188145356 0 -0.018543496629990983 0.0021005176639549931 0 -0.018828362477339902 0.0021322262188145356 0 -0.018691929717720698 0.0019872149597654435 0 -0.018863424592737873 0.0018928555470498455 0 -0.018543496629990983 0.0021005176639549931 0 -0.018691929717720698 0.0019872149597654435 0 -0.018535907800712161 0.0018253835174185131 0 -0.026572282913145357 0.0018598666314477742 0 -0.026549883570415347 0.0017879224056544995 0 -0.026379708228690634 0.0020520059214680546 0 -0.026549883570415347 0.0017879224056544995 0 -0.025728960338653802 0.0018465473605016405 0 -0.026165332273951441 0.0020597240449620677 0 -0.018691929717720698 0.0019872149597654435 0 -0.018535907800712161 0.0018253835174185131 0 -0.018863424592737873 0.0018928555470498455 0 -0.027363899845303095 0.0017747644654118866 0 -0.026502540244718251 0.0019923602230916865 0 -0.026549883570415347 0.0017879224056544995 0 -0.026379708228690634 0.0020520059214680546 0 -0.026165332273951441 0.0020597240449620677 0 -0.018535907800712161 0.0018253835174185131 0 -0.018863424592737873 0.0018928555470498455 0 -0.019149891439166209 0.0016872656579826522 0 -0.02209419975717854 0.0017388963212098105 0 -0.024139436772253754 0.0017638082454104797 0 -0.024139436772253754 0.0017638082454104797 0 -0.028921433977661996 0.0018741348899977382 0 -0.019117148467469851 0.0019616604578997607 0 -0.018863424592737873 0.0018928555470498455 0 -0.019149891439166209 0.0016872656579826522 0 -0.033399197632565929 0.0013296323659868386 0 -0.032643537999287806 0.0019603078220358102 0 -0.029324664849745271 0.0010436235765216735 0 -0.029520579018307049 0.0018335693904043644 0 -0.030819969636768769 0.0017382225898693376 0 -0.029520579018307049 0.0018335693904043644 0 -0.031857325197920998 0.0022296059134733434 0 -0.030819969636768769 0.0017382225898693376 0 -0.036788283650600474 0.00077993732008092181 0 -0.036990691200077468 0.00087028074818859416 0 -0.037537477030121801 0.00091005597353043368 0 -0.036990691200077468 0.00087028074818859416 0 -0.037279691058194786 0.0010614436641293618 0 -0.037130028762846462 0.0011532651749459552 0 -0.036990691200077468 0.00087028074818859416 0 -0.036964050156482381 0.001175720481334109 0 -0.037130028762846462 0.0011532651749459552 0 -0.036990691200077468 0.00087028074818859416 0 -0.036964050156482381 0.001175720481334109 0 -0.036804481211553511 0.0011890114423960137 0 -0.028608262538993574 0.0034213188901281596 0 -0.027097698833907276 0.0027479007032559979 0 -0.026379708228690634 0.0020520059214680546 0 -0.036990691200077468 0.00087028074818859416 0 -0.037537477030121801 0.00091005597353043368 0 -0.037279691058194786 0.0010614436641293618 0 -0.027097698833907276 0.0027479007032559979 0 -0.026379708228690634 0.0020520059214680546 0 -0.026165332273951441 0.0020597240449620677 0 -0.032643537999287806 0.0019603078220358102 0 -0.028921433977661996 0.0018741348899977382 0 -0.037537477030121801 0.00091005597353043368 0 -0.037279691058194786 0.0010614436641293618 0 -0.037518802094086756 0.0011387309664842543 0 -0.037518802094086756 0.0011387309664842543 0 -0.037312583788626029 0.0012885658995934429 0 -0.037607344224760648 0.0013545381385842443 0 -0.037279691058194786 0.0010614436641293618 0 -0.037518802094086756 0.0011387309664842543 0 -0.037312583788626029 0.0012885658995934429 0 -0.037279691058194786 0.0010614436641293618 0 -0.037312583788626029 0.0012885658995934429 0 -0.037130028762846462 0.0011532651749459552 0 -0.037312583788626029 0.0012885658995934429 0 -0.037607344224760648 0.0013545381385842443 0 -0.037409370529272422 0.0016382259592749155 0 -0.036964050156482381 0.001175720481334109 0 -0.036871235772691476 0.0013567547382355026 0 -0.036804481211553511 0.0011890114423960137 0 -0.036964050156482381 0.001175720481334109 0 -0.037130028762846462 0.0011532651749459552 0 -0.037090761172099876 0.0013396323281554563 0 -0.037312583788626029 0.0012885658995934429 0 -0.037130028762846462 0.0011532651749459552 0 -0.037090761172099876 0.0013396323281554563 0 -0.037090761172099876 0.0013396323281554563 0 -0.037045574754738922 0.0015525871456248141 0 -0.037214457364752332 0.0015123332660709045 0 -0.037312583788626029 0.0012885658995934429 0 -0.037090761172099876 0.0013396323281554563 0 -0.037214457364752332 0.0015123332660709045 0 -0.037090761172099876 0.0013396323281554563 0 -0.036871235772691476 0.0013567547382355026 0 -0.037045574754738922 0.0015525871456248141 0 -0.036964050156482381 0.001175720481334109 0 -0.037090761172099876 0.0013396323281554563 0 -0.036871235772691476 0.0013567547382355026 0 -0.037575964431475636 0.0012718080935069963 0 -0.037654907886800981 0.0016099176257103648 0 -0.039612359056707007 0.0018670816115627664 0 -0.039684933494474245 0.0017078625265268519 0 -0.039527134706704714 0.0016667981760325713 0 -0.036860702989134547 0.001193119979790682 0 -0.037654907886800981 0.0016099176257103648 0 -0.03666845600182362 0.0012831492205902944 0 -0.036582792128741812 0.0011506167225109614 0 -0.036754088363219112 0.0015163959182926876 0 -0.036871235772691476 0.0013567547382355026 0 -0.03666845600182362 0.0012831492205902944 0 -0.03676480786499961 0.0015559981574358294 0 -0.03666845600182362 0.0012831492205902944 0 -0.036582792128741812 0.0011506167225109614 0 -0.036804481211553511 0.0011890114423960137 0 -0.036871235772691476 0.0013567547382355026 0 -0.03666845600182362 0.0012831492205902944 0 -0.036804481211553511 0.0011890114423960137 0 -0.035689363165611956 0.00057659497122944186 0 -0.036788283650600474 0.00077993732008092181 0 -0.03609724204800295 0.001346563097669686 0 -0.036499097145278554 0.00099457868116869467 0 -0.037575964431475636 0.0012718080935069963 0 -0.036990691200077468 0.00087028074818859416 0 -0.036582792128741812 0.0011506167225109614 0 -0.036804481211553511 0.0011890114423960137 0 -0.032305519998760579 0.00054222956421853298 0 -0.033399197632565929 0.0013296323659868386 0 -0.036788283650600474 0.00077993732008092181 0 -0.036990691200077468 0.00087028074818859416 0 -0.03609724204800295 0.001346563097669686 0 -0.032305519998760579 0.00054222956421853298 0 -0.037575964431475636 0.0012718080935069963 0 -0.037149173000503813 0.00031957800343664799 0 -0.036798159853510377 0.00061135553432351323 0 -0.036583908441288671 0.00013933027919096121 0 -0.037149173000503813 0.00031957800343664799 0 -0.037139432440739972 -0.00011912730759281396 0 -0.036583908441288671 0.00013933027919096121 0 -0.039851316685035366 0.0017637622904965984 0 -0.039612359056707007 0.0018670816115627664 0 -0.039684933494474245 0.0017078625265268519 0 -0.038429843509598945 0.00070365564599586419 0 -0.037575964431475636 0.0012718080935069963 0 -0.039667970476871033 0.0015659724775423172 0 -0.039814454984736215 0.0016146504287947964 0 -0.039887639091311808 0.0014749434688338808 0 -0.039851316685035366 0.0017637622904965984 0 -0.039684933494474245 0.0017078625265268519 0 -0.039814454984736215 0.0016146504287947964 0 -0.039684933494474245 0.0017078625265268519 0 -0.039667970476871033 0.0015659724775423172 0 -0.039814454984736215 0.0016146504287947964 0 -0.042234989138353808 0.0017829073637385395 0 -0.042153324410432035 0.0018689881448782416 0 -0.042128485711502218 0.0017548970841499 0 -0.042769305927907821 0.0017687106515644803 0 -0.040732806200744216 0.0014815604720033486 0 -0.039667970476871033 0.0015659724775423172 0 -0.039674252035805949 0.0014017325956386822 0 -0.039887639091311808 0.0014749434688338808 0 -0.04140194301703716 0.0018688773647689994 0 -0.041360562203379664 0.001897253376271376 0 -0.041362554141013703 0.0018579646828854736 0 -0.042769305927907821 0.0017687106515644803 0 -0.042665767449071038 0.0020197707397290052 0 -0.039667970476871033 0.0015659724775423172 0 -0.039674252035805949 0.0014017325956386822 0 -0.039496098420672428 0.0015722153421214265 0 -0.042769305927907821 0.0017687106515644803 0 -0.038530639434509815 0.0017144179454834975 0 -0.039667970476871033 0.0015659724775423172 0 -0.039496098420672428 0.0015722153421214265 0 -0.039527134706704714 0.0016667981760325713 0 -0.039684933494474245 0.0017078625265268519 0 -0.039667970476871033 0.0015659724775423172 0 -0.039527134706704714 0.0016667981760325713 0 -0.038530639434509815 0.0017144179454834975 0 -0.037654907886800981 0.0016099176257103648 0 -0.036817105821950469 0.0016573163679112469 0 -0.03676480786499961 0.0015559981574358294 0 -0.037045574754738922 0.0015525871456248141 0 -0.036849733574874137 0.0017686341732187267 0 -0.036817105821950469 0.0016573163679112469 0 -0.036769483482754044 0.0015593635024552055 0 -0.037459992500926444 0.0015044770092048838 0 -0.037654907886800981 0.0016099176257103648 0 -0.036871235772691476 0.0013567547382355026 0 -0.03676480786499961 0.0015559981574358294 0 -0.037045574754738922 0.0015525871456248141 0 -0.036849733574874137 0.0017686341732187267 0 -0.036817105821950469 0.0016573163679112469 0 -0.037045574754738922 0.0015525871456248141 0 -0.038530639434509815 0.0017144179454834975 0 -0.037122761123759826 0.001976153651654169 0 -0.037214457364752332 0.0015123332660709045 0 -0.037118681931950087 0.0017616125184512709 0 -0.037409370529272422 0.0016382259592749155 0 -0.037045574754738922 0.0015525871456248141 0 -0.037214457364752332 0.0015123332660709045 0 -0.037118681931950087 0.0017616125184512709 0 -0.037118681931950087 0.0017616125184512709 0 -0.037409370529272422 0.0016382259592749155 0 -0.037298280278126247 0.0018937803083529179 0 -0.036902638896373095 0.0017492300482861072 0 -0.037045574754738922 0.0015525871456248141 0 -0.037118681931950087 0.0017616125184512709 0 -0.037607344224760648 0.0013545381385842443 0 -0.037409370529272422 0.0016382259592749155 0 -0.037746232442542459 0.0016856845030609289 0 -0.037312583788626029 0.0012885658995934429 0 -0.037214457364752332 0.0015123332660709045 0 -0.037409370529272422 0.0016382259592749155 0 -0.037409370529272422 0.0016382259592749155 0 -0.037560625549913386 0.0019759946569403515 0 -0.037746232442542459 0.0016856845030609289 0 -0.037560625549913386 0.0019759946569403515 0 -0.037579769609376333 0.0023947983022589341 0 -0.037830655732449148 0.0021118468955999637 0 -0.037560625549913386 0.0019759946569403515 0 -0.037298280278126247 0.0018937803083529179 0 -0.03712604618490175 0.0022526146938111405 0 -0.037409370529272422 0.0016382259592749155 0 -0.037560625549913386 0.0019759946569403515 0 -0.037298280278126247 0.0018937803083529179 0 -0.036902638896373095 0.0017492300482861072 0 -0.037118681931950087 0.0017616125184512709 0 -0.03712604618490175 0.0022526146938111405 0 -0.038530639434509815 0.0017144179454834975 0 -0.042665767449071038 0.0020197707397290052 0 -0.037118681931950087 0.0017616125184512709 0 -0.037298280278126247 0.0018937803083529179 0 -0.03712604618490175 0.0022526146938111405 0 -0.045896566792462304 0.0022566310242616819 0 -0.045833192880417976 0.0020768538128322763 0 -0.046128427514298784 0.0021061970539549392 0 -0.045829562181377424 0.0025284628101730059 0 -0.045451295196606088 0.0024229335510276479 0 -0.045756183867431584 0.0022362380021069871 0 -0.042665767449071038 0.0020197707397290052 0 -0.045821978202470956 0.0023900432003480946 0 -0.037560625549913386 0.0019759946569403515 0 -0.03712604618490175 0.0022526146938111405 0 -0.037579769609376333 0.0023947983022589341 0 -0.042665767449071038 0.0020197707397290052 0 -0.041315613814950934 0.0023899707835115021 0 -0.045438070402923789 0.0021648408626462469 0 -0.045756183867431584 0.0022362380021069871 0 -0.045704319966825835 0.0018861882442562645 0 -0.045451295196606088 0.0024229335510276479 0 -0.045438070402923789 0.0021648408626462469 0 -0.045756183867431584 0.0022362380021069871 0 -0.045438070402923789 0.0021648408626462469 0 -0.045251307943290187 0.0019449530996259064 0 -0.045704319966825835 0.0018861882442562645 0 -0.045833192880417976 0.0020768538128322763 0 -0.045955603925775981 0.0018073607100705566 0 -0.045704319966825835 0.0018861882442562645 0 -0.045833192880417976 0.0020768538128322763 0 -0.046125462823835645 0.0018822139832766287 0 -0.045955603925775981 0.0018073607100705566 0 -0.045821978202470956 0.0023900432003480946 0 -0.045681875361166725 0.0018410356626282621 0 -0.045833192880417976 0.0020768538128322763 0 -0.046125462823835645 0.0018822139832766287 0 -0.046128427514298784 0.0021061970539549392 0 -0.046125462823835645 0.0018822139832766287 0 -0.046364443913219915 0.00187980220105593 0 -0.046128427514298784 0.0021061970539549392 0 -0.046364443913219915 0.00187980220105593 0 -0.046128427514298784 0.0021061970539549392 0 -0.046432041897701427 0.0020857400766766086 0 -0.042769305927907821 0.0017687106515644803 0 -0.044465777427524555 0.0019613851275207478 0 -0.046187964122418997 0.0023432466846674497 0 -0.046128427514298784 0.0021061970539549392 0 -0.046432041897701427 0.0020857400766766086 0 -0.046187964122418997 0.0023432466846674497 0 -0.045896566792462304 0.0022566310242616819 0 -0.046128427514298784 0.0021061970539549392 0 -0.039861111150506015 0.0012912113715864073 0 -0.039348695404329274 0.0019485268309429613 0 -0.039324257306596354 0.0014670367773924812 0 -0.039348695404329274 0.0019485268309429613 0 -0.038877754321836808 0.0016338443502894016 0 -0.038861064763765725 0.0022404160713400956 0 -0.039348695404329274 0.0019485268309429613 0 -0.039324257306596354 0.0014670367773924812 0 -0.038877754321836808 0.0016338443502894016 0 -0.035191836766499146 0.001988181722262213 0 -0.03466181679515129 0.0015734737768363131 0 -0.034480631200301641 0.0019162347702362508 0 -0.039324257306596354 0.0014670367773924812 0 -0.039213607901188913 0.00099931215466598946 0 -0.038877754321836808 0.0016338443502894016 0 -0.039861111150506015 0.0012912113715864073 0 -0.039324257306596354 0.0014670367773924812 0 -0.039213607901188913 0.00099931215466598946 0 -0.036492187582546042 0.0016024316636912392 0 -0.038967746832740874 0.0015711895050687476 0 -0.038363107164042981 0.0013777968831589899 0 -0.038789745820934779 0.0015731060173914584 0 -0.038398883983526658 0.0015725605018787052 0 -0.038789745820934779 0.0015731060173914584 0 -0.038546915650512159 0.0017256399142436757 0 -0.038398883983526658 0.0015725605018787052 0 -0.038789745820934779 0.0015731060173914584 0 -0.038546915650512159 0.0017256399142436757 0 -0.038638280125954161 0.001916481732168699 0 -0.038546915650512159 0.0017256399142436757 0 -0.038398883983526658 0.0015725605018787052 0 -0.038364517002651713 0.0017984715396832359 0 -0.038546915650512159 0.0017256399142436757 0 -0.038638280125954161 0.001916481732168699 0 -0.038364517002651713 0.0017984715396832359 0 -0.038967746832740874 0.0015711895050687476 0 -0.038484474605005058 0.0023299774519203666 0 -0.038638280125954161 0.001916481732168699 0 -0.038397408180344997 0.0020243706175050559 0 -0.038531612588694072 0.0022885485490800116 0 -0.038638280125954161 0.001916481732168699 0 -0.038397408180344997 0.0020243706175050559 0 -0.038364517002651713 0.0017984715396832359 0 -0.038397408180344997 0.0020243706175050559 0 -0.038177216529761235 0.0019402602073276545 0 -0.038193640556503157 0.0021764981228287318 0 -0.038177216529761235 0.0019402602073276545 0 -0.037830655732449148 0.0021118468955999637 0 -0.038193640556503157 0.0021764981228287318 0 -0.038397408180344997 0.0020243706175050559 0 -0.038177216529761235 0.0019402602073276545 0 -0.038364517002651713 0.0017984715396832359 0 -0.038177216529761235 0.0019402602073276545 0 -0.038364517002651713 0.0017984715396832359 0 -0.038186897567642285 0.0016975124623268719 0 -0.038398883983526658 0.0015725605018787052 0 -0.038364517002651713 0.0017984715396832359 0 -0.038186897567642285 0.0016975124623268719 0 -0.038398883983526658 0.0015725605018787052 0 -0.038161096808843109 0.0014973721224001079 0 -0.038186897567642285 0.0016975124623268719 0 -0.038161096808843109 0.0014973721224001079 0 -0.038186897567642285 0.0016975124623268719 0 -0.037993301145366892 0.0015678065733546866 0 -0.037924372572947451 0.0013856916636676888 0 -0.038161096808843109 0.0014973721224001079 0 -0.037993301145366892 0.0015678065733546866 0 -0.038186897567642285 0.0016975124623268719 0 -0.037978460222991901 0.0018118308898520074 0 -0.037993301145366892 0.0015678065733546866 0 -0.038177216529761235 0.0019402602073276545 0 -0.038186897567642285 0.0016975124623268719 0 -0.037978460222991901 0.0018118308898520074 0 -0.037978460222991901 0.0018118308898520074 0 -0.037993301145366892 0.0015678065733546866 0 -0.037746232442542459 0.0016856845030609289 0 -0.037924372572947451 0.0013856916636676888 0 -0.037993301145366892 0.0015678065733546866 0 -0.037746232442542459 0.0016856845030609289 0 -0.037924372572947451 0.0013856916636676888 0 -0.037607344224760648 0.0013545381385842443 0 -0.037746232442542459 0.0016856845030609289 0 -0.037978460222991901 0.0018118308898520074 0 -0.037746232442542459 0.0016856845030609289 0 -0.037830655732449148 0.0021118468955999637 0 -0.037560625549913386 0.0019759946569403515 0 -0.037746232442542459 0.0016856845030609289 0 -0.037830655732449148 0.0021118468955999637 0 -0.038177216529761235 0.0019402602073276545 0 -0.037978460222991901 0.0018118308898520074 0 -0.037830655732449148 0.0021118468955999637 0 -0.037830655732449148 0.0021118468955999637 0 -0.038032387511368004 0.0025451742072089881 0 -0.038193640556503157 0.0021764981228287318 0 -0.045451295196606088 0.0024229335510276479 0 -0.045438070402923789 0.0021648408626462469 0 -0.045000848999335666 0.0023107776734240565 0 -0.041315613814950934 0.0023899707835115021 0 -0.041506025104321213 0.0024353668126255346 0 -0.037579769609376333 0.0023947983022589341 0 -0.037830655732449148 0.0021118468955999637 0 -0.038032387511368004 0.0025451742072089881 0 -0.045000848999335666 0.0023107776734240565 0 -0.044825010479177883 0.0016954080650103964 0 -0.045251307943290187 0.0019449530996259064 0 -0.045438070402923789 0.0021648408626462469 0 -0.045000848999335666 0.0023107776734240565 0 -0.045251307943290187 0.0019449530996259064 0 -0.041506025104321213 0.0024353668126255346 0 -0.041828840154571348 0.0023266607595307091 0 -0.045000848999335666 0.0023107776734240565 0 -0.04452386465948268 0.0021712384423814577 0 -0.044825010479177883 0.0016954080650103964 0 -0.038032387511368004 0.0025451742072089881 0 -0.038193640556503157 0.0021764981228287318 0 -0.038531612588694072 0.0022885485490800116 0 -0.038032387511368004 0.0025451742072089881 0 -0.038531612588694072 0.0022885485490800116 0 -0.038550168526485067 0.0027400681992595026 0 -0.038397408180344997 0.0020243706175050559 0 -0.038193640556503157 0.0021764981228287318 0 -0.038531612588694072 0.0022885485490800116 0 -0.038877754321836808 0.0016338443502894016 0 -0.038531612588694072 0.0022885485490800116 0 -0.038861064763765725 0.0022404160713400956 0 -0.03834835852019304 0.0028308544754282665 0 -0.041828840154571348 0.0023266607595307091 0 -0.038531612588694072 0.0022885485490800116 0 -0.038861064763765725 0.0022404160713400956 0 -0.038550168526485067 0.0027400681992595026 0 -0.038861064763765725 0.0022404160713400956 0 -0.038569523700567696 0.0028441063033475779 0 -0.039306357843215955 0.0024969159422642754 0 -0.04239705105737674 0.0026587572981300062 0 -0.041828840154571348 0.0023266607595307091 0 -0.039611498822673868 0.0031820973258492448 0 -0.038569523700567696 0.0028441063033475779 0 -0.039306357843215955 0.0024969159422642754 0 -0.039348695404329274 0.0019485268309429613 0 -0.038861064763765725 0.0022404160713400956 0 -0.039306357843215955 0.0024969159422642754 0 -0.039815603781116829 0.0023125008622568079 0 -0.039348695404329274 0.0019485268309429613 0 -0.039306357843215955 0.0024969159422642754 0 -0.046215678836020894 0.0021045005042030782 0 -0.0463688235422067 0.0020109190039068288 0 -0.045275965143425287 0.0022081648275326881 0 -0.045210321201075321 0.0022779813275906786 0 -0.045121459127776681 0.0021797542716666548 0 -0.045212650171544244 0.0021072916011426633 0 -0.045275965143425287 0.0022081648275326881 0 -0.045121459127776681 0.0021797542716666548 0 -0.045212650171544244 0.0021072916011426633 0 -0.045039645081985026 0.0020691350941083285 0 -0.045121459127776681 0.0021797542716666548 0 -0.045039645081985026 0.0020691350941083285 0 -0.045121459127776681 0.0021797542716666548 0 -0.045019244850605371 0.0021758138348794724 0 -0.045210321201075321 0.0022779813275906786 0 -0.045121459127776681 0.0021797542716666548 0 -0.045081565362129795 0.0022619416860297178 0 -0.045121459127776681 0.0021797542716666548 0 -0.045081565362129795 0.0022619416860297178 0 -0.045019244850605371 0.0021758138348794724 0 -0.045081565362129795 0.0022619416860297178 0 -0.045019244850605371 0.0021758138348794724 0 -0.045000881087145499 0.0022534009755900515 0 -0.045124459765512374 0.0018317793574511938 0 -0.046323341482055538 0.0016750185498044232 0 -0.041828840154571348 0.0023266607595307091 0 -0.045124459765512374 0.0018317793574511938 0 -0.044825010479177883 0.0016954080650103964 0 -0.045251307943290187 0.0019449530996259064 0 -0.045420283784761879 0.0015705921746110765 0 -0.044825010479177883 0.0016954080650103964 0 -0.045114426523257103 0.0012327760136616312 0 -0.045420283784761879 0.0015705921746110765 0 -0.047603502132491156 0.0015373504669907103 0 -0.047662835194591024 0.0016254892677962202 0 -0.047256142457711883 0.0014381157225752976 0 -0.047603502132491156 0.0015373504669907103 0 -0.047662835194591024 0.0016254892677962202 0 -0.04769520393492762 0.001579833226137831 0 -0.047693329438564865 0.0015607086372902926 0 -0.047603502132491156 0.0015373504669907103 0 -0.04769520393492762 0.001579833226137831 0 -0.046323341482055538 0.0016750185498044232 0 -0.047662340473579416 0.001248518249785303 0 -0.047734887326762544 0.0012003571285323295 0 -0.047603502132491156 0.0015373504669907103 0 -0.047438816144921139 0.0013540676772420468 0 -0.054999959611991445 5.994492824245953e-09 0 -0.054981589261058277 5.058192351040794e-06 0 -0.054999958767378468 5.4691506343129664e-09 0 -0.051311660492258424 0.00080487576710708514 0 -0.051338504496364956 0.00076729377826787435 0 -0.054981589261058277 5.058192351040794e-06 0 -0.054999958767378468 5.4691506343129664e-09 0 -0.054979318907670383 5.8462475472813257e-06 0 -0.047662835194591024 0.0016254892677962202 0 -0.04769520393492762 0.001579833226137831 0 -0.047718396067543307 0.0015295113578291633 0 -0.047680427518109178 0.0017070579354751714 0 -0.047693329438564865 0.0015607086372902926 0 -0.047704832757035569 0.0016011108572580935 0 -0.047704832757035569 0.0016011108572580935 0 -0.04769520393492762 0.001579833226137831 0 -0.047718396067543307 0.0015295113578291633 0 -0.0463688235422067 0.0020109190039068288 0 -0.046323341482055538 0.0016750185498044232 0 -0.047693329438564865 0.0015607086372902926 0 -0.047704832757035569 0.0016011108572580935 0 -0.04769520393492762 0.001579833226137831 0 -0.047680427518109178 0.0017070579354751714 0 -0.047704832757035569 0.0016011108572580935 0 -0.047718396067543307 0.0015295113578291633 0 -0.047680427518109178 0.0017070579354751714 0 -0.047718396067543307 0.0015295113578291633 0 -0.047475379212097366 0.0016525964384401146 0 -0.054999958767378468 5.4691506343129664e-09 0 -0.054979318907670383 5.8462475472813257e-06 0 -0.054999963081725688 6.7728268176180478e-09 0 -0.051058940003038331 0.00072186911620071657 0 -0.051338504496364956 0.00076729377826787435 0 -0.054976237333374492 8.3491035660777659e-06 0 -0.054979318907670383 5.8462475472813257e-06 0 -0.054999963081725688 6.7728268176180478e-09 0 -0.04716093684965781 0.0014246931983422032 0 -0.047243849679519792 0.0019445807590753508 0 -0.047475379212097366 0.0016525964384401146 0 -0.04716093684965781 0.0014246931983422032 0 -0.047718396067543307 0.0015295113578291633 0 -0.047475379212097366 0.0016525964384401146 0 -0.047243849679519792 0.0019445807590753508 0 -0.047680427518109178 0.0017070579354751714 0 -0.047475379212097366 0.0016525964384401146 0 -0.046270227916328135 0.0015391137921451157 0 -0.046194370821268323 0.0014779141165107651 0 -0.046046904654610414 0.0015837819242877473 0 -0.046270227916328135 0.0015391137921451157 0 -0.046156802608340125 0.001698296852266598 0 -0.046046904654610414 0.0015837819242877473 0 -0.046194370821268323 0.0014779141165107651 0 -0.046007714887967004 0.0014246536254078047 0 -0.046427231387843083 0.0013440036124786774 0 -0.046270227916328135 0.0015391137921451157 0 -0.046194370821268323 0.0014779141165107651 0 -0.046427231387843083 0.0013440036124786774 0 -0.046270227916328135 0.0015391137921451157 0 -0.046320463358456299 0.001473130991686522 0 -0.046427231387843083 0.0013440036124786774 0 -0.046322946887205882 0.0016695158337948544 0 -0.046457442171796211 0.0015600927579005228 0 -0.046492789293012197 0.0017141348993631735 0 -0.046270227916328135 0.0015391137921451157 0 -0.046320463358456299 0.001473130991686522 0 -0.046322946887205882 0.0016695158337948544 0 -0.046320463358456299 0.001473130991686522 0 -0.046322946887205882 0.0016695158337948544 0 -0.046457442171796211 0.0015600927579005228 0 -0.046320463358456299 0.001473130991686522 0 -0.046417924243435535 0.0014620098778030644 0 -0.046457442171796211 0.0015600927579005228 0 -0.046364443913219915 0.00187980220105593 0 -0.046322946887205882 0.0016695158337948544 0 -0.046492789293012197 0.0017141348993631735 0 -0.046125462823835645 0.0018822139832766287 0 -0.046364443913219915 0.00187980220105593 0 -0.046322946887205882 0.0016695158337948544 0 -0.046125462823835645 0.0018822139832766287 0 -0.046322946887205882 0.0016695158337948544 0 -0.046156802608340125 0.001698296852266598 0 -0.046270227916328135 0.0015391137921451157 0 -0.046322946887205882 0.0016695158337948544 0 -0.046156802608340125 0.001698296852266598 0 -0.046125462823835645 0.0018822139832766287 0 -0.046156802608340125 0.001698296852266598 0 -0.045955603925775981 0.0018073607100705566 0 -0.045955603925775981 0.0018073607100705566 0 -0.045704319966825835 0.0018861882442562645 0 -0.04577458374210791 0.0015579638750578449 0 -0.045955603925775981 0.0018073607100705566 0 -0.046046904654610414 0.0015837819242877473 0 -0.04577458374210791 0.0015579638750578449 0 -0.046156802608340125 0.001698296852266598 0 -0.045955603925775981 0.0018073607100705566 0 -0.046046904654610414 0.0015837819242877473 0 -0.045251307943290187 0.0019449530996259064 0 -0.045704319966825835 0.0018861882442562645 0 -0.045420283784761879 0.0015705921746110765 0 -0.045704319966825835 0.0018861882442562645 0 -0.045420283784761879 0.0015705921746110765 0 -0.04577458374210791 0.0015579638750578449 0 -0.045114426523257103 0.0012327760136616312 0 -0.045420283784761879 0.0015705921746110765 0 -0.04570561143462562 0.0012147101578057094 0 -0.045420283784761879 0.0015705921746110765 0 -0.04577458374210791 0.0015579638750578449 0 -0.04570561143462562 0.0012147101578057094 0 -0.046046904654610414 0.0015837819242877473 0 -0.04577458374210791 0.0015579638750578449 0 -0.046007714887967004 0.0014246536254078047 0 -0.04577458374210791 0.0015579638750578449 0 -0.046007714887967004 0.0014246536254078047 0 -0.04570561143462562 0.0012147101578057094 0 -0.046194370821268323 0.0014779141165107651 0 -0.046046904654610414 0.0015837819242877473 0 -0.046007714887967004 0.0014246536254078047 0 -0.046464694837610239 0.0011975788006425841 0 -0.046406056503289862 0.0013346580979742167 0 -0.046898032170848418 0.0014891572452720133 0 -0.047178248201272907 0.0012640217788233655 0 -0.046427231387843083 0.0013440036124786774 0 -0.046007714887967004 0.0014246536254078047 0 -0.04570561143462562 0.0012147101578057094 0 -0.046427231387843083 0.0013440036124786774 0 -0.046898032170848418 0.0014891572452720133 0 -0.047256142457711883 0.0014381157225752976 0 -0.0469462977296898 0.0014699480186362241 0 -0.046898032170848418 0.0014891572452720133 0 -0.0469462977296898 0.0014699480186362241 0 -0.047338468141912303 0.0014068156306393949 0 -0.046323341482055538 0.0016750185498044232 0 -0.046464694837610239 0.0011975788006425841 0 -0.047734887326762544 0.0012003571285323295 0 -0.047178248201272907 0.0012640217788233655 0 -0.047438816144921139 0.0013540676772420468 0 -0.046898032170848418 0.0014891572452720133 0 -0.047178248201272907 0.0012640217788233655 0 -0.047256142457711883 0.0014381157225752976 0 -0.047178248201272907 0.0012640217788233655 0 -0.047256142457711883 0.0014381157225752976 0 -0.047438816144921139 0.0013540676772420468 0 -0.047603502132491156 0.0015373504669907103 0 -0.047256142457711883 0.0014381157225752976 0 -0.047438816144921139 0.0013540676772420468 0 -0.047662835194591024 0.0016254892677962202 0 -0.047256142457711883 0.0014381157225752976 0 -0.0469462977296898 0.0014699480186362241 0 -0.054999959611991445 5.994492824245953e-09 0 -0.054981589261058277 5.058192351040794e-06 0 -0.05498355976920543 4.1982895200867457e-06 0 -0.051311660492258424 0.00080487576710708514 0 -0.051002113673227906 0.0007295476813947427 0 -0.054999959611991445 5.994492824245953e-09 0 -0.054999956617525984 5.1984833051656435e-09 0 -0.05498355976920543 4.1982895200867457e-06 0 -0.054999956617525984 5.1984833051656435e-09 0 -0.05498355976920543 4.1982895200867457e-06 0 -0.054987470973136443 2.7487222697708367e-06 0 -0.0469462977296898 0.0014699480186362241 0 -0.047338468141912303 0.0014068156306393949 0 -0.047763766212147236 0.0010763993307915888 0 -0.054999956617525984 5.1984833051656435e-09 0 -0.054999960838719338 3.5496577741563751e-09 0 -0.054987470973136443 2.7487222697708367e-06 0 -0.051002113673227906 0.0007295476813947427 0 -0.051374605213681958 0.00054631574788882196 0 -0.047338468141912303 0.0014068156306393949 0 -0.047841909875653232 0.0016767401070571929 0 -0.047763766212147236 0.0010763993307915888 0 -0.046898032170848418 0.0014891572452720133 0 -0.047338468141912303 0.0014068156306393949 0 -0.047841909875653232 0.0016767401070571929 0 -0.046911524377583974 0.0015054319437226627 0 -0.047068296095119484 0.0015310380887345377 0 -0.046898032170848418 0.0014891572452720133 0 -0.046427231387843083 0.0013440036124786774 0 -0.046238537579612278 0.0014271867782201587 0 -0.046320463358456299 0.001473130991686522 0 -0.046427231387843083 0.0013440036124786774 0 -0.046238537579612278 0.0014271867782201587 0 -0.046320463358456299 0.001473130991686522 0 -0.046238537579612278 0.0014271867782201587 0 -0.046417924243435535 0.0014620098778030644 0 -0.048554796714451537 0.0013368082687878753 0 -0.047763766212147236 0.0010763993307915888 0 -0.049350426733790281 0.00087073797516111799 0 -0.054999960838719338 3.5496577741563751e-09 0 -0.054987470973136443 2.7487222697708367e-06 0 -0.054991957120401211 1.5245082427707621e-06 0 -0.051374605213681958 0.00054631574788882196 0 -0.052248606545691197 0.00045893408756775007 0 -0.047841909875653232 0.0016767401070571929 0 -0.048554796714451537 0.0013368082687878753 0 -0.047763766212147236 0.0010763993307915888 0 -0.054999960838719338 3.5496577741563751e-09 0 -0.054999970407838848 2.6454454236081735e-09 0 -0.054991957120401211 1.5245082427707621e-06 0 -0.048554796714451537 0.0013368082687878753 0 -0.049350426733790281 0.00087073797516111799 0 -0.049296739845868687 0.0017145837579359098 0 -0.052248606545691197 0.00045893408756775007 0 -0.052671182306427936 0.00019741256750114262 0 -0.054999970407838848 2.6454454236081735e-09 0 -0.054991957120401211 1.5245082427707621e-06 0 -0.054994498620256099 9.5060157187891382e-07 0 -0.049350426733790281 0.00087073797516111799 0 -0.050090090097534803 0.0013042545393934205 0 -0.051025368401018643 0.00074241950633657111 0 -0.049350426733790281 0.00087073797516111799 0 -0.050090090097534803 0.0013042545393934205 0 -0.049296739845868687 0.0017145837579359098 0 -0.047939538379586984 0.0016406887649481592 0 -0.048881940804075291 0.00059173073045513144 0 -0.046808366770597333 0.0014123184316186066 0 -0.046669050175153014 0.0014192291776492013 0 -0.046960553557916389 0.0015375951392842327 0 -0.046868717128724369 0.0014974573702508001 0 -0.046282752037864909 0.0015390225478037105 0 -0.050090090097534803 0.0013042545393934205 0 -0.049296739845868687 0.0017145837579359098 0 -0.050849340984010498 0.0016991064391035152 0 -0.046808366770597333 0.0014123184316186066 0 -0.046564143327323664 0.0013544227784421734 0 -0.046995390555816766 0.001337503724187475 0 -0.046808366770597333 0.0014123184316186066 0 -0.046669050175153014 0.0014192291776492013 0 -0.046564143327323664 0.0013544227784421734 0 -0.046555427531753957 0.0014788417939276303 0 -0.046417924243435535 0.0014620098778030644 0 -0.046564143327323664 0.0013544227784421734 0 -0.046669050175153014 0.0014192291776492013 0 -0.046555427531753957 0.0014788417939276303 0 -0.046564143327323664 0.0013544227784421734 0 -0.046238537579612278 0.0014271867782201587 0 -0.046417924243435535 0.0014620098778030644 0 -0.046564143327323664 0.0013544227784421734 0 -0.047841909875653232 0.0016767401070571929 0 -0.048554796714451537 0.0013368082687878753 0 -0.049296739845868687 0.0017145837579359098 0 -0.047068296095119484 0.0015310380887345377 0 -0.047939538379586984 0.0016406887649481592 0 -0.054999967837339257 3.5039373818610064e-09 0 -0.054994603807521261 5.0095115442482705e-07 0 -0.054997105151774792 -5.2376332410086247e-07 0 -0.052671182306427936 0.00019741256750114262 0 -0.052814126577535293 -0.00056364604990646026 0 -0.049062954904559045 -0.00088006167311986292 0 -0.050387008066880318 -8.595187329136864e-05 0 -0.050913928523963752 -0.00096755946357206582 0 -0.049062954904559045 -0.00088006167311986292 0 -0.049487069223667877 9.423808618747491e-05 0 -0.050387008066880318 -8.595187329136864e-05 0 -0.054999967837339257 3.5039373818610064e-09 0 -0.054997105151774792 -5.2376332410086247e-07 0 -0.054999977413461465 -3.5027698946879307e-09 0 -0.052671182306427936 0.00019741256750114262 0 -0.048881940804075291 0.00059173073045513144 0 -0.050090090097534803 0.0013042545393934205 0 -0.051025368401018643 0.00074241950633657111 0 -0.050849340984010498 0.0016991064391035152 0 -0.054999970407838848 2.6454454236081735e-09 0 -0.05499997275981923 2.463218209384077e-09 0 -0.054994498620256099 9.5060157187891382e-07 0 -0.054996296059480941 -3.0729522834725609e-07 0 -0.052671182306427936 0.00019741256750114262 0 -0.049062954904559045 -0.00088006167311986292 0 -0.048885824314435944 9.6502112970034456e-05 0 -0.049487069223667877 9.423808618747491e-05 0 -0.048881940804075291 0.00059173073045513144 0 -0.046282752037864909 0.0015390225478037105 0 -0.048815028556508676 8.1517457713940452e-05 0 -0.048991583676602314 0.00061603778896845258 0 -0.048678270063497842 0.00082590959360752782 0 -0.046808366770597333 0.0014123184316186066 0 -0.046995390555816766 0.001337503724187475 0 -0.046960553557916389 0.0015375951392842327 0 -0.048815028556508676 8.1517457713940452e-05 0 -0.048991583676602314 0.00061603778896845258 0 -0.049203794118580862 0.00041634105222926093 0 -0.049203794118580862 0.00041634105222926093 0 -0.049472702710684609 0.00046612120302767513 0 -0.049216618525477568 0.00077106466873280331 0 -0.048991583676602314 0.00061603778896845258 0 -0.049203794118580862 0.00041634105222926093 0 -0.049216618525477568 0.00077106466873280331 0 -0.048881940804075291 0.00059173073045513144 0 -0.049309112745459335 0.00029204393560760704 0 -0.048815028556508676 8.1517457713940452e-05 0 -0.049203794118580862 0.00041634105222926093 0 -0.049487069223667877 9.423808618747491e-05 0 -0.049487069223667877 9.423808618747491e-05 0 -0.049472702710684609 0.00046612120302767513 0 -0.049981452226096963 0.00058139559338111178 0 -0.049472702710684609 0.00046612120302767513 0 -0.049981452226096963 0.00058139559338111178 0 -0.049216618525477568 0.00077106466873280331 0 -0.049203794118580862 0.00041634105222926093 0 -0.049487069223667877 9.423808618747491e-05 0 -0.049472702710684609 0.00046612120302767513 0 -0.049487069223667877 9.423808618747491e-05 0 -0.049981452226096963 0.00058139559338111178 0 -0.050387008066880318 -8.595187329136864e-05 0 -0.039648500566472608 0.00073393206491046965 0 -0.038623192914036222 0.0008738168709813152 0 -0.038445666673397404 0.00023672420071693372 0 -0.050236459370009798 0.0014351578745581389 0 -0.049216618525477568 0.00077106466873280331 0 -0.049025376087071866 0.00095406356951194564 0 -0.044711819276531527 0.00094668320314096437 0 -0.044353562846012447 0.0011088411072509917 0 -0.049981452226096963 0.00058139559338111178 0 -0.050236459370009798 0.0014351578745581389 0 -0.049216618525477568 0.00077106466873280331 0 -0.038623192914036222 0.0008738168709813152 0 -0.038445666673397404 0.00023672420071693372 0 -0.037973685126731188 0.00071497496064449359 0 -0.048991583676602314 0.00061603778896845258 0 -0.049216618525477568 0.00077106466873280331 0 -0.049031405814680983 0.00097285739466850159 0 -0.04584682236080441 0.00025605311712221851 0 -0.044353562846012447 0.0011088411072509917 0 -0.048991583676602314 0.00061603778896845258 0 -0.049031405814680983 0.00097285739466850159 0 -0.048678270063497842 0.00082590959360752782 0 -0.044353562846012447 0.0011088411072509917 0 -0.046282752037864909 0.0015390225478037105 0 -0.044888324906130428 0.0010796991562632024 0 -0.044428127647778676 0.00088113910055941883 0 -0.044273795919958732 0.0017444235468466697 0 -0.046282752037864909 0.0015390225478037105 0 -0.043068212757797326 0.0016095843170573798 0 -0.046816542881460095 0.0015116281773137866 0 -0.046798145887114131 0.0016200276632735765 0 -0.046746403738256795 0.0015508535615219613 0 -0.044353562846012447 0.0011088411072509917 0 -0.043068212757797326 0.0016095843170573798 0 -0.037973685126731188 0.00071497496064449359 0 -0.0387022282870048 0.0015309947501944102 0 -0.037660409860344579 0.0020589802150906274 0 -0.043068212757797326 0.0016095843170573798 0 -0.039602974831265368 0.0019861963001182492 0 -0.038623192914036222 0.0008738168709813152 0 -0.037973685126731188 0.00071497496064449359 0 -0.0387022282870048 0.0015309947501944102 0 -0.039648500566472608 0.00073393206491046965 0 -0.038623192914036222 0.0008738168709813152 0 -0.0387022282870048 0.0015309947501944102 0 -0.039648500566472608 0.00073393206491046965 0 -0.0387022282870048 0.0015309947501944102 0 -0.039956248852936797 0.0017986008475832881 0 -0.046457442171796211 0.0015600927579005228 0 -0.046663448782740841 0.0015795528915940173 0 -0.046492789293012197 0.0017141348993631735 0 -0.046555427531753957 0.0014788417939276303 0 -0.046457442171796211 0.0015600927579005228 0 -0.046663448782740841 0.0015795528915940173 0 -0.046555427531753957 0.0014788417939276303 0 -0.046417924243435535 0.0014620098778030644 0 -0.046457442171796211 0.0015600927579005228 0 -0.046669050175153014 0.0014192291776492013 0 -0.046555427531753957 0.0014788417939276303 0 -0.046663448782740841 0.0015795528915940173 0 -0.046669050175153014 0.0014192291776492013 0 -0.046816542881460095 0.0015116281773137866 0 -0.046746403738256795 0.0015508535615219613 0 -0.046669050175153014 0.0014192291776492013 0 -0.046746403738256795 0.0015508535615219613 0 -0.046663448782740841 0.0015795528915940173 0 -0.046798145887114131 0.0016200276632735765 0 -0.046746403738256795 0.0015508535615219613 0 -0.046663448782740841 0.0015795528915940173 0 -0.042042479469586766 0.0019652763408818715 0 -0.042080400397876264 0.0019301255613883002 0 -0.042034397459632916 0.0019183859306767287 0 -0.043068212757797326 0.0016095843170573798 0 -0.044520649111913418 0.001853089078688971 0 -0.046798145887114131 0.0016200276632735765 0 -0.046663448782740841 0.0015795528915940173 0 -0.04662724901260934 0.0018322306042557958 0 -0.046364443913219915 0.00187980220105593 0 -0.04662724901260934 0.0018322306042557958 0 -0.046492789293012197 0.0017141348993631735 0 -0.046663448782740841 0.0015795528915940173 0 -0.04662724901260934 0.0018322306042557958 0 -0.046492789293012197 0.0017141348993631735 0 -0.042080400397876264 0.0019301255613883002 0 -0.042153324410432035 0.0018689881448782416 0 -0.042066131628923725 0.001886414931729463 0 -0.044520649111913418 0.001853089078688971 0 -0.044465777427524555 0.0019613851275207478 0 -0.046364443913219915 0.00187980220105593 0 -0.04662724901260934 0.0018322306042557958 0 -0.046432041897701427 0.0020857400766766086 0 -0.042153324410432035 0.0018689881448782416 0 -0.042022089792041535 0.0018373420559091558 0 -0.042128485711502218 0.0017548970841499 0 -0.042153324410432035 0.0018689881448782416 0 -0.042022089792041535 0.0018373420559091558 0 -0.042066131628923725 0.001886414931729463 0 -0.042022089792041535 0.0018373420559091558 0 -0.042066131628923725 0.001886414931729463 0 -0.042034397459632916 0.0019183859306767287 0 -0.039701496937480429 0.0026271556249243995 0 -0.039602974831265368 0.0019861963001182492 0 -0.042080400397876264 0.0019301255613883002 0 -0.042066131628923725 0.001886414931729463 0 -0.042034397459632916 0.0019183859306767287 0 -0.03746045519156066 0.0033306295374979813 0 -0.037660409860344579 0.0020589802150906274 0 -0.038317492930040102 0.0028418893452823624 0 -0.0387022282870048 0.0015309947501944102 0 -0.037660409860344579 0.0020589802150906274 0 -0.038317492930040102 0.0028418893452823624 0 -0.0387022282870048 0.0015309947501944102 0 -0.039209523502548055 0.0025851253492440054 0 -0.039956248852936797 0.0017986008475832881 0 -0.0387022282870048 0.0015309947501944102 0 -0.039209523502548055 0.0025851253492440054 0 -0.038317492930040102 0.0028418893452823624 0 -0.038317492930040102 0.0028418893452823624 0 -0.03805368482743561 0.0036942678042378718 0 -0.038811352335304403 0.0036360303315491078 0 -0.039209523502548055 0.0025851253492440054 0 -0.038317492930040102 0.0028418893452823624 0 -0.038811352335304403 0.0036360303315491078 0 -0.03746045519156066 0.0033306295374979813 0 -0.038317492930040102 0.0028418893452823624 0 -0.03805368482743561 0.0036942678042378718 0 -0.03746045519156066 0.0033306295374979813 0 -0.03805368482743561 0.0036942678042378718 0 -0.037865410804529077 0.0040431040802295683 0 -0.03805368482743561 0.0036942678042378718 0 -0.038065017499750997 0.0041837407029877583 0 -0.037865410804529077 0.0040431040802295683 0 -0.038065017499750997 0.0041837407029877583 0 -0.037865410804529077 0.0040431040802295683 0 -0.038161446013059007 0.0042640772312541658 0 -0.03805368482743561 0.0036942678042378718 0 -0.038065017499750997 0.0041837407029877583 0 -0.038811352335304403 0.0036360303315491078 0 -0.038065017499750997 0.0041837407029877583 0 -0.038811352335304403 0.0036360303315491078 0 -0.037968540659508769 0.0044464100684612155 0 -0.038811352335304403 0.0036360303315491078 0 -0.037968540659508769 0.0044464100684612155 0 -0.039086731271191465 0.0043001826951348295 0 -0.038564866864097387 0.0026757833193505496 0 -0.03705630791177493 0.0035868477901285544 0 -0.039456610048101137 0.004525520495527108 0 -0.037233311641357014 0.0037203506679089732 0 -0.038737550582675931 0.0043823574287498324 0 -0.037968540659508769 0.0044464100684612155 0 -0.03705630791177493 0.0035868477901285544 0 -0.038161446013059007 0.0042640772312541658 0 -0.03846570003303957 0.0048978569733842767 0 -0.036698395019622479 0.0018450651505282963 0 -0.037968540659508769 0.0044464100684612155 0 -0.039282652930473325 0.0054157489310616529 0 -0.039086731271191465 0.0043001826951348295 0 -0.037968540659508769 0.0044464100684612155 0 -0.03705630791177493 0.0035868477901285544 0 -0.035971370969109809 0.0037958898899059382 0 -0.037865410804529077 0.0040431040802295683 0 -0.038161446013059007 0.0042640772312541658 0 -0.037461169804846206 0.0042494666124865349 0 -0.038737550582675931 0.0043823574287498324 0 -0.040532060675963343 0.0027591127233538887 0 -0.040877183513746182 0.004697530369344699 0 -0.039456610048101137 0.004525520495527108 0 -0.042408434996312701 0.0055219974591889246 0 -0.038065017499750997 0.0041837407029877583 0 -0.037968540659508769 0.0044464100684612155 0 -0.038161446013059007 0.0042640772312541658 0 -0.038564866864097387 0.0026757833193505496 0 -0.039456610048101137 0.004525520495527108 0 -0.040279841147668222 0.0031607656555792357 0 -0.040877183513746182 0.004697530369344699 0 -0.039456610048101137 0.004525520495527108 0 -0.040279841147668222 0.0031607656555792357 0 -0.041638271482359775 0.002664556191642878 0 -0.040877183513746182 0.004697530369344699 0 -0.040279841147668222 0.0031607656555792357 0 -0.041212056901412407 0.0037378888624357886 0 -0.040287676500741894 0.0021095231468790726 0 -0.041638271482359775 0.002664556191642878 0 -0.040877183513746182 0.004697530369344699 0 -0.042809401057588389 0.0038818045188200555 0 -0.040877183513746182 0.004697530369344699 0 -0.042408434996312701 0.0055219974591889246 0 -0.042691232759708347 0.0038163103141340125 0 -0.040108528053565483 0.0015527014926407193 0 -0.040087540519288291 0.0016627448778131007 0 -0.039950128720390776 0.0016134809273394394 0 -0.040532060675963343 0.0027591127233538887 0 -0.040287676500741894 0.0021095231468790726 0 -0.040108528053565483 0.0015527014926407193 0 -0.039950128720390776 0.0016134809273394394 0 -0.039887639091311808 0.0014749434688338808 0 -0.039851316685035366 0.0017637622904965984 0 -0.040087540519288291 0.0016627448778131007 0 -0.039950128720390776 0.0016134809273394394 0 -0.039851316685035366 0.0017637622904965984 0 -0.039814454984736215 0.0016146504287947964 0 -0.039950128720390776 0.0016134809273394394 0 -0.039814454984736215 0.0016146504287947964 0 -0.039950128720390776 0.0016134809273394394 0 -0.039887639091311808 0.0014749434688338808 0 -0.040532060675963343 0.0027591127233538887 0 -0.040732806200744216 0.0014815604720033486 0 -0.039701496937480429 0.0026271556249243995 0 -0.040532060675963343 0.0027591127233538887 0 -0.03746045519156066 0.0033306295374979813 0 -0.037865410804529077 0.0040431040802295683 0 -0.037461169804846206 0.0042494666124865349 0 -0.042022089792041535 0.0018373420559091558 0 -0.042025987878758553 0.0017325016707396171 0 -0.042128485711502218 0.0017548970841499 0 -0.041474178681516434 -0.0055586406317748001 0 -0.04354683590337706 -0.0049346734492733465 0 -0.042768368542108845 -0.0065579972137608748 0 -0.041553561544083073 -0.0055420469337482932 0 -0.043073841894966214 -0.0050271797490397084 0 -0.04354683590337706 -0.0049346734492733465 0 -0.042768368542108845 -0.0065579972137608748 0 -0.044255193471534539 -0.0065697667519483242 0 -0.042646376455766875 -0.0050743514878162071 0 -0.04204813768145068 -0.0044675063926015272 0 -0.043153194728826227 -0.0042369087800651298 0 -0.041474178681516434 -0.0055586406317748001 0 -0.04204813768145068 -0.0044675063926015272 0 -0.041369602813765699 -0.0044780065923310112 0 -0.041474178681516434 -0.0055586406317748001 0 -0.041369602813765699 -0.0044780065923310112 0 -0.041021052746725684 -0.0050067838687178363 0 -0.041474178681516434 -0.0055586406317748001 0 -0.042646376455766875 -0.0050743514878162071 0 -0.04204813768145068 -0.0044675063926015272 0 -0.041520384983304778 -0.0036981822772202862 0 -0.04204813768145068 -0.0044675063926015272 0 -0.041369602813765699 -0.0044780065923310112 0 -0.041012352937505311 -0.0039990602488080588 0 -0.041369602813765699 -0.0044780065923310112 0 -0.040638281504975129 -0.0045510016628149286 0 -0.041369602813765699 -0.0044780065923310112 0 -0.040638281504975129 -0.0045510016628149286 0 -0.041021052746725684 -0.0050067838687178363 0 -0.036698395019622479 0.0018450651505282963 0 -0.040738393989264939 -0.0011831566104990906 0 -0.040638281504975129 -0.0045510016628149286 0 -0.039641977267156618 -0.0043624771551950443 0 -0.040333024749651177 -0.0055328140329403011 0 -0.040415120608014915 -0.0038413601406765453 0 -0.040638281504975129 -0.0045510016628149286 0 -0.039641977267156618 -0.0043624771551950443 0 -0.039282652930473325 0.0054157489310616529 0 -0.039086731271191465 0.0043001826951348295 0 -0.040247484969630501 0.0039390022885245511 0 -0.038811352335304403 0.0036360303315491078 0 -0.039086731271191465 0.0043001826951348295 0 -0.040247484969630501 0.0039390022885245511 0 -0.041474178681516434 -0.0055586406317748001 0 -0.041021052746725684 -0.0050067838687178363 0 -0.040333024749651177 -0.0055328140329403011 0 -0.040638281504975129 -0.0045510016628149286 0 -0.041021052746725684 -0.0050067838687178363 0 -0.040333024749651177 -0.0055328140329403011 0 -0.040738393989264939 -0.0011831566104990906 0 -0.040743835665730352 -0.0020837526114218831 0 -0.041474178681516434 -0.0055586406317748001 0 -0.040333024749651177 -0.0055328140329403011 0 -0.041175821832181048 -0.0069230646329073746 0 -0.040247484969630501 0.0039390022885245511 0 -0.041234072939776933 0.0028370734842777128 0 -0.040135011557655288 0.0028063234333800527 0 -0.038811352335304403 0.0036360303315491078 0 -0.040247484969630501 0.0039390022885245511 0 -0.040135011557655288 0.0028063234333800527 0 -0.039209523502548055 0.0025851253492440054 0 -0.038811352335304403 0.0036360303315491078 0 -0.040135011557655288 0.0028063234333800527 0 -0.040135011557655288 0.0028063234333800527 0 -0.041275006264162126 0.0019388057243014734 0 -0.039956248852936797 0.0017986008475832881 0 -0.039209523502548055 0.0025851253492440054 0 -0.040135011557655288 0.0028063234333800527 0 -0.039956248852936797 0.0017986008475832881 0 -0.041234072939776933 0.0028370734842777128 0 -0.040135011557655288 0.0028063234333800527 0 -0.041275006264162126 0.0019388057243014734 0 -0.041175821832181048 -0.0069230646329073746 0 -0.042411052278994006 -0.0074105392344444481 0 -0.042159309146076289 -0.0084384802048956594 0 -0.040164405122591375 0.0020595201099602826 0 -0.046197057411538359 -0.0015952256634475844 0 -0.040743835665730352 -0.0020837526114218831 0 -0.046197057411538359 -0.0015952256634475844 0 -0.041234072939776933 0.0028370734842777128 0 -0.041275006264162126 0.0019388057243014734 0 -0.042128436200524304 0.0016410796041080107 0 -0.041175821832181048 -0.0069230646329073746 0 -0.042411052278994006 -0.0074105392344444481 0 -0.042768368542108845 -0.0065579972137608748 0 -0.041474178681516434 -0.0055586406317748001 0 -0.041175821832181048 -0.0069230646329073746 0 -0.042768368542108845 -0.0065579972137608748 0 -0.042768368542108845 -0.0065579972137608748 0 -0.043547980150771548 -0.0077796683058362912 0 -0.044255193471534539 -0.0065697667519483242 0 -0.042411052278994006 -0.0074105392344444481 0 -0.042768368542108845 -0.0065579972137608748 0 -0.043547980150771548 -0.0077796683058362912 0 -0.042411052278994006 -0.0074105392344444481 0 -0.043547980150771548 -0.0077796683058362912 0 -0.042159309146076289 -0.0084384802048956594 0 -0.041500746745139608 -0.0091194615835303323 0 -0.046197057411538359 -0.0015952256634475844 0 -0.043547980150771548 -0.0077796683058362912 0 -0.043910459008180233 -0.0087114420405425864 0 -0.042620471620551888 -0.0081845514274088982 0 -0.054107214553463207 0.0015751880184332191 0 -0.053338830756423643 0.0015001327896567334 0 -0.052923449300893773 0.0020993820538208188 0 -0.049348877657455936 -0.0037686457200826499 0 -0.046197057411538359 -0.0015952256634475844 0 -0.052766048799338272 0.0023299909966755642 0 -0.052575978123293537 0.0016771847097824769 0 -0.051455550874872136 0.0018716684011365475 0 -0.052467247776295793 0.0011004015473217981 0 -0.046197057411538359 -0.0015952256634475844 0 -0.053338830756423643 0.0015001327896567334 0 -0.052766048799338272 0.0023299909966755642 0 -0.052575978123293537 0.0016771847097824769 0 -0.053338830756423643 0.0015001327896567334 0 -0.052575978123293537 0.0016771847097824769 0 -0.053225597136529156 0.00062747485277675605 0 -0.052575978123293537 0.0016771847097824769 0 -0.051914663143659903 0.00041886969640570788 0 -0.053225597136529156 0.00062747485277675605 0 -0.053338830756423643 0.0015001327896567334 0 -0.053952399971268578 0.00099085470921910055 0 -0.053225597136529156 0.00062747485277675605 0 -0.054107214553463207 0.0015751880184332191 0 -0.053338830756423643 0.0015001327896567334 0 -0.053952399971268578 0.00099085470921910055 0 -0.044711819276531527 0.00094668320314096437 0 -0.046636971716127337 0.0019423586794778238 0 -0.039648500566472608 0.00073393206491046965 0 -0.039956248852936797 0.0017986008475832881 0 -0.040872393427753846 0.0011623257906751997 0 -0.046197057411538359 -0.0015952256634475844 0 -0.046636971716127337 0.0019423586794778238 0 -0.041275006264162126 0.0019388057243014734 0 -0.039956248852936797 0.0017986008475832881 0 -0.040872393427753846 0.0011623257906751997 0 -0.041275006264162126 0.0019388057243014734 0 -0.042372580975605784 0.001636712461750978 0 -0.040872393427753846 0.0011623257906751997 0 -0.052575978123293537 0.0016771847097824769 0 -0.051455550874872136 0.0018716684011365475 0 -0.051914663143659903 0.00041886969640570788 0 -0.051455550874872136 0.0018716684011365475 0 -0.050915286676869904 0.00086718789811530224 0 -0.051914663143659903 0.00041886969640570788 0 -0.050236459370009798 0.0014351578745581389 0 -0.051455550874872136 0.0018716684011365475 0 -0.050915286676869904 0.00086718789811530224 0 -0.049981452226096963 0.00058139559338111178 0 -0.050236459370009798 0.0014351578745581389 0 -0.050915286676869904 0.00086718789811530224 0 -0.049981452226096963 0.00058139559338111178 0 -0.050915286676869904 0.00086718789811530224 0 -0.050387008066880318 -8.595187329136864e-05 0 -0.050387008066880318 -8.595187329136864e-05 0 -0.051914663143659903 0.00041886969640570788 0 -0.050913928523963752 -0.00096755946357206582 0 -0.050915286676869904 0.00086718789811530224 0 -0.050387008066880318 -8.595187329136864e-05 0 -0.051914663143659903 0.00041886969640570788 0 -0.052814126577535293 -0.00056364604990646026 0 -0.053951490938819381 -0.00038325531224856868 0 -0.051914663143659903 0.00041886969640570788 0 -0.050913928523963752 -0.00096755946357206582 0 -0.052915017029131969 -0.00084636823553039967 0 -0.054999977413461465 -3.5027698946879307e-09 0 -0.054999222537696929 -3.4161333565468143e-07 0 -0.054999987524939412 -2.8991109513080908e-09 0 -0.054997105151774792 -5.2376332410086247e-07 0 -0.054999977413461465 -3.5027698946879307e-09 0 -0.054999222537696929 -3.4161333565468143e-07 0 -0.053952399971268578 0.00099085470921910055 0 -0.054306743686685553 0.00042757253296121312 0 -0.053225597136529156 0.00062747485277675605 0 -0.054306743686685553 0.00042757253296121312 0 -0.053225597136529156 0.00062747485277675605 0 -0.053908697377186961 2.3943123437580664e-05 0 -0.051914663143659903 0.00041886969640570788 0 -0.053225597136529156 0.00062747485277675605 0 -0.052915017029131969 -0.00084636823553039967 0 -0.054999222537696929 -3.4161333565468143e-07 0 -0.054999987524939412 -2.8991109513080908e-09 0 -0.055000000125817697 -9.5627962007835871e-10 0 -0.053225597136529156 0.00062747485277675605 0 -0.052915017029131969 -0.00084636823553039967 0 -0.053908697377186961 2.3943123437580664e-05 0 -0.053951490938819381 -0.00038325531224856868 0 -0.054999579837134514 -1.6927646857208901e-07 0 -0.054306743686685553 0.00042757253296121312 0 -0.053908697377186961 2.3943123437580664e-05 0 -0.054997699955527973 -1.9028132025110631e-06 0 -0.052915017029131969 -0.00084636823553039967 0 -0.053908697377186961 2.3943123437580664e-05 0 -0.054997699955527973 -1.9028132025110631e-06 0 -0.054306743686685553 0.00042757253296121312 0 -0.054997699955527973 -1.9028132025110631e-06 0 -0.054853819997462971 0.00018330648482625436 0 -0.054306743686685553 0.00042757253296121312 0 -0.054853819997462971 0.00018330648482625436 0 -0.054555707396783885 0.00070619055757765992 0 -0.054853819997462971 0.00018330648482625436 0 -0.054555707396783885 0.00070619055757765992 0 -0.054929690622545629 0.00045021097377317309 0 -0.054853819997462971 0.00018330648482625436 0 -0.055060718721333175 5.5941407326041167e-05 0 -0.054929690622545629 0.00045021097377317309 0 -0.054853819997462971 0.00018330648482625436 0 -0.055000477029753254 5.6827524506887332e-07 0 -0.055060718721333175 5.5941407326041167e-05 0 -0.054997699955527973 -1.9028132025110631e-06 0 -0.054853819997462971 0.00018330648482625436 0 -0.055000477029753254 5.6827524506887332e-07 0 -0.055000477029753254 5.6827524506887332e-07 0 -0.055000104047834709 -1.481234640580933e-07 0 -0.055060718721333175 5.5941407326041167e-05 0 -0.055000104047834709 -1.481234640580933e-07 0 -0.054786029293768336 -0.0001449714615494303 0 -0.054669640802832278 -9.5892456748064401e-05 0 -0.055000104047834709 -1.481234640580933e-07 0 -0.054786029293768336 -0.0001449714615494303 0 -0.055060718721333175 5.5941407326041167e-05 0 -0.054786029293768336 -0.0001449714615494303 0 -0.054419859339131196 -0.0003951289951781394 0 -0.054669640802832278 -9.5892456748064401e-05 0 -0.055060718721333175 5.5941407326041167e-05 0 -0.055284852374421815 0.00050161185980724125 0 -0.054929690622545629 0.00045021097377317309 0 -0.054786029293768336 -0.0001449714615494303 0 -0.055060718721333175 5.5941407326041167e-05 0 -0.054820068845661214 -0.00050225764597322975 0 -0.055423046448706097 0.001417263644288534 0 -0.051080212179888076 -0.0033519543855993527 0 -0.046867268123990884 -0.0095657171687561528 0 -0.046411442643802474 -0.0086034670214193282 0 -0.045431558808828584 -0.0091711836674850545 0 -0.051080212179888076 -0.0033519543855993527 0 -0.05007934670922664 -0.0042060683922671548 0 -0.055284852374421815 0.00050161185980724125 0 -0.054929690622545629 0.00045021097377317309 0 -0.054856672623737161 0.00090080034474793744 0 -0.054786029293768336 -0.0001449714615494303 0 -0.054820068845661214 -0.00050225764597322975 0 -0.054419859339131196 -0.0003951289951781394 0 -0.054820068845661214 -0.00050225764597322975 0 -0.054419859339131196 -0.0003951289951781394 0 -0.0542155689579676 -0.00077898548142206394 0 -0.051080212179888076 -0.0033519543855993527 0 -0.050685022092585644 -0.004970940230861638 0 -0.054820068845661214 -0.00050225764597322975 0 -0.054128513469195595 -0.00118749531536406 0 -0.0542155689579676 -0.00077898548142206394 0 -0.046867268123990884 -0.0095657171687561528 0 -0.047396651162505514 -0.0080893940263689589 0 -0.046411442643802474 -0.0086034670214193282 0 -0.046411442643802474 -0.0086034670214193282 0 -0.045431558808828584 -0.0091711836674850545 0 -0.045073229812275559 -0.0078302982918910403 0 -0.049348877657455936 -0.0037686457200826499 0 -0.05007934670922664 -0.0042060683922671548 0 -0.043910459008180233 -0.0087114420405425864 0 -0.045431558808828584 -0.0091711836674850545 0 -0.045073229812275559 -0.0078302982918910403 0 -0.054107214553463207 0.0015751880184332191 0 -0.054555707396783885 0.00070619055757765992 0 -0.054856672623737161 0.00090080034474793744 0 -0.054107214553463207 0.0015751880184332191 0 -0.053952399971268578 0.00099085470921910055 0 -0.054555707396783885 0.00070619055757765992 0 -0.053952399971268578 0.00099085470921910055 0 -0.054306743686685553 0.00042757253296121312 0 -0.054555707396783885 0.00070619055757765992 0 -0.054555707396783885 0.00070619055757765992 0 -0.054929690622545629 0.00045021097377317309 0 -0.054856672623737161 0.00090080034474793744 0 -0.054886705479473337 -4.2585328958694987e-05 0 -0.054909990056217529 -0.00014448312250990296 0 -0.054668890082050323 -0.00013992449269110966 0 -0.054886705479473337 -4.2585328958694987e-05 0 -0.054999960133337016 -4.8001879159458058e-09 0 -0.054999770817916467 3.5988972802326459e-08 0 -0.054886705479473337 -4.2585328958694987e-05 0 -0.054999960133337016 -4.8001879159458058e-09 0 -0.055003844241615099 -3.7223896888393482e-05 0 -0.053675560978624935 -0.00011249907679408706 0 -0.053515156139351212 -0.00058884684597621548 0 -0.052903480446068296 -0.00068285886796329623 0 -0.054886705479473337 -4.2585328958694987e-05 0 -0.055003844241615099 -3.7223896888393482e-05 0 -0.054909990056217529 -0.00014448312250990296 0 -0.054335411412984903 -0.00013048139626013061 0 -0.053921675477549266 -0.00041624170872059119 0 -0.053675560978624935 -0.00011249907679408706 0 -0.054154309840235809 -0.00028209136412681328 0 -0.053515156139351212 -0.00058884684597621548 0 -0.054999960133337016 -4.8001879159458058e-09 0 -0.055003844241615099 -3.7223896888393482e-05 0 -0.055000048013140464 -1.3939366474428296e-08 0 -0.053675560978624935 -0.00011249907679408706 0 -0.054997948874020423 6.4562552259996302e-07 0 -0.054154309840235809 -0.00028209136412681328 0 -0.054335411412984903 -0.00013048139626013061 0 -0.054999668508059124 -7.2342849362665676e-08 0 -0.055000104047834709 -1.481234640580933e-07 0 -0.054997948874020423 6.4562552259996302e-07 0 -0.054669640802832278 -9.5892456748064401e-05 0 -0.054997948874020423 6.4562552259996302e-07 0 -0.054154309840235809 -0.00028209136412681328 0 -0.054669640802832278 -9.5892456748064401e-05 0 -0.054419859339131196 -0.0003951289951781394 0 -0.054154309840235809 -0.00028209136412681328 0 -0.054669640802832278 -9.5892456748064401e-05 0 -0.054419859339131196 -0.0003951289951781394 0 -0.054154309840235809 -0.00028209136412681328 0 -0.053779132550619994 -0.00072983047814393829 0 -0.054419859339131196 -0.0003951289951781394 0 -0.0542155689579676 -0.00077898548142206394 0 -0.053779132550619994 -0.00072983047814393829 0 -0.054128513469195595 -0.00118749531536406 0 -0.0542155689579676 -0.00077898548142206394 0 -0.053343789596443647 -0.0012462862942196065 0 -0.0542155689579676 -0.00077898548142206394 0 -0.053779132550619994 -0.00072983047814393829 0 -0.053343789596443647 -0.0012462862942196065 0 -0.053779132550619994 -0.00072983047814393829 0 -0.053119929187080417 -0.00099582011920346645 0 -0.053343789596443647 -0.0012462862942196065 0 -0.054154309840235809 -0.00028209136412681328 0 -0.053779132550619994 -0.00072983047814393829 0 -0.053515156139351212 -0.00058884684597621548 0 -0.053779132550619994 -0.00072983047814393829 0 -0.053119929187080417 -0.00099582011920346645 0 -0.053515156139351212 -0.00058884684597621548 0 -0.053119929187080417 -0.00099582011920346645 0 -0.053515156139351212 -0.00058884684597621548 0 -0.052903480446068296 -0.00068285886796329623 0 -0.053119929187080417 -0.00099582011920346645 0 -0.052903480446068296 -0.00068285886796329623 0 -0.052707516236813232 -0.0011626657618161501 0 -0.052903480446068296 -0.00068285886796329623 0 -0.052707516236813232 -0.0011626657618161501 0 -0.05272718395851822 -0.0011566387274145318 0 -0.053921675477549266 -0.00041624170872059119 0 -0.053674651137462712 -0.00071595066403573723 0 -0.054909990056217529 -0.00014448312250990296 0 -0.054668890082050323 -0.00013992449269110966 0 -0.054594400918763421 -0.00035469342120361208 0 -0.052723303102872002 -0.00092217936495602728 0 -0.052706352920541655 -0.0010872836775360863 0 -0.052258112083664633 -0.0013110504337680677 0 -0.052723303102872002 -0.00092217936495602728 0 -0.052706352920541655 -0.0010872836775360863 0 -0.053063311945688793 -0.00083414467219831794 0 -0.052706352920541655 -0.0010872836775360863 0 -0.052707516236813232 -0.0011626657618161501 0 -0.05272718395851822 -0.0011566387274145318 0 -0.052706352920541655 -0.0010872836775360863 0 -0.052707516236813232 -0.0011626657618161501 0 -0.052258112083664633 -0.0013110504337680677 0 -0.052707516236813232 -0.0011626657618161501 0 -0.052258112083664633 -0.0013110504337680677 0 -0.052722491714184472 -0.0012877348397436607 0 -0.053119929187080417 -0.00099582011920346645 0 -0.052707516236813232 -0.0011626657618161501 0 -0.052722491714184472 -0.0012877348397436607 0 -0.052258112083664633 -0.0013110504337680677 0 -0.052722491714184472 -0.0012877348397436607 0 -0.052432019869283385 -0.0018129180679866909 0 -0.052722491714184472 -0.0012877348397436607 0 -0.053343789596443647 -0.0012462862942196065 0 -0.052432019869283385 -0.0018129180679866909 0 -0.053119929187080417 -0.00099582011920346645 0 -0.052722491714184472 -0.0012877348397436607 0 -0.053343789596443647 -0.0012462862942196065 0 -0.054128513469195595 -0.00118749531536406 0 -0.053343789596443647 -0.0012462862942196065 0 -0.05335682142913719 -0.0017340956314395599 0 -0.053343789596443647 -0.0012462862942196065 0 -0.05335682142913719 -0.0017340956314395599 0 -0.052432019869283385 -0.0018129180679866909 0 -0.05335682142913719 -0.0017340956314395599 0 -0.052380737822276147 -0.00245883787333774 0 -0.052432019869283385 -0.0018129180679866909 0 -0.050720478585014842 -0.0040945479543048986 0 -0.050568719586752915 -0.0037702115896217055 0 -0.052380737822276147 -0.00245883787333774 0 -0.051460861292250581 -0.0026501463131511113 0 -0.050279532152593398 -0.0030639424729799291 0 -0.052380737822276147 -0.00245883787333774 0 -0.051460861292250581 -0.0026501463131511113 0 -0.052432019869283385 -0.0018129180679866909 0 -0.051460861292250581 -0.0026501463131511113 0 -0.052432019869283385 -0.0018129180679866909 0 -0.051630477280787956 -0.0022653457512434162 0 -0.052258112083664633 -0.0013110504337680677 0 -0.052432019869283385 -0.0018129180679866909 0 -0.051630477280787956 -0.0022653457512434162 0 -0.051460861292250581 -0.0026501463131511113 0 -0.051630477280787956 -0.0022653457512434162 0 -0.051315895324927308 -0.0026474148177310169 0 -0.051615262855359216 -0.0022432215089671866 0 -0.051545915360582395 -0.0021729849930980641 0 -0.051630477280787956 -0.0022653457512434162 0 -0.051580214614528733 -0.0021676709877961791 0 -0.051661361734338634 -0.0017413726055160652 0 -0.051630477280787956 -0.0022653457512434162 0 -0.051360866882101903 -0.0026448289954549252 0 -0.051315895324927308 -0.0026474148177310169 0 -0.052258112083664633 -0.0013110504337680677 0 -0.051630477280787956 -0.0022653457512434162 0 -0.051580214614528733 -0.0021676709877961791 0 -0.052723303102872002 -0.00092217936495602728 0 -0.052766194394645145 -0.00049586574867126567 0 -0.05285043863166583 -0.0006616820107839431 0 -0.052236791735185757 -0.0013157302992195068 0 -0.052195272170717649 -0.0013354163701544625 0 -0.052723303102872002 -0.00092217936495602728 0 -0.052258112083664633 -0.0013110504337680677 0 -0.052766194394645145 -0.00049586574867126567 0 -0.045602270232628667 -0.0066045679373076651 0 -0.044255193471534539 -0.0065697667519483242 0 -0.045073229812275559 -0.0078302982918910403 0 -0.045602270232628667 -0.0066045679373076651 0 -0.044255193471534539 -0.0065697667519483242 0 -0.045026639197476223 -0.0056199914064283367 0 -0.043547980150771548 -0.0077796683058362912 0 -0.044255193471534539 -0.0065697667519483242 0 -0.045073229812275559 -0.0078302982918910403 0 -0.043547980150771548 -0.0077796683058362912 0 -0.043910459008180233 -0.0087114420405425864 0 -0.045073229812275559 -0.0078302982918910403 0 -0.045602270232628667 -0.0066045679373076651 0 -0.045073229812275559 -0.0078302982918910403 0 -0.046609217217614331 -0.0071934894150936278 0 -0.047396651162505514 -0.0080893940263689589 0 -0.046411442643802474 -0.0086034670214193282 0 -0.046609217217614331 -0.0071934894150936278 0 -0.046411442643802474 -0.0086034670214193282 0 -0.045073229812275559 -0.0078302982918910403 0 -0.046609217217614331 -0.0071934894150936278 0 -0.047396651162505514 -0.0080893940263689589 0 -0.048009352760629134 -0.0066502405379561041 0 -0.046609217217614331 -0.0071934894150936278 0 -0.050685022092585644 -0.004970940230861638 0 -0.050720478585014842 -0.0040945479543048986 0 -0.048009352760629134 -0.0066502405379561041 0 -0.046609217217614331 -0.0071934894150936278 0 -0.046566311692246808 -0.005665356760440627 0 -0.045602270232628667 -0.0066045679373076651 0 -0.046609217217614331 -0.0071934894150936278 0 -0.046566311692246808 -0.005665356760440627 0 -0.048009352760629134 -0.0066502405379561041 0 -0.048784749397846792 -0.0052594015186996105 0 -0.046566311692246808 -0.005665356760440627 0 -0.048784749397846792 -0.0052594015186996105 0 -0.046566311692246808 -0.005665356760440627 0 -0.046717839211387863 -0.0039146286121778898 0 -0.046566311692246808 -0.005665356760440627 0 -0.045255350670908738 -0.0044598033151121343 0 -0.046717839211387863 -0.0039146286121778898 0 -0.046566311692246808 -0.005665356760440627 0 -0.045255350670908738 -0.0044598033151121343 0 -0.045026639197476223 -0.0056199914064283367 0 -0.045602270232628667 -0.0066045679373076651 0 -0.046566311692246808 -0.005665356760440627 0 -0.045026639197476223 -0.0056199914064283367 0 -0.04354683590337706 -0.0049346734492733465 0 -0.044255193471534539 -0.0065697667519483242 0 -0.045026639197476223 -0.0056199914064283367 0 -0.043073841894966214 -0.0050271797490397084 0 -0.04483641983610178 -0.004554897541867952 0 -0.04354683590337706 -0.0049346734492733465 0 -0.045255350670908738 -0.0044598033151121343 0 -0.045026639197476223 -0.0056199914064283367 0 -0.042646376455766875 -0.0050743514878162071 0 -0.044346667666598116 -0.0047041362465547257 0 -0.043153194728826227 -0.0042369087800651298 0 -0.042313747725221583 -0.003633631118995556 0 -0.043153194728826227 -0.0042369087800651298 0 -0.04319472719197405 -0.003053474286532654 0 -0.044346667666598116 -0.0047041362465547257 0 -0.043153194728826227 -0.0042369087800651298 0 -0.04319472719197405 -0.003053474286532654 0 -0.044346667666598116 -0.0047041362465547257 0 -0.044855503186307523 -0.0027103523590687856 0 -0.04319472719197405 -0.003053474286532654 0 -0.044855503186307523 -0.0027103523590687856 0 -0.04319472719197405 -0.003053474286532654 0 -0.043746633126944941 -0.0017821063053566092 0 -0.042588434645218248 -0.0017795953069247371 0 -0.043746633126944941 -0.0017821063053566092 0 -0.043574806011013559 -0.00065709636887286262 0 -0.042588434645218248 -0.0017795953069247371 0 -0.04319472719197405 -0.003053474286532654 0 -0.043746633126944941 -0.0017821063053566092 0 -0.044855503186307523 -0.0027103523590687856 0 -0.043746633126944941 -0.0017821063053566092 0 -0.045064117968617166 -0.00086247050676889557 0 -0.043574806011013559 -0.00065709636887286262 0 -0.045064117968617166 -0.00086247050676889557 0 -0.043878835561602339 0.00067389932733889399 0 -0.043746633126944941 -0.0017821063053566092 0 -0.043574806011013559 -0.00065709636887286262 0 -0.045064117968617166 -0.00086247050676889557 0 -0.042588434645218248 -0.0017795953069247371 0 -0.041521859846301606 -0.00060441331882791474 0 -0.043574806011013559 -0.00065709636887286262 0 -0.041521859846301606 -0.00060441331882791474 0 -0.043574806011013559 -0.00065709636887286262 0 -0.042644098264400784 0.00051118077965965343 0 -0.047169818954825249 -0.00059056389858517134 0 -0.045064117968617166 -0.00086247050676889557 0 -0.04614197398893153 0.00096472294764894239 0 -0.047169818954825249 -0.00059056389858517134 0 -0.045064117968617166 -0.00086247050676889557 0 -0.046632689812260444 -0.00209900983364518 0 -0.044855503186307523 -0.0027103523590687856 0 -0.045064117968617166 -0.00086247050676889557 0 -0.046632689812260444 -0.00209900983364518 0 -0.047169818954825249 -0.00059056389858517134 0 -0.046632689812260444 -0.00209900983364518 0 -0.048745937075647859 -0.001685330467346635 0 -0.046632689812260444 -0.00209900983364518 0 -0.048255088160029491 -0.0031331424885072418 0 -0.048745937075647859 -0.001685330467346635 0 -0.046632689812260444 -0.00209900983364518 0 -0.046717839211387863 -0.0039146286121778898 0 -0.048255088160029491 -0.0031331424885072418 0 -0.044855503186307523 -0.0027103523590687856 0 -0.046632689812260444 -0.00209900983364518 0 -0.046717839211387863 -0.0039146286121778898 0 -0.04483641983610178 -0.004554897541867952 0 -0.046613163583336018 -0.0039400322271454938 0 -0.044346667666598116 -0.0047041362465547257 0 -0.044855503186307523 -0.0027103523590687856 0 -0.046717839211387863 -0.0039146286121778898 0 -0.048784749397846792 -0.0052594015186996105 0 -0.046717839211387863 -0.0039146286121778898 0 -0.048255088160029491 -0.0031331424885072418 0 -0.050568719586752915 -0.0037702115896217055 0 -0.050413212233177469 -0.0030092641433390219 0 -0.048784749397846792 -0.0052594015186996105 0 -0.048255088160029491 -0.0031331424885072418 0 -0.050279532152593398 -0.0030639424729799291 0 -0.051460861292250581 -0.0026501463131511113 0 -0.050279532152593398 -0.0030639424729799291 0 -0.050964262236793789 -0.0027622775231430545 0 -0.050279532152593398 -0.0030639424729799291 0 -0.050964262236793789 -0.0027622775231430545 0 -0.050636435901388603 -0.0021334442970030424 0 -0.050279532152593398 -0.0030639424729799291 0 -0.050636435901388603 -0.0021334442970030424 0 -0.048745937075647859 -0.001685330467346635 0 -0.048255088160029491 -0.0031331424885072418 0 -0.050279532152593398 -0.0030639424729799291 0 -0.048745937075647859 -0.001685330467346635 0 -0.051360866882101903 -0.0026448289954549252 0 -0.051204679421884829 -0.0024872947722452284 0 -0.05147639017889561 -0.0021575848949178808 0 -0.051360866882101903 -0.0026448289954549252 0 -0.051315895324927308 -0.0026474148177310169 0 -0.051204679421884829 -0.0024872947722452284 0 -0.051460861292250581 -0.0026501463131511113 0 -0.051315895324927308 -0.0026474148177310169 0 -0.050964262236793789 -0.0027622775231430545 0 -0.051315895324927308 -0.0026474148177310169 0 -0.050964262236793789 -0.0027622775231430545 0 -0.051204679421884829 -0.0024872947722452284 0 -0.050636435901388603 -0.0021334442970030424 0 -0.051204679421884829 -0.0024872947722452284 0 -0.051296493125393972 -0.0019313495534879297 0 -0.050964262236793789 -0.0027622775231430545 0 -0.050636435901388603 -0.0021334442970030424 0 -0.051204679421884829 -0.0024872947722452284 0 -0.05147639017889561 -0.0021575848949178808 0 -0.051296493125393972 -0.0019313495534879297 0 -0.051676916974888569 -0.0016948094093089789 0 -0.051204679421884829 -0.0024872947722452284 0 -0.05147639017889561 -0.0021575848949178808 0 -0.051296493125393972 -0.0019313495534879297 0 -0.051616383068139739 -0.0014765226303721508 0 -0.051296493125393972 -0.0019313495534879297 0 -0.051676916974888569 -0.0016948094093089789 0 -0.051616383068139739 -0.0014765226303721508 0 -0.051296493125393972 -0.0019313495534879297 0 -0.051092243984242086 -0.0013534732422988372 0 -0.050636435901388603 -0.0021334442970030424 0 -0.051092243984242086 -0.0013534732422988372 0 -0.049983933803218923 -0.00090036228778939934 0 -0.050636435901388603 -0.0021334442970030424 0 -0.051296493125393972 -0.0019313495534879297 0 -0.051092243984242086 -0.0013534732422988372 0 -0.051092243984242086 -0.0013534732422988372 0 -0.049983933803218923 -0.00090036228778939934 0 -0.050703796541430951 -0.00028093369621948688 0 -0.051092243984242086 -0.0013534732422988372 0 -0.051841665873105701 -0.0011002544636374814 0 -0.050703796541430951 -0.00028093369621948688 0 -0.051616383068139739 -0.0014765226303721508 0 -0.051092243984242086 -0.0013534732422988372 0 -0.051841665873105701 -0.0011002544636374814 0 -0.050636435901388603 -0.0021334442970030424 0 -0.048745937075647859 -0.001685330467346635 0 -0.049983933803218923 -0.00090036228778939934 0 -0.048745937075647859 -0.001685330467346635 0 -0.049983933803218923 -0.00090036228778939934 0 -0.048679689847479328 -0.00045803110355255945 0 -0.049983933803218923 -0.00090036228778939934 0 -0.048679689847479328 -0.00045803110355255945 0 -0.049500570814133261 7.023946657990865e-05 0 -0.049983933803218923 -0.00090036228778939934 0 -0.049500570814133261 7.023946657990865e-05 0 -0.050703796541430951 -0.00028093369621948688 0 -0.047169818954825249 -0.00059056389858517134 0 -0.048745937075647859 -0.001685330467346635 0 -0.048679689847479328 -0.00045803110355255945 0 -0.047169818954825249 -0.00059056389858517134 0 -0.048679689847479328 -0.00045803110355255945 0 -0.04812015469672673 0.0008017690665211893 0 -0.048679689847479328 -0.00045803110355255945 0 -0.04812015469672673 0.0008017690665211893 0 -0.049500570814133261 7.023946657990865e-05 0 -0.049500570814133261 7.023946657990865e-05 0 -0.049848766104883716 0.0013175318320733627 0 -0.050703796541430951 -0.00028093369621948688 0 -0.04812015469672673 0.0008017690665211893 0 -0.049500570814133261 7.023946657990865e-05 0 -0.049848766104883716 0.0013175318320733627 0 -0.048085976867079196 0.00074706221303733511 0 -0.050087553139789666 0.0018010378796550364 0 -0.04812015469672673 0.0008017690665211893 0 -0.048291300047843246 0.0024669067083176862 0 -0.04614197398893153 0.00096472294764894239 0 -0.04812015469672673 0.0008017690665211893 0 -0.049787431866621129 0.0017765587494114295 0 -0.048291300047843246 0.0024669067083176862 0 -0.051873730652875399 -0.00097529842985289979 0 -0.051958020825740726 -0.00080281665711717852 0 -0.051841665873105701 -0.0011002544636374814 0 -0.052170004386599564 -0.0018622053949455143 0 -0.051726581240931956 -0.001680044897802706 0 -0.051841665873105701 -0.0011002544636374814 0 -0.051684010166762981 0.00060945106953106862 0 -0.050703796541430951 -0.00028093369621948688 0 -0.049848766104883716 0.0013175318320733627 0 -0.051684010166762981 0.00060945106953106862 0 -0.050703796541430951 -0.00028093369621948688 0 -0.050087553139789666 0.0018010378796550364 0 -0.050260711267860095 0.00041998900178775528 0 -0.049787431866621129 0.0017765587494114295 0 -0.051391943403280023 0.0026001917571101272 0 -0.050274283649587699 0.0032344204318873375 0 -0.049848766104883716 0.0013175318320733627 0 -0.051684010166762981 0.00060945106953106862 0 -0.051381848533836573 0.0019700794595704646 0 -0.051958020825740726 -0.00080281665711717852 0 -0.050260711267860095 0.00041998900178775528 0 -0.052170004386599564 -0.0018622053949455143 0 -0.052251231375951022 -0.0023597316944607314 0 -0.051836050596915054 -0.0022095385809673836 0 -0.052251231375951022 -0.0023597316944607314 0 -0.051729951055211248 -0.0026058283464092235 0 -0.051836050596915054 -0.0022095385809673836 0 -0.047182374689815579 -0.001862178132680583 0 -0.048129878138627798 0.0010389167690133243 0 -0.049825279523329775 -0.00060122638284339832 0 -0.050260711267860095 0.00041998900178775528 0 -0.051339827688449392 -0.002908974947811273 0 -0.051391943403280023 0.0026001917571101272 0 -0.050274283649587699 0.0032344204318873375 0 -0.050934393575142969 0.0044971457244431566 0 -0.050260711267860095 0.00041998900178775528 0 -0.047921330630098048 0.002287660552923617 0 -0.047182374689815579 -0.001862178132680583 0 -0.046473529962147382 0.0010274577906384467 0 -0.046935745181739562 0.0012016242671608422 0 -0.050274283649587699 0.0032344204318873375 0 -0.050934393575142969 0.0044971457244431566 0 -0.048963656948214557 0.0038343218412448593 0 -0.047921330630098048 0.002287660552923617 0 -0.04729239778252959 0.0019364632009576199 0 -0.047182374689815579 -0.001862178132680583 0 -0.046935745181739562 0.0012016242671608422 0 -0.048129878138627798 0.0010389167690133243 0 -0.047125100040269638 -0.00076724096342768581 0 -0.046862655543196463 -0.00087498703443128945 0 -0.044156592164452758 0.0017920924091324279 0 -0.042727812292079427 0.0021099748376695554 0 -0.041967524351759003 0.0013663527029391285 0 -0.046723780418867412 0.0030258678127362657 0 -0.044323305437920353 0.0022312022180000475 0 -0.048291300047843246 0.0024669067083176862 0 -0.048963656948214557 0.0038343218412448593 0 -0.046672247159240364 0.0031870953539547327 0 -0.049787431866621129 0.0017765587494114295 0 -0.050274283649587699 0.0032344204318873375 0 -0.048963656948214557 0.0038343218412448593 0 -0.049787431866621129 0.0017765587494114295 0 -0.048291300047843246 0.0024669067083176862 0 -0.048963656948214557 0.0038343218412448593 0 -0.046228822071065503 0.0025811414368938418 0 -0.044156592164452758 0.0017920924091324279 0 -0.045040976333125364 0.0031983359538654897 0 -0.047921330630098048 0.002287660552923617 0 -0.046723780418867412 0.0030258678127362657 0 -0.044156592164452758 0.0017920924091324279 0 -0.043671372203203239 0.0028277136720126672 0 -0.045040976333125364 0.0031983359538654897 0 -0.044156592164452758 0.0017920924091324279 0 -0.043671372203203239 0.0028277136720126672 0 -0.042727812292079427 0.0021099748376695554 0 -0.043671372203203239 0.0028277136720126672 0 -0.042727812292079427 0.0021099748376695554 0 -0.042662407874240055 0.0032940806634333152 0 -0.041693029908679506 0.0013111885425943952 0 -0.042662407874240055 0.0032940806634333152 0 -0.040186148604158319 0.0039621798289784767 0 -0.042727812292079427 0.0021099748376695554 0 -0.041693029908679506 0.0013111885425943952 0 -0.042662407874240055 0.0032940806634333152 0 -0.042727812292079427 0.0021099748376695554 0 -0.041967524351759003 0.0013663527029391285 0 -0.041693029908679506 0.0013111885425943952 0 -0.041967524351759003 0.0013663527029391285 0 -0.041693029908679506 0.0013111885425943952 0 -0.043637653480620597 0.0020133849173590655 0 -0.044323305437920353 0.0022312022180000475 0 -0.043674877653249837 0.002039819463023691 0 -0.041693029908679506 0.0013111885425943952 0 -0.042955485865668101 0.0016167106217175055 0 -0.043637653480620597 0.0020133849173590655 0 -0.041693029908679506 0.0013111885425943952 0 -0.037084516200476585 0.00055785417396262338 0 -0.040186148604158319 0.0039621798289784767 0 -0.040941604167125181 0.0012560357292363208 0 -0.041183854136080555 0.0011393785801717949 0 -0.042955485865668101 0.0016167106217175055 0 -0.042797145640396481 0.0023089121648839864 0 -0.043065578575010387 0.001949719892129984 0 -0.037084516200476585 0.00055785417396262338 0 -0.032011389741899564 0.0011448973001660903 0 -0.040186148604158319 0.0039621798289784767 0 -0.030065073753444298 0.0055469069479013632 0 -0.031843702521216044 0.0055608919403800673 0 -0.041183854136080555 0.0011393785801717949 0 -0.030065073753444298 0.0055469069479013632 0 -0.036553924138409494 0.0081530565148590119 0 -0.030065073753444298 0.0055469069479013632 0 -0.021224423003269283 0.0097747389456292223 0 -0.030065073753444298 0.0055469069479013632 0 -0.015816477300460496 0.006243172124398874 0 -0.020108114956279514 0.0055489872511710354 0 -0.01758965918149457 0.008190136875328817 0 -0.041674659071946091 0.0023102979943722887 0 -0.042797145640396481 0.0023089121648839864 0 -0.042739134069502492 0.0017928869373776434 0 -0.042797145640396481 0.0023089121648839864 0 -0.042739134069502492 0.0017928869373776434 0 -0.043065578575010387 0.001949719892129984 0 -0.042739134069502492 0.0017928869373776434 0 -0.043065578575010387 0.001949719892129984 0 -0.043637653480620597 0.0020133849173590655 0 -0.042955485865668101 0.0016167106217175055 0 -0.043065578575010387 0.001949719892129984 0 -0.043637653480620597 0.0020133849173590655 0 -0.042739134069502492 0.0017928869373776434 0 -0.043637653480620597 0.0020133849173590655 0 -0.043878835561602339 0.00067389932733889399 0 -0.041523381348380302 0.001273480652746337 0 -0.042739134069502492 0.0017928869373776434 0 -0.042644098264400784 0.00051118077965965343 0 -0.042739134069502492 0.0017928869373776434 0 -0.042644098264400784 0.00051118077965965343 0 -0.043878835561602339 0.00067389932733889399 0 -0.043574806011013559 -0.00065709636887286262 0 -0.042644098264400784 0.00051118077965965343 0 -0.043878835561602339 0.00067389932733889399 0 -0.045064117968617166 -0.00086247050676889557 0 -0.043878835561602339 0.00067389932733889399 0 -0.04614197398893153 0.00096472294764894239 0 -0.047169818954825249 -0.00059056389858517134 0 -0.04812015469672673 0.0008017690665211893 0 -0.04614197398893153 0.00096472294764894239 0 -0.048291300047843246 0.0024669067083176862 0 -0.046672247159240364 0.0031870953539547327 0 -0.04614197398893153 0.00096472294764894239 0 -0.046672247159240364 0.0031870953539547327 0 -0.043637653480620597 0.0020133849173590655 0 -0.04614197398893153 0.00096472294764894239 0 -0.043637653480620597 0.0020133849173590655 0 -0.043878835561602339 0.00067389932733889399 0 -0.04614197398893153 0.00096472294764894239 0 -0.048874269757476191 -0.0025528861369668162 0 -0.048397650664003783 -0.0020392726112163006 0 -0.047872371455717357 -0.0028080855129002332 0 -0.048874269757476191 -0.0025528861369668162 0 -0.048665268790863844 -0.0031936507028209843 0 -0.047872371455717357 -0.0028080855129002332 0 -0.048874269757476191 -0.0025528861369668162 0 -0.048665268790863844 -0.0031936507028209843 0 -0.049520621421860013 -0.0027616959137204654 0 -0.048665268790863844 -0.0031936507028209843 0 -0.049520621421860013 -0.0027616959137204654 0 -0.049318001392674289 -0.0034629371220989539 0 -0.049520621421860013 -0.0027616959137204654 0 -0.049459414197668868 -0.0019774109547696468 0 -0.05020958422466109 -0.0021840766856276654 0 -0.048874269757476191 -0.0025528861369668162 0 -0.049520621421860013 -0.0027616959137204654 0 -0.049459414197668868 -0.0019774109547696468 0 -0.048874269757476191 -0.0025528861369668162 0 -0.049459414197668868 -0.0019774109547696468 0 -0.048397650664003783 -0.0020392726112163006 0 -0.049459414197668868 -0.0019774109547696468 0 -0.048397650664003783 -0.0020392726112163006 0 -0.048849042799913221 -0.0014415971375799476 0 -0.048397650664003783 -0.0020392726112163006 0 -0.047156708989183206 -0.0022261600833953193 0 -0.047884781782702363 -0.0014660082356247992 0 -0.048397650664003783 -0.0020392726112163006 0 -0.047156708989183206 -0.0022261600833953193 0 -0.047872371455717357 -0.0028080855129002332 0 -0.047156708989183206 -0.0022261600833953193 0 -0.047233357683037588 -0.001421411112162806 0 -0.046393695730876143 -0.0023263123852428507 0 -0.047156708989183206 -0.0022261600833953193 0 -0.046322745215958742 -0.0032062590222080908 0 -0.046393695730876143 -0.0023263123852428507 0 -0.047156708989183206 -0.0022261600833953193 0 -0.046322745215958742 -0.0032062590222080908 0 -0.047872371455717357 -0.0028080855129002332 0 -0.046322745215958742 -0.0032062590222080908 0 -0.047872371455717357 -0.0028080855129002332 0 -0.047469956442812433 -0.0038563736877551 0 -0.046064208036165261 -0.0031833248440559865 0 -0.046196303976047931 -0.0036762763604267488 0 -0.046196303976047931 -0.0036762763604267488 0 -0.0423983800261864 -0.0038419226590796943 0 -0.046322745215958742 -0.0032062590222080908 0 -0.044607965907984132 -0.0032727574938599528 0 -0.046095845230879853 -0.0030778196954148801 0 -0.046322745215958742 -0.0032062590222080908 0 -0.046095845230879853 -0.0030778196954148801 0 -0.046039726266711975 -0.0029359448523749408 0 -0.044607965907984132 -0.0032727574938599528 0 -0.046095845230879853 -0.0030778196954148801 0 -0.045533004109405917 -0.0025336212562141131 0 -0.044607965907984132 -0.0032727574938599528 0 -0.045533004109405917 -0.0025336212562141131 0 -0.042752327337520046 -0.0022838403572440005 0 -0.039379614252695989 -0.0044015590098434925 0 -0.0423983800261864 -0.0038419226590796943 0 -0.03525554795618157 -0.0060383815393799979 0 -0.033478503731348967 -0.0063133839034815358 0 -0.033336654649814168 -0.0053737494244605714 0 -0.0423983800261864 -0.0038419226590796943 0 -0.050340740063063411 -0.0038913967114783516 0 -0.047380855712872011 -0.0038789495432438423 0 -0.048910622266120668 -0.0040381968742090792 0 -0.048425479091614057 -0.0047336439224295 0 -0.048199925256244391 -0.0042567650851140157 0 -0.048557065828882751 -0.003806249131262695 0 -0.048910622266120668 -0.0040381968742090792 0 -0.032957736753180616 -0.0056570933017748518 0 -0.033478503731348967 -0.0063133839034815358 0 -0.033336654649814168 -0.0053737494244605714 0 -0.0423983800261864 -0.0038419226590796943 0 -0.041165919396781166 -0.0030728652196501255 0 -0.032957736753180616 -0.0056570933017748518 0 -0.033478503731348967 -0.0063133839034815358 0 -0.032169298207475071 -0.0056246459708035428 0 -0.032957736753180616 -0.0056570933017748518 0 -0.032169298207475071 -0.0056246459708035428 0 -0.032750541810091252 -0.0053556888720772064 0 -0.048665268790863844 -0.0031936507028209843 0 -0.047469956442812433 -0.0038563736877551 0 -0.048557065828882751 -0.003806249131262695 0 -0.047469956442812433 -0.0038563736877551 0 -0.048199925256244391 -0.0042567650851140157 0 -0.048557065828882751 -0.003806249131262695 0 -0.048665268790863844 -0.0031936507028209843 0 -0.047872371455717357 -0.0028080855129002332 0 -0.047469956442812433 -0.0038563736877551 0 -0.049318001392674289 -0.0034629371220989539 0 -0.048910622266120668 -0.0040381968742090792 0 -0.049919904165433238 -0.0037907993853872469 0 -0.048665268790863844 -0.0031936507028209843 0 -0.048557065828882751 -0.003806249131262695 0 -0.049318001392674289 -0.0034629371220989539 0 -0.048557065828882751 -0.003806249131262695 0 -0.049318001392674289 -0.0034629371220989539 0 -0.048910622266120668 -0.0040381968742090792 0 -0.041165919396781166 -0.0030728652196501255 0 -0.046383881848359745 -0.0026581634822759243 0 -0.048910622266120668 -0.0040381968742090792 0 -0.048425479091614057 -0.0047336439224295 0 -0.050168825212014462 -0.0044767850681130695 0 -0.050168825212014462 -0.0044767850681130695 0 -0.050789460590623434 -0.003930999437597755 0 -0.049919904165433238 -0.0037907993853872469 0 -0.048910622266120668 -0.0040381968742090792 0 -0.050168825212014462 -0.0044767850681130695 0 -0.049919904165433238 -0.0037907993853872469 0 -0.050168825212014462 -0.0044767850681130695 0 -0.050789460590623434 -0.003930999437597755 0 -0.051389377536276974 -0.0041261064392798547 0 -0.046383881848359745 -0.0026581634822759243 0 -0.046032134901315254 -0.0027431018367445564 0 -0.050789460590623434 -0.003930999437597755 0 -0.050311466983756888 -0.0030941244499325419 0 -0.051173578058535986 -0.0033305827974871392 0 -0.049318001392674289 -0.0034629371220989539 0 -0.049919904165433238 -0.0037907993853872469 0 -0.050311466983756888 -0.0030941244499325419 0 -0.050789460590623434 -0.003930999437597755 0 -0.049919904165433238 -0.0037907993853872469 0 -0.050311466983756888 -0.0030941244499325419 0 -0.051636014051567806 -0.0039359460786705111 0 -0.051466400635615549 -0.0038958708513023707 0 -0.051553591668591338 -0.0038374721361153462 0 -0.046862655543196463 -0.00087498703443128945 0 -0.046032134901315254 -0.0027431018367445564 0 -0.051636014051567806 -0.0039359460786705111 0 -0.051389377536276974 -0.0041261064392798547 0 -0.051466400635615549 -0.0038958708513023707 0 -0.048129878138627798 0.0010389167690133243 0 -0.048402328710642414 0.0010532274752292979 0 -0.049825279523329775 -0.00060122638284339832 0 -0.046862655543196463 -0.00087498703443128945 0 -0.051339827688449392 -0.002908974947811273 0 -0.050789460590623434 -0.003930999437597755 0 -0.051389377536276974 -0.0041261064392798547 0 -0.051466400635615549 -0.0038958708513023707 0 -0.051339827688449392 -0.002908974947811273 0 -0.051572067926057431 -0.0024654619709437255 0 -0.051466400635615549 -0.0038958708513023707 0 -0.051173578058535986 -0.0033305827974871392 0 -0.052181372974092671 -0.0035758570023202772 0 -0.050789460590623434 -0.003930999437597755 0 -0.051466400635615549 -0.0038958708513023707 0 -0.051173578058535986 -0.0033305827974871392 0 -0.051173578058535986 -0.0033305827974871392 0 -0.052181372974092671 -0.0035758570023202772 0 -0.051332391469711136 -0.002329652211391546 0 -0.051511808483355015 -0.0037467643863530334 0 -0.051339827688449392 -0.002908974947811273 0 -0.051729951055211248 -0.0026058283464092235 0 -0.051836050596915054 -0.0022095385809673836 0 -0.051332391469711136 -0.002329652211391546 0 -0.051836050596915054 -0.0022095385809673836 0 -0.051332391469711136 -0.002329652211391546 0 -0.051726581240931956 -0.001680044897802706 0 -0.051332391469711136 -0.002329652211391546 0 -0.051726581240931956 -0.001680044897802706 0 -0.051574063760240027 -0.0016115584404554583 0 -0.051332391469711136 -0.002329652211391546 0 -0.051068401801566014 -0.001638157017459733 0 -0.051574063760240027 -0.0016115584404554583 0 -0.052170004386599564 -0.0018622053949455143 0 -0.051836050596915054 -0.0022095385809673836 0 -0.051726581240931956 -0.001680044897802706 0 -0.049520621421860013 -0.0027616959137204654 0 -0.050311466983756888 -0.0030941244499325419 0 -0.05020958422466109 -0.0021840766856276654 0 -0.049520621421860013 -0.0027616959137204654 0 -0.049318001392674289 -0.0034629371220989539 0 -0.050311466983756888 -0.0030941244499325419 0 -0.050311466983756888 -0.0030941244499325419 0 -0.051173578058535986 -0.0033305827974871392 0 -0.051332391469711136 -0.002329652211391546 0 -0.050311466983756888 -0.0030941244499325419 0 -0.051332391469711136 -0.002329652211391546 0 -0.05020958422466109 -0.0021840766856276654 0 -0.051332391469711136 -0.002329652211391546 0 -0.05020958422466109 -0.0021840766856276654 0 -0.051068401801566014 -0.001638157017459733 0 -0.049459414197668868 -0.0019774109547696468 0 -0.05020958422466109 -0.0021840766856276654 0 -0.050369992204223779 -0.0013286138302295416 0 -0.05020958422466109 -0.0021840766856276654 0 -0.050369992204223779 -0.0013286138302295416 0 -0.051068401801566014 -0.001638157017459733 0 -0.050369992204223779 -0.0013286138302295416 0 -0.051068401801566014 -0.001638157017459733 0 -0.051332449754882187 -0.0010384878782424614 0 -0.051068401801566014 -0.001638157017459733 0 -0.051654658470887099 -0.0013084944271486638 0 -0.051574063760240027 -0.0016115584404554583 0 -0.051068401801566014 -0.001638157017459733 0 -0.051654658470887099 -0.0013084944271486638 0 -0.051332449754882187 -0.0010384878782424614 0 -0.051654658470887099 -0.0013084944271486638 0 -0.051759217424538484 -0.0010267764539523359 0 -0.051332449754882187 -0.0010384878782424614 0 -0.050441919121073708 -0.0013881733751870957 0 -0.050422586955231184 -0.00083512415075834452 0 -0.050369992204223779 -0.0013286138302295416 0 -0.051332449754882187 -0.0010384878782424614 0 -0.051371176341945449 -0.00092546883641453131 0 -0.051616383068139739 -0.0014765226303721508 0 -0.051841665873105701 -0.0011002544636374814 0 -0.051758217561230141 -0.0014064748703052797 0 -0.051841665873105701 -0.0011002544636374814 0 -0.051726581240931956 -0.001680044897802706 0 -0.051758217561230141 -0.0014064748703052797 0 -0.051726581240931956 -0.001680044897802706 0 -0.051758217561230141 -0.0014064748703052797 0 -0.051574063760240027 -0.0016115584404554583 0 -0.051654658470887099 -0.0013084944271486638 0 -0.051758217561230141 -0.0014064748703052797 0 -0.051574063760240027 -0.0016115584404554583 0 -0.051654658470887099 -0.0013084944271486638 0 -0.051759217424538484 -0.0010267764539523359 0 -0.052073176788383878 -0.0011015043156662962 0 -0.051654658470887099 -0.0013084944271486638 0 -0.051766508372356156 -0.0015638269399738832 0 -0.051882937643723592 -0.0019012600762869914 0 -0.051710543152301239 -0.0013590866431022763 0 -0.051937743010641274 -0.0015314676031094564 0 -0.051654658470887099 -0.0013084944271486638 0 -0.052102820738268635 -0.001149911488834431 0 -0.052073176788383878 -0.0011015043156662962 0 -0.051654658470887099 -0.0013084944271486638 0 -0.051758217561230141 -0.0014064748703052797 0 -0.051766508372356156 -0.0015638269399738832 0 -0.051758217561230141 -0.0014064748703052797 0 -0.051766508372356156 -0.0015638269399738832 0 -0.051676916974888569 -0.0016948094093089789 0 -0.051766508372356156 -0.0015638269399738832 0 -0.051676916974888569 -0.0016948094093089789 0 -0.051882937643723592 -0.0019012600762869914 0 -0.051616383068139739 -0.0014765226303721508 0 -0.051758217561230141 -0.0014064748703052797 0 -0.051676916974888569 -0.0016948094093089789 0 -0.051360866882101903 -0.0026448289954549252 0 -0.05147639017889561 -0.0021575848949178808 0 -0.051882937643723592 -0.0019012600762869914 0 -0.05147639017889561 -0.0021575848949178808 0 -0.051676916974888569 -0.0016948094093089789 0 -0.051882937643723592 -0.0019012600762869914 0 -0.052102820738268635 -0.001149911488834431 0 -0.052073176788383878 -0.0011015043156662962 0 -0.052000990284847518 -0.0016743963602845456 0 -0.052073176788383878 -0.0011015043156662962 0 -0.052206349108156351 -0.00091587689544239768 0 -0.052744927139690846 -0.00069911119727265013 0 -0.052135302885148428 -0.0011212144063191306 0 -0.052330488171995621 -0.0011709107988057206 0 -0.051759217424538484 -0.0010267764539523359 0 -0.052073176788383878 -0.0011015043156662962 0 -0.05200808891741221 -0.00090779045620533285 0 -0.052206349108156351 -0.00091587689544239768 0 -0.05200808891741221 -0.00090779045620533285 0 -0.052208266136715954 -0.00079450164409118542 0 -0.052073176788383878 -0.0011015043156662962 0 -0.052206349108156351 -0.00091587689544239768 0 -0.05200808891741221 -0.00090779045620533285 0 -0.052390252260945312 -0.00071611590294578338 0 -0.052366970343778366 -0.00079692062010261239 0 -0.052208266136715954 -0.00079450164409118542 0 -0.052206349108156351 -0.00091587689544239768 0 -0.052366970343778366 -0.00079692062010261239 0 -0.052208266136715954 -0.00079450164409118542 0 -0.052563180749496063 -0.00068333053737057122 0 -0.052366970343778366 -0.00079692062010261239 0 -0.052744927139690846 -0.00069911119727265013 0 -0.052390252260945312 -0.00071611590294578338 0 -0.052563180749496063 -0.00068333053737057122 0 -0.052595481020264415 -0.00063583724047795698 0 -0.052390252260945312 -0.00071611590294578338 0 -0.052563180749496063 -0.00068333053737057122 0 -0.052366970343778366 -0.00079692062010261239 0 -0.052206349108156351 -0.00091587689544239768 0 -0.052366970343778366 -0.00079692062010261239 0 -0.052744927139690846 -0.00069911119727265013 0 -0.051545915360582395 -0.0021729849930980641 0 -0.051937743010641274 -0.0015314676031094564 0 -0.051661361734338634 -0.0017413726055160652 0 -0.052102820738268635 -0.001149911488834431 0 -0.052000990284847518 -0.0016743963602845456 0 -0.052563180749496063 -0.00068333053737057122 0 -0.052744927139690846 -0.00069911119727265013 0 -0.05274015048855904 -0.00059185430243554303 0 -0.051678052137406408 -0.00085522646878999668 0 -0.051371176341945449 -0.00092546883641453131 0 -0.051943697361128922 -0.00074549529238657425 0 -0.050422586955231184 -0.00083512415075834452 0 -0.05154447938417752 -0.00050391460997628297 0 -0.051371176341945449 -0.00092546883641453131 0 -0.051943697361128922 -0.00074549529238657425 0 -0.051980525936960911 -0.00072809911044668528 0 -0.051678052137406408 -0.00085522646878999668 0 -0.051795444336844298 -0.00088050370761196168 0 -0.051994846305689131 -0.00075410662562502395 0 -0.051678052137406408 -0.00085522646878999668 0 -0.051994846305689131 -0.00075410662562502395 0 -0.051943697361128922 -0.00074549529238657425 0 -0.051332449754882187 -0.0010384878782424614 0 -0.051678052137406408 -0.00085522646878999668 0 -0.051371176341945449 -0.00092546883641453131 0 -0.051332449754882187 -0.0010384878782424614 0 -0.051678052137406408 -0.00085522646878999668 0 -0.051795444336844298 -0.00088050370761196168 0 -0.051759217424538484 -0.0010267764539523359 0 -0.051332449754882187 -0.0010384878782424614 0 -0.051795444336844298 -0.00088050370761196168 0 -0.051759217424538484 -0.0010267764539523359 0 -0.05200808891741221 -0.00090779045620533285 0 -0.051795444336844298 -0.00088050370761196168 0 -0.05200808891741221 -0.00090779045620533285 0 -0.051795444336844298 -0.00088050370761196168 0 -0.05207646666537645 -0.0007791615721028151 0 -0.051795444336844298 -0.00088050370761196168 0 -0.05207646666537645 -0.0007791615721028151 0 -0.051994846305689131 -0.00075410662562502395 0 -0.05207646666537645 -0.0007791615721028151 0 -0.05223472756640421 -0.00069818983785614437 0 -0.051994846305689131 -0.00075410662562502395 0 -0.05207646666537645 -0.0007791615721028151 0 -0.052208266136715954 -0.00079450164409118542 0 -0.05230586922646064 -0.00070333096115080928 0 -0.05200808891741221 -0.00090779045620533285 0 -0.05207646666537645 -0.0007791615721028151 0 -0.052208266136715954 -0.00079450164409118542 0 -0.052390252260945312 -0.00071611590294578338 0 -0.052208266136715954 -0.00079450164409118542 0 -0.05230586922646064 -0.00070333096115080928 0 -0.052390252260945312 -0.00071611590294578338 0 -0.05230586922646064 -0.00070333096115080928 0 -0.052544383012671086 -0.00063200953022077668 0 -0.05230586922646064 -0.00070333096115080928 0 -0.05223472756640421 -0.00069818983785614437 0 -0.052444804787702658 -0.00064649198277358529 0 -0.05207646666537645 -0.0007791615721028151 0 -0.05230586922646064 -0.00070333096115080928 0 -0.05223472756640421 -0.00069818983785614437 0 -0.05223472756640421 -0.00069818983785614437 0 -0.051994846305689131 -0.00075410662562502395 0 -0.052217400872921219 -0.00069495044983852033 0 -0.051994846305689131 -0.00075410662562502395 0 -0.051943697361128922 -0.00074549529238657425 0 -0.052039352260639576 -0.00073071795311371944 0 -0.051943697361128922 -0.00074549529238657425 0 -0.052039352260639576 -0.00073071795311371944 0 -0.052030648457008992 -0.00073745187494028599 0 -0.051672236449400888 -0.00058510568913667615 0 -0.05154447938417752 -0.00050391460997628297 0 -0.051994846305689131 -0.00075410662562502395 0 -0.052039352260639576 -0.00073071795311371944 0 -0.052217400872921219 -0.00069495044983852033 0 -0.052039352260639576 -0.00073071795311371944 0 -0.052217400872921219 -0.00069495044983852033 0 -0.052030648457008992 -0.00073745187494028599 0 -0.049105455788179833 -0.00019423916380283433 0 -0.048647248658293209 -0.00031491287329322293 0 -0.048327421986380285 -0.00029932962088487138 0 -0.05154447938417752 -0.00050391460997628297 0 -0.050591217689744901 -0.00054165309025436129 0 -0.049105455788179833 -0.00019423916380283433 0 -0.048647248658293209 -0.00031491287329322293 0 -0.049027690276659097 -0.00037012073623079252 0 -0.048647248658293209 -0.00031491287329322293 0 -0.04837794227486162 -0.00053726597263437819 0 -0.048266201685505154 -0.00040286522542012807 0 -0.048647248658293209 -0.00031491287329322293 0 -0.048266201685505154 -0.00040286522542012807 0 -0.048327421986380285 -0.00029932962088487138 0 -0.048647248658293209 -0.00031491287329322293 0 -0.04837794227486162 -0.00053726597263437819 0 -0.048883074777642845 -0.00047874515744715339 0 -0.04837794227486162 -0.00053726597263437819 0 -0.048883074777642845 -0.00047874515744715339 0 -0.048997301505208785 -0.00080123646408125756 0 -0.04957712121077433 -0.00057987553772038643 0 -0.049105455788179833 -0.00019423916380283433 0 -0.049027690276659097 -0.00037012073623079252 0 -0.048647248658293209 -0.00031491287329322293 0 -0.049027690276659097 -0.00037012073623079252 0 -0.048883074777642845 -0.00047874515744715339 0 -0.04957712121077433 -0.00057987553772038643 0 -0.048883074777642845 -0.00047874515744715339 0 -0.048997301505208785 -0.00080123646408125756 0 -0.04957712121077433 -0.00057987553772038643 0 -0.049027690276659097 -0.00037012073623079252 0 -0.048883074777642845 -0.00047874515744715339 0 -0.050369992204223779 -0.0013286138302295416 0 -0.04957712121077433 -0.00057987553772038643 0 -0.048997301505208785 -0.00080123646408125756 0 -0.04837794227486162 -0.00053726597263437819 0 -0.048997301505208785 -0.00080123646408125756 0 -0.048393588562068157 -0.00094060879361784647 0 -0.048997301505208785 -0.00080123646408125756 0 -0.048393588562068157 -0.00094060879361784647 0 -0.048849042799913221 -0.0014415971375799476 0 -0.048393588562068157 -0.00094060879361784647 0 -0.048849042799913221 -0.0014415971375799476 0 -0.047884781782702363 -0.0014660082356247992 0 -0.048397650664003783 -0.0020392726112163006 0 -0.048849042799913221 -0.0014415971375799476 0 -0.047884781782702363 -0.0014660082356247992 0 -0.049459414197668868 -0.0019774109547696468 0 -0.050369992204223779 -0.0013286138302295416 0 -0.048849042799913221 -0.0014415971375799476 0 -0.050369992204223779 -0.0013286138302295416 0 -0.048997301505208785 -0.00080123646408125756 0 -0.048849042799913221 -0.0014415971375799476 0 -0.047156708989183206 -0.0022261600833953193 0 -0.047233357683037588 -0.001421411112162806 0 -0.047884781782702363 -0.0014660082356247992 0 -0.047233357683037588 -0.001421411112162806 0 -0.047884781782702363 -0.0014660082356247992 0 -0.047913445366100406 -0.00073645886713587705 0 -0.04837794227486162 -0.00053726597263437819 0 -0.048393588562068157 -0.00094060879361784647 0 -0.047913445366100406 -0.00073645886713587705 0 -0.048393588562068157 -0.00094060879361784647 0 -0.047884781782702363 -0.0014660082356247992 0 -0.047913445366100406 -0.00073645886713587705 0 -0.047233357683037588 -0.001421411112162806 0 -0.047913445366100406 -0.00073645886713587705 0 -0.047592307299641139 -0.0003902402978136736 0 -0.047913445366100406 -0.00073645886713587705 0 -0.047592307299641139 -0.0003902402978136736 0 -0.047993272553712503 -0.00044612692309337206 0 -0.047592307299641139 -0.0003902402978136736 0 -0.047993272553712503 -0.00044612692309337206 0 -0.04832381909679883 -0.00045610665869193917 0 -0.04837794227486162 -0.00053726597263437819 0 -0.047913445366100406 -0.00073645886713587705 0 -0.047993272553712503 -0.00044612692309337206 0 -0.04837794227486162 -0.00053726597263437819 0 -0.048266201685505154 -0.00040286522542012807 0 -0.047993272553712503 -0.00044612692309337206 0 -0.048266201685505154 -0.00040286522542012807 0 -0.047993272553712503 -0.00044612692309337206 0 -0.048327421986380285 -0.00029932962088487138 0 -0.047993272553712503 -0.00044612692309337206 0 -0.048048599068097067 -0.00082130218737447443 0 -0.048334878703702705 -0.00095886062751021986 0 -0.048048599068097067 -0.00082130218737447443 0 -0.048334878703702705 -0.00095886062751021986 0 -0.048424368331758727 -0.0016137002020983502 0 -0.050484111758906151 -0.0007973352919729078 0 -0.050390311569356125 -0.00099815129186650825 0 -0.052784665886467338 -0.00069877514491271183 0 -0.052971338210244828 -0.00065270217642511422 0 -0.052903468238917291 -0.00055418713902671271 0 -0.050484111758906151 -0.0007973352919729078 0 -0.050591217689744901 -0.00054165309025436129 0 -0.052784665886467338 -0.00069877514491271183 0 -0.052977383606949903 -0.00077713781109705346 0 -0.052971338210244828 -0.00065270217642511422 0 -0.047993272553712503 -0.00044612692309337206 0 -0.048048599068097067 -0.00082130218737447443 0 -0.048327421986380285 -0.00029932962088487138 0 -0.052977383606949903 -0.00077713781109705346 0 -0.053109727308594812 -0.00068814220423908765 0 -0.052971338210244828 -0.00065270217642511422 0 -0.05154447938417752 -0.00050391460997628297 0 -0.053023992295359645 -0.00075443387593684258 0 -0.053100454840303818 -0.00085534943832569089 0 -0.052977383606949903 -0.00077713781109705346 0 -0.053109727308594812 -0.00068814220423908765 0 -0.052217400872921219 -0.00069495044983852033 0 -0.052030648457008992 -0.00073745187494028599 0 -0.052627092600818257 -0.00059666794761147849 0 -0.053023992295359645 -0.00075443387593684258 0 -0.053043066992956737 -0.00043065514287367269 0 -0.053109727308594812 -0.00068814220423908765 0 -0.052971338210244828 -0.00065270217642511422 0 -0.053028170314055788 -0.00055695745128216286 0 -0.052971338210244828 -0.00065270217642511422 0 -0.053028170314055788 -0.00055695745128216286 0 -0.052903468238917291 -0.00055418713902671271 0 -0.053028170314055788 -0.00055695745128216286 0 -0.053014925956678324 -0.00045452946691565784 0 -0.052903468238917291 -0.00055418713902671271 0 -0.053028170314055788 -0.00055695745128216286 0 -0.053014925956678324 -0.00045452946691565784 0 -0.053126850672294598 -0.00043972451628949359 0 -0.052627092600818257 -0.00059666794761147849 0 -0.053126850672294598 -0.00043972451628949359 0 -0.052924972648557174 -0.00051945902699030246 0 -0.053109727308594812 -0.00068814220423908765 0 -0.053028170314055788 -0.00055695745128216286 0 -0.053126850672294598 -0.00043972451628949359 0 -0.053126850672294598 -0.00043972451628949359 0 -0.052924972648557174 -0.00051945902699030246 0 -0.053113868329200148 -0.00043713546513485333 0 -0.053126850672294598 -0.00043972451628949359 0 -0.053302236061179918 -0.00028259541086421723 0 -0.053113868329200148 -0.00043713546513485333 0 -0.053126850672294598 -0.00043972451628949359 0 -0.053302236061179918 -0.00028259541086421723 0 -0.053228376975733634 -0.00029475936857446908 0 -0.053014925956678324 -0.00045452946691565784 0 -0.053228376975733634 -0.00029475936857446908 0 -0.052963349989992831 -0.00011629278163536031 0 -0.052819035634640174 -0.00021620116238161435 0 -0.053935643124821464 -0.00058739121641760458 0 -0.053014925956678324 -0.00045452946691565784 0 -0.053126850672294598 -0.00043972451628949359 0 -0.053228376975733634 -0.00029475936857446908 0 -0.05287633827698171 -0.00035209484055581582 0 -0.052729460574887109 -0.00027071462596883381 0 -0.052736912065291901 -0.00047991287727589975 0 -0.05287633827698171 -0.00035209484055581582 0 -0.052729460574887109 -0.00027071462596883381 0 -0.052955860580621066 -0.00019930135320899 0 -0.053014925956678324 -0.00045452946691565784 0 -0.05287633827698171 -0.00035209484055581582 0 -0.052955860580621066 -0.00019930135320899 0 -0.055066897027325271 -0.0024649094854723918 0 -0.054408957224515858 -0.0020960138986063654 0 -0.054051337582924443 -0.0029772225434782423 0 -0.053911159336985787 -0.0014040567903794063 0 -0.053486136877783225 -0.0016092860109704411 0 -0.052729460574887109 -0.00027071462596883381 0 -0.052736912065291901 -0.00047991287727589975 0 -0.052497374183723251 -0.00034199275415475281 0 -0.052784665886467338 -0.00069877514491271183 0 -0.052736912065291901 -0.00047991287727589975 0 -0.052528122156774888 -0.00057813236222896912 0 -0.052784665886467338 -0.00069877514491271183 0 -0.052736912065291901 -0.00047991287727589975 0 -0.052903468238917291 -0.00055418713902671271 0 -0.053014925956678324 -0.00045452946691565784 0 -0.05287633827698171 -0.00035209484055581582 0 -0.052903468238917291 -0.00055418713902671271 0 -0.05287633827698171 -0.00035209484055581582 0 -0.052736912065291901 -0.00047991287727589975 0 -0.052903468238917291 -0.00055418713902671271 0 -0.05285043863166583 -0.0006616820107839431 0 -0.052851877220789364 -0.00058973714479610957 0 -0.052982507376533289 -0.0007003759589524958 0 -0.052723303102872002 -0.00092217936495602728 0 -0.05285043863166583 -0.0006616820107839431 0 -0.052982507376533289 -0.0007003759589524958 0 -0.052851877220789364 -0.00058973714479610957 0 -0.052913660766667349 -0.00060832829727686046 0 -0.052982507376533289 -0.0007003759589524958 0 -0.052766194394645145 -0.00049586574867126567 0 -0.05285043863166583 -0.0006616820107839431 0 -0.052851877220789364 -0.00058973714479610957 0 -0.052195272170717649 -0.0013354163701544625 0 -0.052330488171995621 -0.0011709107988057206 0 -0.051580214614528733 -0.0021676709877961791 0 -0.051661361734338634 -0.0017413726055160652 0 -0.052000990284847518 -0.0016743963602845456 0 -0.052766194394645145 -0.00049586574867126567 0 -0.052744927139690846 -0.00069911119727265013 0 -0.05274015048855904 -0.00059185430243554303 0 -0.052766194394645145 -0.00049586574867126567 0 -0.052851877220789364 -0.00058973714479610957 0 -0.05274015048855904 -0.00059185430243554303 0 -0.052851877220789364 -0.00058973714479610957 0 -0.05274015048855904 -0.00059185430243554303 0 -0.052757054129954288 -0.00059190210984856443 0 -0.05274015048855904 -0.00059185430243554303 0 -0.052757054129954288 -0.00059190210984856443 0 -0.052595481020264415 -0.00063583724047795698 0 -0.052563180749496063 -0.00068333053737057122 0 -0.05274015048855904 -0.00059185430243554303 0 -0.052595481020264415 -0.00063583724047795698 0 -0.052390252260945312 -0.00071611590294578338 0 -0.052595481020264415 -0.00063583724047795698 0 -0.052544383012671086 -0.00063200953022077668 0 -0.052757054129954288 -0.00059190210984856443 0 -0.052595481020264415 -0.00063583724047795698 0 -0.052544383012671086 -0.00063200953022077668 0 -0.052757054129954288 -0.00059190210984856443 0 -0.05269634630283572 -0.00060496595986245748 0 -0.052544383012671086 -0.00063200953022077668 0 -0.052757054129954288 -0.00059190210984856443 0 -0.052841440535196058 -0.00059776021398500216 0 -0.05269634630283572 -0.00060496595986245748 0 -0.052757054129954288 -0.00059190210984856443 0 -0.052913660766667349 -0.00060832829727686046 0 -0.052841440535196058 -0.00059776021398500216 0 -0.052851877220789364 -0.00058973714479610957 0 -0.052757054129954288 -0.00059190210984856443 0 -0.052913660766667349 -0.00060832829727686046 0 -0.052913660766667349 -0.00060832829727686046 0 -0.053046317791763505 -0.00066081974136029573 0 -0.052982507376533289 -0.0007003759589524958 0 -0.052913660766667349 -0.00060832829727686046 0 -0.052993796768273267 -0.00062491514732478874 0 -0.053046317791763505 -0.00066081974136029573 0 -0.052993796768273267 -0.00062491514732478874 0 -0.052841440535196058 -0.00059776021398500216 0 -0.053053744500328182 -0.00061397891519039574 0 -0.052913660766667349 -0.00060832829727686046 0 -0.052993796768273267 -0.00062491514732478874 0 -0.052841440535196058 -0.00059776021398500216 0 -0.052841440535196058 -0.00059776021398500216 0 -0.052644394056674419 -0.00060819094882779941 0 -0.052771420040483019 -0.00057976858227630869 0 -0.052841440535196058 -0.00059776021398500216 0 -0.052771420040483019 -0.00057976858227630869 0 -0.052959239478202205 -0.00058039665386299126 0 -0.052841440535196058 -0.00059776021398500216 0 -0.052959239478202205 -0.00058039665386299126 0 -0.053053744500328182 -0.00061397891519039574 0 -0.052644394056674419 -0.00060819094882779941 0 -0.052573068440473783 -0.00061361803228154161 0 -0.052771420040483019 -0.00057976858227630869 0 -0.052841440535196058 -0.00059776021398500216 0 -0.05269634630283572 -0.00060496595986245748 0 -0.052644394056674419 -0.00060819094882779941 0 -0.05269634630283572 -0.00060496595986245748 0 -0.052544383012671086 -0.00063200953022077668 0 -0.052644394056674419 -0.00060819094882779941 0 -0.052544383012671086 -0.00063200953022077668 0 -0.052444804787702658 -0.00064649198277358529 0 -0.052644394056674419 -0.00060819094882779941 0 -0.05230586922646064 -0.00070333096115080928 0 -0.052544383012671086 -0.00063200953022077668 0 -0.052444804787702658 -0.00064649198277358529 0 -0.052444804787702658 -0.00064649198277358529 0 -0.052644394056674419 -0.00060819094882779941 0 -0.052573068440473783 -0.00061361803228154161 0 -0.052627092600818257 -0.00059666794761147849 0 -0.052573068440473783 -0.00061361803228154161 0 -0.052399126777657491 -0.00065057639216045682 0 -0.052217400872921219 -0.00069495044983852033 0 -0.052627092600818257 -0.00059666794761147849 0 -0.052399126777657491 -0.00065057639216045682 0 -0.052444804787702658 -0.00064649198277358529 0 -0.052573068440473783 -0.00061361803228154161 0 -0.052399126777657491 -0.00065057639216045682 0 -0.05223472756640421 -0.00069818983785614437 0 -0.052217400872921219 -0.00069495044983852033 0 -0.052399126777657491 -0.00065057639216045682 0 -0.05223472756640421 -0.00069818983785614437 0 -0.052444804787702658 -0.00064649198277358529 0 -0.052399126777657491 -0.00065057639216045682 0 -0.052627092600818257 -0.00059666794761147849 0 -0.052573068440473783 -0.00061361803228154161 0 -0.052771420040483019 -0.00057976858227630869 0 -0.052627092600818257 -0.00059666794761147849 0 -0.052771420040483019 -0.00057976858227630869 0 -0.052924972648557174 -0.00051945902699030246 0 -0.053000169277714865 -0.00053313279544727095 0 -0.053113868329200148 -0.00043713546513485333 0 -0.053198777016386152 -0.00040933885271924442 0 -0.052771420040483019 -0.00057976858227630869 0 -0.052924972648557174 -0.00051945902699030246 0 -0.053000169277714865 -0.00053313279544727095 0 -0.052924972648557174 -0.00051945902699030246 0 -0.053000169277714865 -0.00053313279544727095 0 -0.053113868329200148 -0.00043713546513485333 0 -0.053302236061179918 -0.00028259541086421723 0 -0.053113868329200148 -0.00043713546513485333 0 -0.053198777016386152 -0.00040933885271924442 0 -0.053302236061179918 -0.00028259541086421723 0 -0.053198777016386152 -0.00040933885271924442 0 -0.053433749196716791 -0.00014321247414529462 0 -0.053198777016386152 -0.00040933885271924442 0 -0.053288393332421642 -0.00048668815110414557 0 -0.053143977234912952 -0.00056356095958180589 0 -0.053288393332421642 -0.00048668815110414557 0 -0.053143977234912952 -0.00056356095958180589 0 -0.053284271033529916 -0.00059809621565600412 0 -0.053143977234912952 -0.00056356095958180589 0 -0.053053744500328182 -0.00061397891519039574 0 -0.053207933365644479 -0.00063142560376702847 0 -0.053143977234912952 -0.00056356095958180589 0 -0.053207933365644479 -0.00063142560376702847 0 -0.053284271033529916 -0.00059809621565600412 0 -0.053000169277714865 -0.00053313279544727095 0 -0.053198777016386152 -0.00040933885271924442 0 -0.053143977234912952 -0.00056356095958180589 0 -0.052771420040483019 -0.00057976858227630869 0 -0.053000169277714865 -0.00053313279544727095 0 -0.052959239478202205 -0.00058039665386299126 0 -0.053000169277714865 -0.00053313279544727095 0 -0.053143977234912952 -0.00056356095958180589 0 -0.052959239478202205 -0.00058039665386299126 0 -0.053143977234912952 -0.00056356095958180589 0 -0.052959239478202205 -0.00058039665386299126 0 -0.053053744500328182 -0.00061397891519039574 0 -0.053053744500328182 -0.00061397891519039574 0 -0.053132932909967553 -0.00065456143104610724 0 -0.053207933365644479 -0.00063142560376702847 0 -0.052993796768273267 -0.00062491514732478874 0 -0.053053744500328182 -0.00061397891519039574 0 -0.053132932909967553 -0.00065456143104610724 0 -0.052993796768273267 -0.00062491514732478874 0 -0.053046317791763505 -0.00066081974136029573 0 -0.053132932909967553 -0.00065456143104610724 0 -0.053046317791763505 -0.00066081974136029573 0 -0.053132932909967553 -0.00065456143104610724 0 -0.053194873891916288 -0.00069878696365245261 0 -0.053132932909967553 -0.00065456143104610724 0 -0.053194873891916288 -0.00069878696365245261 0 -0.053252980908967983 -0.00067700862800869148 0 -0.053194873891916288 -0.00069878696365245261 0 -0.053252980908967983 -0.00067700862800869148 0 -0.053358407185768807 -0.00073228991283455969 0 -0.053252980908967983 -0.00067700862800869148 0 -0.053207933365644479 -0.00063142560376702847 0 -0.053349136535501551 -0.00066239462576810602 0 -0.053132932909967553 -0.00065456143104610724 0 -0.053252980908967983 -0.00067700862800869148 0 -0.053207933365644479 -0.00063142560376702847 0 -0.053288393332421642 -0.00048668815110414557 0 -0.053284271033529916 -0.00059809621565600412 0 -0.053401138601588322 -0.00061240700878406075 0 -0.053207933365644479 -0.00063142560376702847 0 -0.053284271033529916 -0.00059809621565600412 0 -0.053349136535501551 -0.00066239462576810602 0 -0.053284271033529916 -0.00059809621565600412 0 -0.053349136535501551 -0.00066239462576810602 0 -0.053401138601588322 -0.00061240700878406075 0 -0.053349136535501551 -0.00066239462576810602 0 -0.053401138601588322 -0.00061240700878406075 0 -0.053456873660014927 -0.00068955751448507947 0 -0.053288393332421642 -0.00048668815110414557 0 -0.053401138601588322 -0.00061240700878406075 0 -0.053594516354654613 -0.00059590547543952681 0 -0.053594516354654613 -0.00059590547543952681 0 -0.053536016641891955 -0.00077192134833607858 0 -0.053456873660014927 -0.00068955751448507947 0 -0.053536016641891955 -0.00077192134833607858 0 -0.053456873660014927 -0.00068955751448507947 0 -0.053358407185768807 -0.00073228991283455969 0 -0.053401138601588322 -0.00061240700878406075 0 -0.053594516354654613 -0.00059590547543952681 0 -0.053456873660014927 -0.00068955751448507947 0 -0.053349136535501551 -0.00066239462576810602 0 -0.053456873660014927 -0.00068955751448507947 0 -0.053358407185768807 -0.00073228991283455969 0 -0.053252980908967983 -0.00067700862800869148 0 -0.053349136535501551 -0.00066239462576810602 0 -0.053358407185768807 -0.00073228991283455969 0 -0.053536016641891955 -0.00077192134833607858 0 -0.053358407185768807 -0.00073228991283455969 0 -0.053063311945688793 -0.00083414467219831794 0 -0.052706352920541655 -0.0010872836775360863 0 -0.053063311945688793 -0.00083414467219831794 0 -0.05272718395851822 -0.0011566387274145318 0 -0.053536016641891955 -0.00077192134833607858 0 -0.053063311945688793 -0.00083414467219831794 0 -0.05272718395851822 -0.0011566387274145318 0 -0.053594516354654613 -0.00059590547543952681 0 -0.053536016641891955 -0.00077192134833607858 0 -0.054594400918763421 -0.00035469342120361208 0 -0.053194873891916288 -0.00069878696365245261 0 -0.053063311945688793 -0.00083414467219831794 0 -0.052982507376533289 -0.0007003759589524958 0 -0.053194873891916288 -0.00069878696365245261 0 -0.053358407185768807 -0.00073228991283455969 0 -0.053063311945688793 -0.00083414467219831794 0 -0.053046317791763505 -0.00066081974136029573 0 -0.053194873891916288 -0.00069878696365245261 0 -0.052982507376533289 -0.0007003759589524958 0 -0.052723303102872002 -0.00092217936495602728 0 -0.053063311945688793 -0.00083414467219831794 0 -0.052982507376533289 -0.0007003759589524958 0 -0.054668890082050323 -0.00013992449269110966 0 -0.05425950496986158 -0.00022746083223405283 0 -0.054680746249811493 -9.2396001994211411e-05 0 -0.054668890082050323 -0.00013992449269110966 0 -0.054594400918763421 -0.00035469342120361208 0 -0.05425950496986158 -0.00022746083223405283 0 -0.053585544468845649 -0.00074704603688525442 0 -0.053674651137462712 -0.00071595066403573723 0 -0.053594516354654613 -0.00059590547543952681 0 -0.054594400918763421 -0.00035469342120361208 0 -0.05425950496986158 -0.00022746083223405283 0 -0.053678977128880589 -0.00055642936393424623 0 -0.053901180737309248 -0.00020969016190056219 0 -0.053594516354654613 -0.00059590547543952681 0 -0.05425950496986158 -0.00022746083223405283 0 -0.054487513852044589 -0.00014381017699616823 0 -0.05425950496986158 -0.00022746083223405283 0 -0.054487513852044589 -0.00014381017699616823 0 -0.054680746249811493 -9.2396001994211411e-05 0 -0.053198777016386152 -0.00040933885271924442 0 -0.053288393332421642 -0.00048668815110414557 0 -0.053312468075040864 -0.00018256535786997433 0 -0.053288393332421642 -0.00048668815110414557 0 -0.053594516354654613 -0.00059590547543952681 0 -0.053312468075040864 -0.00018256535786997433 0 -0.053198777016386152 -0.00040933885271924442 0 -0.053312468075040864 -0.00018256535786997433 0 -0.053433749196716791 -0.00014321247414529462 0 -0.053312468075040864 -0.00018256535786997433 0 -0.053433749196716791 -0.00014321247414529462 0 -0.053755325291399626 -0.00026941043846586798 0 -0.053901180737309248 -0.00020969016190056219 0 -0.054322076317124712 -0.00014240737378031377 0 -0.054487513852044589 -0.00014381017699616823 0 -0.054819838199767157 -8.3282003929425111e-05 0 -0.054885271744827685 -7.2026697073531809e-05 0 -0.054819838199767157 -8.3282003929425111e-05 0 -0.054885271744827685 -7.2026697073531809e-05 0 -0.054933222714413393 -6.6873097661744477e-05 0 -0.054999945178964921 -4.1999176299690766e-08 0 -0.054819838199767157 -8.3282003929425111e-05 0 -0.054933222714413393 -6.6873097661744477e-05 0 -0.054819838199767157 -8.3282003929425111e-05 0 -0.054680746249811493 -9.2396001994211411e-05 0 -0.054999631201017307 -1.0812895485228327e-07 0 -0.054999945178964921 -4.1999176299690766e-08 0 -0.054819838199767157 -8.3282003929425111e-05 0 -0.054999631201017307 -1.0812895485228327e-07 0 -0.054487513852044589 -0.00014381017699616823 0 -0.054819838199767157 -8.3282003929425111e-05 0 -0.054680746249811493 -9.2396001994211411e-05 0 -0.054680746249811493 -9.2396001994211411e-05 0 -0.054999631201017307 -1.0812895485228327e-07 0 -0.054999770817916467 3.5988972802326459e-08 0 -0.054886705479473337 -4.2585328958694987e-05 0 -0.054680746249811493 -9.2396001994211411e-05 0 -0.054999770817916467 3.5988972802326459e-08 0 -0.054886705479473337 -4.2585328958694987e-05 0 -0.054668890082050323 -0.00013992449269110966 0 -0.054680746249811493 -9.2396001994211411e-05 0 -0.054994989416772375 -0.0015050225013271215 0 -0.05592245443216462 -0.0020922580554257652 0 -0.055466502325422079 -0.00077313088768559725 0 -0.053935643124821464 -0.00058739121641760458 0 -0.055219669309440583 -0.00060654526827895168 0 -0.054334587125134594 0.0002926511707720373 0 -0.054224780144715559 -6.5069063767262314e-05 0 -0.054583863014962271 -0.00021166215410155202 0 -0.054994989416772375 -0.0015050225013271215 0 -0.055466502325422079 -0.00077313088768559725 0 -0.054623950494507426 -0.00055430108356704065 0 -0.054994989416772375 -0.0015050225013271215 0 -0.054623950494507426 -0.00055430108356704065 0 -0.054216144332796645 -0.001322565391329534 0 -0.055066897027325271 -0.0024649094854723918 0 -0.054994989416772375 -0.0015050225013271215 0 -0.054408957224515858 -0.0020960138986063654 0 -0.054994989416772375 -0.0015050225013271215 0 -0.054216144332796645 -0.001322565391329534 0 -0.054408957224515858 -0.0020960138986063654 0 -0.055066897027325271 -0.0024649094854723918 0 -0.054994989416772375 -0.0015050225013271215 0 -0.05592245443216462 -0.0020922580554257652 0 -0.053911159336985787 -0.0014040567903794063 0 -0.053935643124821464 -0.00058739121641760458 0 -0.053228376975733634 -0.00029475936857446908 0 -0.052963349989992831 -0.00011629278163536031 0 -0.05361082445133835 3.1370513339607289e-06 0 -0.054334587125134594 0.0002926511707720373 0 -0.05361082445133835 3.1370513339607289e-06 0 -0.054224780144715559 -6.5069063767262314e-05 0 -0.053935643124821464 -0.00058739121641760458 0 -0.0535568611800896 9.6355712467936232e-05 0 -0.053302236061179918 -0.00028259541086421723 0 -0.053228376975733634 -0.00029475936857446908 0 -0.05361082445133835 3.1370513339607289e-06 0 -0.053302236061179918 -0.00028259541086421723 0 -0.053433749196716791 -0.00014321247414529462 0 -0.05361082445133835 3.1370513339607289e-06 0 -0.053433749196716791 -0.00014321247414529462 0 -0.05361082445133835 3.1370513339607289e-06 0 -0.053755325291399626 -0.00026941043846586798 0 -0.05361082445133835 3.1370513339607289e-06 0 -0.054345894611603739 -0.00019182254045139858 0 -0.053755325291399626 -0.00026941043846586798 0 -0.054224780144715559 -6.5069063767262314e-05 0 -0.054345894611603739 -0.00019182254045139858 0 -0.054583863014962271 -0.00021166215410155202 0 -0.05361082445133835 3.1370513339607289e-06 0 -0.054224780144715559 -6.5069063767262314e-05 0 -0.054345894611603739 -0.00019182254045139858 0 -0.054345894611603739 -0.00019182254045139858 0 -0.054846107137821398 -0.00012674395842569822 0 -0.054583863014962271 -0.00021166215410155202 0 -0.054322076317124712 -0.00014240737378031377 0 -0.054755711218040265 -0.00012983766897476946 0 -0.054345894611603739 -0.00019182254045139858 0 -0.053755325291399626 -0.00026941043846586798 0 -0.054846107137821398 -0.00012674395842569822 0 -0.054999945178964921 -4.1999176299690766e-08 0 -0.054933222714413393 -6.6873097661744477e-05 0 -0.054999435641816183 -2.1185118534422465e-07 0 -0.054885271744827685 -7.2026697073531809e-05 0 -0.054933222714413393 -6.6873097661744477e-05 0 -0.054846107137821398 -0.00012674395842569822 0 -0.054999435641816183 -2.1185118534422465e-07 0 -0.054846107137821398 -0.00012674395842569822 0 -0.054999639319916062 -1.3758318281841898e-07 0 -0.054933222714413393 -6.6873097661744477e-05 0 -0.054999435641816183 -2.1185118534422465e-07 0 -0.054846107137821398 -0.00012674395842569822 0 -0.054846107137821398 -0.00012674395842569822 0 -0.054999639319916062 -1.3758318281841898e-07 0 -0.054583863014962271 -0.00021166215410155202 0 -0.054999861370657689 -8.438044542988383e-09 0 -0.055219669309440583 -0.00060654526827895168 0 -0.055002085744067904 -2.3250440989378554e-07 0 -0.055466502325422079 -0.00077313088768559725 0 -0.054623950494507426 -0.00055430108356704065 0 -0.055002085744067904 -2.3250440989378554e-07 0 -0.054996956786960878 5.8451489722894741e-07 0 -0.054623950494507426 -0.00055430108356704065 0 -0.054996956786960878 5.8451489722894741e-07 0 -0.053217479389641477 -0.00027846402878201163 0 -0.054623950494507426 -0.00055430108356704065 0 -0.054999660628259735 -7.7499312693452525e-08 0 -0.054080028713652167 -0.00021266867213392654 0 -0.055000017075743153 -7.4722776650980778e-10 0 -0.055009723657997583 -2.8247575683338008e-05 0 -0.05500001053531902 -1.9871145034087669e-08 0 -0.053217479389641477 -0.00027846402878201163 0 -0.054623950494507426 -0.00055430108356704065 0 -0.053282673538099845 -0.0011137870887877946 0 -0.054623950494507426 -0.00055430108356704065 0 -0.054216144332796645 -0.001322565391329534 0 -0.053282673538099845 -0.0011137870887877946 0 -0.054216144332796645 -0.001322565391329534 0 -0.053282673538099845 -0.0011137870887877946 0 -0.052995409501096477 -0.0020397190173156352 0 -0.052995409501096477 -0.0020397190173156352 0 -0.054408957224515858 -0.0020960138986063654 0 -0.054051337582924443 -0.0029772225434782423 0 -0.054216144332796645 -0.001322565391329534 0 -0.052995409501096477 -0.0020397190173156352 0 -0.054408957224515858 -0.0020960138986063654 0 -0.053143260576634009 -0.00074143619385026922 0 -0.052831512315639838 -0.0013842075459005341 0 -0.050965036873424276 -0.0022995992945863608 0 -0.051263944789151798 -0.0013982584959957049 0 -0.050545571081071536 -0.0023043292718700707 0 -0.055000557043317418 -9.5754153990397763e-05 0 -0.054948484115652729 -0.00011527324778017045 0 -0.054945377894706167 -0.00021286159187355086 0 -0.052995409501096477 -0.0020397190173156352 0 -0.050965036873424276 -0.0022995992945863608 0 -0.051263944789151798 -0.0013982584959957049 0 -0.054080028713652167 -0.00021266867213392654 0 -0.053143260576634009 -0.00074143619385026922 0 -0.053217479389641477 -0.00027846402878201163 0 -0.053282673538099845 -0.0011137870887877946 0 -0.051263944789151798 -0.0013982584959957049 0 -0.053282673538099845 -0.0011137870887877946 0 -0.052995409501096477 -0.0020397190173156352 0 -0.051263944789151798 -0.0013982584959957049 0 -0.055000557043317418 -9.5754153990397763e-05 0 -0.054948484115652729 -0.00011527324778017045 0 -0.054967952719266633 -6.136303021925684e-05 0 -0.055000557043317418 -9.5754153990397763e-05 0 -0.054992523692936668 -2.7040366611069904e-05 0 -0.054967952719266633 -6.136303021925684e-05 0 -0.055009723657997583 -2.8247575683338008e-05 0 -0.055000557043317418 -9.5754153990397763e-05 0 -0.054992523692936668 -2.7040366611069904e-05 0 -0.055009723657997583 -2.8247575683338008e-05 0 -0.054992523692936668 -2.7040366611069904e-05 0 -0.05500001053531902 -1.9871145034087669e-08 0 -0.054992523692936668 -2.7040366611069904e-05 0 -0.05500001053531902 -1.9871145034087669e-08 0 -0.054999967806293314 -1.7478292266550178e-08 0 -0.054992523692936668 -2.7040366611069904e-05 0 -0.054999967806293314 -1.7478292266550178e-08 0 -0.054965326506204698 -2.6406595011717476e-05 0 -0.054999967806293314 -1.7478292266550178e-08 0 -0.054965326506204698 -2.6406595011717476e-05 0 -0.054999901968757092 9.7858240524422819e-10 0 -0.054965326506204698 -2.6406595011717476e-05 0 -0.054999901968757092 9.7858240524422819e-10 0 -0.054905029578163504 -4.2928582235638642e-05 0 -0.054965326506204698 -2.6406595011717476e-05 0 -0.054905029578163504 -4.2928582235638642e-05 0 -0.054925213804630606 -7.38508211544365e-05 0 -0.054992523692936668 -2.7040366611069904e-05 0 -0.054965326506204698 -2.6406595011717476e-05 0 -0.054967952719266633 -6.136303021925684e-05 0 -0.054965326506204698 -2.6406595011717476e-05 0 -0.054967952719266633 -6.136303021925684e-05 0 -0.054925213804630606 -7.38508211544365e-05 0 -0.054999901968757092 9.7858240524422819e-10 0 -0.05487815146473967 -3.2273044877657587e-05 0 -0.05499980628354368 -1.006339305348099e-08 0 -0.054999901968757092 9.7858240524422819e-10 0 -0.054905029578163504 -4.2928582235638642e-05 0 -0.05487815146473967 -3.2273044877657587e-05 0 -0.054905029578163504 -4.2928582235638642e-05 0 -0.05487815146473967 -3.2273044877657587e-05 0 -0.0547943402298183 -9.0159467620589144e-05 0 -0.05487815146473967 -3.2273044877657587e-05 0 -0.0547943402298183 -9.0159467620589144e-05 0 -0.05465610133574459 -0.00012806872623402193 0 -0.054905029578163504 -4.2928582235638642e-05 0 -0.0547943402298183 -9.0159467620589144e-05 0 -0.054854473192017965 -0.00010453398280569975 0 -0.0547943402298183 -9.0159467620589144e-05 0 -0.054854473192017965 -0.00010453398280569975 0 -0.05475496517923191 -0.00019063037621797052 0 -0.054854473192017965 -0.00010453398280569975 0 -0.05475496517923191 -0.00019063037621797052 0 -0.05488480824094371 -0.00015297592302307601 0 -0.0547943402298183 -9.0159467620589144e-05 0 -0.05475496517923191 -0.00019063037621797052 0 -0.054639366568042413 -0.00017253748569054578 0 -0.054948484115652729 -0.00011527324778017045 0 -0.054967952719266633 -6.136303021925684e-05 0 -0.054925213804630606 -7.38508211544365e-05 0 -0.054905029578163504 -4.2928582235638642e-05 0 -0.054854473192017965 -0.00010453398280569975 0 -0.054925213804630606 -7.38508211544365e-05 0 -0.054948484115652729 -0.00011527324778017045 0 -0.054925213804630606 -7.38508211544365e-05 0 -0.05488480824094371 -0.00015297592302307601 0 -0.054854473192017965 -0.00010453398280569975 0 -0.054925213804630606 -7.38508211544365e-05 0 -0.05488480824094371 -0.00015297592302307601 0 -0.05475496517923191 -0.00019063037621797052 0 -0.05488480824094371 -0.00015297592302307601 0 -0.054837695537915399 -0.00024782310597663192 0 -0.054948484115652729 -0.00011527324778017045 0 -0.05488480824094371 -0.00015297592302307601 0 -0.054945377894706167 -0.00021286159187355086 0 -0.050545571081071536 -0.0023043292718700707 0 -0.051128949284116695 -0.0019322958399149073 0 -0.050697926229699021 -0.0020795378004619812 0 -0.050545571081071536 -0.0023043292718700707 0 -0.050697926229699021 -0.0020795378004619812 0 -0.050590380898075542 -0.002211485055783119 0 -0.05488480824094371 -0.00015297592302307601 0 -0.054945377894706167 -0.00021286159187355086 0 -0.054837695537915399 -0.00024782310597663192 0 -0.052831512315639838 -0.0013842075459005341 0 -0.052419028739187447 -0.00029619822817809573 0 -0.054945377894706167 -0.00021286159187355086 0 -0.054837695537915399 -0.00024782310597663192 0 -0.054815951324601597 -0.00035420378086033953 0 -0.054837695537915399 -0.00024782310597663192 0 -0.054845334508023105 -0.00040244589071173248 0 -0.054769290162548875 -0.00031589890763649223 0 -0.054866116021598972 -0.00028183757077899303 0 -0.052419028739187447 -0.00029619822817809573 0 -0.052419028739187447 -0.00029619822817809573 0 -0.050144774039440891 -0.0024240795225558562 0 -0.05110502580416422 -0.0018396375991051371 0 -0.0508269890861359 -0.0018641480753975629 0 -0.050697926229699021 -0.0020795378004619812 0 -0.05110502580416422 -0.0018396375991051371 0 -0.050995747155085598 -0.0017671826551238815 0 -0.050932917942988917 -0.0014907877642793435 0 -0.05110502580416422 -0.0018396375991051371 0 -0.050995747155085598 -0.0017671826551238815 0 -0.0508269890861359 -0.0018641480753975629 0 -0.050995747155085598 -0.0017671826551238815 0 -0.0508269890861359 -0.0018641480753975629 0 -0.050855465112439158 -0.0016733504832249233 0 -0.050756694378374774 -0.0017411885730167476 0 -0.0508269890861359 -0.0018641480753975629 0 -0.050609030167925305 -0.0018611759216666161 0 -0.050756694378374774 -0.0017411885730167476 0 -0.0508269890861359 -0.0018641480753975629 0 -0.050855465112439158 -0.0016733504832249233 0 -0.050609030167925305 -0.0018611759216666161 0 -0.050697926229699021 -0.0020795378004619812 0 -0.050590380898075542 -0.002211485055783119 0 -0.0508269890861359 -0.0018641480753975629 0 -0.050609030167925305 -0.0018611759216666161 0 -0.050697926229699021 -0.0020795378004619812 0 -0.05475496517923191 -0.00019063037621797052 0 -0.054639366568042413 -0.00017253748569054578 0 -0.05454768638664257 -0.00026084791596608573 0 -0.05475496517923191 -0.00019063037621797052 0 -0.05454768638664257 -0.00026084791596608573 0 -0.054651794953788024 -0.00031936080675942557 0 -0.05475496517923191 -0.00019063037621797052 0 -0.054837695537915399 -0.00024782310597663192 0 -0.054769290162548875 -0.00031589890763649223 0 -0.05475496517923191 -0.00019063037621797052 0 -0.054769290162548875 -0.00031589890763649223 0 -0.054651794953788024 -0.00031936080675942557 0 -0.052419028739187447 -0.00029619822817809573 0 -0.05464281266226504 -0.00054722534848264436 0 -0.054845334508023105 -0.00040244589071173248 0 -0.054687339567116008 -0.0003951713633117541 0 -0.054559178695617383 -0.00054919440639408204 0 -0.054845334508023105 -0.00040244589071173248 0 -0.054769290162548875 -0.00031589890763649223 0 -0.054687339567116008 -0.0003951713633117541 0 -0.054687339567116008 -0.0003951713633117541 0 -0.054651794953788024 -0.00031936080675942557 0 -0.054608002287640102 -0.00041506698554659389 0 -0.054769290162548875 -0.00031589890763649223 0 -0.054687339567116008 -0.0003951713633117541 0 -0.054651794953788024 -0.00031936080675942557 0 -0.054651794953788024 -0.00031936080675942557 0 -0.054608002287640102 -0.00041506698554659389 0 -0.054473203143106427 -0.00036913199974404815 0 -0.054608002287640102 -0.00041506698554659389 0 -0.054473203143106427 -0.00036913199974404815 0 -0.054559178695617383 -0.00054919440639408204 0 -0.054687339567116008 -0.0003951713633117541 0 -0.054608002287640102 -0.00041506698554659389 0 -0.054559178695617383 -0.00054919440639408204 0 -0.05454768638664257 -0.00026084791596608573 0 -0.054651794953788024 -0.00031936080675942557 0 -0.054473203143106427 -0.00036913199974404815 0 -0.053936685452597853 -0.00062359024409496975 0 -0.053931397133737312 -0.00062632004079605358 0 -0.053903076807504731 -0.00062226908990605249 0 -0.054473203143106427 -0.00036913199974404815 0 -0.054559178695617383 -0.00054919440639408204 0 -0.054218784707100426 -0.00044408139667367387 0 -0.053936685452597853 -0.00062359024409496975 0 -0.05387666654485234 -0.0005890901177935321 0 -0.053931397133737312 -0.00062632004079605358 0 -0.052419028739187447 -0.00029619822817809573 0 -0.050809409420002553 0.00080299133967193335 0 -0.053725362680081552 -0.00070483985924109393 0 -0.053936685452597853 -0.00062359024409496975 0 -0.05387666654485234 -0.0005890901177935321 0 -0.049216335325739664 0.0031373579707309933 0 -0.047857524354022331 0.0018001648086307203 0 -0.048566346777971947 0.0020447614741393432 0 -0.048566346777971947 0.0020447614741393432 0 -0.048750725819350388 0.0017153886418724488 0 -0.048898569261285642 0.0020558735811765871 0 -0.047857524354022331 0.0018001648086307203 0 -0.048566346777971947 0.0020447614741393432 0 -0.048377044715845981 0.0014687340548298242 0 -0.048566346777971947 0.0020447614741393432 0 -0.048750725819350388 0.0017153886418724488 0 -0.048377044715845981 0.0014687340548298242 0 -0.048311472867500399 0.0013717760796535317 0 -0.047300873129898481 -0.00027016031473928122 0 -0.048377044715845981 0.0014687340548298242 0 -0.047459176320814825 0.00083519310802313083 0 -0.047274292990462992 -0.00030551282985341832 0 -0.048377044715845981 0.0014687340548298242 0 -0.047331044603285181 -0.00024501070348853613 0 -0.048435535093007402 0.00021778483988282716 0 -0.048377044715845981 0.0014687340548298242 0 -0.049158891280532052 0.0012937966271655708 0 -0.048435535093007402 0.00021778483988282716 0 -0.048750725819350388 0.0017153886418724488 0 -0.048377044715845981 0.0014687340548298242 0 -0.049158891280532052 0.0012937966271655708 0 -0.047857524354022331 0.0018001648086307203 0 -0.048377044715845981 0.0014687340548298242 0 -0.047459176320814825 0.00083519310802313083 0 -0.050809409420002553 0.00080299133967193335 0 -0.050062032636466768 -0.00028572940559492069 0 -0.047857524354022331 0.0018001648086307203 0 -0.047459176320814825 0.00083519310802313083 0 -0.046311968073598303 0.00036580008624215811 0 -0.05387666654485234 -0.0005890901177935321 0 -0.053980170186320252 -0.00069191161580081097 0 -0.053931397133737312 -0.00062632004079605358 0 -0.047459176320814825 0.00083519310802313083 0 -0.046311968073598303 0.00036580008624215811 0 -0.047274292990462992 -0.00030551282985341832 0 -0.053980170186320252 -0.00069191161580081097 0 -0.053931397133737312 -0.00062632004079605358 0 -0.053903076807504731 -0.00062226908990605249 0 -0.050609030167925305 -0.0018611759216666161 0 -0.050725323469597815 -0.0014830789049083584 0 -0.050402951820980452 -0.0013740312088764055 0 -0.050756694378374774 -0.0017411885730167476 0 -0.050609030167925305 -0.0018611759216666161 0 -0.050725323469597815 -0.0014830789049083584 0 -0.050756694378374774 -0.0017411885730167476 0 -0.050725323469597815 -0.0014830789049083584 0 -0.050855465112439158 -0.0016733504832249233 0 -0.05110502580416422 -0.0018396375991051371 0 -0.050932917942988917 -0.0014907877642793435 0 -0.051015927587014849 -0.0012215448704160556 0 -0.049216335325739664 0.0031373579707309933 0 -0.048898569261285642 0.0020558735811765871 0 -0.049158891280532052 0.0012937966271655708 0 -0.052419028739187447 -0.00029619822817809573 0 -0.049864207086441847 0.00024237215595498455 0 -0.050725323469597815 -0.0014830789049083584 0 -0.050855465112439158 -0.0016733504832249233 0 -0.050932917942988917 -0.0014907877642793435 0 -0.050995747155085598 -0.0017671826551238815 0 -0.050855465112439158 -0.0016733504832249233 0 -0.050932917942988917 -0.0014907877642793435 0 -0.049216335325739664 0.0031373579707309933 0 -0.048566346777971947 0.0020447614741393432 0 -0.048898569261285642 0.0020558735811765871 0 -0.048750725819350388 0.0017153886418724488 0 -0.048898569261285642 0.0020558735811765871 0 -0.049158891280532052 0.0012937966271655708 0 -0.050725323469597815 -0.0014830789049083584 0 -0.050932917942988917 -0.0014907877642793435 0 -0.050828116895174441 -0.001228922837461593 0 -0.050932917942988917 -0.0014907877642793435 0 -0.050828116895174441 -0.001228922837461593 0 -0.051015927587014849 -0.0012215448704160556 0 -0.050828116895174441 -0.001228922837461593 0 -0.051015927587014849 -0.0012215448704160556 0 -0.050814723996066964 -0.00072636591197338101 0 -0.050828116895174441 -0.001228922837461593 0 -0.050670095689716269 -0.0010294716717480245 0 -0.050814723996066964 -0.00072636591197338101 0 -0.049158891280532052 0.0012937966271655708 0 -0.049140876050756482 -0.00065852662836278573 0 -0.048435535093007402 0.00021778483988282716 0 -0.049864207086441847 0.00024237215595498455 0 -0.04995250438557821 -0.00083268988108355048 0 -0.050670095689716269 -0.0010294716717480245 0 -0.050402951820980452 -0.0013740312088764055 0 -0.050410414847412793 -0.00076484841728263493 0 -0.050725323469597815 -0.0014830789049083584 0 -0.050828116895174441 -0.001228922837461593 0 -0.050670095689716269 -0.0010294716717480245 0 -0.050725323469597815 -0.0014830789049083584 0 -0.050670095689716269 -0.0010294716717480245 0 -0.050402951820980452 -0.0013740312088764055 0 -0.049808212274199397 -0.001144667260289257 0 -0.050402951820980452 -0.0013740312088764055 0 -0.050410414847412793 -0.00076484841728263493 0 -0.04985558854202958 -0.0010871103188900481 0 -0.050005217840720213 -0.00086081735744201321 0 -0.049808212274199397 -0.001144667260289257 0 -0.050402951820980452 -0.0013740312088764055 0 -0.050334960200409826 -0.0020874168610997557 0 -0.049808212274199397 -0.001144667260289257 0 -0.049138797900901254 -0.0009702856458817837 0 -0.049163796712091694 -0.0014709812031726323 0 -0.049808212274199397 -0.001144667260289257 0 -0.049163796712091694 -0.0014709812031726323 0 -0.050334960200409826 -0.0020874168610997557 0 -0.049808212274199397 -0.001144667260289257 0 -0.049138797900901254 -0.0009702856458817837 0 -0.049235775783227298 -0.00051847263521149405 0 -0.047993272553712503 -0.00044612692309337206 0 -0.048334878703702705 -0.00095886062751021986 0 -0.048551585731974871 -0.00072640147762945877 0 -0.049138797900901254 -0.0009702856458817837 0 -0.048334878703702705 -0.00095886062751021986 0 -0.048551585731974871 -0.00072640147762945877 0 -0.048334878703702705 -0.00095886062751021986 0 -0.049163796712091694 -0.0014709812031726323 0 -0.048424368331758727 -0.0016137002020983502 0 -0.049138797900901254 -0.0009702856458817837 0 -0.048334878703702705 -0.00095886062751021986 0 -0.049163796712091694 -0.0014709812031726323 0 -0.049163796712091694 -0.0014709812031726323 0 -0.048424368331758727 -0.0016137002020983502 0 -0.049259042094464189 -0.002375306252811168 0 -0.050390311569356125 -0.00099815129186650825 0 -0.05117155306804249 -0.0018974240341187304 0 -0.052528122156774888 -0.00057813236222896912 0 -0.052497374183723251 -0.00034199275415475281 0 -0.05225114732537578 -0.00042744206753451866 0 -0.052736912065291901 -0.00047991287727589975 0 -0.052528122156774888 -0.00057813236222896912 0 -0.052497374183723251 -0.00034199275415475281 0 -0.053486136877783225 -0.0016092860109704411 0 -0.05117155306804249 -0.0018974240341187304 0 -0.052995409501096477 -0.0020397190173156352 0 -0.054051337582924443 -0.0029772225434782423 0 -0.052768630279401277 -0.0034993871498329686 0 -0.052995409501096477 -0.0020397190173156352 0 -0.050965036873424276 -0.0022995992945863608 0 -0.052768630279401277 -0.0034993871498329686 0 -0.051181954582488913 -0.0026339718443651136 0 -0.05117155306804249 -0.0018974240341187304 0 -0.050965036873424276 -0.0022995992945863608 0 -0.050288677509241236 -0.0021539446048613226 0 -0.050334960200409826 -0.0020874168610997557 0 -0.050965036873424276 -0.0022995992945863608 0 -0.050545571081071536 -0.0023043292718700707 0 -0.050590380898075542 -0.002211485055783119 0 -0.050965036873424276 -0.0022995992945863608 0 -0.050590380898075542 -0.002211485055783119 0 -0.050334960200409826 -0.0020874168610997557 0 -0.050609030167925305 -0.0018611759216666161 0 -0.050402951820980452 -0.0013740312088764055 0 -0.050334960200409826 -0.0020874168610997557 0 -0.050609030167925305 -0.0018611759216666161 0 -0.050590380898075542 -0.002211485055783119 0 -0.050334960200409826 -0.0020874168610997557 0 -0.049163796712091694 -0.0014709812031726323 0 -0.049259042094464189 -0.002375306252811168 0 -0.050334960200409826 -0.0020874168610997557 0 -0.05117155306804249 -0.0018974240341187304 0 -0.049758314488595239 -0.0022601252375401793 0 -0.054998930117531111 7.2741030234008321e-07 0 -0.051823546134333112 0.00019203961038358406 0 -0.046716521961535806 -9.4257001858010742e-07 0 -0.049770017967973507 0.00027411796260900205 0 -0.051823546134333112 0.00019203961038358406 0 -0.046716521961535806 -9.4257001858010742e-07 0 -0.051867551393658534 -3.9450742392811333e-05 0 -0.051714830351546025 0.00034298766436280961 0 -0.053844123972563891 -0.00057686014277359633 0 -0.053863690227040441 -9.3222431015754496e-05 0 -0.051823546134333112 0.00019203961038358406 0 -0.053859253001599876 -0.0002363152037153706 0 -0.053577717988401573 0.00018593228513623966 0 -0.054998930117531111 7.2741030234008321e-07 0 -0.051823546134333112 0.00019203961038358406 0 -0.052148842785647208 0.00021839650414879293 0 -0.054998930117531111 7.2741030234008321e-07 0 -0.054996893886345807 -2.2761118577561496e-07 0 -0.052148842785647208 0.00021839650414879293 0 -0.054999131855472047 3.0935948739714427e-07 0 -0.053577717988401573 0.00018593228513623966 0 -0.054999981002770627 -2.5465800368016582e-08 0 -0.054786232432211854 -1.2800925456290474e-05 0 -0.054999366508025366 -1.6685551991895768e-08 0 -0.054999981002770627 -2.5465800368016582e-08 0 -0.054786232432211854 -1.2800925456290474e-05 0 -0.054733265248565095 1.1970953709895658e-05 0 -0.053863690227040441 -9.3222431015754496e-05 0 -0.054733265248565095 1.1970953709895658e-05 0 -0.054529864668044721 5.6081125120749838e-06 0 -0.053863690227040441 -9.3222431015754496e-05 0 -0.051823546134333112 0.00019203961038358406 0 -0.052148842785647208 0.00021839650414879293 0 -0.054786232432211854 -1.2800925456290474e-05 0 -0.054733265248565095 1.1970953709895658e-05 0 -0.054529864668044721 5.6081125120749838e-06 0 -0.054786232432211854 -1.2800925456290474e-05 0 -0.054529864668044721 5.6081125120749838e-06 0 -0.054767662783714248 1.2170036754239695e-06 0 -0.054529864668044721 5.6081125120749838e-06 0 -0.054581110877771989 -7.1147765927474115e-05 0 -0.05434765626271662 -6.5269251049853596e-05 0 -0.054786232432211854 -1.2800925456290474e-05 0 -0.054999366508025366 -1.6685551991895768e-08 0 -0.054767662783714248 1.2170036754239695e-06 0 -0.054999366508025366 -1.6685551991895768e-08 0 -0.054767662783714248 1.2170036754239695e-06 0 -0.054999597327879533 2.949715529174051e-08 0 -0.054767662783714248 1.2170036754239695e-06 0 -0.054581110877771989 -7.1147765927474115e-05 0 -0.054773551071845922 -4.0701367992817542e-05 0 -0.054529864668044721 5.6081125120749838e-06 0 -0.054767662783714248 1.2170036754239695e-06 0 -0.054581110877771989 -7.1147765927474115e-05 0 -0.054581110877771989 -7.1147765927474115e-05 0 -0.054421535633311667 -0.00023481140078468238 0 -0.054359394194193333 -0.00020051185600368298 0 -0.054581110877771989 -7.1147765927474115e-05 0 -0.054359394194193333 -0.00020051185600368298 0 -0.05434765626271662 -6.5269251049853596e-05 0 -0.053863690227040441 -9.3222431015754496e-05 0 -0.054359394194193333 -0.00020051185600368298 0 -0.054088755032855471 -0.00039430752239774072 0 -0.053863690227040441 -9.3222431015754496e-05 0 -0.054529864668044721 5.6081125120749838e-06 0 -0.05434765626271662 -6.5269251049853596e-05 0 -0.053863690227040441 -9.3222431015754496e-05 0 -0.054359394194193333 -0.00020051185600368298 0 -0.05434765626271662 -6.5269251049853596e-05 0 -0.054359394194193333 -0.00020051185600368298 0 -0.054088755032855471 -0.00039430752239774072 0 -0.054269550858368723 -0.00037712988324993058 0 -0.053844123972563891 -0.00057686014277359633 0 -0.053863690227040441 -9.3222431015754496e-05 0 -0.054088755032855471 -0.00039430752239774072 0 -0.053844123972563891 -0.00057686014277359633 0 -0.054088755032855471 -0.00039430752239774072 0 -0.05410108994004572 -0.0004956718112685037 0 -0.054088755032855471 -0.00039430752239774072 0 -0.054269550858368723 -0.00037712988324993058 0 -0.05410108994004572 -0.0004956718112685037 0 -0.054421535633311667 -0.00023481140078468238 0 -0.054269550858368723 -0.00037712988324993058 0 -0.054309463289947527 -0.00034155698494655809 0 -0.054421535633311667 -0.00023481140078468238 0 -0.054359394194193333 -0.00020051185600368298 0 -0.054269550858368723 -0.00037712988324993058 0 -0.054421535633311667 -0.00023481140078468238 0 -0.054309463289947527 -0.00034155698494655809 0 -0.054540673162355433 -0.00017334690607779418 0 -0.054309463289947527 -0.00034155698494655809 0 -0.054415655406179687 -0.00024980367059578251 0 -0.054540673162355433 -0.00017334690607779418 0 -0.05464209133253279 -0.00012072948523730273 0 -0.054540673162355433 -0.00017334690607779418 0 -0.054773551071845922 -4.0701367992817542e-05 0 -0.054415655406179687 -0.00024980367059578251 0 -0.05464209133253279 -0.00012072948523730273 0 -0.054540673162355433 -0.00017334690607779418 0 -0.054581110877771989 -7.1147765927474115e-05 0 -0.054421535633311667 -0.00023481140078468238 0 -0.054540673162355433 -0.00017334690607779418 0 -0.054581110877771989 -7.1147765927474115e-05 0 -0.054540673162355433 -0.00017334690607779418 0 -0.054773551071845922 -4.0701367992817542e-05 0 -0.054773551071845922 -4.0701367992817542e-05 0 -0.054999597327879533 2.949715529174051e-08 0 -0.054999727211890059 -2.8100342601230941e-08 0 -0.054767662783714248 1.2170036754239695e-06 0 -0.054773551071845922 -4.0701367992817542e-05 0 -0.054999597327879533 2.949715529174051e-08 0 -0.054773551071845922 -4.0701367992817542e-05 0 -0.054999727211890059 -2.8100342601230941e-08 0 -0.054827260661082559 -4.111650552555557e-05 0 -0.05464209133253279 -0.00012072948523730273 0 -0.054773551071845922 -4.0701367992817542e-05 0 -0.054827260661082559 -4.111650552555557e-05 0 -0.054999727211890059 -2.8100342601230941e-08 0 -0.054827260661082559 -4.111650552555557e-05 0 -0.05499980628354368 -1.006339305348099e-08 0 -0.05487815146473967 -3.2273044877657587e-05 0 -0.054827260661082559 -4.111650552555557e-05 0 -0.05499980628354368 -1.006339305348099e-08 0 -0.05487815146473967 -3.2273044877657587e-05 0 -0.054827260661082559 -4.111650552555557e-05 0 -0.05465610133574459 -0.00012806872623402193 0 -0.0547943402298183 -9.0159467620589144e-05 0 -0.054639366568042413 -0.00017253748569054578 0 -0.05465610133574459 -0.00012806872623402193 0 -0.054415655406179687 -0.00024980367059578251 0 -0.05464209133253279 -0.00012072948523730273 0 -0.05465610133574459 -0.00012806872623402193 0 -0.05464209133253279 -0.00012072948523730273 0 -0.054827260661082559 -4.111650552555557e-05 0 -0.05465610133574459 -0.00012806872623402193 0 -0.054415655406179687 -0.00024980367059578251 0 -0.05465610133574459 -0.00012806872623402193 0 -0.054438991705053695 -0.00024330365993573399 0 -0.054639366568042413 -0.00017253748569054578 0 -0.05465610133574459 -0.00012806872623402193 0 -0.054438991705053695 -0.00024330365993573399 0 -0.05454768638664257 -0.00026084791596608573 0 -0.054438991705053695 -0.00024330365993573399 0 -0.05428788829616122 -0.0003431019701177033 0 -0.054639366568042413 -0.00017253748569054578 0 -0.05454768638664257 -0.00026084791596608573 0 -0.054438991705053695 -0.00024330365993573399 0 -0.054415655406179687 -0.00024980367059578251 0 -0.054438991705053695 -0.00024330365993573399 0 -0.054158524150544951 -0.00035632323170751718 0 -0.054438991705053695 -0.00024330365993573399 0 -0.054158524150544951 -0.00035632323170751718 0 -0.05428788829616122 -0.0003431019701177033 0 -0.054158524150544951 -0.00035632323170751718 0 -0.053952461695322966 -0.00043873054838941745 0 -0.05385575090531345 -0.00043265459054169306 0 -0.054158524150544951 -0.00035632323170751718 0 -0.05428788829616122 -0.0003431019701177033 0 -0.053952461695322966 -0.00043873054838941745 0 -0.05428788829616122 -0.0003431019701177033 0 -0.054218784707100426 -0.00044408139667367387 0 -0.053952461695322966 -0.00043873054838941745 0 -0.05454768638664257 -0.00026084791596608573 0 -0.054473203143106427 -0.00036913199974404815 0 -0.05428788829616122 -0.0003431019701177033 0 -0.054473203143106427 -0.00036913199974404815 0 -0.05428788829616122 -0.0003431019701177033 0 -0.054218784707100426 -0.00044408139667367387 0 -0.053936685452597853 -0.00062359024409496975 0 -0.053903076807504731 -0.00062226908990605249 0 -0.053860818272231832 -0.00058129407420022452 0 -0.054559178695617383 -0.00054919440639408204 0 -0.054218784707100426 -0.00044408139667367387 0 -0.053860818272231832 -0.00058129407420022452 0 -0.05464281266226504 -0.00054722534848264436 0 -0.053731951235829752 -0.00062902227479450271 0 -0.053903076807504731 -0.00062226908990605249 0 -0.053726586191745231 -0.00066240420467400399 0 -0.053860818272231832 -0.00058129407420022452 0 -0.053903076807504731 -0.00062226908990605249 0 -0.053726586191745231 -0.00066240420467400399 0 -0.053795878028520323 -0.0007743980699765052 0 -0.053980170186320252 -0.00069191161580081097 0 -0.053903076807504731 -0.00062226908990605249 0 -0.053795878028520323 -0.0007743980699765052 0 -0.053479810207432518 -0.0006694758252100509 0 -0.053726586191745231 -0.00066240420467400399 0 -0.053587927506618165 -0.00048479761338544929 0 -0.053479810207432518 -0.0006694758252100509 0 -0.053726586191745231 -0.00066240420467400399 0 -0.053619844282822009 -0.00083499572593041403 0 -0.053726586191745231 -0.00066240420467400399 0 -0.053860818272231832 -0.00058129407420022452 0 -0.053587927506618165 -0.00048479761338544929 0 -0.053587927506618165 -0.00048479761338544929 0 -0.053952461695322966 -0.00043873054838941745 0 -0.05385575090531345 -0.00043265459054169306 0 -0.054218784707100426 -0.00044408139667367387 0 -0.053860818272231832 -0.00058129407420022452 0 -0.053952461695322966 -0.00043873054838941745 0 -0.053860818272231832 -0.00058129407420022452 0 -0.053587927506618165 -0.00048479761338544929 0 -0.053952461695322966 -0.00043873054838941745 0 -0.053587927506618165 -0.00048479761338544929 0 -0.05385575090531345 -0.00043265459054169306 0 -0.053603306023300983 -0.00045857512362133541 0 -0.05385575090531345 -0.00043265459054169306 0 -0.053603306023300983 -0.00045857512362133541 0 -0.053937021409377728 -0.0004640421423651222 0 -0.053587927506618165 -0.00048479761338544929 0 -0.053603306023300983 -0.00045857512362133541 0 -0.053078706385221872 -0.00049733856679676539 0 -0.053078706385221872 -0.00049733856679676539 0 -0.053273090679228301 -0.00021068199085501899 0 -0.052735254015192842 -0.00071968987435270864 0 -0.050252996997692326 -0.00057376476023863175 0 -0.049713825056658334 0.0013381610552435871 0 -0.052735254015192842 -0.00071968987435270864 0 -0.051883285275822769 0.00010879651456657366 0 -0.052565180405115715 -0.00050630846116842541 0 -0.053674728600191755 -0.00064729727125361974 0 -0.051883285275822769 0.00010879651456657366 0 -0.053603306023300983 -0.00045857512362133541 0 -0.053078706385221872 -0.00049733856679676539 0 -0.053830689813493919 -0.00035912520043024414 0 -0.053479810207432518 -0.0006694758252100509 0 -0.053587927506618165 -0.00048479761338544929 0 -0.053078706385221872 -0.00049733856679676539 0 -0.053479810207432518 -0.0006694758252100509 0 -0.053078706385221872 -0.00049733856679676539 0 -0.052735254015192842 -0.00071968987435270864 0 -0.048549926813485647 -0.00035112371482004767 0 -0.049713825056658334 0.0013381610552435871 0 -0.047613412033282808 0.002227547405887184 0 -0.048549926813485647 -0.00035112371482004767 0 -0.050252996997692326 -0.00057376476023863175 0 -0.049713825056658334 0.0013381610552435871 0 -0.053603306023300983 -0.00045857512362133541 0 -0.053830689813493919 -0.00035912520043024414 0 -0.053937021409377728 -0.0004640421423651222 0 -0.051883285275822769 0.00010879651456657366 0 -0.052627880506714693 -0.00023473944244854233 0 -0.051883285275822769 0.00010879651456657366 0 -0.048850908258809889 0.0012930235881788178 0 -0.053830689813493919 -0.00035912520043024414 0 -0.053937021409377728 -0.0004640421423651222 0 -0.054090656224798021 -0.00045605418395371967 0 -0.054102773716754697 -0.00045604458546661048 0 -0.054052292146780319 -0.00041802214458556383 0 -0.054201039143985191 -0.00037442432867904231 0 -0.053937021409377728 -0.0004640421423651222 0 -0.054102773716754697 -0.00045604458546661048 0 -0.054052292146780319 -0.00041802214458556383 0 -0.053937021409377728 -0.0004640421423651222 0 -0.054102773716754697 -0.00045604458546661048 0 -0.054090656224798021 -0.00045605418395371967 0 -0.054158524150544951 -0.00035632323170751718 0 -0.05385575090531345 -0.00043265459054169306 0 -0.054052292146780319 -0.00041802214458556383 0 -0.05385575090531345 -0.00043265459054169306 0 -0.053937021409377728 -0.0004640421423651222 0 -0.054052292146780319 -0.00041802214458556383 0 -0.054158524150544951 -0.00035632323170751718 0 -0.054052292146780319 -0.00041802214458556383 0 -0.054201039143985191 -0.00037442432867904231 0 -0.054309463289947527 -0.00034155698494655809 0 -0.054415655406179687 -0.00024980367059578251 0 -0.054201039143985191 -0.00037442432867904231 0 -0.054415655406179687 -0.00024980367059578251 0 -0.054158524150544951 -0.00035632323170751718 0 -0.054201039143985191 -0.00037442432867904231 0 -0.054309463289947527 -0.00034155698494655809 0 -0.054102773716754697 -0.00045604458546661048 0 -0.054201039143985191 -0.00037442432867904231 0 -0.054309463289947527 -0.00034155698494655809 0 -0.054102773716754697 -0.00045604458546661048 0 -0.054153324733845758 -0.00047577416978380479 0 -0.054269550858368723 -0.00037712988324993058 0 -0.054309463289947527 -0.00034155698494655809 0 -0.054153324733845758 -0.00047577416978380479 0 -0.054269550858368723 -0.00037712988324993058 0 -0.054153324733845758 -0.00047577416978380479 0 -0.05410108994004572 -0.0004956718112685037 0 -0.054153324733845758 -0.00047577416978380479 0 -0.05410108994004572 -0.0004956718112685037 0 -0.054099328578514697 -0.00051347547961470006 0 -0.053844123972563891 -0.00057686014277359633 0 -0.05410108994004572 -0.0004956718112685037 0 -0.054099328578514697 -0.00051347547961470006 0 -0.049976879842175859 -0.0010709884892616186 0 -0.050367145792030839 -0.0021319549543838668 0 -0.048958046821268919 -0.001490687790397066 0 -0.051151072368785334 -0.00079004734427668322 0 -0.052627880506714693 -0.00023473944244854233 0 -0.051151072368785334 -0.00079004734427668322 0 -0.047962890699141621 0.00047224992012850334 0 -0.050582934645337488 0.00014678131424274249 0 -0.050688928228616204 8.6297509554249751e-05 0 -0.05061425281041336 7.7681586765515994e-05 0 -0.047962890699141621 0.00047224992012850334 0 -0.046885228702810207 -0.00060087647823566599 0 -0.054102773716754697 -0.00045604458546661048 0 -0.054153324733845758 -0.00047577416978380479 0 -0.054090656224798021 -0.00045605418395371967 0 -0.054153324733845758 -0.00047577416978380479 0 -0.054099328578514697 -0.00051347547961470006 0 -0.054090656224798021 -0.00045605418395371967 0 -0.045964097285278123 0.00041937838877355554 0 -0.047962890699141621 0.00047224992012850334 0 -0.050843760583459491 3.3503112430163661e-06 0 -0.050688928228616204 8.6297509554249751e-05 0 -0.050714145979249489 3.8312007022017823e-05 0 -0.047613412033282808 0.002227547405887184 0 -0.046820599101324287 -0.00039525985712904148 0 -0.045418186903029525 0.0033182511101027901 0 -0.050688928228616204 8.6297509554249751e-05 0 -0.050714145979249489 3.8312007022017823e-05 0 -0.05061425281041336 7.7681586765515994e-05 0 -0.048850908258809889 0.0012930235881788178 0 -0.047962890699141621 0.00047224992012850334 0 -0.048549926813485647 -0.00035112371482004767 0 -0.047613412033282808 0.002227547405887184 0 -0.046820599101324287 -0.00039525985712904148 0 -0.046820599101324287 -0.00039525985712904148 0 -0.045438297149988857 1.5609301881125545e-05 0 -0.045459388603758553 0.00068439939036622972 0 -0.045819122004007354 -0.00057476401131966262 0 -0.04488711624025294 -0.00030489687014752112 0 -0.04519525525851506 -0.0011054781256216008 0 -0.046820599101324287 -0.00039525985712904148 0 -0.045819122004007354 -0.00057476401131966262 0 -0.045438297149988857 1.5609301881125545e-05 0 -0.045819122004007354 -0.00057476401131966262 0 -0.045438297149988857 1.5609301881125545e-05 0 -0.04488711624025294 -0.00030489687014752112 0 -0.045438297149988857 1.5609301881125545e-05 0 -0.045459388603758553 0.00068439939036622972 0 -0.044773003405072079 0.00039056108120127605 0 -0.045459388603758553 0.00068439939036622972 0 -0.044773003405072079 0.00039056108120127605 0 -0.044580688191483989 0.00044291514293725106 0 -0.044773003405072079 0.00039056108120127605 0 -0.044200600811498715 0.00029089496610648337 0 -0.044580688191483989 0.00044291514293725106 0 -0.044200600811498715 0.00029089496610648337 0 -0.044412170643919301 7.3048138963743625e-05 0 -0.043586110551741476 0.0001556442884552384 0 -0.044773003405072079 0.00039056108120127605 0 -0.044200600811498715 0.00029089496610648337 0 -0.044412170643919301 7.3048138963743625e-05 0 -0.045438297149988857 1.5609301881125545e-05 0 -0.044773003405072079 0.00039056108120127605 0 -0.044412170643919301 7.3048138963743625e-05 0 -0.04488711624025294 -0.00030489687014752112 0 -0.044412170643919301 7.3048138963743625e-05 0 -0.04435850643156522 -0.00063276610039288714 0 -0.045438297149988857 1.5609301881125545e-05 0 -0.04488711624025294 -0.00030489687014752112 0 -0.044412170643919301 7.3048138963743625e-05 0 -0.043888826471985769 -0.00020725600428583258 0 -0.044412170643919301 7.3048138963743625e-05 0 -0.04435850643156522 -0.00063276610039288714 0 -0.043888826471985769 -0.00020725600428583258 0 -0.044412170643919301 7.3048138963743625e-05 0 -0.043586110551741476 0.0001556442884552384 0 -0.043888826471985769 -0.00020725600428583258 0 -0.043915156434121402 -0.00081467801400042321 0 -0.04435850643156522 -0.00063276610039288714 0 -0.043915156434121402 -0.00081467801400042321 0 -0.04435850643156522 -0.00063276610039288714 0 -0.044345933465679284 -0.0013862345143146237 0 -0.04488711624025294 -0.00030489687014752112 0 -0.04435850643156522 -0.00063276610039288714 0 -0.04519525525851506 -0.0011054781256216008 0 -0.041739133090400442 -2.6776451500260205e-06 0 -0.043586110551741476 0.0001556442884552384 0 -0.04422410622588091 2.2780858281499355e-06 0 -0.041739133090400442 -2.6776451500260205e-06 0 -0.043229442555260726 -0.00045807058191481395 0 -0.043586110551741476 0.0001556442884552384 0 -0.043888826471985769 -0.00020725600428583258 0 -0.043915156434121402 -0.00081467801400042321 0 -0.043229442555260726 -0.00045807058191481395 0 -0.041739133090400442 -2.6776451500260205e-06 0 -0.043229442555260726 -0.00045807058191481395 0 -0.043666802385723957 -0.001687071789794927 0 -0.043888826471985769 -0.00020725600428583258 0 -0.043229442555260726 -0.00045807058191481395 0 -0.043586110551741476 0.0001556442884552384 0 -0.044200600811498715 0.00029089496610648337 0 -0.04422410622588091 2.2780858281499355e-06 0 -0.044580688191483989 0.00044291514293725106 0 -0.044200600811498715 0.00029089496610648337 0 -0.043586110551741476 0.0001556442884552384 0 -0.04422410622588091 2.2780858281499355e-06 0 -0.046885228702810207 -0.00060087647823566599 0 -0.046709754072695515 -8.088743515176708e-08 0 -0.04422410622588091 2.2780858281499355e-06 0 -0.044580688191483989 0.00044291514293725106 0 -0.046705634231828677 -1.4860660686657461e-06 0 -0.049770017967973507 0.00027411796260900205 0 -0.049612163498895356 -0.00068518839996743242 0 -0.049039169376888903 -0.00012170838564931728 0 -0.049976879842175859 -0.0010709884892616186 0 -0.048958046821268919 -0.001490687790397066 0 -0.049039169376888903 -0.00012170838564931728 0 -0.051867551393658534 -3.9450742392811333e-05 0 -0.051151072368785334 -0.00079004734427668322 0 -0.049770017967973507 0.00027411796260900205 0 -0.049039169376888903 -0.00012170838564931728 0 -0.046716521961535806 -9.4257001858010742e-07 0 -0.051151072368785334 -0.00079004734427668322 0 -0.048767359649427633 -2.3631322616955294e-05 0 -0.048958046821268919 -0.001490687790397066 0 -0.049039169376888903 -0.00012170838564931728 0 -0.046716521961535806 -9.4257001858010742e-07 0 -0.040847114490852529 -0.0033377209027658089 0 -0.040733852306310506 -0.0018637685253425525 0 -0.036428422556333342 -0.00058102157835961468 0 -0.036413258241351762 -2.0536559501310216e-05 0 -0.03749258581935104 0.00019354917434932756 0 -0.035633617964026323 -7.7050506407832463e-07 0 -0.036413258241351762 -2.0536559501310216e-05 0 -0.033814830644670668 -2.355765828576368e-05 0 -0.036428422556333342 -0.00058102157835961468 0 -0.036413258241351762 -2.0536559501310216e-05 0 -0.036278021068874483 -0.00083116364947056153 0 -0.036034562082586132 -8.900589767385103e-05 0 -0.034931476436893746 0.00012043360480189393 0 -0.044457091811983006 -0.0056610530532371778 0 -0.045145097913568979 -0.0050287396765213033 0 -0.045131983237224317 -0.0057868732415724544 0 -0.044457091811983006 -0.0056610530532371778 0 -0.045145097913568979 -0.0050287396765213033 0 -0.044151543267852825 -0.0041893184572768215 0 -0.045145097913568979 -0.0050287396765213033 0 -0.044151543267852825 -0.0041893184572768215 0 -0.04537701950982273 -0.0036221961497582239 0 -0.036413258241351762 -2.0536559501310216e-05 0 -0.03749258581935104 0.00019354917434932756 0 -0.03868489161522258 1.1351992629169691e-06 0 -0.035633617964026323 -7.7050506407832463e-07 0 -0.036413258241351762 -2.0536559501310216e-05 0 -0.03868489161522258 1.1351992629169691e-06 0 -0.03749258581935104 0.00019354917434932756 0 -0.03868489161522258 1.1351992629169691e-06 0 -0.039288115382118287 -9.5812030684087646e-05 0 -0.040733852306310506 -0.0018637685253425525 0 -0.042635830244719411 -0.0012756489206632957 0 -0.041733016837103426 -1.4085459424458247e-06 0 -0.03868489161522258 1.1351992629169691e-06 0 -0.039288115382118287 -9.5812030684087646e-05 0 -0.042635830244719411 -0.0012756489206632957 0 -0.042695269587653219 -0.0013813412472217031 0 -0.043915156434121402 -0.00081467801400042321 0 -0.043229442555260726 -0.00045807058191481395 0 -0.043666802385723957 -0.001687071789794927 0 -0.041739133090400442 -2.6776451500260205e-06 0 -0.043643921272316921 -0.0020422740246841499 0 -0.043666802385723957 -0.001687071789794927 0 -0.041734856574457323 4.8075551445418034e-07 0 -0.042635830244719411 -0.0012756489206632957 0 -0.04435850643156522 -0.00063276610039288714 0 -0.044345933465679284 -0.0013862345143146237 0 -0.04519525525851506 -0.0011054781256216008 0 -0.044345933465679284 -0.0013862345143146237 0 -0.044966764533981948 -0.0020208148072751622 0 -0.04519525525851506 -0.0011054781256216008 0 -0.043625915520880895 -0.001878275671392794 0 -0.043666802385723957 -0.001687071789794927 0 -0.044345933465679284 -0.0013862345143146237 0 -0.043915156434121402 -0.00081467801400042321 0 -0.043666802385723957 -0.001687071789794927 0 -0.044345933465679284 -0.0013862345143146237 0 -0.043625915520880895 -0.001878275671392794 0 -0.044345933465679284 -0.0013862345143146237 0 -0.044966764533981948 -0.0020208148072751622 0 -0.044151543267852825 -0.0041893184572768215 0 -0.044165939656649451 -0.0025110772233769649 0 -0.04537701950982273 -0.0036221961497582239 0 -0.042635830244719411 -0.0012756489206632957 0 -0.04581667028494734 -0.0039632315397033447 0 -0.043625915520880895 -0.001878275671392794 0 -0.044966764533981948 -0.0020208148072751622 0 -0.04537701950982273 -0.0036221961497582239 0 -0.044966764533981948 -0.0020208148072751622 0 -0.04537701950982273 -0.0036221961497582239 0 -0.046274476876842413 -0.0021438787111341217 0 -0.04537701950982273 -0.0036221961497582239 0 -0.046274476876842413 -0.0021438787111341217 0 -0.046824803270834436 -0.0036088286120698194 0 -0.045819122004007354 -0.00057476401131966262 0 -0.046274476876842413 -0.0021438787111341217 0 -0.04519525525851506 -0.0011054781256216008 0 -0.046820599101324287 -0.00039525985712904148 0 -0.045819122004007354 -0.00057476401131966262 0 -0.046274476876842413 -0.0021438787111341217 0 -0.044966764533981948 -0.0020208148072751622 0 -0.046274476876842413 -0.0021438787111341217 0 -0.04519525525851506 -0.0011054781256216008 0 -0.048549926813485647 -0.00035112371482004767 0 -0.046820599101324287 -0.00039525985712904148 0 -0.047961638415086945 -0.0021585276741019517 0 -0.046820599101324287 -0.00039525985712904148 0 -0.046274476876842413 -0.0021438787111341217 0 -0.047961638415086945 -0.0021585276741019517 0 -0.047961638415086945 -0.0021585276741019517 0 -0.046824803270834436 -0.0036088286120698194 0 -0.048386787940647887 -0.0038013686498455396 0 -0.046274476876842413 -0.0021438787111341217 0 -0.047961638415086945 -0.0021585276741019517 0 -0.046824803270834436 -0.0036088286120698194 0 -0.046824803270834436 -0.0036088286120698194 0 -0.047302641566288786 -0.0045717727363099219 0 -0.048386787940647887 -0.0038013686498455396 0 -0.047302641566288786 -0.0045717727363099219 0 -0.048245375220851823 -0.00529716453786309 0 -0.048386787940647887 -0.0038013686498455396 0 -0.047302641566288786 -0.0045717727363099219 0 -0.046761555433264684 -0.0052427838798905484 0 -0.048245375220851823 -0.00529716453786309 0 -0.047302641566288786 -0.0045717727363099219 0 -0.04620847986051678 -0.0047263614674353987 0 -0.046761555433264684 -0.0052427838798905484 0 -0.046824803270834436 -0.0036088286120698194 0 -0.047302641566288786 -0.0045717727363099219 0 -0.04620847986051678 -0.0047263614674353987 0 -0.045145097913568979 -0.0050287396765213033 0 -0.04537701950982273 -0.0036221961497582239 0 -0.04620847986051678 -0.0047263614674353987 0 -0.04537701950982273 -0.0036221961497582239 0 -0.046824803270834436 -0.0036088286120698194 0 -0.04620847986051678 -0.0047263614674353987 0 -0.045145097913568979 -0.0050287396765213033 0 -0.045925160273498876 -0.005411097189955325 0 -0.045131983237224317 -0.0057868732415724544 0 -0.045145097913568979 -0.0050287396765213033 0 -0.04620847986051678 -0.0047263614674353987 0 -0.045925160273498876 -0.005411097189955325 0 -0.045925160273498876 -0.005411097189955325 0 -0.046249161316601554 -0.0060004192289972629 0 -0.045131983237224317 -0.0057868732415724544 0 -0.04620847986051678 -0.0047263614674353987 0 -0.045925160273498876 -0.005411097189955325 0 -0.046761555433264684 -0.0052427838798905484 0 -0.046761555433264684 -0.0052427838798905484 0 -0.048245375220851823 -0.00529716453786309 0 -0.046249161316601554 -0.0060004192289972629 0 -0.046470678659004006 -0.0050983841200912157 0 -0.045204638013843786 -0.0059543782013224515 0 -0.045925160273498876 -0.005411097189955325 0 -0.046761555433264684 -0.0052427838798905484 0 -0.046249161316601554 -0.0060004192289972629 0 -0.044537782278303011 -0.0050867742421890532 0 -0.044364989551725971 -0.0061241778951761257 0 -0.044037061682946493 -0.0060791014383572654 0 -0.045307478987999965 -0.0054196345014308313 0 -0.044537782278303011 -0.0050867742421890532 0 -0.044364989551725971 -0.0061241778951761257 0 -0.043718744201295331 -0.006338722114408812 0 -0.043926166509186751 -0.0060899184855701914 0 -0.042794869194228792 -0.0066052728475578491 0 -0.042948450824578127 -0.006301191905373732 0 -0.043260576933609733 -0.0062946891538487757 0 -0.04278213108691515 -0.0063835978712289514 0 -0.042794869194228792 -0.0066052728475578491 0 -0.042948450824578127 -0.006301191905373732 0 -0.04278213108691515 -0.0063835978712289514 0 -0.042526409066394592 -0.0064318206836135152 0 -0.042794869194228792 -0.0066052728475578491 0 -0.042526409066394592 -0.0064318206836135152 0 -0.042794869194228792 -0.0066052728475578491 0 -0.042573877485827923 -0.0068355751210643721 0 -0.042646553390062611 -0.0050147647256223215 0 -0.042873725936632891 -0.0030793896569632291 0 -0.043067332478587732 -0.004441778381953595 0 -0.042172808949277579 -0.0059448786047154173 0 -0.046566184986970641 -0.0040489233065574438 0 -0.042646553390062611 -0.0050147647256223215 0 -0.043061620306691591 -0.004872328597170383 0 -0.042763517613983872 -0.0052587701517025796 0 -0.045307478987999965 -0.0054196345014308313 0 -0.045492780393392607 -0.0045799648498444515 0 -0.046585883441268801 -0.0042778176716968376 0 -0.043718744201295331 -0.006338722114408812 0 -0.046566184986970641 -0.0040489233065574438 0 -0.045492780393392607 -0.0045799648498444515 0 -0.046585883441268801 -0.0042778176716968376 0 -0.045620082402524069 -0.0035001880530109403 0 -0.048245375220851823 -0.00529716453786309 0 -0.048386787940647887 -0.0038013686498455396 0 -0.050721724070023316 -0.0038607467124003882 0 -0.045492780393392607 -0.0045799648498444515 0 -0.044537782278303011 -0.0050867742421890532 0 -0.045620082402524069 -0.0035001880530109403 0 -0.046470678659004006 -0.0050983841200912157 0 -0.048071559448004682 -0.0037530784891697784 0 -0.045307478987999965 -0.0054196345014308313 0 -0.045492780393392607 -0.0045799648498444515 0 -0.044537782278303011 -0.0050867742421890532 0 -0.048386787940647887 -0.0038013686498455396 0 -0.049840819080501822 -0.0027189306350621106 0 -0.050721724070023316 -0.0038607467124003882 0 -0.047961638415086945 -0.0021585276741019517 0 -0.048386787940647887 -0.0038013686498455396 0 -0.049840819080501822 -0.0027189306350621106 0 -0.047961638415086945 -0.0021585276741019517 0 -0.049840819080501822 -0.0027189306350621106 0 -0.04937828463775399 -0.0016375368658617137 0 -0.049840819080501822 -0.0027189306350621106 0 -0.04937828463775399 -0.0016375368658617137 0 -0.051178074712737998 -0.0014234117102360656 0 -0.050252996997692326 -0.00057376476023863175 0 -0.04937828463775399 -0.0016375368658617137 0 -0.051178074712737998 -0.0014234117102360656 0 -0.048549926813485647 -0.00035112371482004767 0 -0.050252996997692326 -0.00057376476023863175 0 -0.04937828463775399 -0.0016375368658617137 0 -0.048549926813485647 -0.00035112371482004767 0 -0.047961638415086945 -0.0021585276741019517 0 -0.04937828463775399 -0.0016375368658617137 0 -0.052246461891949258 -0.0015182691639253638 0 -0.052735254015192842 -0.00071968987435270864 0 -0.053415367673268072 -0.0015628650674996084 0 -0.050252996997692326 -0.00057376476023863175 0 -0.052735254015192842 -0.00071968987435270864 0 -0.051178074712737998 -0.0014234117102360656 0 -0.052246461891949258 -0.0015182691639253638 0 -0.052735254015192842 -0.00071968987435270864 0 -0.051178074712737998 -0.0014234117102360656 0 -0.052246461891949258 -0.0015182691639253638 0 -0.051178074712737998 -0.0014234117102360656 0 -0.051530341252640353 -0.0023005200245643509 0 -0.049840819080501822 -0.0027189306350621106 0 -0.051178074712737998 -0.0014234117102360656 0 -0.051530341252640353 -0.0023005200245643509 0 -0.052246461891949258 -0.0015182691639253638 0 -0.051530341252640353 -0.0023005200245643509 0 -0.053415367673268072 -0.0015628650674996084 0 -0.046585883441268801 -0.0042778176716968376 0 -0.045620082402524069 -0.0035001880530109403 0 -0.046995309804920143 -0.0018124505436161017 0 -0.051530341252640353 -0.0023005200245643509 0 -0.050721724070023316 -0.0038607467124003882 0 -0.053415367673268072 -0.0015628650674996084 0 -0.048071559448004682 -0.0037530784891697784 0 -0.050933832006192538 -0.0011497023005706648 0 -0.049840819080501822 -0.0027189306350621106 0 -0.051530341252640353 -0.0023005200245643509 0 -0.050721724070023316 -0.0038607467124003882 0 -0.053049914074428703 -0.0019456969407708215 0 -0.053339074815731233 -0.00092801646695882679 0 -0.053753353814673534 -0.0012274440846517711 0 -0.046566184986970641 -0.0040489233065574438 0 -0.049464095313986975 -0.000920195642045023 0 -0.042873725936632891 -0.0030793896569632291 0 -0.044591026941489358 -0.0012686162910613326 0 -0.044460392903816245 -0.002852011174143227 0 -0.046566184986970641 -0.0040489233065574438 0 -0.050933832006192538 -0.0011497023005706648 0 -0.053619844282822009 -0.00083499572593041403 0 -0.053795878028520323 -0.0007743980699765052 0 -0.053753353814673534 -0.0012274440846517711 0 -0.053619844282822009 -0.00083499572593041403 0 -0.053339074815731233 -0.00092801646695882679 0 -0.053753353814673534 -0.0012274440846517711 0 -0.053726586191745231 -0.00066240420467400399 0 -0.053619844282822009 -0.00083499572593041403 0 -0.053795878028520323 -0.0007743980699765052 0 -0.052387144140191133 -0.00070493731367470371 0 -0.050933832006192538 -0.0011497023005706648 0 -0.053479810207432518 -0.0006694758252100509 0 -0.052735254015192842 -0.00071968987435270864 0 -0.053415367673268072 -0.0015628650674996084 0 -0.053479810207432518 -0.0006694758252100509 0 -0.053619844282822009 -0.00083499572593041403 0 -0.053339074815731233 -0.00092801646695882679 0 -0.050062032636466768 -0.00028572940559492069 0 -0.049464095313986975 -0.000920195642045023 0 -0.053980170186320252 -0.00069191161580081097 0 -0.053795878028520323 -0.0007743980699765052 0 -0.053753353814673534 -0.0012274440846517711 0 -0.046311968073598303 0.00036580008624215811 0 -0.046054582403407845 -0.00094995980766546999 0 -0.044591026941489358 -0.0012686162910613326 0 -0.046054582403407845 -0.00094995980766546999 0 -0.044591026941489358 -0.0012686162910613326 0 -0.046038730580755388 -0.0023257315330930078 0 -0.044591026941489358 -0.0012686162910613326 0 -0.046038730580755388 -0.0023257315330930078 0 -0.044460392903816245 -0.002852011174143227 0 -0.046266725815466217 -0.0019980845081977849 0 -0.045195877531924208 -0.0037868482787532945 0 -0.046479865650149062 -0.0036304349911335846 0 -0.046038730580755388 -0.0023257315330930078 0 -0.044460392903816245 -0.002852011174143227 0 -0.044714142285709871 -0.0043832292004206295 0 -0.046241198797232028 -0.0021175784406037295 0 -0.044293981563792974 -0.0041553296136375992 0 -0.042873725936632891 -0.0030793896569632291 0 -0.043762621914629221 -0.0036871944601994193 0 -0.043067332478587732 -0.004441778381953595 0 -0.043762621914629221 -0.0036871944601994193 0 -0.044460392903816245 -0.002852011174143227 0 -0.044714142285709871 -0.0043832292004206295 0 -0.042873725936632891 -0.0030793896569632291 0 -0.043762621914629221 -0.0036871944601994193 0 -0.044460392903816245 -0.002852011174143227 0 -0.043762621914629221 -0.0036871944601994193 0 -0.043067332478587732 -0.004441778381953595 0 -0.044714142285709871 -0.0043832292004206295 0 -0.04319699023464342 -0.0044558002647367275 0 -0.044293981563792974 -0.0041553296136375992 0 -0.043061620306691591 -0.004872328597170383 0 -0.04379171694223849 -0.0044293512892703826 0 -0.042997704092809244 -0.0053971620177557227 0 -0.043067332478587732 -0.004441778381953595 0 -0.043061620306691591 -0.004872328597170383 0 -0.04379171694223849 -0.0044293512892703826 0 -0.044293981563792974 -0.0041553296136375992 0 -0.04260595865971277 -0.005400878785468576 0 -0.042646553390062611 -0.0050147647256223215 0 -0.043067332478587732 -0.004441778381953595 0 -0.043061620306691591 -0.004872328597170383 0 -0.044232605102408451 -0.0046680811626366057 0 -0.0435647773930442 -0.0039505596402322051 0 -0.042556826874384238 -0.0056623881848067523 0 -0.044232605102408451 -0.0046680811626366057 0 -0.0435647773930442 -0.0039505596402322051 0 -0.044746162946206681 -0.0038012378204768846 0 -0.044293981563792974 -0.0041553296136375992 0 -0.045712001574524729 -0.0036995917540128672 0 -0.042136500093295476 -0.0049232493401702125 0 -0.042072350398358813 -0.0052267902907278023 0 -0.042252474189619547 -0.0052520287857260577 0 -0.042136500093295476 -0.0049232493401702125 0 -0.042036697504698281 -0.0052409675849556699 0 -0.042072350398358813 -0.0052267902907278023 0 -0.042754118503315654 -0.0050056354110686735 0 -0.04260595865971277 -0.005400878785468576 0 -0.043061620306691591 -0.004872328597170383 0 -0.042763517613983872 -0.0052587701517025796 0 -0.042997704092809244 -0.0053971620177557227 0 -0.042763517613983872 -0.0052587701517025796 0 -0.042818214803777142 -0.0054295190612226023 0 -0.042997704092809244 -0.0053971620177557227 0 -0.042664773042019405 -0.0053806401130909202 0 -0.04260595865971277 -0.005400878785468576 0 -0.042818214803777142 -0.0054295190612226023 0 -0.042888685118617695 -0.0054414491886333365 0 -0.042359620972935226 -0.0053819744486625475 0 -0.042065409370452882 -0.0052494769527313577 0 -0.04212136128223213 -0.0050899035841670184 0 -0.042359620972935226 -0.0053819744486625475 0 -0.042036697504698281 -0.0052409675849556699 0 -0.042065409370452882 -0.0052494769527313577 0 -0.042072350398358813 -0.0052267902907278023 0 -0.042036697504698281 -0.0052409675849556699 0 -0.042065409370452882 -0.0052494769527313577 0 -0.042359620972935226 -0.0053819744486625475 0 -0.042065409370452882 -0.0052494769527313577 0 -0.042072350398358813 -0.0052267902907278023 0 -0.041927984081850792 -0.0051534350045260597 0 -0.041955033462727165 -0.0045806094283568242 0 -0.042353253119835073 -0.004240616319252267 0 -0.042072350398358813 -0.0052267902907278023 0 -0.041927984081850792 -0.0051534350045260597 0 -0.042252474189619547 -0.0052520287857260577 0 -0.041955320760355221 -0.0040210814023796688 0 -0.04206785091500681 -0.0042657210035759036 0 -0.042310029193642622 -0.0039177428974548519 0 -0.041955320760355221 -0.0040210814023796688 0 -0.04206785091500681 -0.0042657210035759036 0 -0.041953833210792067 -0.004521362050857485 0 -0.04206785091500681 -0.0042657210035759036 0 -0.041904540044189122 -0.0044779391079060593 0 -0.041953833210792067 -0.004521362050857485 0 -0.04206785091500681 -0.0042657210035759036 0 -0.041904540044189122 -0.0044779391079060593 0 -0.042236674069729523 -0.0043429987382006966 0 -0.034940816819647294 -0.0050895690245974365 0 -0.039377809136862153 -0.004753960002092085 0 -0.035493817436532404 -0.0051910806409688594 0 -0.035788029456598175 -0.0044959662651727506 0 -0.037712557034762687 -0.005413036386308751 0 -0.033286268771357368 -0.0061844160177748015 0 -0.032376739185367064 -0.0061559208958239364 0 -0.032319011536640345 -0.0063418198767812989 0 -0.041904540044189122 -0.0044779391079060593 0 -0.041953833210792067 -0.004521362050857485 0 -0.042142917098479858 -0.0044182055741871099 0 -0.041953833210792067 -0.004521362050857485 0 -0.04212136128223213 -0.0050899035841670184 0 -0.042203771608905379 -0.0047644682946887257 0 -0.041927984081850792 -0.0051534350045260597 0 -0.041953833210792067 -0.004521362050857485 0 -0.04212136128223213 -0.0050899035841670184 0 -0.041955033462727165 -0.0045806094283568242 0 -0.041983870002696169 -0.0044919392987155101 0 -0.042065409370452882 -0.0052494769527313577 0 -0.041927984081850792 -0.0051534350045260597 0 -0.04212136128223213 -0.0050899035841670184 0 -0.04212136128223213 -0.0050899035841670184 0 -0.042399135277532966 -0.0050923711007415757 0 -0.042359620972935226 -0.0053819744486625475 0 -0.042399135277532966 -0.0050923711007415757 0 -0.042728278225509973 -0.0051321259538662988 0 -0.042668307030835732 -0.005459142037747354 0 -0.042399135277532966 -0.0050923711007415757 0 -0.042583953159111329 -0.0048035378193044967 0 -0.042203771608905379 -0.0047644682946887257 0 -0.042399135277532966 -0.0050923711007415757 0 -0.042583953159111329 -0.0048035378193044967 0 -0.042728278225509973 -0.0051321259538662988 0 -0.04212136128223213 -0.0050899035841670184 0 -0.042399135277532966 -0.0050923711007415757 0 -0.042203771608905379 -0.0047644682946887257 0 -0.041953833210792067 -0.004521362050857485 0 -0.042203771608905379 -0.0047644682946887257 0 -0.042142917098479858 -0.0044182055741871099 0 -0.042583953159111329 -0.0048035378193044967 0 -0.042203771608905379 -0.0047644682946887257 0 -0.042142917098479858 -0.0044182055741871099 0 -0.037712557034762687 -0.005413036386308751 0 -0.03734610809225572 -0.0052715644705259796 0 -0.032376739185367064 -0.0061559208958239364 0 -0.03198803153578151 -0.0061815444345356789 0 -0.031981451867523041 -0.0063143274770781797 0 -0.042583953159111329 -0.0048035378193044967 0 -0.042142917098479858 -0.0044182055741871099 0 -0.04305979201536194 -0.0044263065361686222 0 -0.03198803153578151 -0.0061815444345356789 0 -0.032047144888908433 -0.006093200488161349 0 -0.031981451867523041 -0.0063143274770781797 0 -0.042583953159111329 -0.0048035378193044967 0 -0.04305979201536194 -0.0044263065361686222 0 -0.043125659885403983 -0.0049987291533023885 0 -0.042583953159111329 -0.0048035378193044967 0 -0.043125659885403983 -0.0049987291533023885 0 -0.042728278225509973 -0.0051321259538662988 0 -0.043125659885403983 -0.0049987291533023885 0 -0.042728278225509973 -0.0051321259538662988 0 -0.04303666295097739 -0.0054492583042557059 0 -0.043125659885403983 -0.0049987291533023885 0 -0.04303666295097739 -0.0054492583042557059 0 -0.043550938456611281 -0.0054637920811061213 0 -0.04303666295097739 -0.0054492583042557059 0 -0.043317949792645589 -0.0058604480071868994 0 -0.043550938456611281 -0.0054637920811061213 0 -0.04303666295097739 -0.0054492583042557059 0 -0.043317949792645589 -0.0058604480071868994 0 -0.042902887930113348 -0.0057570581772810768 0 -0.04303666295097739 -0.0054492583042557059 0 -0.042902887930113348 -0.0057570581772810768 0 -0.042668307030835732 -0.005459142037747354 0 -0.042728278225509973 -0.0051321259538662988 0 -0.04303666295097739 -0.0054492583042557059 0 -0.042668307030835732 -0.005459142037747354 0 -0.042818214803777142 -0.0054295190612226023 0 -0.042359620972935226 -0.0053819744486625475 0 -0.042498397343915147 -0.0055277558208884593 0 -0.04260595865971277 -0.005400878785468576 0 -0.042386664760563297 -0.0053235773465169492 0 -0.042399135277532966 -0.0050923711007415757 0 -0.042668307030835732 -0.005459142037747354 0 -0.042359620972935226 -0.0053819744486625475 0 -0.042668307030835732 -0.005459142037747354 0 -0.042359620972935226 -0.0053819744486625475 0 -0.042498397343915147 -0.0055277558208884593 0 -0.042668307030835732 -0.005459142037747354 0 -0.042498397343915147 -0.0055277558208884593 0 -0.042689633718951091 -0.005837925775761736 0 -0.042902887930113348 -0.0057570581772810768 0 -0.042668307030835732 -0.005459142037747354 0 -0.042689633718951091 -0.005837925775761736 0 -0.042646553390062611 -0.0050147647256223215 0 -0.042763517613983872 -0.0052587701517025796 0 -0.042498397343915147 -0.0055277558208884593 0 -0.042526409066394592 -0.0064318206836135152 0 -0.042689633718951091 -0.005837925775761736 0 -0.042821864219771306 -0.00610344075145575 0 -0.042172808949277579 -0.0059448786047154173 0 -0.042609192761532549 -0.0054354830977339438 0 -0.042526409066394592 -0.0064318206836135152 0 -0.042498397343915147 -0.0055277558208884593 0 -0.042689633718951091 -0.005837925775761736 0 -0.042763517613983872 -0.0052587701517025796 0 -0.042818214803777142 -0.0054295190612226023 0 -0.042498397343915147 -0.0055277558208884593 0 -0.04278213108691515 -0.0063835978712289514 0 -0.042526409066394592 -0.0064318206836135152 0 -0.042821864219771306 -0.00610344075145575 0 -0.042821864219771306 -0.00610344075145575 0 -0.042948450824578127 -0.006301191905373732 0 -0.043068635581728215 -0.0060408799520178654 0 -0.04278213108691515 -0.0063835978712289514 0 -0.042821864219771306 -0.00610344075145575 0 -0.042948450824578127 -0.006301191905373732 0 -0.042948450824578127 -0.006301191905373732 0 -0.043260576933609733 -0.0062946891538487757 0 -0.043068635581728215 -0.0060408799520178654 0 -0.043317949792645589 -0.0058604480071868994 0 -0.042902887930113348 -0.0057570581772810768 0 -0.043068635581728215 -0.0060408799520178654 0 -0.043317949792645589 -0.0058604480071868994 0 -0.043260576933609733 -0.0062946891538487757 0 -0.043068635581728215 -0.0060408799520178654 0 -0.042902887930113348 -0.0057570581772810768 0 -0.042689633718951091 -0.005837925775761736 0 -0.042821864219771306 -0.00610344075145575 0 -0.042902887930113348 -0.0057570581772810768 0 -0.042821864219771306 -0.00610344075145575 0 -0.043068635581728215 -0.0060408799520178654 0 -0.044364989551725971 -0.0061241778951761257 0 -0.044037061682946493 -0.0060791014383572654 0 -0.044041673410601848 -0.0059135504720717576 0 -0.043317949792645589 -0.0058604480071868994 0 -0.043260576933609733 -0.0062946891538487757 0 -0.044041673410601848 -0.0059135504720717576 0 -0.043926166509186751 -0.0060899184855701914 0 -0.044023889314498292 -0.0059451563699071197 0 -0.045131983237224317 -0.0057868732415724544 0 -0.044678827267989933 -0.0059560720431741506 0 -0.044835282372159481 -0.0058960794845546328 0 -0.046249161316601554 -0.0060004192289972629 0 -0.045131983237224317 -0.0057868732415724544 0 -0.044678827267989933 -0.0059560720431741506 0 -0.045204638013843786 -0.0059543782013224515 0 -0.044806447926197847 -0.0059356489980527402 0 -0.044037061682946493 -0.0060791014383572654 0 -0.044678827267989933 -0.0059560720431741506 0 -0.044041673410601848 -0.0059135504720717576 0 -0.044678827267989933 -0.0059560720431741506 0 -0.044200062997669924 -0.0055489252305214619 0 -0.044041673410601848 -0.0059135504720717576 0 -0.044678827267989933 -0.0059560720431741506 0 -0.044200062997669924 -0.0055489252305214619 0 -0.04471534662726926 -0.00551787491767162 0 -0.044200062997669924 -0.0055489252305214619 0 -0.044041673410601848 -0.0059135504720717576 0 -0.043550938456611281 -0.0054637920811061213 0 -0.043317949792645589 -0.0058604480071868994 0 -0.044041673410601848 -0.0059135504720717576 0 -0.043550938456611281 -0.0054637920811061213 0 -0.043125659885403983 -0.0049987291533023885 0 -0.043550938456611281 -0.0054637920811061213 0 -0.043647031631896607 -0.0050588012775575845 0 -0.044200062997669924 -0.0055489252305214619 0 -0.043550938456611281 -0.0054637920811061213 0 -0.043647031631896607 -0.0050588012775575845 0 -0.04305979201536194 -0.0044263065361686222 0 -0.043125659885403983 -0.0049987291533023885 0 -0.043647031631896607 -0.0050588012775575845 0 -0.04305979201536194 -0.0044263065361686222 0 -0.043647031631896607 -0.0050588012775575845 0 -0.044249780066049231 -0.0047226525930336065 0 -0.03198803153578151 -0.0061815444345356789 0 -0.032047144888908433 -0.006093200488161349 0 -0.034460449398009789 -0.0066016775883346764 0 -0.03734610809225572 -0.0052715644705259796 0 -0.039992315757306426 -0.0058280562428186574 0 -0.032047144888908433 -0.006093200488161349 0 -0.034460449398009789 -0.0066016775883346764 0 -0.033392408226305278 -0.0049293749518577795 0 -0.032520207806898363 -0.0056217386522505897 0 -0.028183998239990311 -0.0035685100257486654 0 -0.034460449398009789 -0.0066016775883346764 0 -0.03572795949348323 -0.0058546208462625579 0 -0.03496409533126689 -0.0048421785250184722 0 -0.034460449398009789 -0.0066016775883346764 0 -0.03496409533126689 -0.0048421785250184722 0 -0.033392408226305278 -0.0049293749518577795 0 -0.044200062997669924 -0.0055489252305214619 0 -0.044249780066049231 -0.0047226525930336065 0 -0.04471534662726926 -0.00551787491767162 0 -0.044200062997669924 -0.0055489252305214619 0 -0.043647031631896607 -0.0050588012775575845 0 -0.044249780066049231 -0.0047226525930336065 0 -0.04471534662726926 -0.00551787491767162 0 -0.045051063433142094 -0.0050600827068282552 0 -0.044941789497144294 -0.0057796519560594358 0 -0.044249780066049231 -0.0047226525930336065 0 -0.04471534662726926 -0.00551787491767162 0 -0.045051063433142094 -0.0050600827068282552 0 -0.034460449398009789 -0.0066016775883346764 0 -0.03572795949348323 -0.0058546208462625579 0 -0.036732236886154832 -0.0069026307937620447 0 -0.03572795949348323 -0.0058546208462625579 0 -0.036732236886154832 -0.0069026307937620447 0 -0.036444519379585705 -0.0047504731609707175 0 -0.039992315757306426 -0.0058280562428186574 0 -0.03793144884518302 -0.004907046324519505 0 -0.03793144884518302 -0.004907046324519505 0 -0.030101209682078599 -0.0018753952416942824 0 -0.031592304574333256 -0.0040215187581747859 0 -0.032040278346076888 -0.0040935293982729496 0 -0.032114251085858816 -0.0010891119324894839 0 -0.02866597203711993 3.0343062840108053e-05 0 -0.027043923192134705 -3.0287745924226534e-05 0 -0.027150536213148915 9.822811144732566e-08 0 -0.031592304574333256 -0.0040215187581747859 0 -0.032114251085858816 -0.0010891119324894839 0 -0.03121388131652085 -0.0011509581934152869 0 -0.032085672988087718 -0.0020323827178223472 0 -0.027626602900895528 -0.00049274160222414121 0 -0.029526550396793756 -4.708511217185479e-07 0 -0.02866597203711993 3.0343062840108053e-05 0 -0.027150536213148915 9.822811144732566e-08 0 -0.029533367829253893 -1.0461199037749656e-06 0 -0.03041411712763854 -0.00026791207096463042 0 -0.031927782605316153 0.00012032513350740494 0 -0.036027302438479333 -0.0026294756831664948 0 -0.03605541255778083 -0.0026329455928907701 0 -0.036071615388735864 -0.0028217660812501506 0 -0.032085672988087718 -0.0020323827178223472 0 -0.037571640976020428 -0.0024265624309669537 0 -0.03793144884518302 -0.004907046324519505 0 -0.037571640976020428 -0.0024265624309669537 0 -0.029528793772236731 -7.7666145733838105e-07 0 -0.032085672988087718 -0.0020323827178223472 0 -0.03793144884518302 -0.004907046324519505 0 -0.032085672988087718 -0.0020323827178223472 0 -0.029533367829253893 -1.0461199037749656e-06 0 -0.031927782605316153 0.00012032513350740494 0 -0.032580265499001212 7.7391384094812499e-07 0 -0.044678827267989933 -0.0059560720431741506 0 -0.04471534662726926 -0.00551787491767162 0 -0.044835282372159481 -0.0058960794845546328 0 -0.04471534662726926 -0.00551787491767162 0 -0.044941789497144294 -0.0057796519560594358 0 -0.044835282372159481 -0.0058960794845546328 0 -0.044457091811983006 -0.0056610530532371778 0 -0.044941789497144294 -0.0057796519560594358 0 -0.044835282372159481 -0.0058960794845546328 0 -0.044457091811983006 -0.0056610530532371778 0 -0.045131983237224317 -0.0057868732415724544 0 -0.044835282372159481 -0.0058960794845546328 0 -0.037571640976020428 -0.0024265624309669537 0 -0.034931476436893746 0.00012043360480189393 0 -0.036428422556333342 -0.00058102157835961468 0 -0.036427573325962678 -0.001727178472583676 0 -0.036278021068874483 -0.00083116364947056153 0 -0.035633617964026323 -7.7050506407832463e-07 0 -0.032580265499001212 7.7391384094812499e-07 0 -0.033814830644670668 -2.355765828576368e-05 0 -0.040847114490852529 -0.0033377209027658089 0 -0.037571640976020428 -0.0024265624309669537 0 -0.031927782605316153 0.00012032513350740494 0 -0.032580265499001212 7.7391384094812499e-07 0 -0.033814830644670668 -2.355765828576368e-05 0 -0.04468430310436642 -0.00074353048012143106 0 -0.045170418275949482 -0.0015188325125337404 0 -0.045792227229682438 -0.0005354513355993885 0 -0.047196981455385034 -0.00024778608685477647 0 -0.047270074194194545 -0.00026552029797107581 0 -0.049537524606323935 9.3930252863370613e-05 0 -0.049727386358123626 -0.0002835648461918857 0 -0.049861527072878414 -9.2159960385933211e-05 0 -0.04468430310436642 -0.00074353048012143106 0 -0.044243256926028707 -0.0015508218980694239 0 -0.045170418275949482 -0.0015188325125337404 0 -0.045170418275949482 -0.0015188325125337404 0 -0.046251459338611557 -0.0014750508210053803 0 -0.045666563583366376 -0.0022974448511484825 0 -0.045170418275949482 -0.0015188325125337404 0 -0.046251459338611557 -0.0014750508210053803 0 -0.045792227229682438 -0.0005354513355993885 0 -0.047233357683037588 -0.001421411112162806 0 -0.046251459338611557 -0.0014750508210053803 0 -0.046393695730876143 -0.0023263123852428507 0 -0.047233357683037588 -0.001421411112162806 0 -0.047592307299641139 -0.0003902402978136736 0 -0.046251459338611557 -0.0014750508210053803 0 -0.047592307299641139 -0.0003902402978136736 0 -0.046251459338611557 -0.0014750508210053803 0 -0.045792227229682438 -0.0005354513355993885 0 -0.047593389792140846 -0.00034526458253901536 0 -0.047270074194194545 -0.00026552029797107581 0 -0.048757803123318719 8.1475337299930691e-05 0 -0.04832381909679883 -0.00045610665869193917 0 -0.049235775783227298 -0.00051847263521149405 0 -0.047592307299641139 -0.0003902402978136736 0 -0.048757803123318719 8.1475337299930691e-05 0 -0.04832381909679883 -0.00045610665869193917 0 -0.047993272553712503 -0.00044612692309337206 0 -0.04832381909679883 -0.00045610665869193917 0 -0.048551585731974871 -0.00072640147762945877 0 -0.04832381909679883 -0.00045610665869193917 0 -0.048551585731974871 -0.00072640147762945877 0 -0.049235775783227298 -0.00051847263521149405 0 -0.049138797900901254 -0.0009702856458817837 0 -0.048551585731974871 -0.00072640147762945877 0 -0.049235775783227298 -0.00051847263521149405 0 -0.049537524606323935 9.3930252863370613e-05 0 -0.048757803123318719 8.1475337299930691e-05 0 -0.049235775783227298 -0.00051847263521149405 0 -0.049537524606323935 9.3930252863370613e-05 0 -0.049235775783227298 -0.00051847263521149405 0 -0.049727386358123626 -0.0002835648461918857 0 -0.049808212274199397 -0.001144667260289257 0 -0.049235775783227298 -0.00051847263521149405 0 -0.049857686438373343 -0.00067424355945855602 0 -0.049235775783227298 -0.00051847263521149405 0 -0.049727386358123626 -0.0002835648461918857 0 -0.049857686438373343 -0.00067424355945855602 0 -0.050410414847412793 -0.00076484841728263493 0 -0.050667150023812488 -0.00077007451120519909 0 -0.050724519797291985 -0.00067849482313630377 0 -0.050005217840720213 -0.00086081735744201321 0 -0.050926895342797256 -1.8305029948648472e-05 0 -0.050670095689716269 -0.0010294716717480245 0 -0.050410414847412793 -0.00076484841728263493 0 -0.050667150023812488 -0.00077007451120519909 0 -0.050670095689716269 -0.0010294716717480245 0 -0.050667150023812488 -0.00077007451120519909 0 -0.050814723996066964 -0.00072636591197338101 0 -0.050667150023812488 -0.00077007451120519909 0 -0.050814723996066964 -0.00072636591197338101 0 -0.050724519797291985 -0.00067849482313630377 0 -0.049140876050756482 -0.00065852662836278573 0 -0.048424794076952153 -0.0016387258847817829 0 -0.049121458356819372 -0.0026470137549818584 0 -0.050814723996066964 -0.00072636591197338101 0 -0.050724519797291985 -0.00067849482313630377 0 -0.050601676031140692 -0.00080120950941858706 0 -0.04995250438557821 -0.00083268988108355048 0 -0.050301046996739013 -0.0013796883150886366 0 -0.050814723996066964 -0.00072636591197338101 0 -0.050601676031140692 -0.00080120950941858706 0 -0.05057678512958335 -0.00081073422822762974 0 -0.049727386358123626 -0.0002835648461918857 0 -0.050015357368498173 -0.00021558768753011996 0 -0.049861527072878414 -9.2159960385933211e-05 0 -0.049727386358123626 -0.0002835648461918857 0 -0.049857686438373343 -0.00067424355945855602 0 -0.050015357368498173 -0.00021558768753011996 0 -0.046311968073598303 0.00036580008624215811 0 -0.046054582403407845 -0.00094995980766546999 0 -0.047274292990462992 -0.00030551282985341832 0 -0.047331044603285181 -0.00024501070348853613 0 -0.048193473336698801 -0.00079705959959087394 0 -0.047629075386172844 -0.0016718353739979689 0 -0.047331044603285181 -0.00024501070348853613 0 -0.048193473336698801 -0.00079705959959087394 0 -0.048435535093007402 0.00021778483988282716 0 -0.049140876050756482 -0.00065852662836278573 0 -0.048193473336698801 -0.00079705959959087394 0 -0.048435535093007402 0.00021778483988282716 0 -0.049140876050756482 -0.00065852662836278573 0 -0.048193473336698801 -0.00079705959959087394 0 -0.048424794076952153 -0.0016387258847817829 0 -0.048424794076952153 -0.0016387258847817829 0 -0.048068945738238909 -0.0024373297147125207 0 -0.049121458356819372 -0.0026470137549818584 0 -0.047629075386172844 -0.0016718353739979689 0 -0.047240523920107712 -0.002640257376701872 0 -0.048068945738238909 -0.0024373297147125207 0 -0.048424794076952153 -0.0016387258847817829 0 -0.047629075386172844 -0.0016718353739979689 0 -0.048068945738238909 -0.0024373297147125207 0 -0.048193473336698801 -0.00079705959959087394 0 -0.048424794076952153 -0.0016387258847817829 0 -0.047629075386172844 -0.0016718353739979689 0 -0.046241198797232028 -0.0021175784406037295 0 -0.047300873129898481 -0.00027016031473928122 0 -0.046054582403407845 -0.00094995980766546999 0 -0.046038730580755388 -0.0023257315330930078 0 -0.047274292990462992 -0.00030551282985341832 0 -0.046266725815466217 -0.0019980845081977849 0 -0.047331044603285181 -0.00024501070348853613 0 -0.047629075386172844 -0.0016718353739979689 0 -0.046266725815466217 -0.0019980845081977849 0 -0.047629075386172844 -0.0016718353739979689 0 -0.047240523920107712 -0.002640257376701872 0 -0.046266725815466217 -0.0019980845081977849 0 -0.047240523920107712 -0.002640257376701872 0 -0.046479865650149062 -0.0036304349911335846 0 -0.047240523920107712 -0.002640257376701872 0 -0.047751828559911301 -0.0034696300266329398 0 -0.046479865650149062 -0.0036304349911335846 0 -0.046244562086509317 -0.0032502533091262596 0 -0.045712001574524729 -0.0036995917540128672 0 -0.047751828559911301 -0.0034696300266329398 0 -0.048068945738238909 -0.0024373297147125207 0 -0.049121458356819372 -0.0026470137549818584 0 -0.046244562086509317 -0.0032502533091262596 0 -0.050301046996739013 -0.0013796883150886366 0 -0.049693587928337196 -0.0011595009434090756 0 -0.050460514230094941 -0.001019697932509454 0 -0.050476829413313558 -0.00096046441398322917 0 -0.046244562086509317 -0.0032502533091262596 0 -0.046764762514630846 -0.0019553665716247246 0 -0.049693587928337196 -0.0011595009434090756 0 -0.050478852094177393 -0.00070933928113229997 0 -0.050476829413313558 -0.00096046441398322917 0 -0.047240523920107712 -0.002640257376701872 0 -0.047751828559911301 -0.0034696300266329398 0 -0.048068945738238909 -0.0024373297147125207 0 -0.042085133021252524 -0.0043737054013146277 0 -0.046764762514630846 -0.0019553665716247246 0 -0.042679693427066664 -0.0044680527344015241 0 -0.042682932503105987 -0.0049387818775366845 0 -0.043208298486266401 -0.0043822312557962101 0 -0.044232605102408451 -0.0046680811626366057 0 -0.045935939974536058 -0.0036550153452491589 0 -0.044746162946206681 -0.0038012378204768846 0 -0.042754118503315654 -0.0050056354110686735 0 -0.046244562086509317 -0.0032502533091262596 0 -0.042136500093295476 -0.0049232493401702125 0 -0.042679693427066664 -0.0044680527344015241 0 -0.042682932503105987 -0.0049387818775366845 0 -0.049537524606323935 9.3930252863370613e-05 0 -0.049998247085993083 1.4918075028751715e-05 0 -0.049861527072878414 -9.2159960385933211e-05 0 -0.047196981455385034 -0.00024778608685477647 0 -0.046421657559850692 -0.0010216289335935802 0 -0.04468430310436642 -0.00074353048012143106 0 -0.044243256926028707 -0.0015508218980694239 0 -0.043656745768210159 -0.00088411550083185048 0 -0.046421657559850692 -0.0010216289335935802 0 -0.047314468180444096 -0.0001862297175612977 0 -0.049998247085993083 1.4918075028751715e-05 0 -0.049861527072878414 -9.2159960385933211e-05 0 -0.049978418007553066 -6.2442454074624468e-05 0 -0.050015357368498173 -0.00021558768753011996 0 -0.049861527072878414 -9.2159960385933211e-05 0 -0.049978418007553066 -6.2442454074624468e-05 0 -0.050015357368498173 -0.00021558768753011996 0 -0.049978418007553066 -6.2442454074624468e-05 0 -0.050062679409376448 -1.2865132083767045e-05 0 -0.050926895342797256 -1.8305029948648472e-05 0 -0.046764762514630846 -0.0019553665716247246 0 -0.050724519797291985 -0.00067849482313630377 0 -0.050601676031140692 -0.00080120950941858706 0 -0.050460514230094941 -0.001019697932509454 0 -0.050601676031140692 -0.00080120950941858706 0 -0.050482538875240568 -0.00086438322379346914 0 -0.050476829413313558 -0.00096046441398322917 0 -0.050626030014070116 -0.001032904240000544 0 -0.050301046996739013 -0.0013796883150886366 0 -0.050301046996739013 -0.0013796883150886366 0 -0.050347719107142308 -0.0010629039391805426 0 -0.050601676031140692 -0.00080120950941858706 0 -0.050460514230094941 -0.001019697932509454 0 -0.050476829413313558 -0.00096046441398322917 0 -0.049976679530993454 -3.2249589107494465e-05 0 -0.049978418007553066 -6.2442454074624468e-05 0 -0.050062679409376448 -1.2865132083767045e-05 0 -0.046421657559850692 -0.0010216289335935802 0 -0.046764762514630846 -0.0019553665716247246 0 -0.042612468084993221 -0.0029356854559277989 0 -0.04306652084336008 -0.0023461040743430837 0 -0.04330743693243988 -0.0030830281067521915 0 -0.043520805939308321 -0.0022822858845743194 0 -0.04306652084336008 -0.0023461040743430837 0 -0.04330743693243988 -0.0030830281067521915 0 -0.046421657559850692 -0.0010216289335935802 0 -0.043027876424044764 -0.002654642105721753 0 -0.044243256926028707 -0.0015508218980694239 0 -0.043656745768210159 -0.00088411550083185048 0 -0.043437528122902205 -0.0018832576603606858 0 -0.044243256926028707 -0.0015508218980694239 0 -0.043437528122902205 -0.0018832576603606858 0 -0.043837430396772056 -0.002477994403312072 0 -0.04330743693243988 -0.0030830281067521915 0 -0.043089333771515942 -0.0037633376030687775 0 -0.042690889841659606 -0.0035453272754057117 0 -0.043027876424044764 -0.002654642105721753 0 -0.043174331675044794 -0.003289280850958083 0 -0.043437528122902205 -0.0018832576603606858 0 -0.043149493969602389 -0.0028761757629291985 0 -0.043837430396772056 -0.002477994403312072 0 -0.043149493969602389 -0.0028761757629291985 0 -0.043837430396772056 -0.002477994403312072 0 -0.043804399652785167 -0.0030449593920036473 0 -0.043837430396772056 -0.002477994403312072 0 -0.043804399652785167 -0.0030449593920036473 0 -0.044494365742314919 -0.0028477961639034126 0 -0.042612468084993221 -0.0029356854559277989 0 -0.042690889841659606 -0.0035453272754057117 0 -0.042234278203090211 -0.003480388095891975 0 -0.042136500093295476 -0.0049232493401702125 0 -0.042682932503105987 -0.0049387818775366845 0 -0.042252474189619547 -0.0052520287857260577 0 -0.042085133021252524 -0.0043737054013146277 0 -0.042353253119835073 -0.004240616319252267 0 -0.042612468084993221 -0.0029356854559277989 0 -0.04330743693243988 -0.0030830281067521915 0 -0.042690889841659606 -0.0035453272754057117 0 -0.043089333771515942 -0.0037633376030687775 0 -0.042690889841659606 -0.0035453272754057117 0 -0.042676020359378619 -0.0039923924008710863 0 -0.042690889841659606 -0.0035453272754057117 0 -0.042234278203090211 -0.003480388095891975 0 -0.042310029193642622 -0.0039177428974548519 0 -0.041955320760355221 -0.0040210814023796688 0 -0.042234278203090211 -0.003480388095891975 0 -0.042310029193642622 -0.0039177428974548519 0 -0.04206785091500681 -0.0042657210035759036 0 -0.042310029193642622 -0.0039177428974548519 0 -0.042391114150255205 -0.0041781984958252708 0 -0.042310029193642622 -0.0039177428974548519 0 -0.042676020359378619 -0.0039923924008710863 0 -0.042391114150255205 -0.0041781984958252708 0 -0.042690889841659606 -0.0035453272754057117 0 -0.042310029193642622 -0.0039177428974548519 0 -0.042676020359378619 -0.0039923924008710863 0 -0.042676020359378619 -0.0039923924008710863 0 -0.042668301048639973 -0.0042161500681405029 0 -0.042391114150255205 -0.0041781984958252708 0 -0.042410710836538031 -0.0044381776537292068 0 -0.042668301048639973 -0.0042161500681405029 0 -0.042976158477688084 -0.0042869641273904514 0 -0.041550950784603767 -0.0046085261611117879 0 -0.043049966894969566 -0.0043825501934326473 0 -0.039377809136862153 -0.004753960002092085 0 -0.038751375220471153 -0.0050487364336786449 0 -0.041793539794620777 -0.004862061363575961 0 -0.035648649511222617 -0.0035593450733892879 0 -0.037142806975867519 -0.0032936372827597699 0 -0.042676020359378619 -0.0039923924008710863 0 -0.042668301048639973 -0.0042161500681405029 0 -0.042976158477688084 -0.0042869641273904514 0 -0.042410710836538031 -0.0044381776537292068 0 -0.042668301048639973 -0.0042161500681405029 0 -0.042445593924820467 -0.0042940097322457203 0 -0.042668301048639973 -0.0042161500681405029 0 -0.042445593924820467 -0.0042940097322457203 0 -0.042391114150255205 -0.0041781984958252708 0 -0.035788029456598175 -0.0044959662651727506 0 -0.041550950784603767 -0.0046085261611117879 0 -0.039377809136862153 -0.004753960002092085 0 -0.038751375220471153 -0.0050487364336786449 0 -0.035493817436532404 -0.0051910806409688594 0 -0.041904540044189122 -0.0044779391079060593 0 -0.042410710836538031 -0.0044381776537292068 0 -0.042236674069729523 -0.0043429987382006966 0 -0.035648649511222617 -0.0035593450733892879 0 -0.029163798755245832 -0.0024383564784733087 0 -0.042445593924820467 -0.0042940097322457203 0 -0.042391114150255205 -0.0041781984958252708 0 -0.042236674069729523 -0.0043429987382006966 0 -0.042410710836538031 -0.0044381776537292068 0 -0.042445593924820467 -0.0042940097322457203 0 -0.042236674069729523 -0.0043429987382006966 0 -0.04206785091500681 -0.0042657210035759036 0 -0.042391114150255205 -0.0041781984958252708 0 -0.042236674069729523 -0.0043429987382006966 0 -0.044097564168371385 -0.0034371218554326149 0 -0.043804399652785167 -0.0030449593920036473 0 -0.044494365742314919 -0.0028477961639034126 0 -0.044097564168371385 -0.0034371218554326149 0 -0.043804399652785167 -0.0030449593920036473 0 -0.043354497509024349 -0.0036484105546453253 0 -0.043089333771515942 -0.0037633376030687775 0 -0.042676020359378619 -0.0039923924008710863 0 -0.042976158477688084 -0.0042869641273904514 0 -0.043149493969602389 -0.0028761757629291985 0 -0.043804399652785167 -0.0030449593920036473 0 -0.043354497509024349 -0.0036484105546453253 0 -0.043174331675044794 -0.003289280850958083 0 -0.042966376216740286 -0.0042410965304331199 0 -0.043149493969602389 -0.0028761757629291985 0 -0.043354497509024349 -0.0036484105546453253 0 -0.042976158477688084 -0.0042869641273904514 0 -0.043354497509024349 -0.0036484105546453253 0 -0.042976158477688084 -0.0042869641273904514 0 -0.043441379017126851 -0.0043688341171871778 0 -0.042410710836538031 -0.0044381776537292068 0 -0.042976158477688084 -0.0042869641273904514 0 -0.043441379017126851 -0.0043688341171871778 0 -0.039377809136862153 -0.004753960002092085 0 -0.041793539794620777 -0.004862061363575961 0 -0.043441379017126851 -0.0043688341171871778 0 -0.037142806975867519 -0.0032936372827597699 0 -0.040677226480002417 -0.0039102136558869065 0 -0.033101732113710328 -0.0018283815549837669 0 -0.035022206159679249 -0.0016925526470308726 0 -0.034060025269318679 -0.0023765616021460831 0 -0.041793539794620777 -0.004862061363575961 0 -0.043441379017126851 -0.0043688341171871778 0 -0.044544790337463329 -0.0045361830365090415 0 -0.044097564168371385 -0.0034371218554326149 0 -0.043354497509024349 -0.0036484105546453253 0 -0.043886670007330014 -0.0040632896280379631 0 -0.043354497509024349 -0.0036484105546453253 0 -0.043441379017126851 -0.0043688341171871778 0 -0.044544790337463329 -0.0045361830365090415 0 -0.044109929121446859 -0.0043563696900010256 0 -0.040677226480002417 -0.0039102136558869065 0 -0.044097564168371385 -0.0034371218554326149 0 -0.043886670007330014 -0.0040632896280379631 0 -0.04500637885888524 -0.0038079638654950911 0 -0.040677226480002417 -0.0039102136558869065 0 -0.04217674060885513 -0.0048616752104487801 0 -0.04500637885888524 -0.0038079638654950911 0 -0.045378604329484332 -0.0029417208817775309 0 -0.045970457999209235 -0.0033750283141796653 0 -0.04500637885888524 -0.0038079638654950911 0 -0.045378604329484332 -0.0029417208817775309 0 -0.044494365742314919 -0.0028477961639034126 0 -0.044097564168371385 -0.0034371218554326149 0 -0.04500637885888524 -0.0038079638654950911 0 -0.044494365742314919 -0.0028477961639034126 0 -0.043837430396772056 -0.002477994403312072 0 -0.044494365742314919 -0.0028477961639034126 0 -0.044814539926552203 -0.0022839388425229209 0 -0.045378604329484332 -0.0029417208817775309 0 -0.044494365742314919 -0.0028477961639034126 0 -0.044814539926552203 -0.0022839388425229209 0 -0.045378604329484332 -0.0029417208817775309 0 -0.044814539926552203 -0.0022839388425229209 0 -0.045666563583366376 -0.0022974448511484825 0 -0.045170418275949482 -0.0015188325125337404 0 -0.044814539926552203 -0.0022839388425229209 0 -0.045666563583366376 -0.0022974448511484825 0 -0.044243256926028707 -0.0015508218980694239 0 -0.045170418275949482 -0.0015188325125337404 0 -0.044814539926552203 -0.0022839388425229209 0 -0.044243256926028707 -0.0015508218980694239 0 -0.043837430396772056 -0.002477994403312072 0 -0.044814539926552203 -0.0022839388425229209 0 -0.046251459338611557 -0.0014750508210053803 0 -0.046393695730876143 -0.0023263123852428507 0 -0.045666563583366376 -0.0022974448511484825 0 -0.045378604329484332 -0.0029417208817775309 0 -0.045666563583366376 -0.0022974448511484825 0 -0.046039726266711975 -0.0029359448523749408 0 -0.046322745215958742 -0.0032062590222080908 0 -0.046393695730876143 -0.0023263123852428507 0 -0.046039726266711975 -0.0029359448523749408 0 -0.046393695730876143 -0.0023263123852428507 0 -0.045666563583366376 -0.0022974448511484825 0 -0.046039726266711975 -0.0029359448523749408 0 -0.046095845230879853 -0.0030778196954148801 0 -0.046039726266711975 -0.0029359448523749408 0 -0.045970457999209235 -0.0033750283141796653 0 -0.045378604329484332 -0.0029417208817775309 0 -0.046039726266711975 -0.0029359448523749408 0 -0.045970457999209235 -0.0033750283141796653 0 -0.04217674060885513 -0.0048616752104487801 0 -0.041504859125567159 -0.0045770667983948141 0 -0.03525554795618157 -0.0060383815393799979 0 -0.036842643240153981 -0.0058728680652632139 0 -0.036189686213718042 -0.0049767501881792563 0 -0.039379614252695989 -0.0044015590098434925 0 -0.041504859125567159 -0.0045770667983948141 0 -0.046095845230879853 -0.0030778196954148801 0 -0.045533004109405917 -0.0025336212562141131 0 -0.045970457999209235 -0.0033750283141796653 0 -0.038777066734052311 -0.0057156378680355254 0 -0.036842643240153981 -0.0058728680652632139 0 -0.037550238591300307 -0.0040713740991805969 0 -0.036842643240153981 -0.0058728680652632139 0 -0.036189686213718042 -0.0049767501881792563 0 -0.037550238591300307 -0.0040713740991805969 0 -0.036729407944171358 -0.0037963059937895019 0 -0.036205100390423212 -0.0031530585548174834 0 -0.03708028983328289 -0.0029118646098858806 0 -0.036729407944171358 -0.0037963059937895019 0 -0.036205100390423212 -0.0031530585548174834 0 -0.03528843632573337 -0.0037781201621743367 0 -0.035630012411069029 -0.0027118471277531387 0 -0.036205100390423212 -0.0031530585548174834 0 -0.03528843632573337 -0.0037781201621743367 0 -0.036189686213718042 -0.0049767501881792563 0 -0.037550238591300307 -0.0040713740991805969 0 -0.03528843632573337 -0.0037781201621743367 0 -0.037605151007525935 -0.0040955928388078334 0 -0.035160371116824886 -0.0037114006749867068 0 -0.035630012411069029 -0.0027118471277531387 0 -0.035153217098924751 -0.0018938276899474835 0 -0.036128281371280581 -0.002037927454796017 0 -0.035630012411069029 -0.0027118471277531387 0 -0.036281532414817137 -0.0027017417235925796 0 -0.036128281371280581 -0.002037927454796017 0 -0.035630012411069029 -0.0027118471277531387 0 -0.036205100390423212 -0.0031530585548174834 0 -0.036281532414817137 -0.0027017417235925796 0 -0.036205100390423212 -0.0031530585548174834 0 -0.036281532414817137 -0.0027017417235925796 0 -0.03708028983328289 -0.0029118646098858806 0 -0.02814793845754528 -0.0016204432004874737 0 -0.028484965752657271 -0.0015962644535277009 0 -0.027609443961881509 -0.0010399901872811821 0 -0.036281532414817137 -0.0027017417235925796 0 -0.036128281371280581 -0.002037927454796017 0 -0.03708028983328289 -0.0029118646098858806 0 -0.032955633415978396 -0.0020606464753139949 0 -0.03095968100392292 -0.0017301004215642404 0 -0.027304459233302773 -0.00085950614081632638 0 -0.03095968100392292 -0.0017301004215642404 0 -0.02814793845754528 -0.0016204432004874737 0 -0.027759602018869369 -0.0019392409253781203 0 -0.028405744963241292 -0.0019568748703749652 0 -0.02814793845754528 -0.0016204432004874737 0 -0.027759602018869369 -0.0019392409253781203 0 -0.027358646420419509 -0.00082466768103885168 0 -0.02814793845754528 -0.0016204432004874737 0 -0.028405744963241292 -0.0019568748703749652 0 -0.028484965752657271 -0.0015962644535277009 0 -0.027759602018869369 -0.0019392409253781203 0 -0.028049633254169599 -0.0023173181557285386 0 -0.027260279645730714 -0.0018923383820151707 0 -0.027759602018869369 -0.0019392409253781203 0 -0.028049633254169599 -0.0023173181557285386 0 -0.028405744963241292 -0.0019568748703749652 0 -0.025878000378833386 -0.0015617947399659635 0 -0.02972645901203701 -0.0013904346315688817 0 -0.032955633415978396 -0.0020606464753139949 0 -0.02972645901203701 -0.0013904346315688817 0 -0.028405744963241292 -0.0019568748703749652 0 -0.028484965752657271 -0.0015962644535277009 0 -0.029613968257409203 -0.0023259854804006767 0 -0.035153217098924751 -0.0018938276899474835 0 -0.036128281371280581 -0.002037927454796017 0 -0.034720596000018075 -0.00082118358585882203 0 -0.028049633254169599 -0.0023173181557285386 0 -0.028405744963241292 -0.0019568748703749652 0 -0.029613968257409203 -0.0023259854804006767 0 -0.025749300119488869 -0.0016390743009442699 0 -0.026442975025783001 -0.0022446801739248495 0 -0.024940074102200394 -0.002093841086809739 0 -0.025749300119488869 -0.0016390743009442699 0 -0.026442975025783001 -0.0022446801739248495 0 -0.026412031029524136 -0.0012651123750705888 0 -0.027759602018869369 -0.0019392409253781203 0 -0.027260279645730714 -0.0018923383820151707 0 -0.027358646420419509 -0.00082466768103885168 0 -0.025878000378833386 -0.0015617947399659635 0 -0.024694379459929413 -0.0017408062571302584 0 -0.028049633254169599 -0.0023173181557285386 0 -0.026442975025783001 -0.0022446801739248495 0 -0.027260279645730714 -0.0018923383820151707 0 -0.026442975025783001 -0.0022446801739248495 0 -0.027260279645730714 -0.0018923383820151707 0 -0.026412031029524136 -0.0012651123750705888 0 -0.027358646420419509 -0.00082466768103885168 0 -0.026412031029524136 -0.0012651123750705888 0 -0.026295541440828164 -0.00018653509195673562 0 -0.027260279645730714 -0.0018923383820151707 0 -0.027358646420419509 -0.00082466768103885168 0 -0.026412031029524136 -0.0012651123750705888 0 -0.026412031029524136 -0.0012651123750705888 0 -0.026295541440828164 -0.00018653509195673562 0 -0.025513834509250693 -0.00084367677216700603 0 -0.025749300119488869 -0.0016390743009442699 0 -0.026412031029524136 -0.0012651123750705888 0 -0.025513834509250693 -0.00084367677216700603 0 -0.032095747750465878 -0.0020016688973036848 0 -0.032142917932394918 -0.0021846165128929012 0 -0.032400101259189691 -0.0022364471929316484 0 -0.028536773961412673 -0.00074549422757754966 0 -0.031204410261670191 -0.0016925455920238188 0 -0.034852421283436803 -0.0029025146590991166 0 -0.036708945228651958 -0.0033006129368661615 0 -0.032095747750465878 -0.0020016688973036848 0 -0.031950354537066003 -0.0019733866781778261 0 -0.032142917932394918 -0.0021846165128929012 0 -0.036729407944171358 -0.0037963059937895019 0 -0.03708028983328289 -0.0029118646098858806 0 -0.037523577015945039 -0.0034592945325057464 0 -0.031755233102031502 -0.0017430485016543199 0 -0.032095747750465878 -0.0020016688973036848 0 -0.031950354537066003 -0.0019733866781778261 0 -0.036729407944171358 -0.0037963059937895019 0 -0.037523577015945039 -0.0034592945325057464 0 -0.03797582606079565 -0.0039499554295961492 0 -0.037605151007525935 -0.0040955928388078334 0 -0.036708945228651958 -0.0033006129368661615 0 -0.03095968100392292 -0.0017301004215642404 0 -0.028536773961412673 -0.00074549422757754966 0 -0.03095968100392292 -0.0017301004215642404 0 -0.034852421283436803 -0.0029025146590991166 0 -0.038777066734052311 -0.0057156378680355254 0 -0.037550238591300307 -0.0040713740991805969 0 -0.03951740139173586 -0.0043802505809725865 0 -0.040677226480002417 -0.0039102136558869065 0 -0.036708945228651958 -0.0033006129368661615 0 -0.036708945228651958 -0.0033006129368661615 0 -0.031204410261670191 -0.0016925455920238188 0 -0.040623085574203667 -0.0055651196028369604 0 -0.038777066734052311 -0.0057156378680355254 0 -0.03951740139173586 -0.0043802505809725865 0 -0.035022206159679249 -0.0016925526470308726 0 -0.036479309867514791 -0.0032650757067905858 0 -0.034998562561257031 -0.0030258285465488907 0 -0.031204410261670191 -0.0016925455920238188 0 -0.034744212823809649 -0.0031515446729754718 0 -0.035022206159679249 -0.0016925526470308726 0 -0.034998562561257031 -0.0030258285465488907 0 -0.034060025269318679 -0.0023765616021460831 0 -0.031204410261670191 -0.0016925455920238188 0 -0.028561542037077992 -0.0010810651083548784 0 -0.034915330762927292 -0.0029521228780496835 0 -0.034060025269318679 -0.0023765616021460831 0 -0.033084832901600504 -0.0026847646698750054 0 -0.033101732113710328 -0.0018283815549837669 0 -0.034060025269318679 -0.0023765616021460831 0 -0.033084832901600504 -0.0026847646698750054 0 -0.025311335625297453 0.000391552450559075 0 -0.024207801962404921 0.00048215958198427768 0 -0.0243250990684564 -0.00073497671598467219 0 -0.025311335625297453 0.000391552450559075 0 -0.025513834509250693 -0.00084367677216700603 0 -0.0243250990684564 -0.00073497671598467219 0 -0.026295541440828164 -0.00018653509195673562 0 -0.025311335625297453 0.000391552450559075 0 -0.025513834509250693 -0.00084367677216700603 0 -0.023218742270121901 0.00046131793211984609 0 -0.023394238875542837 -0.00023806418731739607 0 -0.022479370774664865 -0.00017917401759936426 0 -0.026578580225178044 -0.00079817020503321595 0 -0.029163798755245832 -0.0024383564784733087 0 -0.031201310343985572 -0.0019656920519171561 0 -0.031189931090330532 -0.0023954254557133864 0 -0.029297295442310127 -0.0021292035903241547 0 -0.028561542037077992 -0.0010810651083548784 0 -0.026578580225178044 -0.00079817020503321595 0 -0.031201310343985572 -0.0019656920519171561 0 -0.033101732113710328 -0.0018283815549837669 0 -0.031189931090330532 -0.0023954254557133864 0 -0.033101732113710328 -0.0018283815549837669 0 -0.033084832901600504 -0.0026847646698750054 0 -0.031189931090330532 -0.0023954254557133864 0 -0.024207801962404921 0.00048215958198427768 0 -0.023218742270121901 0.00046131793211984609 0 -0.023394238875542837 -0.00023806418731739607 0 -0.024207801962404921 0.00048215958198427768 0 -0.023394238875542837 -0.00023806418731739607 0 -0.0243250990684564 -0.00073497671598467219 0 -0.023394238875542837 -0.00023806418731739607 0 -0.022733048241891818 -0.00063032204767993455 0 -0.022479370774664865 -0.00017917401759936426 0 -0.022733048241891818 -0.00063032204767993455 0 -0.023398217820954578 -0.0010131059120794519 0 -0.022115999417513198 -0.0015574335293900886 0 -0.023394238875542837 -0.00023806418731739607 0 -0.022733048241891818 -0.00063032204767993455 0 -0.023398217820954578 -0.0010131059120794519 0 -0.023398217820954578 -0.0010131059120794519 0 -0.023552409246359235 -0.0019184455459358659 0 -0.0243250990684564 -0.00073497671598467219 0 -0.023394238875542837 -0.00023806418731739607 0 -0.023398217820954578 -0.0010131059120794519 0 -0.0243250990684564 -0.00073497671598467219 0 -0.023398217820954578 -0.0010131059120794519 0 -0.023552409246359235 -0.0019184455459358659 0 -0.022115999417513198 -0.0015574335293900886 0 -0.022862517252035926 -0.0017596704136902403 0 -0.022164732222158555 -0.0015969628369949165 0 -0.025513834509250693 -0.00084367677216700603 0 -0.0243250990684564 -0.00073497671598467219 0 -0.024940074102200394 -0.002093841086809739 0 -0.022862517252035926 -0.0017596704136902403 0 -0.023634384131339836 -0.0018222622744742695 0 -0.023552409246359235 -0.0019184455459358659 0 -0.0243250990684564 -0.00073497671598467219 0 -0.024940074102200394 -0.002093841086809739 0 -0.025749300119488869 -0.0016390743009442699 0 -0.025513834509250693 -0.00084367677216700603 0 -0.024940074102200394 -0.002093841086809739 0 -0.024694379459929413 -0.0017408062571302584 0 -0.023634384131339836 -0.0018222622744742695 0 -0.022328236467247953 -0.0015654384862352482 0 -0.02240522976688495 -0.0017082019431098317 0 -0.022316857611158234 -0.0017588617355864243 0 -0.022328236467247953 -0.0015654384862352482 0 -0.02240522976688495 -0.0017082019431098317 0 -0.022564085389156947 -0.0016593325172880853 0 -0.02240522976688495 -0.0017082019431098317 0 -0.022430751958061598 -0.001852035646957569 0 -0.022564085389156947 -0.0016593325172880853 0 -0.022328236467247953 -0.0015654384862352482 0 -0.022316857611158234 -0.0017588617355864243 0 -0.022211226020073353 -0.0017584444620728223 0 -0.022161095689962974 -0.001636619083000058 0 -0.022328236467247953 -0.0015654384862352482 0 -0.022211226020073353 -0.0017584444620728223 0 -0.022316857611158234 -0.0017588617355864243 0 -0.022211226020073353 -0.0017584444620728223 0 -0.022272505399508348 -0.0019142457894624403 0 -0.022316857611158234 -0.0017588617355864243 0 -0.022430751958061598 -0.001852035646957569 0 -0.022272505399508348 -0.0019142457894624403 0 -0.022244770543679016 -0.0020623384243091572 0 -0.020514657323033869 -0.0024210235628772865 0 -0.020514657323033869 -0.0024210235628772865 0 -0.021184466106065759 -0.0027912922600857931 0 -0.021660538994561322 -0.0023501211881482567 0 -0.020434359878850509 -0.0028071722633948369 0 -0.02199016539950727 -0.0026963351627692514 0 -0.02240522976688495 -0.0017082019431098317 0 -0.022316857611158234 -0.0017588617355864243 0 -0.022430751958061598 -0.001852035646957569 0 -0.022161095689962974 -0.001636619083000058 0 -0.022103739396817861 -0.0017580160545348988 0 -0.022115999417513198 -0.0015574335293900886 0 -0.022103739396817861 -0.0017580160545348988 0 -0.022115999417513198 -0.0015574335293900886 0 -0.021832388428970118 -0.0018123904842271084 0 -0.022161095689962974 -0.001636619083000058 0 -0.022103739396817861 -0.0017580160545348988 0 -0.022211226020073353 -0.0017584444620728223 0 -0.022167313457772293 -0.0018991158221761605 0 -0.022069147843921617 -0.0020894274115643885 0 -0.022272505399508348 -0.0019142457894624403 0 -0.022211226020073353 -0.0017584444620728223 0 -0.022167313457772293 -0.0018991158221761605 0 -0.022272505399508348 -0.0019142457894624403 0 -0.022103739396817861 -0.0017580160545348988 0 -0.022167313457772293 -0.0018991158221761605 0 -0.022088017532974551 -0.0018973859989680336 0 -0.022103739396817861 -0.0017580160545348988 0 -0.022211226020073353 -0.0017584444620728223 0 -0.022167313457772293 -0.0018991158221761605 0 -0.021998318394009418 -0.0018706115066492671 0 -0.022069147843921617 -0.0020894274115643885 0 -0.021226771186662143 -0.0022559950087471417 0 -0.022103739396817861 -0.0017580160545348988 0 -0.021998318394009418 -0.0018706115066492671 0 -0.021832388428970118 -0.0018123904842271084 0 -0.022103739396817861 -0.0017580160545348988 0 -0.022088017532974551 -0.0018973859989680336 0 -0.021998318394009418 -0.0018706115066492671 0 -0.022088017532974551 -0.0018973859989680336 0 -0.021998318394009418 -0.0018706115066492671 0 -0.022069147843921617 -0.0020894274115643885 0 -0.022167313457772293 -0.0018991158221761605 0 -0.022088017532974551 -0.0018973859989680336 0 -0.022069147843921617 -0.0020894274115643885 0 -0.018042944976505517 -0.0024467349444922204 0 -0.018818157436644035 -0.0028788025589350959 0 -0.016281572371923261 -0.0035398434539651445 0 -0.018042944976505517 -0.0024467349444922204 0 -0.018014971798840287 -0.0025783938245709298 0 -0.021226771186662143 -0.0022559950087471417 0 -0.017867473847140991 -0.003148128704253841 0 -0.01651330473555895 -0.0035321892283323116 0 -0.017302481188713002 -0.0034073547965928902 0 -0.016922851529808606 -0.0041685531952560442 0 -0.016281572371923261 -0.0035398434539651445 0 -0.018042944976505517 -0.0024467349444922204 0 -0.018014971798840287 -0.0025783938245709298 0 -0.018818157436644035 -0.0028788025589350959 0 -0.020386510398565743 -0.0022323984536274711 0 -0.020514657323033869 -0.0024210235628772865 0 -0.017867473847140991 -0.003148128704253841 0 -0.020514657323033869 -0.0024210235628772865 0 -0.017302481188713002 -0.0034073547965928902 0 -0.017721797729993473 -0.0040397613964305891 0 -0.018618095252182804 -0.002908639222593381 0 -0.018014971798840287 -0.0025783938245709298 0 -0.018818157436644035 -0.0028788025589350959 0 -0.020862337116452561 -0.0019265847959484084 0 -0.017302481188713002 -0.0034073547965928902 0 -0.017721797729993473 -0.0040397613964305891 0 -0.016922851529808606 -0.0041685531952560442 0 -0.017721797729993473 -0.0040397613964305891 0 -0.016922851529808606 -0.0041685531952560442 0 -0.017337542283229732 -0.0052133811481088711 0 -0.017721797729993473 -0.0040397613964305891 0 -0.018519676584721371 -0.0045029049810326703 0 -0.017337542283229732 -0.0052133811481088711 0 -0.016922851529808606 -0.0041685531952560442 0 -0.015933092626586896 -0.0048872044215607473 0 -0.017337542283229732 -0.0052133811481088711 0 -0.016922851529808606 -0.0041685531952560442 0 -0.016281572371923261 -0.0035398434539651445 0 -0.015933092626586896 -0.0048872044215607473 0 -0.019633388409085423 -0.0038543565056013353 0 -0.018618095252182804 -0.002908639222593381 0 -0.020799976865111373 -0.0027247330632976957 0 -0.019633388409085423 -0.0038543565056013353 0 -0.020695491664190099 -0.00416095329373829 0 -0.020799976865111373 -0.0027247330632976957 0 -0.019633388409085423 -0.0038543565056013353 0 -0.018618095252182804 -0.002908639222593381 0 -0.018519676584721371 -0.0045029049810326703 0 -0.017721797729993473 -0.0040397613964305891 0 -0.018618095252182804 -0.002908639222593381 0 -0.018519676584721371 -0.0045029049810326703 0 -0.019633388409085423 -0.0038543565056013353 0 -0.018519676584721371 -0.0045029049810326703 0 -0.019689067988875264 -0.0049552111245096857 0 -0.019689067988875264 -0.0049552111245096857 0 -0.020695491664190099 -0.00416095329373829 0 -0.02113111938608786 -0.0056080588155038424 0 -0.019633388409085423 -0.0038543565056013353 0 -0.019689067988875264 -0.0049552111245096857 0 -0.020695491664190099 -0.00416095329373829 0 -0.020695491664190099 -0.00416095329373829 0 -0.022163647002186967 -0.0038800731697332426 0 -0.02113111938608786 -0.0056080588155038424 0 -0.020695491664190099 -0.00416095329373829 0 -0.022163647002186967 -0.0038800731697332426 0 -0.020799976865111373 -0.0027247330632976957 0 -0.022163647002186967 -0.0038800731697332426 0 -0.023625744411046364 -0.0048508076129363366 0 -0.023482417713630382 -0.0026936715154450169 0 -0.022163647002186967 -0.0038800731697332426 0 -0.020799976865111373 -0.0027247330632976957 0 -0.023482417713630382 -0.0026936715154450169 0 -0.022163647002186967 -0.0038800731697332426 0 -0.023625744411046364 -0.0048508076129363366 0 -0.02113111938608786 -0.0056080588155038424 0 -0.015763151156324786 0.00014115698470479549 0 -0.013434708789220479 -0.00073392014421544427 0 -0.0078885132855341916 0.0051208093936117296 0 -0.010261664862188059 0.0061988468007267358 0 -0.0098329593491691559 0.0035894524744698058 0 -0.026105501088246202 -0.0040961254582181561 0 -0.024656367096252921 -0.0033295933777896841 0 -0.025274296125556782 -0.0026281360476958344 0 -0.015763151156324786 0.00014115698470479549 0 -0.018212494788682358 0.0010522856575356414 0 -0.023625744411046364 -0.0048508076129363366 0 -0.024656367096252921 -0.0033295933777896841 0 -0.023482417713630382 -0.0026936715154450169 0 -0.023625744411046364 -0.0048508076129363366 0 -0.026105501088246202 -0.0040961254582181561 0 -0.024656367096252921 -0.0033295933777896841 0 -0.024656367096252921 -0.0033295933777896841 0 -0.024331154910252343 -0.0023869489743452415 0 -0.023482417713630382 -0.0026936715154450169 0 -0.024656367096252921 -0.0033295933777896841 0 -0.024331154910252343 -0.0023869489743452415 0 -0.025274296125556782 -0.0026281360476958344 0 -0.024331154910252343 -0.0023869489743452415 0 -0.023654036992246191 -0.0017093444684441691 0 -0.023482417713630382 -0.0026936715154450169 0 -0.026105501088246202 -0.0040961254582181561 0 -0.025274296125556782 -0.0026281360476958344 0 -0.026359171841310265 -0.0020604199511030782 0 -0.024331154910252343 -0.0023869489743452415 0 -0.025274296125556782 -0.0026281360476958344 0 -0.025060116488216416 -0.001717991748062517 0 -0.025274296125556782 -0.0026281360476958344 0 -0.025060116488216416 -0.001717991748062517 0 -0.026359171841310265 -0.0020604199511030782 0 -0.025060116488216416 -0.001717991748062517 0 -0.026890184397654907 -0.00056366595114039787 0 -0.026359171841310265 -0.0020604199511030782 0 -0.024310451513775703 -0.0007807245380653579 0 -0.025060116488216416 -0.001717991748062517 0 -0.026890184397654907 -0.00056366595114039787 0 -0.024331154910252343 -0.0023869489743452415 0 -0.025060116488216416 -0.001717991748062517 0 -0.023654036992246191 -0.0017093444684441691 0 -0.024310451513775703 -0.0007807245380653579 0 -0.025060116488216416 -0.001717991748062517 0 -0.023654036992246191 -0.0017093444684441691 0 -0.022720946627770768 -0.0012580806862636477 0 -0.023654036992246191 -0.0017093444684441691 0 -0.022910292936870452 -0.0018756156765648607 0 -0.024310451513775703 -0.0007807245380653579 0 -0.022720946627770768 -0.0012580806862636477 0 -0.023654036992246191 -0.0017093444684441691 0 -0.022720946627770768 -0.0012580806862636477 0 -0.022910292936870452 -0.0018756156765648607 0 -0.022564085389156947 -0.0016593325172880853 0 -0.022720946627770768 -0.0012580806862636477 0 -0.022328236467247953 -0.0015654384862352482 0 -0.022564085389156947 -0.0016593325172880853 0 -0.021660538994561322 -0.0023501211881482567 0 -0.022910292936870452 -0.0018756156765648607 0 -0.02199016539950727 -0.0026963351627692514 0 -0.022430751958061598 -0.001852035646957569 0 -0.022910292936870452 -0.0018756156765648607 0 -0.022564085389156947 -0.0016593325172880853 0 -0.022244770543679016 -0.0020623384243091572 0 -0.02278632195086296 -0.0018942128692847947 0 -0.022910292936870452 -0.0018756156765648607 0 -0.02199016539950727 -0.0026963351627692514 0 -0.023482417713630382 -0.0026936715154450169 0 -0.021184466106065759 -0.0027912922600857931 0 -0.023474916632670571 -0.002653790291415777 0 -0.023654036992246191 -0.0017093444684441691 0 -0.022910292936870452 -0.0018756156765648607 0 -0.023482417713630382 -0.0026936715154450169 0 -0.020561292704410705 0.0002229155678360741 0 -0.02036807376305352 3.1539924952708329e-05 0 -0.022385602006731432 -8.3067117488257348e-07 0 -0.020561292704410705 0.0002229155678360741 0 -0.022385602006731432 -8.3067117488257348e-07 0 -0.019219825581047449 -9.5757788962166246e-08 0 -0.02036807376305352 3.1539924952708329e-05 0 -0.020227457206508884 4.2698383800114719e-05 0 -0.020258593183256887 0.00012760209542961868 0 -0.020561292704410705 0.0002229155678360741 0 -0.02036807376305352 3.1539924952708329e-05 0 -0.020258593183256887 0.00012760209542961868 0 -0.02036807376305352 3.1539924952708329e-05 0 -0.020448336607973173 -0.00028075160167800823 0 -0.020227457206508884 4.2698383800114719e-05 0 -0.019886942349223571 -0.00011982803933808293 0 -0.023426413674046232 -0.00057281889900727986 0 -0.02036807376305352 3.1539924952708329e-05 0 -0.020448336607973173 -0.00028075160167800823 0 -0.02050213501265994 -0.00028839048119884891 0 -0.022389323137054284 -5.1829867841237571e-07 0 -0.023426413674046232 -0.00057281889900727986 0 -0.02036807376305352 3.1539924952708329e-05 0 -0.022385602006731432 -8.3067117488257348e-07 0 -0.020683341151778376 -0.0016726990010391431 0 -0.022392577507676013 -8.1761867903100989e-07 0 -0.024069610321078697 8.0808355273235801e-05 0 -0.024768803574073909 4.8932306476844432e-07 0 -0.022392577507676013 -8.1761867903100989e-07 0 -0.024069610321078697 8.0808355273235801e-05 0 -0.025064633132890205 0.00012565862715575906 0 -0.023831676800202792 0.00084124914734082603 0 -0.027626602900895528 -0.00049274160222414121 0 -0.024069610321078697 8.0808355273235801e-05 0 -0.024304962141407888 0.0018904347206723934 0 -0.025064633132890205 0.00012565862715575906 0 -0.024069610321078697 8.0808355273235801e-05 0 -0.024768803574073909 4.8932306476844432e-07 0 -0.026333063967045482 -3.400628507118643e-05 0 -0.024768803574073909 4.8932306476844432e-07 0 -0.026628401973224764 -5.4768322613900331e-05 0 -0.026333063967045482 -3.400628507118643e-05 0 -0.024768803574073909 4.8932306476844432e-07 0 -0.026628401973224764 -5.4768322613900331e-05 0 -0.027150536213148915 9.822811144732566e-08 0 -0.024304962141407888 0.0018904347206723934 0 -0.024888873881122545 0.0019190206198930733 0 -0.025064633132890205 0.00012565862715575906 0 -0.027626602900895528 -0.00049274160222414121 0 -0.030101209682078599 -0.0018753952416942824 0 -0.026628401973224764 -5.4768322613900331e-05 0 -0.027043923192134705 -3.0287745924226534e-05 0 -0.027150536213148915 9.822811144732566e-08 0 -0.026860220651022237 -0.00037083023457469203 0 -0.027626602900895528 -0.00049274160222414121 0 -0.03572795949348323 -0.0058546208462625579 0 -0.036444519379585705 -0.0047504731609707175 0 -0.03496409533126689 -0.0048421785250184722 0 -0.030101209682078599 -0.0018753952416942824 0 -0.031831650362550527 -0.0033689747351186459 0 -0.02756916416258608 -0.0020658900155353828 0 -0.027507077487856604 -0.0020242975785491847 0 -0.02748066170074755 -0.0020730855620079407 0 -0.027507077487856604 -0.0020242975785491847 0 -0.027458338241121715 -0.0020110464227664836 0 -0.02748066170074755 -0.0020730855620079407 0 -0.020448336607973173 -0.00028075160167800823 0 -0.02050213501265994 -0.00028839048119884891 0 -0.020631165981104118 -0.00011490570683539192 0 -0.027507077487856604 -0.0020242975785491847 0 -0.02751307094993391 -0.0019302511199602902 0 -0.027458338241121715 -0.0020110464227664836 0 -0.02756916416258608 -0.0020658900155353828 0 -0.027507077487856604 -0.0020242975785491847 0 -0.02751307094993391 -0.0019302511199602902 0 -0.030101209682078599 -0.0018753952416942824 0 -0.023426413674046232 -0.00057281889900727986 0 -0.023426413674046232 -0.00057281889900727986 0 -0.023803846493617845 -0.0011183019201448871 0 -0.020631165981104118 -0.00011490570683539192 0 -0.021021295788474902 0.00012710701025284176 0 -0.020887139206493592 -0.0002646462392008289 0 -0.020448336607973173 -0.00028075160167800823 0 -0.020631165981104118 -0.00011490570683539192 0 -0.020887139206493592 -0.0002646462392008289 0 -0.031831650362550527 -0.0033689747351186459 0 -0.028183998239990311 -0.0035685100257486654 0 -0.027458338241121715 -0.0020110464227664836 0 -0.02748066170074755 -0.0020730855620079407 0 -0.027404297230975011 -0.002084185273848559 0 -0.023803846493617845 -0.0011183019201448871 0 -0.028183998239990311 -0.0035685100257486654 0 -0.021021295788474902 0.00012710701025284176 0 -0.021203971048422667 -0.00010522311298904063 0 -0.021489169422128196 0.00015213160742402019 0 -0.021021295788474902 0.00012710701025284176 0 -0.021203971048422667 -0.00010522311298904063 0 -0.020887139206493592 -0.0002646462392008289 0 -0.032047144888908433 -0.006093200488161349 0 -0.031416107744243582 -0.0063628278232355194 0 -0.031981451867523041 -0.0063143274770781797 0 -0.028183998239990311 -0.0035685100257486654 0 -0.026336557809299506 -0.0030888631159094655 0 -0.021203971048422667 -0.00010522311298904063 0 -0.020887139206493592 -0.0002646462392008289 0 -0.021169908890821439 -0.00041253975674806288 0 -0.020697513350153199 -0.00087256237652390517 0 -0.021079908960680505 -0.0010082357626124297 0 -0.021169908890821439 -0.00041253975674806288 0 -0.020887139206493592 -0.0002646462392008289 0 -0.020920347968520176 -0.00048897390963680107 0 -0.021169908890821439 -0.00041253975674806288 0 -0.021065272962877735 -0.00050705805455283134 0 -0.02105393364722577 -0.00049609487260084107 0 -0.020448336607973173 -0.00028075160167800823 0 -0.020887139206493592 -0.0002646462392008289 0 -0.020920347968520176 -0.00048897390963680107 0 -0.020448336607973173 -0.00028075160167800823 0 -0.020920347968520176 -0.00048897390963680107 0 -0.02059424713768692 -0.00077398392261131667 0 -0.021065272962877735 -0.00050705805455283134 0 -0.018509441867042582 -0.0011013486636791991 0 -0.020595041318984951 -0.00022651649564179284 0 -0.018509441867042582 -0.0011013486636791991 0 -0.020697513350153199 -0.00087256237652390517 0 -0.0204181500932403 -0.001217163522407066 0 -0.020714899730671012 -0.0012252575548178859 0 -0.020714899730671012 -0.0012252575548178859 0 -0.021079908960680505 -0.0010082357626124297 0 -0.020955726251408655 -0.0013980148537573699 0 -0.020697513350153199 -0.00087256237652390517 0 -0.020714899730671012 -0.0012252575548178859 0 -0.021079908960680505 -0.0010082357626124297 0 -0.021079908960680505 -0.0010082357626124297 0 -0.02139716005680526 -0.0012711687090149822 0 -0.020955726251408655 -0.0013980148537573699 0 -0.021079908960680505 -0.0010082357626124297 0 -0.02139716005680526 -0.0012711687090149822 0 -0.021448415973233249 -0.00073689590463952355 0 -0.02139716005680526 -0.0012711687090149822 0 -0.021837295276998125 -0.00070398365457080743 0 -0.021732863832010098 -0.001392942144850336 0 -0.02139716005680526 -0.0012711687090149822 0 -0.021448415973233249 -0.00073689590463952355 0 -0.021837295276998125 -0.00070398365457080743 0 -0.021448415973233249 -0.00073689590463952355 0 -0.021638224233239384 -0.00032344618205223897 0 -0.021837295276998125 -0.00070398365457080743 0 -0.021079908960680505 -0.0010082357626124297 0 -0.021448415973233249 -0.00073689590463952355 0 -0.021169908890821439 -0.00041253975674806288 0 -0.021448415973233249 -0.00073689590463952355 0 -0.021169908890821439 -0.00041253975674806288 0 -0.021638224233239384 -0.00032344618205223897 0 -0.021169908890821439 -0.00041253975674806288 0 -0.021504116705264708 -8.9889414155934502e-05 0 -0.021638224233239384 -0.00032344618205223897 0 -0.021203971048422667 -0.00010522311298904063 0 -0.021169908890821439 -0.00041253975674806288 0 -0.021504116705264708 -8.9889414155934502e-05 0 -0.021203971048422667 -0.00010522311298904063 0 -0.021504116705264708 -8.9889414155934502e-05 0 -0.021489169422128196 0.00015213160742402019 0 -0.026336557809299506 -0.0030888631159094655 0 -0.026896921760837376 -0.0030445320980067546 0 -0.021504116705264708 -8.9889414155934502e-05 0 -0.021489169422128196 0.00015213160742402019 0 -0.021779609675407593 0.00015322617527467082 0 -0.032376739185367064 -0.0061559208958239364 0 -0.031981451867523041 -0.0063143274770781797 0 -0.032171949223779944 -0.006298663622339668 0 -0.021824285640511778 0.00016214155422869867 0 -0.021779609675407593 0.00015322617527467082 0 -0.021741999847752137 -2.4243048728161207e-05 0 -0.025881235601126144 -0.0030620262740096564 0 -0.026896921760837376 -0.0030445320980067546 0 -0.032376739185367064 -0.0061559208958239364 0 -0.032319011536640345 -0.0063418198767812989 0 -0.032171949223779944 -0.006298663622339668 0 -0.021504116705264708 -8.9889414155934502e-05 0 -0.021779609675407593 0.00015322617527467082 0 -0.021741999847752137 -2.4243048728161207e-05 0 -0.021824285640511778 0.00016214155422869867 0 -0.021741999847752137 -2.4243048728161207e-05 0 -0.021977588966662617 -8.7273040627979147e-05 0 -0.021741999847752137 -2.4243048728161207e-05 0 -0.021638224233239384 -0.00032344618205223897 0 -0.021977588966662617 -8.7273040627979147e-05 0 -0.021638224233239384 -0.00032344618205223897 0 -0.021977588966662617 -8.7273040627979147e-05 0 -0.021837295276998125 -0.00070398365457080743 0 -0.021504116705264708 -8.9889414155934502e-05 0 -0.021741999847752137 -2.4243048728161207e-05 0 -0.021638224233239384 -0.00032344618205223897 0 -0.021977588966662617 -8.7273040627979147e-05 0 -0.022479370774664865 -0.00017917401759936426 0 -0.021837295276998125 -0.00070398365457080743 0 -0.021824285640511778 0.00016214155422869867 0 -0.021977588966662617 -8.7273040627979147e-05 0 -0.022458849638814928 0.00038336334328116717 0 -0.025881235601126144 -0.0030620262740096564 0 -0.029163798755245832 -0.0024383564784733087 0 -0.035788029456598175 -0.0044959662651727506 0 -0.025881235601126144 -0.0030620262740096564 0 -0.031667766883117995 -0.0028408841954550902 0 -0.026278199468577141 -0.0035404603238145 0 -0.032439513647159871 -0.0029430612450512851 0 -0.021977588966662617 -8.7273040627979147e-05 0 -0.022458849638814928 0.00038336334328116717 0 -0.022479370774664865 -0.00017917401759936426 0 -0.023218742270121901 0.00046131793211984609 0 -0.022458849638814928 0.00038336334328116717 0 -0.022479370774664865 -0.00017917401759936426 0 -0.035788029456598175 -0.0044959662651727506 0 -0.029163798755245832 -0.0024383564784733087 0 -0.022479370774664865 -0.00017917401759936426 0 -0.022160714904243709 -0.00096292168198311011 0 -0.021837295276998125 -0.00070398365457080743 0 -0.022733048241891818 -0.00063032204767993455 0 -0.022479370774664865 -0.00017917401759936426 0 -0.022160714904243709 -0.00096292168198311011 0 -0.022733048241891818 -0.00063032204767993455 0 -0.022160714904243709 -0.00096292168198311011 0 -0.022115999417513198 -0.0015574335293900886 0 -0.022160714904243709 -0.00096292168198311011 0 -0.021837295276998125 -0.00070398365457080743 0 -0.021732863832010098 -0.001392942144850336 0 -0.022160714904243709 -0.00096292168198311011 0 -0.021732863832010098 -0.001392942144850336 0 -0.022115999417513198 -0.0015574335293900886 0 -0.022115999417513198 -0.0015574335293900886 0 -0.021576928455164249 -0.0017971254908470177 0 -0.021832388428970118 -0.0018123904842271084 0 -0.021732863832010098 -0.001392942144850336 0 -0.022115999417513198 -0.0015574335293900886 0 -0.021576928455164249 -0.0017971254908470177 0 -0.021732863832010098 -0.001392942144850336 0 -0.021576928455164249 -0.0017971254908470177 0 -0.021404430670049761 -0.0017138907608905483 0 -0.021576928455164249 -0.0017971254908470177 0 -0.021345938635883702 -0.0019566931972453579 0 -0.021404430670049761 -0.0017138907608905483 0 -0.021576928455164249 -0.0017971254908470177 0 -0.021226771186662143 -0.0022559950087471417 0 -0.021345938635883702 -0.0019566931972453579 0 -0.021998318394009418 -0.0018706115066492671 0 -0.021832388428970118 -0.0018123904842271084 0 -0.021226771186662143 -0.0022559950087471417 0 -0.021576928455164249 -0.0017971254908470177 0 -0.021832388428970118 -0.0018123904842271084 0 -0.021226771186662143 -0.0022559950087471417 0 -0.018042944976505517 -0.0024467349444922204 0 -0.016281572371923261 -0.0035398434539651445 0 -0.014655256781335129 -0.00405463953626445 0 -0.020386510398565743 -0.0022323984536274711 0 -0.021006945322401216 -0.002287407405246232 0 -0.018042944976505517 -0.0024467349444922204 0 -0.021226771186662143 -0.0022559950087471417 0 -0.021038641121039373 -0.0013702845558889027 0 -0.018023051213161004 -0.0024849007646423871 0 -0.017750173652390358 -0.0027622156134777583 0 -0.016281572371923261 -0.0035398434539651445 0 -0.014655256781335129 -0.00405463953626445 0 -0.015933092626586896 -0.0048872044215607473 0 -0.014655256781335129 -0.00405463953626445 0 -0.015933092626586896 -0.0048872044215607473 0 -0.01440262762658657 -0.0053323258822473678 0 -0.021038641121039373 -0.0013702845558889027 0 -0.021327283310858418 -0.0018058850473605093 0 -0.021288280310501274 -0.0018199047776734968 0 -0.017750173652390358 -0.0027622156134777583 0 -0.017298589972298307 -0.0035387503866145965 0 -0.014655256781335129 -0.00405463953626445 0 -0.01278764318726253 -0.0052530899763418917 0 -0.01440262762658657 -0.0053323258822473678 0 -0.021226771186662143 -0.0022559950087471417 0 -0.021327283310858418 -0.0018058850473605093 0 -0.021345938635883702 -0.0019566931972453579 0 -0.021226771186662143 -0.0022559950087471417 0 -0.021038641121039373 -0.0013702845558889027 0 -0.021327283310858418 -0.0018058850473605093 0 -0.021274587193389212 -0.0018430081928165819 0 -0.021257022871200154 -0.0018575830897585692 0 -0.021345938635883702 -0.0019566931972453579 0 -0.021327283310858418 -0.0018058850473605093 0 -0.021274587193389212 -0.0018430081928165819 0 -0.021345938635883702 -0.0019566931972453579 0 -0.021274587193389212 -0.0018430081928165819 0 -0.021226042560555564 -0.0018428338803257473 0 -0.021288280310501274 -0.0018199047776734968 0 -0.021327283310858418 -0.0018058850473605093 0 -0.021274587193389212 -0.0018430081928165819 0 -0.021288280310501274 -0.0018199047776734968 0 -0.021186851733675963 -0.0018526840767991875 0 -0.021168248600699723 -0.0018596830450295291 0 -0.021193850548165308 -0.0018565089228586094 0 -0.021186851733675963 -0.0018526840767991875 0 -0.021226042560555564 -0.0018428338803257473 0 -0.021135541702912132 -0.0018706657860234268 0 -0.021186851733675963 -0.0018526840767991875 0 -0.021168248600699723 -0.0018596830450295291 0 -0.021135541702912132 -0.0018706657860234268 0 -0.021186851733675963 -0.0018526840767991875 0 -0.021226042560555564 -0.0018428338803257473 0 -0.021193850548165308 -0.0018565089228586094 0 -0.021274587193389212 -0.0018430081928165819 0 -0.021226042560555564 -0.0018428338803257473 0 -0.021193850548165308 -0.0018565089228586094 0 -0.019010999386131391 -0.0008333020288969899 0 -0.021241667228129677 -0.002027401773963365 0 -0.021193850548165308 -0.0018565089228586094 0 -0.021216789973390368 -0.0018551378372448138 0 -0.021134356014451024 -0.0018609122671995918 0 -0.021168248600699723 -0.0018596830450295291 0 -0.021193850548165308 -0.0018565089228586094 0 -0.021134356014451024 -0.0018609122671995918 0 -0.021274587193389212 -0.0018430081928165819 0 -0.021216789973390368 -0.0018551378372448138 0 -0.021257022871200154 -0.0018575830897585692 0 -0.021274587193389212 -0.0018430081928165819 0 -0.021193850548165308 -0.0018565089228586094 0 -0.021216789973390368 -0.0018551378372448138 0 -0.021216789973390368 -0.0018551378372448138 0 -0.021134356014451024 -0.0018609122671995918 0 -0.021257022871200154 -0.0018575830897585692 0 -0.021134356014451024 -0.0018609122671995918 0 -0.021257022871200154 -0.0018575830897585692 0 -0.021215777757985273 -0.0016571923244441335 0 -0.021257022871200154 -0.0018575830897585692 0 -0.021345938635883702 -0.0019566931972453579 0 -0.021404430670049761 -0.0017138907608905483 0 -0.021257022871200154 -0.0018575830897585692 0 -0.021404430670049761 -0.0017138907608905483 0 -0.021215777757985273 -0.0016571923244441335 0 -0.02139716005680526 -0.0012711687090149822 0 -0.021404430670049761 -0.0017138907608905483 0 -0.021215777757985273 -0.0016571923244441335 0 -0.02139716005680526 -0.0012711687090149822 0 -0.021732863832010098 -0.001392942144850336 0 -0.021404430670049761 -0.0017138907608905483 0 -0.02139716005680526 -0.0012711687090149822 0 -0.021215777757985273 -0.0016571923244441335 0 -0.020955726251408655 -0.0013980148537573699 0 -0.021134356014451024 -0.0018609122671995918 0 -0.021215777757985273 -0.0016571923244441335 0 -0.020955726251408655 -0.0013980148537573699 0 -0.020714899730671012 -0.0012252575548178859 0 -0.020955726251408655 -0.0013980148537573699 0 -0.020630187424251725 -0.0016146355905935195 0 -0.018509441867042582 -0.0011013486636791991 0 -0.016897487208396351 -0.0018109722249801015 0 -0.013974756549229998 -0.0033961618280110959 0 -0.013266692399210611 -0.0015821427075668288 0 -0.015181956514686573 -0.0022483257943600112 0 -0.0204181500932403 -0.001217163522407066 0 -0.020714899730671012 -0.0012252575548178859 0 -0.020630187424251725 -0.0016146355905935195 0 -0.013266692399210611 -0.0015821427075668288 0 -0.01395567002387357 -0.00061371649534054564 0 -0.015181956514686573 -0.0022483257943600112 0 -0.013266692399210611 -0.0015821427075668288 0 -0.01395567002387357 -0.00061371649534054564 0 -0.013008598794782627 -6.3388551950564677e-05 0 -0.021241667228129677 -0.002027401773963365 0 -0.020874569033416904 -0.0012952345649701465 0 -0.020785146283755357 -0.0017498456433065368 0 -0.020630187424251725 -0.0016146355905935195 0 -0.020724114170365404 -0.0017728205599275453 0 -0.020785146283755357 -0.0017498456433065368 0 -0.020955726251408655 -0.0013980148537573699 0 -0.020630187424251725 -0.0016146355905935195 0 -0.016897487208396351 -0.0018109722249801015 0 -0.016643945376240803 -0.00081019815597075415 0 -0.020683071935232854 -0.0018003989012816502 0 -0.020785146283755357 -0.0017498456433065368 0 -0.020724114170365404 -0.0017728205599275453 0 -0.013008598794782627 -6.3388551950564677e-05 0 -0.013218488712298833 0.000232152626718709 0 -0.01356863655730769 4.5841562121495351e-05 0 -0.013164116847314064 0.0004403799512685003 0 -0.013328093006296124 0.00038848521638259277 0 -0.013217782092912833 0.00045215945671669554 0 -0.013164116847314064 0.0004403799512685003 0 -0.013218488712298833 0.000232152626718709 0 -0.013328093006296124 0.00038848521638259277 0 -0.013164116847314064 0.0004403799512685003 0 -0.013008598794782627 -6.3388551950564677e-05 0 -0.013218488712298833 0.000232152626718709 0 -0.019010999386131391 -0.0008333020288969899 0 -0.016643945376240803 -0.00081019815597075415 0 -0.013328093006296124 0.00038848521638259277 0 -0.013741176417947195 0.00032257409393183237 0 -0.013310068351571986 0.00049408162953230536 0 -0.013328093006296124 0.00038848521638259277 0 -0.013741176417947195 0.00032257409393183237 0 -0.01356863655730769 4.5841562121495351e-05 0 -0.013218488712298833 0.000232152626718709 0 -0.013328093006296124 0.00038848521638259277 0 -0.01356863655730769 4.5841562121495351e-05 0 -0.013741176417947195 0.00032257409393183237 0 -0.01356863655730769 4.5841562121495351e-05 0 -0.01437197517243754 6.8759682326567287e-05 0 -0.01395567002387357 -0.00061371649534054564 0 -0.013008598794782627 -6.3388551950564677e-05 0 -0.01356863655730769 4.5841562121495351e-05 0 -0.01395567002387357 -0.00061371649534054564 0 -0.01356863655730769 4.5841562121495351e-05 0 -0.01437197517243754 6.8759682326567287e-05 0 -0.01437197517243754 6.8759682326567287e-05 0 -0.014095247842392824 0.00037982724215018067 0 -0.015464340596678222 5.7661012703703272e-05 0 -0.01395567002387357 -0.00061371649534054564 0 -0.01437197517243754 6.8759682326567287e-05 0 -0.015178587058710091 -0.00048686067040619679 0 -0.01437197517243754 6.8759682326567287e-05 0 -0.015464340596678222 5.7661012703703272e-05 0 -0.015178587058710091 -0.00048686067040619679 0 -0.013741176417947195 0.00032257409393183237 0 -0.01437197517243754 6.8759682326567287e-05 0 -0.014095247842392824 0.00037982724215018067 0 -0.013741176417947195 0.00032257409393183237 0 -0.014095247842392824 0.00037982724215018067 0 -0.013310068351571986 0.00049408162953230536 0 -0.014095247842392824 0.00037982724215018067 0 -0.016048002989535692 -2.5994342716074375e-07 0 -0.012879380541588421 1.2511120231138341e-06 0 -0.014095247842392824 0.00037982724215018067 0 -0.016048002989535692 -2.5994342716074375e-07 0 -0.015464340596678222 5.7661012703703272e-05 0 -0.016048002989535692 -2.5994342716074375e-07 0 -0.015464340596678222 5.7661012703703272e-05 0 -0.017591033752454372 -0.00027446236402650301 0 -0.01786463328902874 -0.00023681617211103985 0 -0.01744155622099576 -0.0011492609279431299 0 -0.017591033752454372 -0.00027446236402650301 0 -0.020258593183256887 0.00012760209542961868 0 -0.019219825581047449 -9.5757788962166246e-08 0 -0.016048002989535692 -2.5994342716074375e-07 0 -0.017591033752454372 -0.00027446236402650301 0 -0.019219825581047449 -9.5757788962166246e-08 0 -0.015464340596678222 5.7661012703703272e-05 0 -0.017591033752454372 -0.00027446236402650301 0 -0.015178587058710091 -0.00048686067040619679 0 -0.01395567002387357 -0.00061371649534054564 0 -0.015178587058710091 -0.00048686067040619679 0 -0.015181956514686573 -0.0022483257943600112 0 -0.017591033752454372 -0.00027446236402650301 0 -0.015178587058710091 -0.00048686067040619679 0 -0.015181956514686573 -0.0022483257943600112 0 -0.018509441867042582 -0.0011013486636791991 0 -0.01744155622099576 -0.0011492609279431299 0 -0.020561292704410705 0.0002229155678360741 0 -0.020258593183256887 0.00012760209542961868 0 -0.019219825581047449 -9.5757788962166246e-08 0 -0.0083117035782479254 -0.00016083087913149857 0 -0.0081864498917920726 -0.00018059437170446564 0 -0.0065431561624071837 -2.288002424198862e-06 0 -0.0083117035782479254 -0.00016083087913149857 0 -0.0097084275057942367 4.0260972948847506e-07 0 -0.0065431561624071837 -2.288002424198862e-06 0 -0.0086372807927248794 -0.00028085306568886333 0 -0.0098223097381327663 -8.1841965605211286e-05 0 -0.0083117035782479254 -0.00016083087913149857 0 -0.0081864498917920726 -0.00018059437170446564 0 -0.0082806993815656808 -9.9251517304266198e-05 0 -0.0082806993815656808 -9.9251517304266198e-05 0 -0.0085116848071008534 -0.00018485864646302502 0 -0.0084215600652457704 -0.00033282454527538231 0 -0.0081864498917920726 -0.00018059437170446564 0 -0.0082806993815656808 -9.9251517304266198e-05 0 -0.0084215600652457704 -0.00033282454527538231 0 -0.01097386531524927 -0.00042430943654311296 0 -0.011539928895926223 0.00022017810964571635 0 -0.01219854512614504 9.0837762110662119e-05 0 -0.0082806993815656808 -9.9251517304266198e-05 0 -0.0085277354773450366 2.5463923499064641e-05 0 -0.0085116848071008534 -0.00018485864646302502 0 -0.0098223097381327663 -8.1841965605211286e-05 0 -0.010456325164932067 -0.0023600112146076233 0 -0.01097386531524927 -0.00042430943654311296 0 -0.01219854512614504 9.0837762110662119e-05 0 -0.012452936174771027 -0.00022889901542628519 0 -0.011362580229081022 -0.00098606333023008776 0 -0.010456325164932067 -0.0023600112146076233 0 -0.01097386531524927 -0.00042430943654311296 0 -0.0097084275057942367 4.0260972948847506e-07 0 -0.011539928895926223 0.00022017810964571635 0 -0.0083117035782479254 -0.00016083087913149857 0 -0.01097386531524927 -0.00042430943654311296 0 -0.0097084275057942367 4.0260972948847506e-07 0 -0.0097084275057942367 4.0260972948847506e-07 0 -0.011539928895926223 0.00022017810964571635 0 -0.012879380541588421 1.2511120231138341e-06 0 -0.011539928895926223 0.00022017810964571635 0 -0.012879380541588421 1.2511120231138341e-06 0 -0.012669036306007275 0.00036995215855880844 0 -0.014095247842392824 0.00037982724215018067 0 -0.012879380541588421 1.2511120231138341e-06 0 -0.012669036306007275 0.00036995215855880844 0 -0.014095247842392824 0.00037982724215018067 0 -0.012669036306007275 0.00036995215855880844 0 -0.013310068351571986 0.00049408162953230536 0 -0.012669036306007275 0.00036995215855880844 0 -0.012950421415764423 0.0003593890145382443 0 -0.013310068351571986 0.00049408162953230536 0 -0.011539928895926223 0.00022017810964571635 0 -0.012669036306007275 0.00036995215855880844 0 -0.01219854512614504 9.0837762110662119e-05 0 -0.012669036306007275 0.00036995215855880844 0 -0.01219854512614504 9.0837762110662119e-05 0 -0.012950421415764423 0.0003593890145382443 0 -0.01219854512614504 9.0837762110662119e-05 0 -0.012822481712699006 0.00013547233640828256 0 -0.012950421415764423 0.0003593890145382443 0 -0.01219854512614504 9.0837762110662119e-05 0 -0.012822481712699006 0.00013547233640828256 0 -0.012648596649568803 -0.00028452288815978123 0 -0.012822481712699006 0.00013547233640828256 0 -0.013148194802804675 0.00034129641583023737 0 -0.013170672478783176 0.0001254243866728729 0 -0.012822481712699006 0.00013547233640828256 0 -0.013170672478783176 0.0001254243866728729 0 -0.012648596649568803 -0.00028452288815978123 0 -0.012822481712699006 0.00013547233640828256 0 -0.012950421415764423 0.0003593890145382443 0 -0.013148194802804675 0.00034129641583023737 0 -0.013328093006296124 0.00038848521638259277 0 -0.013310068351571986 0.00049408162953230536 0 -0.013217782092912833 0.00045215945671669554 0 -0.012950421415764423 0.0003593890145382443 0 -0.013310068351571986 0.00049408162953230536 0 -0.013217782092912833 0.00045215945671669554 0 -0.012950421415764423 0.0003593890145382443 0 -0.013217782092912833 0.00045215945671669554 0 -0.013148194802804675 0.00034129641583023737 0 -0.013164116847314064 0.0004403799512685003 0 -0.013217782092912833 0.00045215945671669554 0 -0.01330948413187036 0.00033325611175238982 0 -0.013217782092912833 0.00045215945671669554 0 -0.013148194802804675 0.00034129641583023737 0 -0.01330948413187036 0.00033325611175238982 0 -0.011487972080853099 -0.003498414609814557 0 -0.014693506164209114 -0.0036777182575244774 0 -0.013148194802804675 0.00034129641583023737 0 -0.013170672478783176 0.0001254243866728729 0 -0.01330948413187036 0.00033325611175238982 0 -0.010363288391311995 -0.0067819576203469204 0 -0.011283845659102619 -0.0074407881858480742 0 -0.011316819815470133 -0.006176981222363296 0 -0.010353568620425703 -0.0081884758557954542 0 -0.01161627106685191 -0.0081320288902716354 0 -0.011283845659102619 -0.0074407881858480742 0 -0.010314335096721817 -0.0074499153604721032 0 -0.010353568620425703 -0.0081884758557954542 0 -0.011283845659102619 -0.0074407881858480742 0 -0.010363288391311995 -0.0067819576203469204 0 -0.010314335096721817 -0.0074499153604721032 0 -0.011283845659102619 -0.0074407881858480742 0 -0.010363288391311995 -0.0067819576203469204 0 -0.010314335096721817 -0.0074499153604721032 0 -0.0094789716278464321 -0.0073232223142120616 0 -0.011487972080853099 -0.003498414609814557 0 -0.010456325164932067 -0.0023600112146076233 0 -0.010456325164932067 -0.0023600112146076233 0 -0.010224614320638169 -0.0048227209467733116 0 -0.0085277354773450366 2.5463923499064641e-05 0 -0.0085116848071008534 -0.00018485864646302502 0 -0.0087583763442681019 -0.00020935706342682715 0 -0.010314335096721817 -0.0074499153604721032 0 -0.0094789716278464321 -0.0073232223142120616 0 -0.010353568620425703 -0.0081884758557954542 0 -0.0085116848071008534 -0.00018485864646302502 0 -0.008679853029164358 -0.00035047201635062886 0 -0.0087583763442681019 -0.00020935706342682715 0 -0.0085116848071008534 -0.00018485864646302502 0 -0.008679853029164358 -0.00035047201635062886 0 -0.0084215600652457704 -0.00033282454527538231 0 -0.008679853029164358 -0.00035047201635062886 0 -0.0087583763442681019 -0.00020935706342682715 0 -0.0089591329807184317 -0.00044303783819054103 0 -0.010353568620425703 -0.0081884758557954542 0 -0.01161627106685191 -0.0081320288902716354 0 -0.011191716834746101 -0.009000465510197413 0 -0.010224614320638169 -0.0048227209467733116 0 -0.004864028221648495 -0.0027809528366721649 0 -0.01161627106685191 -0.0081320288902716354 0 -0.012748205511529614 -0.0083275734591396408 0 -0.011191716834746101 -0.009000465510197413 0 -0.0053746608308160712 -0.0047074077680926358 0 -0.004864028221648495 -0.0027809528366721649 0 -0.01161627106685191 -0.0081320288902716354 0 -0.012748205511529614 -0.0083275734591396408 0 -0.012263221300569867 -0.0077068135661757051 0 -0.012263221300569867 -0.0077068135661757051 0 -0.012400831199221944 -0.0068450137402061408 0 -0.013184061345188612 -0.0077434954208417091 0 -0.012748205511529614 -0.0083275734591396408 0 -0.012263221300569867 -0.0077068135661757051 0 -0.013184061345188612 -0.0077434954208417091 0 -0.01161627106685191 -0.0081320288902716354 0 -0.012263221300569867 -0.0077068135661757051 0 -0.011283845659102619 -0.0074407881858480742 0 -0.012263221300569867 -0.0077068135661757051 0 -0.011283845659102619 -0.0074407881858480742 0 -0.012400831199221944 -0.0068450137402061408 0 -0.011228618004478217 -0.0063172372538649723 0 -0.01278764318726253 -0.0052530899763418917 0 -0.012400831199221944 -0.0068450137402061408 0 -0.011127307661685883 -0.0082095961815783249 0 -0.014693506164209114 -0.0036777182575244774 0 -0.011283845659102619 -0.0074407881858480742 0 -0.011228618004478217 -0.0063172372538649723 0 -0.012400831199221944 -0.0068450137402061408 0 -0.019010999386131391 -0.0008333020288969899 0 -0.014693506164209114 -0.0036777182575244774 0 -0.014693506164209114 -0.0036777182575244774 0 -0.017298589972298307 -0.0035387503866145965 0 -0.021226042560555564 -0.0018428338803257473 0 -0.021135541702912132 -0.0018706657860234268 0 -0.021288280310501274 -0.0018199047776734968 0 -0.021076929047542464 -0.0020288554854342956 0 -0.021135541702912132 -0.0018706657860234268 0 -0.021288280310501274 -0.0018199047776734968 0 -0.021126253134041147 -0.0018264500354529662 0 -0.021076929047542464 -0.0020288554854342956 0 -0.021135541702912132 -0.0018706657860234268 0 -0.019010999386131391 -0.0008333020288969899 0 -0.019660004711133525 -0.0016310022300873833 0 -0.012400831199221944 -0.0068450137402061408 0 -0.013618603916575553 -0.006366632324204014 0 -0.013184061345188612 -0.0077434954208417091 0 -0.01278764318726253 -0.0052530899763418917 0 -0.012400831199221944 -0.0068450137402061408 0 -0.013618603916575553 -0.006366632324204014 0 -0.013618603916575553 -0.006366632324204014 0 -0.014574661060382235 -0.0069608833296926492 0 -0.013184061345188612 -0.0077434954208417091 0 -0.013618603916575553 -0.006366632324204014 0 -0.01440262762658657 -0.0053323258822473678 0 -0.015267357859222161 -0.0060643324630824964 0 -0.01278764318726253 -0.0052530899763418917 0 -0.013618603916575553 -0.006366632324204014 0 -0.01440262762658657 -0.0053323258822473678 0 -0.015933092626586896 -0.0048872044215607473 0 -0.01440262762658657 -0.0053323258822473678 0 -0.015267357859222161 -0.0060643324630824964 0 -0.015933092626586896 -0.0048872044215607473 0 -0.015267357859222161 -0.0060643324630824964 0 -0.016411604585856571 -0.0057985512270133238 0 -0.013618603916575553 -0.006366632324204014 0 -0.015267357859222161 -0.0060643324630824964 0 -0.014574661060382235 -0.0069608833296926492 0 -0.015267357859222161 -0.0060643324630824964 0 -0.014574661060382235 -0.0069608833296926492 0 -0.017089757332523998 -0.0070748415731485253 0 -0.014574661060382235 -0.0069608833296926492 0 -0.014818246017376042 -0.0080713786983473233 0 -0.017089757332523998 -0.0070748415731485253 0 -0.0062423879010625963 -0.0031130001876236565 0 -0.016207210764303037 -0.0082412079408500597 0 -0.012748205511529614 -0.0083275734591396408 0 -0.013621989248480253 -0.0077928919725635997 0 -0.013184061345188612 -0.0077434954208417091 0 -0.0053746608308160712 -0.0047074077680926358 0 -0.0062423879010625963 -0.0031130001876236565 0 -0.014574661060382235 -0.0069608833296926492 0 -0.014818246017376042 -0.0080713786983473233 0 -0.013184061345188612 -0.0077434954208417091 0 0.0016762901027717995 -0.00030094403407891513 0 0.0014962976004535816 9.6401189533771979e-05 0 0.0015014515396784677 -0.00047350566280073469 0 0.0014962976004535816 9.6401189533771979e-05 0 0.0015014515396784677 -0.00047350566280073469 0 0.0012609729407208434 -0.00025210145729077856 0 0.0015014515396784677 -0.00047350566280073469 0 0.0016208405625066618 -0.00060554106079656529 0 0.0014558010848371955 -0.00075969210760806186 0 0.0016762901027717995 -0.00030094403407891513 0 0.0015014515396784677 -0.00047350566280073469 0 0.0016208405625066618 -0.00060554106079656529 0 0.0016208405625066618 -0.00060554106079656529 0 0.0014558010848371955 -0.00075969210760806186 0 0.0016612055135892864 -0.00080152826315253343 0 0.0034419380388228016 -0.001595087753180645 0 0.0048168249561947188 -0.0021314331492682903 0 0.0080265670215025325 -0.0044591244943787758 0 0.0075519570355818662 -0.0044672820649787519 0 0.010090753659375147 -0.0042699137394138966 0 0.0094970827897916093 -0.003906077701541721 0 0.0084081789101750678 -0.0046192242351980215 0 0.0052412166664686129 -0.0022626018105785556 0 0.0084081789101750678 -0.0046192242351980215 0 0.0033541466277962496 -0.0035786594646423078 0 0.010090753659375147 -0.0042699137394138966 0 0.0084081789101750678 -0.0046192242351980215 0 0.010843175122565829 -0.0048594476041223141 0 0.010090753659375147 -0.0042699137394138966 0 0.0094970827897916093 -0.003906077701541721 0 0.010458030188449735 -0.0038885324588366142 0 0.0094970827897916093 -0.003906077701541721 0 0.010243810428980482 -0.0031339078847477646 0 0.010458030188449735 -0.0038885324588366142 0 0.0094970827897916093 -0.003906077701541721 0 0.0092960856527150078 -0.0030662738662484172 0 0.0087582045860638263 -0.0037578245277682088 0 0.0094970827897916093 -0.003906077701541721 0 0.0092960856527150078 -0.0030662738662484172 0 0.010243810428980482 -0.0031339078847477646 0 0.0085666316991603667 -0.0021506023589848689 0 0.0082822806498502374 -0.0033585356176554009 0 0.007439523741801876 -0.0030100213759563926 0 0.0092960856527150078 -0.0030662738662484172 0 0.0082822806498502374 -0.0033585356176554009 0 0.0087582045860638263 -0.0037578245277682088 0 0.0085666316991603667 -0.0021506023589848689 0 0.0092960856527150078 -0.0030662738662484172 0 0.0082822806498502374 -0.0033585356176554009 0 0.0082822806498502374 -0.0033585356176554009 0 0.0087582045860638263 -0.0037578245277682088 0 0.0082987016681961272 -0.0040105276014103892 0 0.0094970827897916093 -0.003906077701541721 0 0.0087582045860638263 -0.0037578245277682088 0 0.0084081789101750678 -0.0046192242351980215 0 0.0087582045860638263 -0.0037578245277682088 0 0.0082987016681961272 -0.0040105276014103892 0 0.0084081789101750678 -0.0046192242351980215 0 0.0082987016681961272 -0.0040105276014103892 0 0.0079173092541454885 -0.0038238110742735026 0 0.0082055262283896573 -0.0042963078693238291 0 0.0082822806498502374 -0.0033585356176554009 0 0.0079173092541454885 -0.0038238110742735026 0 0.0074043100469061499 -0.0036148809865245487 0 0.0082822806498502374 -0.0033585356176554009 0 0.0082987016681961272 -0.0040105276014103892 0 0.0079173092541454885 -0.0038238110742735026 0 0.0052412166664686129 -0.0022626018105785556 0 0.0084210403951672334 -0.0042566539045425832 0 0.0089910734625801396 -0.0037003896715679216 0 0.0052412166664686129 -0.0022626018105785556 0 0.0084081789101750678 -0.0046192242351980215 0 0.0084210403951672334 -0.0042566539045425832 0 0.0077580110756026322 -0.0041534282384397027 0 0.0082055262283896573 -0.0042963078693238291 0 0.0081997383307552563 -0.0046932867158324112 0 0.0082055262283896573 -0.0042963078693238291 0 0.0084210403951672334 -0.0042566539045425832 0 0.0081997383307552563 -0.0046932867158324112 0 0.0077580110756026322 -0.0041534282384397027 0 0.0081997383307552563 -0.0046932867158324112 0 0.0071992223066984868 -0.0040746458500239445 0 0.0079173092541454885 -0.0038238110742735026 0 0.0077580110756026322 -0.0041534282384397027 0 0.0082055262283896573 -0.0042963078693238291 0 0.0082987016681961272 -0.0040105276014103892 0 0.0082055262283896573 -0.0042963078693238291 0 0.0084081789101750678 -0.0046192242351980215 0 0.0082055262283896573 -0.0042963078693238291 0 0.0084081789101750678 -0.0046192242351980215 0 0.0084210403951672334 -0.0042566539045425832 0 0.0059623144447028681 -0.0022966429562656333 0 0.0048168249561947188 -0.0021314331492682903 0 0.0048168249561947188 -0.0021314331492682903 0 0.003400836220530932 -0.0016433409329814786 0 0.0033406310957204192 6.4120694380801193e-05 0 0.0011104524882355367 0.0013817261488170115 0 0.0013587786823965114 -0.0017765358692151836 0 0.0081997383307552563 -0.0046932867158324112 0 0.0071992223066984868 -0.0040746458500239445 0 0.0063289947759636866 -0.0041684057629987822 0 0.0079173092541454885 -0.0038238110742735026 0 0.0077580110756026322 -0.0041534282384397027 0 0.0074043100469061499 -0.0036148809865245487 0 0.0077580110756026322 -0.0041534282384397027 0 0.0074043100469061499 -0.0036148809865245487 0 0.0071992223066984868 -0.0040746458500239445 0 0.0074043100469061499 -0.0036148809865245487 0 0.0070175912096530685 -0.0035411665085858346 0 0.0071992223066984868 -0.0040746458500239445 0 0.0066728902807980184 -0.0039194347361588599 0 0.0060345266460485993 -0.0042873889864195056 0 0.0065931102913068087 -0.0031996972529276012 0 0.0060345266460485993 -0.0042873889864195056 0 0.0065931102913068087 -0.0031996972529276012 0 0.0055265624052425171 -0.0026861006582398011 0 0.0070175912096530685 -0.0035411665085858346 0 0.0071992223066984868 -0.0040746458500239445 0 0.0066728902807980184 -0.0039194347361588599 0 0.0071992223066984868 -0.0040746458500239445 0 0.0066728902807980184 -0.0039194347361588599 0 0.0063289947759636866 -0.0041684057629987822 0 0.0046143873712440062 -0.0018696025932761543 0 0.003400836220530932 -0.0016433409329814786 0 0.0070175912096530685 -0.0035411665085858346 0 0.0066728902807980184 -0.0039194347361588599 0 0.0065931102913068087 -0.0031996972529276012 0 0.0066380305245812114 -0.0023202808840116383 0 0.0065931102913068087 -0.0031996972529276012 0 0.0055265624052425171 -0.0026861006582398011 0 0.0066380305245812114 -0.0023202808840116383 0 0.0065931102913068087 -0.0031996972529276012 0 0.007439523741801876 -0.0030100213759563926 0 0.0082822806498502374 -0.0033585356176554009 0 0.0074043100469061499 -0.0036148809865245487 0 0.007439523741801876 -0.0030100213759563926 0 0.0074043100469061499 -0.0036148809865245487 0 0.0070175912096530685 -0.0035411665085858346 0 0.007439523741801876 -0.0030100213759563926 0 0.0070175912096530685 -0.0035411665085858346 0 0.0065931102913068087 -0.0031996972529276012 0 0.007439523741801876 -0.0030100213759563926 0 0.0050270152905412995 -0.0018320542587267608 0 0.0055265624052425171 -0.0026861006582398011 0 0.0028313081564429986 -0.0021565241064134101 0 0.003400836220530932 -0.0016433409329814786 0 0.0021010709608751412 -0.0011468549385670044 0 0.0060345266460485993 -0.0042873889864195056 0 0.0055265624052425171 -0.0026861006582398011 0 0.0028313081564429986 -0.0021565241064134101 0 0.0015053962292160641 -0.00015638942717835556 0 0.0011732113763616779 -0.0001524962443109586 0 0.0010262104202646012 4.0226962271680182e-05 0 0.003400836220530932 -0.0016433409329814786 0 -0.00027136472222998026 -3.2387455791243656e-05 0 0.0011104524882355367 0.0013817261488170115 0 0.0013587786823965114 -0.0017765358692151836 0 -0.0017406417786290543 -0.0001868133846429107 0 0.0015053962292160641 -0.00015638942717835556 0 0.001089826245361918 -0.00042714610457327495 0 0.0011732113763616779 -0.0001524962443109586 0 0.0013587786823965114 -0.0017765358692151836 0 -0.00090823890327551538 -0.0020723161314032458 0 -0.0017406417786290543 -0.0001868133846429107 0 0.0016208405625066618 -0.00060554106079656529 0 0.0016612055135892864 -0.00080152826315253343 0 0.0017601278544311007 -0.0006150952768642188 0 0.0048168249561947188 -0.0021314331492682903 0 0.0021778056539349475 -0.00065540587310447215 0 0.0016762901027717995 -0.00030094403407891513 0 0.0016208405625066618 -0.00060554106079656529 0 0.0017601278544311007 -0.0006150952768642188 0 0.0016762901027717995 -0.00030094403407891513 0 0.0017601278544311007 -0.0006150952768642188 0 0.0018151882333349177 -0.00047256744043053543 0 0.0021778056539349475 -0.00065540587310447215 0 -0.004864028221648495 -0.0027809528366721649 0 0.0013587786823965114 -0.0017765358692151836 0 -0.00063846599872613495 -0.003625658867682948 0 -0.00090823890327551538 -0.0020723161314032458 0 -0.00063846599872613495 -0.003625658867682948 0 -0.0026049247040522802 -0.0026959369037354961 0 -0.00090823890327551538 -0.0020723161314032458 0 -0.008679853029164358 -0.00035047201635062886 0 -0.0089591329807184317 -0.00044303783819054103 0 -0.0087095392752818829 -0.0005789748761245361 0 -0.004864028221648495 -0.0027809528366721649 0 -0.0060149480679709674 -0.0015087638292360052 0 -0.0087095392752818829 -0.0005789748761245361 0 -0.0083361018274169703 -0.00084988728565149585 0 -0.0084215600652457704 -0.00033282454527538231 0 -0.008679853029164358 -0.00035047201635062886 0 -0.0087095392752818829 -0.0005789748761245361 0 -0.0084215600652457704 -0.00033282454527538231 0 -0.0060149480679709674 -0.0015087638292360052 0 -0.0041991956186195325 -0.00081970889583131564 0 -0.0026049247040522802 -0.0026959369037354961 0 -0.0017406417786290543 -0.0001868133846429107 0 -0.0045729164602130185 -0.0017656434563422386 0 -0.00027136472222998026 -3.2387455791243656e-05 0 -0.0041991956186195325 -0.00081970889583131564 0 0.001089826245361918 -0.00042714610457327495 0 0.00043402050395226238 -0.00045698224182048555 0 0.000365776295516012 -0.00087781321884653168 0 -0.0026049247040522802 -0.0026959369037354961 0 -0.00090823890327551538 -0.0020723161314032458 0 -0.0017406417786290543 -0.0001868133846429107 0 0.001089826245361918 -0.00042714610457327495 0 0.0010101003033516002 -0.00012343702829077096 0 0.00086716480478734649 -0.00023257435609661239 0 0.001089826245361918 -0.00042714610457327495 0 0.0011732113763616779 -0.0001524962443109586 0 0.0010101003033516002 -0.00012343702829077096 0 0.0011732113763616779 -0.0001524962443109586 0 0.0010101003033516002 -0.00012343702829077096 0 0.0010262104202646012 4.0226962271680182e-05 0 0.0010101003033516002 -0.00012343702829077096 0 0.0010262104202646012 4.0226962271680182e-05 0 0.00090598265851220359 3.1590780104809059e-05 0 0.0010101003033516002 -0.00012343702829077096 0 0.00090598265851220359 3.1590780104809059e-05 0 0.00086716480478734649 -0.00023257435609661239 0 0.00090598265851220359 3.1590780104809059e-05 0 0.00086716480478734649 -0.00023257435609661239 0 0.00050857374049754307 -9.3164463030150616e-05 0 0.00086716480478734649 -0.00023257435609661239 0 0.00039739616350010072 -0.00073325621298555893 0 0.00050857374049754307 -9.3164463030150616e-05 0 0.001089826245361918 -0.00042714610457327495 0 0.00086716480478734649 -0.00023257435609661239 0 0.00043402050395226238 -0.00045698224182048555 0 0.00073514953161492639 -0.00033952739561557226 0 0.00058050845161675547 -0.00040968600965117849 0 0.00039739616350010072 -0.00073325621298555893 0 -0.00066954071144443455 -7.7922475555284549e-07 0 -0.00094362020844382464 -0.0015488925847721153 0 0.00039739616350010072 -0.00073325621298555893 0 0.00050857374049754307 -9.3164463030150616e-05 0 -0.00066954071144443455 -7.7922475555284549e-07 0 0.001322403873047841 -8.3659704635990622e-05 0 0.00090598265851220359 3.1590780104809059e-05 0 0.00052081036374728806 0.00010281821635062585 0 0.00090598265851220359 3.1590780104809059e-05 0 0.00050857374049754307 -9.3164463030150616e-05 0 0.00052081036374728806 0.00010281821635062585 0 0.00050857374049754307 -9.3164463030150616e-05 0 0.00052081036374728806 0.00010281821635062585 0 -0.00066954071144443455 -7.7922475555284549e-07 0 0.00052081036374728806 0.00010281821635062585 0 -0.00038762539358580252 2.1513300868437102e-06 0 -0.00066954071144443455 -7.7922475555284549e-07 0 -0.00038762539358580252 2.1513300868437102e-06 0 -0.00066954071144443455 -7.7922475555284549e-07 0 -0.0034285329151786444 -3.8004241207360597e-06 0 -0.00066954071144443455 -7.7922475555284549e-07 0 -0.0034285329151786444 -3.8004241207360597e-06 0 -0.00094362020844382464 -0.0015488925847721153 0 -0.0034324027182454958 -4.2245053251722336e-07 0 -0.0028018859891565085 -0.00058903049134922914 0 -0.0034378319483354966 1.9465344513804776e-08 0 -0.0042022865372393784 -2.0611473188955222e-06 0 -0.0053148971827710421 -2.2580364063504748e-08 0 -0.0028018859891565085 -0.00058903049134922914 0 -0.0053208363445453911 -7.0072425850003354e-07 0 -0.0055895647832784421 -0.00019318161499340958 0 -0.0053243481664295373 1.2673423715996669e-07 0 -0.0055806716421356551 2.5304485569360836e-05 0 0.00058050845161675547 -0.00040968600965117849 0 -0.0028018859891565085 -0.00058903049134922914 0 0.00043402050395226238 -0.00045698224182048555 0 -2.1555642885582978e-05 -0.00071286360469566712 0 0.000365776295516012 -0.00087781321884653168 0 -0.0028018859891565085 -0.00058903049134922914 0 -0.0041991956186195325 -0.00081970889583131564 0 -0.0055895647832784421 -0.00019318161499340958 0 -0.0057674306527046955 -0.00010522483821326752 0 -0.0055806716421356551 2.5304485569360836e-05 0 -0.0041991956186195325 -0.00081970889583131564 0 -0.0070393670211284535 -0.00052607927670154291 0 -0.0083361018274169703 -0.00084988728565149585 0 -0.0084215600652457704 -0.00033282454527538231 0 -0.0079723027319893273 -0.00074381288554296475 0 -0.0081864498917920726 -0.00018059437170446564 0 -0.0084215600652457704 -0.00033282454527538231 0 -0.0079723027319893273 -0.00074381288554296475 0 -0.0081864498917920726 -0.00018059437170446564 0 -0.0065431561624071837 -2.288002424198862e-06 0 -0.0079723027319893273 -0.00074381288554296475 0 -0.0065381313796480421 2.4721915424873314e-09 0 -0.0070393670211284535 -0.00052607927670154291 0 -0.0065339248938448011 -1.3879167975925708e-07 0 -0.0053243481664295373 1.2673423715996669e-07 0 -0.0055806716421356551 2.5304485569360836e-05 0 -0.0067918072312120057 0.0010457236892382244 0 -0.0058599714003626166 0.00143600878696689 0 -0.0072242361317967803 0.0018585523818442464 0 -0.0067918072312120057 0.0010457236892382244 0 -0.0071638782626900193 0.00019560614185718461 0 -0.0076103950161479925 0.0011993320607717377 0 -0.0067918072312120057 0.0010457236892382244 0 -0.0076103950161479925 0.0011993320607717377 0 -0.0072242361317967803 0.0018585523818442464 0 -0.0058599714003626166 0.00143600878696689 0 -0.0049320422531035791 0.00069035466071324444 0 -0.0045416130592032889 0.0020646440558854061 0 -0.0067918072312120057 0.0010457236892382244 0 -0.0058599714003626166 0.00143600878696689 0 -0.0060702982186953474 0.00050894480998121589 0 -0.0058599714003626166 0.00143600878696689 0 -0.0049320422531035791 0.00069035466071324444 0 -0.0060702982186953474 0.00050894480998121589 0 -0.0049320422531035791 0.00069035466071324444 0 -0.0056044212018160162 -0.0007132439982398197 0 -0.0039586461182684399 -0.0004634868154362097 0 -0.0049320422531035791 0.00069035466071324444 0 -0.0060702982186953474 0.00050894480998121589 0 -0.0056044212018160162 -0.0007132439982398197 0 -0.0060702982186953474 0.00050894480998121589 0 -0.0056044212018160162 -0.0007132439982398197 0 -0.0071638782626900193 0.00019560614185718461 0 -0.0063162855538305314 -6.2974135016018179e-05 0 -0.0074411311345720845 0.0005594751949033062 0 -0.006490461750930954 0.0004740259791235929 0 -0.0078581272171601886 0.00099975937603974429 0 -0.0075128524841146741 -0.00021947854665157207 0 -0.0078581272171601886 0.00099975937603974429 0 -0.0082723952252563345 0.00065512931320416828 0 -0.0075128524841146741 -0.00021947854665157207 0 -0.0067918072312120057 0.0010457236892382244 0 -0.0060702982186953474 0.00050894480998121589 0 -0.0071638782626900193 0.00019560614185718461 0 -0.0082723952252563345 0.00065512931320416828 0 -0.0085104999389601678 0.00064142950936313706 0 -0.0085609540575834302 0.0010574607834782431 0 -0.0078581272171601886 0.00099975937603974429 0 -0.0082723952252563345 0.00065512931320416828 0 -0.0085609540575834302 0.0010574607834782431 0 -0.0074411311345720845 0.0005594751949033062 0 -0.0084674696784034515 0.0010275078712139007 0 -0.0085104999389601678 0.00064142950936313706 0 -0.0085609540575834302 0.0010574607834782431 0 -0.0088876649557228724 0.00073930808894363061 0 -0.0085104999389601678 0.00064142950936313706 0 -0.0085364535344253992 0.00056612036048264529 0 -0.0088876649557228724 0.00073930808894363061 0 -0.0085609540575834302 0.0010574607834782431 0 -0.0093656594761202215 0.0017241088054750847 0 -0.0088876649557228724 0.00073930808894363061 0 -0.0093300355639141849 0.0016217161611676888 0 -0.0094976355106200696 0.00039640445480232405 0 -0.0085609540575834302 0.0010574607834782431 0 -0.0082529768010711716 0.0018062731713278434 0 -0.0093656594761202215 0.0017241088054750847 0 -0.0071638782626900193 0.00019560614185718461 0 -0.0076103950161479925 0.0011993320607717377 0 -0.0085609540575834302 0.0010574607834782431 0 -0.0076103950161479925 0.0011993320607717377 0 -0.0082529768010711716 0.0018062731713278434 0 -0.0072242361317967803 0.0018585523818442464 0 -0.0076103950161479925 0.0011993320607717377 0 -0.0085609540575834302 0.0010574607834782431 0 -0.0082529768010711716 0.0018062731713278434 0 -0.0082529768010711716 0.0018062731713278434 0 -0.0081485147156764165 0.0031581942417858891 0 -0.0072242361317967803 0.0018585523818442464 0 -0.0082529768010711716 0.0018062731713278434 0 -0.0093656594761202215 0.0017241088054750847 0 -0.0081485147156764165 0.0031581942417858891 0 -0.0093656594761202215 0.0017241088054750847 0 -0.0098329593491691559 0.0035894524744698058 0 -0.0081485147156764165 0.0031581942417858891 0 -0.0078885132855341916 0.0051208093936117296 0 -0.0098329593491691559 0.0035894524744698058 0 -0.0081485147156764165 0.0031581942417858891 0 -0.0081485147156764165 0.0031581942417858891 0 -0.0062310641326429944 0.0025933415011460187 0 -0.0056651255761910298 0.0041214957936528667 0 -0.0078885132855341916 0.0051208093936117296 0 -0.0081485147156764165 0.0031581942417858891 0 -0.0056651255761910298 0.0041214957936528667 0 -0.0081485147156764165 0.0031581942417858891 0 -0.0072242361317967803 0.0018585523818442464 0 -0.0062310641326429944 0.0025933415011460187 0 -0.0058599714003626166 0.00143600878696689 0 -0.0072242361317967803 0.0018585523818442464 0 -0.0062310641326429944 0.0025933415011460187 0 -0.0062310641326429944 0.0025933415011460187 0 -0.0056651255761910298 0.0041214957936528667 0 -0.0045416130592032889 0.0020646440558854061 0 -0.0058599714003626166 0.00143600878696689 0 -0.0062310641326429944 0.0025933415011460187 0 -0.0045416130592032889 0.0020646440558854061 0 -0.0056651255761910298 0.0041214957936528667 0 -0.0034973603380201702 0.0030103806851091526 0 -0.0045416130592032889 0.0020646440558854061 0 -0.013434708789220479 -0.00073392014421544427 0 -0.011204725364373214 -0.0016444164442511093 0 -0.019689067988875264 -0.0049552111245096857 0 -0.02113111938608786 -0.0056080588155038424 0 -0.019014681299697401 -0.0062507864316565433 0 -0.018519676584721371 -0.0045029049810326703 0 -0.019014681299697401 -0.0062507864316565433 0 -0.017337542283229732 -0.0052133811481088711 0 -0.018519676584721371 -0.0045029049810326703 0 -0.019689067988875264 -0.0049552111245096857 0 -0.019014681299697401 -0.0062507864316565433 0 -0.0034973603380201702 0.0030103806851091526 0 -0.0020548715784565732 0.0019223118430908646 0 -0.0029160371835346339 0.0017702880437296376 0 -0.0034973603380201702 0.0030103806851091526 0 -0.0045416130592032889 0.0020646440558854061 0 -0.0029160371835346339 0.0017702880437296376 0 -0.015933092626586896 -0.0048872044215607473 0 -0.016411604585856571 -0.0057985512270133238 0 -0.017337542283229732 -0.0052133811481088711 0 -0.016411604585856571 -0.0057985512270133238 0 -0.017337542283229732 -0.0052133811481088711 0 -0.017089757332523998 -0.0070748415731485253 0 -0.019014681299697401 -0.0062507864316565433 0 -0.017337542283229732 -0.0052133811481088711 0 -0.017089757332523998 -0.0070748415731485253 0 -0.011204725364373214 -0.0016444164442511093 0 -0.0099671649568737423 -0.0025355861272425566 0 -0.015267357859222161 -0.0060643324630824964 0 -0.016411604585856571 -0.0057985512270133238 0 -0.017089757332523998 -0.0070748415731485253 0 -0.0012859667138338205 0.0013718727320318918 0 -0.0020548715784565732 0.0019223118430908646 0 -0.0021672534806333335 0.001293166326626633 0 -0.0062423879010625963 -0.0031130001876236565 0 -0.0099671649568737423 -0.0025355861272425566 0 -0.0062423879010625963 -0.0031130001876236565 0 0.00071150024208299471 0.0016389382899223363 0 -0.0020548715784565732 0.0019223118430908646 0 -0.0021672534806333335 0.001293166326626633 0 -0.0029160371835346339 0.0017702880437296376 0 0.00064818006946961359 0.00075271344210167234 0 0.00027325165552972871 -0.00052946300384154794 0 0.0012609729407208434 -0.00025210145729077856 0 0.00064818006946961359 0.00075271344210167234 0 0.00027325165552972871 -0.00052946300384154794 0 -0.0017133741995650196 -0.00025388947478290861 0 0.0014962976004535816 9.6401189533771979e-05 0 0.00064818006946961359 0.00075271344210167234 0 0.0012609729407208434 -0.00025210145729077856 0 -0.0049320422531035791 0.00069035466071324444 0 -0.0045416130592032889 0.0020646440558854061 0 -0.0034503742139239692 0.00084109104739403615 0 -0.0045416130592032889 0.0020646440558854061 0 -0.0029160371835346339 0.0017702880437296376 0 -0.0034503742139239692 0.00084109104739403615 0 0.00071150024208299471 0.0016389382899223363 0 -0.0040460089071992032 0.00062433321796308804 0 -0.0021672534806333335 0.001293166326626633 0 -0.0029160371835346339 0.0017702880437296376 0 -0.0034503742139239692 0.00084109104739403615 0 -0.0017133741995650196 -0.00025388947478290861 0 -0.0039586461182684399 -0.0004634868154362097 0 -0.0026329784693618508 -0.0013371742258807798 0 0.00064818006946961359 0.00075271344210167234 0 -0.0017133741995650196 -0.00025388947478290861 0 -0.0034503742139239692 0.00084109104739403615 0 -0.0017133741995650196 -0.00025388947478290861 0 -0.0039586461182684399 -0.0004634868154362097 0 -0.0034503742139239692 0.00084109104739403615 0 0.00027325165552972871 -0.00052946300384154794 0 -0.0017133741995650196 -0.00025388947478290861 0 -0.001288085265904039 -0.0013566052600456756 0 -0.0017133741995650196 -0.00025388947478290861 0 -0.0026329784693618508 -0.0013371742258807798 0 -0.001288085265904039 -0.0013566052600456756 0 -0.0049320422531035791 0.00069035466071324444 0 -0.0039586461182684399 -0.0004634868154362097 0 -0.0034503742139239692 0.00084109104739403615 0 -0.0063162855538305314 -6.2974135016018179e-05 0 -0.0025564768913512261 -0.00072286639655468835 0 -0.0025564768913512261 -0.00072286639655468835 0 -0.0025564359432243841 -0.00010688845167589341 0 -0.0056044212018160162 -0.0007132439982398197 0 -0.0039586461182684399 -0.0004634868154362097 0 -0.0036532247040800096 -0.0018689240308997922 0 -0.0039586461182684399 -0.0004634868154362097 0 -0.0036532247040800096 -0.0018689240308997922 0 -0.0026329784693618508 -0.0013371742258807798 0 -0.0025564768913512261 -0.00072286639655468835 0 -0.0031149398230058407 -0.0013783116330520098 0 -0.0025564768913512261 -0.00072286639655468835 0 0.0039743933462863899 -0.0022518144522837048 0 -0.0037400605082951073 -0.0020546446230049671 0 -0.0026329784693618508 -0.0013371742258807798 0 -0.0010083917020128487 -0.0034470683122631552 0 -0.0026329784693618508 -0.0013371742258807798 0 -0.001288085265904039 -0.0013566052600456756 0 -0.0010083917020128487 -0.0034470683122631552 0 0.0016782859760067664 0.00054739415244899189 0 0.0037328993771765292 -0.00046897674799594125 0 0.0017687015265421139 -0.0010089661986494637 0 0.0037328993771765292 -0.00046897674799594125 0 0.0017687015265421139 -0.0010089661986494637 0 0.0030245145717653042 -0.0020350921882618285 0 0.012128799321547422 -0.0052639523591879091 0 0.01190771222014227 -0.0046409565901831774 0 0.012732240866992817 -0.0046195230327123757 0 0.0039743933462863899 -0.0022518144522837048 0 0.0077496413484892572 -0.0033013115301563207 0 0.0017687015265421139 -0.0010089661986494637 0 0.00090576449926083708 -0.0022329879358263956 0 -0.00050798188356103956 -0.00085530134482261842 0 0.0017687015265421139 -0.0010089661986494637 0 0.00090576449926083708 -0.0022329879358263956 0 0.0030245145717653042 -0.0020350921882618285 0 0.0016782859760067664 0.00054739415244899189 0 0.0017687015265421139 -0.0010089661986494637 0 -0.00050798188356103956 -0.00085530134482261842 0 0.00027325165552972871 -0.00052946300384154794 0 0.0012609729407208434 -0.00025210145729077856 0 0.0012195435090401551 -0.0010058458645093409 0 0.0015014515396784677 -0.00047350566280073469 0 0.0014558010848371955 -0.00075969210760806186 0 0.0012195435090401551 -0.0010058458645093409 0 0.0015014515396784677 -0.00047350566280073469 0 0.0012609729407208434 -0.00025210145729077856 0 0.0012195435090401551 -0.0010058458645093409 0 0.00027325165552972871 -0.00052946300384154794 0 -0.0003730157613189278 -0.0018327966879513316 0 0.0012195435090401551 -0.0010058458645093409 0 -0.00060993465794135322 -0.001300034631686126 0 0.0039743933462863899 -0.0022518144522837048 0 0.00027325165552972871 -0.00052946300384154794 0 -0.001288085265904039 -0.0013566052600456756 0 -0.0010083917020128487 -0.0034470683122631552 0 -0.0003730157613189278 -0.0018327966879513316 0 0.0012195435090401551 -0.0010058458645093409 0 0.0033541466277962496 -0.0035786594646423078 0 0.012128799321547422 -0.0052639523591879091 0 0.010843175122565829 -0.0048594476041223141 0 0.01190771222014227 -0.0046409565901831774 0 0.0039743933462863899 -0.0022518144522837048 0 0.0075519570355818662 -0.0044672820649787519 0 0.0052412166664686129 -0.0022626018105785556 0 0.0012195435090401551 -0.0010058458645093409 0 0.0033541466277962496 -0.0035786594646423078 0 0.0034419380388228016 -0.001595087753180645 0 0.0013845355763462415 -0.00095020477710847648 0 0.010090753659375147 -0.0042699137394138966 0 0.01099669766872997 -0.0041677839289818008 0 0.010458030188449735 -0.0038885324588366142 0 0.010090753659375147 -0.0042699137394138966 0 0.010843175122565829 -0.0048594476041223141 0 0.01099669766872997 -0.0041677839289818008 0 0.010843175122565829 -0.0048594476041223141 0 0.01099669766872997 -0.0041677839289818008 0 0.011575200081372033 -0.0043014234341264704 0 0.01099669766872997 -0.0041677839289818008 0 0.011575200081372033 -0.0043014234341264704 0 0.011728191292285951 -0.0037737084673216724 0 0.010843175122565829 -0.0048594476041223141 0 0.011575200081372033 -0.0043014234341264704 0 0.01190771222014227 -0.0046409565901831774 0 0.011575200081372033 -0.0043014234341264704 0 0.011728191292285951 -0.0037737084673216724 0 0.012424522927355346 -0.0040143448230238856 0 0.011575200081372033 -0.0043014234341264704 0 0.01190771222014227 -0.0046409565901831774 0 0.012424522927355346 -0.0040143448230238856 0 0.012348115779168075 -0.0033619599409365607 0 0.011728191292285951 -0.0037737084673216724 0 0.012424522927355346 -0.0040143448230238856 0 0.012273338916548844 -0.0026774074379839301 0 0.012348115779168075 -0.0033619599409365607 0 0.012768810287991893 -0.0028419578650276285 0 0.012273338916548844 -0.0026774074379839301 0 0.012348115779168075 -0.0033619599409365607 0 0.011834032382675849 -0.0031676020939914967 0 0.012273338916548844 -0.0026774074379839301 0 0.011622046100906221 -0.0026204427817234769 0 0.011834032382675849 -0.0031676020939914967 0 0.012348115779168075 -0.0033619599409365607 0 0.011834032382675849 -0.0031676020939914967 0 0.011728191292285951 -0.0037737084673216724 0 0.011834032382675849 -0.0031676020939914967 0 0.011728191292285951 -0.0037737084673216724 0 0.011166583001154988 -0.0033978000902522803 0 0.01099669766872997 -0.0041677839289818008 0 0.011728191292285951 -0.0037737084673216724 0 0.011166583001154988 -0.0033978000902522803 0 0.011622046100906221 -0.0026204427817234769 0 0.010954063879057552 -0.0025953213107026219 0 0.011166583001154988 -0.0033978000902522803 0 0.011622046100906221 -0.0026204427817234769 0 0.011834032382675849 -0.0031676020939914967 0 0.011166583001154988 -0.0033978000902522803 0 0.010954063879057552 -0.0025953213107026219 0 0.010243810428980482 -0.0031339078847477646 0 0.011166583001154988 -0.0033978000902522803 0 0.010243810428980482 -0.0031339078847477646 0 0.011166583001154988 -0.0033978000902522803 0 0.010458030188449735 -0.0038885324588366142 0 0.01099669766872997 -0.0041677839289818008 0 0.011166583001154988 -0.0033978000902522803 0 0.010458030188449735 -0.0038885324588366142 0 0.0031672989707841595 0.0010773666258827664 0 0.0031663795271982299 0.0011027796541235124 0 0.003193940125143198 0.001125835130189647 0 0.00090576449926083708 -0.0022329879358263956 0 0.0030245145717653042 -0.0020350921882618285 0 0.0023239918317949052 -0.0036002312001814601 0 0.0018957453729453162 -0.00043798940814387542 0 0.0074231904286328086 -0.0018728432057649278 0 0.01190771222014227 -0.0046409565901831774 0 0.012732240866992817 -0.0046195230327123757 0 0.012424522927355346 -0.0040143448230238856 0 0.012732240866992817 -0.0046195230327123757 0 0.012424522927355346 -0.0040143448230238856 0 0.013323008549118352 -0.0037400976689677735 0 0.0077496413484892572 -0.0033013115301563207 0 0.0074231904286328086 -0.0018728432057649278 0 0.012424522927355346 -0.0040143448230238856 0 0.013323008549118352 -0.0037400976689677735 0 0.013021091998940479 -0.0033253161863697556 0 0.013207800500737754 -0.0023036101282659619 0 0.013021091998940479 -0.0033253161863697556 0 0.012768810287991893 -0.0028419578650276285 0 0.0074231904286328086 -0.0018728432057649278 0 0.012314653480987463 -0.0045392614206282407 0 0.012348115779168075 -0.0033619599409365607 0 0.012424522927355346 -0.0040143448230238856 0 0.013021091998940479 -0.0033253161863697556 0 0.012348115779168075 -0.0033619599409365607 0 0.013021091998940479 -0.0033253161863697556 0 0.012768810287991893 -0.0028419578650276285 0 0.0140815386634272 -0.002234142011807811 0 0.013411926945725228 -0.0037292669741453206 0 0.013021091998940479 -0.0033253161863697556 0 0.003203410383861315 0.0012079077811368397 0 0.0031663795271982299 0.0011027796541235124 0 0.003193940125143198 0.001125835130189647 0 0.0087697631865611587 -0.00036866563407251331 0 0.0074231904286328086 -0.0018728432057649278 0 0.003203410383861315 0.0012079077811368397 0 0.003193940125143198 0.001125835130189647 0 0.003243688554357868 0.00116595527869827 0 0.003193940125143198 0.001125835130189647 0 0.003243688554357868 0.00116595527869827 0 0.0031969783625811774 0.0010958341020522553 0 0.003243688554357868 0.00116595527869827 0 0.0032421308702679169 0.0010834344030953434 0 0.0032930219088592215 0.0011673808733944986 0 0.0033126496667408288 0.0012520397353666564 0 0.003243688554357868 0.00116595527869827 0 0.0032930219088592215 0.0011673808733944986 0 0.0031969783625811774 0.0010958341020522553 0 0.0031567398824851357 0.0010378000657645908 0 0.0032421308702679169 0.0010834344030953434 0 0.003243688554357868 0.00116595527869827 0 0.0031969783625811774 0.0010958341020522553 0 0.0032421308702679169 0.0010834344030953434 0 0.0031672989707841595 0.0010773666258827664 0 0.0031969783625811774 0.0010958341020522553 0 0.0031567398824851357 0.0010378000657645908 0 0.0031672989707841595 0.0010773666258827664 0 0.003193940125143198 0.001125835130189647 0 0.0031969783625811774 0.0010958341020522553 0 0.0018957453729453162 -0.00043798940814387542 0 -0.0025564359432243841 -0.00010688845167589341 0 -0.0025564359432243841 -0.00010688845167589341 0 -0.0025181862174601583 0.00098579727714843274 0 -0.0082863178923076476 0.00061327980938226747 0 -0.008346972881249087 0.00059211023368299285 0 -0.0083621226811513728 0.00059756420411184448 0 -0.0082118396838496074 0.00058798401506618078 0 -0.0082863178923076476 0.00061327980938226747 0 -0.0083621226811513728 0.00059756420411184448 0 -0.0025564359432243841 -0.00010688845167589341 0 -0.008315537972652708 0.00061751195413133162 0 -0.0082723952252563345 0.00065512931320416828 0 -0.0082863178923076476 0.00061327980938226747 0 -0.008346972881249087 0.00059211023368299285 0 -0.0080974941081300624 0.00045220967627681023 0 -0.008315537972652708 0.00061751195413133162 0 -0.006490461750930954 0.0004740259791235929 0 -0.0050840166145209023 -0.00019286067150248642 0 -0.0065881566712999665 -0.0011375831363568756 0 -0.006490461750930954 0.0004740259791235929 0 -0.0065881566712999665 -0.0011375831363568756 0 -0.0075128524841146741 -0.00021947854665157207 0 -0.0085104999389601678 0.00064142950936313706 0 -0.0085364535344253992 0.00056612036048264529 0 -0.0084173086314000261 0.00057123038325778916 0 -0.0085104999389601678 0.00064142950936313706 0 -0.008346972881249087 0.00059211023368299285 0 -0.0084173086314000261 0.00057123038325778916 0 -0.0082723952252563345 0.00065512931320416828 0 -0.0085104999389601678 0.00064142950936313706 0 -0.008346972881249087 0.00059211023368299285 0 -0.008359007569460437 0.00060506651629263898 0 -0.0084173086314000261 0.00057123038325778916 0 -0.0083621226811513728 0.00059756420411184448 0 -0.008346972881249087 0.00059211023368299285 0 -0.0084173086314000261 0.00057123038325778916 0 -0.0083621226811513728 0.00059756420411184448 0 -0.0085364535344253992 0.00056612036048264529 0 -0.008359007569460437 0.00060506651629263898 0 -0.0084173086314000261 0.00057123038325778916 0 -0.008359007569460437 0.00060506651629263898 0 -0.0083621226811513728 0.00059756420411184448 0 -0.0083671103521768524 0.00084029911877201823 0 -0.008359007569460437 0.00060506651629263898 0 -0.0083671103521768524 0.00084029911877201823 0 -0.0081489243916451938 0.0008196375459133201 0 -0.0025181862174601583 0.00098579727714843274 0 -0.0024551845820578503 0.0010052295011028143 0 0.0032421308702679169 0.0010834344030953434 0 0.0032930219088592215 0.0011673808733944986 0 0.0033457312662708801 0.0011506669546487642 0 0.0033812233667079778 0.0012770256830362875 0 0.0032930219088592215 0.0011673808733944986 0 0.0033457312662708801 0.0011506669546487642 0 -0.007904861908877292 0.0014343455864762023 0 -0.0083671103521768524 0.00084029911877201823 0 -0.0081489243916451938 0.0008196375459133201 0 -0.0024860324807900098 0.0012810864319884039 0 -0.0024551845820578503 0.0010052295011028143 0 -0.007904861908877292 0.0014343455864762023 0 -0.0078852258000346852 0.00092547183883926278 0 -0.0081489243916451938 0.0008196375459133201 0 -0.0073509127863383272 0.0011689486377212382 0 -0.0078852258000346852 0.00092547183883926278 0 -0.007860499864625203 0.00054040516225451255 0 -0.007904861908877292 0.0014343455864762023 0 -0.0073509127863383272 0.0011689486377212382 0 -0.0078852258000346852 0.00092547183883926278 0 -0.0078852258000346852 0.00092547183883926278 0 -0.0080054694899409536 0.00064905455718214584 0 -0.007860499864625203 0.00054040516225451255 0 -0.0026988320203094876 0.0010707127539658619 0 -0.0068486292642925828 -0.00095813801831751665 0 0.0015465603290474111 0.00034155256287755789 0 0.0016467721469751841 0.00016884971178974877 0 0.0015685265502586811 0.0001544546015465667 0 -0.0077020635525510035 -0.00015379176517475002 0 -0.0068486292642925828 -0.00095813801831751665 0 -0.008359007569460437 0.00060506651629263898 0 -0.0081609948979201354 0.00064377850460559094 0 -0.0081489243916451938 0.0008196375459133201 0 -0.0080054694899409536 0.00064905455718214584 0 -0.0080110000662630011 0.00062894371394028046 0 -0.0081609948979201354 0.00064377850460559094 0 -0.0078852258000346852 0.00092547183883926278 0 -0.0080054694899409536 0.00064905455718214584 0 -0.0080391394042268385 0.00078091069783007725 0 -0.0081609948979201354 0.00064377850460559094 0 -0.0081489243916451938 0.0008196375459133201 0 -0.0080391394042268385 0.00078091069783007725 0 -0.0080054694899409536 0.00064905455718214584 0 -0.0081609948979201354 0.00064377850460559094 0 -0.0080391394042268385 0.00078091069783007725 0 -0.0078852258000346852 0.00092547183883926278 0 -0.0081489243916451938 0.0008196375459133201 0 -0.0080391394042268385 0.00078091069783007725 0 0.0020006452303548239 0.00056944783686748725 0 0.0023240214434744029 0.00039412055886004475 0 0.0018202322151808707 0.00022499855528851975 0 0.0023240214434744029 0.00039412055886004475 0 0.0018202322151808707 0.00022499855528851975 0 0.0025619214661054572 -3.8923322777715681e-05 0 0.0024952694600562843 0.00068898522768176161 0 0.0023240214434744029 0.00039412055886004475 0 0.0028127312540292856 0.00047435102554517798 0 0.0015465603290474111 0.00034155256287755789 0 0.0018202322151808707 0.00022499855528851975 0 0.0015685265502586811 0.0001544546015465667 0 0.0020006452303548239 0.00056944783686748725 0 0.0015465603290474111 0.00034155256287755789 0 0.0018202322151808707 0.00022499855528851975 0 0.0018202322151808707 0.00022499855528851975 0 0.0015685265502586811 0.0001544546015465667 0 0.0013464422355077019 0.00019787543262405176 0 0.0018202322151808707 0.00022499855528851975 0 0.0013464422355077019 0.00019787543262405176 0 0.0025619214661054572 -3.8923322777715681e-05 0 0.0014025388750434316 0.00018110330588188428 0 0.001159549038173161 -9.3063637915681731e-05 0 -0.013344757623004267 -0.0025172825431594593 0 -0.011734482442797355 -0.00067795550399394841 0 -0.013249688256983217 6.6268099343548317e-05 0 -0.013344757623004267 -0.0025172825431594593 0 -0.013249688256983217 6.6268099343548317e-05 0 -0.015192164115575656 -0.0011653286486886475 0 0.0001306671478327757 0.00085906449840670175 0 0.0013965181392254261 0.00070784192557125653 0 0.0013464422355077019 0.00019787543262405176 0 0.0001306671478327757 0.00085906449840670175 0 0.0013464422355077019 0.00019787543262405176 0 -0.00034798333197263678 -0.00029715423337690097 0 0.0016467721469751841 0.00016884971178974877 0 0.0015685265502586811 0.0001544546015465667 0 0.0013965181392254261 0.00070784192557125653 0 0.0015685265502586811 0.0001544546015465667 0 0.0013965181392254261 0.00070784192557125653 0 0.0013464422355077019 0.00019787543262405176 0 -0.0056291002449188237 -0.0011077897615065992 0 -0.0077546294458824098 0.0003272392223692072 0 0.0001306671478327757 0.00085906449840670175 0 0.0013965181392254261 0.00070784192557125653 0 -0.0003557055933576621 0.0018475606914957841 0 -0.0068486292642925828 -0.00095813801831751665 0 -0.010032407430434114 -0.00096238681938256015 0 -0.0085364535344253992 0.00056612036048264529 0 -0.008359007569460437 0.00060506651629263898 0 -0.0084076475548840995 0.00052052198517113881 0 -0.008359007569460437 0.00060506651629263898 0 -0.0081609948979201354 0.00064377850460559094 0 -0.0084076475548840995 0.00052052198517113881 0 -0.0080110000662630011 0.00062894371394028046 0 -0.0081609948979201354 0.00064377850460559094 0 -0.0084076475548840995 0.00052052198517113881 0 -0.011586908377822768 -0.0037436054014256728 0 -0.011950999302843738 -0.002345976790174455 0 -0.01094314579979515 -0.0020164028538903391 0 -0.011586908377822768 -0.0037436054014256728 0 -0.013344757623004267 -0.0025172825431594593 0 -0.011950999302843738 -0.002345976790174455 0 -0.0068486292642925828 -0.00095813801831751665 0 -0.0056291002449188237 -0.0011077897615065992 0 -0.011950999302843738 -0.002345976790174455 0 -0.01094314579979515 -0.0020164028538903391 0 -0.011734482442797355 -0.00067795550399394841 0 -0.013344757623004267 -0.0025172825431594593 0 -0.011950999302843738 -0.002345976790174455 0 -0.011734482442797355 -0.00067795550399394841 0 -0.0085364535344253992 0.00056612036048264529 0 -0.0084076475548840995 0.00052052198517113881 0 -0.0088876649557228724 0.00073930808894363061 0 -0.010032407430434114 -0.00096238681938256015 0 -0.0094976355106200696 0.00039640445480232405 0 -0.01094314579979515 -0.0020164028538903391 0 -0.010232891821649954 -0.00022043445543789658 0 -0.011734482442797355 -0.00067795550399394841 0 -0.010232891821649954 -0.00022043445543789658 0 -0.010658302623205359 0.00080391166555863309 0 -0.011734482442797355 -0.00067795550399394841 0 -0.0093656594761202215 0.0017241088054750847 0 -0.010658302623205359 0.00080391166555863309 0 -0.011663396190172723 0.0017179620713568028 0 -0.0093656594761202215 0.0017241088054750847 0 -0.010232891821649954 -0.00022043445543789658 0 -0.010658302623205359 0.00080391166555863309 0 -0.010658302623205359 0.00080391166555863309 0 -0.011734482442797355 -0.00067795550399394841 0 -0.011663396190172723 0.0017179620713568028 0 -0.013249688256983217 6.6268099343548317e-05 0 -0.013135895619896814 0.0019338427921489802 0 -0.011663396190172723 0.0017179620713568028 0 -0.011734482442797355 -0.00067795550399394841 0 -0.013249688256983217 6.6268099343548317e-05 0 -0.011663396190172723 0.0017179620713568028 0 -0.013249688256983217 6.6268099343548317e-05 0 -0.014827108475457044 0.0011117617248317705 0 -0.015192164115575656 -0.0011653286486886475 0 -0.013249688256983217 6.6268099343548317e-05 0 -0.014827108475457044 0.0011117617248317705 0 -0.013135895619896814 0.0019338427921489802 0 -0.013135895619896814 0.0019338427921489802 0 -0.014038169057616436 0.0031864800458754118 0 -0.011837943913486972 0.003611522100434068 0 -0.014827108475457044 0.0011117617248317705 0 -0.013135895619896814 0.0019338427921489802 0 -0.014038169057616436 0.0031864800458754118 0 -0.014827108475457044 0.0011117617248317705 0 -0.014038169057616436 0.0031864800458754118 0 -0.016337068622130215 0.00266002538910392 0 -0.015390021470889187 0.0041482942082797227 0 -0.014038169057616436 0.0031864800458754118 0 -0.016337068622130215 0.00266002538910392 0 -0.014038169057616436 0.0031864800458754118 0 -0.011837943913486972 0.003611522100434068 0 -0.012657782499557142 0.0053538517526784219 0 -0.0098329593491691559 0.0035894524744698058 0 -0.011837943913486972 0.003611522100434068 0 -0.011663396190172723 0.0017179620713568028 0 -0.0093656594761202215 0.0017241088054750847 0 -0.0098329593491691559 0.0035894524744698058 0 -0.011663396190172723 0.0017179620713568028 0 -0.013135895619896814 0.0019338427921489802 0 -0.011837943913486972 0.003611522100434068 0 -0.011663396190172723 0.0017179620713568028 0 -0.0072613269344783699 0.0019869654780929765 0 -0.0089411743073551445 0.0028284967955592238 0 -0.0046102778084311869 0.0021849283351601952 0 -0.0045468986999631219 0.0020500082710860333 0 -0.0046613085747850089 0.0018614071430462439 0 -0.012425249648900244 0.0027588338195205929 0 -0.0089411743073551445 0.0028284967955592238 0 -0.0046102778084311869 0.0021849283351601952 0 -0.0046613085747850089 0.0018614071430462439 0 -0.0046504217968742169 0.0022185529778463819 0 -0.0045468986999631219 0.0020500082710860333 0 -0.004509412372573139 0.0021931536529504634 0 -0.0044626882601237986 0.0020574862216094785 0 -0.0046102778084311869 0.0021849283351601952 0 -0.0045468986999631219 0.0020500082710860333 0 -0.004509412372573139 0.0021931536529504634 0 -0.0045468986999631219 0.0020500082710860333 0 -0.0046613085747850089 0.0018614071430462439 0 -0.0045322448656983328 0.0019173745561786983 0 -0.0046613085747850089 0.0018614071430462439 0 -0.0045322448656983328 0.0019173745561786983 0 -0.0045721959993270259 0.0017897212714099032 0 -0.019343514625915853 0.0038319498837689507 0 -0.017837896316567025 0.0037186424519505931 0 -0.018702886258512259 0.0015454848133513671 0 -0.017837896316567025 0.0037186424519505931 0 -0.016337068622130215 0.00266002538910392 0 -0.016589671922180308 0.005199507667832985 0 -0.017837896316567025 0.0037186424519505931 0 -0.016337068622130215 0.00266002538910392 0 -0.018702886258512259 0.0015454848133513671 0 -0.015390021470889187 0.0041482942082797227 0 -0.016337068622130215 0.00266002538910392 0 -0.016589671922180308 0.005199507667832985 0 -0.016337068622130215 0.00266002538910392 0 -0.016969790049360767 0.00019767287986308436 0 -0.018702886258512259 0.0015454848133513671 0 -0.014827108475457044 0.0011117617248317705 0 -0.016337068622130215 0.00266002538910392 0 -0.016969790049360767 0.00019767287986308436 0 -0.014827108475457044 0.0011117617248317705 0 -0.016969790049360767 0.00019767287986308436 0 -0.015192164115575656 -0.0011653286486886475 0 -0.0013272134540177846 0.0020759990430531815 0 -0.0027850631883376384 0.002675223463187347 0 -0.0003557055933576621 0.0018475606914957841 0 -0.010329782324717081 0.0014742577839235687 0 -0.0077546294458824098 0.0003272392223692072 0 -0.0013272134540177846 0.0020759990430531815 0 -0.0027850631883376384 0.002675223463187347 0 -0.0038476432945389652 0.0017752557953923042 0 -0.0013272134540177846 0.0020759990430531815 0 -0.0019212515846327284 0.0018040136983679905 0 -0.0015295650031606233 0.0016693568278176628 0 -0.0014372035997536384 0.0020140355944898267 0 -0.0028300168321811173 0.0018408911727570843 0 -0.0038476432945389652 0.0017752557953923042 0 -0.0044045107589342969 0.0026440867509986594 0 -0.0044759984361092608 0.0023322208734549862 0 -0.0027850631883376384 0.002675223463187347 0 -0.0038476432945389652 0.0017752557953923042 0 -0.0044045107589342969 0.0026440867509986594 0 -0.010329782324717081 0.0014742577839235687 0 -0.0089411743073551445 0.0028284967955592238 0 -0.0027850631883376384 0.002675223463187347 0 -0.0044045107589342969 0.0026440867509986594 0 -0.0047356885491994924 0.003390745304638378 0 -0.0058977528480107155 0.0021792400506650744 0 -0.0089411743073551445 0.0028284967955592238 0 -0.004509412372573139 0.0021931536529504634 0 -0.0045108042761877864 0.0023362421360257038 0 -0.0045077330814345274 0.0022191518045368542 0 -0.0046102778084311869 0.0021849283351601952 0 -0.004509412372573139 0.0021931536529504634 0 -0.0045108042761877864 0.0023362421360257038 0 -0.0044045107589342969 0.0026440867509986594 0 -0.0046177203230712977 0.0022645575258372149 0 -0.0045108042761877864 0.0023362421360257038 0 -0.0046102778084311869 0.0021849283351601952 0 -0.0046177203230712977 0.0022645575258372149 0 -0.0045108042761877864 0.0023362421360257038 0 -0.0044045107589342969 0.0026440867509986594 0 -0.0045108042761877864 0.0023362421360257038 0 -0.0044759984361092608 0.0023322208734549862 0 -0.0045108042761877864 0.0023362421360257038 0 -0.0045077330814345274 0.0022191518045368542 0 -0.0044759984361092608 0.0023322208734549862 0 -0.0028300168321811173 0.0018408911727570843 0 -0.0036483354396607813 0.0019258067536725395 0 -0.0045077330814345274 0.0022191518045368542 0 -0.0045915757485588881 0.0021271473495919971 0 -0.0044759984361092608 0.0023322208734549862 0 -0.0038476432945389652 0.0017752557953923042 0 -0.0045915757485588881 0.0021271473495919971 0 -0.0044759984361092608 0.0023322208734549862 0 -0.0019212515846327284 0.0018040136983679905 0 -0.0027456885838445929 0.001767079885332951 0 -0.0023277758360969298 0.0012761927052358096 0 -0.0027456885838445929 0.001767079885332951 0 -0.0023277758360969298 0.0012761927052358096 0 -0.0029590840501093731 0.0012219105705992279 0 -0.0019212515846327284 0.0018040136983679905 0 -0.0023277758360969298 0.0012761927052358096 0 -0.0017048338624476489 0.0013623594057015241 0 -0.0023277758360969298 0.0012761927052358096 0 -0.0020568161033668172 0.00071645487662030558 0 -0.0017048338624476489 0.0013623594057015241 0 -0.0020568161033668172 0.00071645487662030558 0 -0.0014157112133216625 0.00069351136691018199 0 -0.0017766608814037607 0.00020111168035776995 0 -0.0023277758360969298 0.0012761927052358096 0 -0.0020568161033668172 0.00071645487662030558 0 -0.0026042043306422368 0.00077917134088978921 0 -0.0023277758360969298 0.0012761927052358096 0 -0.0026042043306422368 0.00077917134088978921 0 -0.0029590840501093731 0.0012219105705992279 0 0.0001306671478327757 0.00085906449840670175 0 -0.0003557055933576621 0.0018475606914957841 0 -0.0010480605215756572 0.00130054870447256 0 -0.0013272134540177846 0.0020759990430531815 0 -0.0010480605215756572 0.00130054870447256 0 -0.0015295650031606233 0.0016693568278176628 0 -0.0013272134540177846 0.0020759990430531815 0 -0.0003557055933576621 0.0018475606914957841 0 -0.0010480605215756572 0.00130054870447256 0 -0.0010480605215756572 0.00130054870447256 0 -0.0015295650031606233 0.0016693568278176628 0 -0.0017048338624476489 0.0013623594057015241 0 -0.0019212515846327284 0.0018040136983679905 0 -0.0015295650031606233 0.0016693568278176628 0 -0.0017048338624476489 0.0013623594057015241 0 -0.0020568161033668172 0.00071645487662030558 0 -0.0017048338624476489 0.0013623594057015241 0 -0.0014157112133216625 0.00069351136691018199 0 -0.0010480605215756572 0.00130054870447256 0 -0.0017048338624476489 0.0013623594057015241 0 -0.0014157112133216625 0.00069351136691018199 0 -0.0010480605215756572 0.00130054870447256 0 -0.0014157112133216625 0.00069351136691018199 0 -0.00080619923779263981 0.00048975121466183049 0 -0.0014157112133216625 0.00069351136691018199 0 -0.00080619923779263981 0.00048975121466183049 0 -0.0011737066841330448 9.8322969180881049e-06 0 0.0001306671478327757 0.00085906449840670175 0 -0.0010480605215756572 0.00130054870447256 0 -0.00080619923779263981 0.00048975121466183049 0 0.0001306671478327757 0.00085906449840670175 0 -0.00080619923779263981 0.00048975121466183049 0 -0.00034798333197263678 -0.00029715423337690097 0 -0.00080619923779263981 0.00048975121466183049 0 -0.00034798333197263678 -0.00029715423337690097 0 -0.0011737066841330448 9.8322969180881049e-06 0 -0.00034798333197263678 -0.00029715423337690097 0 -0.0011737066841330448 9.8322969180881049e-06 0 -0.0013313745717149494 -0.00045460126968444281 0 -0.0014157112133216625 0.00069351136691018199 0 -0.0011737066841330448 9.8322969180881049e-06 0 -0.0017766608814037607 0.00020111168035776995 0 -0.0011737066841330448 9.8322969180881049e-06 0 -0.0013621913985400115 -0.00040169758163811957 0 -0.0017766608814037607 0.00020111168035776995 0 -0.0013621913985400115 -0.00040169758163811957 0 -0.0013313745717149494 -0.00045460126968444281 0 -0.0013980980716366688 -0.00035891364392624044 0 0.003737171476683634 0.00062089394388259228 0 0.0035093768875820402 0.00054337185625426493 0 0.0035990931853489634 0.00025963797358804418 0 0.0035093768875820402 0.00054337185625426493 0 0.0035990931853489634 0.00025963797358804418 0 0.003162926698296765 0.0003929549122080529 0 -0.0011737066841330448 9.8322969180881049e-06 0 -0.0013621913985400115 -0.00040169758163811957 0 -0.0013313745717149494 -0.00045460126968444281 0 0.0025619214661054572 -3.8923322777715681e-05 0 0.003162926698296765 0.0003929549122080529 0 0.0028127312540292856 0.00047435102554517798 0 0.0025619214661054572 -3.8923322777715681e-05 0 0.0035990931853489634 0.00025963797358804418 0 0.003162926698296765 0.0003929549122080529 0 0.0023240214434744029 0.00039412055886004475 0 0.0025619214661054572 -3.8923322777715681e-05 0 0.0028127312540292856 0.00047435102554517798 0 0.001159549038173161 -9.3063637915681731e-05 0 0.0011578122635474474 -0.00017926696890615203 0 0.0033029627474978939 0.00065891279276729874 0 0.003162926698296765 0.0003929549122080529 0 0.0028127312540292856 0.00047435102554517798 0 -0.0026042043306422368 0.00077917134088978921 0 -0.0024038412838764496 7.3796586947785916e-05 0 -0.0032026867316767619 0.00059285972965402052 0 -0.0020568161033668172 0.00071645487662030558 0 -0.0026042043306422368 0.00077917134088978921 0 -0.0024038412838764496 7.3796586947785916e-05 0 -0.0020568161033668172 0.00071645487662030558 0 -0.0024038412838764496 7.3796586947785916e-05 0 -0.0017766608814037607 0.00020111168035776995 0 -0.0013621913985400115 -0.00040169758163811957 0 -0.0024038412838764496 7.3796586947785916e-05 0 -0.0017766608814037607 0.00020111168035776995 0 -0.0014175148138798224 -0.00039435342892033676 0 -0.0014582154670550241 -0.00020133640400139217 0 -0.0013980980716366688 -0.00035891364392624044 0 0.0011287800990976908 0.00096889327898449335 0 0.0011578122635474474 -0.00017926696890615203 0 -0.0013954308471049539 -0.00036514017626580286 0 -0.0019151424108179603 -6.9565230008883781e-05 0 -0.0013621913985400115 -0.00040169758163811957 0 -0.0014582154670550241 -0.00020133640400139217 0 -0.0013980980716366688 -0.00035891364392624044 0 -0.0014175148138798224 -0.00039435342892033676 0 -0.0013313745717149494 -0.00045460126968444281 0 -0.0013980980716366688 -0.00035891364392624044 0 -0.0014175148138798224 -0.00039435342892033676 0 -0.0014582154670550241 -0.00020133640400139217 0 -0.0016455140788807789 -0.00030888786545525503 0 -0.0019151424108179603 -6.9565230008883781e-05 0 -0.002472406334062688 0.0003177162102677932 0 -0.0014582154670550241 -0.00020133640400139217 0 -0.0016455140788807789 -0.00030888786545525503 0 -0.0017059405872855574 1.0247622828439639e-05 0 -0.0017059405872855574 1.0247622828439639e-05 0 -0.0018919686719266584 -2.0566605376720893e-05 0 -0.0020423861724777059 0.00020608950570052113 0 -0.002472406334062688 0.0003177162102677932 0 -0.002842649955827981 0.0004901758117811007 0 -0.0016455140788807789 -0.00030888786545525503 0 -0.0017059405872855574 1.0247622828439639e-05 0 -0.0018919686719266584 -2.0566605376720893e-05 0 -0.0016455140788807789 -0.00030888786545525503 0 -0.0018919686719266584 -2.0566605376720893e-05 0 -0.0020118541643839262 -0.00018713224926509642 0 -0.0004633603103332134 0.00064543585349645047 0 -0.0005055183278640683 0.0014899521696433641 0 0.001002670730896302 0.0038926230940568535 0 0.001220208565954757 0.0044854733886770066 0 0.00049166948496341656 0.004088871620994027 0 -0.0005055183278640683 0.0014899521696433641 0 -0.0011536140086139633 0.003243845690606068 0 -0.00015736512506421991 0.0036473986908019877 0 0.00049166948496341656 0.004088871620994027 0 -0.00010970514400784887 0.0048207360821230765 0 0.001220208565954757 0.0044854733886770066 0 0.00049166948496341656 0.004088871620994027 0 -0.00010970514400784887 0.0048207360821230765 0 -0.0020359367212373133 -2.539788423757869e-05 0 -0.0020917415152492398 0.00010132573324659002 0 -0.0022880179623636595 3.9797564532410773e-05 0 -0.0020917415152492398 0.00010132573324659002 0 -0.0022880179623636595 3.9797564532410773e-05 0 -0.0023109572964243978 0.00031679519790603296 0 -0.0005055183278640683 0.0014899521696433641 0 -0.002046829561338016 -0.00030145064824343493 0 -0.0018919686719266584 -2.0566605376720893e-05 0 -0.0020118541643839262 -0.00018713224926509642 0 -0.0020917415152492398 0.00010132573324659002 0 -0.0018919686719266584 -2.0566605376720893e-05 0 -0.0020917415152492398 0.00010132573324659002 0 -0.0020423861724777059 0.00020608950570052113 0 -0.0038358092879494593 0.001048373045797156 0 -0.0040626206908052848 0.0014991601261787734 0 -0.0037765999270941274 0.0014479628950112918 0 -0.0038358092879494593 0.001048373045797156 0 -0.0037765999270941274 0.0014479628950112918 0 -0.0034532752621915649 0.0012212253100820449 0 -0.0038358092879494593 0.001048373045797156 0 -0.0040626206908052848 0.0014991601261787734 0 -0.0043012387759750748 0.0014011991382296 0 -0.002842649955827981 0.0004901758117811007 0 -0.0035715210337505022 0.0017828148587948518 0 -0.0020917415152492398 0.00010132573324659002 0 -0.0020423861724777059 0.00020608950570052113 0 -0.0023109572964243978 0.00031679519790603296 0 -0.0040626206908052848 0.0014991601261787734 0 -0.0040727951871489263 0.0018525614910987966 0 -0.0040453120732677024 0.0018142274820200743 0 -0.0040626206908052848 0.0014991601261787734 0 -0.0043012387759750748 0.0014011991382296 0 -0.0040727951871489263 0.0018525614910987966 0 -0.0037765999270941274 0.0014479628950112918 0 -0.003466565610477668 0.0017609089312692985 0 -0.0040453120732677024 0.0018142274820200743 0 -0.0040626206908052848 0.0014991601261787734 0 -0.0037765999270941274 0.0014479628950112918 0 -0.0040453120732677024 0.0018142274820200743 0 -0.0029590840501093731 0.0012219105705992279 0 -0.0034532752621915649 0.0012212253100820449 0 -0.003466565610477668 0.0017609089312692985 0 -0.0037765999270941274 0.0014479628950112918 0 -0.0034532752621915649 0.0012212253100820449 0 -0.003466565610477668 0.0017609089312692985 0 -0.0027456885838445929 0.001767079885332951 0 -0.0029590840501093731 0.0012219105705992279 0 -0.003466565610477668 0.0017609089312692985 0 -0.0032026867316767619 0.00059285972965402052 0 -0.0029590840501093731 0.0012219105705992279 0 -0.0034532752621915649 0.0012212253100820449 0 -0.0026042043306422368 0.00077917134088978921 0 -0.0032026867316767619 0.00059285972965402052 0 -0.0029590840501093731 0.0012219105705992279 0 -0.0032026867316767619 0.00059285972965402052 0 -0.0038358092879494593 0.001048373045797156 0 -0.0034532752621915649 0.0012212253100820449 0 0.0022102524102622393 0.0032671617603088287 0 -0.00014303477633782752 0.0045998886434559976 0 -7.9647716308415921e-05 0.0036825815486768291 0 -0.00014303477633782752 0.0045998886434559976 0 -0.0010312751801634403 0.0042140168248504346 0 -7.9647716308415921e-05 0.0036825815486768291 0 0.0047372637404568896 0.0011866644208777966 0 0.0044379657752820698 0.0024764012330372584 0 0.0051423585424686027 0.0016483177077194744 0 0.0047372637404568896 0.0011866644208777966 0 0.0040960194477733334 0.0017236764960744859 0 0.0044379657752820698 0.0024764012330372584 0 0.0021473758226953823 0.003451161132541479 0 0.0020836901333025071 0.0030109137903421984 0 -0.00014303477633782752 0.0045998886434559976 0 -0.0010094360481838227 0.0043465946511321955 0 -0.0010312751801634403 0.0042140168248504346 0 -0.0010015164204655474 0.0042302821265180575 0 -0.0015794620705204695 0.0044668516391171489 0 -0.0010312751801634403 0.0042140168248504346 0 -0.0021154410027672613 0.0044154150820527481 0 -0.0018388619261031263 0.0035194579544793928 0 -0.0010094360481838227 0.0043465946511321955 0 -0.0010312751801634403 0.0042140168248504346 0 -0.00082746625171069245 0.0044105638036912257 0 -0.0010094360481838227 0.0043465946511321955 0 -0.00082746625171069245 0.0044105638036912257 0 -0.00077296734326825892 0.0042136613866897267 0 -0.00082746625171069245 0.0044105638036912257 0 -0.00077296734326825892 0.0042136613866897267 0 -0.00053313194417652836 0.004126685186831648 0 -0.00062396461568697825 0.0036656610242428163 0 -0.0010094360481838227 0.0043465946511321955 0 -0.00077296734326825892 0.0042136613866897267 0 4.138685825676679e-05 0.004272085187963297 0 -0.0011536140086139633 0.003243845690606068 0 -0.00082746625171069245 0.0044105638036912257 0 -0.00053313194417652836 0.004126685186831648 0 -0.00029767759632697054 0.0044311394123004201 0 -0.00015736512506421991 0.0036473986908019877 0 -0.00053313194417652836 0.004126685186831648 0 -0.00029767759632697054 0.0044311394123004201 0 -0.00062396461568697825 0.0036656610242428163 0 -0.00077296734326825892 0.0042136613866897267 0 -0.00053313194417652836 0.004126685186831648 0 -0.0011536140086139633 0.003243845690606068 0 -0.0035715210337505022 0.0017828148587948518 0 -0.0015794620705204695 0.0044668516391171489 0 -0.0011536140086139633 0.003243845690606068 0 -0.0021154410027672613 0.0044154150820527481 0 -0.003059063207940227 0.0046443929574602966 0 -0.0031231408723395616 0.003150296118320853 0 -0.0021154410027672613 0.0044154150820527481 0 -0.0031231408723395616 0.003150296118320853 0 -0.0018388619261031263 0.0035194579544793928 0 -0.0041823787158324051 0.0026892106699194823 0 -0.0033878316810158002 0.0025120834740204575 0 -0.0036474511068562117 0.001718679300963924 0 -0.0035715210337505022 0.0017828148587948518 0 -0.0026501452896983439 0.0027614007916071724 0 -0.0035715210337505022 0.0017828148587948518 0 -0.0042558961273069492 0.001964393807766902 0 -0.0041823787158324051 0.0026892106699194823 0 -0.0036474511068562117 0.001718679300963924 0 -0.0040727951871489263 0.0018525614910987966 0 -0.0018887200150722672 0.0027497993145250998 0 -0.0018388619261031263 0.0035194579544793928 0 -0.0010372349479849988 0.0031999632006489455 0 -0.0031231408723395616 0.003150296118320853 0 -0.0018887200150722672 0.0027497993145250998 0 -0.0018388619261031263 0.0035194579544793928 0 -0.0010312751801634403 0.0042140168248504346 0 -0.0010372349479849988 0.0031999632006489455 0 -7.9647716308415921e-05 0.0036825815486768291 0 -0.0010312751801634403 0.0042140168248504346 0 -0.0018388619261031263 0.0035194579544793928 0 -0.0010372349479849988 0.0031999632006489455 0 -0.0026501452896983439 0.0027614007916071724 0 -0.0012809268240906637 0.0022144398182181225 0 -0.0018887200150722672 0.0027497993145250998 0 -0.0010372349479849988 0.0031999632006489455 0 -0.0012601806760543233 0.0022527453975299165 0 0.0010171973804347489 0.0020601121899801525 0 -0.0012601806760543233 0.0022527453975299165 0 0.00046237705573127564 0.0030369168771673767 0 -0.0010372349479849988 0.0031999632006489455 0 -0.0012601806760543233 0.0022527453975299165 0 0.00046237705573127564 0.0030369168771673767 0 -0.0010372349479849988 0.0031999632006489455 0 0.00046237705573127564 0.0030369168771673767 0 -7.9647716308415921e-05 0.0036825815486768291 0 -0.0067498017624230983 5.3447033761254011e-05 0 -0.0051692714398315198 0.0011998832727744845 0 -0.0032526038689419728 0.0007800769026233182 0 -0.0036696895192603871 6.501746667826544e-05 0 -0.0029875054442925282 0.00069312500421072124 0 -0.0074104772080875667 0.0013920948870292937 0 -0.0051692714398315198 0.0011998832727744845 0 -0.0065752647448901694 0.0021343650447217788 0 0.0010171973804347489 0.0020601121899801525 0 -0.0012601806760543233 0.0022527453975299165 0 -0.00023258457648115086 0.0015600543146461574 0 0.00060690960125572304 0.00027033127313665735 0 -0.00023258457648115086 0.0015600543146461574 0 -0.0032526038689419728 0.0007800769026233182 0 -0.0012601806760543233 0.0022527453975299165 0 -0.00023258457648115086 0.0015600543146461574 0 -0.0032526038689419728 0.0007800769026233182 0 -0.0033878316810158002 0.0025120834740204575 0 -0.0012601806760543233 0.0022527453975299165 0 -0.0032526038689419728 0.0007800769026233182 0 -0.0032526038689419728 0.0007800769026233182 0 -0.0034292745580063498 0.0015757379989159771 0 -0.0048880620633826666 0.0021574174879881751 0 -0.0051692714398315198 0.0011998832727744845 0 -0.0032526038689419728 0.0007800769026233182 0 -0.0048880620633826666 0.0021574174879881751 0 -0.0034292745580063498 0.0015757379989159771 0 -0.0036474511068562117 0.001718679300963924 0 -0.0037119091737094221 0.0016985694502925739 0 -0.0032526038689419728 0.0007800769026233182 0 -0.0034292745580063498 0.0015757379989159771 0 -0.0036474511068562117 0.001718679300963924 0 -0.0033878316810158002 0.0025120834740204575 0 -0.0032526038689419728 0.0007800769026233182 0 -0.0036474511068562117 0.001718679300963924 0 -0.0036474511068562117 0.001718679300963924 0 -0.0037119091737094221 0.0016985694502925739 0 -0.0040727951871489263 0.0018525614910987966 0 -0.0034292745580063498 0.0015757379989159771 0 -0.0037119091737094221 0.0016985694502925739 0 -0.0031851858662363354 0.0020040731515716371 0 -0.0037119091737094221 0.0016985694502925739 0 -0.0039569029926879076 0.0017535072315321772 0 -0.003988214564231935 0.001769156360576774 0 -0.0036612246325241791 0.0017851952952440788 0 -0.003586262129956328 0.0018885847075037325 0 -0.0039569029926879076 0.0017535072315321772 0 -0.0040139984947932042 0.0017313657978201412 0 -0.0040691436783467372 0.0017875781426808261 0 -0.0031851858662363354 0.0020040731515716371 0 -0.0032413668162971062 0.0024874885547296294 0 -0.0034395393302286315 0.0023645373150893031 0 -0.003586262129956328 0.0018885847075037325 0 -0.0043235415096806659 0.0026001005504611464 0 -0.0031851858662363354 0.0020040731515716371 0 -0.0029295901375188385 0.0028360641024519685 0 -0.0032413668162971062 0.0024874885547296294 0 -0.0029295901375188385 0.0028360641024519685 0 -0.0032834023913522687 0.0028851711452075723 0 -0.0032413668162971062 0.0024874885547296294 0 -0.0032834023913522687 0.0028851711452075723 0 -0.0032413668162971062 0.0024874885547296294 0 -0.0034395393302286315 0.0023645373150893031 0 -0.0032834023913522687 0.0028851711452075723 0 -0.0037701835158861206 0.0029810656649751298 0 -0.0034395393302286315 0.0023645373150893031 0 -0.0037701835158861206 0.0029810656649751298 0 -0.0034395393302286315 0.0023645373150893031 0 -0.0039180189136688382 0.0025763258533155033 0 -0.0034292745580063498 0.0015757379989159771 0 -0.0031851858662363354 0.0020040731515716371 0 -0.0034395393302286315 0.0023645373150893031 0 -0.0034292745580063498 0.0015757379989159771 0 -0.0034395393302286315 0.0023645373150893031 0 -0.0039180189136688382 0.0025763258533155033 0 -0.0048880620633826666 0.0021574174879881751 0 -0.0039180189136688382 0.0025763258533155033 0 -0.0059529018761909688 0.0038341677887292502 0 -0.0034292745580063498 0.0015757379989159771 0 -0.0048880620633826666 0.0021574174879881751 0 -0.0039180189136688382 0.0025763258533155033 0 -0.0040086429686419034 0.0027883934058805619 0 -0.0039804694215427924 0.0043714076548456316 0 -0.0037701835158861206 0.0029810656649751298 0 -0.0039180189136688382 0.0025763258533155033 0 -0.0043919296213344458 0.0034824488844270455 0 -0.0039180189136688382 0.0025763258533155033 0 -0.0059529018761909688 0.0038341677887292502 0 -0.0041567377897903535 0.0054616645766619471 0 -0.0079335566480707095 0.003838046154403254 0 -0.0059529018761909688 0.0038341677887292502 0 -0.0067372401635897895 0.0031456924600745304 0 -0.0048880620633826666 0.0021574174879881751 0 -0.0059529018761909688 0.0038341677887292502 0 -0.0067372401635897895 0.0031456924600745304 0 -0.0051692714398315198 0.0011998832727744845 0 -0.0048880620633826666 0.0021574174879881751 0 -0.0065752647448901694 0.0021343650447217788 0 -0.0048880620633826666 0.0021574174879881751 0 -0.0067372401635897895 0.0031456924600745304 0 -0.0065752647448901694 0.0021343650447217788 0 -0.0044135315950778351 0.0020772383393993996 0 -0.0042023621184266021 0.0019491359217584981 0 -0.0043591603049428296 0.0019546812921066685 0 -0.0045077330814345274 0.0022191518045368542 0 -0.0044135315950778351 0.0020772383393993996 0 -0.0044626882601237986 0.0020574862216094785 0 -0.0044135315950778351 0.0020772383393993996 0 -0.0043591603049428296 0.0019546812921066685 0 -0.0044626882601237986 0.0020574862216094785 0 -0.004509412372573139 0.0021931536529504634 0 -0.0045077330814345274 0.0022191518045368542 0 -0.0044626882601237986 0.0020574862216094785 0 -0.0045915757485588881 0.0021271473495919971 0 -0.0044135315950778351 0.0020772383393993996 0 -0.0043199396287863772 0.0021095766998340936 0 -0.0036483354396607813 0.0019258067536725395 0 -0.0039069636311647171 0.0019237744156719273 0 -0.0045077330814345274 0.0022191518045368542 0 -0.0045915757485588881 0.0021271473495919971 0 -0.0044135315950778351 0.0020772383393993996 0 -0.0044135315950778351 0.0020772383393993996 0 -0.0043199396287863772 0.0021095766998340936 0 -0.0042023621184266021 0.0019491359217584981 0 -0.0039069636311647171 0.0019237744156719273 0 -0.0040573545723578365 0.0018392286061689621 0 -0.0040453120732677024 0.0018142274820200743 0 -0.0040878850430606413 0.0018694166868380394 0 -0.0042023621184266021 0.0019491359217584981 0 -0.0043199396287863772 0.0021095766998340936 0 -0.0040453120732677024 0.0018142274820200743 0 -0.0042023621184266021 0.0019491359217584981 0 -0.0037119091737094221 0.0016985694502925739 0 -0.0040727951871489263 0.0018525614910987966 0 -0.0040878850430606413 0.0018694166868380394 0 -0.0040727951871489263 0.0018525614910987966 0 -0.0040453120732677024 0.0018142274820200743 0 -0.0040878850430606413 0.0018694166868380394 0 -0.0037119091737094221 0.0016985694502925739 0 -0.0040878850430606413 0.0018694166868380394 0 -0.003988214564231935 0.001769156360576774 0 -0.0040878850430606413 0.0018694166868380394 0 -0.003988214564231935 0.001769156360576774 0 -0.0041264697794829754 0.0018549395771124417 0 -0.0042023621184266021 0.0019491359217584981 0 -0.0041264697794829754 0.0018549395771124417 0 -0.004223584558096123 0.001869400651272532 0 -0.0040878850430606413 0.0018694166868380394 0 -0.0042023621184266021 0.0019491359217584981 0 -0.0041264697794829754 0.0018549395771124417 0 -0.0042023621184266021 0.0019491359217584981 0 -0.004223584558096123 0.001869400651272532 0 -0.0043591603049428296 0.0019546812921066685 0 -0.004223584558096123 0.001869400651272532 0 -0.0040691436783467372 0.0017875781426808261 0 -0.0041714264523300586 0.0017676243615006551 0 -0.0041264697794829754 0.0018549395771124417 0 -0.004223584558096123 0.001869400651272532 0 -0.0040691436783467372 0.0017875781426808261 0 -0.0039569029926879076 0.0017535072315321772 0 -0.003988214564231935 0.001769156360576774 0 -0.0040691436783467372 0.0017875781426808261 0 -0.003988214564231935 0.001769156360576774 0 -0.0041264697794829754 0.0018549395771124417 0 -0.0040691436783467372 0.0017875781426808261 0 -0.0040139984947932042 0.0017313657978201412 0 -0.0041714264523300586 0.0017676243615006551 0 -0.0042238806606041505 0.0016260435808909226 0 -0.0040139984947932042 0.0017313657978201412 0 -0.0040691436783467372 0.0017875781426808261 0 -0.0041714264523300586 0.0017676243615006551 0 -0.0041714264523300586 0.0017676243615006551 0 -0.0043487620769698029 0.0018183275766826754 0 -0.0042238806606041505 0.0016260435808909226 0 -0.004223584558096123 0.001869400651272532 0 -0.0041714264523300586 0.0017676243615006551 0 -0.0043487620769698029 0.0018183275766826754 0 -0.0043487620769698029 0.0018183275766826754 0 -0.0044541417319518819 0.0018739712775268935 0 -0.0044818196724914277 0.0017420043588422221 0 -0.0043487620769698029 0.0018183275766826754 0 -0.0043591603049428296 0.0019546812921066685 0 -0.0044541417319518819 0.0018739712775268935 0 -0.004223584558096123 0.001869400651272532 0 -0.0043487620769698029 0.0018183275766826754 0 -0.0043591603049428296 0.0019546812921066685 0 -0.0044626882601237986 0.0020574862216094785 0 -0.0045322448656983328 0.0019173745561786983 0 -0.0044541417319518819 0.0018739712775268935 0 -0.0045468986999631219 0.0020500082710860333 0 -0.0044626882601237986 0.0020574862216094785 0 -0.0045322448656983328 0.0019173745561786983 0 -0.0043591603049428296 0.0019546812921066685 0 -0.0044626882601237986 0.0020574862216094785 0 -0.0044541417319518819 0.0018739712775268935 0 -0.0045322448656983328 0.0019173745561786983 0 -0.0044541417319518819 0.0018739712775268935 0 -0.0045721959993270259 0.0017897212714099032 0 -0.0044541417319518819 0.0018739712775268935 0 -0.0045721959993270259 0.0017897212714099032 0 -0.0044818196724914277 0.0017420043588422221 0 -0.0045721959993270259 0.0017897212714099032 0 -0.0045845497318851292 0.0017683185428925591 0 -0.00466433229238931 0.00177404128828275 0 -0.0045721959993270259 0.0017897212714099032 0 -0.0044818196724914277 0.0017420043588422221 0 -0.0045845497318851292 0.0017683185428925591 0 -0.0044818196724914277 0.0017420043588422221 0 -0.0045842367968710451 0.0017581981590864394 0 -0.0045845497318851292 0.0017683185428925591 0 -0.0043487620769698029 0.0018183275766826754 0 -0.0044818196724914277 0.0017420043588422221 0 -0.0042238806606041505 0.0016260435808909226 0 -0.0033924806505834801 0.0013857500636850991 0 -0.0071431943318837404 0.002787226614975605 0 -0.006607977334526012 0.0033824848007955638 0 -0.0067705758858260107 0.0032554640941677257 0 -0.0066492366307095013 0.0032260126485686414 0 -0.0043235415096806659 0.0026001005504611464 0 -0.0071431943318837404 0.002787226614975605 0 -0.0071431943318837404 0.002787226614975605 0 -0.0087309085721937272 0.0045757367035263972 0 -0.011840324732997252 0.0052620843390688244 0 -0.011999980559884009 0.0056977342764943286 0 -0.012302296758816885 0.0053889245564087774 0 -0.0071431943318837404 0.002787226614975605 0 -0.0085357267146273161 0.0044028765160042073 0 -0.011840324732997252 0.0052620843390688244 0 -0.011749680327073377 0.0056667963126612103 0 -0.011999980559884009 0.0056977342764943286 0 -0.011840324732997252 0.0052620843390688244 0 -0.011749680327073377 0.0056667963126612103 0 -0.011410114325677468 0.0057077331389166607 0 -0.011749680327073377 0.0056667963126612103 0 -0.011749736523545115 0.0059990448107793285 0 -0.011410114325677468 0.0057077331389166607 0 -0.011749680327073377 0.0056667963126612103 0 -0.011749736523545115 0.0059990448107793285 0 -0.011999980559884009 0.0056977342764943286 0 -0.011749736523545115 0.0059990448107793285 0 -0.011999980559884009 0.0056977342764943286 0 -0.012278757094872899 0.006126415527026338 0 -0.011999980559884009 0.0056977342764943286 0 -0.012278757094872899 0.006126415527026338 0 -0.012302296758816885 0.0053889245564087774 0 -0.015448943037059586 0.0081906888460159168 0 -0.0087309085721937272 0.0045757367035263972 0 -0.015448943037059586 0.0081906888460159168 0 -0.022070642748461294 0.010135147705056049 0 -0.016559410432890304 0.0069473878238420191 0 -0.015448943037059586 0.0081906888460159168 0 -0.01975001051795925 0.0072991402202988026 0 -0.019580622882882596 0.0077523135348405514 0 -0.019622062802732466 0.0068065407293630342 0 -0.020168142888231134 0.0076489601766618299 0 -0.019580622882882596 0.0077523135348405514 0 -0.020061844816115948 0.0073718748304879124 0 -0.01975001051795925 0.0072991402202988026 0 -0.019580622882882596 0.0077523135348405514 0 -0.020061844816115948 0.0073718748304879124 0 -0.01975001051795925 0.0072991402202988026 0 -0.020061844816115948 0.0073718748304879124 0 -0.02037176547439893 0.0069668180757745174 0 -0.020168142888231134 0.0076489601766618299 0 -0.020061844816115948 0.0073718748304879124 0 -0.020300195925218069 0.0073422284087152996 0 -0.020061844816115948 0.0073718748304879124 0 -0.020300195925218069 0.0073422284087152996 0 -0.02037176547439893 0.0069668180757745174 0 -0.020300195925218069 0.0073422284087152996 0 -0.020637739332714778 0.0073501196953048515 0 -0.02037176547439893 0.0069668180757745174 0 -0.020168142888231134 0.0076489601766618299 0 -0.020637739332714778 0.0073501196953048515 0 -0.020673439379834371 0.0077359895426866269 0 -0.020168142888231134 0.0076489601766618299 0 -0.020300195925218069 0.0073422284087152996 0 -0.020637739332714778 0.0073501196953048515 0 -0.015566084087880216 0.0056512718182200831 0 -0.021107773278552899 0.0080911336230680905 0 -0.020637739332714778 0.0073501196953048515 0 -0.021012118906296326 0.0074609995402415636 0 -0.020673439379834371 0.0077359895426866269 0 -0.020637739332714778 0.0073501196953048515 0 -0.021012118906296326 0.0074609995402415636 0 -0.020977977180198851 0.0070276046588770534 0 -0.021081071314599253 0.0075825061578728616 0 -0.020977977180198851 0.0070276046588770534 0 -0.021513840835949496 0.0072184600452100877 0 -0.0045845497318851292 0.0017683185428925591 0 -0.0046570627605324669 0.0017569859977319962 0 -0.00466433229238931 0.00177404128828275 0 -0.015566084087880216 0.0056512718182200831 0 -0.011727872945339061 0.0036081301864483882 0 -0.0047534138258975376 0.0017654719430800693 0 -0.0046570627605324669 0.0017569859977319962 0 -0.00466433229238931 0.00177404128828275 0 -0.015566084087880216 0.0056512718182200831 0 -0.013329234662199489 0.0051718952353639099 0 -0.011749736523545115 0.0059990448107793285 0 -0.011410114325677468 0.0057077331389166607 0 -0.011243011025392788 0.0058691185680870483 0 -0.016559410432890304 0.0069473878238420191 0 -0.013329234662199489 0.0051718952353639099 0 -0.0085357267146273161 0.0044028765160042073 0 -0.013329234662199489 0.0051718952353639099 0 -0.0061257988975954216 0.0077463652793113872 0 -0.0079542300684509164 0.0065008089205907055 0 -0.0073294564701293363 0.0097791587744044828 0 -0.0061257988975954216 0.0077463652793113872 0 -0.0055740180590720494 0.0094145226794684189 0 -0.0073294564701293363 0.0097791587744044828 0 -0.0061257988975954216 0.0077463652793113872 0 -0.0079542300684509164 0.0065008089205907055 0 -0.0041567377897903535 0.0054616645766619471 0 -0.0059529018761909688 0.0038341677887292502 0 -0.0079542300684509164 0.0065008089205907055 0 -0.0041567377897903535 0.0054616645766619471 0 -0.0079335566480707095 0.003838046154403254 0 -0.0059529018761909688 0.0038341677887292502 0 -0.0079542300684509164 0.0065008089205907055 0 -0.010621205683676993 0.0077026126016873165 0 -0.0086886927425694795 0.0071064876101366477 0 -0.010708043555306105 0.0081374399486450148 0 -0.0061257988975954216 0.0077463652793113872 0 -0.0041567377897903535 0.0054616645766619471 0 -0.004729476411577724 0.0095072977148925198 0 -0.0043919296213344458 0.0034824488844270455 0 -0.0047111357111934687 0.0046651033999404777 0 -0.0041181186800675921 0.0040295584796466877 0 -0.0039804694215427924 0.0043714076548456316 0 -0.0075097624498450715 0.0073559155593928768 0 -0.0061257988975954216 0.0077463652793113872 0 -0.0055740180590720494 0.0094145226794684189 0 -0.004729476411577724 0.0095072977148925198 0 -0.016031734590718574 0.0081238552727906001 0 -0.014224252000933224 0.0068356683029725833 0 -0.019689483015906256 0.0095022564393036149 0 -0.0075097624498450715 0.0073559155593928768 0 -0.0091368397083771667 0.0060619239853039074 0 -0.0047111357111934687 0.0046651033999404777 0 -0.0036037384860498939 0.0043269103607233746 0 -0.0041181186800675921 0.0040295584796466877 0 -0.0091368397083771667 0.0060619239853039074 0 -0.013006636531160931 0.010865072544508502 0 -0.0036037384860498939 0.0043269103607233746 0 -0.0037699946733098658 0.0036525391933050757 0 -0.0033121936788278513 0.0041796652415783423 0 -0.0036037384860498939 0.0043269103607233746 0 -0.0041181186800675921 0.0040295584796466877 0 -0.0037699946733098658 0.0036525391933050757 0 -0.0032834023913522687 0.0028851711452075723 0 -0.0037701835158861206 0.0029810656649751298 0 -0.0037699946733098658 0.0036525391933050757 0 -0.0032834023913522687 0.0028851711452075723 0 -0.0037699946733098658 0.0036525391933050757 0 -0.0033121936788278513 0.0041796652415783423 0 -0.0043919296213344458 0.0034824488844270455 0 -0.0041181186800675921 0.0040295584796466877 0 -0.0037699946733098658 0.0036525391933050757 0 -0.0037701835158861206 0.0029810656649751298 0 -0.0043919296213344458 0.0034824488844270455 0 -0.0037699946733098658 0.0036525391933050757 0 -0.0029295901375188385 0.0028360641024519685 0 -0.002906376970524269 0.0041029508078457436 0 -0.00310636281708792 0.0040350340934394652 0 -0.0029295901375188385 0.0028360641024519685 0 -0.0032834023913522687 0.0028851711452075723 0 -0.00310636281708792 0.0040350340934394652 0 -0.0032834023913522687 0.0028851711452075723 0 -0.00310636281708792 0.0040350340934394652 0 -0.003434455254185969 0.0041882118929302305 0 -0.0023751585455186602 0.0026552309402724248 0 -0.0072766709218654952 0.0048992324189453098 0 -0.0043235415096806659 0.0026001005504611464 0 -0.0087309085721937272 0.0045757367035263972 0 -0.011706812784595863 0.0054622317799075584 0 -0.012927532327891417 0.0056658795657737676 0 -0.012989676508718608 0.0085913633958904691 0 -0.014224252000933224 0.0068356683029725833 0 -0.012736383649594941 0.0061255205884325915 0 -0.012797012036287718 0.011960389396071183 0 -0.0087309085721937272 0.0045757367035263972 0 -0.0072766709218654952 0.0048992324189453098 0 -0.002906376970524269 0.0041029508078457436 0 -0.00310636281708792 0.0040350340934394652 0 -0.0034579295393410469 0.0042157445570252475 0 -0.0091368397083771667 0.0060619239853039074 0 -0.0072766709218654952 0.0048992324189453098 0 -0.0039434505509634817 0.0037421842086889511 0 -0.0072766709218654952 0.0048992324189453098 0 -0.011392970704669188 0.0089170963977288943 0 -0.011706812784595863 0.0054622317799075584 0 -0.012989676508718608 0.0085913633958904691 0 -0.0072766709218654952 0.0048992324189453098 0 -0.015634133825029744 0.011357992125903655 0 -0.011392970704669188 0.0089170963977288943 0 -0.012989676508718608 0.0085913633958904691 0 -0.012521331375198839 0.0091546360855948323 0 -0.018967868867206434 0.010732773749519999 0 -0.018145602470545027 0.010567788035333195 0 -0.019138235125205235 0.009425175922787422 0 -0.015448943037059586 0.0081906888460159168 0 -0.017786440060119285 0.011549671157618298 0 -0.023771961429056701 0.013221550576338411 0 -0.023100904495251158 0.01421042372027044 0 -0.023143033300785664 0.012338850544088112 0 -0.019153717164080573 0.013799504945943581 0 -0.024180713401227072 0.015108575397522139 0 -0.023771961429056701 0.013221550576338411 0 -0.023547293228478094 0.014301964763306535 0 -0.024824321299247609 0.012847887544994267 0 -0.017786440060119285 0.011549671157618298 0 -0.022070642748461294 0.010135147705056049 0 -0.023771961429056701 0.013221550576338411 0 -0.023100904495251158 0.01421042372027044 0 -0.023547293228478094 0.014301964763306535 0 -0.019153717164080573 0.013799504945943581 0 -0.017786440060119285 0.011549671157618298 0 -0.015634133825029744 0.011357992125903655 0 -0.017786440060119285 0.011549671157618298 0 -0.016773935353967949 0.012111562780007483 0 -0.016778968409878841 0.011452146019514225 0 -0.017257851725652924 0.011549398029149168 0 -0.015634133825029744 0.011357992125903655 0 -0.019153717164080573 0.013799504945943581 0 -0.013190359526603437 0.011830637009810066 0 -0.013220946961797545 0.013057334595568052 0 -0.015907792233923423 0.011104204679532471 0 -0.025073451275874837 0.019138260351044101 0 -0.023218364964554036 0.018841228308628128 0 -0.02519675441786667 0.01722857244247487 0 -0.019153717164080573 0.013799504945943581 0 -0.020566804736628027 0.016492278022850346 0 -0.013220946961797545 0.013057334595568052 0 -0.016940492436208408 0.013841899677781662 0 -0.015907792233923423 0.011104204679532471 0 -0.016940492436208408 0.013841899677781662 0 -0.015907792233923423 0.011104204679532471 0 -0.018309758270426978 0.012277295378437789 0 -0.016031734590718574 0.0081238552727906001 0 -0.014224252000933224 0.0068356683029725833 0 -0.012797012036287718 0.011960389396071183 0 -0.016031734590718574 0.0081238552727906001 0 -0.013190359526603437 0.011830637009810066 0 -0.015907792233923423 0.011104204679532471 0 -0.015118996044193518 0.0088742353077081795 0 -0.015634133825029744 0.011357992125903655 0 -0.016031734590718574 0.0081238552727906001 0 -0.015907792233923423 0.011104204679532471 0 -0.019689483015906256 0.0095022564393036149 0 -0.015907792233923423 0.011104204679532471 0 -0.019689483015906256 0.0095022564393036149 0 -0.018309758270426978 0.012277295378437789 0 -0.0075097624498450715 0.0073559155593928768 0 -0.013006636531160931 0.010865072544508502 0 -0.0055740180590720494 0.0094145226794684189 0 -0.004729476411577724 0.0095072977148925198 0 -0.0048707167671984122 0.010573921816769366 0 -0.020566804736628027 0.016492278022850346 0 -0.018586686352883887 0.015048156184051385 0 -0.023218364964554036 0.018841228308628128 0 -0.021123478531401736 0.018579676146480813 0 -0.022377444375570436 0.017238402220381206 0 -0.019689483015906256 0.0095022564393036149 0 -0.018309758270426978 0.012277295378437789 0 -0.020676535258953004 0.014632900865558929 0 -0.013006636531160931 0.010865072544508502 0 -0.018586686352883887 0.015048156184051385 0 -0.016940492436208408 0.013841899677781662 0 -0.018309758270426978 0.012277295378437789 0 -0.020676535258953004 0.014632900865558929 0 -0.013136853174169703 0.012757601598319694 0 -0.018586686352883887 0.015048156184051385 0 -0.0141561926319782 0.013056765504978224 0 -0.015196687003108776 0.01334132110497328 0 -0.014503902699833437 0.014197172561984441 0 -0.013006636531160931 0.010865072544508502 0 -0.011161868524524063 0.013143147845265577 0 -0.015398058075674636 0.014593615877442765 0 -0.015196687003108776 0.01334132110497328 0 -0.014503902699833437 0.014197172561984441 0 -0.0048707167671984122 0.010573921816769366 0 -0.008464392294911376 0.012367100181723441 0 -0.0073294564701293363 0.0097791587744044828 0 -0.0055740180590720494 0.0094145226794684189 0 -0.0048707167671984122 0.010573921816769366 0 -0.0073294564701293363 0.0097791587744044828 0 -0.018218219189741362 0.014168515078161621 0 -0.017764537697407098 0.011266547014221471 0 -0.015334490680546412 0.01115396424493679 0 -0.016038840962450722 0.01191277546212996 0 -0.016451738974234069 0.010413139059088599 0 -0.014718019715691647 0.012002144089436529 0 -0.015334490680546412 0.01115396424493679 0 -0.016038840962450722 0.01191277546212996 0 -0.020308679055117143 0.016101108419491739 0 -0.021575270847255339 0.013421146548764872 0 -0.019051369892232488 0.01259728466551706 0 -0.018586686352883887 0.015048156184051385 0 -0.018218219189741362 0.014168515078161621 0 -0.0141561926319782 0.013056765504978224 0 -0.016268032148019317 0.013657887605565074 0 -0.016038840962450722 0.01191277546212996 0 -0.021123478531401736 0.018579676146480813 0 -0.020308679055117143 0.016101108419491739 0 -0.022377444375570436 0.017238402220381206 0 -0.022377444375570436 0.017238402220381206 0 -0.023058521419390157 0.015562554123763277 0 -0.023878381786435615 0.016846745635837716 0 -0.020308679055117143 0.016101108419491739 0 -0.023058521419390157 0.015562554123763277 0 -0.021575270847255339 0.013421146548764872 0 -0.020308679055117143 0.016101108419491739 0 -0.022377444375570436 0.017238402220381206 0 -0.023058521419390157 0.015562554123763277 0 -0.02344032724804878 0.015749986936419175 0 -0.026057608219052574 0.013833823160646786 0 -0.023058521419390157 0.015562554123763277 0 -0.025332535149792168 0.014088936706570248 0 -0.027759522860973933 0.015103848247980835 0 -0.023058521419390157 0.015562554123763277 0 -0.025332535149792168 0.014088936706570248 0 -0.02434730013248013 0.011976748222305073 0 -0.023058521419390157 0.015562554123763277 0 -0.023878381786435615 0.016846745635837716 0 -0.025225312988256178 0.015340278078593644 0 -0.025332535149792168 0.014088936706570248 0 -0.027759522860973933 0.015103848247980835 0 -0.027738463988986526 0.013701349144468359 0 -0.023878381786435615 0.016846745635837716 0 -0.02519675441786667 0.01722857244247487 0 -0.025225312988256178 0.015340278078593644 0 -0.023218364964554036 0.018841228308628128 0 -0.022377444375570436 0.017238402220381206 0 -0.023878381786435615 0.016846745635837716 0 -0.023218364964554036 0.018841228308628128 0 -0.023878381786435615 0.016846745635837716 0 -0.02519675441786667 0.01722857244247487 0 -0.023771961429056701 0.013221550576338411 0 -0.023143033300785664 0.012338850544088112 0 -0.024140338055958763 0.012387588232139198 0 -0.023771961429056701 0.013221550576338411 0 -0.024140338055958763 0.012387588232139198 0 -0.024824321299247609 0.012847887544994267 0 -0.023143033300785664 0.012338850544088112 0 -0.024140338055958763 0.012387588232139198 0 -0.024021242137859593 0.011597338717132484 0 -0.024140338055958763 0.012387588232139198 0 -0.024021242137859593 0.011597338717132484 0 -0.024951045754123557 0.011927713276591393 0 -0.027734210102832599 0.014928017871695317 0 -0.027738463988986526 0.013701349144468359 0 -0.03149979314938061 0.014341807509452005 0 -0.023164147848313402 0.010453978315178322 0 -0.024716893794561073 0.011082472593553055 0 -0.025310923509652306 0.010108213865476254 0 -0.024021242137859593 0.011597338717132484 0 -0.023164147848313402 0.010453978315178322 0 -0.024716893794561073 0.011082472593553055 0 -0.026057608219052574 0.013833823160646786 0 -0.028497307044408945 0.012305159322063098 0 -0.023143033300785664 0.012338850544088112 0 -0.024021242137859593 0.011597338717132484 0 -0.023164147848313402 0.010453978315178322 0 -0.024180713401227072 0.015108575397522139 0 -0.026057608219052574 0.013833823160646786 0 -0.026057608219052574 0.013833823160646786 0 -0.026619892392968088 0.014082888864522705 0 -0.027738463988986526 0.013701349144468359 0 -0.025872159538164324 0.0083758285263482411 0 -0.03080123544562717 0.010788531770612252 0 -0.027738463988986526 0.013701349144468359 0 -0.03149979314938061 0.014341807509452005 0 -0.03080123544562717 0.010788531770612252 0 -0.031843702521216044 0.0055608919403800673 0 -0.037728249863869932 0.0081374560153139007 0 -0.042662407874240055 0.0032940806634333152 0 -0.040186148604158319 0.0039621798289784767 0 -0.043028853615292094 0.0045164157558164894 0 -0.025332535149792168 0.014088936706570248 0 -0.027738463988986526 0.013701349144468359 0 -0.02434730013248013 0.011976748222305073 0 -0.027738463988986526 0.013701349144468359 0 -0.025872159538164324 0.0083758285263482411 0 -0.02434730013248013 0.011976748222305073 0 -0.02434730013248013 0.011976748222305073 0 -0.021575270847255339 0.013421146548764872 0 -0.021399257059211522 0.010228354763768403 0 -0.023058521419390157 0.015562554123763277 0 -0.02434730013248013 0.011976748222305073 0 -0.021575270847255339 0.013421146548764872 0 -0.025872159538164324 0.0083758285263482411 0 -0.02434730013248013 0.011976748222305073 0 -0.021399257059211522 0.010228354763768403 0 -0.020108114956279514 0.0055489872511710354 0 -0.025872159538164324 0.0083758285263482411 0 -0.021399257059211522 0.010228354763768403 0 -0.020108114956279514 0.0055489872511710354 0 -0.021399257059211522 0.010228354763768403 0 -0.01758965918149457 0.008190136875328817 0 -0.021399257059211522 0.010228354763768403 0 -0.01758965918149457 0.008190136875328817 0 -0.019051369892232488 0.01259728466551706 0 -0.015724509002597885 0.0093283955462854992 0 -0.01758965918149457 0.008190136875328817 0 -0.016451738974234069 0.010413139059088599 0 -0.017494886267083506 0.0083820142214522265 0 -0.017764537697407098 0.011266547014221471 0 -0.021575270847255339 0.013421146548764872 0 -0.021399257059211522 0.010228354763768403 0 -0.019051369892232488 0.01259728466551706 0 -0.023115299449158529 0.0045807123348343675 0 -0.026076647727794465 0.0048589069058122868 0 -0.023325596157193512 0.0035845424081730162 0 -0.023115299449158529 0.0045807123348343675 0 -0.026076647727794465 0.0048589069058122868 0 -0.022854989843127543 0.0062612734945754738 0 -0.033689833008275986 0.0024764763882537794 0 -0.03393322173766794 0.0026608289046088657 0 -0.034066282857980787 0.0026492280839883384 0 -0.023115299449158529 0.0045807123348343675 0 -0.022359089193368709 0.0037353170547439686 0 -0.023325596157193512 0.0035845424081730162 0 -0.026387128768273465 0.0040423870069702687 0 -0.032093046262437828 0.00438199590025875 0 -0.033689833008275986 0.0024764763882537794 0 -0.03393322173766794 0.0026608289046088657 0 -0.033700325128134971 0.0027232454010655206 0 -0.021159653690002892 0.0065101763521061666 0 -0.020977977180198851 0.0070276046588770534 0 -0.021396199633469129 0.0068953585318566575 0 -0.021159653690002892 0.0065101763521061666 0 -0.020977977180198851 0.0070276046588770534 0 -0.02037176547439893 0.0069668180757745174 0 -0.020637739332714778 0.0073501196953048515 0 -0.020977977180198851 0.0070276046588770534 0 -0.02037176547439893 0.0069668180757745174 0 -0.026387128768273465 0.0040423870069702687 0 -0.020919088345152971 0.0069683353113379259 0 -0.01975001051795925 0.0072991402202988026 0 -0.022854989843127543 0.0062612734945754738 0 -0.020946964452249178 0.0053583606507946937 0 -0.020160719272983657 0.0071251752662846706 0 -0.020919088345152971 0.0069683353113379259 0 -0.01975001051795925 0.0072991402202988026 0 -0.019622062802732466 0.0068065407293630342 0 -0.020946964452249178 0.0053583606507946937 0 -0.024140338055958763 0.012387588232139198 0 -0.024824321299247609 0.012847887544994267 0 -0.024951045754123557 0.011927713276591393 0 -0.022070642748461294 0.010135147705056049 0 -0.023390281393799232 0.012063128677381912 0 -0.022070642748461294 0.010135147705056049 0 -0.023309541337223866 0.0084645292155708218 0 -0.02482524476238971 0.012848074216964057 0 -0.024951045754123557 0.011927713276591393 0 -0.026173324554660062 0.01133957520785393 0 -0.024021242137859593 0.011597338717132484 0 -0.024951045754123557 0.011927713276591393 0 -0.024716893794561073 0.011082472593553055 0 -0.024951045754123557 0.011927713276591393 0 -0.024716893794561073 0.011082472593553055 0 -0.026173324554660062 0.01133957520785393 0 -0.024716893794561073 0.011082472593553055 0 -0.026173324554660062 0.01133957520785393 0 -0.025310923509652306 0.010108213865476254 0 -0.023115299449158529 0.0045807123348343675 0 -0.020946964452249178 0.0053583606507946937 0 -0.022359089193368709 0.0037353170547439686 0 -0.023115299449158529 0.0045807123348343675 0 -0.022854989843127543 0.0062612734945754738 0 -0.020946964452249178 0.0053583606507946937 0 -0.028497307044408945 0.012305159322063098 0 -0.030051315139787965 0.0087422299349432294 0 -0.026173324554660062 0.01133957520785393 0 -0.025310923509652306 0.010108213865476254 0 -0.027543665467419525 0.0097661484384813872 0 -0.023309541337223866 0.0084645292155708218 0 -0.030051315139787965 0.0087422299349432294 0 -0.037456986119877543 0.0073137198613811138 0 -0.037728249863869932 0.0081374560153139007 0 -0.03300776303646237 0.0062478603313847816 0 -0.033227012766428907 0.0059878220146400603 0 -0.033585492891648604 0.0061449990115050755 0 -0.035189606337203916 0.01376184583951404 0 -0.035766125247169073 0.013081596423798074 0 -0.03080123544562717 0.010788531770612252 0 -0.044415893917616425 0.0050903995272565151 0 -0.044218364033878389 0.004550733828143777 0 -0.043028853615292094 0.0045164157558164894 0 -0.030051315139787965 0.0087422299349432294 0 -0.037456986119877543 0.0073137198613811138 0 -0.03149979314938061 0.014341807509452005 0 -0.035189606337203916 0.01376184583951404 0 -0.03080123544562717 0.010788531770612252 0 -0.042560150115072609 0.0032881274280820074 0 -0.044496886187179258 0.0041021083396022085 0 -0.043671372203203239 0.0028277136720126672 0 -0.042662407874240055 0.0032940806634333152 0 -0.04420732872126882 0.0037876297040207048 0 -0.042662407874240055 0.0032940806634333152 0 -0.043028853615292094 0.0045164157558164894 0 -0.04388327930967631 0.0040833979885764107 0 -0.044218364033878389 0.004550733828143777 0 -0.043028853615292094 0.0045164157558164894 0 -0.04388327930967631 0.0040833979885764107 0 -0.044496886187179258 0.0041021083396022085 0 -0.04294859044014699 0.0033865727582043175 0 -0.04420732872126882 0.0037876297040207048 0 -0.045040976333125364 0.0031983359538654897 0 -0.045779917970096909 0.0043768605157165352 0 -0.043671372203203239 0.0028277136720126672 0 -0.04420732872126882 0.0037876297040207048 0 -0.045040976333125364 0.0031983359538654897 0 -0.044218364033878389 0.004550733828143777 0 -0.04388327930967631 0.0040833979885764107 0 -0.044781705175960598 0.0044982738959086785 0 -0.046228822071065503 0.0025811414368938418 0 -0.045040976333125364 0.0031983359538654897 0 -0.045779917970096909 0.0043768605157165352 0 -0.047921330630098048 0.002287660552923617 0 -0.04294859044014699 0.0033865727582043175 0 -0.046935745181739562 0.0012016242671608422 0 -0.045778330441087013 0.0037198168181232761 0 -0.046013950687379637 0.0038068771528166454 0 -0.046454225976446592 0.001021056776293456 0 -0.046935745181739562 0.0012016242671608422 0 -0.045778330441087013 0.0037198168181232761 0 -0.044218364033878389 0.004550733828143777 0 -0.044736498224099461 0.0046901189851776574 0 -0.044781705175960598 0.0044982738959086785 0 -0.044415893917616425 0.0050903995272565151 0 -0.044218364033878389 0.004550733828143777 0 -0.044736498224099461 0.0046901189851776574 0 -0.040257741276960371 0.0035024844967331678 0 -0.040851450247176353 0.00093400593149760042 0 -0.042060566030378603 0.0013838869016121445 0 -0.039751839585449353 0.0035263182854726243 0 -0.04294859044014699 0.0033865727582043175 0 -0.039751839585449353 0.0035263182854726243 0 -0.040614305903773192 0.0019469903862843112 0 -0.034099185454405295 0.0028187168413044035 0 -0.03405236040147492 0.0028738621586515758 0 -0.03393322173766794 0.0026608289046088657 0 -0.04294859044014699 0.0033865727582043175 0 -0.040614305903773192 0.0019469903862843112 0 -0.034099185454405295 0.0028187168413044035 0 -0.03393322173766794 0.0026608289046088657 0 -0.034113406960691227 0.0026367541638841491 0 -0.034198435318278091 0.0032634363140326326 0 -0.032093046262437828 0.00438199590025875 0 -0.035350642592187745 0.0061627016053591799 0 -0.037308114659250664 0.0038685166013561968 0 -0.036847893199945664 0.0068635678880078462 0 -0.037456986119877543 0.0073137198613811138 0 -0.039751839585449353 0.0035263182854726243 0 -0.030051315139787965 0.0087422299349432294 0 -0.032093046262437828 0.00438199590025875 0 -0.039751839585449353 0.0035263182854726243 0 -0.032093046262437828 0.00438199590025875 0 -0.037456986119877543 0.0073137198613811138 0 -0.032093046262437828 0.00438199590025875 0 -0.040614305903773192 0.0019469903862843112 0 -0.037270875308037014 0.0006510942605643899 0 -0.03405236040147492 0.0028738621586515758 0 -0.03393322173766794 0.0026608289046088657 0 -0.033700325128134971 0.0027232454010655206 0 -0.041412899876978528 -0.00091069784802608308 0 -0.041491369427446217 -0.0010348919295308763 0 -0.041350587090463888 -0.0011050377598003586 0 -0.046935745181739562 0.0012016242671608422 0 -0.048129878138627798 0.0010389167690133243 0 -0.046013950687379637 0.0038068771528166454 0 -0.048129878138627798 0.0010389167690133243 0 -0.048407062265785727 0.0010539713098183443 0 -0.046013950687379637 0.0038068771528166454 0 -0.046862655543196463 -0.00087498703443128945 0 -0.040614305903773192 0.0019469903862843112 0 -0.041412899876978528 -0.00091069784802608308 0 -0.041350587090463888 -0.0011050377598003586 0 -0.041269089136889481 -0.0010444644940663171 0 -0.041412899876978528 -0.00091069784802608308 0 -0.041220227718589859 -0.00093902649441207696 0 -0.041269089136889481 -0.0010444644940663171 0 -0.041220227718589859 -0.00093902649441207696 0 -0.041269089136889481 -0.0010444644940663171 0 -0.041178421678341549 -0.0011048198541644555 0 -0.041220227718589859 -0.00093902649441207696 0 -0.041178421678341549 -0.0011048198541644555 0 -0.04109372509148277 -0.0010548873528273949 0 -0.041269089136889481 -0.0010444644940663171 0 -0.041178421678341549 -0.0011048198541644555 0 -0.041179018741528066 -0.0011752886833366672 0 -0.041178421678341549 -0.0011048198541644555 0 -0.04108616292314729 -0.0011274124549867058 0 -0.04109372509148277 -0.0010548873528273949 0 -0.041178421678341549 -0.0011048198541644555 0 -0.041179018741528066 -0.0011752886833366672 0 -0.04108616292314729 -0.0011274124549867058 0 -0.037270875308037014 0.0006510942605643899 0 -0.035575407304736635 0.0010283099296843575 0 -0.041350587090463888 -0.0011050377598003586 0 -0.041269089136889481 -0.0010444644940663171 0 -0.041179018741528066 -0.0011752886833366672 0 -0.026387128768273465 0.0040423870069702687 0 -0.035575407304736635 0.0010283099296843575 0 -0.026569745487651564 0.0019633896273699536 0 -0.03029956012191919 0.00025670358721559809 0 -0.030444856207306373 0.0037633787647866628 0 -0.033689833008275986 0.0024764763882537794 0 -0.033700325128134971 0.0027232454010655206 0 -0.03342060584838074 0.0025969710625378885 0 -0.035575407304736635 0.0010283099296843575 0 -0.034753883294490709 -0.001656223243518352 0 -0.03029956012191919 0.00025670358721559809 0 -0.030444856207306373 0.0037633787647866628 0 -0.033149652074695356 0.001299260349748231 0 -0.041179018741528066 -0.0011752886833366672 0 -0.041046030327307602 -0.0012122002324132567 0 -0.04108616292314729 -0.0011274124549867058 0 -0.024454306032614351 0.0038991189887224741 0 -0.034753883294490709 -0.001656223243518352 0 -0.018720233525453395 0.0091853491760257311 0 -0.018504400293933226 0.0081553363600651782 0 -0.016957235603897461 0.0084552394131210181 0 -0.018720233525453395 0.0091853491760257311 0 -0.019443454667193903 0.0085128191654575917 0 -0.018504400293933226 0.0081553363600651782 0 -0.021159653690002892 0.0065101763521061666 0 -0.021946232151593279 0.0068249903954588206 0 -0.021396199633469129 0.0068953585318566575 0 -0.026387128768273465 0.0040423870069702687 0 -0.024454306032614351 0.0038991189887224741 0 -0.024454306032614351 0.0038991189887224741 0 -0.019985952782396971 0.0081058059016515995 0 -0.021946232151593279 0.0068249903954588206 0 -0.021396199633469129 0.0068953585318566575 0 -0.021513840835949496 0.0072184600452100877 0 -0.020977977180198851 0.0070276046588770534 0 -0.021396199633469129 0.0068953585318566575 0 -0.021513840835949496 0.0072184600452100877 0 -0.030291434477187296 -0.0021114180854979372 0 -0.030640221285468082 -0.0016576052512922192 0 -0.030002393742098982 -0.00137689821901964 0 -0.030291434477187296 -0.0021114180854979372 0 -0.030640221285468082 -0.0016576052512922192 0 -0.030887798139006307 -0.002273315636436788 0 -0.028518274444949653 -0.0019095963189299052 0 -0.029578800764173675 -0.0025780272600499938 0 -0.030002393742098982 -0.00137689821901964 0 -0.030291434477187296 -0.0021114180854979372 0 -0.029578800764173675 -0.0025780272600499938 0 -0.030002393742098982 -0.00137689821901964 0 -0.024454306032614351 0.0038991189887224741 0 -0.023276918500502428 0.0034460627923110156 0 -0.028518274444949653 -0.0019095963189299052 0 -0.029578800764173675 -0.0025780272600499938 0 -0.029331285576276064 -0.0026634875315600069 0 -0.029578800764173675 -0.0025780272600499938 0 -0.029328052326560185 -0.0026685614964680293 0 -0.030352181364811145 -0.0039226711135020931 0 -0.031591076368902377 -0.0026044664357526633 0 -0.034753883294490709 -0.001656223243518352 0 -0.030291434477187296 -0.0021114180854979372 0 -0.029578800764173675 -0.0025780272600499938 0 -0.030413131245291596 -0.0028019663280461336 0 -0.029578800764173675 -0.0025780272600499938 0 -0.030413131245291596 -0.0028019663280461336 0 -0.030352181364811145 -0.0039226711135020931 0 -0.030291434477187296 -0.0021114180854979372 0 -0.030413131245291596 -0.0028019663280461336 0 -0.030887798139006307 -0.002273315636436788 0 -0.030413131245291596 -0.0028019663280461336 0 -0.030352181364811145 -0.0039226711135020931 0 -0.031144976942523096 -0.0032233607483251252 0 -0.040960384491959011 -0.0010967008305057689 0 -0.04108616292314729 -0.0011274124549867058 0 -0.04109372509148277 -0.0010548873528273949 0 -0.034753883294490709 -0.001656223243518352 0 -0.034934199539294955 -0.0024412202753912975 0 -0.041046030327307602 -0.0012122002324132567 0 -0.040960384491959011 -0.0010967008305057689 0 -0.04108616292314729 -0.0011274124549867058 0 -0.041028991682150615 -0.00098596807009727764 0 -0.041220227718589859 -0.00093902649441207696 0 -0.04109372509148277 -0.0010548873528273949 0 -0.040884746392368658 -0.0010288429259611798 0 -0.041028991682150615 -0.00098596807009727764 0 -0.040960384491959011 -0.0010967008305057689 0 -0.041028991682150615 -0.00098596807009727764 0 -0.040960384491959011 -0.0010967008305057689 0 -0.04109372509148277 -0.0010548873528273949 0 -0.041165919396781166 -0.0030728652196501255 0 -0.034934199539294955 -0.0024412202753912975 0 -0.032169298207475071 -0.0056246459708035428 0 -0.030352181364811145 -0.0039226711135020931 0 -0.031888060213234884 -0.0041776759201711594 0 -0.033336654649814168 -0.0053737494244605714 0 -0.03253846112697991 -0.004855699092581869 0 -0.033863627487824136 -0.0045828170377225919 0 -0.03253846112697991 -0.004855699092581869 0 -0.032747351240961092 -0.0038264196004940795 0 -0.033863627487824136 -0.0045828170377225919 0 -0.032169298207475071 -0.0056246459708035428 0 -0.032750541810091252 -0.0053556888720772064 0 -0.03253846112697991 -0.004855699092581869 0 -0.032169298207475071 -0.0056246459708035428 0 -0.03253846112697991 -0.004855699092581869 0 -0.031888060213234884 -0.0041776759201711594 0 -0.032750541810091252 -0.0053556888720772064 0 -0.033336654649814168 -0.0053737494244605714 0 -0.03253846112697991 -0.004855699092581869 0 -0.032957736753180616 -0.0056570933017748518 0 -0.032750541810091252 -0.0053556888720772064 0 -0.033336654649814168 -0.0053737494244605714 0 -0.03253846112697991 -0.004855699092581869 0 -0.032747351240961092 -0.0038264196004940795 0 -0.031888060213234884 -0.0041776759201711594 0 -0.032747351240961092 -0.0038264196004940795 0 -0.031905062205588926 -0.0034569626751553423 0 -0.031888060213234884 -0.0041776759201711594 0 -0.032747351240961092 -0.0038264196004940795 0 -0.032289079281490413 -0.0032089640082921564 0 -0.032922046376369307 -0.0030270893731644921 0 -0.032747351240961092 -0.0038264196004940795 0 -0.032289079281490413 -0.0032089640082921564 0 -0.031905062205588926 -0.0034569626751553423 0 -0.032289079281490413 -0.0032089640082921564 0 -0.031905062205588926 -0.0034569626751553423 0 -0.031651422306923534 -0.0028398397544902687 0 -0.030352181364811145 -0.0039226711135020931 0 -0.031144976942523096 -0.0032233607483251252 0 -0.031888060213234884 -0.0041776759201711594 0 -0.031905062205588926 -0.0034569626751553423 0 -0.031144976942523096 -0.0032233607483251252 0 -0.031888060213234884 -0.0041776759201711594 0 -0.031905062205588926 -0.0034569626751553423 0 -0.031144976942523096 -0.0032233607483251252 0 -0.031651422306923534 -0.0028398397544902687 0 -0.03525554795618157 -0.0060383815393799979 0 -0.036189686213718042 -0.0049767501881792563 0 -0.03528843632573337 -0.0037781201621743367 0 -0.03525554795618157 -0.0060383815393799979 0 -0.033863627487824136 -0.0045828170377225919 0 -0.03528843632573337 -0.0037781201621743367 0 -0.03525554795618157 -0.0060383815393799979 0 -0.033336654649814168 -0.0053737494244605714 0 -0.033863627487824136 -0.0045828170377225919 0 -0.032747351240961092 -0.0038264196004940795 0 -0.033877775829204024 -0.00347174075415679 0 -0.032922046376369307 -0.0030270893731644921 0 -0.032747351240961092 -0.0038264196004940795 0 -0.033863627487824136 -0.0045828170377225919 0 -0.033877775829204024 -0.00347174075415679 0 -0.033863627487824136 -0.0045828170377225919 0 -0.033877775829204024 -0.00347174075415679 0 -0.03528843632573337 -0.0037781201621743367 0 -0.033877775829204024 -0.00347174075415679 0 -0.03528843632573337 -0.0037781201621743367 0 -0.034629172017379313 -0.0027538399831911076 0 -0.035630012411069029 -0.0027118471277531387 0 -0.03528843632573337 -0.0037781201621743367 0 -0.034629172017379313 -0.0027538399831911076 0 -0.035630012411069029 -0.0027118471277531387 0 -0.035153217098924751 -0.0018938276899474835 0 -0.034629172017379313 -0.0027538399831911076 0 -0.035153217098924751 -0.0018938276899474835 0 -0.034629172017379313 -0.0027538399831911076 0 -0.0341837920794286 -0.0019440056743065448 0 -0.034629172017379313 -0.0027538399831911076 0 -0.033535195735925262 -0.0025556867179337673 0 -0.0341837920794286 -0.0019440056743065448 0 -0.033877775829204024 -0.00347174075415679 0 -0.034629172017379313 -0.0027538399831911076 0 -0.033535195735925262 -0.0025556867179337673 0 -0.033877775829204024 -0.00347174075415679 0 -0.033535195735925262 -0.0025556867179337673 0 -0.032922046376369307 -0.0030270893731644921 0 -0.033535195735925262 -0.0025556867179337673 0 -0.032922046376369307 -0.0030270893731644921 0 -0.03262375768241127 -0.0022483265853286945 0 -0.03262375768241127 -0.0022483265853286945 0 -0.032904125316899374 -0.0016907829907623136 0 -0.031593722134319539 -0.0018066104536508983 0 -0.033535195735925262 -0.0025556867179337673 0 -0.03262375768241127 -0.0022483265853286945 0 -0.032904125316899374 -0.0016907829907623136 0 -0.032904125316899374 -0.0016907829907623136 0 -0.030885308053371398 -0.0010294115793022575 0 -0.033220319924220552 -0.0006561504870307085 0 -0.032904125316899374 -0.0016907829907623136 0 -0.03397207687617422 -0.0012783717994525395 0 -0.033220319924220552 -0.0006561504870307085 0 -0.032904125316899374 -0.0016907829907623136 0 -0.0341837920794286 -0.0019440056743065448 0 -0.03397207687617422 -0.0012783717994525395 0 -0.033535195735925262 -0.0025556867179337673 0 -0.032904125316899374 -0.0016907829907623136 0 -0.0341837920794286 -0.0019440056743065448 0 -0.0341837920794286 -0.0019440056743065448 0 -0.03397207687617422 -0.0012783717994525395 0 -0.034514377112137076 -0.0014913686925298254 0 -0.03397207687617422 -0.0012783717994525395 0 -0.034514377112137076 -0.0014913686925298254 0 -0.034720596000018075 -0.00082118358585882203 0 -0.03397207687617422 -0.0012783717994525395 0 -0.034720596000018075 -0.00082118358585882203 0 -0.033220319924220552 -0.0006561504870307085 0 -0.035153217098924751 -0.0018938276899474835 0 -0.034514377112137076 -0.0014913686925298254 0 -0.034720596000018075 -0.00082118358585882203 0 -0.035153217098924751 -0.0018938276899474835 0 -0.0341837920794286 -0.0019440056743065448 0 -0.034514377112137076 -0.0014913686925298254 0 -0.030887798139006307 -0.002273315636436788 0 -0.031651422306923534 -0.0028398397544902687 0 -0.031425695772879424 -0.0021544301248899657 0 -0.030413131245291596 -0.0028019663280461336 0 -0.031144976942523096 -0.0032233607483251252 0 -0.030887798139006307 -0.002273315636436788 0 -0.031144976942523096 -0.0032233607483251252 0 -0.030887798139006307 -0.002273315636436788 0 -0.031651422306923534 -0.0028398397544902687 0 -0.032289079281490413 -0.0032089640082921564 0 -0.031651422306923534 -0.0028398397544902687 0 -0.032060679596918371 -0.0025381531904272053 0 -0.032289079281490413 -0.0032089640082921564 0 -0.032922046376369307 -0.0030270893731644921 0 -0.032060679596918371 -0.0025381531904272053 0 -0.032922046376369307 -0.0030270893731644921 0 -0.03262375768241127 -0.0022483265853286945 0 -0.032060679596918371 -0.0025381531904272053 0 -0.03262375768241127 -0.0022483265853286945 0 -0.032060679596918371 -0.0025381531904272053 0 -0.031593722134319539 -0.0018066104536508983 0 -0.032060679596918371 -0.0025381531904272053 0 -0.031425695772879424 -0.0021544301248899657 0 -0.031593722134319539 -0.0018066104536508983 0 -0.031651422306923534 -0.0028398397544902687 0 -0.032060679596918371 -0.0025381531904272053 0 -0.031425695772879424 -0.0021544301248899657 0 -0.031425695772879424 -0.0021544301248899657 0 -0.031593722134319539 -0.0018066104536508983 0 -0.030990697926437643 -0.0015372040075078864 0 -0.032904125316899374 -0.0016907829907623136 0 -0.031593722134319539 -0.0018066104536508983 0 -0.030885308053371398 -0.0010294115793022575 0 -0.031593722134319539 -0.0018066104536508983 0 -0.030990697926437643 -0.0015372040075078864 0 -0.030885308053371398 -0.0010294115793022575 0 -0.030887798139006307 -0.002273315636436788 0 -0.031425695772879424 -0.0021544301248899657 0 -0.030990697926437643 -0.0015372040075078864 0 -0.030640221285468082 -0.0016576052512922192 0 -0.030887798139006307 -0.002273315636436788 0 -0.030990697926437643 -0.0015372040075078864 0 -0.015300338851804407 0.0079525173532527926 0 -0.014572081754001154 0.0055116283862218585 0 -0.016547570856474465 0.0070133296422877642 0 -0.030640221285468082 -0.0016576052512922192 0 -0.030990697926437643 -0.0015372040075078864 0 -0.030977839375006259 -0.0016798790594880777 0 -0.015300338851804407 0.0079525173532527926 0 -0.01303247373584193 0.0072675132256646222 0 -0.014572081754001154 0.0055116283862218585 0 -0.030990697926437643 -0.0015372040075078864 0 -0.030977839375006259 -0.0016798790594880777 0 -0.030885308053371398 -0.0010294115793022575 0 -0.030977839375006259 -0.0016798790594880777 0 -0.030885308053371398 -0.0010294115793022575 0 -0.0294245342842053 -0.0017598837850861444 0 -0.023100420315949274 0.0031247667251416422 0 -0.020914542218407283 0.0020356382846274919 0 -0.030977839375006259 -0.0016798790594880777 0 -0.0294245342842053 -0.0017598837850861444 0 -0.028869524244816317 -0.0032247049950873403 0 -0.026890184397654907 -0.00056366595114039787 0 -0.027728567548795477 -0.0010669852997197769 0 -0.026359171841310265 -0.0020604199511030782 0 -0.02972645901203701 -0.0013904346315688817 0 -0.0311000304766497 -0.00071549413551630565 0 -0.026831990693211519 -0.00044227780358332356 0 -0.027728567548795477 -0.0010669852997197769 0 -0.028726032369778297 -0.00053995466659603362 0 -0.02972645901203701 -0.0013904346315688817 0 -0.027614016450075208 -0.00050838602411520408 0 -0.027728567548795477 -0.0010669852997197769 0 -0.027660284442218918 -0.0024075395175562611 0 -0.026359171841310265 -0.0020604199511030782 0 -0.027728567548795477 -0.0010669852997197769 0 -0.0294245342842053 -0.0017598837850861444 0 -0.027660284442218918 -0.0024075395175562611 0 -0.027728567548795477 -0.0010669852997197769 0 -0.028726032369778297 -0.00053995466659603362 0 -0.0294245342842053 -0.0017598837850861444 0 -0.030885308053371398 -0.0010294115793022575 0 -0.028726032369778297 -0.00053995466659603362 0 -0.0294245342842053 -0.0017598837850861444 0 -0.030860277907316398 -0.00087105750666204712 0 -0.0311000304766497 -0.00071549413551630565 0 -0.0294245342842053 -0.0017598837850861444 0 -0.028869524244816317 -0.0032247049950873403 0 -0.027660284442218918 -0.0024075395175562611 0 -0.026105501088246202 -0.0040961254582181561 0 -0.027660284442218918 -0.0024075395175562611 0 -0.026359171841310265 -0.0020604199511030782 0 -0.026105501088246202 -0.0040961254582181561 0 -0.028869524244816317 -0.0032247049950873403 0 -0.027660284442218918 -0.0024075395175562611 0 -0.018212494788682358 0.0010522856575356414 0 -0.020914542218407283 0.0020356382846274919 0 -0.010261664862188059 0.0061988468007267358 0 -0.01303247373584193 0.0072675132256646222 0 -0.012657782499557142 0.0053538517526784219 0 -0.010261664862188059 0.0061988468007267358 0 -0.011837943913486972 0.003611522100434068 0 -0.012657782499557142 0.0053538517526784219 0 -0.010261664862188059 0.0061988468007267358 0 -0.0098329593491691559 0.0035894524744698058 0 -0.011837943913486972 0.003611522100434068 0 -0.01303247373584193 0.0072675132256646222 0 -0.012657782499557142 0.0053538517526784219 0 -0.014572081754001154 0.0055116283862218585 0 -0.014038169057616436 0.0031864800458754118 0 -0.012657782499557142 0.0053538517526784219 0 -0.014572081754001154 0.0055116283862218585 0 -0.015390021470889187 0.0041482942082797227 0 -0.014572081754001154 0.0055116283862218585 0 -0.016589671922180308 0.005199507667832985 0 -0.015390021470889187 0.0041482942082797227 0 -0.014038169057616436 0.0031864800458754118 0 -0.014572081754001154 0.0055116283862218585 0 -0.014572081754001154 0.0055116283862218585 0 -0.016589671922180308 0.005199507667832985 0 -0.016547570856474465 0.0070133296422877642 0 -0.016589671922180308 0.005199507667832985 0 -0.018260012420748487 0.005266187908404627 0 -0.016547570856474465 0.0070133296422877642 0 -0.018260012420748487 0.005266187908404627 0 -0.018181616797710916 0.0070895142503316208 0 -0.016547570856474465 0.0070133296422877642 0 -0.017837896316567025 0.0037186424519505931 0 -0.016589671922180308 0.005199507667832985 0 -0.018260012420748487 0.005266187908404627 0 -0.019343514625915853 0.0038319498837689507 0 -0.017837896316567025 0.0037186424519505931 0 -0.018260012420748487 0.005266187908404627 0 -0.019343514625915853 0.0038319498837689507 0 -0.018260012420748487 0.005266187908404627 0 -0.019787661564087646 0.0059251664783614962 0 -0.0046613085747850089 0.0018614071430462439 0 -0.0045721959993270259 0.0017897212714099032 0 -0.00466433229238931 0.00177404128828275 0 -0.012425249648900244 0.0027588338195205929 0 -0.011727872945339061 0.0036081301864483882 0 -0.018260012420748487 0.005266187908404627 0 -0.019787661564087646 0.0059251664783614962 0 -0.018181616797710916 0.0070895142503316208 0 -0.020196686778708201 0.0078125026325534825 0 -0.019787661564087646 0.0059251664783614962 0 -0.019213455912595889 0.0075090142904492615 0 -0.019787661564087646 0.0059251664783614962 0 -0.018181616797710916 0.0070895142503316208 0 -0.019213455912595889 0.0075090142904492615 0 -0.020196686778708201 0.0078125026325534825 0 -0.019213455912595889 0.0075090142904492615 0 -0.019443454667193903 0.0085128191654575917 0 -0.019213455912595889 0.0075090142904492615 0 -0.019443454667193903 0.0085128191654575917 0 -0.018504400293933226 0.0081553363600651782 0 -0.015566084087880216 0.0056512718182200831 0 -0.019985952782396971 0.0081058059016515995 0 -0.018181616797710916 0.0070895142503316208 0 -0.019213455912595889 0.0075090142904492615 0 -0.018504400293933226 0.0081553363600651782 0 -0.018181616797710916 0.0070895142503316208 0 -0.018504400293933226 0.0081553363600651782 0 -0.016957235603897461 0.0084552394131210181 0 -0.023100420315949274 0.0031247667251416422 0 -0.023276918500502428 0.0034460627923110156 0 -0.015300338851804407 0.0079525173532527926 0 -0.016957235603897461 0.0084552394131210181 0 -0.016547570856474465 0.0070133296422877642 0 -0.030640221285468082 -0.0016576052512922192 0 -0.030977839375006259 -0.0016798790594880777 0 -0.030002393742098982 -0.00137689821901964 0 -0.018181616797710916 0.0070895142503316208 0 -0.016957235603897461 0.0084552394131210181 0 -0.016547570856474465 0.0070133296422877642 0 
</DataArray>
</PointData>
<CellData Scalars="region_id,cross_section_updated," Vectors="" Tensors="stress,">
<DataArray type="Float64" Name="region_id" format="ascii">
5 5 5 5 6 5 5 5 5 5 5 5 6 5 5 5 5 6 5 5 5 5 5 6 5 5 5 5 5 6 5 5 5 6 5 5 6 5 5 5 5 6 5 5 5 5 6 5 6 5 5 5 5 5 5 5 5 5 6 5 5 5 5 5 5 6 5 5 5 5 5 5 6 5 5 5 5 5 6 5 5 6 5 5 5 5 5 5 5 5 5 6 5 5 5 6 5 5 5 5 5 5 5 5 5 5 5 5 5 5 5 5 5 5 5 5 5 5 5 6 5 5 5 5 5 6 5 5 6 5 5 5 5 5 5 5 5 5 5 5 5 5 5 5 6 5 5 5 5 5 5 5 6 5 5 5 5 5 5 6 6 5 5 5 5 5 5 5 6 5 5 5 5 5 6 5 5 5 5 5 5 5 5 5 5 5 5 5 6 5 5 5 6 5 6 5 5 5 5 5 5 6 5 5 6 5 5 5 5 5 6 5 5 5 5 5 5 5 6 5 6 5 5 5 5 5 5 5 5 5 5 6 5 5 6 5 6 5 6 5 5 5 5 6 6 5 5 5 5 6 5 5 6 5 6 5 5 5 6 5 5 5 5 5 5 5 5 5 5 6 5 6 5 5 5 5 5 5 5 5 5 5 5 5 5 5 5 5 5 5 5 5 5 5 5 5 5 5 5 5 5 5 5 5 5 5 5 5 5 5 5 5 5 5 5 5 5 5 5 5 5 5 5 5 5 5 5 5 5 5 5 5 5 5 5 5 5 5 5 5 5 5 5 5 6 5 5 5 5 5 6 5 5 5 5 5 5 5 5 5 6 5 6 5 5 5 6 5 6 5 5 5 5 5 5 5 5 5 5 5 5 5 5 5 5 5 5 5 5 5 5 5 5 5 5 5 5 5 5 5 5 5 5 5 5 5 5 5 5 5 5 5 5 5 5 5 5 5 5 5 5 6 5 5 6 5 6 5 5 5 5 5 5 5 5 5 5 5 5 5 5 5 5 5 5 5 5 5 5 6 5 6 5 5 5 5 5 5 5 6 5 5 5 5 5 5 5 5 5 5 5 5 5 5 5 5 5 6 5 5 6 5 5 5 5 5 5 5 5 5 5 6 5 5 5 5 5 5 5 5 5 5 6 5 6 5 6 6 5 5 5 5 6 5 5 5 5 5 6 5 5 5 5 5 5 5 5 5 6 5 5 6 5 6 5 5 5 5 5 5 5 5 5 5 5 5 6 5 5 5 6 5 5 5 5 5 6 5 5 6 5 5 5 5 6 5 6 5 5 5 5 5 5 5 5 5 5 5 5 6 5 5 5 5 5 6 5 5 6 5 5 6 5 5 5 5 5 5 6 5 5 5 5 6 5 6 5 6 5 5 5 5 5 5 5 5 5 5 5 5 5 5 6 5 5 5 5 5 5 5 5 5 5 5 5 5 5 5 5 5 5 5 5 5 5 5 5 5 5 5 5 5 5 5 5 5 5 5 5 5 5 5 5 5 5 5 5 5 5 5 5 5 5 5 5 5 5 5 5 5 5 5 5 5 5 5 5 5 5 5 5 5 6 6 5 5 5 5 6 5 5 6 5 5 5 5 5 6 5 5 5 5 5 5 6 5 6 5 5 5 5 6 5 5 5 6 5 6 5 5 5 5 5 5 5 6 5 5 5 6 5 5 5 5 5 5 5 5 5 5 5 5 5 5 5 5 5 5 5 5 5 5 5 6 5 5 5 5 5 5 6 5 5 5 5 6 5 6 5 5 5 5 5 5 5 5 5 5 5 5 5 6 5 5 5 5 5 5 5 5 5 5 5 5 5 5 5 5 5 5 5 5 5 5 5 5 5 5 5 5 5 5 5 5 5 6 5 5 6 5 6 5 5 5 5 6 5 5 5 5 6 5 5 5 5 5 6 5 5 5 5 5 6 5 5 6 5 5 5 5 5 5 5 6 5 5 6 5 5 5 5 6 5 5 5 5 5 5 5 5 5 5 5 5 5 5 5 5 5 5 5 5 5 5 5 5 5 5 5 5 5 5 5 5 5 5 5 5 5 5 5 5 5 5 5 6 5 5 5 5 5 5 5 5 5 5 5 5 5 5 6 5 5 5 5 5 5 5 6 5 5 5 5 5 6 5 5 5 5 6 5 5 5 5 5 5 6 5 5 6 5 5 6 5 6 5 6 5 5 5 5 6 6 5 5 6 5 5 5 6 5 5 5 6 5 5 5 5 5 5 5 5 5 5 5 5 5 5 5 6 5 5 5 5 5 5 5 5 5 6 5 5 5 5 5 5 6 6 5 5 5 5 5 5 5 5 6 5 5 5 5 5 6 5 5 5 6 5 5 5 6 5 5 5 5 5 5 5 5 5 5 5 5 5 5 5 5 5 6 5 5 5 5 5 5 5 5 6 5 5 5 5 5 5 5 5 5 6 5 5 5 5 5 5 5 5 6 5 5 5 5 6 5 5 5 5 5 5 5 5 5 5 6 5 5 5 6 6 5 6 5 5 5 6 6 6 5 5 5 5 5 5 5 6 5 5 5 6 6 5 5 6 6 5 5 5 6 5 5 5 5 5 6 5 5 5 5 5 5 5 5 5 5 6 5 5 5 5 5 5 5 5 5 5 5 5 5 5 5 5 5 5 5 5 6 5 5 5 5 6 5 5 5 5 5 5 5 5 5 5 5 5 5 6 5 5 5 5 5 5 5 6 5 5 5 5 5 5 5 5 5 5 5 5 5 5 5 5 5 5 6 5 5 5 5 5 5 6 5 5 5 5 5 5 5 6 5 5 5 5 6 5 5 5 5 5 6 5 5 5 6 5 5 6 5 5 5 5 6 5 6 5 5 5 5 5 5 5 5 5 5 5 5 6 5 5 5 5 5 5 5 5 5 6 5 5 5 5 5 5 6 5 5 5 5 5 5 5 5 5 6 5 6 5 5 5 5 5 6 6 5 5 5 5 5 5 5 5 5 5 5 5 5 5 5 5 5 5 5 5 5 5 6 5 5 5 5 5 5 5 5 5 5 5 5 5 5 5 5 5 5 5 5 5 5 5 5 5 5 5 5 5 5 5 5 5 5 5 5 5 5 5 5 5 5 5 5 5 5 5 5 5 5 5 5 5 5 5 5 5 5 5 5 6 5 6 5 5 5 5 5 5 5 5 5 5 5 5 5 6 5 5 5 5 6 5 5 5 5 5 5 5 5 5 5 5 5 5 5 5 5 5 5 5 5 6 5 5 5 5 5 5 5 5 5 5 5 5 5 5 5 5 5 5 5 5 5 5 5 5 5 5 5 5 5 5 5 5 5 5 5 5 5 5 5 5 5 5 5 6 5 5 5 5 5 5 5 5 5 6 6 6 6 5 5 5 5 5 5 5 5 5 5 5 5 5 5 5 6 5 5 5 5 5 5 5 5 5 6 5 5 5 5 5 5 5 6 5 5 5 5 5 5 6 5 5 5 5 6 5 5 5 5 5 6 5 5 5 5 5 5 5 6 5 5 5 5 5 5 5 5 5 6 5 5 6 6 5 5 5 5 6 5 5 6 5 5 5 5 5 6 6 5 5 5 5 5 5 5 5 5 5 5 5 5 5 5 5 5 5 5 5 5 5 5 5 5 5 5 5 5 5 5 5 5 5 5 5 5 5 5 5 5 5 5 5 5 5 5 5 5 5 5 5 5 5 5 5 5 5 5 5 5 5 5 5 5 5 5 5 5 5 5 5 5 5 5 5 5 5 5 5 6 5 5 5 5 5 5 5 6 6 5 6 5 5 5 5 5 5 5 6 5 5 5 5 5 5 5 5 5 5 6 5 5 6 5 5 5 5 5 5 5 5 5 5 5 6 5 5 5 5 5 5 5 5 5 5 5 5 5 6 6 5 5 5 5 5 5 5 5 5 5 5 5 5 5 5 5 5 5 5 5 5 5 5 5 5 5 5 5 5 5 5 5 5 5 5 5 5 5 5 5 5 6 5 5 5 5 5 6 5 5 5 5 5 5 5 5 5 5 5 5 5 5 5 5 6 6 5 5 5 5 5 6 5 5 5 5 6 5 5 5 5 5 5 6 5 6 5 5 5 5 5 5 5 5 5 6 5 5 5 5 5 6 5 5 6 5 5 5 5 5 5 5 5 5 6 5 6 5 6 5 5 5 6 5 5 6 5 6 6 5 6 5 6 5 5 5 5 5 5 5 5 6 5 5 6 5 5 5 5 5 5 6 6 5 6 5 5 5 6 5 5 5 5 6 5 6 5 5 5 5 6 6 5 5 5 5 5 5 5 5 5 5 5 5 5 5 5 5 5 5 5 6 6 6 6 5 5 6 5 6 5 5 5 6 5 6 5 6 6 6 5 5 5 5 5 6 5 5 5 5 5 6 5 6 5 5 6 5 6 5 6 5 5 5 5 6 5 5 6 5 5 5 6 6 6 6 5 6 5 6 5 5 5 6 6 6 5 6 5 6 5 5 6 6 5 5 6 5 5 6 5 6 5 5 5 5 5 6 5 6 5 6 6 5 5 6 5 6 6 5 5 5 6 5 6 5 5 5 6 5 5 5 5 6 5 6 5 5 5 5 5 5 5 5 5 6 6 5 6 5 6 5 5 6 5 5 5 5 5 5 5 5 5 5 5 5 5 5 5 5 6 6 5 5 5 5 5 5 5 5 5 5 5 5 5 5 5 5 5 5 5 5 5 5 5 5 5 5 5 6 5 5 6 5 5 5 5 5 5 6 5 5 5 6 6 5 6 5 5 6 5 5 6 5 5 6 5 6 5 5 5 5 5 5 6 5 5 5 5 5 5 5 5 5 6 5 5 5 5 5 5 6 6 5 5 5 5 6 5 5 5 5 5 5 5 5 6 5 6 5 6 5 5 5 5 5 5 5 6 5 6 6 5 5 5 5 5 5 5 5 6 5 5 5 5 6 5 6 5 5 6 5 5 6 5 5 5 5 5 5 5 5 5 5 5 5 5 5 5 5 6 5 5 5 6 5 5 5 5 5 5 5 5 5 5 5 6 5 5 5 5 6 6 5 5 5 5 5 6 5 5 5 6 5 5 5 5 5 6 5 5 5 5 5 5 5 6 5 6 6 5 6 5 5 5 5 6 6 5 5 5 6 5 6 5 6 5 5 5 6 5 5 5 6 5 5 6 5 6 6 6 5 5 6 5 6 5 6 5 5 6 6 5 5 5 6 5 5 6 5 5 5 5 5 5 5 6 5 5 5 5 5 5 5 5 5 5 5 5 5 5 5 5 5 5 5 5 5 6 5 5 6 5 5 5 5 6 5 6 5 5 5 5 5 5 5 5 5 5 5 5 5 5 5 5 5 5 5 5 5 5 5 5 5 5 5 5 5 6 5 5 5 5 5 5 6 5 5 5 5 5 5 5 5 5 5 5 5 5 5 5 6 5 5 5 6 5 6 5 5 6 5 5 5 5 6 5 5 6 5 6 6 6 5 5 5 6 5 5 6 5 6 5 5 5 5 5 5 5 5 5 5 5 5 5 6 5 5 5 5 5 5 5 5 5 5 5 5 5 5 5 5 5 5 5 5 5 5 5 5 5 5 6 5 6 5 5 5 5 5 6 5 5 5 5 5 5 5 5 5 5 5 5 5 5 5 6 5 6 5 5 6 5 5 5 5 5 5 5 5 5 5 5 5 5 5 5 5 5 5 5 6 5 5 5 5 5 5 5 5 6 5 6 5 5 5 5 6 6 5 5 5 5 5 6 6 5 5 5 5 5 6 6 5 5 5 5 5 5 6 5 5 5 5 5 5 5 5 5 5 5 5 6 5 5 5 5 5 5 5 5 5 5 5 5 5 5 5 5 5 5 5 5 5 5 6 5 5 6 5 6 5 5 5 5 6 5 5 5 5 5 5 5 5 5 5 5 5 5 5 5 5 5 5 5 5 5 5 5 5 5 5 5 5 6 5 5 6 5 5 5 6 5 5 5 5 5 6 5 5 5 5 6 5 5 5 5 5 5 5 5 5 5 5 5 5 5 5 5 5 5 5 5 5 5 5 5 5 5 6 5 5 5 6 5 6 5 6 6 5 5 5 6 5 6 6 5 5 5 6 5 5 6 5 5 5 5 5 5 6 5 5 5 5 5 5 5 5 5 6 5 5 5 5 5 6 5 5 5 5 5 5 5 5 5 6 5 5 6 5 6 5 5 5 5 5 5 5 5 5 5 5 6 5 5 5 5 5 5 6 5 5 5 5 6 6 5 6 5 5 5 6 6 5 6 5 5 6 5 5 5 5 5 5 5 5 5 5 5 5 5 5 5 5 5 5 5 5 5 5 5 5 5 5 5 5 5 5 5 5 5 5 5 5 5 5 5 5 5 5 5 5 5 5 5 5 5 5 5 5 5 5 5 5 5 5 5 5 5 5 5 5 5 5 6 5 5 5 5 5 5 5 5 5 5 5 5 5 5 5 5 6 5 5 5 5 5 5 6 5 6 6 5 5 5 5 6 5 6 5 5 5 5 6 5 5 5 6 5 6 5 5 5 5 5 6 5 6 5 5 5 6 5 5 5 5 5 5 5 5 6 5 5 5 5 6 6 5 5 5 5 6 6 5 5 5 5 5 5 5 5 6 6 5 6 5 5 5 5 6 5 5 5 6 5 5 5 5 5 5 5 5 5 5 5 5 6 5 5 5 5 5 5 5 5 5 5 5 5 5 6 5 5 5 5 5 5 5 6 5 5 5 5 5 5 5 5 5 5 5 5 5 6 5 5 5 5 5 5 5 5 5 5 5 5 5 6 5 6 5 5 5 5 5 5 5 5 5 5 5 5 5 5 5 5 5 5 5 5 5 5 5 5 5 5 5 5 5 5 5 5 5 5 5 5 5 5 5 5 5 5 5 5 5 5 5 5 5 5 5 5 5 5 5 5 5 5 5 5 5 5 5 5 5 5 5 5 5 5 5 5 5 5 5 5 5 5 5 5 5 5 5 5 5 5 5 5 5 5 5 5 5 5 5 5 5 5 5 5 5 5 5 5 5 5 5 5 5 5 5 5 5 5 5 5 5 5 5 5 5 5 5 6 5 5 5 5 5 5 6 5 5 5 5 5 6 5 5 5 5 5 6 5 5 6 5 5 5 6 5 5 5 5 5 6 5 5 5 5 5 5 5 6 5 5 5 5 5 5 5 5 5 5 5 5 5 5 5 5 5 5 5 6 5 5 5 5 5 5 5 6 5 5 5 5 5 5 6 5 6 5 5 5 6 5 5 6 5 5 5 5 5 5 5 5 5 5 6 5 5 5 5 5 5 5 5 5 5 5 5 5 5 5 6 5 5 6 5 5 5 5 5 5 5 5 5 5 5 5 5 5 5 5 6 5 5 5 5 5 5 5 5 5 5 5 5 5 5 5 6 5 5 5 5 5 5 5 5 6 5 5 5 5 5 5 5 5 5 5 5 6 5 5 5 5 5 6 5 5 5 5 5 5 5 5 6 5 5 5 5 6 5 5 6 5 5 5 5 5 5 5 6 5 5 6 5 5 6 5 5 5 5 5 5 5 5 5 5 5 5 5 6 5 5 5 5 5 5 5 5 5 5 5 5 6 5 5 6 5 5 6 5 5 5 6 5 5 5 5 5 5 5 5 5 5 5 6 5 5 5 5 5 5 5 5 5 5 5 6 5 5 5 5 5 5 5 5 5 5 5 5 5 5 5 5 5 5 5 6 5 5 5 5 5 5 5 5 5 5 5 6 5 6 5 6 5 5 5 5 6 5 5 5 5 5 5 5 5 5 5 5 5 5 5 5 5 5 5 5 5 5 5 5 5 5 5 5 5 6 5 5 5 5 6 5 5 5 6 5 5 5 6 5 5 5 5 6 5 6 5 5 6 6 5 5 5 6 5 6 5 5 6 5 6 5 5 5 6 5 5 6 5 6 5 5 5 6 5 6 5 5 6 6 5 5 5 6 6 5 5 6 5 5 5 5 5 5 5 5 5 5 5 6 6 5 5 5 5 5 5 6 5 6 5 6 5 5 6 5 5 6 5 6 5 5 5 5 5 5 5 5 5 5 5 5 5 5 5 5 5 5 5 6 5 5 5 5 5 5 5 5 5 5 5 5 5 5 5 5 5 5 5 5 5 5 5 5 5 5 5 5 5 5 5 5 6 6 5 5 5 6 5 6 5 6 5 6 5 5 5 5 6 5 5 5 5 5 5 5 6 5 5 5 5 5 5 5 5 5 5 5 5 5 5 5 6 5 5 5 5 5 6 5 5 5 5 5 5 5 6 5 5 5 5 6 5 5 5 5 5 6 5 5 5 6 5 6 5 5 5 6 5 6 5 6 5 5 6 5 5 5 6 5 5 5 5 5 6 5 5 5 6 5 5 6 5 5 6 5 5 5 5 5 5 5 5 5 5 5 5 5 5 5 5 6 5 5 6 5 5 5 5 6 5 5 5 5 5 5 5 5 5 5 5 5 5 5 5 5 5 5 6 6 5 5 5 5 5 5 5 5 5 5 5 5 5 6 5 6 5 6 6 6 5 5 5 5 5 5 5 5 5 6 5 5 6 5 5 5 5 5 5 6 5 5 5 6 5 5 6 5 5 5 5 5 5 6 6 5 5 5 5 6 5 5 6 6 5 5 5 5 5 5 5 6 6 5 5 5 5 5 6 5 6 5 5 6 5 5 6 6 5 6 5 5 5 5 6 6 5 5 5 5 6 5 5 6 5 5 6 5 5 6 5 5 5 5 5 5 5 5 5 5 5 5 5 5 5 5 5 5 5 5 5 6 5 6 6 5 5 6 5 5 5 5 5 5 5 5 5 6 5 5 5 5 5 5 5 6 5 5 5 5 5 5 5 5 5 5 5 5 5 5 5 6 5 5 5 5 5 6 6 5 5 6 6 6 5 5 5 5 5 5 6 5 6 5 5 5 5 5 5 6 5 6 5 5 5 6 5 5 5 5 5 5 5 5 5 5 6 5 5 5 5 5 5 5 5 5 5 5 5 5 5 5 5 5 5 5 5 5 5 5 5 6 5 5 5 5 5 5 5 6 6 5 5 6 6 5 5 5 5 5 5 5 5 5 5 5 5 5 5 5 5 5 5 5 5 5 5 5 5 5 5 6 5 5 5 6 5 5 6 5 5 5 5 5 5 5 5 5 5 5 5 5 5 5 5 5 5 5 5 5 5 5 5 5 5 5 5 5 5 5 5 5 5 5 5 5 5 5 5 5 5 5 5 5 5 5 5 5 5 5 6 5 5 5 5 5 5 5 5 5 5 5 6 6 5 5 5 6 5 5 5 5 5 5 5 5 5 6 5 5 5 5 6 5 5 5 5 5 5 5 5 6 6 5 5 5 5 6 5 5 5 5 5 5 6 5 5 5 5 5 6 5 5 5 6 5 5 6 5 5 6 5 5 5 5 5 5 6 5 5 5 5 5 5 5 5 5 5 5 5 5 5 5 5 5 5 5 5 5 5 5 5 5 5 5 5 5 5 5 5 5 5 5 5 5 5 5 5 5 5 5 5 5 5 5 5 5 5 5 6 5 5 5 5 5 6 5 5 5 5 6 5 5 5 5 5 5 5 5 5 5 6 6 5 5 5 5 6 5 6 5 5 5 5 5 5 5 5 5 5 5 5 5 5 5 5 5 5 5 5 5 5 5 6 5 5 5 5 5 5 5 6 5 5 5 6 5 6 5 5 5 5 5 5 5 5 5 5 5 5 5 5 5 5 5 5 5 5 5 5 5 5 5 5 5 6 5 5 5 5 5 5 5 5 5 5 5 5 5 5 5 6 5 6 5 5 5 5 6 5 5 5 5 6 5 5 5 5 5 5 5 5 5 6 5 5 5 5 5 5 5 5 6 5 5 6 5 5 6 5 5 5 5 5 5 5 5 5 6 5 5 5 5 5 5 5 5 5 5 6 5 5 5 5 6 5 5 5 5 5 5 5 5 5 5 5 5 5 5 5 5 5 5 5 5 6 5 6 5 5 5 5 5 5 5 5 5 5 5 6 5 5 6 6 5 5 5 6 5 5 6 5 5 5 5 5 5 6 5 5 6 5 6 5 5 5 5 5 5 5 6 5 6 5 6 6 5 5 5 5 5 6 6 6 5 5 5 5 6 6 5 5 5 5 6 5 5 6 5 5 6 5 5 5 5 5 5 5 5 5 5 5 5 5 5 5 5 6 6 5 5 6 5 5 5 5 6 5 5 5 5 6 5 6 5 5 5 5 5 5 5 6 6 5 5 5 5 6 5 6 6 5 5 5 5 5 5 5 5 5 5 5 5 5 5 5 5 5 5 5 5 5 5 6 5 6 5 5 6 5 5 6 6 5 5 5 5 5 5 5 5 5 6 5 5 6 6 6 5 6 5 5 5 6 6 5 5 5 6 6 5 5 5 6 6 5 6 5 6 5 5 5 6 5 6 5 5 5 6 5 5 5 5 5 5 5 5 5 5 5 6 6 5 5 6 5 5 5 6 5 6 5 5 5 6 5 5 5 5 5 5 5 5 5 5 6 5 5 5 5 5 5 6 5 5 6 5 5 5 5 5 5 5 5 5 5 5 6 5 5 5 5 5 5 5 5 5 5 5 6 6 5 6 5 5 5 5 6 6 5 5 5 5 5 5 6 5 5 5 5 5 5 6 5 5 5 6 5 6 5 5 5 5 6 5 5 6 6 5 5 6 5 5 6 5 5 5 6 5 5 5 5 5 5 5 6 6 5 5 5 5 5 5 5 5 6 6 5 5 6 5 5 5 5 5 5 6 5 5 5 5 5 5 5 5 6 5 6 5 5 5 5 6 5 5 5 5 5 5 5 5 5 5 5 6 5 6 6 5 5 6 5 5 5 5 5 6 5 6 5 5 5 5 6 5 5 5 5 5 5 5 5 5 5 6 5 5 5 5 5 5 5 5 5 5 5 5 6 5 5 5 5 6 5 5 6 5 5 5 5 5 5 5 5 5 5 5 5 5 5 6 5 5 5 5 5 5 5 5 5 5 5 5 6 5 5 5 5 5 5 6 5 5 5 5 6 6 5 5 6 5 5 6 5 5 5 5 6 5 5 5 5 5 6 5 5 5 6 5 5 5 5 5 6 5 6 5 6 6 6 5 5 5 5 5 5 5 5 6 5 5 6 5 5 5 5 5 5 5 5 5 6 5 5 5 5 5 5 5 5 5 5 5 5 5 5 5 5 5 5 5 5 5 5 5 5 5 5 5 5 5 5 6 5 6 5 5 5 6 5 5 6 5 6 6 5 6 5 6 5 5 5 5 5 5 5 5 6 5 6 5 5 6 5 6 5 6 5 5 5 5 5 5 5 5 6 6 5 5 5 6 5 6 5 6 6 5 5 5 5 5 5 5 5 5 6 5 5 6 5 5 5 5 5 5 5 5 6 5 5 6 5 5 5 5 5 5 5 5 6 5 6 5 5 5 5 5 5 5 6 5 5 5 5 5 5 5 5 5 5 6 5 5 6 6 5 6 6 6 5 5 6 5 5 6 5 5 5 5 6 5 5 5 5 5 5 5 5 5 5 5 5 5 5 5 5 5 5 5 5 5 5 5 6 5 5 5 6 5 5 5 5 6 5 5 5 5 5 5 5 5 5 5 5 6 5 5 5 5 5 5 5 5 5 5 5 5 5 5 5 5 6 5 5 5 6 5 5 5 5 5 6 5 5 5 5 6 5 5 5 5 5 5 6 5 5 5 5 5 6 5 5 6 5 5 5 6 5 5 5 6 5 5 5 6 5 5 5 5 5 5 5 6 5 5 5 5 5 6 5 5 5 6 5 5 5 5 5 6 6 5 5 5 5 5 5 5 5 6 6 5 5 5 6 5 6 5 5 5 5 5 5 5 6 5 6 5 5 5 5 6 5 6 5 6 5 5 5 5 5 5 6 5 5 5 6 5 5 5 5 5 6 5 5 5 5 5 5 5 5 5 5 5 5 5 5 5 5 5 5 5 5 5 5 6 5 6 5 5 6 5 5 5 5 5 5 6 5 5 6 5 5 5 5 5 5 5 5 5 5 5 5 5 5 5 5 5 5 5 5 5 5 5 5 6 5 5 5 5 6 5 5 5 5 5 5 5 5 5 5 5 5 5 6 5 6 5 5 5 5 5 6 5 5 5 5 5 5 5 5 5 5 5 5 5 5 5 5 5 5 5 5 6 6 5 5 5 5 5 5 5 5 5 5 5 5 5 6 5 5 5 5 5 5 5 5 5 5 5 5 5 5 5 5 5 5 6 5 5 5 5 5 5 5 5 5 5 5 5 5 5 5 5 5 5 5 5 5 6 5 5 5 5 5 6 5 5 5 5 5 5 5 5 5 5 6 5 6 5 5 5 5 5 5 5 5 5 5 5 6 5 5 6 5 5 5 5 5 5 6 6 5 5 5 6 5 5 5 5 5 5 5 5 5 5 5 5 5 5 5 5 5 5 5 5 5 5 5 5 5 5 5 5 5 5 5 5 5 5 5 5 5 5 5 6 5 5 5 5 5 5 5 5 5 5 5 5 5 5 5 5 5 5 5 5 5 5 5 5 5 5 5 6 5 5 6 5 5 5 5 6 5 5 5 6 5 5 5 5 5 5 5 5 5 5 5 5 5 5 5 6 5 5 6 5 5 5 5 5 5 5 5 6 5 5 5 5 5 5 5 6 5 5 5 5 5 5 5 5 5 5 5 5 5 5 5 5 5 5 5 5 5 5 5 5 5 5 6 5 5 5 5 5 5 5 5 5 5 5 5 5 5 6 5 5 5 5 6 5 5 5 5 5 5 5 5 5 5 5 5 5 5 5 5 5 5 5 5 5 5 5 5 5 5 5 5 6 5 5 5 6 5 5 5 5 5 5 5 6 5 5 5 5 6 5 5 6 5 5 5 5 5 6 5 6 6 5 5 5 5 5 5 5 5 5 5 5 5 5 5 5 5 5 5 5 5 5 5 5 5 5 5 5 5 5 6 5 5 5 5 5 5 6 5 5 5 6 5 5 5 6 5 5 5 6 5 5 5 5 5 5 6 5 5 5 5 5 5 6 5 5 5 5 5 5 5 5 5 5 6 5 5 5 5 5 5 5 5 5 5 5 6 5 5 5 5 6 5 5 5 6 5 5 5 5 5 5 5 5 5 5 5 5 5 5 5 5 5 5 5 5 5 5 5 5 5 5 5 5 5 5 5 5 5 5 5 5 5 5 5 5 6 6 5 5 5 5 5 5 5 5 5 6 5 6 6 5 5 5 6 6 5 5 5 5 5 5 5 5 5 5 5 6 5 5 6 6 5 5 5 5 5 5 5 5 5 5 5 5 5 5 5 5 5 5 5 5 5 5 6 5 6 5 5 5 6 6 5 5 5 5 5 6 6 6 6 5 5 5 5 5 5 5 6 5 5 5 5 5 5 5 6 5 5 6 5 5 6 5 5 5 5 5 5 5 5 5 5 5 5 5 5 5 5 5 5 6 5 5 5 5 6 5 5 5 5 5 5 5 5 5 5 5 5 5 5 5 5 5 5 5 5 6 5 5 5 6 5 5 5 5 5 5 5 5 5 5 5 5 5 6 6 5 6 5 5 5 5 6 5 5 5 5 6 5 5 5 5 5 5 5 6 5 5 5 6 5 5 5 5 5 5 5 5 5 6 6 5 5 5 6 5 5 5 5 6 5 5 6 6 5 6 5 6 5 6 5 5 5 6 5 5 5 5 5 5 5 5 5 6 5 5 5 5 6 5 6 5 5 6 5 5 5 5 5 5 5 5 5 5 5 5 5 5 5 5 6 5 5 5 5 5 5 6 5 5 6 5 5 5 5 5 5 5 5 5 5 5 5 6 5 5 5 6 5 6 5 6 5 5 5 5 6 5 5 5 5 5 5 5 6 6 5 5 5 5 5 5 5 5 5 5 5 5 5 5 5 5 5 5 5 5 5 5 5 5 5 6 5 5 5 5 5 5 6 5 5 5 5 5 5 6 5 5 5 5 5 5 5 5 5 5 5 5 5 5 6 6 6 5 5 5 5 5 5 5 5 6 5 5 5 5 6 5 5 5 5 6 5 5 5 5 5 5 6 5 5 5 6 5 5 5 5 5 5 5 5 5 5 5 5 5 5 5 5 5 5 5 5 5 5 5 5 5 5 6 5 5 5 5 6 5 5 5 5 5 5 5 6 5 5 5 5 6 5 5 5 5 5 5 5 5 5 5 6 5 5 6 5 5 5 5 5 5 5 5 5 5 5 5 5 5 5 5 5 6 5 5 5 5 5 5 5 5 5 5 5 5 5 5 5 6 5 5 6 5 5 5 5 5 5 5 5 5 5 5 5 5 5 5 5 5 5 5 5 5 6 5 5 6 5 5 5 5 5 5 5 5 5 6 5 5 5 6 5 5 5 5 5 5 5 5 5 5 5 5 5 5 5 5 5 5 5 6 5 5 5 5 6 5 5 5 5 5 5 5 5 5 5 5 5 6 5 5 5 5 5 5 5 5 5 5 5 5 5 5 5 5 5 5 5 5 5 5 5 5 5 5 5 5 5 5 5 5 5 5 5 5 5 5 5 6 6 5 5 5 5 5 5 5 5 5 6 5 5 5 5 5 5 5 5 5 5 5 6 5 5 5 5 5 6 6 5 5 5 5 6 5 5 5 6 5 5 5 5 5 5 5 5 5 6 5 5 5 5 5 5 5 5 6 6 6 5 5 6 5 5 5 5 5 5 5 5 5 5 5 5 6 5 5 5 5 5 5 5 5 5 5 5 5 6 5 5 5 5 5 5 5 6 5 5 5 5 5 5 5 5 5 5 5 5 6 5 6 5 5 5 5 5 6 5 5 5 5 5 5 5 6 5 5 5 5 5 5 5 5 5 6 5 5 6 5 5 5 5 5 5 5 5 5 5 5 5 5 5 5 5 5 6 5 5 6 5 5 5 5 5 5 5 5 5 5 5 5 5 5 5 5 5 5 5 5 5 5 5 5 5 5 5 6 5 6 5 5 5 5 5 5 5 5 5 5 6 5 5 5 5 5 5 5 5 5 5 5 5 5 5 5 5 5 5 5 5 5 5 5 5 5 5 5 5 5 5 5 5 5 5 5 5 5 5 5 5 5 5 5 5 5 6 5 5 6 5 5 6 5 5 5 5 5 6 5 5 5 5 5 5 6 5 5 6 5 5 6 6 6 5 6 6 5 5 5 5 5 6 5 5 5 6 5 5 5 5 5 6 5 6 5 5 5 5 5 6 5 5 5 5 6 5 6 5 5 5 5 5 6 5 6 5 6 5 5 5 6 5 5 5 5 6 5 5 5 5 5 5 5 5 5 5 5 5 5 5 5 5 5 5 5 5 5 5 5 6 5 5 6 5 5 5 5 6 5 5 5 5 5 5 6 5 6 5 5 5 5 5 5 5 5 5 6 6 6 5 5 6 5 5 5 5 5 5 5 5 5 5 6 6 6 5 5 5 5 5 5 5 6 5 6 5 6 5 5 5 5 6 5 5 5 6 5 5 5 5 6 5 5 6 5 5 5 5 5 5 5 5 6 5 5 5 5 6 5 5 6 5 5 5 5 5 6 5 5 5 5 5 5 5 5 5 5 5 5 5 5 5 5 5 5 5 5 5 5 5 6 5 6 5 5 5 5 6 5 5 5 6 5 6 5 5 5 5 5 5 5 5 5 6 5 6 6 5 5 5 6 5 5 5 5 5 5 5 5 5 5 5 5 5 5 5 5 5 6 5 6 5 5 5 5 5 5 5 5 5 5 5 5 5 5 5 5 5 5 5 5 5 5 5 5 5 5 5 5 5 5 5 5 5 5 5 5 5 5 5 5 5 5 5 5 6 5 5 5 5 5 5 5 5 5 5 6 5 5 5 6 5 5 5 5 5 5 5 5 6 5 5 5 6 5 5 6 5 5 5 5 5 5 5 5 6 5 5 5 5 6 5 5 5 5 5 5 5 5 6 5 5 5 5 5 5 5 5 5 5 5 5 6 6 6 5 5 5 6 5 5 6 6 5 6 5 6 5 5 5 5 6 5 5 5 5 5 5 6 5 6 5 5 5 6 5 5 5 5 6 6 5 5 5 5 5 6 5 5 5 6 5 6 6 5 5 5 5 5 6 5 5 6 5 5 6 5 5 5 5 5 5 5 5 5 5 5 5 5 5 5 5 5 5 5 5 5 6 5 6 5 5 5 5 5 5 6 5 5 5 5 5 5 5 6 5 5 5 5 5 5 5 5 5 5 5 5 5 5 5 5 5 6 5 5 6 5 5 5 5 5 5 5 5 5 5 5 5 5 5 6 5 5 6 5 5 5 5 5 6 5 6 5 5 5 6 5 5 5 5 5 5 6 5 5 5 5 6 5 5 5 5 5 6 5 5 5 5 5 5 5 5 5 5 5 5 6 5 6 5 5 5 5 5 6 5 5 5 5 5 5 5 5 5 5 6 5 5 5 5 5 5 5 5 5 5 5 5 6 5 5 5 5 6 5 5 5 5 5 5 5 5 5 6 5 6 5 5 5 5 5 5 5 6 5 6 5 6 5 5 5 5 5 5 6 5 5 5 5 5 5 5 5 5 6 5 5 5 6 5 6 5 5 5 5 6 5 5 6 5 5 5 5 5 6 5 5 5 5 5 5 5 5 5 5 5 5 5 5 6 5 5 5 5 5 5 5 5 5 5 5 6 5 5 5 5 6 5 6 5 5 5 6 5 5 6 5 6 5 5 5 5 5 5 5 6 5 5 5 5 5 5 5 5 5 5 5 5 5 5 5 5 5 5 5 5 6 5 5 6 5 6 5 5 6 5 5 5 6 6 5 5 5 5 6 6 5 5 5 6 6 5 6 5 5 6 5 5 5 5 6 5 5 5 5 5 5 5 6 5 5 5 6 6 6 5 5 5 6 6 6 5 5 5 5 6 5 5 5 5 5 6 5 5 5 5 5 5 5 5 5 6 5 5 5 5 6 6 5 5 5 5 5 5 5 5 6 5 5 5 5 5 6 5 5 6 6 5 5 5 5 6 6 5 5 6 5 5 5 5 5 5 5 5 6 5 5 5 5 5 5 5 5 6 5 5 5 6 5 5 5 5 5 5 6 5 6 5 6 5 5 6 5 5 5 5 5 6 6 5 5 5 5 6 5 5 5 5 5 6 6 5 5 6 5 6 5 5 6 5 6 5 5 5 5 5 5 6 5 6 5 5 5 6 5 5 5 6 5 5 5 5 5 5 5 5 5 5 5 5 6 5 5 5 5 5 5 5 5 5 5 5 6 5 5 5 5 5 5 5 5 5 5 5 5 5 5 5 5 6 5 5 5 5 6 5 5 6 5 5 5 5 5 5 5 6 5 5 6 5 5 5 6 5 5 5 5 5 6 5 6 5 6 5 5 5 5 6 6 6 5 6 5 5 5 5 5 5 5 5 5 5 6 5 5 6 6 5 5 6 6 5 5 5 5 6 5 5 5 6 6 5 5 6 5 6 5 6 5 5 5 6 5 5 5 5 5 6 5 5 5 5 5 5 6 6 5 5 5 5 5 5 5 5 5 5 5 5 5 6 5 5 5 5 5 6 5 5 5 5 5 5 5 5 6 5 5 6 5 6 5 5 5 5 5 5 5 5 6 5 6 5 5 5 6 6 5 5 6 6 5 6 5 6 6 5 6 5 5 6 5 5 6 5 5 5 5 6 5 5 6 5 5 5 5 5 5 5 5 5 6 5 5 5 5 5 5 5 5 6 5 5 6 5 5 5 5 6 5 5 5 5 5 5 5 5 6 6 5 5 5 6 5 6 5 6 5 5 5 5 5 5 5 5 5 6 5 5 5 6 5 5 5 6 5 5 6 5 5 5 5 5 6 6 5 6 5 5 5 5 5 5 5 5 5 5 5 5 6 5 5 6 5 6 5 5 5 5 6 5 6 5 6 5 5 5 5 5 6 5 5 6 5 5 5 6 5 6 5 5 6 5 5 6 5 5 5 5 6 5 6 5 6 5 5 6 6 6 5 5 5 5 5 5 5 5 5 5 5 5 5 5 5 5 5 6 5 5 5 5 5 5 5 5 5 5 6 5 5 5 5 5 5 5 5 5 5 5 5 5 5 5 5 5 5 5 5 5 5 5 5 5 5 5 5 5 5 5 5 5 5 5 5 5 5 5 5 5 5 5 5 6 5 5 5 5 5 5 5 6 5 5 5 5 5 5 5 6 5 5 6 5 5 5 5 5 5 5 6 5 5 6 5 6 5 5 5 6 5 5 5 5 5 5 5 5 5 5 5 5 5 6 5 5 5 6 6 5 6 5 5 5 5 5 5 5 5 5 5 5 5 5 5 5 5 5 5 5 6 5 5 6 5 5 5 5 6 5 5 5 5 5 5 5 6 5 5 5 5 6 5 5 6 5 5 6 5 5 5 6 5 5 5 6 5 5 5 5 5 5 5 5 5 5 5 5 6 5 5 6 5 5 6 5 5 5 6 5 5 6 5 5 5 5 6 5 5 5 5 6 5 6 6 5 6 6 5 5 5 5 6 5 5 5 6 5 5 6 5 5 5 5 6 5 5 5 5 5 6 5 5 6 5 6 6 5 5 5 6 5 6 5 5 5 5 5 6 6 5 6 5 5 5 5 5 5 5 5 5 5 5 5 5 5 5 6 5 5 6 6 5 6 5 5 5 5 5 5 5 5 5 6 5 5 5 5 5 5 5 5 5 5 5 5 6 5 6 5 5 5 5 5 6 5 6 5 6 5 5 5 6 5 5 5 5 6 5 5 6 5 6 5 5 6 5 5 6 5 5 6 5 5 5 5 5 5 5 5 5 5 5 6 5 5 5 6 5 6 5 5 5 5 5 6 5 5 5 6 5 5 5 5 5 5 5 5 6 5 5 5 5 5 6 5 5 5 5 5 5 5 5 5 5 5 5 5 5 5 5 5 5 5 5 6 5 5 5 6 5 5 5 5 5 6 5 5 6 5 5 5 6 5 5 5 5 5 5 5 6 6 5 5 5 5 5 6 5 5 6 5 5 5 5 6 5 5 5 5 6 5 5 5 5 5 5 5 5 5 5 5 5 5 5 5 5 5 5 5 5 5 5 5 5 5 5 5 5 6 5 5 5 5 6 5 5 5 5 5 5 6 5 5 5 5 6 5 5 6 5 5 5 5 5 6 5 5 5 6 5 5 5 6 5 6 5 5 5 5 5 5 5 6 5 6 5 5 5 6 5 5 6 5 6 5 5 5 5 5 6 5 5 5 5 5 5 5 6 5 5 5 6 5 6 5 6 5 6 5 6 5 5 5 5 5 5 5 5 5 5 5 6 5 5 5 5 6 5 5 5 5 6 5 5 5 5 5 5 5 5 5 5 5 5 5 5 5 6 5 6 5 5 5 6 5 5 5 5 5 6 5 5 5 6 5 5 5 5 6 6 5 5 5 6 5 5 5 5 5 5 5 5 6 5 5 5 5 5 5 6 5 5 5 5 5 5 5 5 6 6 5 5 5 5 5 5 6 5 5 6 5 6 5 5 5 5 5 6 5 6 5 5 5 5 5 5 5 5 5 6 5 5 5 5 5 5 5 5 6 5 5 5 5 5 5 5 5 5 5 5 5 5 5 6 5 6 5 5 5 6 5 5 5 6 5 5 5 5 5 5 5 5 5 5 6 5 5 5 6 5 5 5 5 5 5 5 5 5 5 5 5 5 6 5 5 5 5 5 5 5 5 5 5 5 5 5 6 5 5 5 5 5 6 5 5 5 5 6 5 5 5 5 5 5 5 5 5 6 5 5 5 5 5 5 5 5 6 5 5 5 5 5 5 5 5 5 5 5 5 5 5 5 5 5 5 5 5 6 5 5 6 5 5 5 5 5 5 5 5 5 5 5 5 5 5 5 5 5 5 5 5 5 5 5 5 5 5 5 5 5 6 5 5 6 5 5 5 6 5 5 6 5 5 5 6 5 6 5 5 6 5 6 5 6 5 5 5 5 6 5 5 5 5 5 5 5 6 5 5 6 5 5 6 6 6 6 5 5 5 5 5 5 5 5 5 5 5 5 5 5 5 5 5 5 5 5 5 5 5 5 5 5 5 5 6 6 5 5 5 5 6 5 6 5 5 5 6 5 5 5 5 5 5 5 5 6 5 5 5 5 6 5 5 5 5 6 5 5 6 5 6 5 5 5 6 5 5 5 5 5 5 5 5 5 5 5 5 5 5 5 5 6 5 5 5 5 5 5 5 6 5 5 5 5 5 5 5 5 5 6 5 5 5 5 5 5 5 5 5 6 5 5 5 6 5 5 5 5 5 5 5 5 5 5 5 5 5 5 5 5 5 5 5 6 5 5 5 6 5 5 5 5 5 5 5 5 5 5 5 5 5 5 5 5 5 5 5 5 5 5 5 5 5 5 5 5 6 5 6 5 5 5 6 5 5 6 5 5 5 5 5 5 5 5 5 5 6 5 5 5 5 5 6 5 5 5 5 5 5 5 5 5 6 5 5 5 5 5 5 5 5 5 5 5 5 5 5 5 5 5 5 5 5 5 5 5 5 5 5 5 5 5 5 5 5 5 5 5 5 5 5 5 5 5 5 5 5 5 5 5 5 5 5 5 5 5 5 5 5 5 5 5 5 5 5 5 5 5 5 5 5 5 5 5 5 5 6 5 6 5 5 5 5 5 5 6 5 5 5 5 5 5 5 5 5 5 6 5 5 5 5 5 5 6 5 5 6 5 5 5 5 5 5 5 6 5 5 5 5 5 5 6 5 5 5 6 5 5 5 5 5 5 6 5 5 5 6 5 5 5 5 5 5 5 5 5 5 5 5 5 5 5 5 5 5 5 5 5 5 5 5 5 5 5 5 5 5 6 5 5 6 6 5 5 5 5 5 5 5 5 5 5 5 5 6 5 5 5 5 5 5 5 5 5 5 5 6 5 5 5 5 5 6 5 5 5 5 5 6 5 5 5 5 5 5 5 5 5 6 5 5 5 5 5 5 5 5 5 6 5 5 5 5 6 5 5 5 5 5 5 5 5 5 6 5 5 6 5 5 6 5 5 5 5 5 5 6 5 5 6 5 6 5 5 6 5 5 5 5 5 5 5 5 5 5 5 5 5 5 5 5 5 5 5 5 5 5 5 5 5 5 5 5 5 5 5 5 5 5 5 5 5 5 5 5 5 5 5 5 5 5 5 5 5 5 5 6 5 5 5 5 5 5 5 5 5 5 5 5 5 5 6 6 5 5 5 5 5 5 6 6 5 5 5 5 5 5 5 5 5 5 5 5 5 5 5 5 6 6 5 6 5 5 6 5 5 5 6 5 5 5 5 5 5 5 5 5 5 5 5 5 5 5 5 5 5 5 5 5 5 5 5 5 6 5 5 5 6 5 6 5 6 5 5 5 6 5 5 5 5 5 5 6 5 6 5 5 6 5 5 5 5 5 5 6 5 5 5 5 5 5 5 5 5 5 5 5 5 5 5 5 5 5 5 5 5 5 6 5 5 5 6 5 5 5 5 5 6 5 5 6 5 5 5 6 5 5 5 5 5 5 5 5 5 5 5 5 5 5 5 5 6 5 5 6 5 6 5 5 5 6 5 5 6 5 5 5 5 5 5 6 5 5 5 5 6 5 5 6 5 5 5 6 5 5 6 5 5 6 5 5 5 5 5 6 5 5 5 5 5 5 6 5 5 5 5 6 5 5 5 5 5 5 5 5 6 5 5 5 5 5 5 5 5 5 5 5 5 6 5 5 5 5 5 5 6 5 5 5 5 5 5 5 5 5 5 5 5 6 5 5 6 5 5 5 5 5 5 5 5 5 5 6 5 6 5 5 5 5 5 5 5 5 6 6 5 5 5 6 5 5 5 6 6 6 6 5 5 5 5 5 6 5 5 6 5 5 6 5 5 5 5 5 5 5 6 5 5 5 5 5 5 5 5 5 5 6 5 5 5 5 5 6 5 5 5 5 5 5 5 5 5 5 5 5 6 5 5 5 5 5 6 5 6 5 6 5 5 6 5 5 6 5 5 6 5 6 5 5 5 6 5 5 6 6 5 5 6 5 5 6 5 5 5 6 5 5 5 5 5 6 5 5 5 5 5 5 5 5 5 6 5 6 5 5 5 6 5 5 6 5 5 5 5 5 5 5 6 5 5 5 5 6 5 5 5 5 6 5 6 5 5 5 5 5 5 5 5 5 5 5 5 5 5 5 6 5 6 5 5 5 5 5 5 5 6 5 5 5 5 5 5 6 6 5 5 5 5 5 6 6 5 5 5 5 5 5 6 5 5 5 5 5 5 5 6 6 5 5 5 5 6 6 6 5 6 6 5 5 6 5 6 5 5 5 5 5 5 6 5 6 5 5 5 5 5 5 5 5 5 5 6 5 6 5 5 6 5 5 5 5 5 5 5 6 6 5 5 5 5 5 5 5 5 5 5 5 5 5 5 5 5 6 5 5 6 6 5 5 5 5 5 5 5 5 5 5 5 5 5 5 5 5 5 5 5 6 5 5 6 5 5 5 5 5 5 5 5 5 5 5 5 5 5 5 5 5 5 6 5 6 5 5 5 5 5 5 6 5 6 5 5 5 6 5 5 5 5 5 6 5 6 5 6 5 5 5 5 5 6 6 5 5 6 5 6 5 5 5 6 5 5 5 6 5 5 6 6 5 5 5 5 5 5 5 5 5 5 5 5 5 6 5 5 5 6 5 5 5 5 5 5 5 5 6 6 5 5 5 6 5 5 5 5 5 5 5 5 5 5 5 5 5 6 5 6 5 5 5 6 5 5 5 5 5 5 5 5 5 5 5 5 6 5 5 5 5 5 5 5 5 5 5 5 5 5 6 5 5 5 5 6 5 5 6 5 5 5 5 5 6 5 5 5 5 5 5 5 5 5 5 5 5 5 5 6 5 5 5 5 5 6 5 5 5 6 5 5 5 5 5 6 5 6 5 5 5 5 5 5 5 5 5 5 5 5 5 5 5 5 5 5 5 6 5 5 5 5 5 5 6 6 5 5 5 5 5 5 6 5 6 5 5 5 5 5 5 6 5 6 6 5 5 5 6 5 5 5 5 5 5 5 5 5 5 6 5 6 5 5 5 5 5 5 6 6 5 5 5 5 5 5 5 5 5 5 5 5 5 5 5 5 5 5 5 5 5 5 5 5 6 6 5 5 5 5 5 5 5 5 5 6 5 5 5 5 5 5 5 6 5 5 6 5 5 5 5 6 5 5 6 5 5 5 6 5 5 6 5 6 5 5 5 5 5 5 5 5 5 5 6 5 5 5 5 5 5 5 5 6 5 6 5 6 5 6 5 6 5 5 5 6 5 5 5 5 5 5 5 5 5 5 6 5 5 5 5 5 6 5 5 5 6 5 5 5 5 5 5 5 5 5 5 5 5 5 5 5 6 5 5 5 5 5 5 5 5 6 5 5 6 6 5 5 5 5 5 5 6 5 5 5 5 5 5 5 6 6 5 5 6 6 5 5 5 5 5 6 5 5 5 5 5 5 5 6 5 5 5 6 5 6 5 5 5 5 5 5 5 5 5 5 5 5 5 5 5 5 5 5 5 5 5 6 5 5 6 5 5 6 5 5 5 5 6 5 5 5 5 5 5 5 5 6 6 5 5 6 5 6 5 5 5 5 5 5 5 5 5 5 6 5 5 5 6 5 5 5 5 6 5 6 5 5 5 5 5 5 5 5 5 5 5 5 5 6 5 5 5 5 5 5 6 5 6 5 5 5 5 5 6 5 5 5 6 5 5 5 5 5 5 5 5 5 5 5 5 5 5 5 5 5 6 5 6 5 5 5 5 5 5 5 5 5 5 5 5 5 6 5 5 6 5 5 6 5 6 5 5 5 5 5 5 6 5 5 5 5 5 5 5 5 5 5 5 5 5 5 5 5 5 5 5 5 5 5 5 5 5 5 5 5 5 5 5 6 5 5 5 5 5 5 6 6 5 5 5 6 5 5 6 5 5 6 5 6 5 5 5 5 6 5 5 5 5 5 6 5 5 5 5 5 5 5 5 5 5 5 5 5 5 5 6 5 6 5 5 5 5 5 6 5 5 5 6 6 5 5 5 6 6 5 5 5 5 5 6 5 5 5 5 5 6 5 5 5 5 5 5 5 5 5 5 5 5 5 6 5 5 6 5 5 5 5 5 5 5 5 5 6 5 5 5 5 5 5 5 5 5 5 5 6 5 5 6 5 5 5 5 5 5 5 5 5 5 5 5 5 5 5 5 5 5 5 5 5 5 5 5 5 5 5 5 5 6 5 6 6 5 6 5 5 5 5 5 5 6 6 6 5 5 5 5 5 5 5 5 5 6 5 5 5 5 6 5 6 5 6 6 5 5 5 5 5 5 5 5 6 5 5 6 5 6 5 5 5 5 5 5 5 5 5 6 6 5 5 6 5 6 6 5 6 5 5 6 5 6 5 6 5 6 6 5 6 5 5 6 5 5 5 5 6 5 5 6 5 6 5 5 6 5 6 5 6 5 5 5 6 5 5 5 6 5 5 5 5 5 6 5 5 5 5 5 5 5 5 5 5 5 5 5 5 6 5 6 6 5 5 6 5 5 5 5 5 5 5 5 5 5 6 5 5 5 5 5 6 5 5 5 5 6 5 6 5 5 6 6 5 5 5 5 5 5 6 5 6 6 5 5 5 6 5 6 5 5 5 6 5 5 5 5 6 5 5 5 5 5 6 6 5 6 5 6 5 6 6 6 6 6 5 5 5 5 6 5 5 5 5 5 5 5 6 5 6 5 5 6 5 5 6 5 5 5 6 6 5 5 5 5 5 5 6 5 5 6 5 5 5 5 5 6 5 5 5 5 6 5 5 5 5 5 5 5 5 5 5 5 5 5 5 5 5 5 5 5 5 5 5 5 5 5 5 5 5 5 5 5 5 5 5 5 5 5 5 5 5 5 5 5 5 5 5 5 5 5 5 5 5 5 5 5 5 5 5 5 6 5 5 6 5 6 5 5 5 5 6 5 5 5 6 5 5 5 5 5 5 5 5 5 5 5 5 5 5 6 5 5 5 5 5 6 5 5 6 5 5 5 
</DataArray>
<DataArray type="Float64" Name="stress" NumberOfComponents="9" format="ascii">
-5472.0559325215117 2833.7658045055559 0 2833.7658045055559 -223.04468589469337 0 0 0 0 -1642.3531333308856 59.212637067568068 0 59.212637067568068 158.84320191717165 0 0 0 0 -761.27442391730438 34.970993279153234 0 34.970993279153234 -1.7587553998910987 0 0 0 0 -2727.6401417217712 -2159.2529727308406 0 -2159.2529727308406 -1231.7725476410844 0 0 0 0 -30.359299583600034 1.5841557871363108 0 1.5841557871363108 -0.50094800009405294 0 0 0 0 -187.85916581311903 149.29137794758381 0 149.29137794758381 -473.82491777600205 0 0 0 0 -539.14898176854331 -287.61362135489424 0 -287.61362135489424 -589.11745388121835 0 0 0 0 -2798.2104101527948 -184.48902479962612 0 -184.48902479962612 -13.918571933631483 0 0 0 0 -5486.5222379849438 -1109.3792220992323 0 -1109.3792220992323 775.83301956602941 0 0 0 0 -4325.2740024430677 -1043.6860312442964 0 -1043.6860312442964 766.31420077097096 0 0 0 0 -49.853485867206473 -40.126319171891964 0 -40.126319171891964 32.476718618105906 0 0 0 0 -40.806595640504383 67.929842690325245 0 67.929842690325245 -24.823714289206919 0 0 0 0 -7.3288232332436678 11.70383772449793 0 11.70383772449793 0.83015794677993437 0 0 0 0 -237.48376043531971 386.3894398841619 0 386.3894398841619 -118.71520752570279 0 0 0 0 -5.8938520847877953 145.33104190180666 0 145.33104190180666 123.45589340168499 0 0 0 0 362.23970349633601 -514.72075775086068 0 -514.72075775086068 -276.60132028499254 0 0 0 0 -439.91157062323691 71.6805245573712 0 71.6805245573712 65.65088930384286 0 0 0 0 -66.715333346148498 8.7617726161696226 0 8.7617726161696226 0.89769010992599896 0 0 0 0 -458.84947859455133 390.11750824925161 0 390.11750824925161 -187.66287822087713 0 0 0 0 -97.607052154809935 -148.2992909256086 0 -148.2992909256086 52.836496216950479 0 0 0 0 68.282032469054684 -64.041167637447415 0 -64.041167637447415 -77.603219705997788 0 0 0 0 -132.46681254776195 165.76089605746353 0 165.76089605746353 -69.530335392971381 0 0 0 0 -145.92682255772525 130.69988590755696 0 130.69988590755696 -62.579516728126421 0 0 0 0 1.6525975413034644 -0.072013762510721335 0 -0.072013762510721335 -0.92235251242285854 0 0 0 0 -151.39615310523368 -7.7040366594625098 0 -7.7040366594625098 0.58455428651227814 0 0 0 0 -115.87519026424798 -40.935326886180981 0 -40.935326886180981 30.965451431921124 0 0 0 0 -102.78138391429093 9.7703422019867894 0 9.7703422019867894 19.849632756326152 0 0 0 0 -171.06779896137596 -21.57729604932986 0 -21.57729604932986 26.020780255641153 0 0 0 0 -107.90522103315743 28.506594458272712 0 28.506594458272712 104.15708231878763 0 0 0 0 -75.457736229199156 11.727342070197018 0 11.727342070197018 -0.34157197840796272 0 0 0 0 -232.18246277055005 -98.272637679788659 0 -98.272637679788659 296.59709790038414 0 0 0 0 -467.35143760382198 -501.87235505085482 0 -501.87235505085482 208.1771762490601 0 0 0 0 -56.317345519833907 -20.086370286229226 0 -20.086370286229226 2.7044249529906779 0 0 0 0 -78.288852369152266 6.4314093358622486 0 6.4314093358622486 -2.8685662010565656 0 0 0 0 -203.58703506505117 -20.494372380535481 0 -20.494372380535481 49.171839971569227 0 0 0 0 -91.869637546027661 72.9296791547157 0 72.9296791547157 49.411457486264631 0 0 0 0 -14.18138951282117 8.6043025109246685 0 8.6043025109246685 2.5809735526577655 0 0 0 0 -147.83450273744529 41.941043861407742 0 41.941043861407742 5.2833619118237678 0 0 0 0 -77.012081045657396 -13.543413587137927 0 -13.543413587137927 21.009091838056467 0 0 0 0 -51.340496073389659 67.405983140214715 0 67.405983140214715 -41.831746532157574 0 0 0 0 -14.403016947151627 0.8029127884620948 0 0.8029127884620948 53.786831027881817 0 0 0 0 -69.602077049108516 9.5723339335731836 0 9.5723339335731836 0.28239992949520554 0 0 0 0 -2.2753249846864492 -24.238668127555684 0 -24.238668127555684 -56.726068930234987 0 0 0 0 -2.8919174819020554 61.287821014091378 0 61.287821014091378 10.083729820887015 0 0 0 0 -65.632800133374985 1.6506934150855841 0 1.6506934150855841 108.302867035943 0 0 0 0 -41.496106838210835 42.983594176271254 0 42.983594176271254 250.18361868902457 0 0 0 0 -18.674999988073239 -1.262431037067488 0 -1.262431037067488 0.25286480768032926 0 0 0 0 23.208396184054436 -38.757719661564522 0 -38.757719661564522 67.910725254215663 0 0 0 0 -6.7308666646410984 -0.35743982159386789 0 -0.35743982159386789 -0.059190978047526377 0 0 0 0 -54.753435785678448 -157.65553129739692 0 -157.65553129739692 -79.042586096356217 0 0 0 0 -143.86478883452946 146.89295630288132 0 146.89295630288132 -39.040567666732869 0 0 0 0 -52.47367117126123 106.73083854186746 0 106.73083854186746 -22.706273744339342 0 0 0 0 -182.96648328530136 124.89435852188331 0 124.89435852188331 -13.826598535893481 0 0 0 0 10.967959241650533 70.854696671924955 0 70.854696671924955 -52.20173130117746 0 0 0 0 -255.74521335691679 98.504671363864986 0 98.504671363864986 -122.35756695494231 0 0 0 0 -70.957306894939393 51.394716207055865 0 51.394716207055865 -16.21359192022544 0 0 0 0 -222.2067850188796 138.85605742485126 0 138.85605742485126 -1.5766188436211905 0 0 0 0 -207.06623444647994 57.374617693863996 0 57.374617693863996 -16.284535992140118 0 0 0 0 -17.709005664729034 -8.539179684336176 0 -8.539179684336176 10.536599602086417 0 0 0 0 -37.852289340342395 65.896623351847055 0 65.896623351847055 -159.4169840482412 0 0 0 0 12.985680593526922 48.141659929137575 0 48.141659929137575 -80.617680332654061 0 0 0 0 60.744425040858914 70.487615882314657 0 70.487615882314657 -70.617449157335386 0 0 0 0 43.122387481824262 74.739423975644911 0 74.739423975644911 64.927666814027816 0 0 0 0 -39.621215294144349 76.350419478931471 0 76.350419478931471 -34.719742972045424 0 0 0 0 9.5328825791948475 101.92069772651888 0 101.92069772651888 -21.51085533438885 0 0 0 0 -28.116518752021022 -2.2877314589964897 0 -2.2877314589964897 -3.2365539484480137 0 0 0 0 -11.929792486298538 -83.098104601481339 0 -83.098104601481339 -71.787270910555776 0 0 0 0 63.615274249816139 407.97068995569236 0 407.97068995569236 -92.993253621580834 0 0 0 0 -243.90126299063559 82.268457891889852 0 82.268457891889852 63.422708070834176 0 0 0 0 -274.99388513781014 98.516764402718536 0 98.516764402718536 55.393378445907047 0 0 0 0 -247.42489118789672 140.80958582190465 0 140.80958582190465 15.711765569341196 0 0 0 0 -165.90055742749246 119.06321983589532 0 119.06321983589532 16.012691042814435 0 0 0 0 -22.129505472264498 0.57298661214004198 0 0.57298661214004198 1.5208755588408862 0 0 0 0 -145.08804551541107 26.69194764454457 0 26.69194764454457 39.777850537062307 0 0 0 0 110.1076462862693 43.483265356953552 0 43.483265356953552 2.3757891776823499 0 0 0 0 -176.67311450804118 133.94457777213535 0 133.94457777213535 -1.0755300564885601 0 0 0 0 -35.003411052341107 146.4363029368252 0 146.4363029368252 -220.91591823247688 0 0 0 0 90.371277001295311 -69.367638391520615 0 -69.367638391520615 -159.84859908661065 0 0 0 0 -63.546970495804374 17.447057909956968 0 17.447057909956968 8.6618358498262928 0 0 0 0 153.19681713226601 660.53765185528073 0 660.53765185528073 134.8041062981672 0 0 0 0 -143.90470458916388 92.037642689146196 0 92.037642689146196 158.58736946573811 0 0 0 0 -71.515046328859739 13.454207841042702 0 13.454207841042702 6.9169265754028331 0 0 0 0 -117.99306756416627 14.523328679576593 0 14.523328679576593 61.188618883378922 0 0 0 0 -95.337312073952489 10.476843878329504 0 10.476843878329504 47.475483165733067 0 0 0 0 -185.15002808083955 61.116839570533543 0 61.116839570533543 23.65373745703701 0 0 0 0 -65.363315816881368 39.470969886845893 0 39.470969886845893 66.24401349691783 0 0 0 0 -68.221179273416055 56.50404843545909 0 56.50404843545909 -1.8771769168499759 0 0 0 0 56.053011622992926 13.783147200277689 0 13.783147200277689 -177.7888267552226 0 0 0 0 -55.67171139435959 97.065028810212993 0 97.065028810212993 -107.30983864093173 0 0 0 0 -48.137066604424035 104.81691524585665 0 104.81691524585665 -122.68194807735003 0 0 0 0 -122.07192893317551 -33.148425366430445 0 -33.148425366430445 86.58400112982099 0 0 0 0 -77.281377004570629 -24.884237264773674 0 -24.884237264773674 -0.68318291698494793 0 0 0 0 -155.98187619862438 -0.53870100845361435 0 -0.53870100845361435 63.408024328131688 0 0 0 0 -161.71703449242341 -24.476805566637914 0 -24.476805566637914 20.343495245535479 0 0 0 0 -66.576989098481135 -122.91296408016397 0 -122.91296408016397 40.115260806965864 0 0 0 0 -66.244178942255246 -24.02305329921802 0 -24.02305329921802 -1.2124697577923782 0 0 0 0 158.27126573437636 29.007463111136509 0 29.007463111136509 -307.16953846447154 0 0 0 0 113.00014639369329 -141.2839404742183 0 -141.2839404742183 -106.14350271879314 0 0 0 0 -144.65255073632579 23.142908015607276 0 23.142908015607276 -212.43889542985684 0 0 0 0 -185.01430429468746 -62.845529457095068 0 -62.845529457095068 -381.75987696406162 0 0 0 0 -485.93139118209365 324.11893022587242 0 324.11893022587242 -555.07298644806599 0 0 0 0 -12.328944881053758 -67.526819301735259 0 -67.526819301735259 -242.16286649574204 0 0 0 0 -205.15627468745515 -341.94463912121773 0 -341.94463912121773 267.03665692821301 0 0 0 0 -379.61516790607129 -111.71970711826657 0 -111.71970711826657 -322.5442767976806 0 0 0 0 -567.69175595746492 664.06001253369084 0 664.06001253369084 -1019.7506693648414 0 0 0 0 -734.64232468875707 -242.82340203140302 0 -242.82340203140302 -201.02456672046637 0 0 0 0 -5490.4601808844745 2307.3179422906446 0 2307.3179422906446 152.38292292134372 0 0 0 0 -1009.1936199138436 2325.5133262784202 0 2325.5133262784202 -2331.8473620877166 0 0 0 0 -2685.7083811885968 969.90641240190939 0 969.90641240190939 433.45408459370174 0 0 0 0 -2586.1156251668872 961.91820106935518 0 961.91820106935518 -336.62387209815302 0 0 0 0 -1095.7083170691767 -75.385446503554448 0 -75.385446503554448 -267.64596824310104 0 0 0 0 -818.35653349701897 168.83641333475776 0 168.83641333475776 -245.92023785034206 0 0 0 0 -2751.5470701687882 -916.00861553963762 0 -916.00861553963762 214.58233756357879 0 0 0 0 -3946.9291890111053 1072.1638241775615 0 1072.1638241775615 499.71786719805186 0 0 0 0 -5499.1421555892448 137.71369006399601 0 137.71369006399601 431.77346409303942 0 0 0 0 -4468.5426793298102 -245.15228041284306 0 -245.15228041284306 567.30255535205356 0 0 0 0 -5502.7955934050487 -491.66165673919829 0 -491.66165673919829 989.83016422585695 0 0 0 0 -74.593759272742318 -857.66383120721548 0 -857.66383120721548 159.22829243698556 0 0 0 0 -4469.889821644043 -218.74448972624742 0 -218.74448972624742 404.29504585212567 0 0 0 0 -11.661845848345024 -2.8234747000653613 0 -2.8234747000653613 0.11850164529577456 0 0 0 0 -3455.0588647287514 954.60624036454146 0 954.60624036454146 -72.608173018047864 0 0 0 0 -2969.186621240282 5.8103070375925086 0 5.8103070375925086 415.91050995595015 0 0 0 0 -208.62114290869795 754.51396852208381 0 754.51396852208381 -210.28772266080296 0 0 0 0 -208.6211429083487 754.51396852210337 0 754.51396852210337 -210.28772266080296 0 0 0 0 -208.62114290843601 754.51396852187213 0 754.51396852187213 -210.28772266078613 0 0 0 0 3.6304189634651038 4.6873950119688175 0 4.6873950119688175 0.26048895371239755 0 0 0 0 -57.777011751619284 26.097309740091987 0 26.097309740091987 56.353607045754643 0 0 0 0 -287.38779528747546 72.674873409167844 0 72.674873409167844 616.7758921714003 0 0 0 0 -26.539644658929149 -3.2017868253226744 0 -3.2017868253226744 0.32249524303039079 0 0 0 0 -70.916048630695116 333.60908621554034 0 333.60908621554034 205.49898944711214 0 0 0 0 74.017914990661666 139.62770125095358 0 139.62770125095358 86.009593765899695 0 0 0 0 147.83544261223869 -41.580370878151143 0 -41.580370878151143 159.57324984805075 0 0 0 0 -53.119083601166494 102.67440868957283 0 102.67440868957283 146.62831234540104 0 0 0 0 126.01863758216496 97.294477290864194 0 97.294477290864194 -141.70977994487902 0 0 0 0 87.276775382924825 53.351319521134968 0 53.351319521134968 -129.61301393246578 0 0 0 0 78.542571540398058 96.184985256212713 0 96.184985256212713 -320.98001817713498 0 0 0 0 -105.91623046642053 10.033741341487939 0 10.033741341487939 -185.88842421212837 0 0 0 0 -236.24009142752038 176.89723555029786 0 176.89723555029786 -344.81482824928696 0 0 0 0 -733.31511082816724 -16.611960158839054 0 -16.611960158839054 -96.116950791397016 0 0 0 0 -199.27035979976063 -54.797926807448334 0 -54.797926807448334 -143.13425934764092 0 0 0 0 -54.327260489837499 227.97134099174986 0 227.97134099174986 -102.21675874043081 0 0 0 0 -116.72850338945864 17.969239884777021 0 17.969239884777021 -0.14058332893737091 0 0 0 0 -828.61395634603105 540.47265203513052 0 540.47265203513052 -287.46619541625932 0 0 0 0 -632.23922792359372 -154.27573249263995 0 -154.27573249263995 764.43036465676278 0 0 0 0 -10.343048730051237 2.7680665175169406 0 2.7680665175169406 -0.10563554892539509 0 0 0 0 -1162.4021261756661 555.7922777884869 0 555.7922777884869 -74.915270746510572 0 0 0 0 -1366.6483461962198 495.04510631713163 0 495.04510631713163 -17.209812033829337 0 0 0 0 -1107.2128914426576 201.9916317544849 0 201.9916317544849 -91.334085687595348 0 0 0 0 23.56307530569029 212.72518682239507 0 212.72518682239507 -314.43732311344183 0 0 0 0 -1345.6943075351992 35.048820864000142 0 35.048820864000142 152.65485504240542 0 0 0 0 -157.64348469383549 104.65064223003583 0 104.65064223003583 -132.79075904415677 0 0 0 0 201.65395763891865 74.610159862959847 0 74.610159862959847 -86.825077848424186 0 0 0 0 -2.067741315352805 1.3464556254730269 0 1.3464556254730269 -0.11395103095986459 0 0 0 0 -1377.1158527409862 542.08564477454513 0 542.08564477454513 -80.909258410465554 0 0 0 0 -1593.4484228151705 384.03312568023614 0 384.03312568023614 -3.1854149421862896 0 0 0 0 -2513.3232408951808 1341.0018835209607 0 1341.0018835209607 -374.94024091084987 0 0 0 0 -1236.3336518357828 795.47513580293219 0 795.47513580293219 -592.95615502203509 0 0 0 0 -1305.3043099086208 450.97320785153869 0 450.97320785153869 -142.37905074407644 0 0 0 0 -96.585692536376882 26.636048027227279 0 26.636048027227279 -22.189454559914537 0 0 0 0 -6.8159118168762234 -0.67681245179383609 0 -0.67681245179383609 1.2763310595459569 0 0 0 0 -15.63840422630318 -6.2858543310458685 0 -6.2858543310458685 2.8545829247949746 0 0 0 0 -487.82527345269045 468.84104737880068 0 468.84104737880068 -723.4893022608594 0 0 0 0 -1629.4504915625439 776.67886299192048 0 776.67886299192048 -318.18336997806716 0 0 0 0 -286.1360687201377 912.31196973604131 0 912.31196973604131 -173.30118113134125 0 0 0 0 -1577.2522810201626 877.2959800616602 0 877.2959800616602 -140.56201664879526 0 0 0 0 -1298.4392067725712 225.94987521914385 0 225.94987521914385 14.032180587537141 0 0 0 0 -972.18317701973137 569.82520057041336 0 569.82520057041336 249.25942346391315 0 0 0 0 210.80313028403907 118.02214838587463 0 118.02214838587463 -377.89806157765543 0 0 0 0 -0.19287614185633117 5.0328542360758206 0 5.0328542360758206 -2.3512084503311894 0 0 0 0 -2708.3157301674482 361.302431964699 0 361.302431964699 83.75746974402054 0 0 0 0 975.60531996257487 660.37952213268113 0 660.37952213268113 -700.84330467451991 0 0 0 0 -217.9801885999841 94.870944354262122 0 94.870944354262122 -50.21134754987478 0 0 0 0 -335.34549095964758 100.87613805528329 0 100.87613805528329 -50.235116865458622 0 0 0 0 -305.50365003180923 56.323119719240559 0 56.323119719240559 20.772436647174295 0 0 0 0 -17.212101258359667 -11.184145617757395 0 -11.184145617757395 -0.49461957989513577 0 0 0 0 -190.46084915006941 47.503315372657241 0 47.503315372657241 -26.235144104682487 0 0 0 0 -204.25540431732225 30.624351689627471 0 30.624351689627471 -0.077396116554727667 0 0 0 0 -219.03529154247371 -16.286133754549915 0 -16.286133754549915 29.079908598268315 0 0 0 0 -226.98518387803051 39.05995756760808 0 39.05995756760808 15.30863715922132 0 0 0 0 -302.65675737362471 -22.934681626665196 0 -22.934681626665196 30.473616397383637 0 0 0 0 -184.4490830008217 -2.9939640709564568 0 -2.9939640709564568 14.92240101206195 0 0 0 0 -275.41665316282888 31.542684302781851 0 31.542684302781851 -5.7844530448550415 0 0 0 0 -431.66861328185769 46.043538694340356 0 46.043538694340356 -14.772759118637936 0 0 0 0 -366.40884385909885 66.622106885313883 0 66.622106885313883 -11.6584561094148 0 0 0 0 -308.71182010096527 -27.072156615737299 0 -27.072156615737299 -66.886288718665639 0 0 0 0 -251.92350907801301 36.132310852104638 0 36.132310852104638 3.2895341334708377 0 0 0 0 -256.9911014418758 -96.249196277889212 0 -96.249196277889212 85.116449310007283 0 0 0 0 -329.21196402405621 183.76391536432595 0 183.76391536432595 104.9389962711146 0 0 0 0 -98.247394323239746 16.258995677379538 0 16.258995677379538 1.3862971694303567 0 0 0 0 -373.55669568193844 -42.586786008264681 0 -42.586786008264681 -68.94549358114611 0 0 0 0 -325.30350449492107 103.98614667697331 0 103.98614667697331 -142.5450847979362 0 0 0 0 -517.97766497472912 281.09770566761938 0 281.09770566761938 -33.262991516254033 0 0 0 0 -102.7709213892058 7.089228605066431 0 7.089228605066431 -0.2092132761998044 0 0 0 0 -481.74935883652506 61.678166929590688 0 61.678166929590688 8.2156888737137024 0 0 0 0 -35.270304077810977 -6.7028368854371081 0 -6.7028368854371081 -8.8355889216069379 0 0 0 0 -468.85928110851091 16.373835006169543 0 16.373835006169543 81.278413653014354 0 0 0 0 -324.31017085464555 131.08187261242068 0 131.08187261242068 -170.05782446392027 0 0 0 0 -462.33738570344576 -418.75111037086833 0 -418.75111037086833 -359.40721069123947 0 0 0 0 -1286.1212962030258 362.75407725764035 0 362.75407725764035 -115.57787551012976 0 0 0 0 469.49387615249725 294.94665368073402 0 294.94665368073402 -648.60152137701493 0 0 0 0 -37.083944193538628 58.538588694124314 0 58.538588694124314 26.442778771353204 0 0 0 0 -63.807585814168817 9.5681323210281022 0 9.5681323210281022 18.046687693114826 0 0 0 0 -348.39443602942629 341.97814119867053 0 341.97814119867053 722.5223791494418 0 0 0 0 -945.9543818088714 18.910720294805742 0 18.910720294805742 708.1399945601388 0 0 0 0 -12.110290039561562 4.9514290659404594 0 4.9514290659404594 2.2927280839683029 0 0 0 0 -4127.7672282866552 -958.37998304651774 0 -958.37998304651774 -893.04989578988898 0 0 0 0 72.462714817840606 -273.88807625188019 0 -273.88807625188019 -91.629485247945013 0 0 0 0 134.53867568777059 -51.093352618263452 0 -51.093352618263452 266.74417729276138 0 0 0 0 -531.93443293942255 -490.53898052544378 0 -490.53898052544378 29.017550298924107 0 0 0 0 407.40874081332004 -644.78489779389213 0 -644.78489779389213 -219.05848961341803 0 0 0 0 -0.54106571886416077 -4.5482646018228081 0 -4.5482646018228081 -8.2553495765555418 0 0 0 0 -43.264255410584155 -480.5598338651107 0 -480.5598338651107 -122.88259873031996 0 0 0 0 18.433727239345899 -427.23453184496225 0 -427.23453184496225 -144.52886429922091 0 0 0 0 -10.666874902097334 105.46756792158723 0 105.46756792158723 99.400091310871062 0 0 0 0 -1305.2956939887808 -228.87303096336967 0 -228.87303096336967 134.11837767430563 0 0 0 0 -908.31160210625967 692.04111273021795 0 692.04111273021795 -459.42654671202382 0 0 0 0 -693.47490497012768 1301.0755023437112 0 1301.0755023437112 -1891.4489159240402 0 0 0 0 -537.88767951249611 -2416.5587363199993 0 -2416.5587363199993 1961.4479987976019 0 0 0 0 -36.937603340510009 -11.585645598836841 0 -11.585645598836841 -1.684543740104707 0 0 0 0 3588.7406284299504 1402.6450698450972 0 1402.6450698450972 2517.4045939297648 0 0 0 0 -24.814542054794714 -11.242377933410239 0 -11.242377933410239 -7.0978427041062169 0 0 0 0 -3265.8274868445296 3348.8121438117032 0 3348.8121438117032 -2467.3055259587454 0 0 0 0 -815.75014817537158 -2559.9330020010948 0 -2559.9330020010948 1888.3722233543122 0 0 0 0 -644.22044946867391 371.62723320114128 0 371.62723320114128 -521.21528758977365 0 0 0 0 -603.23458447429584 268.36834839603353 0 268.36834839603353 -372.26282120851511 0 0 0 0 -827.30828347089118 398.39592608906696 0 398.39592608906696 -381.32684237698453 0 0 0 0 -827.02643831107707 514.47604804813375 0 514.47604804813375 -90.96483587666728 0 0 0 0 -796.07016228592511 334.61289357081279 0 334.61289357081279 -181.98374446661865 0 0 0 0 -789.66454135398089 220.144035106008 0 220.144035106008 108.33966657769884 0 0 0 0 -502.14080929998454 368.58754318768803 0 368.58754318768803 75.592980080314646 0 0 0 0 -238.77255893804249 -330.99952022123807 0 -330.99952022123807 352.58432296322439 0 0 0 0 -39.197837247225436 -3.8254181237526552 0 -3.8254181237526552 3.6492855857868625 0 0 0 0 -723.29176811331126 464.37203139726029 0 464.37203139726029 -212.9128163264495 0 0 0 0 -577.21396003481641 -3.3313810278377787 0 -3.3313810278377787 21.795738705652866 0 0 0 0 -105.78722799939925 -4.1839595873965294 0 -4.1839595873965294 4.5596566070997628 0 0 0 0 -1933.1739746333624 167.55899621749063 0 167.55899621749063 229.95240819377523 0 0 0 0 -32.330568704535473 4.1038098644676779 0 4.1038098644676779 -7.3821795761679887 0 0 0 0 -486.08602974898531 398.20878507950687 0 398.20878507950687 286.40830224616161 0 0 0 0 -114.13993717539137 -14.264486428633923 0 -14.264486428633923 9.2038208880470815 0 0 0 0 -907.51944010292391 114.26868538979295 0 114.26868538979295 6.0842160265674465 0 0 0 0 -762.44119206380856 -22.027429278429736 0 -22.027429278429736 123.50031599552494 0 0 0 0 -672.08827824551554 204.75402786775902 0 204.75402786775902 93.232288076760739 0 0 0 0 -1394.2136938358017 333.99885309423996 0 333.99885309423996 10.814532709959824 0 0 0 0 -104.37148606618985 3.7733436122096933 0 3.7733436122096933 -1.3398912660339546 0 0 0 0 -37.655120849622008 0.20956805526660105 0 0.20956805526660105 -53.479107208082034 0 0 0 0 -1032.0186580330483 432.03530410483381 0 432.03530410483381 -65.271107711445779 0 0 0 0 -729.97043009808112 145.13598981540235 0 145.13598981540235 -271.69029725920382 0 0 0 0 -1076.8542315919622 230.37279583710952 0 230.37279583710952 -79.662313062679118 0 0 0 0 -775.08941334479459 264.37016063892759 0 264.37016063892759 -78.166649539087402 0 0 0 0 -36.860733831435098 20.138897895414203 0 20.138897895414203 -61.459186887646361 0 0 0 0 -669.38344294439594 231.02255881641577 0 231.02255881641577 -369.56953652511447 0 0 0 0 -6587.1022352768341 -66.275965738524974 0 -66.275965738524974 2468.471067234439 0 0 0 0 -100.74996378523514 -6.3314752548935331 0 -6.3314752548935331 -4.7032217554009792 0 0 0 0 4821.5898588222044 1220.5107473056169 0 1220.5107473056169 55.435117200442619 0 0 0 0 -41.545823847172954 18.041975482193862 0 18.041975482193862 11.131193760729158 0 0 0 0 -478.60879612766439 -2918.7099897022308 0 -2918.7099897022308 -87.363982906959791 0 0 0 0 -5627.7144155669375 1784.8442830896574 0 1784.8442830896574 1187.1036045135806 0 0 0 0 -527.971583391678 -104.87902588420093 0 -104.87902588420093 -89.320748684272075 0 0 0 0 -118.61570989114506 42.427221749355823 0 42.427221749355823 13.712441979693473 0 0 0 0 -1387.6730941497226 -38.84124334477292 0 -38.84124334477292 420.48117435057247 0 0 0 0 -1038.2865034729994 -93.483509490837037 0 -93.483509490837037 44.378493981261272 0 0 0 0 -740.03505432954989 67.136125141828416 0 67.136125141828416 11.342319847726685 0 0 0 0 -475.46550958763692 91.11477919828485 0 91.11477919828485 247.91132108783131 0 0 0 0 -466.85279734908545 12.972476169252332 0 12.972476169252332 -104.23122309194332 0 0 0 0 -486.22256599548564 -58.353147277542121 0 -58.353147277542121 53.170940911488287 0 0 0 0 -463.82165934058139 45.327389112779201 0 45.327389112779201 142.25127184365192 0 0 0 0 -362.33191776101012 -125.84567251857061 0 -125.84567251857061 76.139143014560432 0 0 0 0 -365.30676777250483 44.053664342083721 0 44.053664342083721 236.92980966606774 0 0 0 0 -316.27416433916369 98.447402384717861 0 98.447402384717861 149.83124443919041 0 0 0 0 -109.04513334359984 40.418320333993314 0 40.418320333993314 18.738836617960843 0 0 0 0 -54.483047634334071 29.588423911480277 0 29.588423911480277 163.94002373220428 0 0 0 0 -113.4299253969088 -12.281721312978753 0 -12.281721312978753 13.764962983467763 0 0 0 0 -6.4076126153813675 86.722692350945579 0 86.722692350945579 32.619530337883475 0 0 0 0 -498.65264083680813 -37.260397627590393 0 -37.260397627590393 425.40696043662319 0 0 0 0 -1053.4131201307973 203.65030850012829 0 203.65030850012829 473.62921024333122 0 0 0 0 -426.93702422921342 95.658849037092608 0 95.658849037092608 173.9560104467426 0 0 0 0 108.28388953505782 -134.99613747215787 0 -134.99613747215787 268.46954553259917 0 0 0 0 -298.03213816632524 41.052950460236787 0 41.052950460236787 -324.24092784900586 0 0 0 0 -291.79371913537034 84.474555718526972 0 84.474555718526972 -271.3544979521439 0 0 0 0 -223.70718254588428 18.322705091311263 0 18.322705091311263 -207.39774634977857 0 0 0 0 -248.37625004026631 68.09939307837476 0 68.09939307837476 -261.53954265572884 0 0 0 0 -228.98520756833022 95.727480206337532 0 95.727480206337532 -227.29674261770606 0 0 0 0 -241.39419840967457 36.320947170186173 0 36.320947170186173 -258.20159517894717 0 0 0 0 -272.49474914429447 57.385209981413027 0 57.385209981413027 -256.5029164927264 0 0 0 0 -317.60213093242419 13.735083865967681 0 13.735083865967681 -224.59926211634411 0 0 0 0 -245.61713535702438 19.433243328016033 0 19.433243328016033 -295.49306057889999 0 0 0 0 -417.3639894345979 11.947413924665852 0 11.947413924665852 -84.826132356527523 0 0 0 0 -287.47157942326157 15.274762045715306 0 15.274762045715306 -225.2981933099627 0 0 0 0 -285.52840551900226 37.422406293685071 0 37.422406293685071 -80.072839457108785 0 0 0 0 -337.64262823854733 -42.009204490482716 0 -42.009204490482716 34.487486474543402 0 0 0 0 -344.93060668268299 49.463530767350676 0 49.463530767350676 -107.3457820791964 0 0 0 0 -289.85742647266306 29.29670398809958 0 29.29670398809958 -122.9893268512983 0 0 0 0 -249.57124715977807 72.425286586535321 0 72.425286586535321 -243.49410348284073 0 0 0 0 -261.4604889217735 26.481194392661337 0 26.481194392661337 -268.8424488628134 0 0 0 0 -158.17077056958396 -176.14151866361539 0 -176.14151866361539 -350.9748152608845 0 0 0 0 -138.21592300241173 170.21895893935562 0 170.21895893935562 -174.52659255735125 0 0 0 0 -372.983844047616 101.49549390405627 0 101.49549390405627 27.182913789472877 0 0 0 0 -330.05245776336233 98.883677525484472 0 98.883677525484472 21.7870312202067 0 0 0 0 17.830611609620973 774.74337633467258 0 774.74337633467258 744.76137684091736 0 0 0 0 -2048.8897033751709 -364.9132348379444 0 -364.9132348379444 532.00828044744776 0 0 0 0 -1890.3957446852146 -380.0695716647333 0 -380.0695716647333 29.205583474078594 0 0 0 0 1505.1278788327909 -139.02033289787869 0 -139.02033289787869 -500.83302778441794 0 0 0 0 -491.6013933030481 -1725.0365838888956 0 -1725.0365838888956 -57.575526850174811 0 0 0 0 -527.90311167330947 -285.63656344023821 0 -285.63656344023821 -347.90803199775701 0 0 0 0 -1741.8176397546777 18.551220631326942 0 18.551220631326942 -29.836545834656135 0 0 0 0 -804.29792179836659 -822.89277816170943 0 -822.89277816170943 64.931099775707366 0 0 0 0 -1218.0051076346717 -198.51466070678543 0 -198.51466070678543 26.07963039682727 0 0 0 0 -764.82655544832232 -142.44736386586192 0 -142.44736386586192 -185.43583926850079 0 0 0 0 -784.0044369519419 -41.572600913218707 0 -41.572600913218707 -71.325689345927458 0 0 0 0 -1058.6536007849936 11.215478508095657 0 11.215478508095657 -29.274546920530156 0 0 0 0 -692.86519407037122 82.922806107049837 0 82.922806107049837 -139.96868782457022 0 0 0 0 -694.79167661202519 99.193915618008759 0 99.193915618008759 -16.673581606266453 0 0 0 0 -352.19068967404019 26.387200874768496 0 26.387200874768496 -237.81706854549884 0 0 0 0 -346.6273505177378 3.3025053687761101 0 3.3025053687761101 -191.41929900901596 0 0 0 0 -388.26453031729034 131.89303865148463 0 131.89303865148463 -185.88115832930453 0 0 0 0 -680.69205648191564 267.29384457655715 0 267.29384457655715 -86.172292907089741 0 0 0 0 -378.80095753364731 157.81060468068461 0 157.81060468068461 -124.22001799055306 0 0 0 0 -656.16351360606495 354.29341511673374 0 354.29341511673374 13.493914181165565 0 0 0 0 -975.97875756181747 406.05071312865539 0 406.05071312865539 107.51633978282644 0 0 0 0 -933.72994273640506 403.7803767811879 0 403.7803767811879 106.31604336611099 0 0 0 0 -873.55212044788641 307.50160909810756 0 307.50160909810756 55.87076510171164 0 0 0 0 -987.42971644288627 414.72386572957294 0 414.72386572957294 139.93120614656982 0 0 0 0 -940.07519403565675 369.66927660428723 0 369.66927660428723 115.4594843639743 0 0 0 0 -1031.5635332936945 387.21587400069257 0 387.21587400069257 137.16902024543742 0 0 0 0 -905.81758733720926 446.13880679815156 0 446.13880679815156 126.09791358603252 0 0 0 0 -1099.9850426132907 449.4386919999497 0 449.4386919999497 144.85505565722269 0 0 0 0 -1112.7008530193707 331.62256762800098 0 331.62256762800098 117.62919738933942 0 0 0 0 -944.66972878944944 262.9850752356997 0 262.9850752356997 64.092008414314705 0 0 0 0 -1069.0158021518073 227.17982934617612 0 227.17982934617612 91.72878620548363 0 0 0 0 -1028.3212597976089 381.46608495945839 0 381.46608495945839 145.53044491306537 0 0 0 0 -1018.0518451121752 217.06396985143238 0 217.06396985143238 91.481055414455113 0 0 0 0 -1229.0223905774474 133.9493233517278 0 133.9493233517278 84.632700502268563 0 0 0 0 -1258.2994798885866 396.20628546940446 0 396.20628546940446 91.616256990126203 0 0 0 0 -1381.8354797991196 228.12769658387697 0 228.12769658387697 -120.25980510013687 0 0 0 0 -1497.2258426472108 491.02103309984841 0 491.02103309984841 -109.56188754844334 0 0 0 0 -1486.8212517964421 261.4849720079892 0 261.4849720079892 27.071085300279265 0 0 0 0 -1608.2513850295509 81.178406024579999 0 81.178406024579999 -111.07643934432781 0 0 0 0 -2035.3130915679503 553.34614925310143 0 553.34614925310143 -229.30777316969034 0 0 0 0 -1345.2821206422959 742.981817134626 0 742.981817134626 -922.64243668917698 0 0 0 0 -1394.4444877640926 1047.3028763369648 0 1047.3028763369648 -1998.3157517876534 0 0 0 0 -1097.8509715487307 441.78405434936121 0 441.78405434936121 -973.75599067244912 0 0 0 0 -3563.0626993878104 947.54426236556719 0 947.54426236556719 -179.91273346134471 0 0 0 0 -367.33102598780533 -2365.4732333669017 0 -2365.4732333669017 1837.9579652159891 0 0 0 0 -1180.2680742496523 418.94035300144242 0 418.94035300144242 -773.87215752167867 0 0 0 0 -89.907619617545265 -34.125626048041909 0 -34.125626048041909 -3.931945589909752 0 0 0 0 -238.17934701163904 -2280.0511255813399 0 -2280.0511255813399 1874.7625279770864 0 0 0 0 -1196.8201483943849 499.43858012576311 0 499.43858012576311 -546.81077336207454 0 0 0 0 -1168.8266532511989 558.99490425764543 0 558.99490425764543 -648.57371427987528 0 0 0 0 -1357.0073674788873 384.27417677558333 0 384.27417677558333 -775.83048179529214 0 0 0 0 -533.04918944826932 952.9091673281855 0 952.9091673281855 -608.09401355955015 0 0 0 0 -34.298241069596202 -17.227485459193566 0 -17.227485459193566 17.628771679527965 0 0 0 0 -1086.8973084142854 288.13081714861983 0 288.13081714861983 -106.02160615729372 0 0 0 0 -1125.8218643892906 487.14059887788972 0 487.14059887788972 -612.08734582783927 0 0 0 0 -1139.6552269702079 424.74015787757889 0 424.74015787757889 -533.27078194294654 0 0 0 0 -1148.7486203872832 335.17936107854075 0 335.17936107854075 -45.228487095532728 0 0 0 0 -1154.0378361568437 594.96021375797591 0 594.96021375797591 -128.34993345964347 0 0 0 0 -871.05299222327631 399.27531283562075 0 399.27531283562075 -25.196363291141097 0 0 0 0 -864.30689033866292 450.94445613491212 0 450.94445613491212 122.4979146724454 0 0 0 0 -319.091417466032 235.3538227480467 0 235.3538227480467 -316.64170971554267 0 0 0 0 -474.51197873447381 177.24309790662755 0 177.24309790662755 102.5687350712069 0 0 0 0 -83.398591343938648 -2.4879351591491172 0 -2.4879351591491172 14.817566879653992 0 0 0 0 -89.411235820109141 -13.378756441381711 0 -13.378756441381711 40.749294976562851 0 0 0 0 -90.518382319416503 -3.2538275018163176 0 -3.2538275018163176 24.657567880748168 0 0 0 0 -3292.9647317940617 3965.0361659775122 0 3965.0361659775122 2925.7477761201299 0 0 0 0 -78.402724727173336 -5.4464010534638874 0 -5.4464010534638874 25.749046247057777 0 0 0 0 -45.92420162630151 12.752364257906876 0 12.752364257906876 19.135413452066246 0 0 0 0 -46.180825878566679 0.27786251973897436 0 0.27786251973897436 19.877788098856723 0 0 0 0 -29.618341180568677 -24.345926538456467 0 -24.345926538456467 28.154037789820109 0 0 0 0 -60.964490286584208 -16.6971099029317 0 -16.6971099029317 16.496483649871305 0 0 0 0 -210.32800275092632 -212.65356957242687 0 -212.65356957242687 353.52560901345714 0 0 0 0 -97.740683692434686 207.23342365703684 0 207.23342365703684 -52.190359573948626 0 0 0 0 -422.08033760396938 -29.413866303542363 0 -29.413866303542363 196.8353755823 0 0 0 0 -555.79169762058882 306.6827511423221 0 306.6827511423221 87.008367235135665 0 0 0 0 -632.61281840881566 228.02033388481232 0 228.02033388481232 161.16593794179607 0 0 0 0 -610.84582184425381 355.48693820609833 0 355.48693820609833 42.246434828030033 0 0 0 0 -902.48530393041801 408.29287665027334 0 408.29287665027334 132.78793390825376 0 0 0 0 -785.08224831435837 242.50747502761186 0 242.50747502761186 147.53858703400147 0 0 0 0 -811.76474400816369 398.93652513086408 0 398.93652513086408 97.3520924004888 0 0 0 0 -962.16388035508862 381.31050516715186 0 381.31050516715186 110.05013776074156 0 0 0 0 -807.29995303289616 317.84973421326413 0 317.84973421326413 82.066983354963668 0 0 0 0 -925.56554775581753 228.47158307064092 0 228.47158307064092 14.953776557657875 0 0 0 0 -699.00226076535182 64.319027846140671 0 64.319027846140671 47.985590670667534 0 0 0 0 -616.88267587072187 143.16423418914837 0 143.16423418914837 111.50483925644676 0 0 0 0 -1038.8625946589455 220.63718094214346 0 220.63718094214346 -287.19761950588713 0 0 0 0 -986.01504472910892 -231.23918890463119 0 -231.23918890463119 -456.38206941735075 0 0 0 0 -1307.674137635564 -53.806300082119378 0 -53.806300082119378 -106.1699401451533 0 0 0 0 -693.30572367236891 -97.621731784202439 0 -97.621731784202439 -109.6528664213447 0 0 0 0 -864.0708846974012 -380.71809052031858 0 -380.71809052031858 -363.21236048153241 0 0 0 0 -927.36256134638643 96.307889174502805 0 96.307889174502805 -156.29241181004181 0 0 0 0 -994.14191791345365 155.30020100951697 0 155.30020100951697 21.062660925057571 0 0 0 0 -938.42468281731544 236.1399268329593 0 236.1399268329593 10.601036349613423 0 0 0 0 -1034.9429497544006 297.96505443512615 0 297.96505443512615 79.59538851826801 0 0 0 0 -1061.5981296349928 150.02731134152918 0 150.02731134152918 -49.171307195851114 0 0 0 0 -1151.6138411871216 74.811912659484733 0 74.811912659484733 29.832205264982804 0 0 0 0 -1200.0955901007983 133.6004741332298 0 133.6004741332298 181.89849595049259 0 0 0 0 -1298.4316726917896 268.51451447411523 0 268.51451447411523 81.172336938681838 0 0 0 0 -1412.6193721119344 294.24729082895857 0 294.24729082895857 179.63422091708918 0 0 0 0 -1406.3885327031021 257.64910190511421 0 257.64910190511421 124.55081822637862 0 0 0 0 -1326.8373202954062 63.349899138656383 0 63.349899138656383 437.77615743856882 0 0 0 0 -1545.1778239847772 327.26802585393369 0 327.26802585393369 300.00755991261218 0 0 0 0 -1243.8366194904957 -64.953344231426399 0 -64.953344231426399 201.38305474734216 0 0 0 0 -1235.5537183500965 19.733526915175361 0 19.733526915175361 753.93473538514991 0 0 0 0 -1076.2164352198088 -87.621489351712853 0 -87.621489351712853 199.20856531241589 0 0 0 0 -1073.6319336296147 -512.33773030455495 0 -512.33773030455495 356.51676771259372 0 0 0 0 -1093.821471005358 172.38735557738372 0 172.38735557738372 559.99822619591032 0 0 0 0 -558.41525478403491 -96.04504812345624 0 -96.04504812345624 447.95140499119168 0 0 0 0 -984.02883228309656 47.59326634686623 0 47.59326634686623 124.55447873527973 0 0 0 0 -603.85612441376725 -13.674743231578155 0 -13.674743231578155 86.218152398395233 0 0 0 0 -934.62798803056648 118.37544884359829 0 118.37544884359829 -184.10895957652576 0 0 0 0 -1307.4935224795699 -106.34877490391793 0 -106.34877490391793 215.0093630565421 0 0 0 0 -1488.5045865654829 29.756152941233836 0 29.756152941233836 -183.52438692207429 0 0 0 0 -1045.0962968973545 -331.99587775385726 0 -331.99587775385726 -1873.0754113787821 0 0 0 0 -751.19023082665808 -277.65217169332448 0 -277.65217169332448 -1018.7406208656938 0 0 0 0 -543.08686136256438 317.07229235791112 0 317.07229235791112 -1053.3321842882074 0 0 0 0 -2889.0338227171014 1774.9995167618488 0 1774.9995167618488 -1081.3622336702506 0 0 0 0 -3218.2807565408293 -246.66726527904689 0 -246.66726527904689 -567.61461397239668 0 0 0 0 -1402.3753492750402 372.42817009499754 0 372.42817009499754 71.439906879243409 0 0 0 0 -2444.8138177363144 342.00799070015313 0 342.00799070015313 97.166642963109865 0 0 0 0 -1395.8222860931673 110.48035736969382 0 110.48035736969382 -498.73145082826977 0 0 0 0 -1282.1224509858002 1132.5445504959894 0 1132.5445504959894 -832.26215129061211 0 0 0 0 -798.8551406682418 586.30260628223198 0 586.30260628223198 -418.88750926962848 0 0 0 0 -20.992342369740612 -7.8413438099810975 0 -7.8413438099810975 -4.7816847326250755 0 0 0 0 -112.34956364209938 -32.997070625599065 0 -32.997070625599065 99.397405685945387 0 0 0 0 -178.60498760048358 -137.36782587630773 0 -137.36782587630773 30.793723114570184 0 0 0 0 -63.809805873965331 -14.732812220621426 0 -14.732812220621426 -1.6993947535873746 0 0 0 0 47.500832638143038 213.1114243421064 0 213.1114243421064 -288.7120889941051 0 0 0 0 -10.609359324434621 -1.6983687502669227 0 -1.6983687502669227 -2.7677223822357995 0 0 0 0 -1024.5083946203667 350.38875010471048 0 350.38875010471048 -137.3119924074611 0 0 0 0 -708.72062587147957 666.55718648120683 0 666.55718648120683 -154.53806056695305 0 0 0 0 -1014.6983840825706 419.48458932032997 0 419.48458932032997 -55.624178486485107 0 0 0 0 -1115.7559760188014 625.65268046490428 0 625.65268046490428 -379.83136125318504 0 0 0 0 -1509.5297013173622 518.45223164525225 0 518.45223164525225 54.349231679891545 0 0 0 0 -1142.218832480954 405.53390399930959 0 405.53390399930959 11.627028035023841 0 0 0 0 -1142.0971039727301 379.89760712668954 0 379.89760712668954 69.635756719826986 0 0 0 0 -1085.0289764297486 319.78315884865015 0 319.78315884865015 79.246710437879301 0 0 0 0 -1006.7184041371256 443.35301110270541 0 443.35301110270541 95.739636555849756 0 0 0 0 -948.81827161155525 555.67917422329356 0 555.67917422329356 1.2466838950174406 0 0 0 0 -887.97811063371773 432.12137827590095 0 432.12137827590095 23.138144504622687 0 0 0 0 -695.05402074234735 424.35272175583805 0 424.35272175583805 2.9626139069355304 0 0 0 0 -660.19055682444014 459.60113167309237 0 459.60113167309237 -47.50944622888278 0 0 0 0 -263.00873204051095 309.47269562503254 0 309.47269562503254 -95.772831738198875 0 0 0 0 -321.01656788348919 209.36939492860205 0 209.36939492860205 -93.421386727199661 0 0 0 0 -173.43657813337632 178.99332753298722 0 178.99332753298722 -177.85234499710043 0 0 0 0 -16.960229583623004 267.29605273335642 0 267.29605273335642 153.22151887462383 0 0 0 0 -8.6628964644405642 155.34962481534046 0 155.34962481534046 -96.315329190250395 0 0 0 0 -204.90493287773279 358.81513654406285 0 358.81513654406285 -126.54343221821122 0 0 0 0 51.049069930973928 64.615042656489436 0 64.615042656489436 -34.416216261526756 0 0 0 0 -298.64117464096489 322.55123369255023 0 322.55123369255023 120.72604081678026 0 0 0 0 -167.64159037321951 52.403145034848535 0 52.403145034848535 279.37669958701963 0 0 0 0 -2.2032342929140611 14.656804599359205 0 14.656804599359205 5.2303755229949633 0 0 0 0 -169.10450137525913 232.31861118576614 0 232.31861118576614 392.44681125273655 0 0 0 0 -60.785765087713145 41.17126337056375 0 41.17126337056375 6.8232710322587362 0 0 0 0 -51.907551114403759 66.487587070960487 0 66.487587070960487 -3.1768859788058688 0 0 0 0 -22.399934797358583 73.206281990825801 0 73.206281990825801 -13.095370198484602 0 0 0 0 -49.136275572556769 74.516354859990656 0 74.516354859990656 2.9507786132776346 0 0 0 0 -72.065185883839149 68.852224949526772 0 68.852224949526772 4.5446263051111373 0 0 0 0 -40.142453238724556 55.735025263459931 0 55.735025263459931 -46.386995675977545 0 0 0 0 -9.4060208895825781 138.46620431327815 0 138.46620431327815 -121.81228468864026 0 0 0 0 -114.0682370443501 -76.752928746734042 0 -76.752928746734042 641.3364820353537 0 0 0 0 1.9300176606648449 1.3793166578711151 0 1.3793166578711151 1.2459252155174179 0 0 0 0 -188.90800542238867 173.22139807308827 0 173.22139807308827 268.38529856444023 0 0 0 0 9.1448864169324224 204.27275995698386 0 204.27275995698386 54.020072033192776 0 0 0 0 -100.70726990391267 105.81808785196165 0 105.81808785196165 26.351085832270826 0 0 0 0 -113.18741385915928 100.15829284717051 0 100.15829284717051 53.228876164681651 0 0 0 0 -164.68617197801359 78.202299911627279 0 78.202299911627279 45.423937966240942 0 0 0 0 -180.44038733492198 56.324897827982284 0 56.324897827982284 37.978204304957217 0 0 0 0 -222.18676318618236 106.64127329442752 0 106.64127329442752 130.43851685280652 0 0 0 0 -277.93009347470797 63.971858788597899 0 63.971858788597899 117.59615265869888 0 0 0 0 -269.83907707335311 59.897375955182383 0 59.897375955182383 113.28467825447461 0 0 0 0 -356.74675057708373 -3.9395812349228549 0 -3.9395812349228549 111.70120238308016 0 0 0 0 -249.13914891131571 44.866642384076499 0 44.866642384076499 4.9475449517140078 0 0 0 0 -226.72510303629679 -29.768008785517623 0 -29.768008785517623 222.49071675856828 0 0 0 0 4.9964370965899434 2.1275992442897405 0 2.1275992442897405 -18.812856622240361 0 0 0 0 -170.97355999252068 35.932781712907826 0 35.932781712907826 -167.47976004490101 0 0 0 0 -223.26286098959099 75.808282962790599 0 75.808282962790599 -41.183162022786519 0 0 0 0 -339.80858896171412 10.376695057999768 0 10.376695057999768 2.166230067212382 0 0 0 0 -206.28120230288914 74.805327547885554 0 74.805327547885554 -178.37049527064119 0 0 0 0 -25.98664574504852 -1.7816999364834523 0 -1.7816999364834523 0.78002990220914747 0 0 0 0 57.983902958905674 -508.75991385491329 0 -508.75991385491329 668.0230372784406 0 0 0 0 168.97295694769127 -188.53394828914986 0 -188.53394828914986 -142.3376975405489 0 0 0 0 -10.133718946883448 -0.33265311794881569 0 -0.33265311794881569 0.10482147457712809 0 0 0 0 168.51838571863254 -222.58449190639431 0 -222.58449190639431 -28.463816996969626 0 0 0 0 -648.92999001211138 561.54133053682779 0 561.54133053682779 -140.92309841475173 0 0 0 0 -12.457930588920135 -316.37625240269563 0 -316.37625240269563 8.044005441064769 0 0 0 0 -568.35702748093172 491.74080985067042 0 491.74080985067042 -94.373670333582766 0 0 0 0 -700.93496372754453 432.68988328502905 0 432.68988328502905 46.910046271968071 0 0 0 0 126.74164505783119 218.48772980560332 0 218.48772980560332 322.56972404568512 0 0 0 0 -22.773048961469613 -180.68284634438785 0 -180.68284634438785 -584.64277357326228 0 0 0 0 305.63150045104703 505.79492750212319 0 505.79492750212319 -848.09433437768348 0 0 0 0 -1709.145046409918 -1017.4407486878522 0 -1017.4407486878522 358.58925342802502 0 0 0 0 -5474.544289475707 344.51719576011004 0 344.51719576011004 749.13871105027874 0 0 0 0 -16.316495578477827 0.15920497052422888 0 0.15920497052422888 0.68742812997860914 0 0 0 0 -3298.3585608675057 1791.0715751487232 0 1791.0715751487232 197.69279004631531 0 0 0 0 -5492.757784180154 747.60542201868202 0 747.60542201868202 1291.9754543542444 0 0 0 0 213.0753105807089 -532.06181356352261 0 -532.06181356352261 -564.89903782346187 0 0 0 0 -639.30576118075987 900.9465959440405 0 900.9465959440405 -177.39169274001506 0 0 0 0 -98.032684985504602 -242.03248730393443 0 -242.03248730393443 -241.7916615231446 0 0 0 0 -1786.9603507015272 -312.6729606969173 0 -312.6729606969173 -113.75979649860969 0 0 0 0 -3686.3398094877193 -123.79619755615657 0 -123.79619755615657 645.50549738933569 0 0 0 0 -3717.5123834946135 511.93420942668092 0 511.93420942668092 314.91807581277226 0 0 0 0 -5492.5158673049973 -466.10241340276497 0 -466.10241340276497 595.37853583735568 0 0 0 0 -3687.4706463965922 -2553.2042928942869 0 -2553.2042928942869 -584.69693207435989 0 0 0 0 -21.952667103310262 6.5349769114583651 0 6.5349769114583651 -4.6636423382446734 0 0 0 0 -1639.2742767749223 575.37823863131212 0 575.37823863131212 -188.91345230857902 0 0 0 0 -53.484747476850714 6.2107708800166463 0 6.2107708800166463 -0.31144358103937675 0 0 0 0 -572.81458651386492 289.60901285256182 0 289.60901285256182 721.82099994437704 0 0 0 0 -10.665588404946675 0.10572059188197613 0 0.10572059188197613 -1.2473101258422032 0 0 0 0 -64.97596803896306 -13.989324227412908 0 -13.989324227412908 3.0609823971701693 0 0 0 0 -38.536683050690044 -29.807848457311955 0 -29.807848457311955 315.36376298665539 0 0 0 0 -2.8091756515423185 69.610120054899667 0 69.610120054899667 -45.603491662817589 0 0 0 0 -34.711827805978828 -260.23101710546501 0 -260.23101710546501 47.501314533352698 0 0 0 0 -11.008461235891446 -73.869405690427527 0 -73.869405690427527 -22.589179863798989 0 0 0 0 -9.3378515468618275 -5.7147418954090696 0 -5.7147418954090696 1.9056655933815319 0 0 0 0 -190.28223396957037 -171.66545842715101 0 -171.66545842715101 -159.80920032230875 0 0 0 0 -50.358699951455492 -20.885202295628417 0 -20.885202295628417 -17.335137992796319 0 0 0 0 -342.75748560710781 -3.4252182165899541 0 -3.4252182165899541 24.796507688888539 0 0 0 0 -127.08470670779934 149.6219059245368 0 149.6219059245368 106.17849487980948 0 0 0 0 -220.73776734387502 -86.099001368754443 0 -86.099001368754443 -60.057846276105352 0 0 0 0 -3.0607301299586425 0.42006622302562135 0 0.42006622302562135 0.57236485034993456 0 0 0 0 -423.31610334911966 344.70708294197766 0 344.70708294197766 326.89550013918756 0 0 0 0 177.76212747192767 67.36419359679735 0 67.36419359679735 110.58540998159583 0 0 0 0 -40.809916252270341 25.42845634615243 0 25.42845634615243 -26.022121959367354 0 0 0 0 -82.193472530212603 29.145168666427082 0 29.145168666427082 16.254303646631101 0 0 0 0 -239.58358505474462 134.51639203924827 0 134.51639203924827 -78.946782982530038 0 0 0 0 -85.897808732945123 47.372932513981411 0 47.372932513981411 -40.381869305081437 0 0 0 0 -69.62249087820237 2.3327226348880288 0 2.3327226348880288 8.9876918599971987 0 0 0 0 25.184894285659539 -7.0173085065196119 0 -7.0173085065196119 -241.18730365657598 0 0 0 0 -25.513656495619216 -30.37975193860899 0 -30.37975193860899 -25.402789110016542 0 0 0 0 -50.795150748493342 -12.169567472314583 0 -12.169567472314583 7.5095468266076306 0 0 0 0 101.73669108482864 -343.06165841859138 0 -343.06165841859138 206.5237650121112 0 0 0 0 -273.02486292622052 45.688992909756962 0 45.688992909756962 218.99898790877114 0 0 0 0 -82.255260810616448 -17.062910008644721 0 -17.062910008644721 26.989100772293071 0 0 0 0 -22.246248324750923 -169.51177671164885 0 -169.51177671164885 35.504247112423485 0 0 0 0 -23.145216396750754 -27.258889727361108 0 -27.258889727361108 -5.4142255579618777 0 0 0 0 67.351263747026678 -125.23998748499616 0 -125.23998748499616 83.486216778254402 0 0 0 0 161.93076039962762 35.179989849784761 0 35.179989849784761 -22.445167025292449 0 0 0 0 -122.00527487967338 -72.638638827988188 0 -72.638638827988188 199.87622644778548 0 0 0 0 97.701537347704289 -42.582435716045893 0 -42.582435716045893 -95.276306908527658 0 0 0 0 204.150673324526 -179.30185617948905 0 -179.30185617948905 -123.5375015574582 0 0 0 0 -285.54855902970303 -132.99226103295587 0 -132.99226103295587 236.01175898776319 0 0 0 0 -741.81074322883069 -129.96061595996912 0 -129.96061595996912 -47.034005408677331 0 0 0 0 -269.13599963910383 -168.23431991884695 0 -168.23431991884695 -48.149312594930961 0 0 0 0 -979.66427418225794 118.88849940917783 0 118.88849940917783 108.82062390715896 0 0 0 0 158.08118900144473 -271.47944056286121 0 -271.47944056286121 -711.39106968052715 0 0 0 0 -300.88237515819492 532.49776549618537 0 532.49776549618537 -438.0580779242423 0 0 0 0 -89.529130956361769 200.83250384668906 0 200.83250384668906 82.26143042462877 0 0 0 0 -23.467143925826406 -10.763460280969738 0 -10.763460280969738 -6.16729969871104 0 0 0 0 -43.128407620766666 -262.27705146249014 0 -262.27705146249014 141.32526986831684 0 0 0 0 -87.086413336393889 159.58525273951329 0 159.58525273951329 25.771530309505579 0 0 0 0 109.33501392419566 -194.0475670684408 0 -194.0475670684408 92.613843868575259 0 0 0 0 -77.48706971285128 -32.11849226442132 0 -32.11849226442132 15.241364925916296 0 0 0 0 139.01251973307808 -323.04442802639232 0 -323.04442802639232 194.86581942699195 0 0 0 0 98.318448701465968 -13.26217697818538 0 -13.26217697818538 -39.173729504362655 0 0 0 0 194.65032675871043 -108.32001830717081 0 -108.32001830717081 -56.721621168317597 0 0 0 0 -97.126885206067527 -71.072754165631721 0 -71.072754165631721 219.83134302563781 0 0 0 0 35.121905111976957 54.862062689245477 0 54.862062689245477 -335.57179164000604 0 0 0 0 -8.78902807034126 -4.1946847170397348 0 -4.1946847170397348 -2.3982510368124075 0 0 0 0 -846.16352945652034 520.58440586948132 0 520.58440586948132 29.914564216373407 0 0 0 0 121.81659097727379 -189.33134020517957 0 -189.33134020517957 -19.833573137366329 0 0 0 0 -92.008229916234029 -35.761152955376048 0 -35.761152955376048 13.210252280592586 0 0 0 0 83.715843590704026 -433.6840518861369 0 -433.6840518861369 102.19330626575646 0 0 0 0 72.710049333516508 -169.58720081157014 0 -169.58720081157014 6.8510755105103271 0 0 0 0 136.37075361573216 -7.6902759673848919 0 -7.6902759673848919 -39.77635988543625 0 0 0 0 -47.666146072151605 -3.9681598430699978 0 -3.9681598430699978 -15.817560951885753 0 0 0 0 6.2251509730254497 -1.1621229224158123 0 -1.1621229224158123 5.5713434601463545 0 0 0 0 -131.32614685011504 -50.297943667867003 0 -50.297943667867003 1235.0458689573074 0 0 0 0 -18.410987435534196 -20.935187631848617 0 -20.935187631848617 -0.7129320107965289 0 0 0 0 96.692824257101165 -154.18999457275788 0 -154.18999457275788 887.45014657223146 0 0 0 0 44.567519566422561 -12.67798347020846 0 -12.67798347020846 25.877529281173906 0 0 0 0 -57.334943317284342 -12.865654021580781 0 -12.865654021580781 41.886833919284641 0 0 0 0 249.44699308504642 32.833141339807639 0 32.833141339807639 790.16271120504871 0 0 0 0 116.70367414529028 154.97426199712743 0 154.97426199712743 960.72396004079428 0 0 0 0 155.45544001711824 -52.099568377792821 0 -52.099568377792821 728.9557181670898 0 0 0 0 -12.639589215890737 61.52510437837077 0 61.52510437837077 714.42000588671704 0 0 0 0 91.817255706351716 -36.397062307747476 0 -36.397062307747476 369.68949760732005 0 0 0 0 106.49957781395642 62.320485289576084 0 62.320485289576084 375.45450498932678 0 0 0 0 -78.625152124848682 22.771807479064137 0 22.771807479064137 933.45906484179022 0 0 0 0 3.4105105097696651 -98.136083606936836 0 -98.136083606936836 649.50988674287521 0 0 0 0 11.231262037967099 105.53923946131727 0 105.53923946131727 603.10201131540703 0 0 0 0 24.983589062614271 -17.812477980502926 0 -17.812477980502926 3.1497081740727904 0 0 0 0 -107.79746853257529 -12.741036356919722 0 -12.741036356919722 159.03747767122763 0 0 0 0 335.60327463975409 -39.789688623164693 0 -39.789688623164693 180.50869644863974 0 0 0 0 -67.813927685841918 -96.296055190333163 0 -96.296055190333163 618.67490678176591 0 0 0 0 -380.49477703946468 -283.59823395381954 0 -283.59823395381954 1369.4089074259477 0 0 0 0 191.31320267495175 156.10485505564202 0 156.10485505564202 793.22225002735513 0 0 0 0 1.6110768092178205 -1.8461940314814846 0 -1.8461940314814846 0.48977953139791319 0 0 0 0 98.804100121182273 -371.70484840184372 0 -371.70484840184372 758.86990644540401 0 0 0 0 56.078159818149288 -85.953475262738266 0 -85.953475262738266 185.63060432712518 0 0 0 0 -22.800382754778468 2.8088285887659907 0 2.8088285887659907 18.250029136031749 0 0 0 0 -763.61104006022288 -36.870398371381896 0 -36.870398371381896 80.490343971696802 0 0 0 0 -266.02938561500923 -223.30484531979664 0 -223.30484531979664 -618.91360413077177 0 0 0 0 -6.4691548278529183 0.21123018217939205 0 0.21123018217939205 0.38229329816940094 0 0 0 0 -300.92132144194329 -134.78342370171276 0 -134.78342370171276 -258.26333632695696 0 0 0 0 -220.06751907394937 -266.63927860367085 0 -266.63927860367085 -380.1384442596127 0 0 0 0 -105.24372064418276 -83.352795726794284 0 -83.352795726794284 -95.441665869147982 0 0 0 0 34.564041057717986 44.678030089137337 0 44.678030089137337 -381.08526895009669 0 0 0 0 108.90847667132039 -27.896630687185734 0 -27.896630687185734 -232.0081874336347 0 0 0 0 51.301805593553581 102.93955820972974 0 102.93955820972974 -242.23736064724471 0 0 0 0 -13.701444369986518 -0.28287639012035726 0 -0.28287639012035726 2.7759625222128186 0 0 0 0 9.6656724917847896 111.35221101317438 0 111.35221101317438 -201.76315411688483 0 0 0 0 24.387540983125291 -84.456536452366663 0 -84.456536452366663 -40.394504672656694 0 0 0 0 35.014348002732731 -27.339828374007993 0 -27.339828374007993 -312.46788758365528 0 0 0 0 -41.298075282451464 40.344296958168798 0 40.344296958168798 -124.97815181428314 0 0 0 0 13.515768981114888 -4.3543590502680729 0 -4.3543590502680729 3.3769938128541224 0 0 0 0 69.435727180913091 -46.819318078017659 0 -46.819318078017659 -23.259277657690973 0 0 0 0 -4.8745475916935561 -7.2733918905119941 0 -7.2733918905119941 -0.62153083448991808 0 0 0 0 -96.87960110376298 1.8965034244707795 0 1.8965034244707795 1238.3757571180777 0 0 0 0 -6.706883604994232 0.29777142587007432 0 0.29777142587007432 7.3249613127799424 0 0 0 0 -37.440184744817088 64.813202715464399 0 64.813202715464399 952.28681626464822 0 0 0 0 1.2416097526729573 -41.837331694255226 0 -41.837331694255226 755.66946618344332 0 0 0 0 27.799444551172201 47.711420403948125 0 47.711420403948125 687.92990009252605 0 0 0 0 76.763588625050033 -18.471622892790592 0 -18.471622892790592 333.53147759297951 0 0 0 0 38.40553635120159 60.171770276618645 0 60.171770276618645 551.89934325536422 0 0 0 0 -40.591845607705181 16.463827093608586 0 16.463827093608586 945.30471037706639 0 0 0 0 41.850920920966018 -43.098548963522518 0 -43.098548963522518 740.72365648095149 0 0 0 0 90.044442588085076 -139.5806476774074 0 -139.5806476774074 663.47165691282339 0 0 0 0 11.425700999272522 59.307626328793752 0 59.307626328793752 398.99459764007963 0 0 0 0 244.33999061724171 -96.767174559195254 0 -96.767174559195254 431.02247765184916 0 0 0 0 23.911849803553196 -239.16471229834133 0 -239.16471229834133 1088.220433797728 0 0 0 0 339.99284025057568 -273.27906660117998 0 -273.27906660117998 827.86679942169383 0 0 0 0 -214.35707195906434 -354.06006133724986 0 -354.06006133724986 344.50764393448549 0 0 0 0 114.1283036051027 130.33590290500524 0 130.33590290500524 -77.262228691421569 0 0 0 0 4.0916437811295339 0.21929371056882463 0 0.21929371056882463 0.82595473623968085 0 0 0 0 -609.63051270606229 153.19530206982029 0 153.19530206982029 1394.649043559268 0 0 0 0 106.53482216018892 379.33902031263659 0 379.33902031263659 966.37087151742367 0 0 0 0 550.91336473804404 108.51090647562931 0 108.51090647562931 675.4730199687333 0 0 0 0 -227.66072401672136 129.92528492346349 0 129.92528492346349 448.54119828781569 0 0 0 0 115.27339806346572 146.42006190001686 0 146.42006190001686 449.06679533295113 0 0 0 0 -34.648975770134712 79.110100063322477 0 79.110100063322477 674.41360046394959 0 0 0 0 -459.66169458342483 62.644974701900878 0 62.644974701900878 892.5157353819352 0 0 0 0 -618.77174723826465 70.118469553752021 0 70.118469553752021 603.1325131028234 0 0 0 0 -825.7646532873332 -252.62518525297745 0 -252.62518525297745 1099.453850004373 0 0 0 0 -442.78664165557711 134.08048242488019 0 134.08048242488019 624.01906910770572 0 0 0 0 -429.97847616177751 -75.162807897703104 0 -75.162807897703104 -436.33296543992043 0 0 0 0 -453.9297534757934 141.03414247115708 0 141.03414247115708 -429.06895548197588 0 0 0 0 -350.41548770706868 128.92557258613942 0 128.92557258613942 12.517777314202363 0 0 0 0 -241.25185134753701 -39.570165144048872 0 -39.570165144048872 0.32189340164150337 0 0 0 0 -87.976916611674824 82.130154517363323 0 82.130154517363323 22.61522759670774 0 0 0 0 123.60695035562094 -11.717527075212089 0 -11.717527075212089 20.842997074895067 0 0 0 0 -65.682660259946715 -11.645918031331178 0 -11.645918031331178 -360.42907536927487 0 0 0 0 -70.026784785732161 169.72597219943492 0 169.72597219943492 -418.02790674019309 0 0 0 0 -21.670960650808411 4.9153443150092926 0 4.9153443150092926 -419.5346203417206 0 0 0 0 114.66834162609302 121.5424587053395 0 121.5424587053395 -349.07210985643991 0 0 0 0 39.199347903479065 22.705510070936612 0 22.705510070936612 -15.869582454483975 0 0 0 0 107.52182553026796 -116.14928316271346 0 -116.14928316271346 289.68674098781941 0 0 0 0 70.664816324497224 149.04399565436213 0 149.04399565436213 -46.159076753640875 0 0 0 0 81.676445513789076 114.28233251778474 0 114.28233251778474 41.335623676991219 0 0 0 0 88.071353656725478 -18.18394314439719 0 -18.18394314439719 333.4042298690631 0 0 0 0 152.38099365009111 -2.2952827448732478 0 -2.2952827448732478 -223.22209306227467 0 0 0 0 69.283592646883335 215.00392682846086 0 215.00392682846086 -350.69485369474626 0 0 0 0 139.23200042638928 72.176260196349972 0 72.176260196349972 -611.81972130937106 0 0 0 0 134.74805178544193 244.58979963592805 0 244.58979963592805 -807.47831403715645 0 0 0 0 163.24953071151685 177.08017627313154 0 177.08017627313154 -890.37859659889409 0 0 0 0 206.50644066267705 229.11951889348688 0 229.11951889348688 -961.48896732192634 0 0 0 0 172.02985364042979 200.66348164733392 0 200.66348164733392 -1007.9985618663579 0 0 0 0 113.43196871055625 204.98061602871198 0 204.98061602871198 -678.38246186238587 0 0 0 0 -4.1022071042680182 69.617996112287869 0 69.617996112287869 -807.46070138222558 0 0 0 0 -40.376452953581975 207.08699950565682 0 207.08699950565682 -893.6106215604317 0 0 0 0 -238.00554441765416 -64.888830945464747 0 -64.888830945464747 -713.15330638772707 0 0 0 0 -436.79267352512397 66.504022752249227 0 66.504022752249227 -877.97062491524775 0 0 0 0 -327.87891779964605 188.9622460426541 0 188.9622460426541 -7.0656439288995898 0 0 0 0 -384.7685393610227 -7.0999298134108813 0 -7.0999298134108813 -288.53753429939843 0 0 0 0 -332.61650226397614 -244.93671153699091 0 -244.93671153699091 147.2206892915801 0 0 0 0 -53.338076376865502 -147.9736616487657 0 -147.9736616487657 150.28350475052446 0 0 0 0 -336.87048972117191 -60.249081370798351 0 -60.249081370798351 636.22837878589053 0 0 0 0 -184.70471546149929 116.44017575791074 0 116.44017575791074 445.84353755712414 0 0 0 0 -111.2980220518366 20.129472984814925 0 20.129472984814925 367.52316364760748 0 0 0 0 34.284384255763143 -58.872840409325192 0 -58.872840409325192 121.78763388378945 0 0 0 0 101.0255454396538 81.555947299481232 0 81.555947299481232 -85.515543254583804 0 0 0 0 -11.877584352565464 24.491608284233337 0 24.491608284233337 361.60418100506809 0 0 0 0 -127.0964923005813 148.93750177354968 0 148.93750177354968 -89.764149344776328 0 0 0 0 3.8918989746161969 26.217119305281244 0 26.217119305281244 -332.13217871625193 0 0 0 0 120.88862411997343 141.3478235925584 0 141.3478235925584 -638.30542620486085 0 0 0 0 138.8624198789621 195.35093078569906 0 195.35093078569906 -617.65225552194306 0 0 0 0 22.898751978413202 319.33758014040313 0 319.33758014040313 -841.27079835813106 0 0 0 0 24.972108158006449 224.40515455670015 0 224.40515455670015 -950.5984385505526 0 0 0 0 -1997.0386062410835 114.22142800163101 0 114.22142800163101 -518.93300389082265 0 0 0 0 -473.61230810013694 -292.57288473140784 0 -292.57288473140784 -488.84277013999872 0 0 0 0 -576.51953788220999 332.78115416846754 0 332.78115416846754 -474.58537269996646 0 0 0 0 -724.41740243806998 -1138.6098983910492 0 -1138.6098983910492 -624.18768339520284 0 0 0 0 -884.68314290743729 -818.67928790005624 0 -818.67928790005624 -557.66483200171797 0 0 0 0 -570.93785766740166 -1161.6083119024361 0 -1161.6083119024361 -679.90701241960858 0 0 0 0 -498.52593670265924 -637.6794231871587 0 -637.6794231871587 -178.41762737371141 0 0 0 0 -194.87618537020535 -640.64066535978759 0 -640.64066535978759 -269.3830058074559 0 0 0 0 -407.8813948675961 -883.82042671566182 0 -883.82042671566182 -561.30438187102811 0 0 0 0 -919.57815872695937 -526.24617743367821 0 -526.24617743367821 91.033284046898217 0 0 0 0 -430.37936923507368 -249.58834620825269 0 -249.58834620825269 410.85014390344304 0 0 0 0 -116.32469941693125 -265.40634761782826 0 -265.40634761782826 82.691051466961142 0 0 0 0 -324.65333406299897 -396.64049841608511 0 -396.64049841608511 530.94884777490233 0 0 0 0 -78.371733973413939 39.369584412399945 0 39.369584412399945 549.19230801493222 0 0 0 0 -92.275336449034512 -498.61649901972214 0 -498.61649901972214 114.34353451525521 0 0 0 0 -548.19349472323665 268.1043351906219 0 268.1043351906219 496.86926957600645 0 0 0 0 -53.74534508580939 -13.346423098870378 0 -13.346423098870378 1.5956621929907833 0 0 0 0 -52.681030414997167 -12.148334204826856 0 -12.148334204826856 4.3181654185412981 0 0 0 0 -239.44019054539967 106.24555161834951 0 106.24555161834951 859.3826001853231 0 0 0 0 -166.47375478883623 75.142946414521703 0 75.142946414521703 594.39203565211028 0 0 0 0 -38.94667855323496 -150.93208822386464 0 -150.93208822386464 279.40242172381841 0 0 0 0 -91.982428079023734 461.59904384501243 0 461.59904384501243 156.426298119308 0 0 0 0 -44.842456769793841 -14.379010180989791 0 -14.379010180989791 -1.5944397537892239 0 0 0 0 -330.06378177470106 -635.27425049317219 0 -635.27425049317219 -171.07185402289224 0 0 0 0 55.344408254240989 -147.66551007869111 0 -147.66551007869111 77.596189193413011 0 0 0 0 -34.935499638391661 4.2853316753115269 0 4.2853316753115269 -0.26477096578056059 0 0 0 0 146.93796310888138 459.0515998553775 0 459.0515998553775 -583.87024798220023 0 0 0 0 159.55476333798288 150.40045024472943 0 150.40045024472943 266.59468997877718 0 0 0 0 -788.95321316046466 -176.67158392773092 0 -176.67158392773092 692.86815329211424 0 0 0 0 154.50637400565756 -276.09302277988189 0 -276.09302277988189 -248.00357357929647 0 0 0 0 -5376.32114519272 -691.37633819831967 0 -691.37633819831967 -196.17334911775689 0 0 0 0 -13.324774930803926 2.0013830832163393 0 2.0013830832163393 -1.0736832076992067 0 0 0 0 -1521.6255028151645 1325.9831248644441 0 1325.9831248644441 -866.3970407206358 0 0 0 0 172.0715338348964 -279.85457713918703 0 -279.85457713918703 -788.21038945999089 0 0 0 0 -294.42194508989633 -470.89479833515156 0 -470.89479833515156 -444.5929438985296 0 0 0 0 -89.770681810041424 -597.95912845846317 0 -597.95912845846317 -103.84546487477705 0 0 0 0 -802.02362746783183 -2073.2629885997071 0 -2073.2629885997071 -3657.6694463608515 0 0 0 0 -89.681427858608373 561.78688010278177 0 561.78688010278177 97.217103522560265 0 0 0 0 -18.461814802228616 -9.1175958061672731 0 -9.1175958061672731 -3.6329351435662049 0 0 0 0 -5463.7300974988057 -2480.3074217318604 0 -2480.3074217318604 -37.670638526828128 0 0 0 0 -9.5684971654749802 -1.1608444335908956 0 -1.1608444335908956 8.0574556046062682 0 0 0 0 -1007.7131601776346 -574.450871844326 0 -574.450871844326 91.975663326101227 0 0 0 0 -1135.007665385463 -1105.8947095943613 0 -1105.8947095943613 -507.62217563284389 0 0 0 0 -2886.3140178025933 -864.57126470247158 0 -864.57126470247158 264.07240778838542 0 0 0 0 -5494.4529206547886 -1176.591399924552 0 -1176.591399924552 240.59253808398554 0 0 0 0 -23.059843002219623 -4.0549929652982026 0 -4.0549929652982026 -1.7490814720902856 0 0 0 0 -268.17437767497177 471.39548324648945 0 471.39548324648945 -1104.7914547233584 0 0 0 0 -2874.8074274497922 1912.1940225577089 0 1912.1940225577089 -438.88679694830165 0 0 0 0 -5492.9470675774865 576.2272746086195 0 576.2272746086195 929.97706556342746 0 0 0 0 -53.428053432208344 -5.2723646259261061 0 -5.2723646259261061 7.3352874834286936 0 0 0 0 -353.61450280899589 -570.35539011339461 0 -570.35539011339461 -907.50479561833208 0 0 0 0 -12.999266103485439 -11.651154080751041 0 -11.651154080751041 19.346821659309128 0 0 0 0 -268.17437767494567 -72.685072864118922 0 -72.685072864118922 35.808573059166861 0 0 0 0 -439.58943274058402 -196.16545847215707 0 -196.16545847215707 1069.8724889228288 0 0 0 0 -849.6190678087296 -348.57502923688878 0 -348.57502923688878 1694.9058215776549 0 0 0 0 -1736.9795086844533 -2085.3844252107297 0 -2085.3844252107297 366.45454102265899 0 0 0 0 -5491.8247622242634 -3001.4835828420419 0 -3001.4835828420419 1078.6677389954975 0 0 0 0 -1729.640105511673 -3057.384251570938 0 -3057.384251570938 -1956.9882727711342 0 0 0 0 -1544.6094342774668 -1445.197399471436 0 -1445.197399471436 -1055.9811346969259 0 0 0 0 -29.216381985298483 -8.0077020657734632 0 -8.0077020657734632 4.3626149630521942 0 0 0 0 -544.35805250074191 -1070.7683634242544 0 -1070.7683634242544 -2080.0603226224116 0 0 0 0 44.253979184431955 -316.3763711408883 0 -316.3763711408883 887.95161790091004 0 0 0 0 120.17500897855643 891.37316741346854 0 891.37316741346854 2911.9802437312014 0 0 0 0 -17.108625466549199 -8.8755441483155693 0 -8.8755441483155693 9.2224453124367187 0 0 0 0 495.68148432752059 -1312.1363177043929 0 -1312.1363177043929 1462.3695404866171 0 0 0 0 -1359.7067469154572 312.12750860397909 0 312.12750860397909 728.67001364632188 0 0 0 0 -197.21222273043531 1222.2706217887423 0 1222.2706217887423 1391.6184123030962 0 0 0 0 -2657.3314305912645 6.3005337237543699 0 6.3005337237543699 874.23477105661095 0 0 0 0 -1945.0119366337021 835.97697075769338 0 835.97697075769338 1979.4939657630453 0 0 0 0 -2291.4712693204056 686.47125954192165 0 686.47125954192165 2001.6698063960871 0 0 0 0 -1665.3496744853646 1012.5579940202757 0 1012.5579940202757 564.39044723430743 0 0 0 0 -1978.5811206677899 570.99685555042197 0 570.99685555042197 1227.6299029010465 0 0 0 0 -1638.079353031846 588.47117705047481 0 588.47117705047481 392.86827760082269 0 0 0 0 -1300.3003376960037 -868.21893178348853 0 -868.21893178348853 493.95036635851852 0 0 0 0 -1511.2764920538466 812.18345677248089 0 812.18345677248089 733.03095674575286 0 0 0 0 -2706.8017361209277 1000.0678735896801 0 1000.0678735896801 -42.269086576861355 0 0 0 0 -3056.7375493303698 -558.36634289396488 0 -558.36634289396488 561.39899986297689 0 0 0 0 -2034.4681448866741 870.93604422968099 0 870.93604422968099 514.22873312120964 0 0 0 0 -2004.7539149412332 466.52029395868499 0 466.52029395868499 361.75264297261958 0 0 0 0 -2506.3706507051611 -1480.7715490843348 0 -1480.7715490843348 975.86467205795145 0 0 0 0 -3364.782534358339 -1572.5632169403375 0 -1572.5632169403375 1020.5870120081322 0 0 0 0 -529.55866525096644 -382.34105880551158 0 -382.34105880551158 670.00046275428315 0 0 0 0 -2625.2581483991089 -526.4827824112466 0 -526.4827824112466 517.87690729524627 0 0 0 0 -3384.8096268174195 -1105.7455793151503 0 -1105.7455793151503 818.56866382400199 0 0 0 0 -2014.5576797156973 508.50296540467264 0 508.50296540467264 892.27941335849061 0 0 0 0 -5500.3304486805719 285.83168414167926 0 285.83168414167926 1203.4743219690233 0 0 0 0 -5492.5632821794425 2055.1998900829349 0 2055.1998900829349 348.37955740782644 0 0 0 0 -18.929019168212477 -5.6936422035525993 0 -5.6936422035525993 0.24373938457981348 0 0 0 0 -4930.4867130494822 1800.0498234488566 0 1800.0498234488566 -92.64603092010384 0 0 0 0 -1579.8694779040743 2336.2321809044502 0 2336.2321809044502 -402.81863769194013 0 0 0 0 -1536.3366746742895 -1094.7029544007532 0 -1094.7029544007532 489.06035855421612 0 0 0 0 -2835.2375732841501 -626.60983348153286 0 -626.60983348153286 444.61985233388543 0 0 0 0 -1724.5038744053818 546.85611656208766 0 546.85611656208766 -1312.8251735497877 0 0 0 0 -1737.6759808340707 448.55463453565972 0 448.55463453565972 -189.11660701144615 0 0 0 0 -54.641439965891351 -31.431433022164683 0 -31.431433022164683 -8.6500225296260158 0 0 0 0 -154.37550338885558 250.58930770967117 0 250.58930770967117 342.00580151319991 0 0 0 0 -5460.3022127118384 2416.020463929116 0 2416.020463929116 -46.679062438528831 0 0 0 0 -4946.1366120368766 1715.6654206189601 0 1715.6654206189601 -535.75484878118766 0 0 0 0 -552.4869709073464 -1134.995380195176 0 -1134.995380195176 210.48331788913038 0 0 0 0 -21.461394350647822 -12.187293084452342 0 -12.187293084452342 -6.1375244136465774 0 0 0 0 -1631.7130089187194 -911.21233359302869 0 -911.21233359302869 296.59054740104455 0 0 0 0 -0.025936496333940795 -2.8078927479680651 0 -2.8078927479680651 -1.7853624456837722 0 0 0 0 -551.40349400339619 -441.44425818973036 0 -441.44425818973036 431.86919310402891 0 0 0 0 297.61152514477726 183.39654341875507 0 183.39654341875507 -392.41085237674679 0 0 0 0 -1398.7901966740174 90.429539522357686 0 90.429539522357686 108.56578705048059 0 0 0 0 -1702.9997124261936 -156.98265922317876 0 -156.98265922317876 -15.943186440045338 0 0 0 0 -824.63261178936227 -320.01153968710497 0 -320.01153968710497 -182.56038413141391 0 0 0 0 -521.64339401951293 -159.46752799274429 0 -159.46752799274429 -245.21144302137043 0 0 0 0 -598.15180198950111 78.719359823022415 0 78.719359823022415 -167.23083741746234 0 0 0 0 -3756.0753866170126 -78.021856577776049 0 -78.021856577776049 431.77504947343499 0 0 0 0 -1717.6136094166795 -48.5073955354124 0 -48.5073955354124 -187.58001295149944 0 0 0 0 -3809.6485533438608 198.3175639300573 0 198.3175639300573 103.59718118929999 0 0 0 0 -3619.1466432642042 1013.69940189698 0 1013.69940189698 -980.37738018956134 0 0 0 0 -3923.9032955127441 501.13527775128944 0 501.13527775128944 343.86199692379154 0 0 0 0 -5488.2997763823587 -510.22332068650013 0 -510.22332068650013 -150.68111332455575 0 0 0 0 -18.796593865084873 -5.1687800256741809 0 -5.1687800256741809 -1.1458447465214587 0 0 0 0 -776.74574389682675 -1395.1658498010386 0 -1395.1658498010386 -1185.9221308271512 0 0 0 0 -3090.2559339670479 -655.22043222923253 0 -655.22043222923253 -877.08533177157437 0 0 0 0 -5584.3025007626766 512.17089263643959 0 512.17089263643959 -609.24714096723665 0 0 0 0 -2085.7433734422666 654.47233148558985 0 654.47233148558985 -1542.7741416360986 0 0 0 0 -90.214382669044426 -194.04889551165888 0 -194.04889551165888 -17.336841928298782 0 0 0 0 -123.54353486194668 -194.86751725274553 0 -194.86751725274553 111.40109258961547 0 0 0 0 -106.35723238345963 -56.598032410107407 0 -56.598032410107407 -104.35456582902316 0 0 0 0 -119.69429425494673 -113.80560489659854 0 -113.80560489659854 17.572332394793193 0 0 0 0 -85.840913984618965 -148.00222447035139 0 -148.00222447035139 -24.932727604051252 0 0 0 0 -597.66946422847104 -9.4268187603624938 0 -9.4268187603624938 39.033384894553819 0 0 0 0 -180.65847915242193 75.312204978723912 0 75.312204978723912 -56.42346971832194 0 0 0 0 -303.63643975723971 -59.350030859670596 0 -59.350030859670596 -202.98457449857051 0 0 0 0 -640.9927922664574 -3.0434115234559158 0 -3.0434115234559158 -257.31279881203773 0 0 0 0 -617.82736121699418 64.237866041962661 0 64.237866041962661 -74.005693226448102 0 0 0 0 -306.82802604682365 -35.778575134313996 0 -35.778575134313996 -26.507281398105988 0 0 0 0 -100.61699546608907 -31.234628882380775 0 -31.234628882380775 44.845321808577864 0 0 0 0 -119.26557154605689 -100.54759561556693 0 -100.54759561556693 -119.65700668636964 0 0 0 0 -41.992328415624797 56.392693771274935 0 56.392693771274935 -29.370681085343222 0 0 0 0 -33.519958785516792 10.701130835715958 0 10.701130835715958 -155.09736609908509 0 0 0 0 -213.3906000851257 -91.145034711176436 0 -91.145034711176436 53.557175769830337 0 0 0 0 -134.37889598318725 3.2665663562950726 0 3.2665663562950726 -85.267940844693385 0 0 0 0 196.8740709159465 -116.01748214100635 0 -116.01748214100635 -22.780471592713781 0 0 0 0 51.513972026252304 16.126266636619789 0 16.126266636619789 161.20598764912648 0 0 0 0 65.209741704922635 210.23413597579224 0 210.23413597579224 91.822252693832525 0 0 0 0 -43.886627513187705 -120.7221042914698 0 -120.7221042914698 -20.267431732171644 0 0 0 0 -106.01898676523706 113.81953889201191 0 113.81953889201191 -190.05050779420256 0 0 0 0 -277.28068884917593 -60.979196432394303 0 -60.979196432394303 -117.53150196959729 0 0 0 0 -106.91285171382333 67.551375609048762 0 67.551375609048762 13.570463142857989 0 0 0 0 31.612964390835259 94.838900705650531 0 94.838900705650531 -126.96158862198632 0 0 0 0 69.291026076563867 116.04765530403301 0 116.04765530403301 -69.775993182397997 0 0 0 0 -383.50312056380062 -102.96400928383412 0 -102.96400928383412 -53.133604256620856 0 0 0 0 26.215017283750058 76.581083708831102 0 76.581083708831102 309.7222643142718 0 0 0 0 -98.517549610551214 182.91753333392717 0 182.91753333392717 -127.88570490775555 0 0 0 0 -9.5379597883844838 5.1949101476097503 0 5.1949101476097503 11.973822373178415 0 0 0 0 -72.614575257794058 225.02353835230167 0 225.02353835230167 144.10349967402385 0 0 0 0 37.82601976582373 72.88825697524544 0 72.88825697524544 -92.935306410633302 0 0 0 0 -11.371506888839274 -1.9818522021688807 0 -1.9818522021688807 12.641094140368031 0 0 0 0 -26.176240131169834 -88.678537052849151 0 -88.678537052849151 20.724237883112437 0 0 0 0 -9.8373267458473777 -5.8594968364500062 0 -5.8594968364500062 14.527604415957903 0 0 0 0 126.49146374397606 185.54368234102049 0 185.54368234102049 75.819560319447191 0 0 0 0 -75.388083035002637 -105.98746889085237 0 -105.98746889085237 116.31346974576445 0 0 0 0 -245.02473248786919 -73.87840507525334 0 -73.87840507525334 44.730230397552077 0 0 0 0 -242.54980798640463 4.8850079805711175 0 4.8850079805711175 278.48390056737844 0 0 0 0 -54.243780415857287 37.699865659680881 0 37.699865659680881 56.177492332425658 0 0 0 0 -333.29918597115102 -53.981282810095763 0 -53.981282810095763 126.63913666745793 0 0 0 0 -158.05791161680827 204.28487171271126 0 204.28487171271126 -6.4418301708046783 0 0 0 0 -68.732645564246923 74.645589463448005 0 74.645589463448005 -40.972547810442848 0 0 0 0 -199.19507747195894 127.4385229821346 0 127.4385229821346 21.05348441404476 0 0 0 0 -34.785669056897333 42.958807576363924 0 42.958807576363924 54.842038125488571 0 0 0 0 -184.67008556035944 174.83400383708113 0 174.83400383708113 174.86302956004147 0 0 0 0 -285.50857847537554 33.87913453929923 0 33.87913453929923 153.51961783557181 0 0 0 0 -275.67674719836214 65.857175260490294 0 65.857175260490294 249.20255177718491 0 0 0 0 -133.30497835955248 -129.21817272268345 0 -129.21817272268345 263.34660304541939 0 0 0 0 -102.07236084405304 -79.690289819069221 0 -79.690289819069221 50.045221766531085 0 0 0 0 -36.985919524796167 43.677615623258149 0 43.677615623258149 49.858974568422965 0 0 0 0 -249.33835063242441 50.249792668991631 0 50.249792668991631 87.631997659980698 0 0 0 0 -172.54917214721354 63.344892821099165 0 63.344892821099165 115.41191885413173 0 0 0 0 -202.42897198637365 93.658054722652196 0 93.658054722652196 112.49944998978708 0 0 0 0 -98.727288704169041 37.627449775468449 0 37.627449775468449 419.95438617574291 0 0 0 0 -121.00181220983359 115.40810736741059 0 115.40810736741059 151.89426897924159 0 0 0 0 -99.137962662327823 -18.182179283523794 0 -18.182179283523794 7.1798729560034147 0 0 0 0 -128.59062769694719 -178.64894200341587 0 -178.64894200341587 143.54159622670204 0 0 0 0 -452.7266414006881 4.8701702282478436 0 4.8701702282478436 219.64771397096592 0 0 0 0 -67.160765468119024 -15.097924927178703 0 -15.097924927178703 -3.2639511219316919 0 0 0 0 -302.30959814435846 -19.731821373083221 0 -19.731821373083221 797.00000230719161 0 0 0 0 -253.94238060750104 340.378930277949 0 340.378930277949 255.53896575246472 0 0 0 0 -46.976801896004304 233.0067295922928 0 233.0067295922928 -35.479992241225773 0 0 0 0 -45.270101151880226 379.21441309867123 0 379.21441309867123 208.90267738711191 0 0 0 0 -166.69104624175088 563.40502448366351 0 563.40502448366351 631.72779896696011 0 0 0 0 -448.48139826177794 323.92611770618919 0 323.92611770618919 131.89567907954961 0 0 0 0 -419.38590970255609 259.21866409163158 0 259.21866409163158 265.91701080301345 0 0 0 0 -13.237612467107695 0.29666711136819401 0 0.29666711136819401 -0.58694073031804983 0 0 0 0 -1836.5975370229207 709.95373259397866 0 709.95373259397866 -274.61266892990074 0 0 0 0 19.836613032173773 181.60129053978233 0 181.60129053978233 413.41741810098029 0 0 0 0 -8.4311330941043536 16.85352887158308 0 16.85352887158308 21.693167771726834 0 0 0 0 -189.64738459240471 153.55264030462695 0 153.55264030462695 153.17310819002864 0 0 0 0 -186.01013760382193 148.07174284403709 0 148.07174284403709 15.988718401336882 0 0 0 0 -326.55382787938288 -482.29877517261491 0 -482.29877517261491 975.12802247371792 0 0 0 0 330.78330298628134 491.9229863507976 0 491.9229863507976 23.925882129899719 0 0 0 0 5.4334628499254904 4.6554527413720876 0 4.6554527413720876 3.4917302211709647 0 0 0 0 -827.97836601583549 487.55236183309012 0 487.55236183309012 303.68498244960188 0 0 0 0 -1802.2782882213323 -103.08727376459183 0 -103.08727376459183 506.53643804958847 0 0 0 0 -569.26449694605253 -297.6068361603327 0 -297.6068361603327 -1620.0558723496051 0 0 0 0 -2407.9013143380944 -563.57865807840585 0 -563.57865807840585 390.076286519723 0 0 0 0 211.8250394318311 577.62107956403656 0 577.62107956403656 -161.60880652188371 0 0 0 0 -544.23942057912063 -90.661726909321715 0 -90.661726909321715 -746.79300412084922 0 0 0 0 206.13011999448645 219.02715990899014 0 219.02715990899014 -1054.3040641250204 0 0 0 0 206.26370538924311 158.79354147680687 0 158.79354147680687 -1008.8562454105822 0 0 0 0 -509.75977731162857 220.60461001334761 0 220.60461001334761 -899.39305229217871 0 0 0 0 124.15340525220017 406.80864879342755 0 406.80864879342755 -1145.4443176496707 0 0 0 0 -632.9541898144671 525.24164199642928 0 525.24164199642928 -1397.570082499954 0 0 0 0 -283.49646033721365 240.61516725326442 0 240.61516725326442 -331.33685538838245 0 0 0 0 -594.00770346042555 71.599106516773872 0 71.599106516773872 102.59116237330636 0 0 0 0 39.146109098772286 -30.789429436515547 0 -30.789429436515547 -417.38849802027221 0 0 0 0 -66.30622728104936 -228.76499035528877 0 -228.76499035528877 539.38848992865314 0 0 0 0 537.24556532574206 -202.50372724415683 0 -202.50372724415683 -501.33161792330975 0 0 0 0 178.60071773824166 161.32116078770287 0 161.32116078770287 -949.48114286039413 0 0 0 0 234.89794309089484 227.70992003097354 0 227.70992003097354 -912.50988185691654 0 0 0 0 114.39588058964 252.94731854954784 0 252.94731854954784 -962.87763619564362 0 0 0 0 150.72616645484959 198.58953301851432 0 198.58953301851432 -974.10616908165957 0 0 0 0 -415.3192587917365 431.88086428195243 0 431.88086428195243 -886.40278088383093 0 0 0 0 12.428022585430881 111.20433869299086 0 111.20433869299086 -1118.3997256949056 0 0 0 0 -1453.6458538790248 1036.1688142082162 0 1036.1688142082162 -1477.4736092573269 0 0 0 0 -712.93058200037922 152.77138584320966 0 152.77138584320966 -430.81278893927129 0 0 0 0 -858.45911427747342 427.48640172029855 0 427.48640172029855 -361.75490803018101 0 0 0 0 -1541.2216452132307 34.889438701613471 0 34.889438701613471 335.85124080911419 0 0 0 0 -1271.1891525584797 -11.757923391230179 0 -11.757923391230179 11.680346501363147 0 0 0 0 -3028.5041575818032 19.101958484711531 0 19.101958484711531 225.0930202974962 0 0 0 0 -1245.3932202748983 -1253.0496441576677 0 -1253.0496441576677 -857.63728017802259 0 0 0 0 -165.58971558043413 -260.72149622890072 0 -260.72149622890072 -523.7753331735446 0 0 0 0 -193.13082529934036 -127.6273036005889 0 -127.6273036005889 25.49889323946536 0 0 0 0 -189.3486449651391 -265.23491109863414 0 -265.23491109863414 -363.31955684173909 0 0 0 0 -246.64280627336848 -250.002103702412 0 -250.002103702412 213.64862910261581 0 0 0 0 -658.02879765334364 -414.4336696491996 0 -414.4336696491996 -71.045504891283599 0 0 0 0 363.66681390779559 -533.08924868216513 0 -533.08924868216513 -303.54107414061809 0 0 0 0 -130.28197076507786 -577.73014806236142 0 -577.73014806236142 -214.79827439673272 0 0 0 0 -58.010641012857377 -469.18911886549358 0 -469.18911886549358 -427.84795016049657 0 0 0 0 -661.26328276730305 -213.42880516024204 0 -213.42880516024204 264.69703466163719 0 0 0 0 -1505.5572005462382 -754.96033186327804 0 -754.96033186327804 -8.3113854872128741 0 0 0 0 -879.07025258775138 -330.02029841588336 0 -330.02029841588336 279.47137521179775 0 0 0 0 -746.79714202665491 108.27994748130732 0 108.27994748130732 416.67173291482868 0 0 0 0 126.21386571413314 36.168017405773298 0 36.168017405773298 117.7326360682282 0 0 0 0 394.26876013179572 -56.670132048458072 0 -56.670132048458072 -39.01622668613345 0 0 0 0 -9.4379960125579458 -14.946648945713946 0 -14.946648945713946 -21.204332004736283 0 0 0 0 -871.90651740694739 176.00879468947414 0 176.00879468947414 -29.531744239298405 0 0 0 0 -2292.1050092479563 -303.76261357431395 0 -303.76261357431395 708.00599902947852 0 0 0 0 -1176.9320493571431 -314.27124486534922 0 -314.27124486534922 679.80353452248346 0 0 0 0 -303.23451014117154 -73.01564976160455 0 -73.01564976160455 307.67382205616559 0 0 0 0 -965.20437233852863 -31.868327874047736 0 -31.868327874047736 364.2859974026519 0 0 0 0 -917.93010108228918 -74.073931839320267 0 -74.073931839320267 348.06949249060563 0 0 0 0 -170.32638022051833 61.464241524565068 0 61.464241524565068 18.278346415008855 0 0 0 0 -153.69193164629178 66.070820170998104 0 66.070820170998104 16.129938653065437 0 0 0 0 -230.52270675230102 95.167054406529815 0 95.167054406529815 5.1121700221219726 0 0 0 0 -183.34108494740212 63.59531201329969 0 63.59531201329969 42.381490274771522 0 0 0 0 -157.27799722442978 51.263366972657451 0 51.263366972657451 26.227035929881367 0 0 0 0 -87.843478312068328 52.809345214663495 0 52.809345214663495 20.296832138240461 0 0 0 0 -56.097552215731412 25.053377697120141 0 25.053377697120141 5.0445522270165384 0 0 0 0 -36.466937022283673 76.731954563838599 0 76.731954563838599 2.1654499270520091 0 0 0 0 -61.378190970585678 55.654559587161899 0 55.654559587161899 -13.054565096547815 0 0 0 0 -55.857188880261674 50.170097718217107 0 50.170097718217107 16.499707027965542 0 0 0 0 -461.77800375039078 -550.48073220517597 0 -550.48073220517597 -197.44982594823159 0 0 0 0 -851.25250961701386 -213.71616113338018 0 -213.71616113338018 532.14056383435081 0 0 0 0 354.44086423997396 369.4703857918937 0 369.4703857918937 -802.0580645874129 0 0 0 0 -1169.803023937433 -86.550440000633671 0 -86.550440000633671 234.52865674187888 0 0 0 0 -815.29944070685451 230.60129613184449 0 230.60129613184449 -165.06800704811667 0 0 0 0 -1484.9191600143276 402.37824847399679 0 402.37824847399679 207.80863023650818 0 0 0 0 -2.6064005383144675 -4.0320165344534331 0 -4.0320165344534331 -8.7813710710778743 0 0 0 0 -546.16166149864875 -57.628624613511647 0 -57.628624613511647 -55.487206567954217 0 0 0 0 -249.66439529147465 -20.205558916042264 0 -20.205558916042264 32.689811209991376 0 0 0 0 -289.65387230713895 50.588748794973071 0 50.588748794973071 -90.050063526273789 0 0 0 0 211.69932711106412 163.45784568422738 0 163.45784568422738 -83.388658233750448 0 0 0 0 -107.2437747866752 -329.38426457544108 0 -329.38426457544108 -5.715510160724989 0 0 0 0 -63.251876765343042 60.68976666248922 0 60.68976666248922 -24.692607334197248 0 0 0 0 24.090410609031096 136.15053050105689 0 136.15053050105689 -101.025581943622 0 0 0 0 -159.63172051531728 30.841783308281265 0 30.841783308281265 18.838864722157041 0 0 0 0 -42.986484420202032 -59.393994400560814 0 -59.393994400560814 -341.04958791313766 0 0 0 0 -61.074011409618834 0.32601403878197743 0 0.32601403878197743 -43.143960330853588 0 0 0 0 -12.72934695078343 -1.6504295489611422 0 -1.6504295489611422 -3.4921139046415739 0 0 0 0 -480.94873155403911 130.89596939682588 0 130.89596939682588 162.53435092600466 0 0 0 0 -97.655479552951874 66.590326968419959 0 66.590326968419959 -129.43392908673968 0 0 0 0 -271.56693738414469 153.95312504233561 0 153.95312504233561 -70.603016140531508 0 0 0 0 -363.09786908920796 25.213745823841691 0 25.213745823841691 -12.876535859255455 0 0 0 0 -154.40450273880197 42.217041002421979 0 42.217041002421979 -12.284323536115153 0 0 0 0 -156.81753878170275 83.980192230784724 0 83.980192230784724 -30.785691575149485 0 0 0 0 -42.194050851864901 -0.86062163266437608 0 -0.86062163266437608 5.4938084910106584 0 0 0 0 -127.35523316964645 -12.684370710136704 0 -12.684370710136704 14.583182513119027 0 0 0 0 -109.91306526350672 -12.894235891924382 0 -12.894235891924382 -2.8412947333781631 0 0 0 0 -70.058289525743334 -0.48895836514113 0 -0.48895836514113 7.4001253617638731 0 0 0 0 3.5197489084530389 -4.6383522763194946 0 -4.6383522763194946 29.357696267776191 0 0 0 0 16.437063961275271 25.961091088594458 0 25.961091088594458 -20.246053040298648 0 0 0 0 -76.834897939715631 6.739878911739666 0 6.739878911739666 0.39148292268358409 0 0 0 0 -89.835477831453318 0.46016639436629703 0 0.46016639436629703 6.2222662179274266 0 0 0 0 -83.686988768077356 12.585924877429676 0 12.585924877429676 -7.82031040123419 0 0 0 0 -83.530290367096313 -2.5113512649680843 0 -2.5113512649680843 10.16594442468886 0 0 0 0 -71.511657562355936 2.4588184109984823 0 2.4588184109984823 1.5868716010577701 0 0 0 0 -462.59941655638977 -42.63236482568027 0 -42.63236482568027 -9.8279385622226982 0 0 0 0 61.051719188850257 130.58520737095205 0 130.58520737095205 -99.893366315722233 0 0 0 0 -210.84692684258334 27.587496250409458 0 27.587496250409458 -99.021585757247522 0 0 0 0 -88.516798566077341 5.7835613151837038 0 5.7835613151837038 8.360424745670116 0 0 0 0 -70.531233737786039 59.239525218271112 0 59.239525218271112 -27.23265801127129 0 0 0 0 -62.927955215947357 -26.508125962392114 0 -26.508125962392114 11.05880153402344 0 0 0 0 -124.77164365444332 -90.169382041269273 0 -90.169382041269273 -28.255244730236882 0 0 0 0 4.9843133686954388 77.485094668525107 0 77.485094668525107 8.6340321412397998 0 0 0 0 0.57392955329152073 -8.7087330677967287 0 -8.7087330677967287 -1.7140364697705952 0 0 0 0 36.265902836192254 73.490418325731525 0 73.490418325731525 -122.99998149020848 0 0 0 0 93.171851894388965 -8.4213492106695185 0 -8.4213492106695185 -96.991144798825189 0 0 0 0 -233.33301401913195 40.693216447172745 0 40.693216447172745 -89.903567428157658 0 0 0 0 -32.666586209905432 -9.5212353113668726 0 -9.5212353113668726 -5.2740930105421677 0 0 0 0 -48.0495412948585 -39.48703112346675 0 -39.48703112346675 -44.247373316430867 0 0 0 0 -269.02126845034945 13.455343428335368 0 13.455343428335368 -66.163080618230651 0 0 0 0 -33.468366994340613 -16.943163307821578 0 -16.943163307821578 -13.831353243319455 0 0 0 0 -6.4928482441383153 -1.8789033856846942 0 -1.8789033856846942 -1.4570396121446159 0 0 0 0 -18.561746006904286 -22.701574271392019 0 -22.701574271392019 -87.868736713996896 0 0 0 0 -280.33071427937102 19.262154561138686 0 19.262154561138686 -64.907254400369311 0 0 0 0 -339.03722723219835 30.697761514151807 0 30.697761514151807 -62.862696733353914 0 0 0 0 -267.35715887644983 -0.26655950492181546 0 -0.26655950492181546 -133.02332052325983 0 0 0 0 -200.92576717433622 0.76325119502450889 0 0.76325119502450889 -133.09273443546681 0 0 0 0 -339.12459521379787 -60.348706355482364 0 -60.348706355482364 -83.779536441287291 0 0 0 0 -520.42429198852915 40.165945000100464 0 40.165945000100464 -62.042281005753466 0 0 0 0 -472.07780391073902 89.332627831076934 0 89.332627831076934 -52.917657517890802 0 0 0 0 -359.39133910765668 54.147468423451755 0 54.147468423451755 -53.923728143053722 0 0 0 0 -355.36996321068 14.127597164987492 0 14.127597164987492 -71.824656806815824 0 0 0 0 -366.45719789729628 35.743475294056338 0 35.743475294056338 -7.186598605315794 0 0 0 0 -293.68700568252098 64.187943667949071 0 64.187943667949071 3.6540402675943824 0 0 0 0 -347.61100378303854 65.366172938167836 0 65.366172938167836 3.4570549663803831 0 0 0 0 -346.8363330851389 70.235132811747121 0 70.235132811747121 30.321719092329204 0 0 0 0 -36.855677370447665 12.835704795104448 0 12.835704795104448 -9.9096865725682619 0 0 0 0 -0.11161088645649286 -0.25192288559307485 0 -0.25192288559307485 0.069144065079778549 0 0 0 0 -128.66853858287504 25.01485717156288 0 25.01485717156288 1.4182035197063669 0 0 0 0 -175.58221711218357 -24.544429224045416 0 -24.544429224045416 -19.18755064688321 0 0 0 0 -254.29133886603813 -3.0091553390022909 0 -3.0091553390022909 4.3049178116257281 0 0 0 0 -237.44306909308216 24.509627128186366 0 24.509627128186366 -19.614558099850001 0 0 0 0 -253.43157763759518 -35.893174461148419 0 -35.893174461148419 11.097780714895634 0 0 0 0 -214.84484243925544 -5.3597049689715277 0 -5.3597049689715277 -23.403570249366567 0 0 0 0 -293.90540424090432 11.644519517961271 0 11.644519517961271 3.2736628760139865 0 0 0 0 -54.195313567204721 -13.681087479493812 0 -13.681087479493812 -2.3445412698144992 0 0 0 0 -137.57015967861662 -43.598979410735183 0 -43.598979410735183 -24.25351496831945 0 0 0 0 4.9781797825232772 -14.777830334981779 0 -14.777830334981779 -4.9046062631449097 0 0 0 0 -210.89730733976785 -68.692975630749658 0 -68.692975630749658 13.950091387823704 0 0 0 0 -168.14029710103387 -70.571312086787884 0 -70.571312086787884 -8.7542086726343769 0 0 0 0 -99.627259956519993 -20.301468617837145 0 -20.301468617837145 9.1718686916829029 0 0 0 0 -156.07746491600665 -48.79661061216683 0 -48.79661061216683 -4.5444461069700992 0 0 0 0 -81.725242291366158 -10.400188273341655 0 -10.400188273341655 -4.9693743282096534 0 0 0 0 -65.417587842734065 -21.369044603655084 0 -21.369044603655084 -1.2254283215621626 0 0 0 0 -29.328113710715101 -33.427980975438402 0 -33.427980975438402 1.0243013828953327 0 0 0 0 -17.730705835554744 -0.7114739421694587 0 -0.7114739421694587 5.9113600169604652 0 0 0 0 -99.390665327271563 27.463198698628105 0 27.463198698628105 43.709805479830322 0 0 0 0 -98.734927078223791 33.565500113026815 0 33.565500113026815 100.35977285864647 0 0 0 0 -88.080483638124861 -34.544367340017288 0 -34.544367340017288 81.62542192667388 0 0 0 0 -195.39336600057686 1.2305339685167382 0 1.2305339685167382 343.77884124945012 0 0 0 0 -150.94288628761387 -106.74161765682084 0 -106.74161765682084 53.52605676902931 0 0 0 0 -72.056124150452888 -17.294003389084082 0 -17.294003389084082 1.7055912665816777 0 0 0 0 -67.901556780685496 -15.15321010270344 0 -15.15321010270344 2.3178206602974569 0 0 0 0 -67.615397538560501 -12.388355262346749 0 -12.388355262346749 -0.17802501695996398 0 0 0 0 -46.708996871918742 -32.839627228851086 0 -32.839627228851086 7.3603200578474794 0 0 0 0 -688.79741513310728 800.16104511391904 0 800.16104511391904 -486.04591669197498 0 0 0 0 -392.18282943694794 -26.833348368362977 0 -26.833348368362977 -57.880545030981011 0 0 0 0 87.088447619156796 122.47386193729744 0 122.47386193729744 403.91077242900428 0 0 0 0 -654.52003433476057 -792.37814757367551 0 -792.37814757367551 622.23513319167978 0 0 0 0 -1271.9377095633608 1140.3234795989056 0 1140.3234795989056 -684.45340402134389 0 0 0 0 -26.701691493979212 -4.3750853417214159 0 -4.3750853417214159 -0.16959154950549937 0 0 0 0 -611.01723572102492 1501.6036472914047 0 1501.6036472914047 -624.54013703548662 0 0 0 0 -471.36467393035491 97.590752060887212 0 97.590752060887212 -113.57066066264633 0 0 0 0 -504.09376385313954 60.321054958679724 0 60.321054958679724 -76.546909465456338 0 0 0 0 -13.550451165053751 -18.909289132450098 0 -18.909289132450098 -20.251126148994071 0 0 0 0 -1901.1015719103088 879.85093780551324 0 879.85093780551324 -88.17779785372295 0 0 0 0 -1613.530921145808 -1133.231192856621 0 -1133.231192856621 -83.013935143880644 0 0 0 0 -595.68715872547909 153.74282668702483 0 153.74282668702483 -32.997867934836904 0 0 0 0 -11.482660059157979 -12.913744840920202 0 -12.913744840920202 -9.3261405367223542 0 0 0 0 -420.35955523372832 66.765099964043884 0 66.765099964043884 5.0355217006792827 0 0 0 0 -440.85745624323317 59.593014718860559 0 59.593014718860559 11.382248859114952 0 0 0 0 -446.69261218152678 132.24917490222492 0 132.24917490222492 -68.402176611062032 0 0 0 0 -431.66561060487584 91.021797271173341 0 91.021797271173341 33.590007288975698 0 0 0 0 -430.64749796260003 95.283361637893449 0 95.283361637893449 40.798887799971908 0 0 0 0 -435.25839594451099 87.654646477945107 0 87.654646477945107 55.039476332102709 0 0 0 0 -421.94475688087005 63.967028983670843 0 63.967028983670843 36.627883586613734 0 0 0 0 -1338.018663256873 507.71487120751772 0 507.71487120751772 154.06582288103982 0 0 0 0 -1556.1114096911497 498.11129753171599 0 498.11129753171599 162.17958135227946 0 0 0 0 -521.73929915521876 301.21737406103944 0 301.21737406103944 -237.69117101576921 0 0 0 0 -1139.1134256854457 347.11582959539771 0 347.11582959539771 -350.19957754945153 0 0 0 0 -1224.7336374350707 210.30530408369395 0 210.30530408369395 4.007843525773751 0 0 0 0 -1493.9768296375005 13.080744481383476 0 13.080744481383476 -118.07916061201013 0 0 0 0 -797.69910671461548 115.39017671623446 0 115.39017671623446 -252.92139340380169 0 0 0 0 -687.60434337690094 -124.73087425595998 0 -124.73087425595998 -18.104943743057511 0 0 0 0 -219.6643886306847 -121.94342951274621 0 -121.94342951274621 -18.346762119945652 0 0 0 0 -2133.8108687104723 655.12175249566951 0 655.12175249566951 -2.1537214383963033 0 0 0 0 -5.5548963661153294 -4.4050611765706122 0 -4.4050611765706122 -1.7871183038074721 0 0 0 0 -477.10720582027716 97.983669659134421 0 97.983669659134421 53.473216974471711 0 0 0 0 -454.83984857267205 151.7434871634579 0 151.7434871634579 19.645858551297351 0 0 0 0 -435.90591669242804 99.497962116114962 0 99.497962116114962 12.408891399514459 0 0 0 0 -626.29843328731658 117.3499554954949 0 117.3499554954949 10.847512921947995 0 0 0 0 -583.25493874508538 113.70647658523509 0 113.70647658523509 -81.999052268848459 0 0 0 0 -689.94735400931677 101.14197881647908 0 101.14197881647908 -75.659936919963158 0 0 0 0 -700.71270747906965 88.980876203201831 0 88.980876203201831 47.126769190347204 0 0 0 0 -491.84168317360673 347.34380593543983 0 347.34380593543983 -203.28515237253009 0 0 0 0 -2.5204522826317088 0.64987983641845659 0 0.64987983641845659 0.90602951647711194 0 0 0 0 -98.590504654355755 -98.295657265008117 0 -98.295657265008117 57.275641097575743 0 0 0 0 -541.11885872799758 212.3293119856209 0 212.3293119856209 -66.180785335240614 0 0 0 0 -312.3218637347818 -20.911147356151901 0 -20.911147356151901 -64.109580380851909 0 0 0 0 -1094.2251210998656 167.72433996749052 0 167.72433996749052 33.550406133534672 0 0 0 0 -967.65662892770706 18.203211705711247 0 18.203211705711247 121.61998590804174 0 0 0 0 -746.79346110366896 73.155055232683992 0 73.155055232683992 65.128199369308049 0 0 0 0 -1139.4041801446174 140.86751320424119 0 140.86751320424119 53.579992936297685 0 0 0 0 -875.8335182824012 294.07227970587979 0 294.07227970587979 -114.86145802460737 0 0 0 0 -1058.3005637758615 -29.593065435244597 0 -29.593065435244597 54.665495527824532 0 0 0 0 -10.236970659454567 1.7211382637130122 0 1.7211382637130122 -6.5411899008303021 0 0 0 0 -37.770386376438182 55.15755310369741 0 55.15755310369741 -42.255344447782591 0 0 0 0 -160.92491790153872 15.362859553957151 0 15.362859553957151 5.2220345272826307 0 0 0 0 -83.344368021966375 79.248609784161516 0 79.248609784161516 -7.1732149075050984 0 0 0 0 -81.258836719766123 59.348634262319706 0 59.348634262319706 -53.50821815927884 0 0 0 0 -158.85212907021923 30.039151610381396 0 30.039151610381396 -147.44766228446861 0 0 0 0 -157.03938724361069 6.2740973166619369 0 6.2740973166619369 -17.075809598586602 0 0 0 0 -187.01229901850456 16.500083180786987 0 16.500083180786987 5.7643980028051374 0 0 0 0 -282.1589689548091 74.501781453858712 0 74.501781453858712 -26.66292828272617 0 0 0 0 -24.345921051322911 -31.552586021080405 0 -31.552586021080405 3.8798368669399359 0 0 0 0 -36.171630821355393 -118.49038933094118 0 -118.49038933094118 -72.294792814824177 0 0 0 0 -207.63063711519862 -137.60302277079791 0 -137.60302277079791 -96.425904549649204 0 0 0 0 15.292472608947719 -118.12305194817691 0 -118.12305194817691 -321.67329889443545 0 0 0 0 -185.94470564500443 -71.852288069512269 0 -71.852288069512269 42.372295907922307 0 0 0 0 2.479508784439922 -7.5066183993540001 0 -7.5066183993540001 -3.0916709220359309 0 0 0 0 -143.32721394661348 -535.35909627146975 0 -535.35909627146975 -393.61554678207267 0 0 0 0 -129.79210923775099 -290.70210634483374 0 -290.70210634483374 -69.65566548300194 0 0 0 0 -98.261403764347051 -234.98342218458856 0 -234.98342218458856 20.140643256387193 0 0 0 0 -515.87813088328403 -375.2683202708613 0 -375.2683202708613 493.74037734964804 0 0 0 0 -565.27640526563482 -709.29661631510317 0 -709.29661631510317 265.04534820823028 0 0 0 0 -18.708090711908881 -109.93782070860198 0 -109.93782070860198 -69.806309699084522 0 0 0 0 -35.22701016092833 -186.62263907353326 0 -186.62263907353326 -254.83083034921219 0 0 0 0 -8.0968852798469015 12.708603049908561 0 12.708603049908561 -132.66141108778811 0 0 0 0 -118.83651922418358 51.480289053524757 0 51.480289053524757 35.877906491507019 0 0 0 0 -3.697285054528038 -11.498384083302881 0 -11.498384083302881 -1.8234086961001594 0 0 0 0 -16.687409618807706 -16.920920549433376 0 -16.920920549433376 -0.25547568941991283 0 0 0 0 -67.641001001364202 -28.633015813217071 0 -28.633015813217071 2.1753661491757157 0 0 0 0 -120.21984040312418 -42.094145974448395 0 -42.094145974448395 10.921298743004172 0 0 0 0 -74.363910338721325 -28.966160986930731 0 -28.966160986930731 7.9164876977059748 0 0 0 0 -13.411765521995036 -38.337042589281843 0 -38.337042589281843 8.8902252647444957 0 0 0 0 -30.862628394638186 -23.389365082266885 0 -23.389365082266885 -1.328010971943649 0 0 0 0 15.105626052616572 122.49300333047722 0 122.49300333047722 92.788035156456317 0 0 0 0 -67.880308097083031 -21.371566859687121 0 -21.371566859687121 8.7012061697239282 0 0 0 0 -95.739993865399811 6.582430513757572 0 6.582430513757572 9.8767367466189171 0 0 0 0 -27.409844227091526 -30.620749822887319 0 -30.620749822887319 9.2739626374109321 0 0 0 0 -86.948914126062846 -2.648534053066669 0 -2.648534053066669 -9.7368722944738693 0 0 0 0 -37.04721311131776 -21.941558231244898 0 -21.941558231244898 10.125171973194407 0 0 0 0 -39.8115698049874 -22.285943965242531 0 -22.285943965242531 6.1246410139130028 0 0 0 0 -4.8607861093952103 -0.85776409324108727 0 -0.85776409324108727 0.69126607820479524 0 0 0 0 -97.168384470341152 50.744973442243349 0 50.744973442243349 -50.982239926559259 0 0 0 0 -45.637560185030452 -6.1296992852799121 0 -6.1296992852799121 6.5923388392411653 0 0 0 0 -98.103599780046352 -21.894694750913402 0 -21.894694750913402 6.4035293364918289 0 0 0 0 -309.99737759857089 116.21062719280451 0 116.21062719280451 13.600386267744625 0 0 0 0 -313.90615760032233 55.618699991596145 0 55.618699991596145 26.97730616954459 0 0 0 0 -167.46976355015795 157.54427946452637 0 157.54427946452637 -100.29523176169687 0 0 0 0 -162.99712606769754 39.270813688717737 0 39.270813688717737 -20.597571332023563 0 0 0 0 -2.4739555273461065 -1.3906807271997437 0 -1.3906807271997437 0.33182539198631589 0 0 0 0 -20.922306701399066 59.202630419761526 0 59.202630419761526 -21.699595071938916 0 0 0 0 199.21534770867584 -105.35449494221791 0 -105.35449494221791 -69.241600221957924 0 0 0 0 -167.34544057195126 91.171089128235508 0 91.171089128235508 -444.67157875343764 0 0 0 0 -42.159952203273576 -50.132905246785711 0 -50.132905246785711 14.958654375967612 0 0 0 0 -25.80594741646965 -0.13394145122766865 0 -0.13394145122766865 0.40029235029620125 0 0 0 0 -328.19673486783631 132.80135379618923 0 132.80135379618923 214.19951612480781 0 0 0 0 -58.733478454568285 -20.374685879059484 0 -20.374685879059484 10.649878146816263 0 0 0 0 -18.143463726604992 -25.444118936720926 0 -25.444118936720926 7.8897476199691603 0 0 0 0 -19.030796206526258 -28.527487874391227 0 -28.527487874391227 5.8773766250619026 0 0 0 0 41.436592371192091 7.9219596374440755 0 7.9219596374440755 20.009579009340399 0 0 0 0 -85.936277645916562 -59.112570770879984 0 -59.112570770879984 118.03729420341733 0 0 0 0 -98.526142269649199 -8.4675419014771478 0 -8.4675419014771478 22.653367167026772 0 0 0 0 -2.5633407678115674 1.4848695198663489 0 1.4848695198663489 -0.38526280909018684 0 0 0 0 -92.411059665293578 -93.534654189221328 0 -93.534654189221328 -38.760594407737244 0 0 0 0 -116.58202655112837 111.12231570788981 0 111.12231570788981 -69.535654596399581 0 0 0 0 -32.322341596329352 51.003343720730754 0 51.003343720730754 -85.864900073901708 0 0 0 0 -47.066609879580938 16.456275714581807 0 16.456275714581807 34.072227105606089 0 0 0 0 -81.419492845239802 -51.649226572180851 0 -51.649226572180851 -44.817831535335245 0 0 0 0 -0.64683376398702741 0.63184512175138252 0 0.63184512175138252 -0.20895467300393022 0 0 0 0 -23.963454621926758 27.003317564017152 0 27.003317564017152 -47.191461979597534 0 0 0 0 -67.393993291851075 -24.510360179074496 0 -24.510360179074496 -4.4227036054417113 0 0 0 0 -120.80166068422659 -23.659282674915175 0 -23.659282674915175 32.062138858667822 0 0 0 0 -71.227484653289594 -38.465622101575036 0 -38.465622101575036 17.693948840876146 0 0 0 0 -17.384941793332473 -12.816216520561738 0 -12.816216520561738 73.31913857255222 0 0 0 0 -61.20155278754828 -49.366827815279066 0 -49.366827815279066 58.394867266567417 0 0 0 0 -61.079373529464647 -51.012542247831902 0 -51.012542247831902 71.321117888070148 0 0 0 0 -57.591477956433664 -56.909857435745948 0 -56.909857435745948 48.265953943083332 0 0 0 0 30.639877239273119 -34.87214897663398 0 -34.87214897663398 61.296535896990463 0 0 0 0 -28.548150134036405 -9.7347708856523241 0 -9.7347708856523241 -29.233378851628004 0 0 0 0 -1.8374379017995599 0.26052494889282762 0 0.26052494889282762 0.36490610684674607 0 0 0 0 24.371621409709405 89.775130141270324 0 89.775130141270324 86.704157068681525 0 0 0 0 -66.048745370837423 -22.652964635208264 0 -22.652964635208264 77.202183901479657 0 0 0 0 -40.091626144938346 -44.589971094561406 0 -44.589971094561406 94.235494213250149 0 0 0 0 -26.84483148884101 -22.479541198885272 0 -22.479541198885272 74.239237247858341 0 0 0 0 -51.477765232835736 -59.565677181667525 0 -59.565677181667525 63.98761332848153 0 0 0 0 -120.61849237596653 -46.673614515578265 0 -46.673614515578265 69.306525997301833 0 0 0 0 -118.56541658490823 -37.516316141655352 0 -37.516316141655352 55.839547358541495 0 0 0 0 -76.32516350071819 -43.935056385214466 0 -43.935056385214466 33.946899977168869 0 0 0 0 -118.40527107947855 -58.9301706521901 0 -58.9301706521901 31.209236180567814 0 0 0 0 -146.47160785224605 -41.426457687380434 0 -41.426457687380434 74.673596273203657 0 0 0 0 -184.04787727355506 -113.07134980859973 0 -113.07134980859973 68.040521815893044 0 0 0 0 -141.58694256063791 -40.195009113309879 0 -40.195009113309879 58.570095130844493 0 0 0 0 -138.54193675317401 -19.067679266304594 0 -19.067679266304594 49.384705618582302 0 0 0 0 -86.872871363419108 -33.741781865303437 0 -33.741781865303437 57.632967010608809 0 0 0 0 -104.54523752922796 -47.201677113854203 0 -47.201677113854203 62.323254601893495 0 0 0 0 -108.80445858765052 -60.672402513996531 0 -60.672402513996531 34.944745723297842 0 0 0 0 -120.71787742251763 -33.706781754742224 0 -33.706781754742224 32.703079553336465 0 0 0 0 -134.93478296792819 -40.344639695194928 0 -40.344639695194928 43.149839003014222 0 0 0 0 -149.07204235714198 -6.0737820374284865 0 -6.0737820374284865 0.12185049843355955 0 0 0 0 -163.46051340023587 -32.064479913118248 0 -32.064479913118248 71.112596145176212 0 0 0 0 -0.28021328040908777 -0.76214794979335743 0 -0.76214794979335743 -0.33067514055656666 0 0 0 0 -137.62069746727252 -4.2255248214950711 0 -4.2255248214950711 -0.76741022405349213 0 0 0 0 -121.03749418529696 115.43220586014775 0 115.43220586014775 -79.021308175337708 0 0 0 0 -126.20220843004881 -22.463316135670425 0 -22.463316135670425 26.015194932616396 0 0 0 0 188.75562538980193 -221.66674271476518 0 -221.66674271476518 -37.486631525279165 0 0 0 0 -48.125449816099518 -47.398609169752888 0 -47.398609169752888 19.509589092462281 0 0 0 0 -84.469210556113467 -53.511005819698767 0 -53.511005819698767 38.329337699972712 0 0 0 0 -95.127669612795216 -39.53150036989598 0 -39.53150036989598 26.671811643271667 0 0 0 0 -98.107230873964909 -44.439306695107462 0 -44.439306695107462 46.707493760286297 0 0 0 0 -96.837035664360883 -46.662818679993052 0 -46.662818679993052 39.277186860259803 0 0 0 0 -111.98453638483988 -50.425483581074332 0 -50.425483581074332 41.58723444874056 0 0 0 0 -106.62362154580296 -57.266702725454138 0 -57.266702725454138 45.044506239605653 0 0 0 0 -102.2180649760262 -53.589881630247532 0 -53.589881630247532 37.484369750149199 0 0 0 0 -104.03687576930861 -52.276539984021838 0 -52.276539984021838 37.678198072012435 0 0 0 0 -93.486308986295626 -31.995098763877195 0 -31.995098763877195 12.558722775149135 0 0 0 0 -81.016736831240536 -40.885504366605602 0 -40.885504366605602 59.979998864901063 0 0 0 0 -81.364855126760631 -67.963869571298346 0 -67.963869571298346 43.081296664790443 0 0 0 0 -1575.5598051952616 83.786898486830097 0 83.786898486830097 -76.727542945450978 0 0 0 0 -1578.9045834008166 1142.3446236553323 0 1142.3446236553323 -738.58743296458908 0 0 0 0 -13.339740428940104 -1.459561268076822 0 -1.459561268076822 1.8722276921246017 0 0 0 0 -330.67532604196094 -740.8043746380373 0 -740.8043746380373 573.96851600044226 0 0 0 0 -596.03812256250603 55.102820215624888 0 55.102820215624888 -663.92385009209465 0 0 0 0 -1878.0649099491638 235.10960913014512 0 235.10960913014512 85.265659760899993 0 0 0 0 -556.59927857741059 -103.80623511794079 0 -103.80623511794079 -78.221924938206826 0 0 0 0 -533.89371400378513 265.65756082608914 0 265.65756082608914 -299.02386772375922 0 0 0 0 -287.23224987904541 157.96714485193763 0 157.96714485193763 -82.994106917633417 0 0 0 0 -477.57114155833813 -20.596374705325537 0 -20.596374705325537 -38.23198111891088 0 0 0 0 -46.292529751935319 -44.877979430245261 0 -44.877979430245261 27.237086766557695 0 0 0 0 12.373962488170946 -330.85434285845645 0 -330.85434285845645 16.831231011276941 0 0 0 0 -477.83349894060302 -11.570544910183344 0 -11.570544910183344 202.75203516625061 0 0 0 0 -456.31154371333105 -226.65880934698271 0 -226.65880934698271 200.87149280471868 0 0 0 0 -490.02167953232129 -129.22602612690025 0 -129.22602612690025 155.20618278547045 0 0 0 0 -698.36050658411966 43.94404021992365 0 43.94404021992365 107.41159119746408 0 0 0 0 -698.00677897760033 28.608947760235424 0 28.608947760235424 70.841786242207831 0 0 0 0 -705.03663219284499 -136.3361261982177 0 -136.3361261982177 175.07286462303227 0 0 0 0 -766.67466482384771 -202.93527443692346 0 -202.93527443692346 -78.644054542981507 0 0 0 0 -1205.5948320161369 182.25726305996591 0 182.25726305996591 60.418661659651661 0 0 0 0 -794.77954580363075 603.5761965302205 0 603.5761965302205 -507.74241956602339 0 0 0 0 -596.12886357440584 374.99430043456641 0 374.99430043456641 -295.18312926118233 0 0 0 0 -804.69587331423827 204.18933452350075 0 204.18933452350075 37.901222163931379 0 0 0 0 -538.02248319376667 270.04859447466197 0 270.04859447466197 -75.891401298187702 0 0 0 0 -466.89722329633514 179.56415424534407 0 179.56415424534407 -114.7389914166879 0 0 0 0 -455.59265095741284 538.27767408892873 0 538.27767408892873 -439.24334390687932 0 0 0 0 -594.26293930146494 74.769760826004131 0 74.769760826004131 -705.94587456052295 0 0 0 0 -592.42498687401167 456.95059818303525 0 456.95059818303525 -248.23358914102408 0 0 0 0 -606.81021721586512 393.55860726478352 0 393.55860726478352 -285.14355209532113 0 0 0 0 -30.188545630251724 -5.2851479038292943 0 -5.2851479038292943 5.5310731161564659 0 0 0 0 114.18109717257539 -678.81031572201368 0 -678.81031572201368 689.90899580796804 0 0 0 0 -154.45495865931298 411.92206951263938 0 411.92206951263938 -161.07075175438916 0 0 0 0 -557.78704138863759 58.363223088638279 0 58.363223088638279 -416.96406099393636 0 0 0 0 237.0398930711126 -160.68953418495988 0 -160.68953418495988 -167.07182241106929 0 0 0 0 -504.0399004868741 353.75264676622697 0 353.75264676622697 -242.72685849267623 0 0 0 0 99.563222928336472 -204.76358565157366 0 -204.76358565157366 -195.94380663624895 0 0 0 0 -10.586617599619913 0.33822268574093961 0 0.33822268574093961 1.2695356705461016 0 0 0 0 -1042.497653541519 777.50416317659324 0 777.50416317659324 -530.5063683544671 0 0 0 0 -1057.0913258998989 933.61612200700711 0 933.61612200700711 -159.92755567943399 0 0 0 0 65.332882012958294 525.62080140128148 0 525.62080140128148 -979.70839369757687 0 0 0 0 -1545.1841968823865 958.63273553012834 0 958.63273553012834 -136.73253899263409 0 0 0 0 -483.4022801053361 1400.8614935486421 0 1400.8614935486421 -1004.07740902408 0 0 0 0 -851.30039646690057 125.43095599294338 0 125.43095599294338 -6.6108799010721668 0 0 0 0 338.27907035960743 1055.8106033212835 0 1055.8106033212835 -1254.5328020307693 0 0 0 0 -10.225918849153231 9.6931383882522475 0 9.6931383882522475 -6.1103956756304578 0 0 0 0 -1620.4820314277385 614.11883069434623 0 614.11883069434623 -3.2335164889900057 0 0 0 0 -217.57092360088427 615.02504314996895 0 615.02504314996895 -384.83522693419673 0 0 0 0 -90.150887737399898 895.75630750489563 0 895.75630750489563 -406.36949931871368 0 0 0 0 -25.675315304433752 696.39456785713537 0 696.39456785713537 -351.40161976946001 0 0 0 0 -35.004354799404226 2.9505385138749816 0 2.9505385138749816 7.7627141277335898 0 0 0 0 -1601.4508180443117 150.46316909778261 0 150.46316909778261 737.06821751490497 0 0 0 0 -156.26820693102491 -749.11600878419449 0 -749.11600878419449 835.14398130809877 0 0 0 0 239.45282587969632 32.284912230465125 0 32.284912230465125 -1335.8925339013749 0 0 0 0 -77.855821017248672 387.32174708968159 0 387.32174708968159 -1085.3457223737505 0 0 0 0 -297.29864698700248 -58.276566608479698 0 -58.276566608479698 -7.1265179207975962 0 0 0 0 -7.3308423796359392 4.9796072018419846 0 4.9796072018419846 -1.6935107856787033 0 0 0 0 283.15385912413149 235.3347534841173 0 235.3347534841173 -754.02254689107394 0 0 0 0 516.75207968123141 -212.14438379481089 0 -212.14438379481089 -57.979695099204037 0 0 0 0 1.2988880101329414 392.55037660099242 0 392.55037660099242 -546.31667814257071 0 0 0 0 -10.561314688159541 9.2679158566992914 0 9.2679158566992914 1.2199420329865003 0 0 0 0 -215.13062808647737 68.922474348837568 0 68.922474348837568 -749.36664668992125 0 0 0 0 217.19271050239331 217.23560473671569 0 217.23560473671569 -822.35017368757781 0 0 0 0 -34.610668496671927 24.53937481328283 0 24.53937481328283 -8.0787109959363761 0 0 0 0 -243.44081070648645 412.60723568295089 0 412.60723568295089 -239.90138754277814 0 0 0 0 -344.4420074810223 387.54777136305302 0 387.54777136305302 -23.473562726543605 0 0 0 0 -212.10055074712272 224.27777995140519 0 224.27777995140519 129.70406210796443 0 0 0 0 -1004.1665346385798 101.27170648983 0 101.27170648983 122.20159105481994 0 0 0 0 -6.2926749431983993 7.3813282406900171 0 7.3813282406900171 -8.6260916839895199 0 0 0 0 1281.8122250059077 -1163.1748750485765 0 -1163.1748750485765 -1579.1947225874919 0 0 0 0 -13.978362174456542 10.882991475859535 0 10.882991475859535 -6.5365062089078387 0 0 0 0 1252.6401769519034 -519.04570267448048 0 -519.04570267448048 -2930.4897787131927 0 0 0 0 -3190.0300373275495 464.26670334606314 0 464.26670334606314 394.1728533493955 0 0 0 0 -594.41302083871778 355.87482179055519 0 355.87482179055519 -628.39059225845813 0 0 0 0 -271.64751228383466 741.00848501432574 0 741.00848501432574 -236.10140932749073 0 0 0 0 -463.02962312749514 538.31797599222659 0 538.31797599222659 -408.36214839033164 0 0 0 0 -348.90310006825166 735.61946752802578 0 735.61946752802578 -236.2698865174998 0 0 0 0 -257.76580944219313 788.7926020484806 0 788.7926020484806 -538.8769781287333 0 0 0 0 -5486.9674819679558 90.957240562234645 0 90.957240562234645 425.90498668650594 0 0 0 0 -3237.4638926042676 1096.062376042473 0 1096.062376042473 242.26626466552614 0 0 0 0 -2079.4104438923041 127.98007551307782 0 127.98007551307782 -580.67276713537433 0 0 0 0 6182.588089805864 1843.3052224691351 0 1843.3052224691351 -2286.0472017062011 0 0 0 0 -2457.8996812917949 555.49641883020206 0 555.49641883020206 -453.65760696227147 0 0 0 0 -13.550004724865605 -0.26902404785090628 0 -0.26902404785090628 -1.1532202277734591 0 0 0 0 -2988.4734288200225 -532.86407724957667 0 -532.86407724957667 -596.02765323993151 0 0 0 0 -6855.9697933918851 -1154.3743591034258 0 -1154.3743591034258 -671.27177981834802 0 0 0 0 -1799.6312795068188 -1262.275065853346 0 -1262.275065853346 1234.2737777486441 0 0 0 0 -5471.0271175820008 -98.02240863281871 0 -98.02240863281871 1020.3520457389884 0 0 0 0 -1779.5797224132875 758.76703391340038 0 758.76703391340038 -1008.939898552527 0 0 0 0 640.37759498043306 606.54484004505935 0 606.54484004505935 -366.85483305579362 0 0 0 0 544.67329781648368 -64.476820241564837 0 -64.476820241564837 -746.30876479597782 0 0 0 0 168.913143448146 120.03803713083141 0 120.03803713083141 105.42478938585873 0 0 0 0 329.86980137574392 825.19000038031709 0 825.19000038031709 616.51666812667463 0 0 0 0 -30.67179923018881 11.272462281223333 0 11.272462281223333 2.1311445618808662 0 0 0 0 -33.271273777700117 252.27986525531151 0 252.27986525531151 1246.1679552519579 0 0 0 0 759.08962572425662 -258.00512095375279 0 -258.00512095375279 118.52192992378991 0 0 0 0 695.94100282044383 -508.16065773405143 0 -508.16065773405143 -756.59865182819135 0 0 0 0 -3405.2437372137429 381.52942092787936 0 381.52942092787936 -41.774465016410318 0 0 0 0 -3291.8914130053236 2130.0505581415764 0 2130.0505581415764 -1464.0710816199651 0 0 0 0 -5810.7878933407883 2094.5384531899176 0 2094.5384531899176 232.98046999042685 0 0 0 0 -16.978524416265394 2.4341114197292049 0 2.4341114197292049 1.3476759870922583 0 0 0 0 -5491.9870480269346 2206.4880544751309 0 2206.4880544751309 -1349.9944282256365 0 0 0 0 -1260.5062470114026 -742.25533177078148 0 -742.25533177078148 604.1303738465092 0 0 0 0 -333.96885832028056 498.60713759458486 0 498.60713759458486 -626.12092617423093 0 0 0 0 915.13225414882982 467.5328815185137 0 467.5328815185137 -1396.0253226841328 0 0 0 0 -120.12841045690948 749.74987337985408 0 749.74987337985408 -925.04031950264744 0 0 0 0 -148.27347893298429 487.35116033638405 0 487.35116033638405 -1107.6725963988665 0 0 0 0 -247.79372003362732 571.36871929314225 0 571.36871929314225 -760.96482094035855 0 0 0 0 -1110.000257283973 -2.0792403788956335 0 -2.0792403788956335 -948.52720085537931 0 0 0 0 348.54629001871945 146.36705625788727 0 146.36705625788727 37.673324144761864 0 0 0 0 -15.252068825944725 2.4410921824062282 0 2.4410921824062282 1.6441688467355087 0 0 0 0 272.28204565421947 318.84731279235342 0 318.84731279235342 333.48508355179774 0 0 0 0 -35.677449966407153 10.385394059827446 0 10.385394059827446 0.35865686589629231 0 0 0 0 -404.79126979989815 414.34975840917764 0 414.34975840917764 1824.9881582657961 0 0 0 0 66.626736153855745 -79.065740957218622 0 -79.065740957218622 405.07719751124114 0 0 0 0 183.10160341097435 -62.06960581228951 0 -62.06960581228951 38.707278957548311 0 0 0 0 -330.7795148944715 -193.43051214678553 0 -193.43051214678553 1298.2830746225316 0 0 0 0 -103.98226576262823 190.52918442802547 0 190.52918442802547 910.20842804602671 0 0 0 0 -31.906265267214607 11.746423834554221 0 11.746423834554221 -2.3481836493844241 0 0 0 0 -25.433268700826773 7.7823457570300896 0 7.7823457570300896 1.5971401746190943 0 0 0 0 83.583715955122898 102.41846820781299 0 102.41846820781299 786.73810306809344 0 0 0 0 -106.7899793008346 -240.91420361265466 0 -240.91420361265466 311.70797809004955 0 0 0 0 -345.37113311805297 -91.094971437806407 0 -91.094971437806407 288.90860828806893 0 0 0 0 -308.25418901469129 75.596791505856345 0 75.596791505856345 692.72941312988223 0 0 0 0 142.51382420959999 279.52241296395272 0 279.52241296395272 827.95315235669477 0 0 0 0 -45.078823152536643 -321.42713594360919 0 -321.42713594360919 840.7313690068147 0 0 0 0 -291.37413355318131 -122.2712745984237 0 -122.2712745984237 578.44772679447067 0 0 0 0 -167.76228808949054 420.99111938017569 0 420.99111938017569 67.296916887886709 0 0 0 0 -356.03720306822652 -189.21686715369498 0 -189.21686715369498 240.22413053588025 0 0 0 0 -361.89635172687849 344.13213296602549 0 344.13213296602549 60.516804118962526 0 0 0 0 -936.92697400000907 267.76614511786403 0 267.76614511786403 219.03157916153862 0 0 0 0 -540.59501509585971 7.7023474907951481 0 7.7023474907951481 -229.52720008361075 0 0 0 0 -575.63001578627518 826.0401517189091 0 826.0401517189091 -528.18305134238119 0 0 0 0 -2153.051609388509 1102.2725242989022 0 1102.2725242989022 -155.14360570121573 0 0 0 0 -1184.53718875919 359.1645886051524 0 359.1645886051524 -100.08097153248775 0 0 0 0 -333.66487761147437 -11.208312120238304 0 -11.208312120238304 -137.43717724196358 0 0 0 0 -239.38147074518201 -232.70721285819656 0 -232.70721285819656 -96.264590936858781 0 0 0 0 -114.43658322010742 -96.992703930107496 0 -96.992703930107496 48.843217128265451 0 0 0 0 -465.31275022107047 -219.67856638459793 0 -219.67856638459793 154.30514486151833 0 0 0 0 -453.85873202910443 182.79241745003242 0 182.79241745003242 61.924994680403159 0 0 0 0 -5356.2657365331615 1484.6294948680531 0 1484.6294948680531 -612.87247005466702 0 0 0 0 -4752.7623237346415 3119.4613731936843 0 3119.4613731936843 -159.01374655024807 0 0 0 0 -13.130697045447135 8.8291764564738795 0 8.8291764564738795 -4.564165926640932 0 0 0 0 -961.4409552276411 2464.453588252084 0 2464.453588252084 -1600.431961208144 0 0 0 0 -190.14944212582486 -348.25738082598809 0 -348.25738082598809 1072.3910754204046 0 0 0 0 587.2627535255815 376.04164770234371 0 376.04164770234371 -414.95913000774499 0 0 0 0 -628.90983253296872 1659.396162844595 0 1659.396162844595 -1196.3073344491479 0 0 0 0 -522.30001341298339 294.49303728295513 0 294.49303728295513 36.13148181731254 0 0 0 0 -3980.8499025557358 1965.2675911643382 0 1965.2675911643382 172.93663800373042 0 0 0 0 -2115.8600482271577 1881.6181554348091 0 1881.6181554348091 -277.27425220172154 0 0 0 0 -1380.4218001993722 693.08614859207796 0 693.08614859207796 -195.208688970038 0 0 0 0 -2211.7664133059152 1776.6643427147496 0 1776.6643427147496 -153.34628450030584 0 0 0 0 -4374.7106480228103 1268.4751936584125 0 1268.4751936584125 907.01692134830489 0 0 0 0 -5501.1182980601807 2100.378045886484 0 2100.378045886484 721.42747560367229 0 0 0 0 -5500.8186646159229 1213.8169707872016 0 1213.8169707872016 937.28362866798091 0 0 0 0 -2446.5446114220758 904.6305613313009 0 904.6305613313009 189.50526923795996 0 0 0 0 -3282.8778070437329 1129.2493709799419 0 1129.2493709799419 186.25306502429339 0 0 0 0 -3429.7550807478765 333.44804737482673 0 333.44804737482673 138.2969566939185 0 0 0 0 -4293.0827984339794 513.0013112789112 0 513.0013112789112 483.81089552165946 0 0 0 0 -3754.5754644291956 579.21613444188085 0 579.21613444188085 364.87614612588425 0 0 0 0 -1222.0932922135544 171.30354922820675 0 171.30354922820675 -159.88491735311152 0 0 0 0 -774.04890224212431 -83.536712986286261 0 -83.536712986286261 -256.55554069827099 0 0 0 0 -389.18407017206482 -28.28712585429605 0 -28.28712585429605 -257.24422483453782 0 0 0 0 -772.13000135251787 -69.881991576482733 0 -69.881991576482733 -165.07836055215387 0 0 0 0 -679.89828737693279 -136.53337428175223 0 -136.53337428175223 -101.45420204546826 0 0 0 0 -624.56591970723093 28.943663362279239 0 28.943663362279239 -266.6848439148896 0 0 0 0 -1216.9227508803997 316.86770002925238 0 316.86770002925238 -122.41883883396781 0 0 0 0 -1998.4515808972501 580.08305455677305 0 580.08305455677305 -107.89361252020592 0 0 0 0 -2363.3409814225233 325.44044825601367 0 325.44044825601367 119.47308410694154 0 0 0 0 -1367.7284477754802 -20.993623522438725 0 -20.993623522438725 -145.9119183689586 0 0 0 0 -1533.8768602049604 258.77458524769804 0 258.77458524769804 -237.79395167814096 0 0 0 0 -3074.9012049317826 642.086210935895 0 642.086210935895 82.757630665649913 0 0 0 0 -2341.9462291006603 -194.61197887086561 0 -194.61197887086561 25.184285077624281 0 0 0 0 -914.75937114421686 -64.742378697284494 0 -64.742378697284494 -285.66797404175236 0 0 0 0 -1337.5598779077118 -157.51652545808861 0 -157.51652545808861 -125.40974598836044 0 0 0 0 -916.64249782456318 86.874716503805416 0 86.874716503805416 -251.58836598813264 0 0 0 0 -480.58835990751686 -7.7363515856209233 0 -7.7363515856209233 -253.8403370595563 0 0 0 0 -822.36125388124492 -125.6473687539343 0 -125.6473687539343 -184.59907954494201 0 0 0 0 -915.83442173139974 -78.398631248621086 0 -78.398631248621086 -136.07945390373777 0 0 0 0 -541.45946294735768 -27.838370249743093 0 -27.838370249743093 -283.64932548736323 0 0 0 0 -227.52112631429918 -104.89323395764563 0 -104.89323395764563 -168.36823332414764 0 0 0 0 -322.92862907540984 27.061437792435441 0 27.061437792435441 -257.56816032801862 0 0 0 0 -523.24076135281393 -116.33881939550668 0 -116.33881939550668 -172.52293583403502 0 0 0 0 -32.992433103936492 -53.261625537913517 0 -53.261625537913517 -67.435186203712234 0 0 0 0 -57.628923824435333 19.74092755737172 0 19.74092755737172 -233.45318253254413 0 0 0 0 125.88566124743375 22.402874434179779 0 22.402874434179779 -187.59797973734476 0 0 0 0 -166.75826196577691 -140.12132506719729 0 -140.12132506719729 -165.59111147955204 0 0 0 0 31.783052242717531 -79.125999284138018 0 -79.125999284138018 -187.49038154239435 0 0 0 0 -21.951570646044274 7.2548645258130193 0 7.2548645258130193 -204.80138397294104 0 0 0 0 -267.10217958901194 -10.322479659141152 0 -10.322479659141152 -260.63334239768528 0 0 0 0 -438.71008999581682 -131.39538739300556 0 -131.39538739300556 -179.14890740332385 0 0 0 0 -379.10441944250488 -179.35521009883041 0 -179.35521009883041 -137.05595898705042 0 0 0 0 -207.46486736278166 -46.413243709861717 0 -46.413243709861717 -235.43060218026403 0 0 0 0 -89.141239829332335 -192.80748180845069 0 -192.80748180845069 -142.83957624811543 0 0 0 0 -14.32218980100879 -37.588464623666709 0 -37.588464623666709 -151.15739113788686 0 0 0 0 -266.55441412123037 -281.01704607543235 0 -281.01704607543235 -67.484182828860213 0 0 0 0 -182.77261713039479 -91.931757684393631 0 -91.931757684393631 -138.02937962694432 0 0 0 0 38.642772087972844 -135.34011306869775 0 -135.34011306869775 8.333226038931798 0 0 0 0 -53.911729630985064 -118.80052920240365 0 -118.80052920240365 8.9433815738398152 0 0 0 0 37.02963532027934 -127.5237729952164 0 -127.5237729952164 -28.986693192135363 0 0 0 0 81.043112590254168 -47.467277859165335 0 -47.467277859165335 -126.69549840397536 0 0 0 0 6.0496627072825504 -82.619522198583411 0 -82.619522198583411 -109.74798669964287 0 0 0 0 83.050268532606424 25.826302889696592 0 25.826302889696592 129.10147826916864 0 0 0 0 0.52937368962904685 1.5812478149344784 0 1.5812478149344784 6.2931252498380665 0 0 0 0 361.45336317989495 103.87167468440732 0 103.87167468440732 -164.30361759923028 0 0 0 0 2.5539486866702035 -3.5398273493340895 0 -3.5398273493340895 4.7564076079965787 0 0 0 0 116.63121956576651 32.928762240105243 0 32.928762240105243 -154.43245430930301 0 0 0 0 -131.58518116861524 -35.298275534841423 0 -35.298275534841423 63.849037088087243 0 0 0 0 316.02082915697247 -58.659554995789833 0 -58.659554995789833 -203.68815330736004 0 0 0 0 194.3678013056051 73.90599611865818 0 73.90599611865818 -143.41593804312316 0 0 0 0 -33.873662985635747 -156.96857336383891 0 -156.96857336383891 -34.519104358609638 0 0 0 0 -323.90052813201328 -12.47316151190671 0 -12.47316151190671 -42.123962272076824 0 0 0 0 -431.61379959424812 87.146931969236675 0 87.146931969236675 93.022956248304922 0 0 0 0 -715.75164296905859 256.77569144401309 0 256.77569144401309 -290.6088547241618 0 0 0 0 -325.15219243112745 48.889086802744394 0 48.889086802744394 -198.41999760124781 0 0 0 0 -659.5200120022273 70.982064052557462 0 70.982064052557462 -48.61180158149682 0 0 0 0 -448.18407055664284 192.30726572093636 0 192.30726572093636 -223.68109637699922 0 0 0 0 -756.88760698461374 293.5733349776944 0 293.5733349776944 -79.522300546615497 0 0 0 0 -491.77374571191103 133.22325368633653 0 133.22325368633653 -49.782959042893253 0 0 0 0 0.063675568418560147 -0.84358404435539569 0 -0.84358404435539569 0.90388030772654293 0 0 0 0 -139.26901454437575 -78.97759346929513 0 -78.97759346929513 -162.76493158594963 0 0 0 0 -380.4754785765399 223.7460855597883 0 223.7460855597883 -108.07123578548669 0 0 0 0 -608.55341264701565 309.00686730776556 0 309.00686730776556 -2.5603513515343082 0 0 0 0 -616.67613002272992 164.97522806303562 0 164.97522806303562 99.247822090324121 0 0 0 0 -0.54112823215200834 0.085887647378989129 0 0.085887647378989129 1.5916544847427172 0 0 0 0 -557.98429959528585 286.4279424443709 0 286.4279424443709 -9.8322725206087398 0 0 0 0 -739.9715148720461 172.97138236643872 0 172.97138236643872 -46.564047481461216 0 0 0 0 -753.7479791591868 117.25705106635989 0 117.25705106635989 -212.13848519710928 0 0 0 0 -537.99526474216691 294.17146968680294 0 294.17146968680294 -72.629428277337084 0 0 0 0 -538.31086559138203 405.02633061367783 0 405.02633061367783 51.47723065208055 0 0 0 0 -640.99434486150494 655.41087161079827 0 655.41087161079827 -373.17365882509728 0 0 0 0 -618.88368814373825 -297.93046601118311 0 -297.93046601118311 647.57555605524112 0 0 0 0 -293.48676827042073 -546.64673320593545 0 -546.64673320593545 820.61581768935821 0 0 0 0 -1027.0036139807125 265.96995374538506 0 265.96995374538506 346.37174229085565 0 0 0 0 215.76457079646207 -407.09114488972051 0 -407.09114488972051 361.26113873879495 0 0 0 0 -147.20796843529388 -267.0358938318941 0 -267.0358938318941 311.86673981026433 0 0 0 0 -93.079110975391814 -362.07860471783414 0 -362.07860471783414 114.72444420846102 0 0 0 0 -116.0474429622418 -184.57754657946469 0 -184.57754657946469 -9.8018071834155762 0 0 0 0 -109.28899921480115 -262.09736533509079 0 -262.09736533509079 89.427239335680042 0 0 0 0 138.13567967091512 -16.417968278174726 0 -16.417968278174726 88.994714262285697 0 0 0 0 -146.29550039163587 0.33962013322133089 0 0.33962013322133089 390.6873481569063 0 0 0 0 -123.79154622532951 -320.55612850364014 0 -320.55612850364014 212.32062527960471 0 0 0 0 -140.13247927313932 -232.67819604950188 0 -232.67819604950188 148.60130178790547 0 0 0 0 -56.977595635420585 -15.049192810181921 0 -15.049192810181921 -37.124501902122347 0 0 0 0 39.678834927452044 -102.88729296317297 0 -102.88729296317297 21.723168485301358 0 0 0 0 1.4041864625524312 -0.62951953039365272 0 -0.62951953039365272 0.28538676706634547 0 0 0 0 41.947646159997021 30.891471703773277 0 30.891471703773277 4.1164670299390309 0 0 0 0 25.758100565112272 -14.440872771575727 0 -14.440872771575727 -45.888966967546367 0 0 0 0 -41.674478757973702 -49.410061415093878 0 -49.410061415093878 48.243256570569883 0 0 0 0 -54.910015801810005 -122.58036162162352 0 -122.58036162162352 -145.77343779756939 0 0 0 0 -99.490412875336915 -72.000546664268768 0 -72.000546664268768 -11.221033258016178 0 0 0 0 -80.81142098242708 -46.107767613861142 0 -46.107767613861142 -137.619407123493 0 0 0 0 -85.834849147143814 -59.292577008581475 0 -59.292577008581475 -105.56616412215681 0 0 0 0 -183.72986404252697 9.5313878955644213 0 9.5313878955644213 -85.2784426661201 0 0 0 0 -125.40636751708189 13.302563603039516 0 13.302563603039516 -85.421815827950923 0 0 0 0 -153.57730679308042 -33.991057064574761 0 -33.991057064574761 -24.639320389018849 0 0 0 0 -214.48188388642666 -27.155652892947046 0 -27.155652892947046 30.371028012065835 0 0 0 0 -170.45299751235871 -17.897271368286056 0 -17.897271368286056 -28.742524418405537 0 0 0 0 -112.47112262444716 -90.443629916774171 0 -90.443629916774171 61.378255622748839 0 0 0 0 -120.38616840545001 -39.066308975130141 0 -39.066308975130141 65.717802587736514 0 0 0 0 -177.74784467413338 15.701743659799376 0 15.701743659799376 41.325706743763362 0 0 0 0 -263.25854289919698 18.704789831679363 0 18.704789831679363 26.536205493499438 0 0 0 0 -199.29585181576476 -26.97158201069351 0 -26.97158201069351 23.028275163661419 0 0 0 0 -222.65173610172496 26.80997343198942 0 26.80997343198942 -23.111735519703871 0 0 0 0 -198.19276675778383 51.073686423846084 0 51.073686423846084 0.91299590313974477 0 0 0 0 -164.38816778583805 12.853643182037331 0 12.853643182037331 9.7638952233701275 0 0 0 0 -105.46814966954116 57.63753129243787 0 57.63753129243787 41.558200234202559 0 0 0 0 -83.003243492774345 -21.578038215041033 0 -21.578038215041033 51.752130074910383 0 0 0 0 -89.20984729189081 -35.282399466321124 0 -35.282399466321124 69.049000059661012 0 0 0 0 -104.58270188237202 5.5070827721881415 0 5.5070827721881415 171.97494917209588 0 0 0 0 71.719232228624605 -39.728829272130497 0 -39.728829272130497 51.190715060727598 0 0 0 0 -41.502556681984061 -110.0507407459163 0 -110.0507407459163 85.64682772649212 0 0 0 0 -24.501182915773825 -73.071500777471556 0 -73.071500777471556 93.238102312091542 0 0 0 0 -29.06499260349301 -123.68370197824515 0 -123.68370197824515 90.33802012173237 0 0 0 0 -88.611528706789613 -94.694161074311069 0 -94.694161074311069 169.22942928099656 0 0 0 0 -33.14994610697795 -125.67420739481122 0 -125.67420739481122 97.212139040173497 0 0 0 0 -33.432054565701037 -130.02874981582409 0 -130.02874981582409 96.386716822066774 0 0 0 0 -154.2871451482024 -205.5956717553604 0 -205.5956717553604 131.72998789848043 0 0 0 0 89.103191581172723 -5.4449110208893217 0 -5.4449110208893217 284.71992097344173 0 0 0 0 38.516334284075356 -241.03125997093912 0 -241.03125997093912 240.2348594003779 0 0 0 0 28.339938875144071 -97.497705301911992 0 -97.497705301911992 -59.154156805094772 0 0 0 0 2.6454622284582001 -129.30427662153352 0 -129.30427662153352 8.0489267786078926 0 0 0 0 13.943608741314165 -156.52994074631169 0 -156.52994074631169 61.866961588890717 0 0 0 0 -551.94117887403991 -223.78180897043683 0 -223.78180897043683 429.25811679043636 0 0 0 0 -539.97209366428433 -241.46722381335576 0 -241.46722381335576 403.65630381334176 0 0 0 0 -150.15117441480288 -145.82961610634356 0 -145.82961610634356 88.093779907710996 0 0 0 0 -253.73341523897398 -218.62848678395994 0 -218.62848678395994 64.857533402538593 0 0 0 0 -31.361286193520755 -223.03136388972052 0 -223.03136388972052 -234.76921631858113 0 0 0 0 -380.53291871811416 -465.15012008022245 0 -465.15012008022245 -412.08294702637522 0 0 0 0 -2.905799248702003 -1.3243471001768903 0 -1.3243471001768903 -0.92233554951227603 0 0 0 0 -33.296257769417934 -107.72734055379988 0 -107.72734055379988 -658.21668415484692 0 0 0 0 4.6577749005718942 47.437959453515646 0 47.437959453515646 -200.15805727222732 0 0 0 0 136.66171912362552 -107.82104846393349 0 -107.82104846393349 -227.75555587733993 0 0 0 0 -314.39015877791462 -108.63692422907411 0 -108.63692422907411 245.26576484884322 0 0 0 0 -396.0924511686444 -340.26179613099112 0 -340.26179613099112 -409.48225977850325 0 0 0 0 -4.9031559565864882 -37.702160762891253 0 -37.702160762891253 -53.199364258589412 0 0 0 0 -27.38026482590476 -32.548591798480246 0 -32.548591798480246 -45.112953135229873 0 0 0 0 5.2937539600789023 -20.031341626387757 0 -20.031341626387757 -105.15046927047479 0 0 0 0 115.50880829849484 -70.534643813788989 0 -70.534643813788989 26.71370436096754 0 0 0 0 -5.2852263286019863 -4.6970752116942425 0 -4.6970752116942425 -2.005294384411207 0 0 0 0 2.6135817800212848 -3.0254094514004066 0 -3.0254094514004066 -1.5228649295626511 0 0 0 0 2.0627104111097694 -3.2617907360258638 0 -3.2617907360258638 -0.08560072899967075 0 0 0 0 -3.2765359453381464 -3.391624096230121 0 -3.391624096230121 -1.2315266869624599 0 0 0 0 -4.780325118041219 -29.939633005860514 0 -29.939633005860514 -227.97190233368065 0 0 0 0 25.681305775958549 -14.091160223111046 0 -14.091160223111046 -1.9710383424680913 0 0 0 0 46.564788485664394 -28.252135110139761 0 -28.252135110139761 -233.25642798286526 0 0 0 0 14.708408077864078 -64.377506614196363 0 -64.377506614196363 -274.20046859122704 0 0 0 0 -102.27518273048463 -256.31350797843987 0 -256.31350797843987 -372.4663898130666 0 0 0 0 -3.4348488960848726 -55.023337859714005 0 -55.023337859714005 -214.67012075533148 0 0 0 0 14.181242818205646 -85.825390330183382 0 -85.825390330183382 -215.93959026351072 0 0 0 0 93.241108097292454 -98.299384679879154 0 -98.299384679879154 -386.8161043373525 0 0 0 0 12.437568288723924 -82.207814751368232 0 -82.207814751368232 -221.48119087367604 0 0 0 0 100.84763023915366 -33.463405436296398 0 -33.463405436296398 -284.38737447950314 0 0 0 0 113.49120338880493 37.946512613389359 0 37.946512613389359 -169.86864526535919 0 0 0 0 41.400818685253398 -30.788975169839205 0 -30.788975169839205 -154.60918735346377 0 0 0 0 -280.6434502843299 73.369636711376188 0 73.369636711376188 -440.62778528271497 0 0 0 0 -174.49014838271978 -166.26532335530851 0 -166.26532335530851 -250.48571409331043 0 0 0 0 199.61279888882382 172.81065495019516 0 172.81065495019516 -86.962757869629968 0 0 0 0 1.4871238812538365 -0.61560616179473371 0 -0.61560616179473371 -0.38597855843252304 0 0 0 0 98.935134277273391 -67.343739063355088 0 -67.343739063355088 -322.43041604890777 0 0 0 0 -147.64419973142139 164.69297764752787 0 164.69297764752787 -213.2311199046832 0 0 0 0 -371.86322252892296 -59.313295316963604 0 -59.313295316963604 -342.57665240263259 0 0 0 0 -385.94316423062128 247.13459754290704 0 247.13459754290704 -341.98199449139656 0 0 0 0 20.01656881494273 49.152501583922913 0 49.152501583922913 -357.36328052666829 0 0 0 0 -281.51043721692804 -2.2249434599616507 0 -2.2249434599616507 -133.53286709203121 0 0 0 0 -41.900898999245328 -51.299007618046744 0 -51.299007618046744 -193.30631405741497 0 0 0 0 334.72144672012655 243.59599447186247 0 243.59599447186247 -206.40035416558084 0 0 0 0 96.341706250884272 181.06718629470618 0 181.06718629470618 75.629512639031418 0 0 0 0 -44.870032795628497 24.003388729423065 0 24.003388729423065 -10.874365184580558 0 0 0 0 180.95189361714438 83.042510300907225 0 83.042510300907225 -76.60034277588602 0 0 0 0 8.7858733648790803 26.642780125195259 0 26.642780125195259 34.722801631464677 0 0 0 0 67.414805362213883 44.778908392407857 0 44.778908392407857 -46.545195281483302 0 0 0 0 162.54862400421189 17.23026200093318 0 17.23026200093318 -242.88631014616055 0 0 0 0 55.811858256480264 -38.207653213978801 0 -38.207653213978801 -153.40995268625966 0 0 0 0 205.84370141289764 149.16327030492994 0 149.16327030492994 -202.72113644142485 0 0 0 0 119.38527422054176 466.10349864484897 0 466.10349864484897 226.32465148000202 0 0 0 0 -50.073596755123035 27.921846939095868 0 27.921846939095868 -12.780349240778733 0 0 0 0 94.068729791246369 111.86355303458754 0 111.86355303458754 228.65201031425022 0 0 0 0 -210.6820079778862 177.48914745944785 0 177.48914745944785 194.88195527011078 0 0 0 0 -86.855886567246444 -227.99055478422088 0 -227.99055478422088 157.23068902636555 0 0 0 0 32.433091379187545 34.292166681184426 0 34.292166681184426 64.875942242318388 0 0 0 0 -25.450965587620885 -24.741976215977047 0 -24.741976215977047 83.052499516609259 0 0 0 0 -57.729833271538155 -45.626718728416563 0 -45.626718728416563 22.183191038988298 0 0 0 0 -8.9301819752623945 -6.0618371402255296 0 -6.0618371402255296 18.765243056237203 0 0 0 0 -87.375731738526611 -45.129220761774377 0 -45.129220761774377 36.699064776690648 0 0 0 0 -51.90501736199576 9.9543425234978713 0 9.9543425234978713 23.489214208404519 0 0 0 0 -20.748221512248165 -19.26430178022747 0 -19.26430178022747 21.052278313067291 0 0 0 0 -51.308708549574476 20.364035631266688 0 20.364035631266688 53.334769382266927 0 0 0 0 -38.006030339528031 16.619629090789488 0 16.619629090789488 -5.9483156462803386 0 0 0 0 -41.844582590083974 12.290932847470685 0 12.290932847470685 5.6933071108669537 0 0 0 0 -27.746811824512861 -16.540112009853601 0 -16.540112009853601 49.990959123970242 0 0 0 0 39.396375531574449 23.466327005374751 0 23.466327005374751 -85.37037034185505 0 0 0 0 64.459301511318699 -40.252081090751972 0 -40.252081090751972 -288.30620958143618 0 0 0 0 -55.12033115160375 -55.492580215034195 0 -55.492580215034195 -71.496413198785547 0 0 0 0 -3.9882174238782255 3.5278179451791054 0 3.5278179451791054 -0.83427508585418586 0 0 0 0 -3.0222623878744344 69.773966753824652 0 69.773966753824652 0.73323524808301954 0 0 0 0 -70.924763222194997 -37.585641315605471 0 -37.585641315605471 -265.4466260242707 0 0 0 0 -40.048268935355736 7.2577718679244754 0 7.2577718679244754 4.3830748427681385 0 0 0 0 4.1448156237784133 129.58388749828396 0 129.58388749828396 -65.861135532736625 0 0 0 0 -233.18022487972667 -129.30200353448208 0 -129.30200353448208 -278.77976424402959 0 0 0 0 -21.582019431372828 22.265120532252922 0 22.265120532252922 -309.01113501094005 0 0 0 0 -18.056373573810561 -88.081057597423069 0 -88.081057597423069 -312.27509214442125 0 0 0 0 -1.5451872395276141 -0.58289822707641648 0 -0.58289822707641648 -0.56301240480831716 0 0 0 0 -18.251648251545703 39.896939410809409 0 39.896939410809409 -294.85251052143349 0 0 0 0 80.331835158955073 61.824162498111946 0 61.824162498111946 -592.14331257416279 0 0 0 0 -55.222917215422058 34.51251366786164 0 34.51251366786164 -175.87893629533278 0 0 0 0 -118.52936904409216 -8.7779331792539779 0 -8.7779331792539779 -156.86024744018323 0 0 0 0 -118.38697167716236 -13.544393685947853 0 -13.544393685947853 -122.21067324815033 0 0 0 0 -65.050410995647326 3.8534830934552247 0 3.8534830934552247 -240.25275626729217 0 0 0 0 -26.753992617832409 -59.577069154806395 0 -59.577069154806395 -137.7304420961041 0 0 0 0 7.4610876908591308 -30.880753694605119 0 -30.880753694605119 -234.37461627541506 0 0 0 0 29.137300523791055 20.319427933336101 0 20.319427933336101 -237.70083449209733 0 0 0 0 -9.0200341993393138 -0.033810994889034163 0 -0.033810994889034163 -0.091291812602314337 0 0 0 0 -59.579097457262833 -30.640267861749635 0 -30.640267861749635 -73.076909496815915 0 0 0 0 -66.126032076692354 72.710812193350193 0 72.710812193350193 -79.791760343639908 0 0 0 0 -6.4612256474470726 -3.4566345012716582 0 -3.4566345012716582 4.1554954784271922 0 0 0 0 -31.22554388033296 -0.66891893810899816 0 -0.66891893810899816 5.5056806680605259 0 0 0 0 -58.613179817199125 -15.949073440009897 0 -15.949073440009897 13.656998681662571 0 0 0 0 -90.837259558444202 33.649609453715129 0 33.649609453715129 -7.4655651361572382 0 0 0 0 -93.140619500006324 67.379126190970965 0 67.379126190970965 -116.21852842916087 0 0 0 0 -33.506667308280157 39.566926626668874 0 39.566926626668874 -117.75743680420601 0 0 0 0 -29.883271506623149 -7.3838691245726018 0 -7.3838691245726018 3.5510960885415663 0 0 0 0 -9.4677865748762997 -48.648028036976712 0 -48.648028036976712 2.3944739342944672 0 0 0 0 -83.427439670458625 -5.6939505335885769 0 -5.6939505335885769 39.099319872765591 0 0 0 0 -10.355684431009808 3.1970936114025177 0 3.1970936114025177 14.442994830708214 0 0 0 0 -46.508155949312368 -7.8409028540961572 0 -7.8409028540961572 10.230204128610694 0 0 0 0 -44.934351866605539 -9.9272028892769413 0 -9.9272028892769413 16.919160434660625 0 0 0 0 -25.268989765182596 -9.5081809974963107 0 -9.5081809974963107 9.6534939491320984 0 0 0 0 -9.1883934815523389 -85.864391407312041 0 -85.864391407312041 15.604028987328277 0 0 0 0 -30.887308073110489 -2.9887086258991076 0 -2.9887086258991076 24.561953586491654 0 0 0 0 -28.462653975733517 -9.6503693604722365 0 -9.6503693604722365 4.2843733199697294 0 0 0 0 -30.774565517899102 -1.5469086146863642 0 -1.5469086146863642 6.1930233687728649 0 0 0 0 -84.565170909807421 45.349069776377064 0 45.349069776377064 19.372859956770753 0 0 0 0 -60.673108216898981 20.47897691050116 0 20.47897691050116 -112.04123975833156 0 0 0 0 -17.45627798915848 52.726852702130714 0 52.726852702130714 -81.617146081557621 0 0 0 0 -213.03745643966249 156.09152863748614 0 156.09152863748614 -229.3853637169982 0 0 0 0 -199.25943596201068 95.225914368738358 0 95.225914368738358 -117.70527977278334 0 0 0 0 -99.226849410326395 102.48557986982269 0 102.48557986982269 -164.75304889201334 0 0 0 0 -157.37516729353592 50.827289985142215 0 50.827289985142215 -75.963748091985963 0 0 0 0 -159.44208306589428 108.1448848967398 0 108.1448848967398 -154.16166293456536 0 0 0 0 -227.85292339666557 42.16891619213493 0 42.16891619213493 -86.454039206508241 0 0 0 0 -175.6248890610841 -72.32709340054339 0 -72.32709340054339 93.29444623205049 0 0 0 0 -155.51813669485273 89.452804484234093 0 89.452804484234093 -66.319961647106538 0 0 0 0 -153.4891362898943 69.799367860833854 0 69.799367860833854 -16.236632787806229 0 0 0 0 -94.970999665216368 46.666375195000455 0 46.666375195000455 -12.686292457599848 0 0 0 0 -163.74261018580728 62.953047597813566 0 62.953047597813566 50.886960987922066 0 0 0 0 -169.36021612977493 42.447833586233173 0 42.447833586233173 -22.633433687884462 0 0 0 0 -197.13442844273231 52.550286944238906 0 52.550286944238906 14.215489604195682 0 0 0 0 -217.18915508569626 33.52832371370323 0 33.52832371370323 -3.4605981745580721 0 0 0 0 -185.26024071486609 30.387565597085995 0 30.387565597085995 -31.757308768745133 0 0 0 0 -22.649015807626711 22.023899805637029 0 22.023899805637029 -90.170712297896898 0 0 0 0 42.085843900171312 79.643343168531828 0 79.643343168531828 -62.064321945897973 0 0 0 0 -38.604020057518937 109.70707949610255 0 109.70707949610255 54.834954446814663 0 0 0 0 -135.7734222282088 58.269318077152548 0 58.269318077152548 125.60729872617821 0 0 0 0 -219.55262386580216 23.574035959566345 0 23.574035959566345 15.440444121628389 0 0 0 0 -172.22163975307194 8.5499424792997161 0 8.5499424792997161 -2.0900797876165598 0 0 0 0 -175.27575540227554 -0.89771239212950604 0 -0.89771239212950604 48.325622136306265 0 0 0 0 -128.73272405805983 -97.678377372864588 0 -97.678377372864588 -8.6906664586594928 0 0 0 0 -240.52098444788862 5.4195989518539136 0 5.4195989518539136 -0.18741920140837465 0 0 0 0 -313.54155617896686 76.816274198215069 0 76.816274198215069 -46.667534921339211 0 0 0 0 -225.68847507402461 52.466310232594424 0 52.466310232594424 -79.473985484822151 0 0 0 0 -514.84556319405237 206.18993959161162 0 206.18993959161162 -52.125441027280203 0 0 0 0 -270.52597493318899 153.68826876758726 0 153.68826876758726 -71.562407232210717 0 0 0 0 -418.26251940702059 146.0213447001629 0 146.0213447001629 -86.616446814622122 0 0 0 0 -542.54477142124233 133.93439810513473 0 133.93439810513473 -38.245005100311346 0 0 0 0 -383.41707900682559 58.166034073405626 0 58.166034073405626 -60.293734287326515 0 0 0 0 -281.08209677266495 98.806353195411248 0 98.806353195411248 -70.021830318936281 0 0 0 0 -268.09928927815781 32.808773493499757 0 32.808773493499757 -50.368012049930485 0 0 0 0 -219.7211807508229 58.989198747211049 0 58.989198747211049 -45.070687423016352 0 0 0 0 -296.26451665155037 107.8417145067524 0 107.8417145067524 -58.940048402075263 0 0 0 0 -662.22414477226266 311.05185659395829 0 311.05185659395829 35.175404665033057 0 0 0 0 -666.57549131104315 254.10299055700921 0 254.10299055700921 -0.47870820458956587 0 0 0 0 -590.18790829896943 231.1929887118265 0 231.1929887118265 2.1894203145839128 0 0 0 0 -788.74263515185339 182.54708995019564 0 182.54708995019564 0.36213662799627855 0 0 0 0 -1204.4566959523929 377.25716267323077 0 377.25716267323077 -39.19143987264215 0 0 0 0 -754.23557936357815 350.82972603822964 0 350.82972603822964 -69.16203835813667 0 0 0 0 -680.90260151128132 187.56041535913528 0 187.56041535913528 -132.06167590797395 0 0 0 0 -681.15021140090573 91.376113642532502 0 91.376113642532502 -76.321395184477296 0 0 0 0 -1106.2429312067306 10.585943484670679 0 10.585943484670679 -111.2286773856008 0 0 0 0 -429.52630709439472 101.38538968530656 0 101.38538968530656 -122.59936009448279 0 0 0 0 -284.89807713643586 81.290014746801376 0 81.290014746801376 -144.23098475824645 0 0 0 0 -434.18546254379544 38.973061070911172 0 38.973061070911172 -256.70578095515793 0 0 0 0 -419.34946750420568 129.08412436831804 0 129.08412436831804 -187.13158287027682 0 0 0 0 -428.35067928464196 169.34671356209083 0 169.34671356209083 -288.82340850006881 0 0 0 0 -282.32116616156054 110.16936045143029 0 110.16936045143029 -236.9824866766503 0 0 0 0 -278.87959334564948 81.306055866259157 0 81.306055866259157 -132.57136049416295 0 0 0 0 -282.89809014979983 101.07736836120239 0 101.07736836120239 -243.15740789600659 0 0 0 0 -451.84969095514498 147.4417937710075 0 147.4417937710075 -137.71612287798689 0 0 0 0 -356.64089417869764 246.16474717294659 0 246.16474717294659 -205.07826464463051 0 0 0 0 -890.76673984192894 144.2316262070517 0 144.2316262070517 -24.836278030368703 0 0 0 0 -692.19087057128854 -47.647177097158647 0 -47.647177097158647 -416.42046156545075 0 0 0 0 -513.73147941771822 282.70152239360732 0 282.70152239360732 -403.75881584600285 0 0 0 0 -515.11154678925413 1.5729526359191368 0 1.5729526359191368 25.350196309019111 0 0 0 0 -406.98430810336913 138.13450181734646 0 138.13450181734646 46.069760637108629 0 0 0 0 -541.79294743765058 270.52203279410969 0 270.52203279410969 -79.063191071469191 0 0 0 0 -284.38858649022677 126.4216583454488 0 126.4216583454488 -14.669396951270755 0 0 0 0 -380.16391205555738 218.85919318847709 0 218.85919318847709 -97.501362565723639 0 0 0 0 -261.77289128585835 144.01433031343277 0 144.01433031343277 -121.8971186018133 0 0 0 0 -159.06929127913463 110.75419463863363 0 110.75419463863363 -119.22069208149924 0 0 0 0 -251.70644703102698 144.55271425294404 0 144.55271425294404 -110.57014838611667 0 0 0 0 -168.58704303010381 68.237437064496589 0 68.237437064496589 -128.17114985581324 0 0 0 0 -90.633012414997211 66.288896244761872 0 66.288896244761872 -128.44704407362494 0 0 0 0 -151.53978181954153 118.17182330369155 0 118.17182330369155 -123.81743441445724 0 0 0 0 -82.899683111274499 73.538254209314346 0 73.538254209314346 -68.718088642334351 0 0 0 0 -138.19026890683381 112.0253122817121 0 112.0253122817121 -103.41864816680464 0 0 0 0 -73.284626966191354 70.483876084057556 0 70.483876084057556 -131.83197203203508 0 0 0 0 -131.10560009204164 106.17083071298566 0 106.17083071298566 -187.04633072699926 0 0 0 0 -239.8651802032291 173.46315300774677 0 173.46315300774677 -138.24739878242053 0 0 0 0 -89.402167142574399 -40.654707601502196 0 -40.654707601502196 60.845450790082396 0 0 0 0 -37.633923977906306 -1.2231425355630563 0 -1.2231425355630563 77.464070236109137 0 0 0 0 -64.344814555019184 -46.961027089621098 0 -46.961027089621098 19.593939646092849 0 0 0 0 -304.3928282532288 25.501480300512412 0 25.501480300512412 170.41995291775038 0 0 0 0 -96.47209866021845 -24.341193909041461 0 -24.341193909041461 3.7853054534987258 0 0 0 0 -82.880847872252502 -1.6898768171800782 0 -1.6898768171800782 78.70914324074829 0 0 0 0 -117.75389256735798 -2.6618471294264054 0 -2.6618471294264054 90.918952272998922 0 0 0 0 -104.97931293164038 -50.083890441351514 0 -50.083890441351514 262.95161900526182 0 0 0 0 -91.538434750968918 -7.1503195724828856 0 -7.1503195724828856 144.10152140919308 0 0 0 0 -153.00937117006833 -69.215811098794802 0 -69.215811098794802 298.42421379453913 0 0 0 0 -74.456667162058693 -67.462830137829087 0 -67.462830137829087 295.82714876969021 0 0 0 0 -350.32616009535013 150.76408033211919 0 150.76408033211919 3.7844933303092603 0 0 0 0 -23.707833189799185 3.4401604659654375 0 3.4401604659654375 -1.4974216629842001 0 0 0 0 -21.674439167345145 1.6702369153891077 0 1.6702369153891077 2.1511884871603382 0 0 0 0 -59.881499539051447 -78.269107491001307 0 -78.269107491001307 10.770653616350955 0 0 0 0 21.865659567842961 39.976211816666876 0 39.976211816666876 -8.0050000677437527 0 0 0 0 -361.77398643950892 255.9135927823063 0 255.9135927823063 -40.295230118465042 0 0 0 0 -632.395688550876 347.30006305359643 0 347.30006305359643 -26.424443069210156 0 0 0 0 -419.5923116763679 195.00665621657299 0 195.00665621657299 31.840543390151197 0 0 0 0 -657.11522993164908 287.64471629566015 0 287.64471629566015 109.60320637477423 0 0 0 0 -662.26237728526394 267.97382127237688 0 267.97382127237688 3.3638457490983456 0 0 0 0 -804.48493945925566 709.065381811733 0 709.065381811733 -530.53084850185769 0 0 0 0 -288.85283739110491 261.62843220296008 0 261.62843220296008 -172.18283766501554 0 0 0 0 -4.6516986713672992 -1.9455938593703515 0 -1.9455938593703515 -1.2416911840396345 0 0 0 0 -158.59901496810198 -86.55164647868196 0 -86.55164647868196 -149.4161019332314 0 0 0 0 -341.0735693121278 -326.01417051652243 0 -326.01417051652243 -17.458074664850642 0 0 0 0 24.117410904171265 -331.52687963377639 0 -331.52687963377639 -27.721887640437672 0 0 0 0 -1.7229552797061842 -3.4423993404025168 0 -3.4423993404025168 100.01885681635213 0 0 0 0 -247.63659863869634 -44.55772416257696 0 -44.55772416257696 -88.271416522622985 0 0 0 0 -128.50741688298149 -174.66252861777639 0 -174.66252861777639 -71.132017800342965 0 0 0 0 -270.23644601936394 -24.008816772012096 0 -24.008816772012096 144.15460861727388 0 0 0 0 -131.46126766415864 99.256833934005385 0 99.256833934005385 172.707588351504 0 0 0 0 -13.677443760585447 52.97255536836883 0 52.97255536836883 115.8326820550609 0 0 0 0 -128.09436025911964 -200.62540515421574 0 -200.62540515421574 -217.10589651820737 0 0 0 0 -2.1570291651679483 0.05029141647034896 0 0.05029141647034896 0.058159634631883783 0 0 0 0 -91.795399935492242 -94.548105908755247 0 -94.548105908755247 -12.913619509514774 0 0 0 0 -15.613232506309487 26.388283413245631 0 26.388283413245631 144.98989613449476 0 0 0 0 -5.8729648903257754 0.31844079119049606 0 0.31844079119049606 1.0284330714183403 0 0 0 0 -5.8834151122814546 17.904628090986478 0 17.904628090986478 146.78085573994076 0 0 0 0 -80.735437193852704 -84.704003671508417 0 -84.704003671508417 -67.251455042976431 0 0 0 0 -8.8917964994154204 -14.462311774928878 0 -14.462311774928878 82.054877165344806 0 0 0 0 -37.980995129584699 -18.182173634848368 0 -18.182173634848368 117.23860734877417 0 0 0 0 -131.31397305657811 -62.444110419498429 0 -62.444110419498429 38.051014067459619 0 0 0 0 -130.08735453804547 -77.19711611988123 0 -77.19711611988123 27.777844973632909 0 0 0 0 -124.60791869277341 -54.615470202806307 0 -54.615470202806307 19.119512972476514 0 0 0 0 -104.38822314062236 -58.011712224032635 0 -58.011712224032635 14.364643705121807 0 0 0 0 -107.40398201134053 -68.118563196149694 0 -68.118563196149694 -0.67428349266856458 0 0 0 0 -110.85510519380114 -79.379955125481047 0 -79.379955125481047 12.295535673776158 0 0 0 0 -116.00732968107059 -77.614481230625188 0 -77.614481230625188 33.763372770947626 0 0 0 0 1.1675130285976927 -0.60832628732434912 0 -0.60832628732434912 1.8787060379791285 0 0 0 0 -32.932371645465537 83.24156390074063 0 83.24156390074063 128.01718751469514 0 0 0 0 -188.08963906324607 -156.63446314817247 0 -156.63446314817247 32.099775712945302 0 0 0 0 -274.81885479941752 101.50134798644171 0 101.50134798644171 62.522493505769489 0 0 0 0 -237.85381370851246 -41.886891402382503 0 -41.886891402382503 19.662011398321283 0 0 0 0 -197.08476921350666 -21.891603005171362 0 -21.891603005171362 5.9018544849877799 0 0 0 0 -136.67465932429241 71.201473458650526 0 71.201473458650526 -40.346315767581018 0 0 0 0 -55.852828165876417 -24.460029905107604 0 -24.460029905107604 -15.540010139071455 0 0 0 0 -64.233217523040366 -32.812681598270046 0 -32.812681598270046 13.635409232931579 0 0 0 0 -66.956032472437755 -9.8869331240495058 0 -9.8869331240495058 -1.1782106703012687 0 0 0 0 -62.265046085203721 1.140648866772608 0 1.140648866772608 -30.990714193526401 0 0 0 0 -0.016724320745197474 20.879565636374309 0 20.879565636374309 9.4300859650884377 0 0 0 0 -115.15562908184984 -54.732613635203506 0 -54.732613635203506 56.77469990118334 0 0 0 0 -99.824753806772605 -66.146262651003781 0 -66.146262651003781 15.998527315341562 0 0 0 0 -4.3475155777838701 -5.2296631789402479 0 -5.2296631789402479 5.392847419829387 0 0 0 0 -4.6792903425893329 1.1354653655986411 0 1.1354653655986411 3.4412689897322131 0 0 0 0 -157.27578145633743 278.0203253932068 0 278.0203253932068 -9.3752297990529314 0 0 0 0 -255.73218880384229 13.001857549501892 0 13.001857549501892 -36.547892961677803 0 0 0 0 -68.231343122686667 -73.744378384743072 0 -73.744378384743072 -53.285609968197605 0 0 0 0 -270.57290701073725 -98.25516051677323 0 -98.25516051677323 7.8901103328807949 0 0 0 0 -129.32092722999369 -89.954024307589634 0 -89.954024307589634 6.6597113986917975 0 0 0 0 -192.29459047054479 -79.433441315800792 0 -79.433441315800792 35.123807907567425 0 0 0 0 -363.90041539886806 63.695598369016125 0 63.695598369016125 61.497104182464682 0 0 0 0 -347.39063949999218 66.592048901634598 0 66.592048901634598 25.690286523707982 0 0 0 0 -273.11414275479547 25.59412494284652 0 25.59412494284652 -8.3354667166045502 0 0 0 0 -286.6620917247219 22.182138171288443 0 22.182138171288443 41.041599315851272 0 0 0 0 -206.28941058643613 16.53669841358942 0 16.53669841358942 -8.2718730052200478 0 0 0 0 -266.36277565742421 77.395238358177494 0 77.395238358177494 -56.205788427423613 0 0 0 0 -183.13561321431735 72.923462178333011 0 72.923462178333011 -57.31270094120282 0 0 0 0 -286.85021025381502 72.486045062647008 0 72.486045062647008 24.727091262824672 0 0 0 0 -348.57524215952617 128.53970151348494 0 128.53970151348494 -14.450070086643791 0 0 0 0 -383.53729577568674 97.223828124914462 0 97.223828124914462 76.528009397029564 0 0 0 0 -411.44184217871225 128.2009183425921 0 128.2009183425921 42.159684356508478 0 0 0 0 -442.03777739249927 38.992296303277271 0 38.992296303277271 183.09867753775325 0 0 0 0 -249.7610006255677 -36.003534911816359 0 -36.003534911816359 115.61457041174617 0 0 0 0 -379.79492277819554 46.063204531034899 0 46.063204531034899 64.085836952941463 0 0 0 0 -371.03579163590257 63.277614962858024 0 63.277614962858024 78.093676430899919 0 0 0 0 -221.68196523632696 40.914895236701625 0 40.914895236701625 27.619088349618778 0 0 0 0 -259.28090130585952 38.543230751809915 0 38.543230751809915 33.355225030811425 0 0 0 0 -373.56141861622473 157.24064622550532 0 157.24064622550532 -21.252452796419675 0 0 0 0 -463.38707804363912 21.514415557754091 0 21.514415557754091 59.874635166980852 0 0 0 0 -372.73416258218958 -11.416458805249135 0 -11.416458805249135 -19.517038472954482 0 0 0 0 -369.88766721787761 53.704634101388365 0 53.704634101388365 70.741376466456586 0 0 0 0 -375.58384343298076 24.656803743896944 0 24.656803743896944 41.349382349912048 0 0 0 0 -281.54915291379803 -9.747152722957253 0 -9.747152722957253 16.296104783980581 0 0 0 0 -377.52915457786003 -12.712468991734113 0 -12.712468991734113 18.412820157634087 0 0 0 0 -221.08205345884562 -9.4880376603277909 0 -9.4880376603277909 -78.527956637273746 0 0 0 0 -371.89164909278907 -123.11004083863497 0 -123.11004083863497 -160.57052749651575 0 0 0 0 -140.70000191910367 150.32611922333763 0 150.32611922333763 -192.67650716362868 0 0 0 0 -59.963432889482647 25.752549016395733 0 25.752549016395733 -338.30754356998114 0 0 0 0 -133.73106016175916 -81.741102348991262 0 -81.741102348991262 -894.14996916949258 0 0 0 0 -788.66516495761789 -249.95588544531529 0 -249.95588544531529 -130.27444663211281 0 0 0 0 -432.49578726625032 -23.671504271438948 0 -23.671504271438948 -12.588528905017483 0 0 0 0 -183.4837072437258 77.300734487177124 0 77.300734487177124 -52.297754890064652 0 0 0 0 -36.667018230148642 13.292551505614142 0 13.292551505614142 -69.900265361500715 0 0 0 0 -76.975758839143964 -140.6321717370015 0 -140.6321717370015 -531.64792303386957 0 0 0 0 -722.28879255605534 316.12730216036198 0 316.12730216036198 -126.29951571927131 0 0 0 0 -8.7870234573608954 -4.3983970260320469 0 -4.3983970260320469 -2.8381777911840818 0 0 0 0 -756.03193705863487 -521.59565407068533 0 -521.59565407068533 -71.743885785002021 0 0 0 0 -319.02433900686083 -187.38348875607971 0 -187.38348875607971 124.6013783123326 0 0 0 0 37.865102607414883 -78.817622911625222 0 -78.817622911625222 -172.29333857146776 0 0 0 0 -316.47690737657467 -157.23737744639675 0 -157.23737744639675 148.80199469018589 0 0 0 0 303.68229152071581 -316.98979021931609 0 -316.98979021931609 -244.18850560811279 0 0 0 0 -5.2698628179441798 -3.3978212775158561 0 -3.3978212775158561 0.0082915051808845064 0 0 0 0 -401.35538238405934 -70.920436549771466 0 -70.920436549771466 568.30884271401146 0 0 0 0 45.157882859773963 30.909589661020618 0 30.909589661020618 222.29935322081678 0 0 0 0 81.748646409236244 -370.33171848874917 0 -370.33171848874917 -245.84362503695593 0 0 0 0 -880.74604431006082 -698.10937695013263 0 -698.10937695013263 231.05626159798521 0 0 0 0 -674.73916586045016 -354.42087268179171 0 -354.42087268179171 79.738103775361196 0 0 0 0 -704.21694188874244 -382.89113871790096 0 -382.89113871790096 253.56705760101659 0 0 0 0 79.669839732025139 207.60831997165383 0 207.60831997165383 62.819391326502981 0 0 0 0 -109.79175495821255 283.02427205156164 0 283.02427205156164 361.13100039027449 0 0 0 0 -174.42619985559031 -22.882516256970121 0 -22.882516256970121 341.57443026731744 0 0 0 0 -373.40105032741485 102.18072995871808 0 102.18072995871808 289.01819777995661 0 0 0 0 -228.36485545297182 -7.9468902322114445 0 -7.9468902322114445 366.6114284927603 0 0 0 0 407.18594057224618 584.43288429699351 0 584.43288429699351 304.55304996995073 0 0 0 0 -197.89999153384588 151.56163597264481 0 151.56163597264481 682.68044626518713 0 0 0 0 -58.349286600734558 467.3731630097509 0 467.3731630097509 752.15072594273443 0 0 0 0 163.56276173060905 402.31027426352284 0 402.31027426352284 671.34186246363879 0 0 0 0 -50.327753584540915 532.30201566383175 0 532.30201566383175 592.49458375938639 0 0 0 0 -17.867588876209265 5.5635006919485122 0 5.5635006919485122 2.7528448076982244 0 0 0 0 -19.51196460803985 -1.9106622488005822 0 -1.9106622488005822 8.8621638428077656 0 0 0 0 -170.44944557419331 -151.5112982786377 0 -151.5112982786377 134.59849132596628 0 0 0 0 284.18310137519984 166.44216054970684 0 166.44216054970684 -123.77978022646494 0 0 0 0 -84.607642691527872 79.336066635969928 0 79.336066635969928 -106.79835270105377 0 0 0 0 -1091.3948502415819 155.60210501753079 0 155.60210501753079 110.38606845799222 0 0 0 0 -150.22460520292225 18.227748909152069 0 18.227748909152069 124.92289357961999 0 0 0 0 -41.145607929662155 16.858466561478288 0 16.858466561478288 17.035143621903043 0 0 0 0 -129.23769527582044 -4.5674496706742502 0 -4.5674496706742502 -3.1618032074738949 0 0 0 0 -106.36090357133253 -25.607834813685713 0 -25.607834813685713 26.798608559705826 0 0 0 0 -88.684636014344505 22.31772700143847 0 22.31772700143847 26.058302433916765 0 0 0 0 -165.9634671111512 -28.130324613122923 0 -28.130324613122923 32.36512814838261 0 0 0 0 -30.020578333784741 10.134543889871978 0 10.134543889871978 21.788868182327398 0 0 0 0 -75.501450924759411 -41.516666831471412 0 -41.516666831471412 -4.9642658667999058 0 0 0 0 -70.099730182100757 -57.119259602950933 0 -57.119259602950933 17.790936769237305 0 0 0 0 -97.473866702093801 -25.407693233506507 0 -25.407693233506507 -11.623370809080825 0 0 0 0 -96.47258859462454 -44.441049038350684 0 -44.441049038350684 17.189604151459434 0 0 0 0 -3.9989537408328033 -65.992523322586749 0 -65.992523322586749 -8.1970784739532974 0 0 0 0 -64.673371689033956 -32.288068521540822 0 -32.288068521540822 -10.306744131527012 0 0 0 0 -40.985767438720075 -19.03027956433472 0 -19.03027956433472 -4.3840972797734583 0 0 0 0 -72.247050939769906 -35.146848683082453 0 -35.146848683082453 -8.8710483425875282 0 0 0 0 -24.470364215573028 -12.869385085601461 0 -12.869385085601461 -7.4538429627147895 0 0 0 0 -181.94924927316742 31.252172726084893 0 31.252172726084893 -12.212098603925369 0 0 0 0 -15.478780547360657 -24.708260160086638 0 -24.708260160086638 -44.083583447855744 0 0 0 0 5.6679236057861999 -13.126450449256026 0 -13.126450449256026 -75.277231264313741 0 0 0 0 63.670164501068939 -95.951524634722318 0 -95.951524634722318 -32.079209534796064 0 0 0 0 30.836468660967512 -61.016389559937124 0 -61.016389559937124 41.39088599770821 0 0 0 0 55.679688169026122 -137.76197950738444 0 -137.76197950738444 123.28706899879398 0 0 0 0 20.491203997768025 -88.169467682707136 0 -88.169467682707136 46.874566658636468 0 0 0 0 50.940395585406804 -76.350856608955837 0 -76.350856608955837 51.389360457020302 0 0 0 0 107.41863431520596 -181.85964654396457 0 -181.85964654396457 118.10985825046919 0 0 0 0 -11.780783477270091 -7.2030202632335376 0 -7.2030202632335376 1.4618337312043779 0 0 0 0 2.8874339869907999 -143.99003057201344 0 -143.99003057201344 269.28717587290976 0 0 0 0 -173.36120878971269 -0.8646318579058061 0 -0.8646318579058061 390.70044295042453 0 0 0 0 -347.40938104494489 373.0737988879149 0 373.0737988879149 -24.539431722890185 0 0 0 0 -122.87736781558488 -508.40593170369539 0 -508.40593170369539 -218.32790449199638 0 0 0 0 31.426883104388253 -77.756100672033426 0 -77.756100672033426 178.95365443396622 0 0 0 0 -6.4939309337865865 2.6388172845697397 0 2.6388172845697397 -0.66208058816297033 0 0 0 0 -65.025446741652559 18.022792618442509 0 18.022792618442509 -15.813018001805972 0 0 0 0 64.006705726933433 -107.40707638674985 0 -107.40707638674985 117.3307797522375 0 0 0 0 -41.751152364269387 -10.040080014930014 0 -10.040080014930014 3.7634938128440001 0 0 0 0 -90.976992219875683 17.3928506545235 0 17.3928506545235 22.932694963194876 0 0 0 0 4.7559798229958687 -108.70769728207506 0 -108.70769728207506 117.48167639644441 0 0 0 0 -98.150381259431015 -74.28729539775486 0 -74.28729539775486 6.0488701549402322 0 0 0 0 9.7435844351057312 -82.252842068904101 0 -82.252842068904101 1.4940521593689482 0 0 0 0 -115.08995400062122 -43.360918443491755 0 -43.360918443491755 35.568933659860704 0 0 0 0 -266.85544329825643 -10.855242666210415 0 -10.855242666210415 32.89830044680275 0 0 0 0 -93.379419852397405 5.4270076982129467 0 5.4270076982129467 -46.21814261145073 0 0 0 0 -102.44060810303927 -121.62082111608333 0 -121.62082111608333 53.024565879689362 0 0 0 0 -80.520195065691951 -35.283771149093809 0 -35.283771149093809 38.787759946298635 0 0 0 0 -105.66782515939431 -4.076216986746104 0 -4.076216986746104 10.522240254338643 0 0 0 0 -223.12696141291235 103.69886233380203 0 103.69886233380203 -23.539951822670162 0 0 0 0 -17.560134246767547 8.3679435232017596 0 8.3679435232017596 -0.70149182301616619 0 0 0 0 -302.02944561282129 49.521925051222752 0 49.521925051222752 67.871761858348691 0 0 0 0 -93.651231233490449 -13.954982615490406 0 -13.954982615490406 10.90856812417927 0 0 0 0 -58.757847852742998 -32.214582251515594 0 -32.214582251515594 47.937113882795529 0 0 0 0 -110.77209280325042 -76.845651614603412 0 -76.845651614603412 -51.152325495120749 0 0 0 0 -115.07344347937033 -71.565268083377305 0 -71.565268083377305 80.55694521066016 0 0 0 0 -95.396117171820663 -12.099923884149725 0 -12.099923884149725 7.5909446712851425 0 0 0 0 -78.83615742449183 -5.4958521818580266 0 -5.4958521818580266 13.731889419345407 0 0 0 0 -41.579180716886185 -26.847247184900652 0 -26.847247184900652 31.400531426087127 0 0 0 0 -76.200187160139564 -0.97971825048242511 0 -0.97971825048242511 7.6782494778682064 0 0 0 0 -100.65716518370027 -4.3794911866370967 0 -4.3794911866370967 31.543387596201853 0 0 0 0 -110.7259389371351 27.080618335540187 0 27.080618335540187 5.102337207397226 0 0 0 0 -84.295488577678157 -22.989098246495452 0 -22.989098246495452 12.183636478226562 0 0 0 0 -143.18380136166161 -10.362940978642655 0 -10.362940978642655 20.492634487776741 0 0 0 0 -57.784921036763905 -6.2350840138609769 0 -6.2350840138609769 5.2387226114676331 0 0 0 0 -84.806503376450564 15.389247462241542 0 15.389247462241542 -3.6614334031191902 0 0 0 0 -56.53163036167372 -3.3708043136774322 0 -3.3708043136774322 9.3806811554500023 0 0 0 0 -89.410171969566363 -24.636486231528806 0 -24.636486231528806 1.9947689586952038 0 0 0 0 -101.66375579989108 -4.5165118145050656 0 -4.5165118145050656 -15.876795888380002 0 0 0 0 -161.51592823918327 73.824146951188595 0 73.824146951188595 -27.964455004557749 0 0 0 0 -96.390826808463316 25.898472355309423 0 25.898472355309423 -63.934987381634983 0 0 0 0 -83.267991684086155 5.1801935115372544 0 5.1801935115372544 -21.912009128242062 0 0 0 0 -80.08561312227539 -14.274025134856402 0 -14.274025134856402 -9.2568133200584271 0 0 0 0 -104.18416403379888 6.382856918939865 0 6.382856918939865 -11.357541464245514 0 0 0 0 -101.99821276905277 24.941537460118525 0 24.941537460118525 16.901829072145119 0 0 0 0 -24.714158351187663 4.0415344499159289 0 4.0415344499159289 -4.938697143170284 0 0 0 0 -113.42532915680204 68.198821140355903 0 68.198821140355903 -80.596436730520509 0 0 0 0 -257.48558397969464 12.139063806665149 0 12.139063806665149 73.544933315764865 0 0 0 0 0.13051161275451761 -2.4200619163779606 0 -2.4200619163779606 0.2518946697051696 0 0 0 0 -452.44815578858834 140.48703743953388 0 140.48703743953388 11.487551983723279 0 0 0 0 -92.789305391721427 21.735744661075387 0 21.735744661075387 -27.107881965553133 0 0 0 0 -37.790881157867261 27.972757207885934 0 27.972757207885934 -47.408758622694222 0 0 0 0 -287.76392176434456 -69.45178829598035 0 -69.45178829598035 -7.8123601531892746 0 0 0 0 -94.893709904165007 0.27606274723530078 0 0.27606274723530078 -0.44115059812247637 0 0 0 0 -51.524875513860025 -37.643360354843253 0 -37.643360354843253 17.549981782576083 0 0 0 0 -82.599796202155176 -29.280639764799517 0 -29.280639764799517 17.577097968306809 0 0 0 0 -54.273916257805624 -10.863887176201622 0 -10.863887176201622 3.5040508016332925 0 0 0 0 -157.70341300276596 -122.66190337012534 0 -122.66190337012534 76.825916213950222 0 0 0 0 -52.034305784549261 -7.1392210805421925 0 -7.1392210805421925 2.0588710964846619 0 0 0 0 -76.912854843536479 -27.321858524495735 0 -27.321858524495735 31.474635621829862 0 0 0 0 614.10041242407169 -160.0760667514237 0 -160.0760667514237 -247.87047393349167 0 0 0 0 17.870940515262191 -64.452030850767926 0 -64.452030850767926 40.602794999173739 0 0 0 0 -104.57713737484372 16.483081421569686 0 16.483081421569686 5.4409839512706979 0 0 0 0 532.74167089330513 252.17906893251211 0 252.17906893251211 -632.44313694019729 0 0 0 0 -398.7234401392343 962.2072941286292 0 962.2072941286292 -814.20438988693604 0 0 0 0 -849.47058824327542 21.056156566093705 0 21.056156566093705 19.448574897690719 0 0 0 0 -853.41263266605165 -329.06184418171438 0 -329.06184418171438 -165.933109964717 0 0 0 0 -6.0517430928988745 4.6447419931572744 0 4.6447419931572744 -5.6029696100817539 0 0 0 0 -1244.9680989465269 52.707032790378889 0 52.707032790378889 189.07188704795954 0 0 0 0 -67.487767450025174 -25.311692322275228 0 -25.311692322275228 1.6844920821548621 0 0 0 0 -191.86652042638798 490.18615416543889 0 490.18615416543889 -635.65137322138435 0 0 0 0 -751.92595531610277 -1248.2005557975879 0 -1248.2005557975879 786.15396030740612 0 0 0 0 -35.352792525998666 -35.47892904130731 0 -35.47892904130731 -0.44444137247774052 0 0 0 0 -30.298990729628713 -93.633510758259376 0 -93.633510758259376 -18.352885951234384 0 0 0 0 -66.312729588531468 -32.20642385591519 0 -32.20642385591519 7.4514064631167862 0 0 0 0 7.8641447800564492 -30.704468530818424 0 -30.704468530818424 -5.8195726840549957 0 0 0 0 -146.52906062975671 -35.047758181338168 0 -35.047758181338168 1.6313051113106667 0 0 0 0 -22.563889044773532 -44.818461063794416 0 -44.818461063794416 -23.072617848393293 0 0 0 0 -136.95524024110637 -18.752010814722325 0 -18.752010814722325 37.883641819314334 0 0 0 0 -190.41181235219119 17.999350915983769 0 17.999350915983769 2.8101865085947111 0 0 0 0 -117.46201680461672 -9.5132559901816194 0 -9.5132559901816194 -2.1865644601512031 0 0 0 0 -158.89966285105038 -56.770302263531676 0 -56.770302263531676 -28.46559520089977 0 0 0 0 -223.86363957101639 0.60961225497058535 0 0.60961225497058535 4.7629934870114994 0 0 0 0 -242.63491405805689 21.669915093216559 0 21.669915093216559 30.973294767998169 0 0 0 0 -228.85329043499223 61.410044936155145 0 61.410044936155145 -34.180512431075385 0 0 0 0 -289.79073689509096 34.501782734400763 0 34.501782734400763 28.536551683553625 0 0 0 0 -130.66800211182272 -17.465030998861153 0 -17.465030998861153 -84.152034176287088 0 0 0 0 -204.02437169778568 11.554524122527937 0 11.554524122527937 -28.038213921290662 0 0 0 0 -275.38891515518844 -1.2263950888088289 0 -1.2263950888088289 24.201786956873093 0 0 0 0 -243.60121857807098 10.508591281657573 0 10.508591281657573 28.469216591575446 0 0 0 0 -262.61325823160587 12.09762925206735 0 12.09762925206735 50.21139539926412 0 0 0 0 -231.87057156100491 38.543086023665296 0 38.543086023665296 61.309883541168574 0 0 0 0 -201.84480984165566 34.393427146892122 0 34.393427146892122 14.168169786395538 0 0 0 0 -165.23337693740905 57.574890054684147 0 57.574890054684147 13.639069711854432 0 0 0 0 -27.652857682129252 -7.0369160739942345 0 -7.0369160739942345 -28.081378480799685 0 0 0 0 -8.1579159459179209 -2.4917833037681731 0 -2.4917833037681731 -1.4094195845887363 0 0 0 0 -21.961235930484719 8.616659285593272 0 8.616659285593272 -0.92867038504473243 0 0 0 0 -42.351304771991337 25.970058046259965 0 25.970058046259965 -20.836800212527695 0 0 0 0 -42.477717489360899 17.212370517856087 0 17.212370517856087 -12.902181175577589 0 0 0 0 -45.55927293394052 15.250836353871364 0 15.250836353871364 -13.986691623700608 0 0 0 0 -110.9262378665444 -79.567372800187513 0 -79.567372800187513 -40.89588884143086 0 0 0 0 -75.300115338453537 23.948147909563446 0 23.948147909563446 -15.465993611889292 0 0 0 0 -208.35581748388358 173.59863573407165 0 173.59863573407165 20.672738999361172 0 0 0 0 -91.794641919439073 28.264586304105286 0 28.264586304105286 -11.494890398070975 0 0 0 0 -302.38431549295638 69.947367518094779 0 69.947367518094779 79.955730171885079 0 0 0 0 -188.73605037612106 130.47731471132238 0 130.47731471132238 192.04698763302804 0 0 0 0 -152.83258348833806 -111.84524704316635 0 -111.84524704316635 -164.65240665855163 0 0 0 0 -76.799631102691563 -3.2765387895882228 0 -3.2765387895882228 -5.8399089989770943 0 0 0 0 -143.73858903122164 44.666187947608705 0 44.666187947608705 44.99555817066539 0 0 0 0 -99.360101424664435 13.820911907319543 0 13.820911907319543 2.6305435467314937 0 0 0 0 -51.166318425464851 17.695715908415195 0 17.695715908415195 14.561705581982096 0 0 0 0 -82.100014036381367 17.610708444344311 0 17.610708444344311 6.0597273888036831 0 0 0 0 -83.516195269387097 30.332093542829124 0 30.332093542829124 1.7987561427459795 0 0 0 0 -83.245014629291006 24.592714688770201 0 24.592714688770201 -5.861343886568565 0 0 0 0 -67.69895469741823 302.82396352079809 0 302.82396352079809 635.4002454377478 0 0 0 0 -51.78275868034325 25.368423789798499 0 25.368423789798499 3.7936232940437549 0 0 0 0 -176.78544069263444 -46.225851615233296 0 -46.225851615233296 67.184467711409752 0 0 0 0 -43.228124056855449 142.42738654154437 0 142.42738654154437 -129.39634338978613 0 0 0 0 -21.077865160099464 106.74929146585237 0 106.74929146585237 194.81697774226495 0 0 0 0 -55.858224762631643 26.058554829966852 0 26.058554829966852 -14.328129703519139 0 0 0 0 -220.353974599504 406.15074250418979 0 406.15074250418979 569.47287791689882 0 0 0 0 -51.275766757360543 72.810910766168718 0 72.810910766168718 13.066764775534466 0 0 0 0 31.695401663266239 33.893712970075285 0 33.893712970075285 -124.40845335730228 0 0 0 0 -51.882810703958967 32.442150119504277 0 32.442150119504277 -25.936643987808111 0 0 0 0 -330.84723301732447 306.6307729404482 0 306.6307729404482 129.60989437188437 0 0 0 0 -55.718159896420516 13.937259202124295 0 13.937259202124295 -2.14832445299393 0 0 0 0 -214.31211272322616 -108.67680669653669 0 -108.67680669653669 674.24132874339034 0 0 0 0 -6.4301059837620897 4.8162550332807896 0 4.8162550332807896 -5.8242043029541541 0 0 0 0 246.61426111011679 -492.51581375773367 0 -492.51581375773367 -227.03010973277424 0 0 0 0 287.51479409155581 -339.12218970746926 0 -339.12218970746926 -257.79472963555014 0 0 0 0 4.9111669640559583 5.1532873928155496 0 5.1532873928155496 -19.365652265913884 0 0 0 0 -210.10435967591911 6.1840593212482418 0 6.1840593212482418 25.754860918600343 0 0 0 0 -88.472258301914991 -17.789879051979476 0 -17.789879051979476 15.568284933007096 0 0 0 0 -449.35563791017921 67.470356377474218 0 67.470356377474218 121.31540749049509 0 0 0 0 -15.382114639370315 2.870074185951438 0 2.870074185951438 -3.1985897500601927 0 0 0 0 -21.223123563469926 -1.6197067393221118 0 -1.6197067393221118 -9.8646992934427544 0 0 0 0 -109.22243222099496 -17.838986441698353 0 -17.838986441698353 -65.820598046724854 0 0 0 0 -154.95004107354907 37.126935785553314 0 37.126935785553314 -27.449211026759713 0 0 0 0 -54.926582941203378 40.877139799445331 0 40.877139799445331 -36.155931590093132 0 0 0 0 -10.221398866721231 13.123407199324227 0 13.123407199324227 -19.231195438784351 0 0 0 0 -93.83887887315359 27.302202430163021 0 27.302202430163021 -40.508231848485963 0 0 0 0 -94.174271799529379 36.427960003341468 0 36.427960003341468 -28.225895236506403 0 0 0 0 -52.147262871152009 -5.3353662875826444 0 -5.3353662875826444 4.0129961984666593 0 0 0 0 -96.774818339134072 30.524715944077457 0 30.524715944077457 -21.195164384831514 0 0 0 0 -29.410099930450087 12.589666108544407 0 12.589666108544407 -19.891929227553192 0 0 0 0 -504.02448188743438 153.5885565781864 0 153.5885565781864 4.2561424685486031 0 0 0 0 -51.38474170658759 42.616509746397767 0 42.616509746397767 -23.422599808875088 0 0 0 0 -46.344150519339735 39.639258235821906 0 39.639258235821906 -15.939404965048118 0 0 0 0 -80.893040190464518 18.671098899410268 0 18.671098899410268 0.65116742439790354 0 0 0 0 -76.999220042794946 14.313272960704104 0 14.313272960704104 1.7481690800579814 0 0 0 0 -70.213668011303525 29.034228791483656 0 29.034228791483656 -2.2395579740632456 0 0 0 0 -30.09980704128867 7.9590670629325402 0 7.9590670629325402 -7.6314111501713313 0 0 0 0 -28.893928339006379 18.421725258351216 0 18.421725258351216 26.827456264535613 0 0 0 0 -72.54370871426859 -12.910893595880694 0 -12.910893595880694 -3.2298748402668651 0 0 0 0 744.4390222660877 -518.25223951235307 0 -518.25223951235307 -112.13938677384249 0 0 0 0 -43.472413703657367 17.023333492522852 0 17.023333492522852 7.8912798178389494 0 0 0 0 -42.757345645855821 11.586823797788043 0 11.586823797788043 4.8493551111041597 0 0 0 0 -42.244572729248887 12.602878574609662 0 12.602878574609662 -14.076166481120493 0 0 0 0 -68.137873732578527 17.479102306482076 0 17.479102306482076 -9.7113359697999826 0 0 0 0 -50.183227676701165 -43.161930822640386 0 -43.161930822640386 4.8965621377249011 0 0 0 0 77.151445886935107 -49.398140928988369 0 -49.398140928988369 -67.288806725750419 0 0 0 0 -14.392397835096006 -16.588013884584811 0 -16.588013884584811 3.9777204801181543 0 0 0 0 -92.96720434416784 6.9743523977763289 0 6.9743523977763289 32.266895246317517 0 0 0 0 -33.352587868335235 -21.183690184838355 0 -21.183690184838355 -7.6155387356382498 0 0 0 0 -73.490154952203739 -99.804969044007748 0 -99.804969044007748 -22.652086890922874 0 0 0 0 103.03817884239834 -5.5276525740327997 0 -5.5276525740327997 -38.1832576570838 0 0 0 0 -12.765856282543837 -6.4686171551593219 0 -6.4686171551593219 4.5524812501069105 0 0 0 0 -28.673172238488348 7.0846022148936783 0 7.0846022148936783 2.3476370481142688 0 0 0 0 -66.034109416823412 10.619090325614252 0 10.619090325614252 -22.018193504736701 0 0 0 0 -63.819895616339636 -2.924830436124239 0 -2.924830436124239 -8.8758294592025777 0 0 0 0 -28.587430203633843 -2.2901052347110493 0 -2.2901052347110493 0.53527216121727506 0 0 0 0 -55.880353501168429 -25.465125801555132 0 -25.465125801555132 -3.9489877730597982 0 0 0 0 -93.391303835676808 -30.609905398460796 0 -30.609905398460796 -21.314503096787121 0 0 0 0 -24.182082460261739 4.6926212880894127 0 4.6926212880894127 -1.8686893542220044 0 0 0 0 -26.3495579634764 60.621743246909318 0 60.621743246909318 -92.640020865857878 0 0 0 0 -12.484730557117246 3.1439701467351568 0 3.1439701467351568 -2.2769735563872988 0 0 0 0 -57.962567436479731 49.594136780707231 0 49.594136780707231 -29.660641768528194 0 0 0 0 -95.074786641969695 21.385495656572175 0 21.385495656572175 17.994612477609735 0 0 0 0 -42.944249026062607 24.505579441910527 0 24.505579441910527 -29.320160060869682 0 0 0 0 -34.391118539682793 24.882009784845536 0 24.882009784845536 -36.439244135142076 0 0 0 0 -15.34219861276506 12.284944557172821 0 12.284944557172821 -10.825335165529395 0 0 0 0 -18.94050797486824 14.219954230610021 0 14.219954230610021 -20.189914436477892 0 0 0 0 -45.287372131395387 8.7317378387447206 0 8.7317378387447206 -17.973301600914056 0 0 0 0 -28.658046702337032 7.6227708780095611 0 7.6227708780095611 -14.987750697088622 0 0 0 0 -13.778631559252972 17.128607454522353 0 17.128607454522353 1.7858952265387416 0 0 0 0 -20.187740553847561 12.213975874257727 0 12.213975874257727 -15.85833185706214 0 0 0 0 -27.610845119984219 -0.34082359425210029 0 -0.34082359425210029 -22.393840913516406 0 0 0 0 -38.039108688477427 28.605219096614746 0 28.605219096614746 -30.71224004213127 0 0 0 0 -80.590001828153618 73.2404965126143 0 73.2404965126143 -64.921703448013886 0 0 0 0 -5.343844551039524 8.0259506669882512 0 8.0259506669882512 -12.145443518191023 0 0 0 0 -54.68073760344123 172.65735911362594 0 172.65735911362594 -301.58351184731146 0 0 0 0 -11.694199195582371 23.925081030464099 0 23.925081030464099 -24.694360970334579 0 0 0 0 -24.975124448875533 16.462722963810577 0 16.462722963810577 -9.7568366205383512 0 0 0 0 -35.492405396769755 11.981401068810101 0 11.981401068810101 4.4027834956796141 0 0 0 0 -33.466527576689259 21.300824613387249 0 21.300824613387249 -8.5984969743985857 0 0 0 0 -36.587183610652573 27.635252753012537 0 27.635252753012537 -18.929192326380871 0 0 0 0 -6.4446479095167888 4.4345927758103727 0 4.4345927758103727 2.4862238375991197 0 0 0 0 -41.029621293360833 4.6306340319615629 0 4.6306340319615629 17.78536221575996 0 0 0 0 -12.530784102040343 -2.597218347950303 0 -2.597218347950303 -2.2134882571133758 0 0 0 0 -481.28372358551132 205.22848549288119 0 205.22848549288119 11.041713824263297 0 0 0 0 -35.078549609883339 303.76004723290771 0 303.76004723290771 -157.81208300097751 0 0 0 0 -853.67919087634073 44.163351915014573 0 44.163351915014573 -30.95282921249418 0 0 0 0 3.0555142765446135 -0.061795198417684105 0 -0.061795198417684105 -9.4827805221243011 0 0 0 0 -433.0596572495997 503.85928637761026 0 503.85928637761026 -10.685821817911346 0 0 0 0 -465.56319549874752 151.85792320797373 0 151.85792320797373 -10.26913773477645 0 0 0 0 -35.357013384875216 -234.03693017117052 0 -234.03693017117052 -26.553906094828562 0 0 0 0 -121.00907488651865 17.461033248470358 0 17.461033248470358 -27.682449042325288 0 0 0 0 -45.874465362922138 -34.684298735894686 0 -34.684298735894686 6.7324836412914699 0 0 0 0 -252.65892828590586 235.95423616348489 0 235.95423616348489 -39.392943354074305 0 0 0 0 -63.874646066114991 -17.837144174752808 0 -17.837144174752808 16.763533897683679 0 0 0 0 -394.30748456330912 -222.84474739928191 0 -222.84474739928191 49.427965007584021 0 0 0 0 -126.61665732641995 52.137591221148341 0 52.137591221148341 -50.090876450321502 0 0 0 0 -145.47309857873915 42.56542190669461 0 42.56542190669461 -49.111179961214475 0 0 0 0 -161.11904989133473 43.558349611857921 0 43.558349611857921 -13.016638006572066 0 0 0 0 -158.94417484951236 80.789612816550743 0 80.789612816550743 -65.823863297442585 0 0 0 0 -179.87442291423213 107.70113444125991 0 107.70113444125991 -30.167762402856624 0 0 0 0 -228.74039720765541 100.71970247787374 0 100.71970247787374 -17.252954966441393 0 0 0 0 -205.96657187502569 40.199972293055339 0 40.199972293055339 -25.087021225641365 0 0 0 0 -876.57788652470845 -124.02740092157319 0 -124.02740092157319 500.87070459388087 0 0 0 0 -103.42379068887539 18.267682171536542 0 18.267682171536542 7.7094234718253176 0 0 0 0 -97.779331112592629 44.635199255874298 0 44.635199255874298 -4.1991895741855183 0 0 0 0 -189.19095086406742 130.17802931176629 0 130.17802931176629 -1.7643126657349057 0 0 0 0 -97.862591663740886 42.984073375246624 0 42.984073375246624 -5.9711803588106838 0 0 0 0 -136.28278702675379 -3.3008515159667695 0 -3.3008515159667695 -0.035515696838047006 0 0 0 0 -96.124157945321997 19.19327397263136 0 19.19327397263136 -3.9676880559226184 0 0 0 0 -165.13524036618765 59.037282454234173 0 59.037282454234173 -28.443667933477627 0 0 0 0 -172.75926074617018 54.29602475241245 0 54.29602475241245 -42.418683538576261 0 0 0 0 -98.83884628196239 24.005179024134296 0 24.005179024134296 2.2216160874864492 0 0 0 0 -138.45974612731879 11.082757383648186 0 11.082757383648186 -41.224794139799997 0 0 0 0 -208.53302291673026 37.421693689017957 0 37.421693689017957 -15.8714088965271 0 0 0 0 -118.8507649230778 -52.243779745792381 0 -52.243779745792381 196.81798169054218 0 0 0 0 -105.21586238951932 -52.754976611453458 0 -52.754976611453458 194.14654693448983 0 0 0 0 -155.82133011472433 -89.565733271566387 0 -89.565733271566387 316.99031426392958 0 0 0 0 -111.27066389164247 289.81475927799602 0 289.81475927799602 -11.498559649046115 0 0 0 0 -74.102961038472131 326.40884577140514 0 326.40884577140514 369.72815548263191 0 0 0 0 -87.015306114049963 206.93676312223647 0 206.93676312223647 -13.333953180582284 0 0 0 0 -295.85022378716167 305.73480083494815 0 305.73480083494815 -25.26386684139095 0 0 0 0 -186.00344470704476 235.70558132846463 0 235.70558132846463 -40.638012538170187 0 0 0 0 -25.484749100443878 -32.217977848336432 0 -32.217977848336432 28.765937825594847 0 0 0 0 -89.026181193657067 126.26631306274749 0 126.26631306274749 -260.28872537254028 0 0 0 0 -165.23570613515221 263.9832421043825 0 263.9832421043825 -12.603364030040211 0 0 0 0 52.193540429028872 417.82069855735426 0 417.82069855735426 -354.38914100632155 0 0 0 0 -377.43367869441136 386.77202208910057 0 386.77202208910057 -139.35057216585096 0 0 0 0 27.058533438084851 20.874785101629186 0 20.874785101629186 -423.29775767864288 0 0 0 0 -99.056641731696288 22.435352955911384 0 22.435352955911384 2.48693651960855 0 0 0 0 -4.4010489054897377 3.7584865224854038 0 3.7584865224854038 -3.5218348249064668 0 0 0 0 -2.3445856075959455 63.918921608065773 0 63.918921608065773 59.028792216642614 0 0 0 0 -37.736748422439632 373.83416122924768 0 373.83416122924768 108.2892041742607 0 0 0 0 -135.12399126810806 -5.3437332193888381 0 -5.3437332193888381 12.374609182805216 0 0 0 0 -244.02518636713285 -5.0741272265222506 0 -5.0741272265222506 20.791136967962188 0 0 0 0 -835.20428650183567 -58.765475147513371 0 -58.765475147513371 15.920208748684672 0 0 0 0 -456.50195131002511 120.96656340421532 0 120.96656340421532 62.693547208973541 0 0 0 0 -235.69883421059785 13.226490079088308 0 13.226490079088308 60.499814595275438 0 0 0 0 -204.039215973723 95.715920763724284 0 95.715920763724284 47.871945246763971 0 0 0 0 -129.58759330781868 42.579700413403316 0 42.579700413403316 9.5910655595962453 0 0 0 0 -123.1559451551966 31.569244595233613 0 31.569244595233613 49.233418101514872 0 0 0 0 -137.77086149120396 -19.638077751621609 0 -19.638077751621609 125.96682243134637 0 0 0 0 -177.49401134451546 13.234444515665928 0 13.234444515665928 89.828905196679898 0 0 0 0 -136.43328663783086 66.277560562381382 0 66.277560562381382 11.690966937581834 0 0 0 0 -170.93689679423551 84.666352136810929 0 84.666352136810929 9.418691481823398 0 0 0 0 -169.65948994582232 51.724981401654077 0 51.724981401654077 -108.61467532280858 0 0 0 0 -114.04129206129073 148.61703723549226 0 148.61703723549226 -86.748199355398697 0 0 0 0 -133.82037195408247 108.32698659663652 0 108.32698659663652 -164.17126551464662 0 0 0 0 50.988325516092118 222.13413326358227 0 222.13413326358227 -171.61805625333272 0 0 0 0 -165.57526570969185 224.50765451083225 0 224.50765451083225 -43.73796140169452 0 0 0 0 -241.42227789657409 125.01581300456519 0 125.01581300456519 28.244187606743935 0 0 0 0 -179.49291118250221 180.57850014607584 0 180.57850014607584 -52.603005677933652 0 0 0 0 -573.96222718872491 -320.4037147182097 0 -320.4037147182097 -132.9383381704356 0 0 0 0 -473.80396030188967 44.531013421876651 0 44.531013421876651 166.13657746015451 0 0 0 0 -276.37493047341195 37.771830367386428 0 37.771830367386428 239.19786762738249 0 0 0 0 -623.22679483690899 -100.91082141710098 0 -100.91082141710098 508.36140370797693 0 0 0 0 -299.20361308335669 -139.98290947718715 0 -139.98290947718715 358.77933153985578 0 0 0 0 -150.98875185885299 54.230567965538739 0 54.230567965538739 626.1719030149693 0 0 0 0 -3.4564632353853568 0.17143214327229916 0 0.17143214327229916 3.6699532183084393 0 0 0 0 -4.1376481755960413 -150.82850877779128 0 -150.82850877779128 512.32201543535575 0 0 0 0 48.78692661745481 109.62919793056471 0 109.62919793056471 76.101992578162026 0 0 0 0 -4.2431619891716323 2.4566050824171128 0 2.4566050824171128 1.0417610546954101 0 0 0 0 -90.332093527718825 -9.7869419522721728 0 -9.7869419522721728 120.35818800692186 0 0 0 0 -79.156578871636157 54.824998671168032 0 54.824998671168032 456.85096988142186 0 0 0 0 -78.302042590530618 -37.908652499508207 0 -37.908652499508207 132.64518277845127 0 0 0 0 -56.706557044870351 27.670768064255753 0 27.670768064255753 26.025807944659391 0 0 0 0 -45.176763920593658 64.991011584728767 0 64.991011584728767 144.041214248345 0 0 0 0 16.076421963154644 -4.5286206107673479 0 -4.5286206107673479 -10.631582957157661 0 0 0 0 -26.386105633736577 15.892507890964218 0 15.892507890964218 -7.6639145964562587 0 0 0 0 -60.317013945676081 32.802299780030808 0 32.802299780030808 26.815422507725998 0 0 0 0 -21.171638635588891 30.173889586934848 0 30.173889586934848 11.749655707418242 0 0 0 0 -21.067365778793828 36.979616255650853 0 36.979616255650853 27.317549958228028 0 0 0 0 -13.230191420133849 10.864115575810498 0 10.864115575810498 -8.8177966453374665 0 0 0 0 -85.754414358527242 26.021014973143092 0 26.021014973143092 -6.6851866551961345 0 0 0 0 -141.63044408761198 15.522179856102184 0 15.522179856102184 49.094727658533884 0 0 0 0 -41.417430349854534 1.6464716209199111 0 1.6464716209199111 15.245895052313639 0 0 0 0 -217.93862765827362 181.88621352040991 0 181.88621352040991 -103.23780082359644 0 0 0 0 -121.4334709270006 22.071771865220114 0 22.071771865220114 19.357772067530959 0 0 0 0 -32.559751656710354 -6.3751775219515636 0 -6.3751775219515636 19.341896098063529 0 0 0 0 -322.38364889281365 426.40324186700764 0 426.40324186700764 112.8890815909258 0 0 0 0 -535.68146576062827 74.980378918881343 0 74.980378918881343 334.60263574130295 0 0 0 0 -99.316509681143799 21.994014394154451 0 21.994014394154451 1.8671505727530615 0 0 0 0 -250.48125072807306 432.12455263147604 0 432.12455263147604 -220.9756364583518 0 0 0 0 -139.95445156387359 270.11833078996528 0 270.11833078996528 -514.81280405543339 0 0 0 0 -50.379333854314609 -33.471269544336337 0 -33.471269544336337 54.228699292334085 0 0 0 0 -351.97879751297296 -153.82725426528486 0 -153.82725426528486 -12.284838830178273 0 0 0 0 -6.4515111987949467 -7.9923303280251812 0 -7.9923303280251812 6.412952518481613 0 0 0 0 96.319289157505409 -21.729050883056289 0 -21.729050883056289 -36.401485708390283 0 0 0 0 -162.5509575383112 -6.6420913987362837 0 -6.6420913987362837 85.959667441857164 0 0 0 0 -214.26197618241713 53.56450796099125 0 53.56450796099125 26.398081514324076 0 0 0 0 -281.12608179789095 4.920084350511388 0 4.920084350511388 95.872162700588888 0 0 0 0 -472.50364462215657 -80.665048851444908 0 -80.665048851444908 101.97327435741886 0 0 0 0 -95.791704940027557 82.497749710147218 0 82.497749710147218 67.059783287790196 0 0 0 0 -98.926683655417435 22.377054614153003 0 22.377054614153003 9.0933412364934547 0 0 0 0 -216.10041777853257 34.751960633585441 0 34.751960633585441 99.629836322172196 0 0 0 0 -205.89788356032659 25.107677179849816 0 25.107677179849816 80.142058109288882 0 0 0 0 -142.18988194756821 111.43665432136549 0 111.43665432136549 -41.539551446492624 0 0 0 0 -206.2720575088606 123.30421111423311 0 123.30421111423311 -64.138530684458146 0 0 0 0 -180.74684624543625 98.709533352698287 0 98.709533352698287 -45.484896218154972 0 0 0 0 -205.96242333212103 131.44812378684702 0 131.44812378684702 -240.12428681044094 0 0 0 0 -144.52648732399393 96.588429774456245 0 96.588429774456245 -158.78737050277459 0 0 0 0 -57.921741568337893 -100.69122160699681 0 -100.69122160699681 42.156475071806199 0 0 0 0 -131.41077789159681 -81.347420199732824 0 -81.347420199732824 0.92626113850110414 0 0 0 0 -37.802097144092521 -45.941369008980018 0 -45.941369008980018 49.662095560492276 0 0 0 0 -416.02369623005507 -116.54355550244418 0 -116.54355550244418 127.64681781453419 0 0 0 0 -410.57240836528945 171.68266168357695 0 171.68266168357695 31.666771701325843 0 0 0 0 -397.05004073533928 56.524704122570256 0 56.524704122570256 -151.4490589617435 0 0 0 0 -502.73231096570089 201.65880197400065 0 201.65880197400065 -257.56360679498721 0 0 0 0 -470.05891099042492 220.89426392532505 0 220.89426392532505 -264.877374794145 0 0 0 0 58.796747643682465 -77.384007597273012 0 -77.384007597273012 -94.359008667994203 0 0 0 0 -50.455496796041921 -40.249656823806703 0 -40.249656823806703 39.374368109117647 0 0 0 0 3.5294977067419495 -9.6272451312524723 0 -9.6272451312524723 1.7340763428468211 0 0 0 0 -487.64107407678966 172.25375575721046 0 172.25375575721046 -258.37158996483504 0 0 0 0 -408.71348505152855 188.7005730878318 0 188.7005730878318 -257.12663814431653 0 0 0 0 -428.20113320204109 183.83182235105755 0 183.83182235105755 -320.79436141063343 0 0 0 0 -567.72472844368167 -79.333699073688649 0 -79.333699073688649 -380.95876931530802 0 0 0 0 -100.24566701413534 8.7285760004238639 0 8.7285760004238639 -0.24688406868179569 0 0 0 0 -326.18724989160546 89.379202499711027 0 89.379202499711027 -233.65723417860477 0 0 0 0 -474.1673537355091 -4.7335937694518861 0 -4.7335937694518861 211.44903981672371 0 0 0 0 -261.23711013818684 161.58833191120107 0 161.58833191120107 20.81768107492195 0 0 0 0 -512.27646385542175 81.808599748701184 0 81.808599748701184 54.898698721314759 0 0 0 0 -530.72386551821546 -9.0458849906871421 0 -9.0458849906871421 42.499253160161118 0 0 0 0 -517.37191128623454 199.78662804332038 0 199.78662804332038 -71.12764901586479 0 0 0 0 -408.64674781011126 -31.173524806604178 0 -31.173524806604178 -123.63685554803783 0 0 0 0 -666.03959175682394 86.362436989113348 0 86.362436989113348 -23.064701928860813 0 0 0 0 -98.696937953949487 17.607357371632965 0 17.607357371632965 -1.0411395615756531 0 0 0 0 -583.03215994266793 -18.530831279041422 0 -18.530831279041422 463.21574042258663 0 0 0 0 -16.839919001587759 -4.3426913037264399 0 -4.3426913037264399 5.4146564155999561 0 0 0 0 -20.944960962573532 39.087139605613515 0 39.087139605613515 -118.29838162182966 0 0 0 0 -99.322648570254046 10.159501908911164 0 10.159501908911164 -0.54833373313181555 0 0 0 0 -483.03288789081853 36.747473222001958 0 36.747473222001958 -153.27353855328352 0 0 0 0 -604.00850870837166 -53.259933983023927 0 -53.259933983023927 240.73504918903154 0 0 0 0 -485.32500570455159 29.099539995675372 0 29.099539995675372 132.18184865358717 0 0 0 0 -493.6000867288094 57.185239763106438 0 57.185239763106438 -145.49056565898252 0 0 0 0 -46.894068921086728 44.223346381290526 0 44.223346381290526 -25.871457054660823 0 0 0 0 -163.33433917580987 -25.601231943990229 0 -25.601231943990229 -55.676169257894912 0 0 0 0 -136.47736522107152 -58.251698873349596 0 -58.251698873349596 -153.79476726017765 0 0 0 0 -13.549390366882818 8.2008170438585353 0 8.2008170438585353 2.6534785775424314 0 0 0 0 -192.68556422967231 54.15263825481702 0 54.15263825481702 54.788060586864049 0 0 0 0 -0.18308036585187892 13.021917314798843 0 13.021917314798843 -5.1425532417697601 0 0 0 0 -69.486333543474075 40.18730575858973 0 40.18730575858973 -14.601194349747763 0 0 0 0 -93.94313922591391 -41.363817882291187 0 -41.363817882291187 -69.790911773668711 0 0 0 0 -10.937007942935452 130.64123398595302 0 130.64123398595302 -83.960345599200309 0 0 0 0 -210.45455828835838 21.935433068732266 0 21.935433068732266 27.241297072547695 0 0 0 0 -147.03686955117882 83.103536629862504 0 83.103536629862504 -34.989463200647151 0 0 0 0 -148.73651250069088 50.595177662679191 0 50.595177662679191 37.899454325556576 0 0 0 0 -46.80898131855065 91.398492469950043 0 91.398492469950043 0.29267307928080299 0 0 0 0 -40.989881052111741 61.258214189135742 0 61.258214189135742 36.743044442448422 0 0 0 0 -225.6223993122403 58.224413784084277 0 58.224413784084277 226.11879076783293 0 0 0 0 -100.9504372270469 6.9880699703468707 0 6.9880699703468707 1.1646700752245112 0 0 0 0 -299.31472515968198 -11.76127441900644 0 -11.76127441900644 -195.7772822153629 0 0 0 0 -193.63282353581599 86.3188155361795 0 86.3188155361795 -118.60997804524459 0 0 0 0 -107.02383711907896 -9.2037090731466833 0 -9.2037090731466833 -114.60217988161276 0 0 0 0 68.902032819940359 -91.868659368625686 0 -91.868659368625686 -170.5370441556488 0 0 0 0 -59.942644502259355 -34.471315578758379 0 -34.471315578758379 0.5788465475077551 0 0 0 0 -127.99801309486793 -2.8365884510460546 0 -2.8365884510460546 -45.820276714270932 0 0 0 0 -3.5381446094040712 -2.8305160030819607 0 -2.8305160030819607 -1.6313891269982554 0 0 0 0 -139.11418263792439 7.7950834919668068 0 7.7950834919668068 -34.735443482272785 0 0 0 0 -70.199168108942104 90.832263915740896 0 90.832263915740896 64.280374516048596 0 0 0 0 -99.543438388115362 3.0048872111566425 0 3.0048872111566425 1.9397744730613775 0 0 0 0 -669.90480352622399 505.40452503106781 0 505.40452503106781 -259.05042140392061 0 0 0 0 -68.826817030247184 29.866116431247974 0 29.866116431247974 27.973052733384975 0 0 0 0 -5.0767703792942882 -1.8757684178611811 0 -1.8757684178611811 1.6888500938929045 0 0 0 0 -11.835485532035818 -46.403244157183735 0 -46.403244157183735 -28.058303407288804 0 0 0 0 -749.92062979549519 62.163101149374597 0 62.163101149374597 219.318722567858 0 0 0 0 -462.5753665145894 104.05999429268059 0 104.05999429268059 20.557513483205753 0 0 0 0 -477.68412785101464 55.064348833261761 0 55.064348833261761 -38.023986635975234 0 0 0 0 -162.87321238298318 40.36010955533618 0 40.36010955533618 -162.23879242844441 0 0 0 0 -188.85715680656722 -66.005782605592685 0 -66.005782605592685 -28.919187032312266 0 0 0 0 -105.96615847534122 -43.530168536914061 0 -43.530168536914061 -103.4842073937034 0 0 0 0 -68.332346986549965 58.023267847642273 0 58.023267847642273 -85.531339417572781 0 0 0 0 -343.06233462039381 -65.557505897530973 0 -65.557505897530973 -82.161402504443345 0 0 0 0 -74.923044063150883 28.729074796905252 0 28.729074796905252 -54.325513727535736 0 0 0 0 -255.23999692939833 79.864118458190433 0 79.864118458190433 -9.3968569285492549 0 0 0 0 -529.52712743310258 136.57638915089458 0 136.57638915089458 -18.719119428307522 0 0 0 0 -273.59300806188548 78.181081162862654 0 78.181081162862654 25.234231913395888 0 0 0 0 -256.60334630552097 82.401243279003893 0 82.401243279003893 -28.155963952409365 0 0 0 0 -265.8403804003683 78.542201922451483 0 78.542201922451483 25.206587016783942 0 0 0 0 -198.59259166391348 -11.426245366574278 0 -11.426245366574278 42.770713743382657 0 0 0 0 -15.130968510084614 -9.7401582939082942 0 -9.7401582939082942 -4.2239682755912611 0 0 0 0 -314.16433074805536 38.898741114242398 0 38.898741114242398 39.306353299357397 0 0 0 0 -66.501262538669835 3.0844507013896916 0 3.0844507013896916 -28.817915487779942 0 0 0 0 -36.106060818492551 67.923440698670447 0 67.923440698670447 39.352041688366398 0 0 0 0 -8.0717930187689149 4.6077519177071906 0 4.6077519177071906 8.0819067224369974 0 0 0 0 -191.55651551453047 178.41605965456756 0 178.41605965456756 -175.98858401416493 0 0 0 0 -120.81313105253503 127.77148990281387 0 127.77148990281387 -143.12723070111008 0 0 0 0 -192.11782284699439 15.172115287344468 0 15.172115287344468 -6.1989097312834929 0 0 0 0 -269.24401778329047 105.56304940531345 0 105.56304940531345 -8.5675369490609228 0 0 0 0 -81.139959764783271 88.042550223551189 0 88.042550223551189 -54.473368205887937 0 0 0 0 -84.990463238631492 69.15694797783226 0 69.15694797783226 -9.6401722802074801 0 0 0 0 -321.33121194841806 27.732512341110123 0 27.732512341110123 7.9194134863432737 0 0 0 0 39.348858735756949 -41.624777284616357 0 -41.624777284616357 14.442786336858717 0 0 0 0 -146.52419864438707 -55.008697315357495 0 -55.008697315357495 15.819653004883435 0 0 0 0 -466.24300662413589 -85.946516806120599 0 -85.946516806120599 295.5451521680543 0 0 0 0 -700.98229327227455 901.70555578749554 0 901.70555578749554 -258.57028662255834 0 0 0 0 -2.9335220141262539 -3.5467574479592372 0 -3.5467574479592372 1.1368078881714752 0 0 0 0 -207.72140901606326 -78.949985083941328 0 -78.949985083941328 18.049234538999372 0 0 0 0 -76.534018833714072 20.765383740848847 0 20.765383740848847 28.916454216324382 0 0 0 0 -258.88739101287501 4.0161768294387912 0 4.0161768294387912 39.197605231147463 0 0 0 0 -63.054951630125288 71.067886968732637 0 71.067886968732637 -7.8823221007787652 0 0 0 0 -2.4655462056601323 16.184253038917788 0 16.184253038917788 -10.145195481554564 0 0 0 0 -71.245504023891527 31.692761330888715 0 31.692761330888715 -8.1180584784417888 0 0 0 0 -72.765515743489232 111.34448813662675 0 111.34448813662675 25.267041905950464 0 0 0 0 -87.349662049211474 60.075751521403959 0 60.075751521403959 24.389588317209927 0 0 0 0 -152.91290992785071 116.60154181583175 0 116.60154181583175 0.91487884821799526 0 0 0 0 -414.79360225184064 -41.906249636776465 0 -41.906249636776465 223.31291977266665 0 0 0 0 22.556137261082768 -272.07466329400722 0 -272.07466329400722 229.8048223309097 0 0 0 0 -6.5177645810657907 -3.500153774519859 0 -3.500153774519859 -0.76815271096218929 0 0 0 0 -243.47329040168552 82.526245143363212 0 82.526245143363212 -38.066542914939873 0 0 0 0 -274.8933285057974 136.51131666117863 0 136.51131666117863 -58.36639545347407 0 0 0 0 -668.65398213555454 278.88767425418484 0 278.88767425418484 60.347087186831232 0 0 0 0 -6.7384816767294069 1.1006387734187939 0 1.1006387734187939 0.11517367846336235 0 0 0 0 341.41334629822813 -298.50035272317723 0 -298.50035272317723 70.344915287379536 0 0 0 0 500.7390928483801 -263.28607933543844 0 -263.28607933543844 -191.19926533999751 0 0 0 0 -234.55074803449679 -76.056222400087336 0 -76.056222400087336 -28.862583336795069 0 0 0 0 -195.06436486166785 70.10602725694298 0 70.10602725694298 -16.834248414620561 0 0 0 0 -193.07551929092733 -46.139777125557202 0 -46.139777125557202 -17.990430050009309 0 0 0 0 -69.753304542036858 21.559131431821243 0 21.559131431821243 -2.202658778774067 0 0 0 0 -77.605230725836009 14.110278915542949 0 14.110278915542949 6.9037106282448804 0 0 0 0 -135.41027659259271 -0.55963931841142767 0 -0.55963931841142767 -6.0222102653206093 0 0 0 0 -178.60833685657417 -93.743661472017266 0 -93.743661472017266 4.3430254241829971 0 0 0 0 -60.470629449002445 -286.67528635763301 0 -286.67528635763301 151.47255341456912 0 0 0 0 -146.24906897047185 -60.746890116075519 0 -60.746890116075519 -31.817434076659993 0 0 0 0 -90.435842649661936 106.93371885776651 0 106.93371885776651 129.82853724274162 0 0 0 0 -94.156254891946446 17.674206003310246 0 17.674206003310246 -27.061809633461962 0 0 0 0 -22.459610910457712 1.6777030841340377 0 1.6777030841340377 5.8629274228233506 0 0 0 0 -355.48238820882398 325.49480741479738 0 325.49480741479738 166.77851940708933 0 0 0 0 -15.62910909946595 11.734267024404232 0 11.734267024404232 5.6816173765450841 0 0 0 0 -61.445149900826152 10.310346421669607 0 10.310346421669607 -4.1514449179168267 0 0 0 0 -72.206061691351351 10.424180920180333 0 10.424180920180333 2.8767745290115272 0 0 0 0 -53.737913903450362 5.1950877296704903 0 5.1950877296704903 2.2278647488769998 0 0 0 0 -61.307982660771813 13.888687807183487 0 13.888687807183487 3.4875793059545686 0 0 0 0 -44.761486285773572 10.576561098392631 0 10.576561098392631 2.7571735711071597 0 0 0 0 -52.400202427917975 8.5820396811050159 0 8.5820396811050159 4.0684552955690378 0 0 0 0 -62.495452680625021 5.6793380888884712 0 5.6793380888884712 6.6232477570983974 0 0 0 0 -42.974426082371053 7.1741219300220251 0 7.1741219300220251 1.7522283561992005 0 0 0 0 -37.933636749671962 6.315329940734955 0 6.315329940734955 -3.5899353440293336 0 0 0 0 -64.892580065170478 -31.468004674989743 0 -31.468004674989743 -1.0390746959055832 0 0 0 0 -51.934971623908496 10.051425455220851 0 10.051425455220851 2.7045626596739112 0 0 0 0 -52.137083548892406 5.5049033827967833 0 5.5049033827967833 -2.674599578453126 0 0 0 0 -37.013908012583954 -5.1223071769305761 0 -5.1223071769305761 -0.90498339681129991 0 0 0 0 -50.896459505573148 9.0773244735200933 0 9.0773244735200933 -1.2193681436497172 0 0 0 0 -45.492377113166697 4.2264192062909274 0 4.2264192062909274 -4.3745939403324314 0 0 0 0 -79.329350607848028 -10.767902771413901 0 -10.767902771413901 35.297896251413476 0 0 0 0 -69.896746563823001 14.128065421610103 0 14.128065421610103 0.70908010514901498 0 0 0 0 -109.91700460354332 -43.422206573859512 0 -43.422206573859512 157.13033653682578 0 0 0 0 168.50789512787014 -164.67952920342577 0 -164.67952920342577 -130.78432432344198 0 0 0 0 -77.318912322632968 8.5964398983796855 0 8.5964398983796855 2.6721636223719543 0 0 0 0 -26.180014802871597 9.2599570710867312 0 9.2599570710867312 -6.3984477716675858 0 0 0 0 -57.169513838889543 43.969547298468569 0 43.969547298468569 -0.94642308166532985 0 0 0 0 -23.27027569047641 10.054628591893561 0 10.054628591893561 -1.4725453990977257 0 0 0 0 -8.1571191765833646 -8.5900760167419321 0 -8.5900760167419321 58.001467190475523 0 0 0 0 -3.3032239390206541 17.433662024771209 0 17.433662024771209 -4.1406641883396027 0 0 0 0 66.602177945227595 21.11238155547926 0 21.11238155547926 -11.965307667986053 0 0 0 0 -95.6098063896643 76.587482653109873 0 76.587482653109873 90.264729297192389 0 0 0 0 -61.125166577772006 40.453415588989287 0 40.453415588989287 2.2293119310687839 0 0 0 0 0.081344017409719527 26.5578077859318 0 26.5578077859318 25.798371954937465 0 0 0 0 -51.21760400663203 31.489250432082585 0 31.489250432082585 -2.7372146222248457 0 0 0 0 -32.43875958018009 13.217521837657557 0 13.217521837657557 -5.9573389163418984 0 0 0 0 -57.271998445214763 4.6300365203860849 0 4.6300365203860849 2.3212015921727271 0 0 0 0 -52.272390704452846 8.0408890119926468 0 8.0408890119926468 2.6481964187278209 0 0 0 0 -79.043628603685647 29.899941245077571 0 29.899941245077571 -4.9150959984272049 0 0 0 0 -41.18449054450474 5.4451498236017102 0 5.4451498236017102 -4.4632601135560588 0 0 0 0 -10.115520337829366 -45.105589801190945 0 -45.105589801190945 3.8310216126701562 0 0 0 0 -8.5822922075909105 -2.4640740403443147 0 -2.4640740403443147 3.4146356382070913 0 0 0 0 -44.641407192480983 -12.352953821778101 0 -12.352953821778101 10.690688936858805 0 0 0 0 -39.226569420020212 10.91616898992288 0 10.91616898992288 -1.3550173713877971 0 0 0 0 -49.535737013025937 9.0831550378663906 0 9.0831550378663906 -2.5311442762649676 0 0 0 0 -52.475681452628123 6.9827875718899008 0 6.9827875718899008 3.0915212585387053 0 0 0 0 -36.278493637289159 7.1251519254192175 0 7.1251519254192175 0.39295527386154383 0 0 0 0 -24.100528913425705 0.53635091018989556 0 0.53635091018989556 0.8306061967642222 0 0 0 0 -18.373232805344742 6.2551333020769562 0 6.2551333020769562 -5.9653187531048388 0 0 0 0 -50.253887155966368 7.8831036964829764 0 7.8831036964829764 8.5712068872717282 0 0 0 0 -18.945731474726927 5.1470283326630124 0 5.1470283326630124 -3.3430737041426255 0 0 0 0 -11.408339213149816 0.035163539750456607 0 0.035163539750456607 -0.79123635151767324 0 0 0 0 5.2213328268844634 -7.1443706251177446 0 -7.1443706251177446 -7.9464911415334427 0 0 0 0 1.6563834897824563 31.585559176914103 0 31.585559176914103 -97.095266294201792 0 0 0 0 1.0521601899408211 2.9065720078492916 0 2.9065720078492916 -7.1749379930450798 0 0 0 0 -5.443831328273518 -33.220636014049433 0 -33.220636014049433 -67.237600799040592 0 0 0 0 -217.19385587514262 99.391195051910472 0 99.391195051910472 -43.88823430903858 0 0 0 0 -142.83105027425336 115.38263074543215 0 115.38263074543215 -87.012673599324899 0 0 0 0 -151.1713713297213 44.560408949657358 0 44.560408949657358 30.348516496486809 0 0 0 0 -37.224858310644777 84.415713096638399 0 84.415713096638399 -118.23771905287595 0 0 0 0 -80.616294765583007 -24.768010155211414 0 -24.768010155211414 33.153372017516176 0 0 0 0 -29.641941914887866 2.1692310594685296 0 2.1692310594685296 25.455114124413285 0 0 0 0 -14.82682660370989 -5.5474802825837486 0 -5.5474802825837486 -1.6321405585851458 0 0 0 0 -19.293637859926093 149.61190780757215 0 149.61190780757215 -291.53097716405364 0 0 0 0 -187.66334308465593 11.395025372774853 0 11.395025372774853 -14.649157746570381 0 0 0 0 -119.9664869820117 356.79377069342854 0 356.79377069342854 -611.72219758984193 0 0 0 0 -1071.8212111967732 780.95511647226067 0 780.95511647226067 -348.07496069436729 0 0 0 0 -1053.6875138558971 237.60474204758475 0 237.60474204758475 206.20194137866247 0 0 0 0 -364.10702380392468 350.25059991454782 0 350.25059991454782 -158.70591027693763 0 0 0 0 -750.31756652519107 452.47777055009556 0 452.47777055009556 -92.33202961898985 0 0 0 0 -399.49238141821115 298.39309036554459 0 298.39309036554459 -132.40489874339778 0 0 0 0 -182.1451682625484 194.83830526550395 0 194.83830526550395 -113.94978077419637 0 0 0 0 -454.04615001342609 243.73219000277072 0 243.73219000277072 -66.109115385662108 0 0 0 0 -384.06631456571631 273.25163623894332 0 273.25163623894332 -89.556380856555052 0 0 0 0 -408.83170949382475 292.09591261899482 0 292.09591261899482 -124.66185611716833 0 0 0 0 -776.17749412130797 184.53381173934116 0 184.53381173934116 79.224214521277418 0 0 0 0 -480.01799784076138 313.57599535219407 0 313.57599535219407 -24.343236546719709 0 0 0 0 -580.0058174279402 67.143105605695155 0 67.143105605695155 100.43989704778278 0 0 0 0 -502.79585932972259 7.970761377357519 0 7.970761377357519 130.44059240117281 0 0 0 0 -422.21999635599059 -139.5748163491767 0 -139.5748163491767 136.95429289537901 0 0 0 0 -429.4320076299482 99.761923115532568 0 99.761923115532568 -253.7792380306764 0 0 0 0 161.06027467537206 233.94741385599411 0 233.94741385599411 118.2590324026221 0 0 0 0 -297.39773906874871 642.50796104145161 0 642.50796104145161 -105.49608840118935 0 0 0 0 372.69822850509081 -247.02195526040077 0 -247.02195526040077 -310.23671433561628 0 0 0 0 -28.288370025891538 3.2513152357153956 0 3.2513152357153956 10.110065929145094 0 0 0 0 -22.555400118231773 70.505784307953036 0 70.505784307953036 -24.751928437218766 0 0 0 0 -74.017950967841898 12.879695491701113 0 12.879695491701113 177.64959643993643 0 0 0 0 -66.89677741858884 38.514561796176409 0 38.514561796176409 -15.808870481129349 0 0 0 0 150.14641921746079 24.155879742452271 0 24.155879742452271 -93.870252955499382 0 0 0 0 -228.70678681480058 297.03994945426882 0 297.03994945426882 101.82012947157637 0 0 0 0 -44.166367033205461 167.94142058688567 0 167.94142058688567 41.440550613645058 0 0 0 0 -25.31029169834801 221.79311055785479 0 221.79311055785479 -82.693424449500725 0 0 0 0 1.2460309212613083 1.2184247815351057 0 1.2184247815351057 -2.6110049083427205 0 0 0 0 333.49072017561411 -393.47862999732195 0 -393.47862999732195 -106.97544240539037 0 0 0 0 -3.3454793973372148 3.2293747723544328 0 3.2293747723544328 -3.0219526067341755 0 0 0 0 -471.64406065066578 159.77659127489414 0 159.77659127489414 60.75168119954651 0 0 0 0 -257.00720721280959 97.42813822840435 0 97.42813822840435 -21.746395267346543 0 0 0 0 -448.61648628860348 190.28157970459503 0 190.28157970459503 -23.106771753972225 0 0 0 0 -337.63259532760276 31.474362330493364 0 31.474362330493364 -132.26764469416594 0 0 0 0 -465.39736635153531 3.6280327828084182 0 3.6280327828084182 26.66358721955703 0 0 0 0 -489.53042812505737 -92.012308376986539 0 -92.012308376986539 27.133375345608329 0 0 0 0 -546.58560794813093 -8.0124382931162472 0 -8.0124382931162472 -82.040617355667564 0 0 0 0 -429.4865688696591 -86.805555729094522 0 -86.805555729094522 -29.093557970088341 0 0 0 0 -483.80316352337832 -168.82579802056716 0 -168.82579802056716 -52.695674329752364 0 0 0 0 -468.32366313421517 -190.84941927944965 0 -190.84941927944965 -154.35156126747097 0 0 0 0 -282.09125812532147 -153.32503340442031 0 -153.32503340442031 -59.516638217466152 0 0 0 0 -331.81989827231155 -78.859854662820226 0 -78.859854662820226 27.791302627030291 0 0 0 0 -412.27104496434913 -53.39027399158914 0 -53.39027399158914 78.649982879426716 0 0 0 0 -339.77873286431713 2.4646243353303134 0 2.4646243353303134 24.897211211237476 0 0 0 0 -335.67982062410738 30.001350723090354 0 30.001350723090354 115.56093256298902 0 0 0 0 -316.12679788577952 -19.179108981194219 0 -19.179108981194219 81.831495955043437 0 0 0 0 -260.1205396107398 49.656423759347945 0 49.656423759347945 85.759182395505775 0 0 0 0 -238.9006907205985 63.692635219241893 0 63.692635219241893 93.871162176478919 0 0 0 0 -270.30539703676914 16.488546416009854 0 16.488546416009854 54.271067708263672 0 0 0 0 -272.78778205635899 -8.3476008833351329 0 -8.3476008833351329 45.589741231207654 0 0 0 0 -266.09300315652945 6.9141465401445217 0 6.9141465401445217 75.976887938160161 0 0 0 0 -322.95536724421981 -26.846648149054815 0 -26.846648149054815 73.429314924321801 0 0 0 0 -289.02223859935839 -77.799496716017231 0 -77.799496716017231 43.626830651769978 0 0 0 0 -254.48722029798955 -59.274314053064813 0 -59.274314053064813 26.730379154567558 0 0 0 0 -248.00330656045116 -31.40638722932772 0 -31.40638722932772 27.569519572614748 0 0 0 0 -223.82665122676553 -21.981801219448471 0 -21.981801219448471 3.6258019880872325 0 0 0 0 -205.47397659558919 -25.377455598075343 0 -25.377455598075343 -29.418108931435086 0 0 0 0 -155.62555471502128 -52.813985126618263 0 -52.813985126618263 -26.061908994846647 0 0 0 0 -219.53993854482542 -95.909601488871544 0 -95.909601488871544 -15.323790698359062 0 0 0 0 -16.469624494332606 5.8500397314656567 0 5.8500397314656567 3.194449282755091 0 0 0 0 -128.94156867895799 -67.420428960575009 0 -67.420428960575009 -20.257863166842242 0 0 0 0 -138.86105247043088 -29.062648776024758 0 -29.062648776024758 -14.602453311854106 0 0 0 0 -212.83166980116221 -141.36927259011679 0 -141.36927259011679 -46.757965407113716 0 0 0 0 -342.0884576046883 -83.187511655227866 0 -83.187511655227866 44.310281625506377 0 0 0 0 -115.36146418862336 -61.800040397055454 0 -61.800040397055454 -100.71996723863595 0 0 0 0 -284.77641450571173 -156.59562614529386 0 -156.59562614529386 -48.972812451812388 0 0 0 0 -15.180281014746953 5.6989616278376047 0 5.6989616278376047 3.8436189038803477 0 0 0 0 -30.446853485133033 13.755074128432852 0 13.755074128432852 21.259239854918654 0 0 0 0 -44.463338243876933 18.142099522203353 0 18.142099522203353 21.967085484293875 0 0 0 0 -36.285635786422063 11.345353392548077 0 11.345353392548077 21.336904911941872 0 0 0 0 -65.971153941951343 15.521771035621896 0 15.521771035621896 32.391900247390595 0 0 0 0 -56.83385968755465 -1.5779888623212628 0 -1.5779888623212628 41.580672289898757 0 0 0 0 -47.692522453216952 -19.368968490695352 0 -19.368968490695352 2.9780927915444124 0 0 0 0 -60.017109459629864 -7.6846830619044795 0 -7.6846830619044795 29.917744067539388 0 0 0 0 -75.118671760632424 -27.99158251027302 0 -27.99158251027302 18.999669543492928 0 0 0 0 -42.48481293709483 -8.7569527860441667 0 -8.7569527860441667 1.08757369839077 0 0 0 0 -49.578718918193772 8.8472243431513888 0 8.8472243431513888 -14.832643765209156 0 0 0 0 -179.81786755740177 -17.388463581513918 0 -17.388463581513918 -3.3599486095204156 0 0 0 0 -26.259259003330953 -24.518403605383725 0 -24.518403605383725 -23.906076247824416 0 0 0 0 -34.829696830176545 -12.533327383816449 0 -12.533327383816449 4.7704528302206199 0 0 0 0 -28.458193037804449 10.231232423369761 0 10.231232423369761 -10.096718921003571 0 0 0 0 -236.09924780684742 -67.014234876682366 0 -67.014234876682366 -27.140683817652416 0 0 0 0 -2.0612608258378486 -1.9327125266229075 0 -1.9327125266229075 -2.6376054610869692 0 0 0 0 -165.62320512364386 -54.885572718958429 0 -54.885572718958429 -28.930228190338539 0 0 0 0 -11.646975308860419 1.0177341324185818 0 1.0177341324185818 -6.9195849840355095 0 0 0 0 -15.233941603604762 -19.980260600901286 0 -19.980260600901286 3.946485388026872 0 0 0 0 -17.224140083106192 -19.257064431823153 0 -19.257064431823153 -9.6897292014101133 0 0 0 0 56.252150979591534 -112.92973856494245 0 -112.92973856494245 -37.528592561335245 0 0 0 0 3.7042393192806173 -0.5323428699299626 0 -0.5323428699299626 -3.2610580108656135 0 0 0 0 -80.871005450026132 41.441702462436297 0 41.441702462436297 19.473127196220958 0 0 0 0 -61.060750412376365 -10.056155675594482 0 -10.056155675594482 7.1338628429584787 0 0 0 0 -18.407820492072773 -6.7032229509180326 0 -6.7032229509180326 0.40540408162662089 0 0 0 0 -22.959248441809905 -2.9644675671049754 0 -2.9644675671049754 -1.7872982349908852 0 0 0 0 -42.600360743119381 -21.23415921306605 0 -21.23415921306605 -30.343124228852503 0 0 0 0 -52.582577158987988 -26.732706144422536 0 -26.732706144422536 11.109768813607843 0 0 0 0 -51.426074952178169 -20.723397957919587 0 -20.723397957919587 -10.403083259944879 0 0 0 0 -12.480984067986526 -7.8866607169477163 0 -7.8866607169477163 -1.8079207690512833 0 0 0 0 -61.317120391930075 -9.4598338366384382 0 -9.4598338366384382 32.415516858452975 0 0 0 0 -56.22963472927222 14.839954785891678 0 14.839954785891678 -14.009060519816558 0 0 0 0 -19.348901031959912 4.0597427150873955 0 4.0597427150873955 2.1504370592992772 0 0 0 0 -20.873647105647251 0.15252662846455678 0 0.15252662846455678 3.7315810592594971 0 0 0 0 -33.093285198725795 -9.4668712319144959 0 -9.4668712319144959 1.4254680829700672 0 0 0 0 -22.608547798752966 -1.0771508144188715 0 -1.0771508144188715 2.0775617750540292 0 0 0 0 -39.456967475372835 -10.455981503614439 0 -10.455981503614439 -5.8252390397260392 0 0 0 0 -28.349217774317367 27.63349267768217 0 27.63349267768217 12.662017088320681 0 0 0 0 -4.8536322821164504 -21.194278456398777 0 -21.194278456398777 -3.4098874229779028 0 0 0 0 -43.116267379067722 -18.246378232160851 0 -18.246378232160851 -38.78773405951506 0 0 0 0 -14.218346964357664 -2.7573862199119503 0 -2.7573862199119503 6.4707693911204638 0 0 0 0 15.859323209282593 -21.577423619743968 0 -21.577423619743968 -23.211490088588789 0 0 0 0 -52.104958763138711 -35.66215989430134 0 -35.66215989430134 -12.758994893682939 0 0 0 0 -26.923055730051118 -14.490683059241277 0 -14.490683059241277 -10.74487820900757 0 0 0 0 -52.408642821399553 -1.5798905839073996 0 -1.5798905839073996 54.895879114130366 0 0 0 0 -27.949285933189145 8.848408809083665 0 8.848408809083665 -10.310205447340273 0 0 0 0 -11.257575210373034 9.1568175402926499 0 9.1568175402926499 -22.67990752277305 0 0 0 0 376.17198972718325 -128.69201107679874 0 -128.69201107679874 -327.80261861492181 0 0 0 0 -17.307983270897239 -73.142514044681775 0 -73.142514044681775 75.813894144885126 0 0 0 0 -52.634126722114161 42.301127634725162 0 42.301127634725162 -13.715814622342805 0 0 0 0 -40.150464159989497 20.581831169715315 0 20.581831169715315 14.497932190424763 0 0 0 0 -201.63586385385133 199.3420448503748 0 199.3420448503748 -206.75533032718522 0 0 0 0 -39.353171212322195 35.261137570718802 0 35.261137570718802 -10.745038757152543 0 0 0 0 -9.4869542602209549 15.811847070956105 0 15.811847070956105 -14.087412522490013 0 0 0 0 -48.738454308215296 24.474604078525772 0 24.474604078525772 -32.943321956368891 0 0 0 0 16.753986858078861 3.0393259909352537 0 3.0393259909352537 -60.810499194455332 0 0 0 0 -51.94147096927918 22.245542599337227 0 22.245542599337227 -39.347807080067014 0 0 0 0 -36.690716153709218 45.089545132925423 0 45.089545132925423 -45.597025454861978 0 0 0 0 -10.586422905074869 -67.084234451356224 0 -67.084234451356224 110.31511164414269 0 0 0 0 -19.257253847913631 -14.037605653470905 0 -14.037605653470905 -7.9968249682082035 0 0 0 0 1.13296262404765 -94.156254555273108 0 -94.156254555273108 -29.958695538039954 0 0 0 0 -62.626951016223757 -2.8559884861224418 0 -2.8559884861224418 28.692450894299327 0 0 0 0 -61.579666144927614 -13.577191911860155 0 -13.577191911860155 58.147890000065672 0 0 0 0 -38.445409615233075 -7.5197723063156445 0 -7.5197723063156445 29.245553084680068 0 0 0 0 -48.739838497669552 17.292317896603208 0 17.292317896603208 36.920738460860775 0 0 0 0 -65.61042520753108 11.518987300339631 0 11.518987300339631 65.875356475515218 0 0 0 0 -21.26249931849452 27.095498231850343 0 27.095498231850343 44.25579577604185 0 0 0 0 -70.45864242746029 11.138527020055335 0 11.138527020055335 122.47162087921276 0 0 0 0 -80.480079059721902 10.64339167243088 0 10.64339167243088 40.064636458159157 0 0 0 0 -26.919888633390656 17.968255330465581 0 17.968255330465581 -186.98483142266468 0 0 0 0 -48.577174796533654 28.963921466127431 0 28.963921466127431 -31.637937589754983 0 0 0 0 -78.730635537351191 19.269304525788584 0 19.269304525788584 37.599533660264569 0 0 0 0 -104.55168924578174 -23.783221175243852 0 -23.783221175243852 -35.365319371680926 0 0 0 0 -68.4558224037537 6.462266945518877 0 6.462266945518877 -24.392303736243775 0 0 0 0 -87.382853242699639 -36.371153784933995 0 -36.371153784933995 -31.773630643834622 0 0 0 0 -177.34434057187173 -130.78059654275671 0 -130.78059654275671 -115.87874824865321 0 0 0 0 -117.25993200892117 -84.102375753623164 0 -84.102375753623164 -80.48484654686763 0 0 0 0 -199.00690936538376 -78.096410496517819 0 -78.096410496517819 4.5760815282446856 0 0 0 0 -129.69447217773995 -15.12897698850702 0 -15.12897698850702 -7.0528808135298959 0 0 0 0 -147.45237026055111 -48.530536974806637 0 -48.530536974806637 -9.9296129260292219 0 0 0 0 -144.99284916059696 -35.947162049882536 0 -35.947162049882536 54.342036372931034 0 0 0 0 -131.15267206376302 -47.230348010261878 0 -47.230348010261878 -31.965250428745463 0 0 0 0 -124.93798057849926 -20.547101366674042 0 -20.547101366674042 -51.646700627568862 0 0 0 0 -126.1731070347887 -17.108238557428194 0 -17.108238557428194 -11.869003562455475 0 0 0 0 -82.399260708669317 12.669095397008277 0 12.669095397008277 7.1918092651958432 0 0 0 0 -63.922404279888724 11.076113856609027 0 11.076113856609027 -6.4125879683169842 0 0 0 0 -77.855798140034096 13.783965879979633 0 13.783965879979633 -0.11075510774049313 0 0 0 0 -145.27261078722222 289.6343324651998 0 289.6343324651998 77.591950760252075 0 0 0 0 -73.389259931481149 26.617170217991216 0 26.617170217991216 -5.2040947443970502 0 0 0 0 -174.79165449617722 -99.416547468667886 0 -99.416547468667886 -100.48242057966763 0 0 0 0 -228.35852373604575 -4.0581397068583556 0 -4.0581397068583556 40.859673583125186 0 0 0 0 -108.57631475379458 52.906860943388892 0 52.906860943388892 33.033054029512641 0 0 0 0 -142.1291068743958 -5.2518817765021595 0 -5.2518817765021595 -16.238530405222264 0 0 0 0 -117.66685844166204 -39.193241973769545 0 -39.193241973769545 -33.889530904854837 0 0 0 0 -1.0595408610863046 1.1369197249195224 0 1.1369197249195224 2.8135029627916204 0 0 0 0 -92.671038850094192 8.544277623429025 0 8.544277623429025 -35.259397697600434 0 0 0 0 -97.053754004309667 28.132149153687635 0 28.132149153687635 -18.151026267744783 0 0 0 0 -250.12008715940465 32.651012916461696 0 32.651012916461696 1.0188477017907189 0 0 0 0 -58.29107895217021 -84.64214058757716 0 -84.64214058757716 28.723465502093745 0 0 0 0 -66.751571183562874 125.59221409213521 0 125.59221409213521 -26.842624513023111 0 0 0 0 -26.479836563441495 27.983838510043824 0 27.983838510043824 -10.335217706901858 0 0 0 0 -27.791912332460925 20.163179236065162 0 20.163179236065162 -8.5211470934018507 0 0 0 0 -37.946395381019101 36.250691846166774 0 36.250691846166774 -24.647675942815113 0 0 0 0 -85.392916613920534 19.357003655946755 0 19.357003655946755 -1.2320407935030744 0 0 0 0 -52.986255620722659 31.448223490228429 0 31.448223490228429 -4.1080295979936636 0 0 0 0 -51.625008207804058 22.610385963017734 0 22.610385963017734 20.740727746129778 0 0 0 0 -4.789544570419821 19.019254151888163 0 19.019254151888163 3.9554992154080537 0 0 0 0 -13.822374066818156 13.923639494671534 0 13.923639494671534 5.0641278138087955 0 0 0 0 -12.418786278620246 21.046825712168811 0 21.046825712168811 9.6472981111731002 0 0 0 0 -6.3636370081676432 26.029108294184994 0 26.029108294184994 9.5470954073189205 0 0 0 0 1.8261586287591172 7.9589858366455672 0 7.9589858366455672 8.1068434081269558 0 0 0 0 -149.50831055105664 -315.37267221825863 0 -315.37267221825863 -328.26679118698485 0 0 0 0 -6.531110432031312 1.43878284488828 0 1.43878284488828 3.8529482767095971 0 0 0 0 -37.599173335807791 -49.952992002407711 0 -49.952992002407711 -34.397194660915375 0 0 0 0 -40.713746773049934 172.90983158738754 0 172.90983158738754 -120.47463244957657 0 0 0 0 1.3584024975457112 3.2653124479844138 0 3.2653124479844138 5.1115699533927224 0 0 0 0 -38.304384159695473 3.2670772283076985 0 3.2670772283076985 1.9117174902803526 0 0 0 0 -121.09054754338285 84.886902643297617 0 84.886902643297617 -55.7120220509305 0 0 0 0 -165.27333482105314 194.32259194631547 0 194.32259194631547 -79.33966669727306 0 0 0 0 -246.4165608075491 178.91971947622005 0 178.91971947622005 -36.136304682722766 0 0 0 0 -209.79225015011616 147.76535277582798 0 147.76535277582798 -29.735825305399885 0 0 0 0 -403.13995114959835 59.708603399581079 0 59.708603399581079 -12.259119639087658 0 0 0 0 -206.94712964591145 172.91319006778542 0 172.91319006778542 -138.15211560218904 0 0 0 0 -325.2696546237712 233.4322363577412 0 233.4322363577412 -52.813972159571676 0 0 0 0 -420.30947979650955 32.396313669923074 0 32.396313669923074 -43.756317680633401 0 0 0 0 -371.18263250598102 45.767318935501862 0 45.767318935501862 -115.08081205476083 0 0 0 0 -531.90600560914027 -23.644141198182297 0 -23.644141198182297 -135.05069232846836 0 0 0 0 -590.96675598951697 -145.52480061567303 0 -145.52480061567303 -352.48786139381809 0 0 0 0 -318.3085148244445 2.9957428890001552 0 2.9957428890001552 -373.60453318718828 0 0 0 0 -449.97010541107738 41.258320345589254 0 41.258320345589254 -287.79173208348584 0 0 0 0 -453.51122662537091 121.11055914838698 0 121.11055914838698 -539.21850299696234 0 0 0 0 -14.564199906672911 139.66193117151582 0 139.66193117151582 -256.1463417201694 0 0 0 0 -657.33174071909161 306.18335054994395 0 306.18335054994395 -111.20158142433547 0 0 0 0 -937.83586321828443 130.24594486964935 0 130.24594486964935 -218.8719462360541 0 0 0 0 -854.38264265152975 -293.85132976665 0 -293.85132976665 -154.41291784530677 0 0 0 0 -0.85910811569891621 3.7779013756524193 0 3.7779013756524193 -2.2184025185540914 0 0 0 0 -662.08414514097967 -244.21587405953869 0 -244.21587405953869 -168.61232282062429 0 0 0 0 -533.46769267131458 -294.27280552206003 0 -294.27280552206003 -154.44847484315051 0 0 0 0 -684.81625918563805 -40.035243722173618 0 -40.035243722173618 -86.506649341112279 0 0 0 0 -487.14256543105876 -10.233149304342987 0 -10.233149304342987 -180.00340951151247 0 0 0 0 -527.1724950344942 63.599013634637686 0 63.599013634637686 -137.57826851668153 0 0 0 0 -59.445765272164863 237.52696779435902 0 237.52696779435902 669.87054948257526 0 0 0 0 -235.12685124771087 -150.01467197844323 0 -150.01467197844323 217.95977982874189 0 0 0 0 293.284677272517 808.97918855553939 0 808.97918855553939 606.0421728936019 0 0 0 0 -4.4716580811090125 -0.68458036400383548 0 -0.68458036400383548 2.694294842285812 0 0 0 0 234.88676456088433 664.12783515345279 0 664.12783515345279 536.67462186669241 0 0 0 0 -4.0311481836748726 2.5065282714277544 0 2.5065282714277544 -1.1512990694447174 0 0 0 0 -426.15664949345228 -537.53578156730055 0 -537.53578156730055 -403.71629464616035 0 0 0 0 -43.541587235522456 -189.0204713388604 0 -189.0204713388604 -290.18791025476287 0 0 0 0 -33.5635334259714 213.30047463378557 0 213.30047463378557 106.76430266473578 0 0 0 0 -803.01780646742554 -69.920034523005285 0 -69.920034523005285 270.84070001015698 0 0 0 0 -118.94785992952325 -25.858501628675334 0 -25.858501628675334 26.818200511637158 0 0 0 0 -104.39146913693992 56.179556244165148 0 56.179556244165148 21.278827170497532 0 0 0 0 -54.168077225958768 23.178676121220292 0 23.178676121220292 294.37048138647515 0 0 0 0 -85.0978092283367 90.089403798830517 0 90.089403798830517 -12.66750171500189 0 0 0 0 -297.27632127199468 102.95444409635002 0 102.95444409635002 102.4403664833826 0 0 0 0 -478.92408389289631 261.48476974296386 0 261.48476974296386 410.09091157812981 0 0 0 0 -353.10974845508463 202.72590872848832 0 202.72590872848832 -60.353117753269999 0 0 0 0 -96.982707968760678 19.170106003737637 0 19.170106003737637 4.5886511808957522 0 0 0 0 -108.93076259713894 15.726437698157731 0 15.726437698157731 6.7643121586164652 0 0 0 0 -250.88302570951055 -247.34838404910022 0 -247.34838404910022 146.32589866231743 0 0 0 0 -231.32714530578232 159.3480154708277 0 159.3480154708277 -28.923328932057757 0 0 0 0 -285.04339805401742 143.04251384470479 0 143.04251384470479 -31.168008023756556 0 0 0 0 -257.47861116251443 94.695403477227956 0 94.695403477227956 -56.408450198467108 0 0 0 0 -150.93657950162014 -179.09352035063114 0 -179.09352035063114 -44.755897533505049 0 0 0 0 -100.9397628470644 27.802653755166602 0 27.802653755166602 -4.2398934277426807 0 0 0 0 -5.3613404822364146 17.564028206468855 0 17.564028206468855 -0.28022942364237458 0 0 0 0 -79.737151712499326 598.97734507722271 0 598.97734507722271 -135.64399537416648 0 0 0 0 -265.46154482237762 190.88046680858884 0 190.88046680858884 1318.930153015117 0 0 0 0 -55.794985031490796 177.29108847103282 0 177.29108847103282 158.04644171195105 0 0 0 0 -229.47067259759933 269.44161296775701 0 269.44161296775701 656.18847058876099 0 0 0 0 105.62005348225648 252.14894954147724 0 252.14894954147724 625.85810410530144 0 0 0 0 -83.777314626961015 490.29227913504155 0 490.29227913504155 875.87442349641799 0 0 0 0 -23.405731217103721 -0.50578919604453176 0 -0.50578919604453176 5.5155858522778729 0 0 0 0 208.44512477982789 227.06936937828186 0 227.06936937828186 601.28228145826336 0 0 0 0 -178.89144883646804 441.77086182823427 0 441.77086182823427 512.45422785374012 0 0 0 0 -449.92551747377729 241.39152741678458 0 241.39152741678458 -126.61426115028371 0 0 0 0 -752.72939310903894 146.73828095198928 0 146.73828095198928 429.87042330824943 0 0 0 0 -551.81722995385644 -334.62783336017333 0 -334.62783336017333 -77.24998796585669 0 0 0 0 -363.25118913521874 -31.869002089082187 0 -31.869002089082187 -176.66793717125802 0 0 0 0 -260.5780593729105 -191.26567786946799 0 -191.26567786946799 57.524112312783927 0 0 0 0 -228.56769062546664 19.375213639152435 0 19.375213639152435 271.80551793195536 0 0 0 0 -245.67193316691555 -12.610108145956701 0 -12.610108145956701 347.30995770059599 0 0 0 0 -657.15517559865839 -356.10420612376242 0 -356.10420612376242 -277.27958507039466 0 0 0 0 -626.82861916601541 -415.28343488854733 0 -415.28343488854733 -190.15650984622562 0 0 0 0 -413.07142456546717 -0.072781452026617899 0 -0.072781452026617899 88.069304481698509 0 0 0 0 -6.4145074621209233 -1.700110223744332 0 -1.700110223744332 -1.5479087004015035 0 0 0 0 -64.929517297365237 -93.837164360506108 0 -93.837164360506108 -495.48996918395164 0 0 0 0 -967.57773812740925 -263.38999710461121 0 -263.38999710461121 154.57108024063109 0 0 0 0 -586.66220717137912 -493.94921892019829 0 -493.94921892019829 -245.32155449886386 0 0 0 0 -283.95908119267551 -382.64979144293534 0 -382.64979144293534 -454.42994343584792 0 0 0 0 -248.34530426244601 -327.48035289900702 0 -327.48035289900702 -210.44554832550875 0 0 0 0 -354.19370522614918 -259.33020803488353 0 -259.33020803488353 -9.5154186237177782 0 0 0 0 -349.14989218628034 -252.21729662179587 0 -252.21729662179587 -10.895156613329618 0 0 0 0 -300.72213089023717 -190.94872305991476 0 -190.94872305991476 65.786081363516132 0 0 0 0 -570.62036951741902 -212.26580677175889 0 -212.26580677175889 103.48844383602454 0 0 0 0 -495.33393004949903 -188.3740321613011 0 -188.3740321613011 160.83794066581504 0 0 0 0 -444.75452076346846 -71.213701568321085 0 -71.213701568321085 237.77542785271089 0 0 0 0 -376.50854851392796 54.56458959640031 0 54.56458959640031 253.98006763995318 0 0 0 0 -568.15797051576556 161.15561631405353 0 161.15561631405353 202.53232418299285 0 0 0 0 -372.82818197028246 101.0438032832551 0 101.0438032832551 -239.5946289278792 0 0 0 0 -889.0927684437338 52.706969071711569 0 52.706969071711569 190.98338651482482 0 0 0 0 -442.27963159777573 -42.836196960809616 0 -42.836196960809616 358.75915996651975 0 0 0 0 -407.14651934790891 248.82835213759472 0 248.82835213759472 434.08219923618981 0 0 0 0 -66.992349543026648 380.41289938433226 0 380.41289938433226 347.89340953975716 0 0 0 0 5.050367306888802 363.43780776077801 0 363.43780776077801 372.84171340306443 0 0 0 0 -241.05869850868476 171.58740288360809 0 171.58740288360809 400.65740125849516 0 0 0 0 -363.94575644185534 214.53915962618748 0 214.53915962618748 400.50980198886145 0 0 0 0 -148.95409490470774 320.21648960899438 0 320.21648960899438 483.04254190764755 0 0 0 0 -85.26680696279351 40.28752422502761 0 40.28752422502761 -12.153944468774331 0 0 0 0 -330.09124900374445 155.23235369300119 0 155.23235369300119 79.406960459933771 0 0 0 0 -131.66183657607326 65.235886800985554 0 65.235886800985554 -196.88942490675254 0 0 0 0 -105.62185870986184 14.547319845630383 0 14.547319845630383 7.4326615633096003 0 0 0 0 106.59334070805926 552.89496455883182 0 552.89496455883182 424.46238805808662 0 0 0 0 -92.817207938083811 21.478333466967683 0 21.478333466967683 -1.2710270334177469 0 0 0 0 -23.643862185679609 -147.48318249775639 0 -147.48318249775639 -256.30692378737513 0 0 0 0 -75.558760364423506 64.637342938553047 0 64.637342938553047 73.777382204485548 0 0 0 0 312.54664800519822 135.48922297374475 0 135.48922297374475 -102.93209698770897 0 0 0 0 -788.26094429029035 -136.84175126183072 0 -136.84175126183072 579.36630386018442 0 0 0 0 -78.680213397354521 31.967763979293409 0 31.967763979293409 -3.5285165894806489 0 0 0 0 -341.69839512134786 -4.557065963599598 0 -4.557065963599598 361.45841073059273 0 0 0 0 -366.25273480976466 -44.224011495143714 0 -44.224011495143714 278.89611937089126 0 0 0 0 -303.09914290410234 -59.090882685295128 0 -59.090882685295128 210.80055001766232 0 0 0 0 -331.19368105946342 -13.810253778046899 0 -13.810253778046899 287.88417633732479 0 0 0 0 -322.30110293568578 -96.412526834408709 0 -96.412526834408709 176.5026319952749 0 0 0 0 -339.20202827523462 -39.891707874770873 0 -39.891707874770873 279.56868151122762 0 0 0 0 -154.80278704088414 -8.1806823001470548 0 -8.1806823001470548 222.0978720322546 0 0 0 0 -349.1723501870747 -65.147720260030184 0 -65.147720260030184 212.34838703798596 0 0 0 0 -395.89926643006038 -70.772531270969012 0 -70.772531270969012 269.01455928892756 0 0 0 0 -363.29504519316833 -122.25415954102209 0 -122.25415954102209 181.15796688106252 0 0 0 0 -304.48381938209059 -62.609948080093545 0 -62.609948080093545 202.38976103728601 0 0 0 0 -340.4487892560428 -85.883159433037235 0 -85.883159433037235 200.92656592858202 0 0 0 0 -271.54376676864922 -152.85833247609389 0 -152.85833247609389 62.303613988171492 0 0 0 0 -253.7137403327506 -130.04557835050082 0 -130.04557835050082 88.141028507636292 0 0 0 0 -193.64406473340932 -153.4091570653809 0 -153.4091570653809 -31.455308865899951 0 0 0 0 -209.08201374916825 -93.128987290968325 0 -93.128987290968325 49.590774114943088 0 0 0 0 -138.76093270001002 -92.651810726293661 0 -92.651810726293661 35.015120074860533 0 0 0 0 -199.45101615437306 -69.048376221902799 0 -69.048376221902799 102.62535233895528 0 0 0 0 -132.61099107153132 -31.224427239466877 0 -31.224427239466877 8.8807909292327167 0 0 0 0 -100.36897870927351 -170.14417080273188 0 -170.14417080273188 -88.049759047120233 0 0 0 0 -122.93141367589124 -100.25484169670563 0 -100.25484169670563 -119.2618365100634 0 0 0 0 -157.8094866128522 -46.092880253143448 0 -46.092880253143448 46.846344686256998 0 0 0 0 -23.052346977056004 72.380729949300985 0 72.380729949300985 48.357627245428105 0 0 0 0 -231.63054817682132 43.588443781749447 0 43.588443781749447 242.88772454567743 0 0 0 0 -154.08376000105636 4.3886454161956863 0 4.3886454161956863 113.98036193335975 0 0 0 0 -187.6243862612755 4.6243059280177476 0 4.6243059280177476 124.96247863758254 0 0 0 0 -195.71275352500379 182.43743017384986 0 182.43743017384986 351.8977055937026 0 0 0 0 21.986720637476537 -78.907669575798536 0 -78.907669575798536 -48.025875335139062 0 0 0 0 -11.153323168153463 -3.9272210845283269 0 -3.9272210845283269 3.0567820099743077 0 0 0 0 18.871762844792102 178.14895307236475 0 178.14895307236475 148.53291331004357 0 0 0 0 -172.44994453925756 51.516366648477288 0 51.516366648477288 200.89082175816566 0 0 0 0 -74.940828423925893 16.714217853659903 0 16.714217853659903 -0.88674470906486214 0 0 0 0 -31.971015483271913 28.499695523628816 0 28.499695523628816 14.019725597861907 0 0 0 0 -170.90490341049735 -9.8334279799314572 0 -9.8334279799314572 249.02166252130883 0 0 0 0 -106.83627274387982 -80.977672191295369 0 -80.977672191295369 11.155187486347131 0 0 0 0 2.4780638311197549 8.1359144419291596 0 8.1359144419291596 -1.916442569357562 0 0 0 0 -195.95654635186656 67.614463152603093 0 67.614463152603093 81.482461594272536 0 0 0 0 -94.863779580511618 -128.15488721310703 0 -128.15488721310703 187.34060429428882 0 0 0 0 152.76481579338724 -51.649730772715429 0 -51.649730772715429 27.800824428408305 0 0 0 0 -153.54865224202513 -102.29059744239544 0 -102.29059744239544 49.790548525290433 0 0 0 0 -129.29209834842914 -217.12783093645919 0 -217.12783093645919 -113.38021031327116 0 0 0 0 -2.8053085109502263 0.72185749893864681 0 0.72185749893864681 1.5286126341776258 0 0 0 0 -16.815136406075908 14.161824646410423 0 14.161824646410423 -0.082661017417194671 0 0 0 0 -241.43769658872043 -77.496420905327795 0 -77.496420905327795 65.599344410416961 0 0 0 0 -136.16080018212961 5.6917456096928163 0 5.6917456096928163 -209.81785509452311 0 0 0 0 -136.79761086590588 -192.06915730966739 0 -192.06915730966739 -132.28737600216914 0 0 0 0 -8.9520925228627561 0.54638012154399007 0 0.54638012154399007 8.2814195004544189 0 0 0 0 -44.123272940458264 -4.8794749316281987 0 -4.8794749316281987 5.907760046988102 0 0 0 0 -37.510107193607837 -52.580804537672066 0 -52.580804537672066 -50.527316378113028 0 0 0 0 -115.45937980228337 -24.581163649490918 0 -24.581163649490918 36.050968636881862 0 0 0 0 -80.397974932799116 4.2111319711057149 0 4.2111319711057149 14.174591353381402 0 0 0 0 -142.18253578421718 -79.762124534975101 0 -79.762124534975101 -5.9037401755658721 0 0 0 0 -222.78826304356335 -95.855369613267612 0 -95.855369613267612 5.9352136834622797 0 0 0 0 -113.63339762663236 -154.49930616384518 0 -154.49930616384518 -77.455083920392099 0 0 0 0 -67.977724825846963 -176.23202142495256 0 -176.23202142495256 -99.206961355748604 0 0 0 0 -80.625960312318057 -158.32521706899547 0 -158.32521706899547 -94.385141071680664 0 0 0 0 -62.88994054403156 -137.81759741855285 0 -137.81759741855285 -88.896792275516646 0 0 0 0 -229.08338041679235 -250.348849967359 0 -250.348849967359 -83.071601915694373 0 0 0 0 -137.96693710109685 -194.68440354807126 0 -194.68440354807126 -93.474118319444642 0 0 0 0 -152.47131678956794 -180.55896832591088 0 -180.55896832591088 -25.823163655445342 0 0 0 0 -130.18119134871813 -224.87758318961539 0 -224.87758318961539 -124.99892376041316 0 0 0 0 -136.46505331899971 -212.54434944889317 0 -212.54434944889317 -92.910048096633318 0 0 0 0 -107.91016375576146 -174.83953466877574 0 -174.83953466877574 -231.77189373849518 0 0 0 0 -32.625910269212909 -156.96160965664421 0 -156.96160965664421 -153.49186102854128 0 0 0 0 -0.60286729002837092 -103.75655897235993 0 -103.75655897235993 -236.13918733887567 0 0 0 0 -111.80991317948792 -183.41996972988409 0 -183.41996972988409 -151.05020296470047 0 0 0 0 68.453644983586855 -106.16579574318439 0 -106.16579574318439 -102.63212866686308 0 0 0 0 18.334779530763626 -4.0404036202539828 0 -4.0404036202539828 -8.3721523908975541 0 0 0 0 10.929510709363967 -101.75303706332124 0 -101.75303706332124 -82.928858691010191 0 0 0 0 -48.742977892281488 -136.43260694423407 0 -136.43260694423407 -69.691411487088772 0 0 0 0 20.936737645650283 -139.08640255309319 0 -139.08640255309319 -85.239571062358209 0 0 0 0 156.01763468884747 -38.857797408016609 0 -38.857797408016609 -26.220218412663144 0 0 0 0 30.862507487065159 -10.135618556302234 0 -10.135618556302234 -5.5506687892075206 0 0 0 0 -2.6343835628326246 -0.045296736288747752 0 -0.045296736288747752 0.43847913947104633 0 0 0 0 -18.666205141693354 -31.236299726059769 0 -31.236299726059769 17.002154497566153 0 0 0 0 -7.0324496364482911 -0.59366516504701394 0 -0.59366516504701394 1.0050365742108625 0 0 0 0 -42.75580567115685 -12.613843190920718 0 -12.613843190920718 7.4073333183657439 0 0 0 0 -8.5228966611499004 -5.8013626839749008 0 -5.8013626839749008 -1.5691099662064814 0 0 0 0 27.922390923718922 107.13515590662321 0 107.13515590662321 -6.0579648310193424 0 0 0 0 -11.238384882202126 2.4841536247263321 0 2.4841536247263321 1.6714158152636054 0 0 0 0 29.217380620131735 95.094962663456144 0 95.094962663456144 -151.56584809915856 0 0 0 0 -13.813366902587859 -1.8572639919631371 0 -1.8572639919631371 0.78268801461566118 0 0 0 0 -13.446794209937821 -2.2158613527926576 0 -2.2158613527926576 1.7678924944018823 0 0 0 0 -20.725958002731204 -7.8745511113872908 0 -7.8745511113872908 12.407502382866369 0 0 0 0 -19.75855180140934 -10.628473475016222 0 -10.628473475016222 14.433833885640979 0 0 0 0 -17.74598763139511 -1.2330217934441947 0 -1.2330217934441947 3.3039037842183916 0 0 0 0 -6.6295298138942087 -3.6203425656344734 0 -3.6203425656344734 1.4572876267632444 0 0 0 0 -44.093864549147838 26.957040555151348 0 26.957040555151348 -0.64202174628792363 0 0 0 0 -9.7523082703701789 5.673154201872137 0 5.673154201872137 -2.9617461700948984 0 0 0 0 -6.8980207788106327 0.41322983515334499 0 0.41322983515334499 -0.59128399496314277 0 0 0 0 -34.571604466284043 6.3685363915084121 0 6.3685363915084121 6.45385650200258 0 0 0 0 -33.576029621064663 -18.511999517859181 0 -18.511999517859181 1.338900281936759 0 0 0 0 -3.5676875981880585 17.72553349836469 0 17.72553349836469 -15.033672673208081 0 0 0 0 0.27382819456090601 0.22430384763430311 0 0.22430384763430311 -0.68948028341014034 0 0 0 0 -10.937173700280255 -3.9178295854185174 0 -3.9178295854185174 -5.0826738482752702 0 0 0 0 -29.997686507937033 2.5868320406051133 0 2.5868320406051133 -7.2192758243006274 0 0 0 0 -3.8001772160105816 -5.7475973961486488 0 -5.7475973961486488 -1.284437871711638 0 0 0 0 -32.691108198421716 0.82877735831341082 0 0.82877735831341082 -2.9408127624100651 0 0 0 0 -33.404012921651884 4.8147477649298729 0 4.8147477649298729 -5.4287624877787053 0 0 0 0 -32.849740348989144 6.4486515047812389 0 6.4486515047812389 -3.7547213355854154 0 0 0 0 -38.254624081091606 9.4929500361279544 0 9.4929500361279544 -4.5101269471880858 0 0 0 0 -49.102752117149066 -0.50638050807918233 0 -0.50638050807918233 0.621788598764347 0 0 0 0 -41.532682226825273 2.7266002244862548 0 2.7266002244862548 0.00027907775562743993 0 0 0 0 -2.6626976198972443 -1.1552105185112111 0 -1.1552105185112111 0.67121743478440987 0 0 0 0 -39.211554398236331 5.9611532599765749 0 5.9611532599765749 -5.1570983232529608 0 0 0 0 -37.416687056000228 1.0799689201282194 0 1.0799689201282194 8.0486121628402127 0 0 0 0 -44.858154178014956 14.40190948939499 0 14.40190948939499 6.3407267492298907 0 0 0 0 -33.970810768398223 12.91465027762011 0 12.91465027762011 -9.8929571464353359 0 0 0 0 -20.719059653798467 8.4939332228619371 0 8.4939332228619371 -8.5051708266711117 0 0 0 0 -28.862899444560753 27.129846022398443 0 27.129846022398443 -18.478828871371888 0 0 0 0 -51.50049858782404 -18.039722138154705 0 -18.039722138154705 31.186092508763895 0 0 0 0 -58.621152643376263 23.931246800444033 0 23.931246800444033 1.07507930991582 0 0 0 0 -29.202428219170542 -0.34030641727131938 0 -0.34030641727131938 0.015774780482975058 0 0 0 0 -3.2828790432649839 1.6422984132050544 0 1.6422984132050544 -0.18786162251459174 0 0 0 0 16.073534222368835 36.055490247964855 0 36.055490247964855 32.021651301791465 0 0 0 0 6.749903266041656 -15.961576196348975 0 -15.961576196348975 1.151232179814059 0 0 0 0 -522.06768516130978 -239.31552857991267 0 -239.31552857991267 -171.3015283891624 0 0 0 0 -563.77566439160364 -219.00196700635081 0 -219.00196700635081 -97.328848867324268 0 0 0 0 -538.3608515459855 -81.770099982729533 0 -81.770099982729533 23.828026170239582 0 0 0 0 -6.5865409096878693 5.4085214418023497 0 5.4085214418023497 -1.6560725647879706 0 0 0 0 -12.697271585289855 73.249043443417762 0 73.249043443417762 -33.763714883134973 0 0 0 0 -70.947270397882676 -79.217008938418985 0 -79.217008938418985 30.425935506654639 0 0 0 0 -68.129791744053364 172.16839852921487 0 172.16839852921487 -104.53699619900988 0 0 0 0 -532.99561238940805 -259.757307143444 0 -259.757307143444 57.038189661607191 0 0 0 0 -134.42606442166652 -201.38809686107172 0 -201.38809686107172 -162.9709572259776 0 0 0 0 -904.75609328027349 -388.36514875470635 0 -388.36514875470635 -23.075226880039281 0 0 0 0 -483.43327839381527 -14.692985194391213 0 -14.692985194391213 -181.64883903553743 0 0 0 0 -826.49016729298455 -72.52013950557614 0 -72.52013950557614 50.531705362482626 0 0 0 0 -15.636276714853011 181.77323356257273 0 181.77323356257273 -178.16645697578306 0 0 0 0 -3.5576600278558317 2.0491029620543486 0 2.0491029620543486 -0.85245853036052388 0 0 0 0 29.414830791327404 39.482319982343256 0 39.482319982343256 -902.40990866840298 0 0 0 0 -775.089629536742 -337.38538856224022 0 -337.38538856224022 186.47562030298877 0 0 0 0 -7.6103554836220155 -0.23779783260182441 0 -0.23779783260182441 2.8980981584987195 0 0 0 0 -389.0492054388742 -410.86962590539065 0 -410.86962590539065 -404.40454383539827 0 0 0 0 -6.4064765237678216 3.7844447618739423 0 3.7844447618739423 -0.39777805922875631 0 0 0 0 -429.73931937142333 -86.665434648145379 0 -86.665434648145379 174.48126602797123 0 0 0 0 -523.89510665928537 -254.62443360372924 0 -254.62443360372924 -110.69717587624552 0 0 0 0 -562.8320306030655 -241.36875857540019 0 -241.36875857540019 -32.449125590724634 0 0 0 0 -475.5191980852851 13.967907418299811 0 13.967907418299811 89.408949838592036 0 0 0 0 -778.74493096303195 106.14529248272038 0 106.14529248272038 -77.253818143350799 0 0 0 0 -793.60958350799046 -181.17838559915927 0 -181.17838559915927 0.20890415565936532 0 0 0 0 -957.57591233949643 -480.84457132474449 0 -480.84457132474449 -16.115572815265033 0 0 0 0 -130.14478875763598 143.60080957521879 0 143.60080957521879 58.72523989361359 0 0 0 0 -446.85272737313062 -282.93062677368408 0 -282.93062677368408 -53.613504512427795 0 0 0 0 -302.35635833369452 -231.29716086965084 0 -231.29716086965084 -124.8494443054189 0 0 0 0 -800.78091711958405 -450.24564076078423 0 -450.24564076078423 -19.099251660846946 0 0 0 0 -3.1688799711062643 1.4057892930915443 0 1.4057892930915443 0.14249628453884788 0 0 0 0 -469.54650272231083 -127.03201537726591 0 -127.03201537726591 -0.16628891503148266 0 0 0 0 -647.94030853407457 38.834055627072857 0 38.834055627072857 110.95210403787334 0 0 0 0 -299.74583002130385 -58.983189788983154 0 -58.983189788983154 -218.89578173431033 0 0 0 0 -215.73804749018745 76.589805645639814 0 76.589805645639814 -0.10617189746628328 0 0 0 0 -96.05975144621334 139.12499115490016 0 139.12499115490016 22.04427913605133 0 0 0 0 -408.08837491087615 -110.68972327068801 0 -110.68972327068801 57.72778744418315 0 0 0 0 -0.71636776139365566 0.41154505815086395 0 0.41154505815086395 1.6587619948131538 0 0 0 0 52.923168151597565 -126.90296809502429 0 -126.90296809502429 -57.429927568506827 0 0 0 0 -94.761931773398828 195.87322411968043 0 195.87322411968043 -121.86818729944767 0 0 0 0 -440.85886963283338 -149.8622823834711 0 -149.8622823834711 25.240359254745272 0 0 0 0 -132.44651812652592 -98.988561430497612 0 -98.988561430497612 -30.289795297786327 0 0 0 0 -2.5939184455218651 -5.2477030774340392 0 -5.2477030774340392 9.9863076818209997 0 0 0 0 -22.883745207249717 5.6339149254541336 0 5.6339149254541336 1.9157563442917227 0 0 0 0 9.8427778395271162 -68.473801920617746 0 -68.473801920617746 104.69753398954686 0 0 0 0 -10.203745035153979 2.141352613571371 0 2.141352613571371 3.7863479373495492 0 0 0 0 -117.32488867055508 25.357679219972397 0 25.357679219972397 -4.3332654882971724 0 0 0 0 -189.64144083388965 -61.676022893967001 0 -61.676022893967001 -9.1320511420854018 0 0 0 0 85.706205747323111 63.793212635115196 0 63.793212635115196 75.297394070352311 0 0 0 0 -6.5291746917115461 -1.2499512951677332 0 -1.2499512951677332 6.7849013427939049 0 0 0 0 -52.310106776548118 13.128471107103962 0 13.128471107103962 11.679943220395728 0 0 0 0 9.9158965245514992 30.080576608162428 0 30.080576608162428 25.510626694743678 0 0 0 0 -14.868930712580038 10.282939925983129 0 10.282939925983129 0.66449191225953541 0 0 0 0 1.0282927115913481 29.847316201034118 0 29.847316201034118 30.407695309068913 0 0 0 0 0.93175490655994508 32.28277199860031 0 32.28277199860031 11.418332386981092 0 0 0 0 -19.967316378051009 9.0643211507066894 0 9.0643211507066894 -1.3114142034072991 0 0 0 0 -47.714415299593156 24.773425102636168 0 24.773425102636168 24.027344553820512 0 0 0 0 -21.550976300641196 -4.9648647133624877 0 -4.9648647133624877 21.526758127940937 0 0 0 0 -257.62401793259778 -16.956864954934531 0 -16.956864954934531 42.97591526858514 0 0 0 0 -64.869509531382391 -4.7330542235152748 0 -4.7330542235152748 -27.939701321637585 0 0 0 0 -259.49000197547139 -33.020212795614498 0 -33.020212795614498 22.978198589809949 0 0 0 0 -391.05148375674617 -96.541181162501971 0 -96.541181162501971 18.90702760263548 0 0 0 0 -369.60942476263153 -49.282339553279598 0 -49.282339553279598 45.802183900358614 0 0 0 0 -619.47185998471105 2.7219000422232398 0 2.7219000422232398 80.536455285985767 0 0 0 0 -510.32245367119322 -25.408434011877489 0 -25.408434011877489 93.477087903162101 0 0 0 0 -560.16728837668779 -85.165152151585062 0 -85.165152151585062 66.971747333635903 0 0 0 0 -739.30805960473663 -9.7977719985730118 0 -9.7977719985730118 109.93916319264463 0 0 0 0 -674.86256590578705 -77.616121798646418 0 -77.616121798646418 78.927258246557415 0 0 0 0 -630.93517477859859 -98.244865185175286 0 -98.244865185175286 79.230360119577654 0 0 0 0 -553.34185779484687 -45.552164886637001 0 -45.552164886637001 73.953762020145575 0 0 0 0 -542.7473900415207 -146.80016998955216 0 -146.80016998955216 20.407486540860191 0 0 0 0 -546.54805753135588 -113.42313599385221 0 -113.42313599385221 23.665980912805026 0 0 0 0 -773.31979661731748 -100.73117997334975 0 -100.73117997334975 99.689554685815892 0 0 0 0 -674.4623392180074 -170.04332949303125 0 -170.04332949303125 32.790330514218113 0 0 0 0 -192.75420126091922 -46.161400460280674 0 -46.161400460280674 -23.500236512438732 0 0 0 0 -499.90717814023083 -115.38498246067002 0 -115.38498246067002 39.009904814815854 0 0 0 0 -357.60753679007757 -89.532270536678425 0 -89.532270536678425 18.672390952096976 0 0 0 0 -386.13791587977903 -130.09619533722798 0 -130.09619533722798 -17.962283916984234 0 0 0 0 -356.98390711267712 -177.80304058806496 0 -177.80304058806496 -46.377043735437837 0 0 0 0 -342.44045184798597 -106.87865453837264 0 -106.87865453837264 -16.392060739195585 0 0 0 0 -200.6878024142934 -61.294567718538929 0 -61.294567718538929 -28.889633266940223 0 0 0 0 -52.912421617598739 -115.21457095979531 0 -115.21457095979531 -133.77711652067865 0 0 0 0 -147.49958239519037 -234.15180729087024 0 -234.15180729087024 -89.58178901023166 0 0 0 0 -284.82409012375865 -136.48637316544864 0 -136.48637316544864 -50.779798419579834 0 0 0 0 -380.6223914759903 -196.74641363447336 0 -196.74641363447336 -49.491959252407469 0 0 0 0 -323.34120107162744 -146.63344972900995 0 -146.63344972900995 -64.891211596994708 0 0 0 0 -393.81569691169716 -157.02019820738019 0 -157.02019820738019 -63.827732627079968 0 0 0 0 -290.69708274773438 -216.90356807435683 0 -216.90356807435683 -40.304305226278302 0 0 0 0 -323.85168333246838 -173.30925101322282 0 -173.30925101322282 -57.651856414340727 0 0 0 0 -278.86884151486447 -191.5387361035373 0 -191.5387361035373 -84.949639119771746 0 0 0 0 -332.96408724715002 -179.16326855893749 0 -179.16326855893749 -57.648951639479492 0 0 0 0 -402.06800764720538 -156.12977036683515 0 -156.12977036683515 -98.363118829467567 0 0 0 0 -398.94453659723513 -174.08102098550989 0 -174.08102098550989 -66.031505233568168 0 0 0 0 -349.08530114823952 -146.88456410061235 0 -146.88456410061235 -103.89283329206592 0 0 0 0 -360.60177037434187 -142.21577041297678 0 -142.21577041297678 -83.364231640836806 0 0 0 0 -379.52969611820299 -122.78211348096193 0 -122.78211348096193 -94.148369807217932 0 0 0 0 -386.85751329234336 -149.86606071202186 0 -149.86606071202186 -164.86313278883244 0 0 0 0 377.08286153391236 262.91758944811454 0 262.91758944811454 -109.04259632588946 0 0 0 0 -243.43532805007999 -126.08541411979604 0 -126.08541411979604 277.9211497856013 0 0 0 0 487.8384915603674 78.021939442563962 0 78.021939442563962 -388.24313361698296 0 0 0 0 -790.02674884959561 -191.25155608525046 0 -191.25155608525046 0.42294044355185179 0 0 0 0 -665.10820392530877 -142.95645497066107 0 -142.95645497066107 20.566745964659731 0 0 0 0 -792.46691974729765 -203.22715831127971 0 -203.22715831127971 21.864050031406805 0 0 0 0 -649.12957959788037 -223.50875891943997 0 -223.50875891943997 -55.065165090611117 0 0 0 0 -615.44895259442274 -178.30142592166339 0 -178.30142592166339 -33.494131319784856 0 0 0 0 -573.6328416999313 -211.18874376153144 0 -211.18874376153144 -34.784800154964614 0 0 0 0 -547.28742281510495 -163.04482783440199 0 -163.04482783440199 -15.538437255298959 0 0 0 0 -525.12321414664621 -224.1957999365759 0 -224.1957999365759 -96.596462945484745 0 0 0 0 -500.06628798414022 -171.6892403016609 0 -171.6892403016609 -52.505734493517593 0 0 0 0 -474.21959450817667 -175.82448313729037 0 -175.82448313729037 -93.42660476148194 0 0 0 0 -474.40676422613615 -174.18479642136379 0 -174.18479642136379 -107.77060223413719 0 0 0 0 -403.79885673231911 -141.14901466115953 0 -141.14901466115953 -155.02647598324802 0 0 0 0 -415.0095932057593 -186.2241964950008 0 -186.2241964950008 -215.84126481356361 0 0 0 0 -514.09774735360406 -289.7993733981948 0 -289.7993733981948 -263.52677038847833 0 0 0 0 -561.24438555107918 -243.63712232273974 0 -243.63712232273974 -157.81784608861244 0 0 0 0 -441.58909468690399 -178.430041176136 0 -178.430041176136 -176.13243828453915 0 0 0 0 -561.50012695358237 -240.1157568347997 0 -240.1157568347997 -133.31432955425771 0 0 0 0 -710.57407191768289 -224.39974470262132 0 -224.39974470262132 -51.995331961858028 0 0 0 0 -792.04451166652143 -302.81430033289143 0 -302.81430033289143 -84.896714236803746 0 0 0 0 -693.69990856212098 -272.82735861476976 0 -272.82735861476976 -106.13504915946032 0 0 0 0 -694.94644028076436 -291.3383192352012 0 -291.3383192352012 -150.18477990571228 0 0 0 0 -913.69700246912544 -173.39681105731415 0 -173.39681105731415 3.9938794997015066 0 0 0 0 -10.222592550169907 6.5646385984245796 0 6.5646385984245796 -5.4308203078041402 0 0 0 0 -902.95787636958994 -498.11113139487679 0 -498.11113139487679 -400.43947655361444 0 0 0 0 809.67765221299487 62.519176248003305 0 62.519176248003305 -651.58638541949858 0 0 0 0 -390.52611159521621 -335.26915217429087 0 -335.26915217429087 -358.20349844928 0 0 0 0 -982.08114575481886 -377.55370234970826 0 -377.55370234970826 -129.50292569499288 0 0 0 0 -630.4857418682659 -442.94565788489126 0 -442.94565788489126 -335.71572816325533 0 0 0 0 -1488.5821838818665 43.59486832742914 0 43.59486832742914 1207.401933016341 0 0 0 0 -289.49558582005557 -86.327177944076539 0 -86.327177944076539 -253.28188708307425 0 0 0 0 -234.22095775662456 -146.87354575373683 0 -146.87354575373683 -342.61697394198927 0 0 0 0 -234.83605329459533 -187.83387333798237 0 -187.83387333798237 -332.20798737958103 0 0 0 0 -465.46863465325441 -247.29644375930548 0 -247.29644375930548 -244.41947055811397 0 0 0 0 -340.82388006351539 -137.29975780312463 0 -137.29975780312463 -252.24491075080005 0 0 0 0 -334.20187660562806 -250.56882551847048 0 -250.56882551847048 -366.44704477946834 0 0 0 0 -374.509549214039 -104.22521606498412 0 -104.22521606498412 -179.79096951711836 0 0 0 0 -332.59172944899183 -138.90597721372069 0 -138.90597721372069 -259.35603627449018 0 0 0 0 -332.61226281966083 -100.13368982785323 0 -100.13368982785323 -140.43401057662595 0 0 0 0 -47.186914336984046 375.06718345228001 0 375.06718345228001 315.53909190939885 0 0 0 0 -24.229176875805706 15.525545484910566 0 15.525545484910566 -8.8922823596171696 0 0 0 0 -56.77679899877694 -46.602861336833485 0 -46.602861336833485 34.526381244359072 0 0 0 0 159.01300849614199 -91.142571645043063 0 -91.142571645043063 -192.24200985048446 0 0 0 0 108.09150944973953 121.51361443675955 0 121.51361443675955 152.14788379974198 0 0 0 0 -18.257424862822518 -25.20005677386871 0 -25.20005677386871 26.566836546600825 0 0 0 0 -175.56866592203733 -48.296778656145761 0 -48.296778656145761 89.052096106224781 0 0 0 0 -16.571866308368044 -44.340092366764111 0 -44.340092366764111 31.82409683127571 0 0 0 0 -5.8066922356633199 -1.5376385122325757 0 -1.5376385122325757 -0.097421356760388989 0 0 0 0 -15.400451446847455 7.9896781117352873 0 7.9896781117352873 6.0371307158493437 0 0 0 0 -2.158310735576431 5.1094213121430698 0 5.1094213121430698 0.94447550563948823 0 0 0 0 -4.5952195059319365 0.76847114325460097 0 0.76847114325460097 0.98545490398965896 0 0 0 0 -86.316484904298704 40.187489354227296 0 40.187489354227296 -3.433384393569213 0 0 0 0 -33.162019726252765 3.7366871224189708 0 3.7366871224189708 14.186872536169176 0 0 0 0 -34.329686551820487 -39.326414527944507 0 -39.326414527944507 -81.233050625052783 0 0 0 0 -31.53881501845899 11.86168282309518 0 11.86168282309518 54.856712936536496 0 0 0 0 -7.2366648792311921 8.674223409017003 0 8.674223409017003 11.056868787472407 0 0 0 0 16.22970149340108 103.20129377660305 0 103.20129377660305 82.01918739843677 0 0 0 0 -26.857898443584304 17.793531913787774 0 17.793531913787774 -6.0060085072067579 0 0 0 0 -123.92270636680769 58.044195961585501 0 58.044195961585501 241.31880336274116 0 0 0 0 2.0441082263155295 13.131347902802897 0 13.131347902802897 -8.7181617655710397 0 0 0 0 -24.473521368403453 -0.075314000358275734 0 -0.075314000358275734 14.718600694494626 0 0 0 0 -13.398141336387425 7.4834251760846442 0 7.4834251760846442 -7.0300620493553652 0 0 0 0 -10.012372163987209 2.6322983991210265 0 2.6322983991210265 6.2636431917937987 0 0 0 0 -27.762138389472966 15.944150320256085 0 15.944150320256085 -2.4273438739573976 0 0 0 0 -67.618290467318729 17.388308058535131 0 17.388308058535131 2.2865233705342689 0 0 0 0 -44.973754106118577 5.2306272496361998 0 5.2306272496361998 -4.36300143112976 0 0 0 0 1.3409408739978801 0.31755082737180373 0 0.31755082737180373 -1.491882897255234 0 0 0 0 -98.689137430774281 30.803253072241887 0 30.803253072241887 -0.35316557773950308 0 0 0 0 -15.047223083287349 1.2034690600457907 0 1.2034690600457907 4.2276579147020943 0 0 0 0 -15.790531774531701 -4.7138367946699873 0 -4.7138367946699873 -14.457666673961285 0 0 0 0 -196.78223154430452 -73.949756492625056 0 -73.949756492625056 -38.016106075705466 0 0 0 0 -156.15345901186811 -26.202749671629135 0 -26.202749671629135 -30.687016368419336 0 0 0 0 -55.21954132252722 -34.382461542751571 0 -34.382461542751571 -61.221665219318311 0 0 0 0 -144.69416766823269 75.763029782034209 0 75.763029782034209 -125.67907148144337 0 0 0 0 -4.611433048373101 0.67106996871615365 0 0.67106996871615365 1.6727350907912886 0 0 0 0 -22.885535921173869 -4.9112826201621829 0 -4.9112826201621829 0.07301646478163093 0 0 0 0 -5.9926996585307961 1.543753290023119 0 1.543753290023119 -2.209525338379116 0 0 0 0 -25.44129383872496 0.39765550931565485 0 0.39765550931565485 1.6020935825818015 0 0 0 0 -18.066682293429039 0.30799101237448667 0 0.30799101237448667 1.1751355131590344 0 0 0 0 -23.537414308171719 -4.257432245040718 0 -4.257432245040718 1.8908246199389396 0 0 0 0 -4.7675988950681187 1.8285322070427981 0 1.8285322070427981 5.9963244112465368 0 0 0 0 -18.884318877477199 -5.5136538441881839 0 -5.5136538441881839 2.1157179846952658 0 0 0 0 -18.244868609042896 -2.8273621600868069 0 -2.8273621600868069 3.6222835982216566 0 0 0 0 -17.719241724145832 -3.2974230271350393 0 -3.2974230271350393 12.75488347746932 0 0 0 0 -12.471350890526082 -8.3824147665465034 0 -8.3824147665465034 7.4177537931611823 0 0 0 0 -18.744388016981247 -8.8729906087357335 0 -8.8729906087357335 -20.293199300560445 0 0 0 0 -8.69959902059054 -3.9296505913772535 0 -3.9296505913772535 -5.2630763066617874 0 0 0 0 -27.775502186676022 -16.524581464457469 0 -16.524581464457469 -3.8406630425701564 0 0 0 0 -58.405303365594591 -11.113266035377364 0 -11.113266035377364 25.716970494709585 0 0 0 0 -17.786290458330086 7.5128601320959945 0 7.5128601320959945 -0.64702655212262172 0 0 0 0 4.8444520533084869 32.383338925103089 0 32.383338925103089 13.185942446534682 0 0 0 0 -22.270986756600905 59.077404815148384 0 59.077404815148384 25.995149172390256 0 0 0 0 -18.846339853387235 57.993506364726095 0 57.993506364726095 77.062092005926104 0 0 0 0 -5.5913746865116991 24.096809229907194 0 24.096809229907194 25.399566931997924 0 0 0 0 -15.126240963800967 8.0256440282061305 0 8.0256440282061305 -1.2073180175829057 0 0 0 0 -18.391083881745885 6.6431018311324692 0 6.6431018311324692 0.338671116900783 0 0 0 0 2.3026673132553697 22.562545915927103 0 22.562545915927103 14.683084559388135 0 0 0 0 -25.980378865613602 10.955477367845674 0 10.955477367845674 36.227566466129986 0 0 0 0 -9.6895069975289516 4.5451591614292397 0 4.5451591614292397 1.5786030789545293 0 0 0 0 -6.7487154004629701 12.715958795881306 0 12.715958795881306 18.830178455086525 0 0 0 0 -8.8932196600169391 12.212519021671369 0 12.212519021671369 -0.20069188102702351 0 0 0 0 -10.961915423809899 8.1463641962774034 0 8.1463641962774034 -0.76270831826918184 0 0 0 0 17.046372407363378 58.844954522599529 0 58.844954522599529 65.534797569891452 0 0 0 0 18.658947679679841 73.932534034081726 0 73.932534034081726 54.912161192065682 0 0 0 0 17.915350168957957 54.862349164830746 0 54.862349164830746 -20.352413562903962 0 0 0 0 -73.500623810308753 43.062425482796755 0 43.062425482796755 74.39579942769501 0 0 0 0 -13.260228287515929 -1.2352194737705418 0 -1.2352194737705418 -1.6697712685494821 0 0 0 0 -14.939232811360853 -4.9043715076671788 0 -4.9043715076671788 2.3026413492459028 0 0 0 0 -28.820574765037236 -5.2683895574818251 0 -5.2683895574818251 16.701276278186469 0 0 0 0 -20.475891495996621 -4.4806879919091216 0 -4.4806879919091216 6.9449577679159802 0 0 0 0 -17.631973067407159 -1.2371802311863576 0 -1.2371802311863576 0.20494604900526159 0 0 0 0 -4.3244228645932594 -1.7374037272856242 0 -1.7374037272856242 2.2566731738666035 0 0 0 0 -20.871006741421297 1.4966131306952946 0 1.4966131306952946 5.570598341208651 0 0 0 0 -14.21226721445737 4.8828097624319753 0 4.8828097624319753 1.2336008031485628 0 0 0 0 -18.082598452223465 -0.62497111389137672 0 -0.62497111389137672 2.5824426089298527 0 0 0 0 -19.315929046104429 0.031198530060351004 0 0.031198530060351004 -1.9272091550846824 0 0 0 0 -16.478329929675965 -2.9887113716961835 0 -2.9887113716961835 -5.4222821913944017 0 0 0 0 42.616393488366157 47.497224276713027 0 47.497224276713027 13.801940067614268 0 0 0 0 -11.419191407751214 3.7242557861451928 0 3.7242557861451928 1.6364114429861478 0 0 0 0 43.364527772048859 40.46046731997307 0 40.46046731997307 -4.487232970772709 0 0 0 0 13.122506404091837 28.839272789144125 0 28.839272789144125 8.5315536072854243 0 0 0 0 41.713299414230278 42.286050191524957 0 42.286050191524957 0.010107785630368793 0 0 0 0 -2.5979326791703556 0.2944077806353107 0 0.2944077806353107 0.26247630958964591 0 0 0 0 -21.867753073005588 9.1704717928433848 0 9.1704717928433848 -11.092925557407483 0 0 0 0 68.629934038646752 24.302495631200369 0 24.302495631200369 8.5488328176901742 0 0 0 0 -64.36923327895056 18.014253287443989 0 18.014253287443989 19.628925086897311 0 0 0 0 1.8382484388566809 47.275832183943628 0 47.275832183943628 -0.026426544523876556 0 0 0 0 -174.44442450285715 27.411379456894647 0 27.411379456894647 -0.14495506809723846 0 0 0 0 -60.796496992075845 2.0626039369187961 0 2.0626039369187961 -65.739188247976486 0 0 0 0 -276.50570930851973 -27.565819273994887 0 -27.565819273994887 9.5232804059447957 0 0 0 0 -271.00932885062321 -120.21390742436523 0 -120.21390742436523 -164.61838240789859 0 0 0 0 -149.91026926756604 -56.052040505830398 0 -56.052040505830398 -53.316884543797599 0 0 0 0 -69.636214900298 6.0723965155701798 0 6.0723965155701798 73.889795175967834 0 0 0 0 -120.88152676647587 77.960306937758702 0 77.960306937758702 -17.751038596181026 0 0 0 0 -160.93737270875863 -98.472127945239194 0 -98.472127945239194 -6.5368211325703669 0 0 0 0 0.18479098544289307 0.24597818355647405 0 0.24597818355647405 1.2498537452078651 0 0 0 0 -346.83849438399193 24.505936534646622 0 24.505936534646622 167.92548392633631 0 0 0 0 -98.345287891311727 32.641597755439548 0 32.641597755439548 22.716268174856395 0 0 0 0 -67.322216820728499 -10.171272680436516 0 -10.171272680436516 74.893242324895652 0 0 0 0 -515.96356632449897 -98.52925963488434 0 -98.52925963488434 51.035755184805694 0 0 0 0 -557.22123321075924 -48.686667199441729 0 -48.686667199441729 56.598706069418313 0 0 0 0 -458.33264354217681 -73.136469187104353 0 -73.136469187104353 54.302686211303921 0 0 0 0 -540.78894683615363 -20.693759174009216 0 -20.693759174009216 73.687980579279156 0 0 0 0 -391.71931962372037 -77.623925927516069 0 -77.623925927516069 56.124812845528027 0 0 0 0 -442.62071207477129 -23.170075364299066 0 -23.170075364299066 114.44359936054741 0 0 0 0 -473.548556075737 -42.949928511402547 0 -42.949928511402547 94.732501752417647 0 0 0 0 -638.2488814337994 -107.7653001292786 0 -107.7653001292786 77.182448405561047 0 0 0 0 -524.16501502200845 -65.41212327485357 0 -65.41212327485357 -60.230592109181202 0 0 0 0 -319.46801096748095 -146.98854498847686 0 -146.98854498847686 -32.892405492359615 0 0 0 0 -3.8004580478609569 -1.3109031844753787 0 -1.3109031844753787 -0.31000231412393575 0 0 0 0 -539.26977936158073 -228.41901209716451 0 -228.41901209716451 -15.917241754105302 0 0 0 0 -119.89553641318344 -398.31594553174824 0 -398.31594553174824 44.70463636519613 0 0 0 0 -397.45753792910546 76.189927202679968 0 76.189927202679968 -102.55416706210788 0 0 0 0 -604.65909729685518 -55.410659847665713 0 -55.410659847665713 0.19931097247887231 0 0 0 0 -591.11515752626201 73.90471380334877 0 73.90471380334877 32.786158180786238 0 0 0 0 -24.786626812332543 -17.220963168297448 0 -17.220963168297448 -0.12264698297420112 0 0 0 0 -1113.8482182890584 395.99042810794538 0 395.99042810794538 54.600544486947001 0 0 0 0 -4.5876635321627646 -0.47911061340509775 0 -0.47911061340509775 0.013394189668586312 0 0 0 0 -24.855213130821539 -17.866216057041271 0 -17.866216057041271 0.076471884488098135 0 0 0 0 -151.37840411940124 458.19259532163733 0 458.19259532163733 -140.67317745634546 0 0 0 0 -884.58791926634149 360.14884877693362 0 360.14884877693362 -64.246392877702192 0 0 0 0 -250.54858668538509 245.54245239225628 0 245.54245239225628 -244.07926905997073 0 0 0 0 -343.91119882825296 53.688216201256743 0 53.688216201256743 -179.84979587621223 0 0 0 0 322.24040760652861 35.689237360793847 0 35.689237360793847 -320.2306295044088 0 0 0 0 -60.342088455174235 240.47549746720509 0 240.47549746720509 -187.0828121326563 0 0 0 0 -954.5244432920008 -38.45055346004586 0 -38.45055346004586 -0.49217289810455239 0 0 0 0 -1509.8609192708391 115.098311185344 0 115.098311185344 189.09022098653782 0 0 0 0 -1638.2653232356242 -50.94709452613148 0 -50.94709452613148 126.55843009430214 0 0 0 0 -901.83580787867868 157.10579122844672 0 157.10579122844672 -403.5207995683071 0 0 0 0 -972.19241010358382 382.86605334320905 0 382.86605334320905 54.293682448166635 0 0 0 0 -380.85809374999371 -376.72015579383026 0 -376.72015579383026 -153.96097068589421 0 0 0 0 -9.8404615799186104 -1.6301455801255571 0 -1.6301455801255571 -0.27923002244626488 0 0 0 0 -1240.4314564330853 -291.94722503282537 0 -291.94722503282537 128.28849279169424 0 0 0 0 -366.98304122475383 -297.35817055443823 0 -297.35817055443823 67.450182400909512 0 0 0 0 -985.3322747531347 -174.25911511367394 0 -174.25911511367394 94.252038242041635 0 0 0 0 -1023.0717754433281 -31.914177731572067 0 -31.914177731572067 147.11572621614641 0 0 0 0 -1031.1458280311199 -5.3622561269422704 0 -5.3622561269422704 218.1503806251684 0 0 0 0 -1604.4760309101548 144.65898347257146 0 144.65898347257146 185.65023361875126 0 0 0 0 -1189.1083859071659 511.82231811817041 0 511.82231811817041 -236.58377660173576 0 0 0 0 -1119.287118360051 65.153550350246292 0 65.153550350246292 171.15663126542154 0 0 0 0 -928.00524187739938 53.5886925573718 0 53.5886925573718 133.25746924387795 0 0 0 0 -847.33836241654353 -19.455081588253961 0 -19.455081588253961 95.786969633849367 0 0 0 0 -872.10875223053154 58.150030059060782 0 58.150030059060782 120.00652131031597 0 0 0 0 -950.55933721963083 47.468862071048079 0 47.468862071048079 148.5383253842972 0 0 0 0 -949.59769050226259 -36.411681136744754 0 -36.411681136744754 137.74308924047682 0 0 0 0 -0.71068092493803192 0.88921018385354955 0 0.88921018385354955 1.2689094617074321 0 0 0 0 -266.21140811249643 78.161785303866964 0 78.161785303866964 50.618452609177893 0 0 0 0 -1.182035349916049 1.4740835781095711 0 1.4740835781095711 0.53687237287194023 0 0 0 0 -748.15974077337887 -95.278229099038299 0 -95.278229099038299 44.543900297176151 0 0 0 0 -135.41465981223155 -72.327522549739001 0 -72.327522549739001 -19.278605380108274 0 0 0 0 -815.93711317307316 -147.76240184668768 0 -147.76240184668768 91.073035119643805 0 0 0 0 -890.12278112958302 -27.911341297519812 0 -27.911341297519812 113.16947935295639 0 0 0 0 -454.67074754455825 102.05512541003984 0 102.05512541003984 -69.63807335873463 0 0 0 0 -680.37067978142295 170.62629881538055 0 170.62629881538055 -62.954229913240979 0 0 0 0 -384.7696882711025 94.789969591186249 0 94.789969591186249 -206.16435561697241 0 0 0 0 -757.59651632892201 331.86366558656209 0 331.86366558656209 -183.94745346404321 0 0 0 0 -826.10255569408764 230.112638196944 0 230.112638196944 -39.632064449546192 0 0 0 0 -1027.6708767505042 295.91475529301238 0 295.91475529301238 5.1361710091830446 0 0 0 0 -770.29821499797981 136.42108166891791 0 136.42108166891791 57.19400143339908 0 0 0 0 -789.91372375027277 176.67875763001018 0 176.67875763001018 62.567954759784243 0 0 0 0 -951.55414570069843 173.71042956515811 0 173.71042956515811 98.751222756401148 0 0 0 0 -830.65332715137629 129.76451911684399 0 129.76451911684399 110.04554090262832 0 0 0 0 -829.26879424700746 127.07123627856708 0 127.07123627856708 108.90037182549077 0 0 0 0 -725.4032036755234 101.71348657131034 0 101.71348657131034 79.700810289952642 0 0 0 0 -783.9767094552808 145.64100353644255 0 145.64100353644255 60.280519849499342 0 0 0 0 -578.52685566816945 -28.538882600203578 0 -28.538882600203578 40.269206945365113 0 0 0 0 -553.14707705662295 64.70190041207502 0 64.70190041207502 -0.20925457924568036 0 0 0 0 -740.0495604116586 68.951907796527166 0 68.951907796527166 84.260158573971239 0 0 0 0 -708.71207293093903 59.854228140615305 0 59.854228140615305 86.055206917552368 0 0 0 0 -829.16886709682876 50.208407764285312 0 50.208407764285312 126.08466847337968 0 0 0 0 -800.00722745669918 93.727832032499407 0 93.727832032499407 114.36134186673098 0 0 0 0 -783.97792318904249 36.891996869034699 0 36.891996869034699 129.20411999397766 0 0 0 0 -675.67635964302463 -33.300274977230856 0 -33.300274977230856 102.82412068030362 0 0 0 0 -754.31361857653246 -18.962982730732165 0 -18.962982730732165 122.71606317463011 0 0 0 0 -871.01239569514291 -22.25767392345324 0 -22.25767392345324 134.38120516865365 0 0 0 0 -836.83920895500341 51.099966703332029 0 51.099966703332029 139.21896611476222 0 0 0 0 -863.36734261936908 67.479419508410956 0 67.479419508410956 131.56660201867453 0 0 0 0 -906.49294958484825 54.876239456891199 0 54.876239456891199 132.75212643365148 0 0 0 0 -983.48841129167704 78.444919431392009 0 78.444919431392009 125.56588412833753 0 0 0 0 -904.35591446986655 -21.615071497144072 0 -21.615071497144072 126.01067210525889 0 0 0 0 -777.81791408943536 -110.39240122923661 0 -110.39240122923661 86.852809031554898 0 0 0 0 -883.27078844094649 -8.2963421011986611 0 -8.2963421011986611 124.88132061785609 0 0 0 0 -895.06783868715866 167.86026607139956 0 167.86026607139956 100.43523263764837 0 0 0 0 -880.10670567065245 132.15479199747233 0 132.15479199747233 98.896530494488616 0 0 0 0 -930.94215384894051 135.57347387114169 0 135.57347387114169 126.2211868273962 0 0 0 0 -873.30118417192716 102.9999031553873 0 102.9999031553873 133.71262740288967 0 0 0 0 -859.22419377911137 109.70096285337786 0 109.70096285337786 135.45405034029818 0 0 0 0 -872.53325143485563 142.43428727515266 0 142.43428727515266 123.58822663768979 0 0 0 0 -819.99788505618926 147.29035091530795 0 147.29035091530795 103.73136221086952 0 0 0 0 -843.92286189628066 123.29619500750618 0 123.29619500750618 125.52313636564168 0 0 0 0 -827.68812706012977 130.39293833532452 0 130.39293833532452 126.11821052448067 0 0 0 0 -830.50580030196579 93.920778094191974 0 93.920778094191974 135.20058795583282 0 0 0 0 -805.07317457667523 120.78129728294057 0 120.78129728294057 109.7351207642314 0 0 0 0 -802.16375108656939 98.180848452379905 0 98.180848452379905 111.11757119786171 0 0 0 0 -832.47135856677778 122.15334943949642 0 122.15334943949642 124.71874433376297 0 0 0 0 -831.16482937151159 117.08940279356489 0 117.08940279356489 119.69553341013398 0 0 0 0 -865.87000025928137 120.06432563347039 0 120.06432563347039 122.48858550279147 0 0 0 0 -849.85364872598439 63.324143157375545 0 63.324143157375545 109.20188441646906 0 0 0 0 -785.51409592467826 75.959814408532566 0 75.959814408532566 100.82282216072826 0 0 0 0 -770.28048288419814 15.858578604832871 0 15.858578604832871 53.581123384052262 0 0 0 0 -718.99467193114106 110.45120871365361 0 110.45120871365361 84.466930184912144 0 0 0 0 -796.13730867649429 87.994246901130737 0 87.994246901130737 92.436704702688075 0 0 0 0 -826.33154032839229 128.90191266479485 0 128.90191266479485 114.28034097205273 0 0 0 0 -810.26328308967641 123.07104923472502 0 123.07104923472502 116.36104508605695 0 0 0 0 -761.16040314617567 -6.7591231021353906 0 -6.7591231021353906 76.038532355027201 0 0 0 0 -745.64156017673668 -81.290570883261353 0 -81.290570883261353 12.555921666178619 0 0 0 0 -691.78343249676982 44.338829704023283 0 44.338829704023283 53.617268550810877 0 0 0 0 -684.33178358676378 40.293228475609794 0 40.293228475609794 55.762844761183715 0 0 0 0 -604.51963170641102 -63.794734664610132 0 -63.794734664610132 4.1098493010779293 0 0 0 0 -456.8436249538936 9.6365863012219961 0 9.6365863012219961 -14.099677571217853 0 0 0 0 -538.75550731488329 56.140408928957584 0 56.140408928957584 38.004385574009575 0 0 0 0 -642.09269792964915 86.153664313372701 0 86.153664313372701 43.771504755344722 0 0 0 0 -537.44358439699135 61.540164767505587 0 61.540164767505587 36.666317887194054 0 0 0 0 -525.14362382865511 108.34876825967967 0 108.34876825967967 26.883481629376547 0 0 0 0 -548.44885508011794 77.225931038101407 0 77.225931038101407 58.705005116841221 0 0 0 0 -492.32563372635923 16.638466304965505 0 16.638466304965505 70.110385129911265 0 0 0 0 -768.07350793783553 142.71001602589877 0 142.71001602589877 99.82878625194553 0 0 0 0 -821.21483875234844 150.98096621938384 0 150.98096621938384 102.14501448617284 0 0 0 0 -652.69095621682936 129.64641378313308 0 129.64641378313308 62.366570843099453 0 0 0 0 -761.47131839535723 116.55701893766047 0 116.55701893766047 86.573654890852595 0 0 0 0 -714.99995959800435 132.65111989761363 0 132.65111989761363 71.345603386079347 0 0 0 0 -588.94096731720492 150.82785817537615 0 150.82785817537615 19.031826174389607 0 0 0 0 -729.61174787077471 166.1120512552576 0 166.1120512552576 57.756438351659199 0 0 0 0 -802.2687346820021 174.82393881807502 0 174.82393881807502 65.168493129339367 0 0 0 0 -664.32393714215141 172.15014145264104 0 172.15014145264104 -28.091920682654745 0 0 0 0 -652.32646252097766 125.79048520345464 0 125.79048520345464 49.264724439560268 0 0 0 0 -576.9567999576102 94.664705986858735 0 94.664705986858735 -7.2641951365142177 0 0 0 0 -769.69433883149759 174.24380152822232 0 174.24380152822232 -7.8861944863801909 0 0 0 0 -155.21060012589442 -34.442576102088196 0 -34.442576102088196 -34.547738516850586 0 0 0 0 -364.19856796989916 -50.406425825663973 0 -50.406425825663973 71.240887311731058 0 0 0 0 -412.80156857246766 36.769127999571538 0 36.769127999571538 22.815110746526898 0 0 0 0 -445.06369472233928 107.31930613843133 0 107.31930613843133 4.6378348652197019 0 0 0 0 -483.33923674933612 141.90045853426182 0 141.90045853426182 -33.042980084062947 0 0 0 0 -347.28313468716806 94.54840863991376 0 94.54840863991376 -24.225550923165429 0 0 0 0 -242.17383177368902 42.490410701669134 0 42.490410701669134 -52.709884476738353 0 0 0 0 -376.37948507425608 54.169219810737559 0 54.169219810737559 48.401787694024279 0 0 0 0 -252.38156273460481 40.702272360098505 0 40.702272360098505 -54.788507544849381 0 0 0 0 -381.26764256105525 88.666713634725852 0 88.666713634725852 -108.41485432110676 0 0 0 0 -346.17776063913334 38.406154373777213 0 38.406154373777213 -106.35166973453488 0 0 0 0 -490.83787778700935 -7.3302614596182138 0 -7.3302614596182138 -32.506397540976195 0 0 0 0 -145.18922074325383 12.784602988547249 0 12.784602988547249 -94.309003921060139 0 0 0 0 -332.6511183723851 -26.667496041458435 0 -26.667496041458435 16.803220217276248 0 0 0 0 -666.18664741548127 57.621159055429871 0 57.621159055429871 -124.21096993660899 0 0 0 0 -591.69779263777309 166.26983474915914 0 166.26983474915914 -152.58520119301284 0 0 0 0 -531.59308552594302 94.724843078064509 0 94.724843078064509 -254.57692376295745 0 0 0 0 -682.45314614935705 133.36896578444532 0 133.36896578444532 -341.89536871473865 0 0 0 0 -953.46378166024806 269.04167092659463 0 269.04167092659463 -404.68011981348263 0 0 0 0 -1017.6801326317654 146.75663404058878 0 146.75663404058878 -425.09877587170354 0 0 0 0 -929.95908854101435 267.2832928259154 0 267.2832928259154 -132.1664883557055 0 0 0 0 -992.13663850296871 144.68123289958567 0 144.68123289958567 -119.1417501393953 0 0 0 0 -1240.2433598756324 369.95075532271858 0 369.95075532271858 -317.52659992032136 0 0 0 0 -2259.3130153430393 -678.2486273371087 0 -678.2486273371087 -298.75609420407295 0 0 0 0 -1583.5669819173636 -457.69533689390482 0 -457.69533689390482 -101.89526811313863 0 0 0 0 -966.61840005416889 -243.21815192075906 0 -243.21815192075906 -66.444367247917398 0 0 0 0 -1745.4784637123521 124.36722582428456 0 124.36722582428456 32.902388488635552 0 0 0 0 -1165.2963988121192 76.831686207888424 0 76.831686207888424 84.785308442532369 0 0 0 0 -1127.2369561756495 64.88095647836235 0 64.88095647836235 31.182622707284906 0 0 0 0 -1284.6030935974559 -55.186403789333326 0 -55.186403789333326 94.31752906282054 0 0 0 0 -1056.5729582727072 -286.5480730383033 0 -286.5480730383033 -34.050810078729683 0 0 0 0 -958.56460008752765 -66.265304134550206 0 -66.265304134550206 93.566623969600187 0 0 0 0 -980.95175385833136 -105.10972783528996 0 -105.10972783528996 89.021494513893231 0 0 0 0 -1025.1651613167342 107.49600381268021 0 107.49600381268021 88.09158676842344 0 0 0 0 -1072.0981175439665 -5.828093078711845 0 -5.828093078711845 124.69325258411482 0 0 0 0 -988.54878550752619 178.28320246232016 0 178.28320246232016 80.059789311050736 0 0 0 0 -920.22173220734112 142.14310574160754 0 142.14310574160754 45.463090853384529 0 0 0 0 -961.39801526640076 70.208091020325355 0 70.208091020325355 109.48783793727398 0 0 0 0 -911.79080658059684 211.83455721596238 0 211.83455721596238 33.406133286170189 0 0 0 0 -801.5559723225706 170.9274813302531 0 170.9274813302531 40.73563744781859 0 0 0 0 -769.32708326613283 176.52168248908049 0 176.52168248908049 -99.725129113505318 0 0 0 0 -1041.7287835351308 248.56284113952506 0 248.56284113952506 -44.023476889115045 0 0 0 0 -109.48260187858978 4.1998544555041804 0 4.1998544555041804 -0.79538232000049902 0 0 0 0 -1.280503020530773 -2.0670462616467091 0 -2.0670462616467091 -3.930811199827474 0 0 0 0 -154.0641202974075 20.306374873762479 0 20.306374873762479 14.899362269115727 0 0 0 0 -133.43573844677303 -7.1092263469056434 0 -7.1092263469056434 23.258116580246906 0 0 0 0 -120.07948690248304 -30.63005269559153 0 -30.63005269559153 54.946502664512991 0 0 0 0 -107.68106291178265 -57.285099457782508 0 -57.285099457782508 39.243181800441562 0 0 0 0 -86.467114318482345 -52.774221555362828 0 -52.774221555362828 -4.5451201928144656 0 0 0 0 -49.963037834764691 -14.647577564864605 0 -14.647577564864605 3.7317298841453521 0 0 0 0 -2.052733779875723 -3.9547191469056315 0 -3.9547191469056315 -5.5330465179386064 0 0 0 0 -38.257534623495303 -2.3250726607634533 0 -2.3250726607634533 -4.8306564414269815 0 0 0 0 -42.610643085205083 -21.250144644794432 0 -21.250144644794432 -6.3661869640527584 0 0 0 0 -9.5132969553087605 -21.979278464852086 0 -21.979278464852086 5.8258953179926323 0 0 0 0 43.39588494336931 -18.114735629707866 0 -18.114735629707866 -106.79380609068903 0 0 0 0 -19.70958626891661 0.86351506321761917 0 0.86351506321761917 -19.846135074282756 0 0 0 0 -1.8700441333830611 -0.54122056239120298 0 -0.54122056239120298 5.2643172644369116 0 0 0 0 -101.22932093811687 -120.4779805427861 0 -120.4779805427861 3.2894736908601772 0 0 0 0 -241.35591973399278 -20.138758971585162 0 -20.138758971585162 146.29172964202007 0 0 0 0 -215.88220242705574 116.88274028684384 0 116.88274028684384 68.675138664264523 0 0 0 0 -42.349113266245695 -11.511276444392138 0 -11.511276444392138 30.14006567020806 0 0 0 0 -85.24186669223127 76.754093666429981 0 76.754093666429981 -67.475259465963063 0 0 0 0 -1.0518918839298124 2.7842896326852156 0 2.7842896326852156 1.6892599480539676 0 0 0 0 -42.203391676361207 -15.081988422004088 0 -15.081988422004088 12.66364200148837 0 0 0 0 -40.422971491498174 3.1992551099012871 0 3.1992551099012871 -30.194615734214494 0 0 0 0 -0.34421314575840256 0.52057259448912419 0 0.52057259448912419 4.1706917416245606 0 0 0 0 28.558192964963382 -31.967718324424595 0 -31.967718324424595 0.48701946157871134 0 0 0 0 -10.866116592456819 4.1332250919863327 0 4.1332250919863327 4.8451953591398649 0 0 0 0 -11.801903970670537 -23.730092767954943 0 -23.730092767954943 13.148017650553811 0 0 0 0 -1.4808909520535281 2.648421094445041 0 2.648421094445041 0.88274184816997092 0 0 0 0 -66.241608152980916 -22.257014967362238 0 -22.257014967362238 24.983371425314544 0 0 0 0 -17.019917172674468 -6.2967395072076897 0 -6.2967395072076897 -6.0207678887354632 0 0 0 0 -92.63965902061318 13.819215310225218 0 13.819215310225218 -9.1770559490250889 0 0 0 0 -59.003672782739159 -21.677575949097786 0 -21.677575949097786 -5.5965809289541539 0 0 0 0 -29.350224234600319 -21.802356881122023 0 -21.802356881122023 -26.075302496663198 0 0 0 0 -0.64889163004900752 0.74451353921386954 0 0.74451353921386954 2.7952651169815184 0 0 0 0 -40.867202694556909 -1.9133159515445186 0 -1.9133159515445186 -1.9739714726040347 0 0 0 0 -11.244664752826793 -4.1508479739256927 0 -4.1508479739256927 5.9271170895435716 0 0 0 0 -15.827938667091075 -15.03779258519603 0 -15.03779258519603 -19.448638990251311 0 0 0 0 -20.422224769776221 -8.0841328644180521 0 -8.0841328644180521 -16.31920755331646 0 0 0 0 14.505510758215678 -0.90708401848814901 0 -0.90708401848814901 -21.420701292814101 0 0 0 0 29.58716605961672 -38.260951628474288 0 -38.260951628474288 -45.823754998442837 0 0 0 0 -129.69688455871074 -5.6463255295999488 0 -5.6463255295999488 23.381219304263595 0 0 0 0 0.028078402258699953 -0.34272205474377415 0 -0.34272205474377415 -1.8872441394966213 0 0 0 0 -247.35745296248206 85.447808990982139 0 85.447808990982139 11.498229975659797 0 0 0 0 -154.92305780205061 39.044056796008675 0 39.044056796008675 47.895735141608839 0 0 0 0 -80.133861536931363 92.701149151729567 0 92.701149151729567 -54.962321356718576 0 0 0 0 -60.27298674263875 -57.495574839693944 0 -57.495574839693944 -19.135676344387022 0 0 0 0 -30.122506599844201 -18.974795023809435 0 -18.974795023809435 11.72055703231797 0 0 0 0 -93.553076080803294 13.960188349883566 0 13.960188349883566 58.146872727453285 0 0 0 0 -57.792766566009959 -16.307140139967487 0 -16.307140139967487 -22.7865674688328 0 0 0 0 -130.03861335036345 -83.708676248256239 0 -83.708676248256239 -20.029713185985884 0 0 0 0 -8.6919739925651811 -36.944688019009902 0 -36.944688019009902 -39.915072942872712 0 0 0 0 -2.9352623299346305 -16.536387767342717 0 -16.536387767342717 -35.026841845782201 0 0 0 0 12.483515867294045 -5.8896098324029253 0 -5.8896098324029253 -32.317737318714279 0 0 0 0 1.894819431763608 24.357215882964738 0 24.357215882964738 33.967000954641321 0 0 0 0 2.8598365233024197 -22.27003192818129 0 -22.27003192818129 25.896360595579466 0 0 0 0 8.3455961324798409 9.9707503209001942 0 9.9707503209001942 -20.314571165256822 0 0 0 0 71.613047535909573 39.881511845953014 0 39.881511845953014 -56.23963828312327 0 0 0 0 -5.5395697235071566 -83.469639681424582 0 -83.469639681424582 -96.450955187589415 0 0 0 0 11.070832307625096 98.773287564445695 0 98.773287564445695 106.16867820181722 0 0 0 0 -46.624996737838956 4.1515049961565182 0 4.1515049961565182 211.77005321070646 0 0 0 0 -44.58623898573569 -93.680130183411094 0 -93.680130183411094 187.39737780593757 0 0 0 0 -23.501588225608657 -3.4659141280832699 0 -3.4659141280832699 -0.1429875027036292 0 0 0 0 27.166296004608739 -92.751472100864873 0 -92.751472100864873 -0.09766917621775939 0 0 0 0 11.017605090004508 -44.562428536474762 0 -44.562428536474762 83.276966982344319 0 0 0 0 -29.011661422380712 -132.93280445766257 0 -132.93280445766257 97.458862731325368 0 0 0 0 -27.453514328459278 11.74562708223187 0 11.74562708223187 49.970257785758349 0 0 0 0 -14.07533956336556 -38.673248894727401 0 -38.673248894727401 52.161390540181031 0 0 0 0 -63.049363723694114 -0.46189145296881406 0 -0.46189145296881406 113.97909297633885 0 0 0 0 1.7377533043909352 -22.672817945038219 0 -22.672817945038219 61.339787362591892 0 0 0 0 -30.369546848654068 -4.6669241934723118 0 -4.6669241934723118 -0.61329070355969917 0 0 0 0 2.3209553567139665 -28.087807183100647 0 -28.087807183100647 0.15515682691377192 0 0 0 0 11.293253133277176 -45.127524257461033 0 -45.127524257461033 26.515669020011927 0 0 0 0 -32.261624245322309 -12.65491327008951 0 -12.65491327008951 32.235959564187759 0 0 0 0 -21.367984915028501 11.08671473830556 0 11.08671473830556 45.642664362130077 0 0 0 0 -28.738064713135827 -10.874263724807406 0 -10.874263724807406 30.442606092014788 0 0 0 0 36.442844749806682 57.13925708232577 0 57.13925708232577 -0.10839313117680069 0 0 0 0 -37.263450319052822 -3.1670065076077307 0 -3.1670065076077307 1.0052568951797121 0 0 0 0 -56.979636663571 21.569639172280915 0 21.569639172280915 54.674625982722205 0 0 0 0 -8.8356312947445588 17.740695086505042 0 17.740695086505042 2.8270054515842027 0 0 0 0 -27.383596778439824 34.605695385445273 0 34.605695385445273 34.463593280689167 0 0 0 0 -62.712244921174715 112.63814637436045 0 112.63814637436045 -146.38786689005403 0 0 0 0 -109.81776853882911 -53.998744024423473 0 -53.998744024423473 63.067895132292122 0 0 0 0 -6.3985310700177962 0.87134751301357483 0 0.87134751301357483 0.49988630955514946 0 0 0 0 44.266204926650971 120.29466102749365 0 120.29466102749365 125.21244901135587 0 0 0 0 -731.15520620974712 163.7057405046715 0 163.7057405046715 0.25221166814411877 0 0 0 0 -2.7490834036226488 2.7639967098151459 0 2.7639967098151459 -0.13892558065331762 0 0 0 0 -764.84353172611736 109.00990769565669 0 109.00990769565669 -88.384319813774937 0 0 0 0 -750.88040866405936 79.832184776155799 0 79.832184776155799 -83.121005446620757 0 0 0 0 -798.26479669531182 133.86914000398383 0 133.86914000398383 -36.569112185444851 0 0 0 0 -790.12993202140206 104.76084926092989 0 104.76084926092989 62.502112692108227 0 0 0 0 -493.1679957586457 251.70708348255712 0 251.70708348255712 -118.74127515220475 0 0 0 0 -731.45154340003501 39.313441075832998 0 39.313441075832998 0.60686273269300273 0 0 0 0 -584.18599584217736 68.262501989351676 0 68.262501989351676 105.02955402729401 0 0 0 0 -598.53542437845317 135.81994599627677 0 135.81994599627677 -18.752997049396015 0 0 0 0 -741.45843775062531 123.50922080522487 0 123.50922080522487 73.166128797655119 0 0 0 0 52.976551791565726 66.717306449334387 0 66.717306449334387 -50.311993260510462 0 0 0 0 -4.6275480882370346 18.785761057211147 0 18.785761057211147 -1.368778164430223 0 0 0 0 -460.28811370297626 125.06525062379956 0 125.06525062379956 0.0050740231066583874 0 0 0 0 -23.281584614189342 29.991960087951952 0 29.991960087951952 8.2319236533314779 0 0 0 0 -40.563530352446833 51.419513307463433 0 51.419513307463433 15.738782869572105 0 0 0 0 -943.19960702542448 80.826284694427329 0 80.826284694427329 28.989200262175189 0 0 0 0 -945.84910321735515 39.93052318307133 0 39.93052318307133 41.873606340626679 0 0 0 0 -850.43233265916206 102.86447965410674 0 102.86447965410674 0.046304932165888976 0 0 0 0 -857.04177748729853 5.7686607533355527 0 5.7686607533355527 74.317068313187463 0 0 0 0 -754.30594306209241 131.31357304949427 0 131.31357304949427 23.520937293128057 0 0 0 0 -849.69634667427454 91.697970182170124 0 91.697970182170124 21.914598498745363 0 0 0 0 -862.05985475645866 64.753092288740561 0 64.753092288740561 -31.598456298315114 0 0 0 0 -804.28901702733128 108.13312473494791 0 108.13312473494791 -0.13257225939676326 0 0 0 0 -764.62330928264419 79.663656388768615 0 79.663656388768615 -61.782921163142191 0 0 0 0 -1091.4988409891812 13.176248284192241 0 13.176248284192241 56.752545752105448 0 0 0 0 -653.22953322035028 49.842268894294307 0 49.842268894294307 -3.0137559235514573 0 0 0 0 -703.63151486379502 29.431591808721194 0 29.431591808721194 -3.6673664423428818 0 0 0 0 -2.2085421967746299 1.9859426257244763 0 1.9859426257244763 -0.69524086046133204 0 0 0 0 -860.49379589750606 -21.049680519825813 0 -21.049680519825813 29.014570332761991 0 0 0 0 -787.1160146479524 -70.747652966529756 0 -70.747652966529756 41.321808826229699 0 0 0 0 -1.6541011649347013 1.1764292835289325 0 1.1764292835289325 -0.195009115125097 0 0 0 0 -474.95573444332695 53.680742703093387 0 53.680742703093387 -45.410998048747217 0 0 0 0 -906.91801382436824 74.766515408588361 0 74.766515408588361 64.94215799431845 0 0 0 0 -1052.0330360051012 84.775148346630431 0 84.775148346630431 56.498581355844607 0 0 0 0 -1047.3451778238086 87.511902249108601 0 87.511902249108601 96.194146099930975 0 0 0 0 -976.14977944898419 32.703559245061001 0 32.703559245061001 70.45414717090226 0 0 0 0 -1322.9570197743305 193.62035908489042 0 193.62035908489042 60.625307497944959 0 0 0 0 -1139.6362258390582 148.19994263460259 0 148.19994263460259 47.988529328060849 0 0 0 0 -1087.6590149796684 75.680443930385053 0 75.680443930385053 70.754755988555416 0 0 0 0 -1108.4471519686922 125.6683794857347 0 125.6683794857347 16.213487861916065 0 0 0 0 -913.0733468906692 -65.035174545528434 0 -65.035174545528434 39.654045362216948 0 0 0 0 -1147.0633310269168 -61.512875544567891 0 -61.512875544567891 80.219642180297797 0 0 0 0 -1166.6436951015785 -52.340694254758432 0 -52.340694254758432 76.587169034171325 0 0 0 0 -1323.918838896263 -100.12693724571535 0 -100.12693724571535 92.389432387984016 0 0 0 0 -1445.8655759585672 48.471127187966886 0 48.471127187966886 3.0102097865076303 0 0 0 0 -763.40377182427619 -217.6224380138533 0 -217.6224380138533 -95.988808157671883 0 0 0 0 -427.01891401279136 -47.274443742197491 0 -47.274443742197491 11.823523291789115 0 0 0 0 -1.4536268902824787 1.1673789784906035 0 1.1673789784906035 -0.35367314045299736 0 0 0 0 -597.56947782181669 57.274713689876648 0 57.274713689876648 -30.036366152629626 0 0 0 0 -296.4252683755185 -2.7384334328248769 0 -2.7384334328248769 -36.608297315821119 0 0 0 0 -322.8624429005722 29.724505547104854 0 29.724505547104854 -68.344515321741255 0 0 0 0 -302.23923782591737 32.229294283467851 0 32.229294283467851 47.771013226388277 0 0 0 0 -134.71280914969975 53.190535727013867 0 53.190535727013867 48.263359995323071 0 0 0 0 -105.91870586191726 24.703478244274578 0 24.703478244274578 76.212416732150814 0 0 0 0 -75.077031753055053 14.823373175656798 0 14.823373175656798 61.830468421789647 0 0 0 0 -90.406236862007063 1.4248016077222019 0 1.4248016077222019 74.76484520505096 0 0 0 0 65.933748640585691 -12.74999756792181 0 -12.74999756792181 31.203340016226548 0 0 0 0 152.788258119479 -341.20834355272774 0 -341.20834355272774 -45.276963224610881 0 0 0 0 -139.27866215273889 -107.09506250433566 0 -107.09506250433566 21.065968054343102 0 0 0 0 -273.48678656171614 -124.05163597281182 0 -124.05163597281182 21.949164728582673 0 0 0 0 -1223.263992532884 -738.94746172959003 0 -738.94746172959003 168.39796214162197 0 0 0 0 -1347.0122919747082 -10.705484848911965 0 -10.705484848911965 -142.72647177401814 0 0 0 0 -2131.4786731360218 -205.5233368412695 0 -205.5233368412695 -17.962088687702817 0 0 0 0 -2.8227748379310071 -3.2448605668634514 0 -3.2448605668634514 -1.7156354587977898 0 0 0 0 -2387.4944426005895 -44.585790443841631 0 -44.585790443841631 185.72590631585581 0 0 0 0 -2275.2534831373487 -102.04132485096375 0 -102.04132485096375 34.334287103271436 0 0 0 0 -1643.1384335364273 287.23448246503926 0 287.23448246503926 94.663442187804321 0 0 0 0 -2318.9866525970574 151.4998131388179 0 151.4998131388179 161.94200723606184 0 0 0 0 -1615.6047260573832 285.1490123889356 0 285.1490123889356 13.695833952587236 0 0 0 0 -1209.6042699144746 397.40325837656724 0 397.40325837656724 -8.440379403940824 0 0 0 0 -1678.7932473792462 140.80918829391067 0 140.80918829391067 55.712712143644296 0 0 0 0 62.470847735734424 41.736610321697071 0 41.736610321697071 -10.136866652426988 0 0 0 0 -5.1155103852160693 16.863106270351835 0 16.863106270351835 -3.5973848223842788 0 0 0 0 -63.0894065173743 17.687884936790255 0 17.687884936790255 33.450281596461991 0 0 0 0 -79.843208868493093 -38.340730852551815 0 -38.340730852551815 -72.787437276023326 0 0 0 0 -657.17982065340038 33.992573016855317 0 33.992573016855317 26.100334027027202 0 0 0 0 -696.23355795045791 158.56635383290302 0 158.56635383290302 32.943655715291015 0 0 0 0 -608.02348354304559 181.28888310904637 0 181.28888310904637 7.5880296403395278 0 0 0 0 -842.53306707931915 185.18478468239141 0 185.18478468239141 32.882205459202055 0 0 0 0 -392.01656424582325 332.45633004443505 0 332.45633004443505 -58.033563556002719 0 0 0 0 -873.7734094572952 69.714017870168959 0 69.714017870168959 27.618819241121969 0 0 0 0 -786.19069540713826 90.410064119529864 0 90.410064119529864 -68.339625123268888 0 0 0 0 -1724.0428495597298 233.54181629531581 0 233.54181629531581 -0.13759847575420281 0 0 0 0 -1822.4341151348926 162.06104858274989 0 162.06104858274989 17.677943732972381 0 0 0 0 -1.3245703942577176 3.4630078460788241 0 3.4630078460788241 -1.6504296611513425 0 0 0 0 162.59434858911845 142.15172154741788 0 142.15172154741788 -47.152541149044055 0 0 0 0 -100.52168135728425 55.45516443084162 0 55.45516443084162 51.93919039962384 0 0 0 0 -53.480970045842696 48.148605374359704 0 48.148605374359704 51.732573376488034 0 0 0 0 -1594.1419899999019 188.82418306461352 0 188.82418306461352 -75.206655335754022 0 0 0 0 -1678.7970930282172 100.36196912811852 0 100.36196912811852 -58.735738236970974 0 0 0 0 -4.6164429031826018 13.173905083489046 0 13.173905083489046 -3.717646593913539 0 0 0 0 247.92070633334515 187.27235202229917 0 187.27235202229917 51.537468379284746 0 0 0 0 -65.972936969192233 197.80935932481862 0 197.80935932481862 244.53504911696928 0 0 0 0 -20.15690521147917 -0.31950242146035635 0 -0.31950242146035635 41.545928291732707 0 0 0 0 -106.67447963189261 62.90487291322404 0 62.90487291322404 127.52794466108026 0 0 0 0 -323.1226689555624 -57.096738153422393 0 -57.096738153422393 135.85877135941644 0 0 0 0 -151.88818223195267 -118.22187637440425 0 -118.22187637440425 -11.403436843715099 0 0 0 0 -216.06662456267077 -275.70667114711944 0 -275.70667114711944 -261.48130457500065 0 0 0 0 -626.73208844984765 162.35753327287398 0 162.35753327287398 533.8982372198293 0 0 0 0 -4.6547946340709814 -1.5073488173947212 0 -1.5073488173947212 -0.10071522326820936 0 0 0 0 -609.83313424326479 92.459218737677475 0 92.459218737677475 37.340237788954255 0 0 0 0 -879.0215434464335 385.92631870169043 0 385.92631870169043 198.47780204252831 0 0 0 0 725.06146047140646 436.35782577473788 0 436.35782577473788 -221.33550383685406 0 0 0 0 -503.11971605278086 47.170852550650125 0 47.170852550650125 221.18891695701961 0 0 0 0 -2.6447796471114202 4.988279590869098 0 4.988279590869098 -1.6114546400787226 0 0 0 0 -1748.9140113275644 -75.413956777901149 0 -75.413956777901149 -122.22994066888077 0 0 0 0 -21.089672348287422 37.476664833170162 0 37.476664833170162 22.096971147715976 0 0 0 0 -0.95776226292244893 8.280149579660133 0 8.280149579660133 -3.8503692340360747 0 0 0 0 -37.448016445625399 17.011135080921008 0 17.011135080921008 -1.6128165192403685 0 0 0 0 -35.092211731971474 5.0988922134715722 0 5.0988922134715722 -6.6905820494662294 0 0 0 0 -844.64712669650908 -11.975468286142586 0 -11.975468286142586 12.487846538230997 0 0 0 0 -2761.3534044527623 539.91234873342523 0 539.91234873342523 382.86730371347312 0 0 0 0 -168.05192246050865 273.79721240419735 0 273.79721240419735 -335.94515909474649 0 0 0 0 -829.5253031371285 323.69852798529558 0 323.69852798529558 110.19155771147871 0 0 0 0 -45.085941952842404 5.9281490682988078 0 5.9281490682988078 1.7792802901062714 0 0 0 0 -3.242765658205812 10.474110809603303 0 10.474110809603303 0.82322599240924177 0 0 0 0 -35.414563255093526 12.482871377894753 0 12.482871377894753 4.1628435339580392 0 0 0 0 -21.617842928942991 37.627387921766058 0 37.627387921766058 -32.748864673696005 0 0 0 0 -24.586472066241129 6.7074735289589675 0 6.7074735289589675 3.1940166798172855 0 0 0 0 -672.81069923154428 557.19255176075103 0 557.19255176075103 -417.58576203629764 0 0 0 0 -500.45664892173954 -221.21091244286481 0 -221.21091244286481 36.876528316403778 0 0 0 0 -9.045091525108262 4.6011072918758789 0 4.6011072918758789 1.5984506277859676 0 0 0 0 -1269.6658368676508 239.28778207027176 0 239.28778207027176 80.760626115310515 0 0 0 0 -1179.851531246677 586.02403614835839 0 586.02403614835839 -183.89558377248795 0 0 0 0 -739.72477599687409 395.31602918139038 0 395.31602918139038 -542.04340313032435 0 0 0 0 -591.72412207318121 88.047681273648323 0 88.047681273648323 -181.76123119655051 0 0 0 0 -996.04345979823847 318.22294620051798 0 318.22294620051798 -256.85039747751171 0 0 0 0 -1229.6629533286905 536.65883385626557 0 536.65883385626557 5.2577627571117773 0 0 0 0 -1170.1092355612782 10.056639256129529 0 10.056639256129529 55.890705652228917 0 0 0 0 -3294.8909104221966 698.14262050224795 0 698.14262050224795 186.7190904074555 0 0 0 0 -1688.3846277405391 505.42321869895181 0 505.42321869895181 200.6880854515839 0 0 0 0 -1138.0809234223852 25.266662149116655 0 25.266662149116655 -230.73603653961561 0 0 0 0 -2166.5737407685083 -547.6476787825452 0 -547.6476787825452 -355.72029896978847 0 0 0 0 -2208.5937820032123 650.9316375389626 0 650.9316375389626 85.157400437148226 0 0 0 0 -38.20573772728676 -2.2954918076561626 0 -2.2954918076561626 -9.4125219471084165 0 0 0 0 -3.7516539018528761 -8.2859484020607113 0 -8.2859484020607113 -3.0607254776066437 0 0 0 0 -40.508495608286466 -22.680507132189632 0 -22.680507132189632 26.356303659383229 0 0 0 0 -56.890761652728543 -13.29551842311821 0 -13.29551842311821 63.689064977795397 0 0 0 0 -76.650428737557377 21.909403028469796 0 21.909403028469796 42.946104292987002 0 0 0 0 -45.307621590567578 24.519885239316409 0 24.519885239316409 42.702368592365929 0 0 0 0 -60.423713872747612 3.9133883683991826 0 3.9133883683991826 16.918928520221925 0 0 0 0 -39.523443021287676 1.3548528632818488 0 1.3548528632818488 13.359891870456295 0 0 0 0 -34.99148540520946 6.5426738563158153 0 6.5426738563158153 -0.9347694329044316 0 0 0 0 -39.430454866058426 9.0004374449213174 0 9.0004374449213174 -4.1390630918663192 0 0 0 0 -37.277095632860437 4.4937693273104742 0 4.4937693273104742 -2.68887676799568 0 0 0 0 -28.826489792962093 1.758474335502342 0 1.758474335502342 -1.8213839582881519 0 0 0 0 24.820420033327537 18.990568118561896 0 18.990568118561896 -142.94676920852635 0 0 0 0 -50.391140280931722 -35.29468840179652 0 -35.29468840179652 -73.486508970316663 0 0 0 0 -30.090804917258481 1.9576132509451263 0 1.9576132509451263 1.9414237681909379 0 0 0 0 -41.144466189565719 -2.211451026065788 0 -2.211451026065788 9.0399019313490498 0 0 0 0 -16.143350736005232 49.986514570090094 0 49.986514570090094 -5.0961800596414832 0 0 0 0 -6.4412453760486414 -3.8840850597598475 0 -3.8840850597598475 0.89465247298972062 0 0 0 0 -953.92566786456155 430.25140155347162 0 430.25140155347162 -395.75004025534417 0 0 0 0 678.91510465538886 -148.55919397119101 0 -148.55919397119101 -317.17707822225566 0 0 0 0 -6.0223495606514348 1.8314652883615281 0 1.8314652883615281 0.13258054535889485 0 0 0 0 -1182.8228523144207 94.773082872279701 0 94.773082872279701 -158.26540822669995 0 0 0 0 -809.40764239781129 -404.37349670976505 0 -404.37349670976505 -197.24625526174441 0 0 0 0 -52.834106052818242 6.2447178055313088 0 6.2447178055313088 5.2475994547221489 0 0 0 0 -8.2843383407112725 -6.895346425828393 0 -6.895346425828393 2.8277739976969301 0 0 0 0 -1844.5729905045009 566.09437630647199 0 566.09437630647199 75.486693599555565 0 0 0 0 -2323.5201463844569 -285.80219162628418 0 -285.80219162628418 196.91210925004816 0 0 0 0 -1594.7499139324354 590.68144361207487 0 590.68144361207487 -36.019154975003403 0 0 0 0 -2163.8902810658474 -236.01029754720548 0 -236.01029754720548 52.379813732369257 0 0 0 0 -2669.2872076183266 296.62880277497243 0 296.62880277497243 357.67962807546519 0 0 0 0 -2153.200353779248 162.8163200777883 0 162.8163200777883 370.54921910121993 0 0 0 0 -1071.4983350281982 -200.92618249266525 0 -200.92618249266525 -2148.4796266893218 0 0 0 0 -2379.2482897652953 1114.7001665057205 0 1114.7001665057205 -1196.5404584320422 0 0 0 0 -3458.2723746308184 110.19854819799457 0 110.19854819799457 410.14542514522736 0 0 0 0 -1385.2883239763032 -911.73375412378027 0 -911.73375412378027 38.775779450743357 0 0 0 0 -1319.4818441626703 2141.924758344594 0 2141.924758344594 -2206.6683321309984 0 0 0 0 -25.527884410125466 4.0868777179950495 0 4.0868777179950495 -1.3652087275624862 0 0 0 0 -3521.2623893343844 164.30641381495661 0 164.30641381495661 -406.66273951148833 0 0 0 0 -657.7534368068591 676.69194965918086 0 676.69194965918086 137.1976065376025 0 0 0 0 -418.78875668119144 849.81139224055937 0 849.81139224055937 -388.00893389393423 0 0 0 0 15.937474935679347 393.10122345781838 0 393.10122345781838 -196.27492762899055 0 0 0 0 -130.99588457128266 262.94757078009252 0 262.94757078009252 453.66787857361669 0 0 0 0 39.354405017540557 -18.542022582965728 0 -18.542022582965728 -403.99355295828354 0 0 0 0 -6.2832296375418082 46.232255335670743 0 46.232255335670743 62.276573370052574 0 0 0 0 58.074149830888928 125.06763930498801 0 125.06763930498801 -30.879855834406044 0 0 0 0 5.1888670760454261 70.121383534551796 0 70.121383534551796 -6.1985344837084995 0 0 0 0 -282.54075688893715 506.1248688817887 0 506.1248688817887 -230.90849171287664 0 0 0 0 -286.97741120383603 69.091821167428819 0 69.091821167428819 309.09709998363542 0 0 0 0 -66.619695735582866 8.7036649642801915 0 8.7036649642801915 -0.5738712130516983 0 0 0 0 -900.58410833786184 818.93985003994567 0 818.93985003994567 -86.350514667183234 0 0 0 0 -982.7045582831197 669.90154096472133 0 669.90154096472133 -399.24681008018774 0 0 0 0 -862.39139229248394 858.50605527125094 0 858.50605527125094 -754.7065503251265 0 0 0 0 -587.32716010785225 489.49962075097687 0 489.49962075097687 -434.90865692744774 0 0 0 0 -1051.8012767668988 595.50701371281139 0 595.50701371281139 -408.14225368852476 0 0 0 0 -1480.6979163930409 1383.0341809903323 0 1383.0341809903323 -429.83644919242033 0 0 0 0 -749.08378932691994 369.08753043863567 0 369.08753043863567 -71.432673379400512 0 0 0 0 -1467.09121211007 1675.2635287922985 0 1675.2635287922985 427.43832818515784 0 0 0 0 247.01109848124906 1886.7601600884113 0 1886.7601600884113 440.40059216802774 0 0 0 0 -941.00342424958944 574.69589879189607 0 574.69589879189607 408.37899779724376 0 0 0 0 -383.08753764105495 -20.925745034121746 0 -20.925745034121746 17.69622097789761 0 0 0 0 205.18265920088743 38.060776463204547 0 38.060776463204547 650.50014560663021 0 0 0 0 -1704.8869233760779 -154.73501690171543 0 -154.73501690171543 4.5336132527827431 0 0 0 0 -1118.5473832964199 702.9533497000084 0 702.9533497000084 -321.48200103626505 0 0 0 0 -892.54849863506388 -102.16084554158533 0 -102.16084554158533 198.36680922436335 0 0 0 0 -873.28889871761203 0.8878369453805135 0 0.8878369453805135 543.45362130473404 0 0 0 0 -918.39204344377504 -120.01491487978365 0 -120.01491487978365 186.18289353733326 0 0 0 0 -930.43451442123478 -115.94612496827631 0 -115.94612496827631 208.03725892487637 0 0 0 0 -969.51423645942123 -108.16987501679523 0 -108.16987501679523 212.0767984085719 0 0 0 0 -99.023138425260697 13.753696380201532 0 13.753696380201532 0.61086487093098862 0 0 0 0 -1937.9169244143413 48.885599496579744 0 48.885599496579744 -212.40941059945089 0 0 0 0 -965.12588868188323 467.35415433777689 0 467.35415433777689 -374.73962983522279 0 0 0 0 -1587.2495668182164 -1105.9804343002281 0 -1105.9804343002281 -554.74510916171494 0 0 0 0 -1461.2023015066334 505.11626869271805 0 505.11626869271805 -118.14986287880674 0 0 0 0 -1048.948022823377 457.30056683569222 0 457.30056683569222 -79.474667415990552 0 0 0 0 -1037.7182017233281 384.70060965301536 0 384.70060965301536 -89.079752798011214 0 0 0 0 -813.7409089563007 323.60565179226933 0 323.60565179226933 -238.32857444948559 0 0 0 0 -803.04056122437896 -72.156599196180508 0 -72.156599196180508 123.58611040810229 0 0 0 0 124.61843647586647 -13.495908113499809 0 -13.495908113499809 -198.76563917578869 0 0 0 0 -451.22462881932734 137.10394232218437 0 137.10394232218437 180.54967508217442 0 0 0 0 -67.882337391405599 45.638658483661857 0 45.638658483661857 25.233202644685662 0 0 0 0 -19.737145865874425 12.181126626270043 0 12.181126626270043 17.409702124158031 0 0 0 0 -43.762457381992135 83.226363741677233 0 83.226363741677233 81.49485968054978 0 0 0 0 -94.201996494464481 8.7761987214940049 0 8.7761987214940049 5.1350746362536741 0 0 0 0 -243.04467801103601 77.158879084996443 0 77.158879084996443 751.44517092932642 0 0 0 0 -24.171340992098845 6.6293342863573912 0 6.6293342863573912 1.4556923003827293 0 0 0 0 -44.433819897246394 -348.92402226488275 0 -348.92402226488275 1452.1520412191603 0 0 0 0 6.064146041564527 484.73488396865378 0 484.73488396865378 905.38751524072723 0 0 0 0 -171.15106622243184 127.08615387523059 0 127.08615387523059 257.53065000732749 0 0 0 0 -376.53287137681036 177.09759316271629 0 177.09759316271629 885.72799564317756 0 0 0 0 -93.013336480375983 19.174347076507388 0 19.174347076507388 0.60975133100477197 0 0 0 0 -647.9505721173482 -189.35004345250036 0 -189.35004345250036 668.79724842314693 0 0 0 0 58.276752703669445 377.32953190183378 0 377.32953190183378 1508.8807220386661 0 0 0 0 344.94239985571039 -136.06692074254624 0 -136.06692074254624 276.29184271782651 0 0 0 0 -146.26206638908479 -76.148378233649055 0 -76.148378233649055 545.95231523924303 0 0 0 0 -655.56421462917933 -287.76284676579053 0 -287.76284676579053 530.09386670924437 0 0 0 0 -271.94668587300112 -129.35731069960275 0 -129.35731069960275 72.260989269270794 0 0 0 0 -362.32093162857927 -25.120800431253883 0 -25.120800431253883 278.99877619672679 0 0 0 0 -605.36320483541931 -158.50960123760615 0 -158.50960123760615 70.215298208805734 0 0 0 0 -601.11231954468531 -65.483660514533767 0 -65.483660514533767 -171.10049588572474 0 0 0 0 -111.77938416655525 351.99670919312484 0 351.99670919312484 -202.39198116578518 0 0 0 0 -357.40108480019262 283.20360141444144 0 283.20360141444144 206.43229913408641 0 0 0 0 -98.47202801174717 24.129178061890343 0 24.129178061890343 -28.785994291554744 0 0 0 0 -504.00115010802983 214.67048212379086 0 214.67048212379086 -103.31018266670981 0 0 0 0 -680.60443808499258 514.75255948455833 0 514.75255948455833 -174.77574849593827 0 0 0 0 -958.68666874300106 372.65810252550136 0 372.65810252550136 -323.17494198660529 0 0 0 0 -720.09505061767413 471.28880986137051 0 471.28880986137051 -461.53320466664172 0 0 0 0 -353.44358639490383 176.06871587554406 0 176.06871587554406 -280.99514480610196 0 0 0 0 -703.15253804146778 58.717326510931343 0 58.717326510931343 -378.71812731909267 0 0 0 0 -946.74648591736332 -60.157650581601956 0 -60.157650581601956 -165.3353566262814 0 0 0 0 -919.0798676807317 -163.02015478641169 0 -163.02015478641169 -94.985000426060651 0 0 0 0 -800.92758680808765 -206.95344083817145 0 -206.95344083817145 -356.11255458979213 0 0 0 0 -869.52725766945514 -205.21967858000335 0 -205.21967858000335 180.22862251461447 0 0 0 0 -835.86388844802423 -172.93972092186823 0 -172.93972092186823 -94.846873190233964 0 0 0 0 -662.44084407423361 -237.76939598761601 0 -237.76939598761601 184.8143596359514 0 0 0 0 -931.67293592896021 -111.41037676818269 0 -111.41037676818269 243.51536935594595 0 0 0 0 -992.76429804702639 -189.86102700511947 0 -189.86102700511947 221.8859731699838 0 0 0 0 -829.90135599278437 -134.15056408481814 0 -134.15056408481814 -319.68890460276361 0 0 0 0 -1098.6333577283076 -272.9219088971422 0 -272.9219088971422 -55.706222624670772 0 0 0 0 -0.54620999148932015 3.4608659793090482 0 3.4608659793090482 -6.1486702267632083 0 0 0 0 17.463838566745835 -23.656647854483708 0 -23.656647854483708 -254.14623565367583 0 0 0 0 -1.703972016555781 0.64965803627433161 0 0.64965803627433161 7.8704572424248909 0 0 0 0 -67.855514905124437 57.751034045304095 0 57.751034045304095 -41.240336325704448 0 0 0 0 -62.697613254858879 49.374295047740816 0 49.374295047740816 -4.0301726059315115 0 0 0 0 -18.169828370718108 6.0405265548387206 0 6.0405265548387206 -7.2771627541023136 0 0 0 0 -239.3559380609222 99.617315715714994 0 99.617315715714994 -41.733859141479115 0 0 0 0 -831.53632468576689 -319.31566878426179 0 -319.31566878426179 -48.502558437841799 0 0 0 0 -634.08907747262856 -186.75254401206712 0 -186.75254401206712 21.380067294484434 0 0 0 0 -58.571543604009207 8.4634826797132661 0 8.4634826797132661 2.0309410462216722 0 0 0 0 -896.00275573629187 215.78965487118603 0 215.78965487118603 31.171387397902436 0 0 0 0 -202.96032006325004 -59.145740217041862 0 -59.145740217041862 -4.040151968911232 0 0 0 0 -81.252036269841483 13.883865041683293 0 13.883865041683293 50.050774479454049 0 0 0 0 -61.206087580502981 -2.2653271192140352 0 -2.2653271192140352 1.265058343062389 0 0 0 0 -26.260960331666865 25.58173950425271 0 25.58173950425271 -28.324291985707532 0 0 0 0 -77.066224528869498 -33.597727350202717 0 -33.597727350202717 -184.18393094782459 0 0 0 0 -54.858286698145093 -2.1295853021943003 0 -2.1295853021943003 -350.95732248966942 0 0 0 0 -333.75734655573615 -101.1967242621281 0 -101.1967242621281 -348.38501977224269 0 0 0 0 -57.760920229655994 -1.5145683832548995 0 -1.5145683832548995 1.1702861896307142 0 0 0 0 -430.51017756576766 20.689128855204217 0 20.689128855204217 -359.1344251654441 0 0 0 0 -19.712695094619164 19.347139995662815 0 19.347139995662815 6.1426225332785211 0 0 0 0 -111.38271839589288 -37.959606119233285 0 -37.959606119233285 123.02437373610383 0 0 0 0 -164.33347401292122 -134.43254283448482 0 -134.43254283448482 -115.9577266235051 0 0 0 0 -21.653529573134279 -8.2152998626371527 0 -8.2152998626371527 4.7976567869654012 0 0 0 0 -57.259546795005519 5.4213899848824791 0 5.4213899848824791 1.0243127923217836 0 0 0 0 63.151284720690455 -66.918401573571828 0 -66.918401573571828 -285.75028322063008 0 0 0 0 -88.570712613669457 -10.420790838757057 0 -10.420790838757057 34.136329517938918 0 0 0 0 -89.438662021304481 9.9028583818881089 0 9.9028583818881089 19.83530911798789 0 0 0 0 -53.773475443867369 1.4226248480539425 0 1.4226248480539425 13.313049681091936 0 0 0 0 -110.67046088768257 -19.308556974248631 0 -19.308556974248631 20.950481389370907 0 0 0 0 -61.413095888975334 27.258127071103715 0 27.258127071103715 -3.6067559945810501 0 0 0 0 -130.34306896809721 51.537642222268005 0 51.537642222268005 -40.112970684342145 0 0 0 0 -91.12406486555119 18.951343624477886 0 18.951343624477886 12.147917114522897 0 0 0 0 -63.288619658786729 2.9716052391997181 0 2.9716052391997181 8.2179682029664427 0 0 0 0 -52.33941710156796 9.2888983149359774 0 9.2888983149359774 14.550658745284636 0 0 0 0 -70.95861389826581 27.488918116698386 0 27.488918116698386 -26.279766493261299 0 0 0 0 -64.242602599537349 8.3126894468364299 0 8.3126894468364299 -24.717024013175887 0 0 0 0 -243.233956809956 10.546297689486892 0 10.546297689486892 -23.199052136957562 0 0 0 0 -221.620345782605 -58.410011655372728 0 -58.410011655372728 -73.964414551732261 0 0 0 0 -110.35069687251175 -17.068445559520889 0 -17.068445559520889 11.066064920505781 0 0 0 0 -250.5754190232401 -38.284423325450007 0 -38.284423325450007 -87.922011155230393 0 0 0 0 -258.81154761038488 -18.535794538651317 0 -18.535794538651317 -51.725851223552127 0 0 0 0 -113.41722500213484 -8.7377616303913328 0 -8.7377616303913328 18.207108915655624 0 0 0 0 -265.49773329251911 -49.362645907920523 0 -49.362645907920523 -58.731408855101108 0 0 0 0 -141.74304933801915 -5.3674097374818643 0 -5.3674097374818643 8.0528977138927758 0 0 0 0 -413.34587844385533 -31.420785498959958 0 -31.420785498959958 -59.89017517243883 0 0 0 0 -476.47164821055776 -53.344046628992828 0 -53.344046628992828 74.608363975182215 0 0 0 0 -305.1731192447478 -29.806655743756892 0 -29.806655743756892 -48.224031257265324 0 0 0 0 -35.864523909959836 5.1839922507081155 0 5.1839922507081155 10.862029066896326 0 0 0 0 -189.33253997192514 -38.257184031861016 0 -38.257184031861016 -51.929561316614127 0 0 0 0 -108.80618528966806 3.2744939828423441 0 3.2744939828423441 20.891857391500217 0 0 0 0 -178.95679401705274 -16.003232376872347 0 -16.003232376872347 76.341226748581676 0 0 0 0 -567.05493998504244 15.670969747430149 0 15.670969747430149 65.197789788196076 0 0 0 0 -107.68131247863818 -9.9927310700030674 0 -9.9927310700030674 10.852574072040859 0 0 0 0 -122.07828633976561 -0.093397790500567623 0 -0.093397790500567623 26.300389889482346 0 0 0 0 -433.92932491112879 -136.73282119830037 0 -136.73282119830037 -456.37452059634052 0 0 0 0 -630.43545571475988 -134.3973692372092 0 -134.3973692372092 -446.0677898254844 0 0 0 0 358.86877514887601 -1.4222612898338411 0 -1.4222612898338411 -392.65156917961735 0 0 0 0 -18.320012440647702 0.21741549733033594 0 0.21741549733033594 2.0189120113233869 0 0 0 0 -114.39492492761158 -26.80580959003149 0 -26.80580959003149 21.837931074545516 0 0 0 0 -562.19887955857848 -134.75925646083351 0 -134.75925646083351 -103.76005508868798 0 0 0 0 -297.17705679551364 -21.147894006175648 0 -21.147894006175648 -19.535023850663492 0 0 0 0 -135.041915562258 13.72891320940461 0 13.72891320940461 34.194602698072053 0 0 0 0 -528.07047970671556 12.413336871669117 0 12.413336871669117 -6.9022974394597441 0 0 0 0 -502.71202470034768 -4.1163716517651778 0 -4.1163716517651778 3.8707461829988574 0 0 0 0 -539.72613595380972 -6.2691747374281306 0 -6.2691747374281306 16.974180636571873 0 0 0 0 -524.68174413319502 -15.975396612042232 0 -15.975396612042232 23.158667176910285 0 0 0 0 -541.33704381616553 4.5563196896036686 0 4.5563196896036686 28.271665619461089 0 0 0 0 -564.52680771096493 26.87010872268101 0 26.87010872268101 8.9964143418341962 0 0 0 0 -574.711174939177 78.115570369718284 0 78.115570369718284 -89.15300429068725 0 0 0 0 -673.10731892481272 -9.8053605269783475 0 -9.8053605269783475 -3.3846568298174589 0 0 0 0 -613.072487841986 -41.957342332334534 0 -41.957342332334534 15.720873460639268 0 0 0 0 -577.51543488184689 -8.05636053936027 0 -8.05636053936027 -29.615796281837675 0 0 0 0 -586.98278890665097 -45.174351840013628 0 -45.174351840013628 -93.887568942300277 0 0 0 0 -99.396340997646348 9.2778580280750838 0 9.2778580280750838 -0.70428762719734117 0 0 0 0 -31.313439547898277 -4.7498742220121244 0 -4.7498742220121244 20.450827005783275 0 0 0 0 -679.87972383893793 -17.720980969040994 0 -17.720980969040994 84.810518070820535 0 0 0 0 -659.78020366613055 -15.758083066862582 0 -15.758083066862582 64.095917082229434 0 0 0 0 -648.18569564684731 -1.2430880385753653 0 -1.2430880385753653 81.621333941560692 0 0 0 0 -647.03921508206986 -13.062381799194412 0 -13.062381799194412 203.18961816546437 0 0 0 0 -240.46075223687512 -129.91911253200612 0 -129.91911253200612 10.850086770828057 0 0 0 0 -88.768134232668672 -10.153491225660332 0 -10.153491225660332 24.018150480015152 0 0 0 0 -54.160902948558117 -3.3571071402668622 0 -3.3571071402668622 22.201227674867496 0 0 0 0 -362.01402012581821 -6.606785353581472 0 -6.606785353581472 7.853352627955573 0 0 0 0 -59.354678798798659 1.2814753715065592 0 1.2814753715065592 40.110572434931832 0 0 0 0 -540.28172511094817 -27.413640215709279 0 -27.413640215709279 37.188917204030076 0 0 0 0 -22.571665122102957 -1.3858040128367861 0 -1.3858040128367861 -17.756395632929301 0 0 0 0 -385.74243130977266 -69.684173535191803 0 -69.684173535191803 -34.435018711874363 0 0 0 0 -820.11489862686722 -188.8944889209215 0 -188.8944889209215 141.12159765325271 0 0 0 0 -101.74318908463334 -18.501927659922593 0 -18.501927659922593 8.4716493882722244 0 0 0 0 -209.06754916327191 142.29245722155679 0 142.29245722155679 -176.40694918594363 0 0 0 0 -78.227274620032404 291.99752326418684 0 291.99752326418684 119.1839869043306 0 0 0 0 -25.231773822668345 -8.8787431067756302 0 -8.8787431067756302 -1.2474977387142321 0 0 0 0 -97.295681669813348 -11.882280137187536 0 -11.882280137187536 98.368767581689099 0 0 0 0 -76.361875579146158 -5.5190263131753579 0 -5.5190263131753579 3.9503532387011449 0 0 0 0 -248.04494353372138 -115.70759282874951 0 -115.70759282874951 85.733451054638408 0 0 0 0 -382.91532403210294 -191.61587615972223 0 -191.61587615972223 124.21816321450842 0 0 0 0 -367.02382599638076 -133.5091993678484 0 -133.5091993678484 96.553203506056661 0 0 0 0 -399.81103568832623 83.713270846153137 0 83.713270846153137 181.39265188183708 0 0 0 0 -473.34823065268574 10.973710759918276 0 10.973710759918276 109.4819947893011 0 0 0 0 -486.28722557722358 216.63999345732827 0 216.63999345732827 139.33861532809578 0 0 0 0 -569.59349916367501 87.703410411981167 0 87.703410411981167 201.06374778758254 0 0 0 0 43.782670490822056 256.42178721900359 0 256.42178721900359 172.82196731107797 0 0 0 0 -598.23362747491774 69.934165599393907 0 69.934165599393907 615.0614100343405 0 0 0 0 -295.82494065343053 -561.38973699086409 0 -561.38973699086409 117.32761636775012 0 0 0 0 -562.00816254552046 99.56950584024446 0 99.56950584024446 -252.68747565625836 0 0 0 0 -822.83678459918883 -425.15771706682381 0 -425.15771706682381 -57.211128012033441 0 0 0 0 -610.10703937612425 -319.36793181994068 0 -319.36793181994068 -31.085297104482379 0 0 0 0 -971.46304795250762 -94.702721398391077 0 -94.702721398391077 133.23504147325548 0 0 0 0 -596.81607969722245 88.471003447742987 0 88.471003447742987 218.05826642631428 0 0 0 0 -706.01108784755343 -50.026582237085449 0 -50.026582237085449 199.3043712190975 0 0 0 0 -638.63710870651994 -98.172349272085569 0 -98.172349272085569 156.22651536823707 0 0 0 0 -678.37266933023056 -87.938456099483062 0 -87.938456099483062 250.91589565227423 0 0 0 0 -647.18572680875513 -61.322651104508466 0 -61.322651104508466 -2.5044365857074808 0 0 0 0 0.15414750229935947 -0.47046843797750171 0 -0.47046843797750171 6.943590136739707 0 0 0 0 -778.01066746684955 -199.25185691198692 0 -199.25185691198692 550.802145387167 0 0 0 0 -955.35962152091088 187.37260419345785 0 187.37260419345785 496.62745398704305 0 0 0 0 -568.38139238589793 -268.95479091257266 0 -268.95479091257266 193.9947512688891 0 0 0 0 -720.69845579875982 97.320641894172923 0 97.320641894172923 215.48152349471673 0 0 0 0 -887.57503802917199 -14.549361646873479 0 -14.549361646873479 239.43292146594786 0 0 0 0 -1769.4339938582852 68.802076981954997 0 68.802076981954997 98.356206349737135 0 0 0 0 -846.85052670550067 157.8429266153762 0 157.8429266153762 104.51489492125347 0 0 0 0 14.023551235703053 -163.52420826300249 0 -163.52420826300249 -209.66248757898029 0 0 0 0 -535.62296728522051 -53.940541004341412 0 -53.940541004341412 -231.03844419267602 0 0 0 0 -854.67286786765908 -215.59596669128587 0 -215.59596669128587 -300.48057983563194 0 0 0 0 -488.32457357014937 -121.54742773941803 0 -121.54742773941803 -750.99597439506397 0 0 0 0 -834.35807630146519 -220.99484746984842 0 -220.99484746984842 -1117.1482255107685 0 0 0 0 -1911.308474432939 756.19359052580558 0 756.19359052580558 -829.89455675503268 0 0 0 0 -537.02613432490034 -237.44995638168075 0 -237.44995638168075 19.690434214129088 0 0 0 0 -195.4779236302129 139.0027217294703 0 139.0027217294703 10.430527352988065 0 0 0 0 -778.09564316993055 80.501371230752852 0 80.501371230752852 113.85109998912321 0 0 0 0 -1073.532561021384 -453.59002738584854 0 -453.59002738584854 17.955864303602539 0 0 0 0 -580.48540136017255 -577.40493660348784 0 -577.40493660348784 -336.81981672713806 0 0 0 0 -459.25034223092371 -347.83692674049212 0 -347.83692674049212 -120.2749394196785 0 0 0 0 -383.14686814801826 -475.4965359801497 0 -475.4965359801497 -223.79180553830156 0 0 0 0 -543.81601099320687 -291.87454889152502 0 -291.87454889152502 -103.32834558425839 0 0 0 0 -532.10137588871294 -296.70009319741712 0 -296.70009319741712 -364.01586618174042 0 0 0 0 -578.20333634207782 -144.51161887875173 0 -144.51161887875173 -242.07910760238155 0 0 0 0 -465.52732365409611 -74.804889065143925 0 -74.804889065143925 -123.33033060002526 0 0 0 0 -542.46475628169719 -172.39621204178002 0 -172.39621204178002 -236.52857077651373 0 0 0 0 -402.74606195854722 -131.28959796769959 0 -131.28959796769959 -115.12893416666117 0 0 0 0 -635.81480338051915 -83.853440930815623 0 -83.853440930815623 92.627275224322148 0 0 0 0 -230.69131378404563 -18.260814435042903 0 -18.260814435042903 -55.421924602800573 0 0 0 0 -355.41649888637767 -30.805899574836758 0 -30.805899574836758 -9.2901316530715121 0 0 0 0 -229.78847891007536 -5.3936554941070085 0 -5.3936554941070085 12.895269215603548 0 0 0 0 68.986639522219775 64.229276431634275 0 64.229276431634275 -97.427883431308146 0 0 0 0 -22.982292655156925 -5.5004194631846985 0 -5.5004194631846985 8.9699117268482951 0 0 0 0 -1.4939268303061937 1.665890209834572 0 1.665890209834572 4.6578712217369951 0 0 0 0 -2.6158607772989626 -5.5530114170459228 0 -5.5530114170459228 0.48158882634363209 0 0 0 0 -14.989389364141971 -3.9831280398839226 0 -3.9831280398839226 6.1799485878364067 0 0 0 0 -121.87083473426173 92.833031160375413 0 92.833031160375413 54.153763670916305 0 0 0 0 -61.347794395172969 75.363008235595771 0 75.363008235595771 -82.513004505997287 0 0 0 0 -7.7718150618092068 -3.0399510569870642 0 -3.0399510569870642 1.3413310648185466 0 0 0 0 39.240340131742414 -109.85812224516303 0 -109.85812224516303 15.136040547145853 0 0 0 0 -0.014311585328357523 -0.74859151454251105 0 -0.74859151454251105 2.411285703435972 0 0 0 0 -6.3299991222665994 -5.8648340188701695 0 -5.8648340188701695 6.4415500243067072 0 0 0 0 -4.9225638665444365 -5.6577462172323862 0 -5.6577462172323862 6.4424445855987145 0 0 0 0 3.7562327154519153 -16.006089507774504 0 -16.006089507774504 -25.552706108323036 0 0 0 0 -11.273572530428225 -6.3831143659159508 0 -6.3831143659159508 0.3617842914741356 0 0 0 0 -19.464876734069549 -6.3583258112075782 0 -6.3583258112075782 21.717396100782025 0 0 0 0 153.0191273028322 -156.09169915165739 0 -156.09169915165739 173.84131961580465 0 0 0 0 -9.2994665389996953 -8.4161969216620491 0 -8.4161969216620491 11.785478091816913 0 0 0 0 -15.811838428009651 -10.922935575164217 0 -10.922935575164217 -9.0814706690134699 0 0 0 0 -2.5868072809560374 -0.57247237638992488 0 -0.57247237638992488 -0.11621436743363134 0 0 0 0 -17.374047188146506 -4.0574818534232691 0 -4.0574818534232691 10.8917212184748 0 0 0 0 -1.3857511304449872 0.76424037796186894 0 0.76424037796186894 -5.6570802864971483 0 0 0 0 -13.973885215469636 -0.69720998456477901 0 -0.69720998456477901 6.5781397061464304 0 0 0 0 -70.793395719214459 -42.260451883037604 0 -42.260451883037604 0.78308568109309817 0 0 0 0 -66.264254092180636 -81.496076973870458 0 -81.496076973870458 -12.150733649801602 0 0 0 0 -219.11636062152684 -237.7123845704582 0 -237.7123845704582 585.62651270472554 0 0 0 0 -32.091977379968739 -42.751440956574697 0 -42.751440956574697 -21.441523926173886 0 0 0 0 -10.307618061953917 -4.3085041438588334 0 -4.3085041438588334 -0.74888634240910257 0 0 0 0 43.9439155374248 -113.12128485602801 0 -113.12128485602801 183.40013588320744 0 0 0 0 -39.747120483109029 -276.54209322103361 0 -276.54209322103361 -36.031133723533003 0 0 0 0 10.099288503726711 -215.88774963038213 0 -215.88774963038213 94.860952863567036 0 0 0 0 -262.79093296822975 91.713097148717679 0 91.713097148717679 -56.27702065399194 0 0 0 0 -691.16502753207169 -0.26244295671290274 0 -0.26244295671290274 -41.310269046618487 0 0 0 0 -270.34940076640123 -175.13298126927668 0 -175.13298126927668 -238.42924464794396 0 0 0 0 -803.60501900012605 -145.7849402523874 0 -145.7849402523874 -245.94863509129118 0 0 0 0 -348.60497653472703 70.316959798153675 0 70.316959798153675 -231.20411481384599 0 0 0 0 67.285989037860418 -159.80574387651632 0 -159.80574387651632 -229.69299889292142 0 0 0 0 -79.649524417967768 -27.108942402616776 0 -27.108942402616776 -127.98398748454201 0 0 0 0 -14.13610739527212 -146.44483605722462 0 -146.44483605722462 76.007945570511765 0 0 0 0 -174.65541594391107 -313.40906083243999 0 -313.40906083243999 115.95593911226206 0 0 0 0 149.55229544005124 -189.98507637096782 0 -189.98507637096782 -155.1418373235274 0 0 0 0 -242.23485535976943 -144.09901250544817 0 -144.09901250544817 112.98821690618433 0 0 0 0 -372.57308133761398 -266.72629948527674 0 -266.72629948527674 145.17577092931253 0 0 0 0 -3.2014695466929908 -1.1780084385214025 0 -1.1780084385214025 2.7052597500938536 0 0 0 0 -247.50118259654846 -329.16559393904345 0 -329.16559393904345 -439.2616870835152 0 0 0 0 -110.40519102229155 -150.66277749645593 0 -150.66277749645593 -206.92739458944015 0 0 0 0 34.51504810600818 -244.85656384440679 0 -244.85656384440679 133.48485999829245 0 0 0 0 254.16009522468084 -248.31953950561456 0 -248.31953950561456 -9.2527511775322182 0 0 0 0 330.58264667172625 -160.57840355826067 0 -160.57840355826067 26.073174868106435 0 0 0 0 -40.574342315192325 -0.69004532658451723 0 -0.69004532658451723 -1.4521948814408887 0 0 0 0 -206.96518948137236 375.76128280676323 0 375.76128280676323 -147.50408904649373 0 0 0 0 -1437.6301759640919 551.8679378762381 0 551.8679378762381 13.371507107617845 0 0 0 0 -2019.9986676058325 1550.3710478778498 0 1550.3710478778498 -446.89630096387862 0 0 0 0 -4556.7769824389979 1526.5490342343121 0 1526.5490342343121 495.59572116997771 0 0 0 0 1864.647421594651 1007.2577051582366 0 1007.2577051582366 -4002.2196673112271 0 0 0 0 -5493.5894865484152 3804.315253262102 0 3804.315253262102 -1258.6266555955542 0 0 0 0 -3618.5303673500894 3577.723503757551 0 3577.723503757551 -3579.5926666597329 0 0 0 0 -8.8015154931492816 -0.24113967769770284 0 -0.24113967769770284 1.8696570212851036 0 0 0 0 -1539.5665997579927 2620.5299065476174 0 2620.5299065476174 -1783.6597627579583 0 0 0 0 -2594.1024322604499 957.2659565306883 0 957.2659565306883 563.42278696135361 0 0 0 0 -2544.6560018660966 908.78910123288006 0 908.78910123288006 47.098769385126872 0 0 0 0 339.2542409717571 -67.580975966859398 0 -67.580975966859398 -326.25224768767265 0 0 0 0 -14.649425616332779 -2.0560853079947208 0 -2.0560853079947208 6.222882242634407 0 0 0 0 -795.4326318060921 -487.23575622440683 0 -487.23575622440683 -25.930049353084542 0 0 0 0 -63.495652250305284 -5.9167319063604396 0 -5.9167319063604396 72.234233434297153 0 0 0 0 -89.128005236998433 11.806821349427139 0 11.806821349427139 25.468323586937686 0 0 0 0 -91.444568835504469 13.002226971541631 0 13.002226971541631 63.147004092005773 0 0 0 0 -44.797602888727852 30.135391414953915 0 30.135391414953915 10.067486896241462 0 0 0 0 -40.027098068623957 5.6874029846978686 0 5.6874029846978686 14.156375571430981 0 0 0 0 -49.677289264334831 18.358639371613208 0 18.358639371613208 29.34610335514617 0 0 0 0 -45.033759969403036 29.681166538224261 0 29.681166538224261 17.431668986992008 0 0 0 0 -50.838932416692842 6.653991114324981 0 6.653991114324981 1.8853391421707784 0 0 0 0 -13.073313669167646 -1.4637339428146845 0 -1.4637339428146845 2.3652738130661319 0 0 0 0 -103.37412266255706 -11.150931628643775 0 -11.150931628643775 -7.3829432544598603 0 0 0 0 -62.269994994226522 -17.080862309298738 0 -17.080862309298738 5.1219730670397068 0 0 0 0 -71.322608673377545 -10.881185946203573 0 -10.881185946203573 -9.4093432753115849 0 0 0 0 -78.590404777540243 -25.639287954103452 0 -25.639287954103452 -8.8437118629926772 0 0 0 0 -578.34899055660935 -150.04776003178551 0 -150.04776003178551 291.24936802737045 0 0 0 0 -38.990345589225228 3.0252989493102973 0 3.0252989493102973 -2.1634770577026448 0 0 0 0 -58.752021359512582 -5.1882299756357497 0 -5.1882299756357497 14.506436938460979 0 0 0 0 -38.775111085422424 -6.743447578538337 0 -6.743447578538337 -0.89546617222195879 0 0 0 0 74.667253216764948 -272.22782142712026 0 -272.22782142712026 -1280.2576537505493 0 0 0 0 -55.144486513303605 -8.4916872749452708 0 -8.4916872749452708 1.5650208001321326 0 0 0 0 -77.833137074616388 -8.7287470875069175 0 -8.7287470875069175 10.465221758347241 0 0 0 0 -586.72136664595382 -196.04898635570515 0 -196.04898635570515 425.09107547907468 0 0 0 0 -17.27130156252619 -5.9804072292928367 0 -5.9804072292928367 -2.808169746240373 0 0 0 0 -51.017691049637506 -3.9262677949944873 0 -3.9262677949944873 -12.290622444789847 0 0 0 0 -169.31544850603677 -75.823914288434707 0 -75.823914288434707 2.3856401647262828 0 0 0 0 -92.180381531390594 -17.559738224317243 0 -17.559738224317243 -4.4331664407445714 0 0 0 0 -40.91618638038895 -34.061747632771699 0 -34.061747632771699 -13.272519817205541 0 0 0 0 -87.605588128848467 -11.48037022870858 0 -11.48037022870858 -8.5603833985298934 0 0 0 0 -92.884337963565486 -11.241599689759369 0 -11.241599689759369 -2.6252451222189848 0 0 0 0 -99.410482443345245 6.6725521177932023 0 6.6725521177932023 -23.887215883166846 0 0 0 0 -45.768764411172015 3.9071342971860759 0 3.9071342971860759 -108.74461714614881 0 0 0 0 -15.283939152024686 -52.887944564095051 0 -52.887944564095051 -68.755118906206917 0 0 0 0 -15.104653550474865 -27.221863370808052 0 -27.221863370808052 -7.7721660979726312 0 0 0 0 -85.59876691509271 -35.14002178346891 0 -35.14002178346891 4.076607820288018 0 0 0 0 -230.42896130724694 7.0578075670919134 0 7.0578075670919134 12.441667595454419 0 0 0 0 -136.15974744776031 41.679719901707813 0 41.679719901707813 -68.398467876450013 0 0 0 0 -12.741541717433865 -4.2445003261666727 0 -4.2445003261666727 -12.694099618986812 0 0 0 0 -79.526737380777377 -14.092435510820838 0 -14.092435510820838 -15.633388547023628 0 0 0 0 -73.929977120162221 -11.804442015203016 0 -11.804442015203016 -18.532876470715035 0 0 0 0 -20.108905471463629 4.0060254516285738 0 4.0060254516285738 -0.61648182348636515 0 0 0 0 -52.842082371407741 -15.437082269238076 0 -15.437082269238076 -2.3411067368842851 0 0 0 0 -5489.9297976128873 -4445.2793400799928 0 -4445.2793400799928 -2064.7474782348418 0 0 0 0 -13.690521742299211 -0.73737284787925717 0 -0.73737284787925717 -4.5528131009089394 0 0 0 0 -4378.5213596025569 -2060.5409662722509 0 -2060.5409662722509 -855.00675002600565 0 0 0 0 -3037.7611448566604 -1482.1843517613906 0 -1482.1843517613906 -605.75784268570271 0 0 0 0 -5502.1226349468343 -899.45914248708834 0 -899.45914248708834 152.928230591149 0 0 0 0 -2568.2226956911763 -818.88786403519464 0 -818.88786403519464 -856.43601055516092 0 0 0 0 -2709.195457508642 -837.38564140937342 0 -837.38564140937342 -922.86832037237104 0 0 0 0 -2186.9988355963433 -945.33132476543688 0 -945.33132476543688 -956.14830741591038 0 0 0 0 -2226.7913675758464 -400.69934088580692 0 -400.69934088580692 -631.9937976366059 0 0 0 0 -3296.9125300351297 145.4592515063234 0 145.4592515063234 240.80503257477221 0 0 0 0 -5490.2189182664879 1536.171032711243 0 1536.171032711243 959.91928466984155 0 0 0 0 -2813.0386039431032 426.88357749497243 0 426.88357749497243 157.3519941949846 0 0 0 0 -24.156948150834069 -16.602441791716714 0 -16.602441791716714 0.25555813960488527 0 0 0 0 -1366.5376226106891 -191.34257754790573 0 -191.34257754790573 -581.1581814108655 0 0 0 0 -777.96684311656281 -491.29947256959213 0 -491.29947256959213 -428.69613453568468 0 0 0 0 -2081.429868850304 905.54691968520103 0 905.54691968520103 -317.16013929122312 0 0 0 0 432.59091651943163 -221.77142485700594 0 -221.77142485700594 -72.349975721636156 0 0 0 0 -1060.7919655813603 -558.87581428163503 0 -558.87581428163503 2036.9124079409603 0 0 0 0 -15.306796222484081 2.4012850054940849 0 2.4012850054940849 0.13231839297278367 0 0 0 0 -2308.0734724767244 2436.5264977462525 0 2436.5264977462525 -358.08738656932957 0 0 0 0 -5370.8299749795115 -562.43392337572664 0 -562.43392337572664 8.9037675739814084 0 0 0 0 -12.596431249261627 -4.2184135688337019 0 -4.2184135688337019 -0.4637953050146687 0 0 0 0 -666.69747858194751 -1755.5391039126457 0 -1755.5391039126457 -1126.3084766690138 0 0 0 0 -360.17586298892274 8.0250833450323285 0 8.0250833450323285 408.60856219219903 0 0 0 0 -1701.3033121832414 -1952.209566130364 0 -1952.209566130364 -496.44418878612771 0 0 0 0 160.15328324318398 -120.01045103114625 0 -120.01045103114625 30.072003863656533 0 0 0 0 -27.701506679913109 -2.9937213100300202 0 -2.9937213100300202 1.1282971006170106 0 0 0 0 179.04052358400077 246.78011062553333 0 246.78011062553333 297.17725613837871 0 0 0 0 315.64303443222889 -1121.9820163896923 0 -1121.9820163896923 -788.50398452098364 0 0 0 0 -917.05627478944371 -1550.2156591478249 0 -1550.2156591478249 -523.43042066440842 0 0 0 0 -345.80679242068436 -759.05086475990493 0 -759.05086475990493 -440.64893001163108 0 0 0 0 -657.1843592440855 -1472.3567146198243 0 -1472.3567146198243 -514.04913210397217 0 0 0 0 -1170.0242804730078 -640.57477594514512 0 -640.57477594514512 117.25585764152989 0 0 0 0 -1284.3290151584079 -1086.5592655780429 0 -1086.5592655780429 -680.57707458768596 0 0 0 0 -897.42875703054597 -1481.8680422286868 0 -1481.8680422286868 -662.53735514068705 0 0 0 0 -997.51064738875721 -1282.7347025368229 0 -1282.7347025368229 -786.53736687885782 0 0 0 0 -1216.0526678978349 -923.39680271678526 0 -923.39680271678526 -443.29234842156217 0 0 0 0 -955.49169065844035 -1351.6319679039018 0 -1351.6319679039018 -540.69419708396288 0 0 0 0 -1024.3768594132416 -1421.7227665773428 0 -1421.7227665773428 -331.50623350267432 0 0 0 0 -979.49427326928708 -1527.6156751859889 0 -1527.6156751859889 -338.18920345652339 0 0 0 0 -755.34545992950734 -566.85123735034153 0 -566.85123735034153 68.358487186915752 0 0 0 0 -1000.7369219667744 -1278.9765050951567 0 -1278.9765050951567 -612.86052990205462 0 0 0 0 -570.14462938928045 -1011.3901364007475 0 -1011.3901364007475 -985.86599344135311 0 0 0 0 -896.49128181335982 -1405.9033287684242 0 -1405.9033287684242 -765.80131823916179 0 0 0 0 -921.07969451742247 -889.97252575507446 0 -889.97252575507446 -869.81754735481445 0 0 0 0 -6.1606560783643545 -3.7371135816198944 0 -3.7371135816198944 0.2949937962583391 0 0 0 0 -1.6557952455433611 -0.56958481101531788 0 -0.56958481101531788 0.53325068473423798 0 0 0 0 -21.240119244885136 -41.401903377098307 0 -41.401903377098307 -21.380134162239301 0 0 0 0 -1650.5557869685872 -1017.1063000334626 0 -1017.1063000334626 -1116.5634453248006 0 0 0 0 -1693.8443175638095 -803.77920187157929 0 -803.77920187157929 -809.73656674101608 0 0 0 0 -1220.8529710391304 -1467.7047760780993 0 -1467.7047760780993 -939.08768228003919 0 0 0 0 -1438.1760541432304 -1271.7748061374887 0 -1271.7748061374887 -997.78230571644588 0 0 0 0 -570.1093646432895 -1436.2173138060386 0 -1436.2173138060386 -1834.5491311764763 0 0 0 0 -1055.0059306154726 -1836.8701132649931 0 -1836.8701132649931 -2064.6975649260485 0 0 0 0 332.9215223134961 -351.42906255799244 0 -351.42906255799244 -1479.4450969679447 0 0 0 0 -2195.0421933222096 -1742.7090375934395 0 -1742.7090375934395 -1267.9617370751716 0 0 0 0 -2023.5502934534452 -668.61704790321278 0 -668.61704790321278 -1373.4519688977607 0 0 0 0 -2193.2138524688899 -1120.409784320801 0 -1120.409784320801 -1569.5963865841072 0 0 0 0 -2528.1364169794106 -929.99197974247897 0 -929.99197974247897 -642.88219509070836 0 0 0 0 -39.146636292105541 -1.3685593459223355 0 -1.3685593459223355 -2.6772526082013428 0 0 0 0 -32.117715259504394 12.342331425571388 0 12.342331425571388 1.3197550052749838 0 0 0 0 -2271.6971271332877 -1571.1956434728861 0 -1571.1956434728861 -694.67459780827539 0 0 0 0 -12.904492256394803 -2.1853971915209627 0 -2.1853971915209627 -4.4501004140815148 0 0 0 0 -211.51906721023261 312.41871459587264 0 312.41871459587264 -681.29359395506799 0 0 0 0 -34.749844734081648 -4.8860666949937581 0 -4.8860666949937581 2.8556978666034496 0 0 0 0 -16.503801876812133 -16.006644877064275 0 -16.006644877064275 -9.538854487834719 0 0 0 0 -14.161904462549783 -12.575832380678463 0 -12.575832380678463 -6.8599286474747441 0 0 0 0 -30.069288287029849 -20.109781356803161 0 -20.109781356803161 -18.35588979080967 0 0 0 0 -137.86102312713047 -33.281525253621112 0 -33.281525253621112 20.863091779277966 0 0 0 0 -91.344725523027591 -57.769025584707379 0 -57.769025584707379 -17.493970837144047 0 0 0 0 -102.20595526735997 1.8383919479783799 0 1.8383919479783799 11.52352966708952 0 0 0 0 -123.94525892725505 -31.423809435581688 0 -31.423809435581688 19.159064853542077 0 0 0 0 -159.23023860116882 -95.078053297047859 0 -95.078053297047859 52.858484943360963 0 0 0 0 -1562.5736544523679 -712.22608714279545 0 -712.22608714279545 -0.1378081463125122 0 0 0 0 -76.836782111378852 -14.561359508576061 0 -14.561359508576061 -0.633031721164798 0 0 0 0 -91.454653247412352 139.62145933220913 0 139.62145933220913 -60.417065019622214 0 0 0 0 -14.523057981044303 5.4958252470873674 0 5.4958252470873674 6.6553032939605581 0 0 0 0 -63.179962356734904 -22.198839629959821 0 -22.198839629959821 -7.0101409203604135 0 0 0 0 -64.697279698826605 -18.397487224697329 0 -18.397487224697329 -5.3728594242393228 0 0 0 0 -19.142725017440682 11.236579812956052 0 11.236579812956052 11.978589804887299 0 0 0 0 -267.97671868320322 -130.85094797578427 0 -130.85094797578427 41.15477707986588 0 0 0 0 -43.472803013568409 -165.5168241414201 0 -165.5168241414201 -24.403633307652854 0 0 0 0 -196.23729323034058 -9.4379208328849842 0 -9.4379208328849842 -247.59836815425103 0 0 0 0 -909.10016714438098 -404.84731178092045 0 -404.84731178092045 -87.693910274610815 0 0 0 0 -2439.716276409541 -1051.0007233827882 0 -1051.0007233827882 111.90938905304222 0 0 0 0 -442.598638465759 119.04827275289279 0 119.04827275289279 -23.124363679260114 0 0 0 0 0.93350500404011427 2.1155815626642323 0 2.1155815626642323 0.21387049880011744 0 0 0 0 -120.42869277985301 -113.39858186340611 0 -113.39858186340611 -20.096892650339441 0 0 0 0 -1328.5561043104099 131.4154882617579 0 131.4154882617579 -58.897690086451661 0 0 0 0 -54.996581366562168 -14.65885072909718 0 -14.65885072909718 -0.034297835318642465 0 0 0 0 0.1794066706869728 -0.10965774144668217 0 -0.10965774144668217 0.24822299042480639 0 0 0 0 -60.13251309786574 -21.508718104249326 0 -21.508718104249326 -7.665743127758244 0 0 0 0 -96.280975995323388 80.361453758799371 0 80.361453758799371 0.26888725990320289 0 0 0 0 -0.15853440018094034 0.014794780880208691 0 0.014794780880208691 -0.31277552366888389 0 0 0 0 24.868088284682017 -152.04898945954392 0 -152.04898945954392 -155.61836214364257 0 0 0 0 -36.74667849598336 -75.880571826095789 0 -75.880571826095789 -28.389502335082284 0 0 0 0 -43.800717876307317 -17.433386319440235 0 -17.433386319440235 -3.5363307645161868 0 0 0 0 -50.09480853707646 -18.640097051753287 0 -18.640097051753287 1.2595166630262611 0 0 0 0 -61.27009332968737 18.638516511377077 0 18.638516511377077 16.796821706479548 0 0 0 0 87.152207944192924 147.55813672662049 0 147.55813672662049 -129.6670152257158 0 0 0 0 -9.2734375399524538 -3.606931785901935 0 -3.606931785901935 0.33216145837554933 0 0 0 0 -3.674322443353276 -0.1608957524771597 0 -0.1608957524771597 0.39156128907697041 0 0 0 0 -51.71606670676556 -8.7375696043957465 0 -8.7375696043957465 -2.8291723139777218 0 0 0 0 -36.719131817391826 -7.5869367058439323 0 -7.5869367058439323 -3.2296533877931921 0 0 0 0 -39.156541483855108 -18.248500079836326 0 -18.248500079836326 -9.957251759879421 0 0 0 0 -36.201698497663074 -22.440819040313762 0 -22.440819040313762 -0.50324038720437869 0 0 0 0 -27.625007933419795 -10.179475474402096 0 -10.179475474402096 -4.6576074539294856 0 0 0 0 -56.499693059740821 -19.601012203762139 0 -19.601012203762139 -2.1752492992063708 0 0 0 0 -49.231316618650453 -8.3334950112623574 0 -8.3334950112623574 6.3135622939211089 0 0 0 0 -35.172679710898365 -13.078191487261179 0 -13.078191487261179 -3.6235352762083588 0 0 0 0 -30.43956030881003 -3.1167877564866018 0 -3.1167877564866018 4.3754342930248482 0 0 0 0 -43.264960475062253 -15.123211589355776 0 -15.123211589355776 -8.1408786527975963 0 0 0 0 -43.769564618269214 -13.852337516672947 0 -13.852337516672947 -5.3740912180992098 0 0 0 0 -39.548036335676443 -26.629994183423889 0 -26.629994183423889 -2.667741196089537 0 0 0 0 -32.044370030009304 -12.27860263399171 0 -12.27860263399171 -7.8868641296812712 0 0 0 0 -40.169930973657756 -18.898240238481208 0 -18.898240238481208 -5.0395144255473951 0 0 0 0 -44.306156949463912 -12.648832839680907 0 -12.648832839680907 0.62757170084114478 0 0 0 0 -15.290798000525683 -6.4769406076260623 0 -6.4769406076260623 6.9235763944122777 0 0 0 0 -30.904979576991593 -9.2311717713033232 0 -9.2311717713033232 -2.7860370359562241 0 0 0 0 -18.533586092725159 -7.3665035928769953 0 -7.3665035928769953 1.3922001073039298 0 0 0 0 -284.84244071348803 -125.20289193003475 0 -125.20289193003475 666.33159951790492 0 0 0 0 -26.322727206366835 -212.53631975648341 0 -212.53631975648341 314.3236549734861 0 0 0 0 76.655146783392411 -131.22181136074641 0 -131.22181136074641 -0.31488016648313533 0 0 0 0 -160.06834040937247 140.186043112108 0 140.186043112108 498.87760433694524 0 0 0 0 -184.2229611685616 210.08915247395862 0 210.08915247395862 480.54796376682452 0 0 0 0 -22.697443859590123 -4.6608606181003012 0 -4.6608606181003012 0.75266397681053698 0 0 0 0 -46.057550428005925 -18.311900878991224 0 -18.311900878991224 -6.2865209882181716 0 0 0 0 -20.12548410881837 1.6735826084921257 0 1.6735826084921257 7.6686871513090997 0 0 0 0 -58.604053358663805 -18.40933108224101 0 -18.40933108224101 -3.922148526572073 0 0 0 0 -76.902864854906511 -14.582809076668241 0 -14.582809076668241 3.929207525898164 0 0 0 0 -26.852016259142687 11.002941145055047 0 11.002941145055047 10.040700654477861 0 0 0 0 -195.44514309818624 -61.186178318902421 0 -61.186178318902421 28.785538232335966 0 0 0 0 -226.54107121066772 -128.17778039881978 0 -128.17778039881978 -102.34405346828862 0 0 0 0 -76.405752059082715 -12.755580382267503 0 -12.755580382267503 8.7345338189705224 0 0 0 0 -11.224215410620786 19.583730051385089 0 19.583730051385089 10.216646489240896 0 0 0 0 -12.593255360960029 -83.900308941644766 0 -83.900308941644766 -149.57810367562968 0 0 0 0 -66.963259679200632 36.205757287250748 0 36.205757287250748 28.401681531322623 0 0 0 0 -177.23246635531541 -108.85668533821541 0 -108.85668533821541 4.8286601451625302 0 0 0 0 -200.71637600113172 63.419099900011247 0 63.419099900011247 151.8748140522157 0 0 0 0 -218.23130532121286 12.336521407374676 0 12.336521407374676 15.302838315168628 0 0 0 0 -130.86865463666618 -47.133294460321395 0 -47.133294460321395 -0.91183583075894603 0 0 0 0 -21.694702074250074 -5.3184879698830798 0 -5.3184879698830798 0.32170238144260299 0 0 0 0 -40.861595647833497 -16.057280841661346 0 -16.057280841661346 -5.2987509493370881 0 0 0 0 -72.441467392985942 -25.487803258025906 0 -25.487803258025906 -12.879402791112568 0 0 0 0 -37.406955909347744 5.4568793141619381 0 5.4568793141619381 -56.371291045487396 0 0 0 0 -160.85071017492737 -139.89045399205719 0 -139.89045399205719 211.13602000487981 0 0 0 0 9.2163325601140969 307.64845257514344 0 307.64845257514344 -7.071942511642419 0 0 0 0 -48.723113397578004 -36.662716784936073 0 -36.662716784936073 -14.138650011128856 0 0 0 0 -228.59113618556876 -316.08396119097421 0 -316.08396119097421 -173.80588059083993 0 0 0 0 -112.91473955082802 308.84811006421359 0 308.84811006421359 12.637174154432614 0 0 0 0 -8.1904743971854828 -0.87096847178905534 0 -0.87096847178905534 2.1758283571489345 0 0 0 0 -98.892731737578288 50.184571588633844 0 50.184571588633844 192.51264284163062 0 0 0 0 -23.314307346416172 -3.7075385769257991 0 -3.7075385769257991 39.617973896026115 0 0 0 0 2.2658719163618741 19.481986933840119 0 19.481986933840119 42.756210651561204 0 0 0 0 1.3464001833053771 84.8321347646704 0 84.8321347646704 9.8698018614995817 0 0 0 0 -927.07421018266177 443.2995396552833 0 443.2995396552833 206.69755347913451 0 0 0 0 -65.083725006244379 -46.749438633960956 0 -46.749438633960956 -16.740982598385045 0 0 0 0 -250.26352542868699 -140.10763047691398 0 -140.10763047691398 625.29926544598811 0 0 0 0 -91.220048109375057 -752.27136367249386 0 -752.27136367249386 -403.03338099868051 0 0 0 0 -435.4658701417211 -732.61083181787217 0 -732.61083181787217 220.20362417209799 0 0 0 0 -519.88828390755225 -81.267527403647364 0 -81.267527403647364 -0.4032074254582767 0 0 0 0 -171.35852123575751 -313.40225084224176 0 -313.40225084224176 -491.00254218013652 0 0 0 0 -268.34725617311778 -82.112754366474292 0 -82.112754366474292 341.54919622187208 0 0 0 0 -29.995420899038436 -143.27968082633106 0 -143.27968082633106 -98.336503939688555 0 0 0 0 -119.48337672369962 37.204681412865057 0 37.204681412865057 17.011930207781006 0 0 0 0 8.6865230734401848 250.0927599713109 0 250.0927599713109 87.679289932363645 0 0 0 0 -101.56611523634638 274.19727284273131 0 274.19727284273131 -555.53305222018093 0 0 0 0 3.7324403388047358 -134.23512158854783 0 -134.23512158854783 -182.10353873329132 0 0 0 0 -311.66700812640192 -899.43097863330695 0 -899.43097863330695 -682.93914489138183 0 0 0 0 -788.81390120602737 -495.0449350586232 0 -495.0449350586232 397.8835718834614 0 0 0 0 -908.53507317412004 -1219.968067657865 0 -1219.968067657865 150.83048489894281 0 0 0 0 -714.28650655352976 -565.99270055745001 0 -565.99270055745001 -167.64619325561989 0 0 0 0 -197.27209626341937 -525.46601472592749 0 -525.46601472592749 -205.31726777484448 0 0 0 0 125.11273704242194 114.96921039298266 0 114.96921039298266 188.57612540992326 0 0 0 0 185.23178849666147 -207.43676337736375 0 -207.43676337736375 -151.08942845089317 0 0 0 0 -152.69942334899679 -88.733458108526065 0 -88.733458108526065 -119.57330339275404 0 0 0 0 -116.10870578220238 -443.17889140491116 0 -443.17889140491116 -288.24271692653201 0 0 0 0 -622.88161747885169 -247.97485262660211 0 -247.97485262660211 -349.00297190980382 0 0 0 0 -81.240439376174265 -54.065946888125914 0 -54.065946888125914 -16.126040522248775 0 0 0 0 -212.93796262517571 -160.87914589880529 0 -160.87914589880529 -638.47248203237723 0 0 0 0 -79.823112663555321 -56.986938097095049 0 -56.986938097095049 -21.055894847705332 0 0 0 0 -28.248903332758459 -14.693101235939508 0 -14.693101235939508 -1.470597453498895 0 0 0 0 -1072.7038090834685 -393.31624563005789 0 -393.31624563005789 -119.58741861187536 0 0 0 0 -1450.4767321648542 -514.0812681302923 0 -514.0812681302923 29.430131458290816 0 0 0 0 -19.699883226780372 -11.806307577729882 0 -11.806307577729882 5.4675641305551181 0 0 0 0 -696.00249658685061 -98.121070079165293 0 -98.121070079165293 -81.186481275666665 0 0 0 0 340.47078010960831 -323.02378379156039 0 -323.02378379156039 147.52374951897582 0 0 0 0 -35.735394041330437 -242.61343385515755 0 -242.61343385515755 186.57726241391174 0 0 0 0 -371.20316132515291 -33.145290903156535 0 -33.145290903156535 -191.90466970528678 0 0 0 0 -443.39750300065498 -301.54157989697433 0 -301.54157989697433 503.76614192864622 0 0 0 0 -1149.6799106485341 -147.45455417536118 0 -147.45455417536118 135.01491131661533 0 0 0 0 -136.68202383258176 382.854918329935 0 382.854918329935 -1196.7336677165149 0 0 0 0 -1260.0918443402916 -1536.0112362339532 0 -1536.0112362339532 -183.60855351206354 0 0 0 0 -1106.8513586582267 -356.81003906279875 0 -356.81003906279875 443.35540769431509 0 0 0 0 -5.4226570058982588 2.0059685031083063 0 2.0059685031083063 6.1586349235202666 0 0 0 0 -1103.7329139393987 -680.30589527634402 0 -680.30589527634402 425.44207444675681 0 0 0 0 -587.85568684202735 131.57570480151793 0 131.57570480151793 -302.82836256022915 0 0 0 0 -706.25712436242611 -412.61644165919819 0 -412.61644165919819 -470.66921788742536 0 0 0 0 -1274.725231306802 -301.30459505331442 0 -301.30459505331442 -366.1725155497665 0 0 0 0 -1385.519279954533 -231.2043653672724 0 -231.2043653672724 -499.94595797915508 0 0 0 0 -1005.9943354571878 -433.75761843357668 0 -433.75761843357668 -520.60034609347338 0 0 0 0 -917.58118682906206 -103.28197628399366 0 -103.28197628399366 -427.60311209437168 0 0 0 0 -8.6844642471013458 -0.015121045249344434 0 -0.015121045249344434 0.078896916825792515 0 0 0 0 -1021.3996825161739 -1049.3179436861444 0 -1049.3179436861444 -877.02971982779957 0 0 0 0 -1297.9334039031528 -6.5608598397709343 0 -6.5608598397709343 287.5544296436376 0 0 0 0 -1140.4298906278564 -518.64353470829656 0 -518.64353470829656 -364.02270386885493 0 0 0 0 -702.82605665827577 -969.62785172926544 0 -969.62785172926544 -876.07070088581395 0 0 0 0 -970.99275091590243 -789.34082182726672 0 -789.34082182726672 -175.74983551937953 0 0 0 0 -1927.7390391986701 -765.32197458116718 0 -765.32197458116718 -420.87091322338034 0 0 0 0 -1432.4255866930762 -28.302155519141039 0 -28.302155519141039 -1349.5197420147247 0 0 0 0 -258.01446286574719 55.940490027166675 0 55.940490027166675 10.723054166994586 0 0 0 0 -152.1964878134313 -372.74652759250091 0 -372.74652759250091 -389.36954322614611 0 0 0 0 -907.6778884861269 -692.3614022634963 0 -692.3614022634963 -187.46241810080335 0 0 0 0 -518.9428041522624 -318.29955261997861 0 -318.29955261997861 172.13020311592163 0 0 0 0 -349.62901859346312 33.052866533024371 0 33.052866533024371 62.639353035735667 0 0 0 0 -622.56718330309377 -7.9830164444850311 0 -7.9830164444850311 77.432804585627309 0 0 0 0 -804.25233764477889 42.312811479464585 0 42.312811479464585 65.802640289023202 0 0 0 0 -1132.5590534811054 -272.90123263614873 0 -272.90123263614873 171.7174793454742 0 0 0 0 -10.336090564260473 -7.2229065985027461 0 -7.2229065985027461 -3.0980197326211862 0 0 0 0 -410.38796241156524 111.4990240893917 0 111.4990240893917 -24.838580786499506 0 0 0 0 -279.20309909890057 -70.413791897840099 0 -70.413791897840099 -13.338949004542314 0 0 0 0 175.68906311359024 139.89263211469688 0 139.89263211469688 -141.766707733658 0 0 0 0 -115.20914301663288 -52.980647795739117 0 -52.980647795739117 -49.736238099208151 0 0 0 0 189.3395746643655 76.039326593439796 0 76.039326593439796 -164.0085234578132 0 0 0 0 -7.4819908877635157 0.4096811157099296 0 0.4096811157099296 -0.22193586199884852 0 0 0 0 -21.236356011820419 3.0507302962193563 0 3.0507302962193563 1.5763429670954958 0 0 0 0 -18.835237543695257 -17.421928435687008 0 -17.421928435687008 22.284624488643097 0 0 0 0 -30.713545762788272 -8.8674167183597774 0 -8.8674167183597774 -3.6982087913356736 0 0 0 0 -3.6354374773827089 -0.00054687883698534279 0 -0.00054687883698534279 -1.8246477957140919 0 0 0 0 -4.6154460425093973 -4.7275077691347178 0 -4.7275077691347178 0.12567172154132022 0 0 0 0 -7.9599762053583163 -4.1530493149672623 0 -4.1530493149672623 0.65208697410908822 0 0 0 0 95.759432965962333 -92.253281205878295 0 -92.253281205878295 9.7999999427494231 0 0 0 0 14.445408411669632 64.704610621564257 0 64.704610621564257 12.012617962932019 0 0 0 0 22.172059261154573 -11.985560863105292 0 -11.985560863105292 -38.9407196391345 0 0 0 0 5.8989579431945458 204.53324708212537 0 204.53324708212537 -126.65241212767887 0 0 0 0 61.313703545660246 94.612238479104349 0 94.612238479104349 -47.036066631602907 0 0 0 0 55.278077997427317 67.194159122646454 0 67.194159122646454 -98.670605178836809 0 0 0 0 -12.924248439829853 3.8096406725180429 0 3.8096406725180429 -2.1107957548371186 0 0 0 0 -40.133850953621732 -0.34948476908736392 0 -0.34948476908736392 2.7297840892192653 0 0 0 0 -6.3266922883053311 -0.81995486218937685 0 -0.81995486218937685 -0.56372054443212027 0 0 0 0 -43.8220250041486 -8.0741235088680039 0 -8.0741235088680039 3.0059938562346407 0 0 0 0 -16.830339700320565 12.755682911516676 0 12.755682911516676 3.5640217299642849 0 0 0 0 -17.607467672351049 -4.2875591443452192 0 -4.2875591443452192 -7.3121826257631115 0 0 0 0 -26.954429068646277 8.9062328912339037 0 8.9062328912339037 -0.013676525679916861 0 0 0 0 -53.507418575682095 -2.5178302032311559 0 -2.5178302032311559 6.8108517951932379 0 0 0 0 -58.695422481818241 -11.481242999812814 0 -11.481242999812814 -2.7586044205250735 0 0 0 0 0.39436894400355271 0.084434920344563125 0 0.084434920344563125 -0.10637321212238332 0 0 0 0 -2268.5770563218684 -611.83606376136595 0 -611.83606376136595 -22.654887960784819 0 0 0 0 -6.0593284059805228 1.1033980958755762 0 1.1033980958755762 0.14346163896862418 0 0 0 0 -2.8560200026549865 8.7966617984396294 0 8.7966617984396294 0.0095409229115198113 0 0 0 0 -10.522023909841664 -0.61236896830547505 0 -0.61236896830547505 0.22103690322149014 0 0 0 0 -455.20102612441406 -3.1998673325101095 0 -3.1998673325101095 -34.419712246758934 0 0 0 0 -10.27390997922015 4.7540585146180092 0 4.7540585146180092 -0.47833809766861046 0 0 0 0 -1554.4218559199362 -484.00369084296091 0 -484.00369084296091 -105.03240233364606 0 0 0 0 -900.38663941119739 -316.65490703443174 0 -316.65490703443174 -71.195802832564937 0 0 0 0 -1260.7297199126915 -402.2710394344698 0 -402.2710394344698 -33.298342448665551 0 0 0 0 -807.976471472095 -234.74953097653878 0 -234.74953097653878 -123.3486467497064 0 0 0 0 -1066.0944668913289 -324.61305728744844 0 -324.61305728744844 -91.026771355257551 0 0 0 0 -1180.6281072380079 -349.0859838672045 0 -349.0859838672045 -38.694049826015402 0 0 0 0 -533.39519040641608 -175.81963619559428 0 -175.81963619559428 -5.1490408538418251 0 0 0 0 -844.97497486262 -156.59637246326861 0 -156.59637246326861 43.10084801144464 0 0 0 0 -1122.0167347898823 -197.7621994757327 0 -197.7621994757327 73.772588903873043 0 0 0 0 -739.94502556038788 -13.643310311678874 0 -13.643310311678874 -68.058496902882894 0 0 0 0 -2.1173105024186611 -0.0034921830634573325 0 -0.0034921830634573325 0.31079218528469388 0 0 0 0 -979.78522943425924 103.41230932420446 0 103.41230932420446 -0.87093399846338304 0 0 0 0 -1329.9868416342651 -207.8172703362298 0 -207.8172703362298 101.00423130239068 0 0 0 0 -761.4629285153751 -133.04665178129954 0 -133.04665178129954 4.1631379983764418 0 0 0 0 -1223.5387279069546 -470.73282025376648 0 -470.73282025376648 -203.42288191660987 0 0 0 0 -1403.6731556572486 -370.01788365149849 0 -370.01788365149849 -83.059390652659587 0 0 0 0 -1489.8866132377734 -656.52348823794625 0 -656.52348823794625 -357.00529135930617 0 0 0 0 -1681.8398139387718 -807.57466917033605 0 -807.57466917033605 -346.84496736743529 0 0 0 0 -1393.5888148197264 -351.87924397508766 0 -351.87924397508766 -254.99735510520355 0 0 0 0 -2244.4027579802787 -287.70940431728195 0 -287.70940431728195 213.0788251508904 0 0 0 0 -1103.0815214184113 -407.72012309967846 0 -407.72012309967846 -324.84069457377632 0 0 0 0 -1308.2863158796681 -478.91968605467252 0 -478.91968605467252 -86.379898045107524 0 0 0 0 -1186.6461329560843 -607.28704491281644 0 -607.28704491281644 -753.25592357588289 0 0 0 0 -1351.02026900684 -495.65580631156786 0 -495.65580631156786 -182.73216059824117 0 0 0 0 -1115.3206317586955 -378.4591784749154 0 -378.4591784749154 -372.07516837807998 0 0 0 0 -1003.5613486295042 -254.17054257803207 0 -254.17054257803207 -235.10157240259667 0 0 0 0 -1117.0128971938102 -173.59793503102208 0 -173.59793503102208 -221.72383562982725 0 0 0 0 -500.90609426386072 340.45837136483595 0 340.45837136483595 -214.82149242660569 0 0 0 0 -985.6520511384806 290.87259808522765 0 290.87259808522765 58.814509089089711 0 0 0 0 -30.598326753053698 46.996789068653953 0 46.996789068653953 -127.96666236215401 0 0 0 0 -1485.6790828236553 -57.882878096462377 0 -57.882878096462377 -119.17045471167168 0 0 0 0 -1212.9694950458943 -233.41932961358626 0 -233.41932961358626 -224.95719241539325 0 0 0 0 -1457.9129565398616 18.639240198875889 0 18.639240198875889 8.8277098825203524 0 0 0 0 -1613.5378731415549 47.286814900740893 0 47.286814900740893 19.314928478086806 0 0 0 0 -1459.4132469685424 -175.74881911532097 0 -175.74881911532097 -66.074333935260825 0 0 0 0 -5.2522423073851314 2.9851385552532861 0 2.9851385552532861 -1.84013598842772 0 0 0 0 -1253.6152862824601 98.729013134000454 0 98.729013134000454 1.0761875620478438 0 0 0 0 -582.0456196066807 -222.31319822461364 0 -222.31319822461364 -99.176002941162437 0 0 0 0 -1671.3010720405728 50.071051938005205 0 50.071051938005205 -1.8704896098020838 0 0 0 0 -1320.8037182553526 -65.665223154871299 0 -65.665223154871299 -68.891684882634053 0 0 0 0 -1297.0516749392846 -111.04062594451828 0 -111.04062594451828 10.249322390726491 0 0 0 0 -1067.782825723727 131.87514371847456 0 131.87514371847456 -0.17730270943147125 0 0 0 0 -12.698434453632217 6.3223678510376997 0 6.3223678510376997 0.009051350716444145 0 0 0 0 -3.87127860752571 0.9080954639864558 0 0.9080954639864558 0.16811258053034217 0 0 0 0 -3.2750333906180487 0.51288444024584123 0 0.51288444024584123 0.31058756063614112 0 0 0 0 -862.42797791224439 -13.488077431030717 0 -13.488077431030717 30.759090475149378 0 0 0 0 -1039.4355997253551 101.534956413405 0 101.534956413405 31.984548383112724 0 0 0 0 -3.7095628274049091 -2.1806271683244063 0 -2.1806271683244063 2.6157040163764411 0 0 0 0 -1.1780079921790758 -0.72979475545798778 0 -0.72979475545798778 -0.22999243212038945 0 0 0 0 -1096.9727820746193 124.63899327049262 0 124.63899327049262 47.455339159513755 0 0 0 0 -1071.9680217779987 142.11260887049363 0 142.11260887049363 -26.019920028698834 0 0 0 0 -1158.434284576706 228.07718345568992 0 228.07718345568992 -32.091087657964408 0 0 0 0 -918.38125811821374 285.6189479104462 0 285.6189479104462 -100.26931883026009 0 0 0 0 -588.12769093675888 255.84254866834715 0 255.84254866834715 -203.96452844469928 0 0 0 0 -636.89488492814417 226.42990243827262 0 226.42990243827262 -141.42517268811662 0 0 0 0 -321.43699577138614 137.93841214091549 0 137.93841214091549 -212.80577933947325 0 0 0 0 -747.40025733491348 115.11507538981061 0 115.11507538981061 -177.02780315785685 0 0 0 0 -688.78936228301609 75.098771299095461 0 75.098771299095461 -236.4479925962188 0 0 0 0 -829.88107566468534 -167.63706241163271 0 -167.63706241163271 -409.91645802501068 0 0 0 0 -494.94321037782356 -24.605930991721948 0 -24.605930991721948 -91.173507085544088 0 0 0 0 -568.29035525361542 209.85968151891211 0 209.85968151891211 -228.71881667824641 0 0 0 0 -480.3384663786419 277.27296737911252 0 277.27296737911252 -177.06917037514336 0 0 0 0 -140.99177157779923 182.36116950518448 0 182.36116950518448 -100.75530485227591 0 0 0 0 -605.97915290907258 273.45287565592901 0 273.45287565592901 -69.942004966768764 0 0 0 0 -326.90331276001962 82.395735118768442 0 82.395735118768442 -23.985108474173103 0 0 0 0 24.682166946644429 -91.857599412968057 0 -91.857599412968057 221.58801202361781 0 0 0 0 -425.93379347615701 -22.05618158906816 0 -22.05618158906816 268.43359920996591 0 0 0 0 -570.3825556775555 291.18132618661048 0 291.18132618661048 31.387472082215027 0 0 0 0 -574.47707274922868 253.2705025475085 0 253.2705025475085 -100.88405154970815 0 0 0 0 -1703.3420354478585 562.42410557286348 0 562.42410557286348 -15.502153899298833 0 0 0 0 -950.30261991132284 594.02902623049749 0 594.02902623049749 -77.577323339266172 0 0 0 0 -815.46859361813404 466.88422656935933 0 466.88422656935933 -127.78432229961618 0 0 0 0 -432.51289655306027 275.472693485935 0 275.472693485935 473.06254957850751 0 0 0 0 -157.7320338501595 -142.37499702070545 0 -142.37499702070545 813.46849425202799 0 0 0 0 -1717.7607740237727 -999.59197896541059 0 -999.59197896541059 752.86021159113852 0 0 0 0 -18.704377445086948 -1.2148597723367587 0 -1.2148597723367587 0.19778440123673491 0 0 0 0 -27.346330433043477 496.22586395998189 0 496.22586395998189 -530.75162466719166 0 0 0 0 -1698.6086609851045 1358.367241684841 0 1358.367241684841 -874.64305042593969 0 0 0 0 -392.10469443310285 -26.601266383050586 0 -26.601266383050586 408.42247120452271 0 0 0 0 -43.237160960511574 -3.187388149872298 0 -3.187388149872298 1.4913780627349484 0 0 0 0 52.429154270386789 95.149880763565534 0 95.149880763565534 -38.692083333062158 0 0 0 0 -89.664784411725122 80.171448494546439 0 80.171448494546439 354.299070421279 0 0 0 0 -50.913655555482705 -3.4580917274223353 0 -3.4580917274223353 2.3095110701728814 0 0 0 0 -220.8564068363703 -198.15840267341434 0 -198.15840267341434 507.5099772533149 0 0 0 0 -84.790384513413301 206.95281957128054 0 206.95281957128054 168.50450403510331 0 0 0 0 -102.03073705921997 208.70471405052194 0 208.70471405052194 168.78549172043847 0 0 0 0 3.8180065346532501 252.31034460739124 0 252.31034460739124 -125.09568349196888 0 0 0 0 -225.1311517253489 199.39602270330261 0 199.39602270330261 -118.09184636780446 0 0 0 0 21.012761891710397 218.73204264483093 0 218.73204264483093 -97.083859314589517 0 0 0 0 125.26632735766179 79.497924805834145 0 79.497924805834145 -249.49653467858752 0 0 0 0 13.778403239313775 199.03681719847089 0 199.03681719847089 -91.706224051977188 0 0 0 0 28.131107434790465 207.51853571227332 0 207.51853571227332 -371.05665278731249 0 0 0 0 -78.976232846733183 66.700197650875452 0 66.700197650875452 -332.04049701119607 0 0 0 0 -235.61662371938291 314.64501592476381 0 314.64501592476381 -440.89055706874842 0 0 0 0 -917.5857187184447 -137.16910486162215 0 -137.16910486162215 -127.05981179784726 0 0 0 0 -220.56152893824037 148.34781183662062 0 148.34781183662062 -62.907110957710756 0 0 0 0 -1695.0047278278726 320.37838176437003 0 320.37838176437003 -263.33972192657075 0 0 0 0 -766.65515338227851 395.97156193831097 0 395.97156193831097 -919.22939680332365 0 0 0 0 -1178.857778650854 111.92178496557881 0 111.92178496557881 -386.16775041501432 0 0 0 0 -422.26497857774666 -33.391901180780224 0 -33.391901180780224 -534.96142619440775 0 0 0 0 -344.81028725339638 -201.92801728883205 0 -201.92801728883205 -356.11477758809451 0 0 0 0 -326.21047053854272 -156.07980976386762 0 -156.07980976386762 -973.52560983406329 0 0 0 0 -1048.3618317905348 158.67756471786379 0 158.67756471786379 -840.59961182764346 0 0 0 0 -723.63546680266154 -251.03943330366928 0 -251.03943330366928 -815.77732979545067 0 0 0 0 -354.01794204763428 -284.83769680152227 0 -284.83769680152227 -295.60511384457504 0 0 0 0 -692.37644670103327 -366.62262830936925 0 -366.62262830936925 -1175.6142692654776 0 0 0 0 -730.91400376981619 -332.47621616630772 0 -332.47621616630772 -250.9995860013023 0 0 0 0 -147.40636171089136 -332.64316341438052 0 -332.64316341438052 -504.38297079249878 0 0 0 0 -234.31806869478896 -251.51426923052077 0 -251.51426923052077 186.64042327772586 0 0 0 0 -420.74835605124827 -391.61024259008036 0 -391.61024259008036 106.07123228419186 0 0 0 0 -822.50452349381521 -311.33278814223786 0 -311.33278814223786 486.41298081139212 0 0 0 0 -89.440532762528164 -312.30701477542698 0 -312.30701477542698 142.23397174761612 0 0 0 0 -67.332939407817321 -337.55983424540182 0 -337.55983424540182 -65.209400204311805 0 0 0 0 -159.92052488861373 -310.04408306317509 0 -310.04408306317509 -39.730609666989039 0 0 0 0 32.131123114781076 -248.1664322493184 0 -248.1664322493184 -440.99547559752682 0 0 0 0 103.89883790643944 -213.26837870955069 0 -213.26837870955069 -105.76456056940242 0 0 0 0 35.013896980755817 -209.74842222378152 0 -209.74842222378152 -72.52904638527616 0 0 0 0 -45.27807757545088 -82.448483634344029 0 -82.448483634344029 -266.35923141215835 0 0 0 0 -70.698446833863272 -195.9772215850453 0 -195.9772215850453 -760.51425669639139 0 0 0 0 -179.049855362784 217.93311795365412 0 217.93311795365412 -524.30056556978889 0 0 0 0 119.67924276087433 2.6628805501254647 0 2.6628805501254647 -213.22663132634989 0 0 0 0 34.212476437474834 160.90600373445386 0 160.90600373445386 -322.27597618191157 0 0 0 0 87.159786205767887 -83.428202206096557 0 -83.428202206096557 -420.75269836509142 0 0 0 0 193.905222851914 6.9943544696980098 0 6.9943544696980098 -126.32633394001823 0 0 0 0 183.68985730496934 -32.024178944297091 0 -32.024178944297091 -264.39941675549107 0 0 0 0 257.32825687143486 -16.238997852242392 0 -16.238997852242392 -78.502938384545814 0 0 0 0 249.22211486418382 -36.631402149359928 0 -36.631402149359928 -127.5462409868469 0 0 0 0 345.10467591340421 -70.309382273156643 0 -70.309382273156643 -113.4802922515205 0 0 0 0 263.00330873722851 -62.515361124840183 0 -62.515361124840183 -16.375839982826619 0 0 0 0 160.64652594206564 -123.13617283181793 0 -123.13617283181793 -69.844801535529768 0 0 0 0 153.22432760687661 -167.84025474422833 0 -167.84025474422833 -306.26069595473109 0 0 0 0 246.09649518683727 -118.40190089112707 0 -118.40190089112707 -193.0717458129584 0 0 0 0 108.03072753475863 -241.0826790474016 0 -241.0826790474016 -13.605865729525704 0 0 0 0 236.34179783373838 -144.498026717225 0 -144.498026717225 -118.39977783888389 0 0 0 0 -18.432882289242826 -38.775680465983413 0 -38.775680465983413 -19.686984654963791 0 0 0 0 346.09787824947853 -191.15999246044521 0 -191.15999246044521 -63.191835071153946 0 0 0 0 238.85924189789739 -193.86233370303898 0 -193.86233370303898 -6.7110595717613251 0 0 0 0 175.92558107609511 -166.03783476227636 0 -166.03783476227636 58.782092141124849 0 0 0 0 102.88160489566508 -176.59496794025699 0 -176.59496794025699 58.985069798661016 0 0 0 0 -313.05866674668505 -41.129714045984656 0 -41.129714045984656 -20.460152387024777 0 0 0 0 -546.13635968868766 -151.40807833697863 0 -151.40807833697863 -1.2673768576514703 0 0 0 0 -236.83846358122537 100.71153066188799 0 100.71153066188799 -20.725708780570528 0 0 0 0 -85.23246808256954 -93.296074434791507 0 -93.296074434791507 -36.871531465739295 0 0 0 0 -265.69957868041092 130.24478244157672 0 130.24478244157672 -128.19967503697728 0 0 0 0 -759.61277336622152 -116.10753148310977 0 -116.10753148310977 -148.57972203928261 0 0 0 0 -911.17295733848005 -248.59661496462479 0 -248.59661496462479 -86.439886460107573 0 0 0 0 -5.5772758268565923 2.5240287234312291 0 2.5240287234312291 -0.25227015949360432 0 0 0 0 -15.356102813957961 -39.939550479808418 0 -39.939550479808418 -29.752239724860296 0 0 0 0 -117.23937371866487 -60.367107183636676 0 -60.367107183636676 29.283044252274067 0 0 0 0 -55.03749954115483 -30.704974488638072 0 -30.704974488638072 -43.334691789745193 0 0 0 0 354.6766000465941 -96.63688127146429 0 -96.63688127146429 -91.546678250324476 0 0 0 0 -23.068224657299055 -4.8236573798733104 0 -4.8236573798733104 -6.2533894427969923 0 0 0 0 -884.95439777534193 -332.55504390317515 0 -332.55504390317515 -151.41044402357329 0 0 0 0 282.41797179667628 -64.842675965115632 0 -64.842675965115632 -12.47501320650008 0 0 0 0 -754.27289213283802 -263.46025128202882 0 -263.46025128202882 -132.63245430662755 0 0 0 0 -832.6409815143852 -260.63198387634975 0 -260.63198387634975 -120.1631186001423 0 0 0 0 -731.49011306701868 -306.30262873489164 0 -306.30262873489164 -175.86948046167436 0 0 0 0 -740.41237951259245 -242.05934063207133 0 -242.05934063207133 -138.9912259863554 0 0 0 0 -673.34012699511368 -277.17271228818299 0 -277.17271228818299 -133.44059078880855 0 0 0 0 -705.09738085376557 -259.54200367754925 0 -259.54200367754925 -171.50789996609637 0 0 0 0 -714.66258315452251 -199.73094550839204 0 -199.73094550839204 -73.555265842125664 0 0 0 0 15.689202352064171 -18.001146420048968 0 -18.001146420048968 -47.043035635877004 0 0 0 0 -983.65800467864028 -373.4051390564523 0 -373.4051390564523 -62.337904218088624 0 0 0 0 -802.70655101788725 -358.70956284011436 0 -358.70956284011436 -193.68919488392112 0 0 0 0 253.32581219895656 32.46816100574506 0 32.46816100574506 -76.388546000578572 0 0 0 0 -992.76913086533023 -348.3580128838903 0 -348.3580128838903 -109.39445011020871 0 0 0 0 7.8461704886601495 -26.185127195879659 0 -26.185127195879659 -38.670105731764082 0 0 0 0 218.21885218487296 25.906925443960745 0 25.906925443960745 -44.389214173937944 0 0 0 0 152.74002257677785 86.14537828698576 0 86.14537828698576 -98.308745747866851 0 0 0 0 144.39032372049405 119.93499478815465 0 119.93499478815465 -164.13651504894551 0 0 0 0 182.96729126840364 108.90447628214497 0 108.90447628214497 -79.32493274081969 0 0 0 0 52.923230894099106 76.543631589714096 0 76.543631589714096 -3.8506339576906612 0 0 0 0 -70.047575654476532 97.097957389201838 0 97.097957389201838 35.811333949685832 0 0 0 0 55.888956152557512 136.17026145733598 0 136.17026145733598 47.22844104912383 0 0 0 0 6.6995709971233737 58.54241558964236 0 58.54241558964236 41.894147950238676 0 0 0 0 -50.23513707252863 -8.8973514986808127 0 -8.8973514986808127 -8.064127230569488 0 0 0 0 -1.5036991709564234 -17.04794604527595 0 -17.04794604527595 -61.633678052405841 0 0 0 0 16.10088119439024 59.337042467427864 0 59.337042467427864 16.642424003047154 0 0 0 0 -1036.3677349081627 -285.76555012981066 0 -285.76555012981066 -48.844393653587758 0 0 0 0 -782.45965728409647 -289.24568816630926 0 -289.24568816630926 -134.54436900441169 0 0 0 0 -407.65094949520426 -383.42087085332787 0 -383.42087085332787 2.8564120079863642 0 0 0 0 -19.29597626911999 -15.889923565852655 0 -15.889923565852655 -3.8114785516858163 0 0 0 0 -716.277796244005 -162.41690982648129 0 -162.41690982648129 -59.085893254441544 0 0 0 0 -675.35103027502919 -341.80434212031241 0 -341.80434212031241 -50.169064936844734 0 0 0 0 -751.04816019444843 -233.83984713167956 0 -233.83984713167956 -165.87088821511225 0 0 0 0 -909.84121666006104 -377.68533376681535 0 -377.68533376681535 -41.196498073296425 0 0 0 0 -394.96910726389615 -340.39612136674805 0 -340.39612136674805 -331.06658674463461 0 0 0 0 -849.91121848553303 -254.49093079810973 0 -254.49093079810973 -238.14830373034556 0 0 0 0 -2.832325423794714 1.5899000247206345 0 1.5899000247206345 5.8159252928395304 0 0 0 0 -303.74321616307134 -12.483071694893852 0 -12.483071694893852 -23.740700786643174 0 0 0 0 -1127.6693689805397 -196.00289980998423 0 -196.00289980998423 -250.02688220897016 0 0 0 0 -277.40373924990126 -219.99731562240231 0 -219.99731562240231 -632.46521106139335 0 0 0 0 29.194994461213355 4.0827240009239176 0 4.0827240009239176 -25.208758351318465 0 0 0 0 -1078.7058610797403 -623.29341630244517 0 -623.29341630244517 -424.82014499095021 0 0 0 0 -7.8741884687081551 2.4142498587629575 0 2.4142498587629575 -0.89790883584152681 0 0 0 0 -10.934053975593997 67.641819668825519 0 67.641819668825519 13.930919237773196 0 0 0 0 32.182381549365346 46.647133268801497 0 46.647133268801497 9.1864312204306771 0 0 0 0 -41.506636410704232 66.593350420825118 0 66.593350420825118 25.946877664930071 0 0 0 0 3.3819263885245334 24.882434502679956 0 24.882434502679956 46.989175838999394 0 0 0 0 43.336694663754315 125.87825125657224 0 125.87825125657224 62.691097616381313 0 0 0 0 30.024973811392556 -3.0671628291934994 0 -3.0671628291934994 11.751172102320993 0 0 0 0 -15.994958699122776 14.470341028247518 0 14.470341028247518 4.5330659560230195 0 0 0 0 -28.174168864745297 44.953772044768812 0 44.953772044768812 14.876072634108823 0 0 0 0 -262.8465096255095 -141.29786227586237 0 -141.29786227586237 -119.19005604875747 0 0 0 0 -7.8267415249757448 -4.3608965197873317 0 -4.3608965197873317 4.2149763871365664 0 0 0 0 -407.57043318261276 -247.70569783265273 0 -247.70569783265273 -149.10047162074443 0 0 0 0 -370.98452268561232 -306.01909292738128 0 -306.01909292738128 -126.30733450115366 0 0 0 0 -549.21177874878049 -251.39804130469656 0 -251.39804130469656 -18.299778582122599 0 0 0 0 -234.91559053128003 -224.40634174695833 0 -224.40634174695833 -127.508623313719 0 0 0 0 -392.67093290141202 -176.68714496678876 0 -176.68714496678876 -17.342343579341104 0 0 0 0 -251.22851378032556 -48.85364967579639 0 -48.85364967579639 25.958057614256177 0 0 0 0 -51.291847367358685 5.3766339754232177 0 5.3766339754232177 28.287137808521344 0 0 0 0 -79.996677055329201 -43.686777177748127 0 -43.686777177748127 -49.11577384267639 0 0 0 0 -258.01679930579121 -160.19227613334033 0 -160.19227613334033 -16.482669569210884 0 0 0 0 -375.19149810993986 -104.71835688409374 0 -104.71835688409374 5.9664708995719593 0 0 0 0 -534.90542148155509 -246.22555783378812 0 -246.22555783378812 3.1392371539462829 0 0 0 0 -504.27503748030722 -263.72604362116499 0 -263.72604362116499 -111.68433381098112 0 0 0 0 -548.85910171001797 -246.25826217588568 0 -246.25826217588568 -0.67880603341473034 0 0 0 0 -584.01536427735118 -223.69715488576185 0 -223.69715488576185 -15.12598614880153 0 0 0 0 -682.52553153596818 -247.07802701609762 0 -247.07802701609762 -14.167762429975198 0 0 0 0 -576.45255064784214 -243.73150280616824 0 -243.73150280616824 -106.83829107346719 0 0 0 0 -608.64343169686617 -295.87217714599365 0 -295.87217714599365 -127.30509303963072 0 0 0 0 -646.13050528886379 -220.49491129111993 0 -220.49491129111993 -106.12826792287728 0 0 0 0 -689.5896948294685 -238.04473891221176 0 -238.04473891221176 -158.49212262226774 0 0 0 0 -594.53387789468979 -259.80630906451665 0 -259.80630906451665 -182.21093295615617 0 0 0 0 -594.41968431309215 -262.01325298341044 0 -262.01325298341044 -172.83714966331769 0 0 0 0 -764.82760161559418 -206.55275815671166 0 -206.55275815671166 -165.0686474025872 0 0 0 0 -551.6948252222719 -267.95090976910171 0 -267.95090976910171 -183.71541502167247 0 0 0 0 -543.4230495760421 -296.87531377839946 0 -296.87531377839946 -87.921551564989954 0 0 0 0 -488.76672858252277 -295.3837019920694 0 -295.3837019920694 -260.80380054176118 0 0 0 0 -479.62966553495789 -272.7771412945246 0 -272.7771412945246 -212.52283653134782 0 0 0 0 -370.45887815416791 -243.75838703221234 0 -243.75838703221234 -264.98606053352603 0 0 0 0 -536.48544231518463 -201.7652019556914 0 -201.7652019556914 -186.90881801604934 0 0 0 0 -526.23526258792845 -255.403245052339 0 -255.403245052339 -211.41089365930145 0 0 0 0 -537.12687590604764 -201.65262189486089 0 -201.65262189486089 -41.732587365083418 0 0 0 0 -450.43744024950138 -144.72079149192268 0 -144.72079149192268 -151.62533609859443 0 0 0 0 -471.91255066845042 -211.0453135123189 0 -211.0453135123189 -179.5105033122486 0 0 0 0 -454.19060251396149 -200.90812825420517 0 -200.90812825420517 -182.33930195374262 0 0 0 0 -416.63389513123548 -128.17926329575903 0 -128.17926329575903 -45.347671193060705 0 0 0 0 -521.2407641542959 -159.58410943689933 0 -159.58410943689933 -30.665522821660488 0 0 0 0 -520.40344766165072 -185.76812068346135 0 -185.76812068346135 61.798855637616725 0 0 0 0 -500.34321066451957 -198.69645637683789 0 -198.69645637683789 -41.628785588128039 0 0 0 0 70.057707374464371 -213.71681870535622 0 -213.71681870535622 -118.19610293528012 0 0 0 0 -172.93703565441319 -328.05622008807359 0 -328.05622008807359 -168.84436840339231 0 0 0 0 10.953486836860975 -341.42623505612642 0 -341.42623505612642 -144.7633484013113 0 0 0 0 -188.04508910526056 -250.44169516460624 0 -250.44169516460624 -22.346499392322585 0 0 0 0 -106.37893282616278 -176.56945404394355 0 -176.56945404394355 -68.236645600456768 0 0 0 0 -330.80776224941656 -14.144699672579463 0 -14.144699672579463 60.789089953981602 0 0 0 0 -298.32460789557081 -109.41497380922374 0 -109.41497380922374 -82.139298632544751 0 0 0 0 -343.43339913748787 -194.76879615174164 0 -194.76879615174164 -211.83560882083475 0 0 0 0 -387.92388292212854 -293.59618643390553 0 -293.59618643390553 -384.61204619321057 0 0 0 0 -293.44795953782159 -140.34638644289294 0 -140.34638644289294 -257.87192898344597 0 0 0 0 -280.13443437806291 -332.21708723189403 0 -332.21708723189403 -550.67881788154773 0 0 0 0 -259.90998509792553 -151.2489973850366 0 -151.2489973850366 -244.28621730726792 0 0 0 0 -40.502869970521715 -711.82398008620373 0 -711.82398008620373 -503.8028758382967 0 0 0 0 -529.49833408785344 -583.8648759147984 0 -583.8648759147984 -525.91086185381175 0 0 0 0 -1199.4759355581336 -197.44256877074383 0 -197.44256877074383 -26.82887138893102 0 0 0 0 -461.56786662427476 -330.97599044758863 0 -330.97599044758863 -222.28040919570708 0 0 0 0 -452.17705044201284 -375.96632324396364 0 -375.96632324396364 -291.51113891544344 0 0 0 0 -521.25640058124554 -348.86194549799052 0 -348.86194549799052 -210.8822040924299 0 0 0 0 -664.25036844040733 -235.9608854040863 0 -235.9608854040863 -0.47092306351460422 0 0 0 0 -325.00522589281172 18.67556051201916 0 18.67556051201916 13.901488270209938 0 0 0 0 -170.97788586666138 -67.573943447814145 0 -67.573943447814145 -23.962760134737891 0 0 0 0 -15.983363178673073 0.92365003379487121 0 0.92365003379487121 9.527697557540705 0 0 0 0 313.34797148920188 -942.77287757031013 0 -942.77287757031013 769.98790029275199 0 0 0 0 -1020.4054841605539 -546.48413582147225 0 -546.48413582147225 81.619413192775937 0 0 0 0 -451.74040312500438 149.31553432604744 0 149.31553432604744 931.44173341704322 0 0 0 0 -1245.2130453746358 0.45805950541819129 0 0.45805950541819129 -51.351050794103173 0 0 0 0 695.58575966216449 -1593.2903508357986 0 -1593.2903508357986 -105.10081899616623 0 0 0 0 0.45216804647992603 -2.8137862042592872 0 -2.8137862042592872 -2.6693234813075586 0 0 0 0 1006.9287824319108 -494.58475156576537 0 -494.58475156576537 -760.30769685908081 0 0 0 0 -937.82369169508456 -945.71270132740301 0 -945.71270132740301 -1236.4655580498857 0 0 0 0 541.20811583154136 -79.013325764426554 0 -79.013325764426554 -195.67073342991353 0 0 0 0 -90.045783068009769 -1078.0985746268893 0 -1078.0985746268893 -965.13700437583407 0 0 0 0 -12.4188513161061 -5.2824264037030986 0 -5.2824264037030986 -3.1730585497130281 0 0 0 0 575.23672798695043 -268.88042791405428 0 -268.88042791405428 -320.9507913754951 0 0 0 0 -1100.2923278287344 -1069.8328382173927 0 -1069.8328382173927 -956.45833167686555 0 0 0 0 -2043.1930241443042 -643.19227963073035 0 -643.19227963073035 -404.42659555163738 0 0 0 0 -1835.7681822533195 -540.18929813202897 0 -540.18929813202897 -452.94197922240892 0 0 0 0 -1541.125072509516 -990.99119471990878 0 -990.99119471990878 -987.93079850897539 0 0 0 0 -1057.3648332416196 -961.32082116675156 0 -961.32082116675156 -991.69194548431688 0 0 0 0 -488.21242870038259 -998.48995091989741 0 -998.48995091989741 -1712.8706128194719 0 0 0 0 -75.492618799769843 37.421993561648378 0 37.421993561648378 -9.5586586750553124 0 0 0 0 -885.03967998842927 -515.19387092900047 0 -515.19387092900047 -159.04214144135949 0 0 0 0 -38.128929724218324 -8.2769185656197806 0 -8.2769185656197806 10.008231692485424 0 0 0 0 -29.90548864299052 -22.636540952514395 0 -22.636540952514395 -12.531063252194848 0 0 0 0 -44.905033146442292 3.5483007865285572 0 3.5483007865285572 7.9485336641412827 0 0 0 0 -2222.8125444435882 -846.83330322020026 0 -846.83330322020026 -742.62695394523575 0 0 0 0 -2315.6847016978427 -1702.4923240377957 0 -1702.4923240377957 -603.19995885707647 0 0 0 0 -2169.4118699976825 -1569.9497614023303 0 -1569.9497614023303 -1131.3559268161475 0 0 0 0 -808.75777047427255 -1630.2631244897527 0 -1630.2631244897527 -1833.2346141275023 0 0 0 0 -18.813642941359092 7.0330804070374029 0 7.0330804070374029 7.0101406384742351 0 0 0 0 -2842.2260488157044 -1381.4989811590515 0 -1381.4989811590515 -570.31320799041487 0 0 0 0 -56.955063429757985 -18.878728952020268 0 -18.878728952020268 30.707423587764985 0 0 0 0 270.22248535427207 -354.63143207321082 0 -354.63143207321082 -69.710739436345875 0 0 0 0 -184.42305299706641 -229.16595806135814 0 -229.16595806135814 -85.219065182514896 0 0 0 0 308.94587201472314 -298.36402306365653 0 -298.36402306365653 -139.66588984668101 0 0 0 0 337.90075576855452 -401.79969288843313 0 -401.79969288843313 -301.83200745818613 0 0 0 0 365.88855935988249 -179.30493399605348 0 -179.30493399605348 -110.07076875885059 0 0 0 0 -4130.4601663307803 -1405.8431673644466 0 -1405.8431673644466 -401.55102321839865 0 0 0 0 -5498.4082840820338 -1357.9544425990584 0 -1357.9544425990584 229.78054566557401 0 0 0 0 -4066.6177572973829 -1697.1677288049325 0 -1697.1677288049325 -768.57905275845474 0 0 0 0 -3000.4601670863267 -1183.4910551824507 0 -1183.4910551824507 -638.46618936077357 0 0 0 0 -2847.6309506071339 -1131.3183190527925 0 -1131.3183190527925 -632.6914334723167 0 0 0 0 -2868.7525863783085 -1212.9158276818293 0 -1212.9158276818293 -947.91828270533313 0 0 0 0 -4115.8541636498558 -1160.5155341944876 0 -1160.5155341944876 -159.24167821427272 0 0 0 0 -2698.1564064693521 -991.54598444749649 0 -991.54598444749649 -597.02225231474654 0 0 0 0 -2973.0797014213749 -465.79784348550527 0 -465.79784348550527 229.24234408633652 0 0 0 0 -3996.13978673784 -517.99099767649773 0 -517.99099767649773 244.5364594201493 0 0 0 0 -3993.5574068591814 -418.27375251042656 0 -418.27375251042656 539.94496896495912 0 0 0 0 -4234.9993661786848 -619.32483238951045 0 -619.32483238951045 510.36984587192012 0 0 0 0 -5499.5098538208404 -244.54128955302534 0 -244.54128955302534 1011.221807518568 0 0 0 0 -4639.0348560321045 -181.06584089358168 0 -181.06584089358168 508.01363277576246 0 0 0 0 -4622.9328532099025 384.79421257183054 0 384.79421257183054 1178.4390162559957 0 0 0 0 -2823.4702454070357 -3.0261983312623215 0 -3.0261983312623215 263.99121953989288 0 0 0 0 -1213.4072943626797 778.98051619880107 0 778.98051619880107 76.884509754786905 0 0 0 0 -2751.5689822928034 176.66059568221058 0 176.66059568221058 284.69164289767923 0 0 0 0 -17.645453619009572 1.0911471294161288 0 1.0911471294161288 1.1227468129564453 0 0 0 0 -3188.0079215877486 1036.1547619624228 0 1036.1547619624228 894.70404659875726 0 0 0 0 -467.20421248341154 902.06971185707334 0 902.06971185707334 838.20830833910918 0 0 0 0 -4517.5500937631878 210.6508734513688 0 210.6508734513688 429.46276618077343 0 0 0 0 -5499.2457561189476 651.31871166528629 0 651.31871166528629 647.41460705626673 0 0 0 0 -5500.6931486456306 622.46294075203548 0 622.46294075203548 -202.91158759355488 0 0 0 0 -5541.2960446216166 333.98222280818879 0 333.98222280818879 357.52235138987658 0 0 0 0 -6799.4495305413147 1796.6382524015858 0 1796.6382524015858 75.150034059153356 0 0 0 0 -14.533288075594612 -8.5059237461652515 0 -8.5059237461652515 -5.5488629794335651 0 0 0 0 -4379.1163629031507 1902.5698197799575 0 1902.5698197799575 18.210346470322861 0 0 0 0 -4530.3746673874457 -251.38385330466008 0 -251.38385330466008 -110.77641275265063 0 0 0 0 -1736.0009091788525 -575.3719944253528 0 -575.3719944253528 -165.06823385741933 0 0 0 0 -40.450067718667469 -20.744884440844771 0 -20.744884440844771 -6.6127941743164049 0 0 0 0 -84.316857795056421 59.273429427571045 0 59.273429427571045 2.6345754386887847 0 0 0 0 -62.421608777985568 3.8548302492735047 0 3.8548302492735047 22.96260042772003 0 0 0 0 20.185022415054846 70.950216722912899 0 70.950216722912899 116.08911447311476 0 0 0 0 -175.16791719537287 136.20981477190071 0 136.20981477190071 177.71352242757894 0 0 0 0 -596.56301333807642 135.72853570380076 0 135.72853570380076 300.39002249097592 0 0 0 0 -86.311858437635237 -148.35507297607376 0 -148.35507297607376 409.85726821210756 0 0 0 0 -175.0449282164991 323.96841506926307 0 323.96841506926307 -206.64396140053614 0 0 0 0 37.558342313699541 -32.247228974249595 0 -32.247228974249595 71.116482758097732 0 0 0 0 90.760365579335485 -37.246328884644242 0 -37.246328884644242 -232.47452656008829 0 0 0 0 -656.60367097873677 374.57575120686636 0 374.57575120686636 -20.167624563816162 0 0 0 0 -1894.2838722669403 -888.64137857480932 0 -888.64137857480932 -300.37421320028079 0 0 0 0 -2566.4477574395933 313.3531930108212 0 313.3531930108212 179.30841836211346 0 0 0 0 -4811.400793916604 782.37386457139542 0 782.37386457139542 762.48645614703651 0 0 0 0 -5499.4174567963055 246.46289524834816 0 246.46289524834816 806.98984702837345 0 0 0 0 -5095.1012429212569 100.46823808166772 0 100.46823808166772 429.83428671912839 0 0 0 0 -6508.0981603010732 -376.42266836888831 0 -376.42266836888831 -831.34174723792523 0 0 0 0 -5036.6294878007611 710.65871225737214 0 710.65871225737214 -298.22925638637707 0 0 0 0 118.64517106366839 -758.31772419926199 0 -758.31772419926199 -32.568088534566471 0 0 0 0 -3303.5239839322167 -843.0272949846235 0 -843.0272949846235 75.625767197311291 0 0 0 0 -25.360022675340588 41.663441774090074 0 41.663441774090074 -917.19507899067401 0 0 0 0 -1196.7269902833068 753.94912619640149 0 753.94912619640149 -310.16641934706104 0 0 0 0 -5492.8051545152593 937.50566247696509 0 937.50566247696509 732.04382565208755 0 0 0 0 -2489.7930847430762 -84.439588774842605 0 -84.439588774842605 378.50596187209504 0 0 0 0 -1364.1241840519288 -26.857215893184893 0 -26.857215893184893 370.74343759126958 0 0 0 0 -3.2834551004489185 17.738303274483826 0 17.738303274483826 -51.402831164633916 0 0 0 0 -581.73252572656202 21.372414974337403 0 21.372414974337403 -48.989517670871081 0 0 0 0 28.63041537184472 87.419879699841459 0 87.419879699841459 70.758185829294689 0 0 0 0 -148.33728697369224 -53.468656942452071 0 -53.468656942452071 83.664307046130261 0 0 0 0 106.86727791480371 348.42794924602214 0 348.42794924602214 162.93962080633116 0 0 0 0 -11.636384715841089 -4.8440897020965963 0 -4.8440897020965963 4.1115728784841892 0 0 0 0 42.582055632185075 92.907661399076076 0 92.907661399076076 -126.32525622869895 0 0 0 0 95.604062547557987 42.716224112135023 0 42.716224112135023 -88.227357658732757 0 0 0 0 80.671817481153994 64.068642210165024 0 64.068642210165024 -149.87995344711186 0 0 0 0 112.96167014388993 127.52279408889272 0 127.52279408889272 -91.076986721813 0 0 0 0 86.024327789268682 11.932714291780448 0 11.932714291780448 -101.94937135737868 0 0 0 0 90.855859429806515 -24.860276668413256 0 -24.860276668413256 -328.41798642260397 0 0 0 0 -6.5997836421447573 -161.62887473715523 0 -161.62887473715523 -91.132859119338832 0 0 0 0 63.822139530573622 13.776643126739792 0 13.776643126739792 -73.531929806705648 0 0 0 0 40.760624567323248 119.91130103298295 0 119.91130103298295 -474.96684247454971 0 0 0 0 -31.984273865338764 -259.97791093120861 0 -259.97791093120861 -465.67477341573755 0 0 0 0 -202.64852015201177 -258.43049823383956 0 -258.43049823383956 58.509682838761819 0 0 0 0 -213.6154369529504 -97.50472813854401 0 -97.50472813854401 340.2643237639777 0 0 0 0 -33.255746892183424 -57.666465788058275 0 -57.666465788058275 -29.785184848275321 0 0 0 0 -32.404194696326158 -76.043185946016138 0 -76.043185946016138 18.428181621622571 0 0 0 0 -106.66073154565311 -71.901521574128935 0 -71.901521574128935 -571.46409721947521 0 0 0 0 -11.916676853685686 11.912585746578351 0 11.912585746578351 3.2955992456943393 0 0 0 0 -113.81355452208663 -134.18244805756825 0 -134.18244805756825 -1104.4506526987766 0 0 0 0 -87.663029551942316 2.1111635358081209 0 2.1111635358081209 2.2670007044342531 0 0 0 0 -406.50831154052867 -266.8696301242494 0 -266.8696301242494 -317.36879236780624 0 0 0 0 -197.10067333173356 -34.980699419909797 0 -34.980699419909797 -792.73340157377766 0 0 0 0 331.80662211136951 -716.70789669519945 0 -716.70789669519945 -2393.8827859122703 0 0 0 0 -1031.9336298293929 -1760.1540127922451 0 -1760.1540127922451 -3135.2563826641799 0 0 0 0 -35.42467942612538 0.27509988997942436 0 0.27509988997942436 -2.7664880452147234 0 0 0 0 -1814.5372507722568 1711.7129147365195 0 1711.7129147365195 -919.7008475181658 0 0 0 0 -5489.3055728155668 -1253.5031748229935 0 -1253.5031748229935 323.20232905388065 0 0 0 0 -2744.3524527951595 -2705.8081584975521 0 -2705.8081584975521 -1960.7461294528314 0 0 0 0 -2998.861922888158 -748.67347683809362 0 -748.67347683809362 424.83078951755783 0 0 0 0 -2.3675132066983267 -0.47901984332621339 0 -0.47901984332621339 5.5365527298768313 0 0 0 0 -840.02471131746643 36.786585828259547 0 36.786585828259547 -718.55003325713096 0 0 0 0 -1135.4288433483671 -946.45005553986721 0 -946.45005553986721 -795.74058694138625 0 0 0 0 -2881.0352227167459 313.75434024995423 0 313.75434024995423 556.88154907687897 0 0 0 0 -283.01526063392157 69.70085005376103 0 69.70085005376103 -319.76215208496342 0 0 0 0 -838.67868913747952 -604.61079425710705 0 -604.61079425710705 186.58384962692259 0 0 0 0 -5532.950454977261 -318.0470857382943 0 -318.0470857382943 1319.0895702060736 0 0 0 0 -5502.0871889303889 -91.259112269404781 0 -91.259112269404781 -871.37214238575564 0 0 0 0 -2779.9566251007345 1364.5686279888575 0 1364.5686279888575 -81.938630296561882 0 0 0 0 -7539.2590085444535 -677.7904176188656 0 -677.7904176188656 -976.88230428337533 0 0 0 0 -21.946251691828763 9.6818033881918524 0 9.6818033881918524 -3.0529853248755785 0 0 0 0 -6505.5028807429662 -3167.973781797115 0 -3167.973781797115 -1447.8281328555909 0 0 0 0 -5501.2970755095157 -1849.951438762273 0 -1849.951438762273 -1276.2336488308474 0 0 0 0 -164.90122389310272 852.80989317707031 0 852.80989317707031 2.6107998376816681 0 0 0 0 -12.270204528472277 -228.70743423137912 0 -228.70743423137912 -22.664738867311371 0 0 0 0 -2563.1075868857151 -1069.24410041382 0 -1069.24410041382 -930.42597529737986 0 0 0 0 -4231.292294663217 -2973.3549337072709 0 -2973.3549337072709 -1958.9491463925924 0 0 0 0 -2282.2643399516819 -1672.8942123025454 0 -1672.8942123025454 -1258.7685127924642 0 0 0 0 -5610.5829616795163 -1688.6811183295304 0 -1688.6811183295304 -449.38516183791342 0 0 0 0 -49.139568824241138 -55.047200015269006 0 -55.047200015269006 -41.877212598114603 0 0 0 0 -409.69234742478875 -249.00589124903672 0 -249.00589124903672 221.77187730484184 0 0 0 0 -338.40920754292165 -162.3772334827172 0 -162.3772334827172 200.04236459625054 0 0 0 0 -11.050297857091984 -22.140478392177727 0 -22.140478392177727 52.541983079078541 0 0 0 0 -253.84952253882511 -54.234501869832911 0 -54.234501869832911 339.67813032453591 0 0 0 0 -419.60180842926638 -279.98489235627198 0 -279.98489235627198 142.47741801875418 0 0 0 0 -54.031046546787849 28.363462470707304 0 28.363462470707304 -5.3554748871374986 0 0 0 0 -347.41928097607342 -222.98779338142378 0 -222.98779338142378 -21.742912432608136 0 0 0 0 -477.75240314507391 -51.872552073143652 0 -51.872552073143652 -36.346245408463176 0 0 0 0 -154.51865909819026 -117.53656117341779 0 -117.53656117341779 15.933240817881597 0 0 0 0 -415.81253010554065 -221.10533759785267 0 -221.10533759785267 77.685512100047163 0 0 0 0 -16.38654334484454 -303.41301229787564 0 -303.41301229787564 -11.076767565946284 0 0 0 0 -517.03619579744554 -291.45959148318309 0 -291.45959148318309 -215.58889810671803 0 0 0 0 -288.41611086390549 -154.64942054376365 0 -154.64942054376365 102.74051728040831 0 0 0 0 -267.11639645014657 -141.13462678781116 0 -141.13462678781116 -125.16969800701918 0 0 0 0 -575.63588259424432 -131.28024128272909 0 -131.28024128272909 -19.061851221307734 0 0 0 0 3.3358311949257455 -7.3320245737689191 0 -7.3320245737689191 25.342626679061734 0 0 0 0 -573.02501326853235 -97.86020695876141 0 -97.86020695876141 -70.941302686530889 0 0 0 0 -906.0783430651245 -418.81484687293408 0 -418.81484687293408 -300.69674098811765 0 0 0 0 -461.7624976203806 -345.16390900263303 0 -345.16390900263303 -569.91507677371681 0 0 0 0 -464.35009138054738 -377.65128924068813 0 -377.65128924068813 -977.25077225312361 0 0 0 0 -152.28869428001417 -278.42262061002725 0 -278.42262061002725 -512.58969013586056 0 0 0 0 -241.036474408902 -144.24103817841223 0 -144.24103817841223 -456.33526372038153 0 0 0 0 -71.756782239404856 -115.08853787920452 0 -115.08853787920452 -275.49481846471645 0 0 0 0 21.850455351901473 -264.09033504875993 0 -264.09033504875993 -441.77237261674418 0 0 0 0 -53.214410287488136 -91.677731898151251 0 -91.677731898151251 -475.0490153230736 0 0 0 0 142.36213582652272 -244.59074167270501 0 -244.59074167270501 -405.0703836986786 0 0 0 0 -41.517708985303329 -38.454377442446471 0 -38.454377442446471 -32.162337538319015 0 0 0 0 -77.257294183087652 -151.54293000295092 0 -151.54293000295092 -87.367967468212555 0 0 0 0 177.65730844825066 -420.9759320655495 0 -420.9759320655495 2.8453372662443144 0 0 0 0 138.50146761578799 -73.907573073335698 0 -73.907573073335698 -41.107874046963843 0 0 0 0 8.4700880285672611 -247.76753276919771 0 -247.76753276919771 -254.41718174078323 0 0 0 0 -51.34402171582056 -50.233498249751634 0 -50.233498249751634 -46.189836007834167 0 0 0 0 1474.2314281477302 -471.19724094048161 0 -471.19724094048161 -35.819721129505524 0 0 0 0 -85.589503327468265 -374.90836718574997 0 -374.90836718574997 401.24198945653734 0 0 0 0 -1960.4877590466931 -2090.5078592156356 0 -2090.5078592156356 702.24277721371845 0 0 0 0 -1947.4033704990579 17.80414188026316 0 17.80414188026316 427.46272013418002 0 0 0 0 -283.02761872456176 1010.3222615251407 0 1010.3222615251407 232.8827467461233 0 0 0 0 -1.4355563709432317 150.7319759629853 0 150.7319759629853 223.36047859528662 0 0 0 0 -117.84554839899647 -243.95974135566667 0 -243.95974135566667 109.9553207315098 0 0 0 0 56.01805387600325 -144.39449051736301 0 -144.39449051736301 23.339328079232473 0 0 0 0 -495.21205498879135 -304.57695225332327 0 -304.57695225332327 -49.048866015935346 0 0 0 0 -275.44436325173592 -323.7122190107948 0 -323.7122190107948 -54.171400163494354 0 0 0 0 -360.9505346861406 -234.7232708924862 0 -234.7232708924862 -57.612092060112445 0 0 0 0 -657.98937782488065 -250.22884684027576 0 -250.22884684027576 47.711363019797091 0 0 0 0 -582.45633519187686 -91.458031607150588 0 -91.458031607150588 125.90883804766145 0 0 0 0 -74.069134977442445 -423.11440951217173 0 -423.11440951217173 -289.5271437036281 0 0 0 0 -810.49604932914372 -739.82622773980938 0 -739.82622773980938 -268.27076627751194 0 0 0 0 175.20872662926558 -46.620582932445359 0 -46.620582932445359 -121.20249004923971 0 0 0 0 -126.36055304741603 -286.90110831363199 0 -286.90110831363199 -294.56710870080315 0 0 0 0 -465.90354825017857 729.8537825979447 0 729.8537825979447 357.35050522369283 0 0 0 0 -9.3940638319545542 147.08985495565867 0 147.08985495565867 187.32772763921275 0 0 0 0 30.75556677536224 629.45539504057751 0 629.45539504057751 347.83325293840608 0 0 0 0 -18.413074702145082 -13.33242582144139 0 -13.33242582144139 -8.7431998563554991 0 0 0 0 97.091251602978446 -676.33083560166688 0 -676.33083560166688 177.22440424559682 0 0 0 0 -16.251092480447539 -13.072551863048218 0 -13.072551863048218 -12.002061677554259 0 0 0 0 535.75439145671407 359.09843460724994 0 359.09843460724994 -1663.0316009579324 0 0 0 0 7.3260795524693094 -58.198333239845965 0 -58.198333239845965 -412.67472553381867 0 0 0 0 -1604.5112975932243 1311.8142662565215 0 1311.8142662565215 567.05869627381196 0 0 0 0 1555.0910373994848 -974.31188475201589 0 -974.31188475201589 -2105.9678543912705 0 0 0 0 -63.175746378699841 -29.510972178424311 0 -29.510972178424311 -54.185219578398119 0 0 0 0 -64.301102553006785 -30.824166375232465 0 -30.824166375232465 -29.88497153852677 0 0 0 0 -94.146130433582584 -37.281437787154658 0 -37.281437787154658 -8.016177770641093 0 0 0 0 -91.51951212604763 -17.041849012707871 0 -17.041849012707871 -36.514544072689887 0 0 0 0 -68.290255806685309 1.717935522090329 0 1.717935522090329 -23.137685350332958 0 0 0 0 -52.42530505193281 -5.0906209077611493 0 -5.0906209077611493 -47.771976077889576 0 0 0 0 -79.775462417463132 -18.136234005653705 0 -18.136234005653705 -17.674384285256565 0 0 0 0 -73.461608273357569 -23.611320164695826 0 -23.611320164695826 -4.9532117309242807 0 0 0 0 -474.84007523743639 -270.6265981778073 0 -270.6265981778073 9.9002599107336664 0 0 0 0 -125.06605262724042 -50.710106966263083 0 -50.710106966263083 -33.85867274719044 0 0 0 0 -20.348962068029671 1.7609555960710424 0 1.7609555960710424 0.12771350256924308 0 0 0 0 -72.984169612025994 0.084854150302671627 0 0.084854150302671627 4.4181004664977275 0 0 0 0 -122.86624535056035 25.563756891735977 0 25.563756891735977 10.268173509199414 0 0 0 0 -96.662216592565528 -7.5433863443818154 0 -7.5433863443818154 44.757169445813929 0 0 0 0 -50.797827494585363 -17.291143171426029 0 -17.291143171426029 -31.416651302193713 0 0 0 0 -60.055923219105637 -8.7006939455640104 0 -8.7006939455640104 2.29260891667619 0 0 0 0 17.220483818462526 -135.21633538295521 0 -135.21633538295521 -593.81155255283988 0 0 0 0 -58.42611827966175 10.118398502759192 0 10.118398502759192 22.842898099526735 0 0 0 0 -65.610724328499458 -6.7273316438506221 0 -6.7273316438506221 0.26234036432675811 0 0 0 0 -17.016742015890486 4.3431116046495504 0 4.3431116046495504 129.89218477883065 0 0 0 0 120.62574273485916 86.31176269344617 0 86.31176269344617 -79.859228042681139 0 0 0 0 172.05682722785423 -14.361283103522851 0 -14.361283103522851 -233.19183743077383 0 0 0 0 -374.97104753438907 -32.013482084856548 0 -32.013482084856548 65.30187274827199 0 0 0 0 62.842680413574271 -123.22420126362201 0 -123.22420126362201 -223.46517670410913 0 0 0 0 -233.01958353705413 -235.1964102564059 0 -235.1964102564059 -116.70097999981567 0 0 0 0 -2.4083497664039442 1.9926248537892519 0 1.9926248537892519 -1.8593660808574479 0 0 0 0 -5.0819978512517991 -34.714607769849565 0 -34.714607769849565 -110.43984128430306 0 0 0 0 43.349146943815867 33.507456050443835 0 33.507456050443835 -62.397600656037866 0 0 0 0 -10.577127381707498 4.3703862198924455 0 4.3703862198924455 -5.2060726865467029 0 0 0 0 49.666990318302851 73.936097056752317 0 73.936097056752317 -50.57573481072734 0 0 0 0 -2.0110685667022494 -0.97665358091512999 0 -0.97665358091512999 -3.3552501869275151 0 0 0 0 -135.52909271523822 4.4051873797959615 0 4.4051873797959615 -24.640313324032832 0 0 0 0 14.871064581064275 -266.64866759997767 0 -266.64866759997767 -46.738641747946076 0 0 0 0 73.752615144006995 64.723331966928768 0 64.723331966928768 -47.154232381661885 0 0 0 0 -211.60479648845285 -0.82303306686344513 0 -0.82303306686344513 205.86821682444042 0 0 0 0 -12.768786198583257 4.8053172864598537 0 4.8053172864598537 -11.108490842033234 0 0 0 0 -129.93863001777936 -68.460044453863375 0 -68.460044453863375 15.695887235391183 0 0 0 0 -141.74121348524932 170.4357034558534 0 170.4357034558534 -160.56437594709314 0 0 0 0 -81.668690229907014 -0.81925137735537468 0 -0.81925137735537468 1.444233401670626 0 0 0 0 -76.738766847667648 75.553568147347619 0 75.553568147347619 97.812714472368953 0 0 0 0 -55.450048434821753 -8.2459821838686018 0 -8.2459821838686018 1.6691386523412022 0 0 0 0 -78.503127148791464 -13.232735885125294 0 -13.232735885125294 -1.3746311331583456 0 0 0 0 -66.446264912260403 -17.670254178925674 0 -17.670254178925674 -4.2450408111527898 0 0 0 0 -34.902943496273885 -11.734062264620974 0 -11.734062264620974 -3.9774696303083283 0 0 0 0 -96.723397829191526 -30.542162018142335 0 -30.542162018142335 -6.6946793328884269 0 0 0 0 -115.65030872400894 212.42032140115418 0 212.42032140115418 -17.27974068506478 0 0 0 0 101.11091361596482 38.793761240740025 0 38.793761240740025 -38.035638323708099 0 0 0 0 -5.019469157938147 -70.804229940351433 0 -70.804229940351433 8.8122336289061423 0 0 0 0 64.488395799693535 -57.279506356035199 0 -57.279506356035199 -8.5045247139091771 0 0 0 0 -65.602486632903151 -19.972988435791027 0 -19.972988435791027 -7.1954502266528602 0 0 0 0 6.1565066943218199 2.8895187505445961 0 2.8895187505445961 -2.6694179490059948 0 0 0 0 -37.224982477511702 11.237548450327992 0 11.237548450327992 -1.5562826916478372 0 0 0 0 -76.422316280068799 70.719410848874588 0 70.719410848874588 -9.3583878745703259 0 0 0 0 -74.167522842268227 -38.09047606006061 0 -38.09047606006061 -61.892640568300521 0 0 0 0 -64.674747565499274 -14.259713473678858 0 -14.259713473678858 -7.2337951401746068 0 0 0 0 -104.31146070261821 -9.233920147947245 0 -9.233920147947245 51.214081826687192 0 0 0 0 -44.238733663917259 -2.2180599501657952 0 -2.2180599501657952 4.9273118998386254 0 0 0 0 -4.9381534660334978 -1.0919037002911374 0 -1.0919037002911374 -0.1851705124749472 0 0 0 0 -24.44626465626061 -75.345121796610783 0 -75.345121796610783 -97.774015054046004 0 0 0 0 -407.71813871724589 -15.399354183407013 0 -15.399354183407013 121.49077612540475 0 0 0 0 310.06457238714211 191.81922107900766 0 191.81922107900766 -159.15351230674764 0 0 0 0 8.6100274890632136 -143.07367994818469 0 -143.07367994818469 97.842346426501535 0 0 0 0 -57.157125473443585 -22.80714425552549 0 -22.80714425552549 -7.2006256653395031 0 0 0 0 -767.63122790816124 -570.42360594823106 0 -570.42360594823106 10.440458550310041 0 0 0 0 -197.11389461770887 -62.582822885800397 0 -62.582822885800397 8.7070500898278169 0 0 0 0 -85.514582290477193 -22.676050214285095 0 -22.676050214285095 -1.7622565855597914 0 0 0 0 -128.71724973876553 -91.812807027858753 0 -91.812807027858753 18.428525245678088 0 0 0 0 -62.589599438913865 7.7853874531042493 0 7.7853874531042493 -38.926240695759475 0 0 0 0 -13.021264745219582 -12.12169032211537 0 -12.12169032211537 2.9400160532616688 0 0 0 0 170.62929030796295 596.76561483739465 0 596.76561483739465 -368.73810793889015 0 0 0 0 -185.3469396676519 43.323992877881537 0 43.323992877881537 -45.271551619747697 0 0 0 0 -1721.5907712603803 -532.76011234432735 0 -532.76011234432735 532.74515414141297 0 0 0 0 -1144.5081567029702 -47.878404710431823 0 -47.878404710431823 742.86164637407182 0 0 0 0 11.036947894772311 -102.67538456857824 0 -102.67538456857824 56.2317168229456 0 0 0 0 -136.99648566426185 308.8751319445073 0 308.8751319445073 446.05014538748219 0 0 0 0 -74.576823801107821 -198.05343626690683 0 -198.05343626690683 -155.83194804230516 0 0 0 0 -783.2463909118087 -830.36575145670486 0 -830.36575145670486 -639.14788306225 0 0 0 0 -74.45301680880948 -267.28694914917469 0 -267.28694914917469 -36.835232819849807 0 0 0 0 112.66744863333588 -16.932228670101722 0 -16.932228670101722 -295.90611739565838 0 0 0 0 267.90176805156807 154.29919533410566 0 154.29919533410566 -336.04944968452548 0 0 0 0 -81.166954933622037 -64.33379640102703 0 -64.33379640102703 -235.93692647961416 0 0 0 0 1.0577611345943296 51.296422308092588 0 51.296422308092588 -1025.9405797194358 0 0 0 0 -78.172766706353286 181.08825384357897 0 181.08825384357897 51.407547487613556 0 0 0 0 -991.93926446514524 -123.85266956024816 0 -123.85266956024816 201.48811309665143 0 0 0 0 -277.11053149590953 -385.70333787298841 0 -385.70333787298841 87.741896244191594 0 0 0 0 -5.1977951452819013 3.1900197640813417 0 3.1900197640813417 -1.1638742438964709 0 0 0 0 -16.849842813472421 2.6159574815673068 0 2.6159574815673068 1.091702780358065 0 0 0 0 -103.97110069283008 28.508320242597719 0 28.508320242597719 53.403506928866705 0 0 0 0 -87.682863085108693 35.17357663490327 0 35.17357663490327 -79.618007310480436 0 0 0 0 -53.489745518355505 13.17963548672077 0 13.17963548672077 5.4663049402725665 0 0 0 0 -36.464083756203763 11.631446515198604 0 11.631446515198604 -37.117968574509518 0 0 0 0 -82.322821586138161 4.8238117097625945 0 4.8238117097625945 3.3488851378469917 0 0 0 0 -95.162919828377198 -7.6395447463401069 0 -7.6395447463401069 1.5971053195476088 0 0 0 0 -80.012411693009199 1.2030351745609096 0 1.2030351745609096 -3.2219072779143971 0 0 0 0 -46.901250724563454 -0.93303056115428262 0 -0.93303056115428262 -1.8610964543118635 0 0 0 0 -38.407096780370921 4.0126151514768935 0 4.0126151514768935 2.3158199205327037 0 0 0 0 -108.33293105626944 -28.943756874687551 0 -28.943756874687551 -21.419168778654239 0 0 0 0 -108.46901936037466 -32.840185532966132 0 -32.840185532966132 -16.73310959554874 0 0 0 0 152.65906445262226 278.93825280131819 0 278.93825280131819 -38.825991274920852 0 0 0 0 -15.683637940758757 1.1227509694282389 0 1.1227509694282389 -5.0070410424506537 0 0 0 0 55.340417536423047 -30.734255482993149 0 -30.734255482993149 41.240931466153597 0 0 0 0 -30.408662210660736 11.1985298017036 0 11.1985298017036 2.4550132850905229 0 0 0 0 -108.77194492993294 -34.380845254456631 0 -34.380845254456631 -24.43827019158266 0 0 0 0 -133.13956565310946 -6.2358239093323391 0 -6.2358239093323391 -23.862290940813182 0 0 0 0 -176.96961816819385 -63.164861580416073 0 -63.164861580416073 -36.558271222892472 0 0 0 0 -119.77390539376211 -26.553263177642464 0 -26.553263177642464 -17.54463420199454 0 0 0 0 -93.762880396156106 -11.020518102276128 0 -11.020518102276128 -30.852414185868383 0 0 0 0 -97.774301958706928 -30.259778806223068 0 -30.259778806223068 -17.099223793337828 0 0 0 0 -108.82264242817473 -27.27285466955766 0 -27.27285466955766 -7.3673136495167455 0 0 0 0 -71.157145433348092 -7.018203467685165 0 -7.018203467685165 -5.0141830114142358 0 0 0 0 -55.430869933147477 -29.820250076226074 0 -29.820250076226074 -18.438323717824691 0 0 0 0 -102.67999992397381 -32.103809650097901 0 -32.103809650097901 -3.7943982224830961 0 0 0 0 -486.48198512773411 -1224.8270739327766 0 -1224.8270739327766 18.463223807979432 0 0 0 0 -3.6390203154878691 57.426530805358198 0 57.426530805358198 -62.926632259826874 0 0 0 0 -55.241491662905901 -18.311761088614276 0 -18.311761088614276 -2.864491277491652 0 0 0 0 -7.4451445411536383 5.7219594017462185 0 5.7219594017462185 3.4843836031427529 0 0 0 0 -163.50797810441509 136.49227315958092 0 136.49227315958092 92.63942620654052 0 0 0 0 -70.917762947978531 -17.504253182129975 0 -17.504253182129975 -2.7299786127061996 0 0 0 0 -60.202127476674207 -20.216954502375359 0 -20.216954502375359 -10.743613819646932 0 0 0 0 -89.4466006855655 -66.018920140573755 0 -66.018920140573755 81.886413069086672 0 0 0 0 -162.53022237293771 -62.387412050396961 0 -62.387412050396961 81.850394722747296 0 0 0 0 -247.61149605763785 -21.027613628468316 0 -21.027613628468316 76.158616529846768 0 0 0 0 -150.17284012102755 -168.39883724139236 0 -168.39883724139236 272.00850917260868 0 0 0 0 -65.652741393456381 -151.11660104875773 0 -151.11660104875773 -52.138912342546973 0 0 0 0 -144.45982800540514 53.6833126408319 0 53.6833126408319 71.481088826591986 0 0 0 0 -241.3194191411676 4.9071828817584446 0 4.9071828817584446 156.09777701567873 0 0 0 0 -146.1361217823287 -31.896373489183134 0 -31.896373489183134 -15.21410876120899 0 0 0 0 -121.99938495779338 -11.44421318016051 0 -11.44421318016051 -26.073630690958453 0 0 0 0 -157.96254839206813 -59.631199401764206 0 -59.631199401764206 -90.100153422727089 0 0 0 0 -221.26604596187826 14.665475464717929 0 14.665475464717929 6.1790516710548218 0 0 0 0 -199.0413347708818 -5.3265231719587973 0 -5.3265231719587973 13.03498774849686 0 0 0 0 -223.76939988249796 9.865767543155016 0 9.865767543155016 80.724241175179486 0 0 0 0 -150.78845839865971 22.74496738659127 0 22.74496738659127 -0.2576104747968202 0 0 0 0 -274.58741199404903 49.95770982397562 0 49.95770982397562 -4.1966346888984845 0 0 0 0 -233.22745106511866 -26.955234827860522 0 -26.955234827860522 -61.90343696086893 0 0 0 0 -312.10496730127488 -22.928231797397984 0 -22.928231797397984 -78.911063277264475 0 0 0 0 -380.12227183549112 -93.160200212572192 0 -93.160200212572192 -55.106116933226076 0 0 0 0 -270.41780978083261 -102.72671544728382 0 -102.72671544728382 -101.54889824367638 0 0 0 0 -228.07569128417526 -6.4283015991195498 0 -6.4283015991195498 -80.223291997958768 0 0 0 0 11.033120456326287 -205.54660831945216 0 -205.54660831945216 218.46601341113001 0 0 0 0 -47.63449859834509 -78.449740210860227 0 -78.449740210860227 -57.061932504693686 0 0 0 0 4.2473527169438512 -9.2562965830826585 0 -9.2562965830826585 -5.1229538109303352 0 0 0 0 -171.30544300301699 109.50815990307183 0 109.50815990307183 -102.28461409837928 0 0 0 0 -25.798961276988138 -33.6544323253095 0 -33.6544323253095 -8.0397805082157632 0 0 0 0 -84.295875863506808 37.243112075979752 0 37.243112075979752 -47.235586656483065 0 0 0 0 -160.24737462322082 42.726300507966243 0 42.726300507966243 0.070968376843666192 0 0 0 0 -9.0450211808268079 2.8827493321260533 0 2.8827493321260533 -3.4020199943801011 0 0 0 0 -85.15636037827062 19.809781739018035 0 19.809781739018035 6.701986483309156 0 0 0 0 -79.308944001164491 0.45042356204578482 0 0.45042356204578482 24.954070921895436 0 0 0 0 -69.798569019451065 -9.9342130570296945 0 -9.9342130570296945 2.571987730192153 0 0 0 0 -16.175568741414608 4.1915445708041545 0 4.1915445708041545 5.2252592148538568 0 0 0 0 -99.451143481244799 10.794721147269229 0 10.794721147269229 1.6351325601845019 0 0 0 0 -83.87107045162702 4.6244097514950226 0 4.6244097514950226 -12.885680876401238 0 0 0 0 -123.06478071402671 38.188523318091029 0 38.188523318091029 45.171108191334497 0 0 0 0 -93.643559117102996 18.121920430368846 0 18.121920430368846 5.2132388301952233 0 0 0 0 -113.32138962897443 17.074304741517153 0 17.074304741517153 28.554570508946199 0 0 0 0 -62.735085192107363 45.924666683271425 0 45.924666683271425 39.562511520452972 0 0 0 0 -56.809273386490531 -18.651450986395503 0 -18.651450986395503 50.255847582320712 0 0 0 0 -124.36560896228184 19.106501760848914 0 19.106501760848914 29.17106855131351 0 0 0 0 34.00257239502389 52.601052227968466 0 52.601052227968466 103.34786783625168 0 0 0 0 -8.3410677127865256 -0.98241142188732056 0 -0.98241142188732056 0.79311670730007933 0 0 0 0 -106.1262744544656 -29.204116210808934 0 -29.204116210808934 13.813599763510865 0 0 0 0 -17.393350372469286 4.6837048764864448 0 4.6837048764864448 15.652455010764243 0 0 0 0 -56.589182859843504 1.5493308397037957 0 1.5493308397037957 -1.2237676591618043 0 0 0 0 -53.076623095280354 0.25968247579592685 0 0.25968247579592685 9.9515180436569537 0 0 0 0 -69.241420161941733 -14.168421833036376 0 -14.168421833036376 3.0062333974283568 0 0 0 0 -98.010919412292424 20.905440024552263 0 20.905440024552263 11.775348368657433 0 0 0 0 -59.651532018251714 -7.3176124195195875 0 -7.3176124195195875 -0.58057672630976676 0 0 0 0 -99.971903950441629 0.67642137299844762 0 0.67642137299844762 101.32050889946186 0 0 0 0 -85.582022815171513 1.7282910569545038 0 1.7282910569545038 9.5135189361772063 0 0 0 0 -90.918501894164365 -7.6742574053159842 0 -7.6742574053159842 -1.4942397898812487 0 0 0 0 -57.583093531612519 0.15612299977941291 0 0.15612299977941291 6.3872106695505408 0 0 0 0 -52.943500462974299 -10.531387318286463 0 -10.531387318286463 -3.0062085560631253 0 0 0 0 -97.316651913759415 -6.5236612294802399 0 -6.5236612294802399 1.2100571223672887 0 0 0 0 -92.118559935479425 -4.0775982302457123 0 -4.0775982302457123 -4.6002463587997227 0 0 0 0 -72.70426477570436 2.2490559804084569 0 2.2490559804084569 18.063000163987454 0 0 0 0 -73.832693769574803 6.5764700818746959 0 6.5764700818746959 9.1588214618239725 0 0 0 0 -78.367043769092376 5.5252548720431776 0 5.5252548720431776 14.612619130352513 0 0 0 0 -58.076088562898804 -5.6536786102678889 0 -5.6536786102678889 24.00836933133769 0 0 0 0 -77.232696023449535 -3.5631533714131365 0 -3.5631533714131365 11.603030124453653 0 0 0 0 -49.581961001211312 1.1260327214622521 0 1.1260327214622521 3.6923994305234373 0 0 0 0 -67.312519270030123 10.232836127190339 0 10.232836127190339 13.51984627426309 0 0 0 0 -73.965141040413954 3.2167237809909182 0 3.2167237809909182 17.773333708799942 0 0 0 0 -39.67335676390212 6.5723093553808667 0 6.5723093553808667 21.101407904172447 0 0 0 0 -38.48891650426927 5.7776403448765024 0 5.7776403448765024 0.038059440640382469 0 0 0 0 -49.244717649184167 65.972433688191359 0 65.972433688191359 0.98917940283104144 0 0 0 0 -68.84921222654043 0.89917171115735073 0 0.89917171115735073 4.7234451936657882 0 0 0 0 -243.77026680912968 58.736513476730124 0 58.736513476730124 137.98025693658337 0 0 0 0 -55.11761286118417 24.768835966215647 0 24.768835966215647 -24.724176200046941 0 0 0 0 -88.508140903006279 -25.969276631805656 0 -25.969276631805656 29.173253208867209 0 0 0 0 -96.299233654346551 4.8080863836998642 0 4.8080863836998642 7.1170632848577284 0 0 0 0 -773.42030196916312 -58.159153212211095 0 -58.159153212211095 140.90004850895639 0 0 0 0 -53.815270088887473 -4.5198013099545307 0 -4.5198013099545307 8.4914375140549119 0 0 0 0 -115.07198114684434 95.584120858841743 0 95.584120858841743 15.384827320486693 0 0 0 0 -74.101812743509072 12.23544540352168 0 12.23544540352168 -7.1053149274803218 0 0 0 0 -184.52227203926304 -197.24720681246345 0 -197.24720681246345 519.74794436698448 0 0 0 0 -70.869956659043282 -0.65439362413374624 0 -0.65439362413374624 3.8034172168740898 0 0 0 0 -267.0632098025817 -304.69725945053369 0 -304.69725945053369 328.0822185031202 0 0 0 0 -210.34198168665171 -215.08040122314742 0 -215.08040122314742 526.75679208787506 0 0 0 0 -168.43947854748694 -167.86116827425599 0 -167.86116827425599 440.3139534396596 0 0 0 0 29.481755324268306 -190.85989839737931 0 -190.85989839737931 192.34890432283282 0 0 0 0 -284.12460835845559 52.320853902588169 0 52.320853902588169 601.97794217513592 0 0 0 0 -121.58966068488371 -39.470119937053823 0 -39.470119937053823 645.26177659289169 0 0 0 0 -177.28005567443324 -66.700265546086484 0 -66.700265546086484 595.24076373495927 0 0 0 0 -495.27137720375322 -219.86975369454763 0 -219.86975369454763 604.07804869385836 0 0 0 0 -190.1073327591439 -22.882690652847486 0 -22.882690652847486 670.01844080166484 0 0 0 0 4.4338424721499905 52.855429297368573 0 52.855429297368573 809.02510960464497 0 0 0 0 -241.15565940298256 -218.19993105953927 0 -218.19993105953927 566.89740322856596 0 0 0 0 -29.571595713343925 -11.322499437631592 0 -11.322499437631592 17.162732297628899 0 0 0 0 -100.25996892750322 -13.33311366967424 0 -13.33311366967424 5.8336366335952734 0 0 0 0 -142.46570825675735 39.425978479582682 0 39.425978479582682 595.79510721207635 0 0 0 0 -128.06440513947746 -185.82552680163781 0 -185.82552680163781 219.55213895191355 0 0 0 0 -40.783709133114996 1.277253636822806 0 1.277253636822806 5.1888401997304232 0 0 0 0 -149.86353858314669 195.23958604386891 0 195.23958604386891 863.06052022558379 0 0 0 0 -159.77359567076201 -82.258695293582605 0 -82.258695293582605 27.704901795278602 0 0 0 0 -308.10088505895692 12.323916556678341 0 12.323916556678341 845.85382704466156 0 0 0 0 -106.93301475930417 -8.5913413757169206 0 -8.5913413757169206 4.6042833265838841 0 0 0 0 -150.77141199128528 82.573412657467088 0 82.573412657467088 158.57204435385847 0 0 0 0 -69.36544747323768 14.167521998574308 0 14.167521998574308 5.6997127806238037 0 0 0 0 -140.03502957351884 -48.874593182319813 0 -48.874593182319813 60.527496096269488 0 0 0 0 -204.86347336546169 -206.53066978730021 0 -206.53066978730021 25.771671127497939 0 0 0 0 1018.039170683769 -234.64343831299266 0 -234.64343831299266 -367.18136264304485 0 0 0 0 -24.521036958909747 -12.270421894378941 0 -12.270421894378941 6.418284784181246 0 0 0 0 -137.87773342059882 -97.522244123411525 0 -97.522244123411525 0.84120058137068554 0 0 0 0 -103.86042299748806 -3.0263702327314377 0 -3.0263702327314377 3.7324148941174826 0 0 0 0 -82.681011114022112 -60.772768433430883 0 -60.772768433430883 -97.369408347246463 0 0 0 0 -73.062089398732496 -27.039715868272935 0 -27.039715868272935 -6.8642704576086544 0 0 0 0 -45.971128396977292 24.452293977232159 0 24.452293977232159 -119.62685825252629 0 0 0 0 -19.545465174960555 -9.3192746466083918 0 -9.3192746466083918 -77.727327997529983 0 0 0 0 -92.04448660928756 161.74146270990059 0 161.74146270990059 106.45754874351331 0 0 0 0 -35.257001430232776 -20.482122689571497 0 -20.482122689571497 138.38019603973964 0 0 0 0 33.771494127271581 331.47354624345121 0 331.47354624345121 -349.01268403931772 0 0 0 0 -77.564686248602811 104.66492074795269 0 104.66492074795269 282.18556373891761 0 0 0 0 -9.961588196485053 9.160944849914145 0 9.160944849914145 1.3987760224480734 0 0 0 0 -64.649111229533446 -69.315498835931976 0 -69.315498835931976 337.43860508005707 0 0 0 0 -87.717406851792475 87.438144244054456 0 87.438144244054456 308.3832037728709 0 0 0 0 -447.41484873603622 -107.86421417684187 0 -107.86421417684187 -23.662016883510546 0 0 0 0 -107.05541178585918 -193.0790820474416 0 -193.0790820474416 -359.81727274037985 0 0 0 0 -318.9882485985836 179.25089481801689 0 179.25089481801689 -113.98986646306139 0 0 0 0 -50.985102384336642 -175.14675829037833 0 -175.14675829037833 -335.48232384603625 0 0 0 0 -3.0111910029043543 -4.4151672580356021 0 -4.4151672580356021 -3.4708026828043392 0 0 0 0 -74.073110694153002 6.0586469977250204 0 6.0586469977250204 41.710635896894246 0 0 0 0 -84.81356669397428 -5.1596576311683293 0 -5.1596576311683293 73.563433413852636 0 0 0 0 -19.748842202202866 -1.7583507531545592 0 -1.7583507531545592 -0.71717479388068639 0 0 0 0 -22.076415983217885 3.373087925515847 0 3.373087925515847 41.014299259111226 0 0 0 0 -582.21914080614079 -168.98128562959982 0 -168.98128562959982 73.738407758619815 0 0 0 0 -54.227726904864539 -290.44013674499229 0 -290.44013674499229 -53.254513361222962 0 0 0 0 -48.364798979484476 -35.236709388654162 0 -35.236709388654162 114.70523418827679 0 0 0 0 -193.87445404040045 -407.74741935737529 0 -407.74741935737529 -170.2576317617013 0 0 0 0 -301.58904918412736 13.072376975593215 0 13.072376975593215 402.51763546378425 0 0 0 0 -584.04130765845912 -257.31057431489012 0 -257.31057431489012 285.55382035207003 0 0 0 0 45.620869478560053 -154.59599090530719 0 -154.59599090530719 -30.168044327604093 0 0 0 0 -127.90141066464275 18.829658150828436 0 18.829658150828436 -48.64433946368581 0 0 0 0 -111.71410932517938 63.1995027087886 0 63.1995027087886 26.869049980268755 0 0 0 0 -99.892268088005949 25.6022865873706 0 25.6022865873706 -143.94414439402999 0 0 0 0 -17.408889270060939 -0.90349333593328041 0 -0.90349333593328041 -0.26123538831251603 0 0 0 0 -106.00205433813971 15.066264960247565 0 15.066264960247565 21.801063603278408 0 0 0 0 -62.581281128892442 47.327497109653905 0 47.327497109653905 -38.196028386873934 0 0 0 0 -92.88392245216528 113.27987716703956 0 113.27987716703956 96.681506622921461 0 0 0 0 -32.8681492441101 74.388585907588094 0 74.388585907588094 -80.447880302650844 0 0 0 0 -78.982540882818284 119.55948435089022 0 119.55948435089022 -63.712759979792963 0 0 0 0 -27.708882566672401 77.992537824028432 0 77.992537824028432 -176.08375089119932 0 0 0 0 -80.571275927431998 273.92587150579311 0 273.92587150579311 -102.88489585449361 0 0 0 0 -68.881163874742924 281.2305948164248 0 281.2305948164248 -324.6170883268137 0 0 0 0 -380.70305306458613 327.22684788133461 0 327.22684788133461 379.81200167597672 0 0 0 0 -84.755416261737992 21.003888680905675 0 21.003888680905675 105.83365988424839 0 0 0 0 -89.630746738985181 55.762234150276527 0 55.762234150276527 0.17655666545033455 0 0 0 0 -25.005334294486005 -3.4500376927404091 0 -3.4500376927404091 -3.8172350310394361 0 0 0 0 -48.993304411551094 1.800426942287956 0 1.800426942287956 -0.2350742122326146 0 0 0 0 -144.80353456952071 -172.44460886873969 0 -172.44460886873969 424.36381875841107 0 0 0 0 -50.74077149075444 -2.0309264236753286 0 -2.0309264236753286 0.24373685221812469 0 0 0 0 -92.731366719250218 77.643799464701715 0 77.643799464701715 37.83813278429875 0 0 0 0 -12.738914512807241 32.091349398814486 0 32.091349398814486 55.415000649149988 0 0 0 0 -70.431166388152633 -120.64326868480794 0 -120.64326868480794 72.983523638559973 0 0 0 0 2.590534949047651 -47.123517643178616 0 -47.123517643178616 -207.69954940346088 0 0 0 0 0.017400488204316389 0.043504060887308071 0 0.043504060887308071 -2.6295482018817515 0 0 0 0 6.125602913023414 -21.337093877599031 0 -21.337093877599031 0.85509584668674954 0 0 0 0 -0.71199440086093091 -57.279708756198545 0 -57.279708756198545 -2.6461557851603175 0 0 0 0 -83.658597815854591 -206.05979331533263 0 -206.05979331533263 -60.585157610603574 0 0 0 0 -177.8496311740455 -84.273243369360216 0 -84.273243369360216 -123.87847541437486 0 0 0 0 -183.03433733264683 -154.664106343605 0 -154.664106343605 -93.113625103670415 0 0 0 0 -278.46753456357692 -103.73604870736915 0 -103.73604870736915 -120.092991069856 0 0 0 0 -13.00038554186176 -28.930223609717814 0 -28.930223609717814 -353.0644088909221 0 0 0 0 -6.4281836161062245 2.9115978400771212 0 2.9115978400771212 -3.8679655795107442 0 0 0 0 -342.54938944935566 -117.77954148201547 0 -117.77954148201547 -97.422985072400309 0 0 0 0 -5.7908642158581642 141.01678663733833 0 141.01678663733833 -420.74507290794281 0 0 0 0 -41.584649351272674 -40.354685332281008 0 -40.354685332281008 -173.44102541921802 0 0 0 0 -11.268661380985577 92.311736738948071 0 92.311736738948071 -176.13271485487189 0 0 0 0 -47.432075731871009 -18.960234584715508 0 -18.960234584715508 -28.074795591543079 0 0 0 0 -62.834244741519797 54.349582594600747 0 54.349582594600747 -81.067888817708081 0 0 0 0 -45.261880551530425 -9.5302357814545928 0 -9.5302357814545928 0.45114374149563274 0 0 0 0 -85.620265637378907 -29.96083923337585 0 -29.96083923337585 0.92699249917728821 0 0 0 0 -406.43124875368449 203.28483139834634 0 203.28483139834634 326.45884471122361 0 0 0 0 -63.664418199816282 -14.333161697191997 0 -14.333161697191997 0.15416926252157737 0 0 0 0 -67.31755505643352 -16.196678776244163 0 -16.196678776244163 -2.0475670411806131 0 0 0 0 -133.6948191497213 -24.117274230233306 0 -24.117274230233306 49.546470931036083 0 0 0 0 -83.781733545635035 -15.239624983177265 0 -15.239624983177265 -1.8061081536695038 0 0 0 0 -107.99011398165021 -5.0103181198539914 0 -5.0103181198539914 39.171788181487955 0 0 0 0 -171.83707832799701 -30.122024112699819 0 -30.122024112699819 30.394046259936886 0 0 0 0 190.40170098454837 45.754957932218758 0 45.754957932218758 -408.61802071320608 0 0 0 0 -168.03050985494565 21.080019476129593 0 21.080019476129593 30.572841923418309 0 0 0 0 -4.6698835482184933 -1.3433292652589159 0 -1.3433292652589159 -0.86241099810870114 0 0 0 0 12.599773278096109 -78.901903852929536 0 -78.901903852929536 42.011363620152679 0 0 0 0 -33.384126368750003 37.537244037986966 0 37.537244037986966 -26.609789687856392 0 0 0 0 -71.108379495775324 -38.963014404765609 0 -38.963014404765609 8.1438292193338278 0 0 0 0 -51.785146163087433 -50.396561008154571 0 -50.396561008154571 4.2496535550675656 0 0 0 0 27.212996988440864 -9.3505140483030118 0 -9.3505140483030118 0.42816159780659291 0 0 0 0 -13.52317854957073 -38.339848357140738 0 -38.339848357140738 17.236077465990974 0 0 0 0 -24.04530080048356 -27.277774414231239 0 -27.277774414231239 -4.6750272517684968 0 0 0 0 -88.741918480130153 -34.506536729911531 0 -34.506536729911531 91.643688692182877 0 0 0 0 -91.513275129433168 -70.2908582710823 0 -70.2908582710823 57.081446800857066 0 0 0 0 -62.765945599615939 -54.905545926760773 0 -54.905545926760773 -11.934223892870914 0 0 0 0 -87.431088811394147 -52.042031432881458 0 -52.042031432881458 -44.008515591596847 0 0 0 0 -119.07850633683483 -137.1737617861175 0 -137.1737617861175 32.091368082804792 0 0 0 0 -108.17696695699124 -78.726321407456737 0 -78.726321407456737 96.897223915570592 0 0 0 0 -11.312394344185066 -14.185193465137676 0 -14.185193465137676 2.5106901516628253 0 0 0 0 -70.86925295367223 -59.640367288036202 0 -59.640367288036202 101.87586603959926 0 0 0 0 -200.04295708587233 -113.43656003602288 0 -113.43656003602288 121.89598305313045 0 0 0 0 -102.52497372939979 -92.702807817173294 0 -92.702807817173294 38.028483658626101 0 0 0 0 -34.143854782269045 -117.78257730232639 0 -117.78257730232639 46.630778124460392 0 0 0 0 -151.68431123220489 -199.42456840924936 0 -199.42456840924936 -10.073392535166363 0 0 0 0 -90.078881878755055 -107.63850075002119 0 -107.63850075002119 51.598680755612577 0 0 0 0 -8.1570405820239102 -139.02879240954289 0 -139.02879240954289 -18.792950274128259 0 0 0 0 -43.472931109902063 -58.205353273599343 0 -58.205353273599343 -6.0627087596991345 0 0 0 0 7.4270429655149428 -16.330240805898484 0 -16.330240805898484 -5.7372116489376825 0 0 0 0 37.388068705258775 -138.26930763335122 0 -138.26930763335122 -111.26291126872593 0 0 0 0 -102.0162684590905 -48.464829643210123 0 -48.464829643210123 18.875536308234246 0 0 0 0 -154.34502930143572 -146.94111069913026 0 -146.94111069913026 -37.147393989541342 0 0 0 0 -285.43783783081744 -138.51949688235277 0 -138.51949688235277 -27.601313405908513 0 0 0 0 -433.80013554004836 -138.1045393637753 0 -138.1045393637753 69.042489470232113 0 0 0 0 -664.82232894594745 -102.88213948799189 0 -102.88213948799189 -36.785493625324989 0 0 0 0 -108.45830740948441 -8.2651808104053544 0 -8.2651808104053544 105.87949736502765 0 0 0 0 -729.6997535239143 -389.99998935839494 0 -389.99998935839494 86.17684350346849 0 0 0 0 -17.674710994013324 -8.3380530501980417 0 -8.3380530501980417 -2.2171995936717952 0 0 0 0 -4.8622145051418784 -27.76905773712145 0 -27.76905773712145 -32.568326374180451 0 0 0 0 -769.88762684426183 -179.27926829556719 0 -179.27926829556719 -50.240177062524026 0 0 0 0 -786.4477040471902 -138.51349878850237 0 -138.51349878850237 -150.48318113756909 0 0 0 0 23.076246533203403 -46.123901982810033 0 -46.123901982810033 27.451699198302286 0 0 0 0 -5.1927541333589033 -102.2333968731848 0 -102.2333968731848 50.551746704676589 0 0 0 0 12.055653000286839 -76.725989116938564 0 -76.725989116938564 4.4896830856675933 0 0 0 0 -116.56825762337394 -19.00402493149636 0 -19.00402493149636 31.631143408149001 0 0 0 0 19.936709141824394 -61.982272489473416 0 -61.982272489473416 -128.39272391776831 0 0 0 0 211.05222282726027 -200.99577602064761 0 -200.99577602064761 -393.46661657897334 0 0 0 0 -3338.7286658180565 12.788595623727531 0 12.788595623727531 188.48249652375659 0 0 0 0 -4.7803128218615427 -6.8324451655307286 0 -6.8324451655307286 -14.472180550790483 0 0 0 0 -946.33945129739732 -827.35166167714272 0 -827.35166167714272 -470.56765954763978 0 0 0 0 -1865.4005939486051 -664.11095466774054 0 -664.11095466774054 439.78154427873096 0 0 0 0 -45.721908060950227 -237.92823881347931 0 -237.92823881347931 -53.434184888268078 0 0 0 0 -79.206151325524843 -161.87470314880738 0 -161.87470314880738 -52.970395840008223 0 0 0 0 -483.57081383107288 -205.3868080953221 0 -205.3868080953221 -30.247239965634499 0 0 0 0 -542.85120384855327 -109.91438010106769 0 -109.91438010106769 -45.826795741095339 0 0 0 0 -630.32820931973401 -215.64598606521787 0 -215.64598606521787 -146.22493745188874 0 0 0 0 -1426.3033372652499 -455.35649834543301 0 -455.35649834543301 433.03842026366988 0 0 0 0 -90.784281319842108 -29.56853013637901 0 -29.56853013637901 -5.1436289070411929 0 0 0 0 -24.225396259811532 -7.2506400287084602 0 -7.2506400287084602 47.735126746878741 0 0 0 0 1.488579894064614 0.41741973286402967 0 0.41741973286402967 -0.28295950933778702 0 0 0 0 59.979840974745457 29.705933657575315 0 29.705933657575315 12.498246113266077 0 0 0 0 14.762050171470037 31.417374357538392 0 31.417374357538392 17.383581562063682 0 0 0 0 69.319196416603518 49.665050526088862 0 49.665050526088862 2.4227649284607651 0 0 0 0 53.171916147432057 52.491921593707957 0 52.491921593707957 10.891027316492909 0 0 0 0 -12.081483422637911 9.5004705861125132 0 9.5004705861125132 8.5015142429775139 0 0 0 0 9.505940755836491 21.628182120495921 0 21.628182120495921 22.309702901711717 0 0 0 0 19.165399449248071 46.776184391065044 0 46.776184391065044 87.004295000989259 0 0 0 0 11.156170467926131 13.740785259964014 0 13.740785259964014 7.0090166377176502 0 0 0 0 69.061840379119531 18.25785100623024 0 18.25785100623024 -55.873919417985292 0 0 0 0 -247.76822339919454 -35.141632530605676 0 -35.141632530605676 25.387362288775876 0 0 0 0 -270.61483820990884 -170.73447225938662 0 -170.73447225938662 -89.175597198641 0 0 0 0 7.143071526537824 69.930586954059208 0 69.930586954059208 -13.248215874252537 0 0 0 0 -14.428296230440537 -37.45096621404636 0 -37.45096621404636 -87.16622938396722 0 0 0 0 -45.876574304311362 -182.59082027405466 0 -182.59082027405466 108.9291582717421 0 0 0 0 -142.49207026132717 -113.15241091868279 0 -113.15241091868279 -88.281350347058947 0 0 0 0 19.385597473257803 -46.713024952638079 0 -46.713024952638079 38.362330699999802 0 0 0 0 -71.777575963145637 -22.188958785561468 0 -22.188958785561468 -3.4991571170909008 0 0 0 0 32.51807560789166 -2.8739012955948056 0 -2.8739012955948056 -9.1259726573438797 0 0 0 0 3.5958395756401913 -9.1038912746719607 0 -9.1038912746719607 -0.82636768586481979 0 0 0 0 -21.447518267335568 2.1352866587773747 0 2.1352866587773747 7.9490245066456362 0 0 0 0 65.928515522487942 30.427905495812013 0 30.427905495812013 0.40805239553174033 0 0 0 0 -10.657697348106012 -7.7852632299567404 0 -7.7852632299567404 -0.81153675947143711 0 0 0 0 -4.7164286963150275 0.0043783751302015617 0 0.0043783751302015617 -0.2712034294486374 0 0 0 0 -0.28535815262875985 101.58506099936903 0 101.58506099936903 50.585747551458653 0 0 0 0 61.12214425035927 29.842107994949174 0 29.842107994949174 0.40173818364974068 0 0 0 0 62.116130170059478 32.029149078456044 0 32.029149078456044 1.6883677694368089 0 0 0 0 59.370892325241584 37.264849921284167 0 37.264849921284167 -7.591796039779183 0 0 0 0 -40.756601951714401 -49.960821555772128 0 -49.960821555772128 -156.06309402624709 0 0 0 0 0.26290794570091691 0.018390142550771316 0 0.018390142550771316 -3.5195101625237992 0 0 0 0 -76.248222983569576 -233.15272415092659 0 -233.15272415092659 -159.46486474811553 0 0 0 0 23.86860001400531 -27.023559183828286 0 -27.023559183828286 17.115172412979511 0 0 0 0 19.309093149094224 -44.230117424622748 0 -44.230117424622748 -12.288992083042785 0 0 0 0 114.70736358917929 -22.741989881655421 0 -22.741989881655421 -12.824836026106782 0 0 0 0 9.4278781150860596 -117.89034651546604 0 -117.89034651546604 -94.072205329274198 0 0 0 0 -287.01547780029614 -286.25917975329742 0 -286.25917975329742 -81.381611359552352 0 0 0 0 -0.373827613760362 0.76577146675595387 0 0.76577146675595387 -1.0277825803539509 0 0 0 0 -47.920165785439167 -174.00338947063631 0 -174.00338947063631 -117.83830077309861 0 0 0 0 -100.51118983287961 -150.71434926047141 0 -150.71434926047141 -75.482357446205242 0 0 0 0 27.704426817694184 -236.87101776171286 0 -236.87101776171286 -48.957481208057168 0 0 0 0 -161.03525738753387 -184.27361715193649 0 -184.27361715193649 -120.66593193718074 0 0 0 0 -886.66182067034606 -505.43817393064978 0 -505.43817393064978 -234.52210184428074 0 0 0 0 -186.93234828463437 -269.03539594048408 0 -269.03539594048408 -181.9304939039734 0 0 0 0 -6.7228412979093264 -120.96165927699039 0 -120.96165927699039 -367.89481849279031 0 0 0 0 10.621718896465609 -89.221913574918062 0 -89.221913574918062 64.377924528434505 0 0 0 0 72.136279142847343 92.54743436708236 0 92.54743436708236 -191.27235534554865 0 0 0 0 5.3612017601044499 -227.11470592354107 0 -227.11470592354107 -172.01946135778121 0 0 0 0 1.5904456016968282 -1.0591447435249712 0 -1.0591447435249712 -1.311067575305302 0 0 0 0 67.753864210571919 28.274778295352007 0 28.274778295352007 -11.005217597717547 0 0 0 0 11.45053629387121 -195.46474290766392 0 -195.46474290766392 -792.01906902666337 0 0 0 0 -273.51980486969296 251.62786292047545 0 251.62786292047545 -480.99976655982846 0 0 0 0 -428.90900042914473 12.427441239486711 0 12.427441239486711 417.73293700172917 0 0 0 0 -153.08948199893712 8.0376170441920749 0 8.0376170441920749 -61.345762439024384 0 0 0 0 76.110742837208818 41.025759731112203 0 41.025759731112203 -62.856548729543249 0 0 0 0 -18.946823276353825 86.671244542435261 0 86.671244542435261 169.71371249684012 0 0 0 0 36.015784544193593 162.92424223647618 0 162.92424223647618 57.701042053587571 0 0 0 0 67.697324872297713 30.43983757804893 0 30.43983757804893 -67.055585654237802 0 0 0 0 67.181860426406956 82.076520786572146 0 82.076520786572146 -73.894049977045597 0 0 0 0 67.471591481858923 77.733769486149868 0 77.733769486149868 -13.861119717721976 0 0 0 0 69.312040873272053 51.137760514541043 0 51.137760514541043 -44.015401034620481 0 0 0 0 -8.3215576745632802 -2.3061058587185732 0 -2.3061058587185732 -0.1762091233556502 0 0 0 0 -842.38645843172162 -578.37883459957834 0 -578.37883459957834 -172.13322874588744 0 0 0 0 119.59935204715657 -144.77827443103979 0 -144.77827443103979 -132.69754883666462 0 0 0 0 -448.45110561560978 -656.26375420525483 0 -656.26375420525483 -417.30577334042368 0 0 0 0 -320.21284037536498 -648.23160323302432 0 -648.23160323302432 -624.20304825273433 0 0 0 0 -7.7324203968224481 -1.9249147124082406 0 -1.9249147124082406 -0.55457766364071825 0 0 0 0 -666.11505429533645 301.19835776647574 0 301.19835776647574 -102.25049549249047 0 0 0 0 -1079.3891527848791 -421.38516744205498 0 -421.38516744205498 -172.04553926466394 0 0 0 0 -20.283235421069577 -4.1138693588651574 0 -4.1138693588651574 -1.7188730633313338 0 0 0 0 -345.31331034945197 -82.868843922219071 0 -82.868843922219071 253.23356312441138 0 0 0 0 -12.590252188718296 -214.32883960204026 0 -214.32883960204026 -111.37810682511758 0 0 0 0 -67.01215545625746 19.544084504037258 0 19.544084504037258 -58.331153364888252 0 0 0 0 -105.11529400286304 -9.6253749812060683 0 -9.6253749812060683 6.0454250208929068 0 0 0 0 -125.73513164742235 93.207448600767719 0 93.207448600767719 -92.233987711430814 0 0 0 0 -536.7449754046429 -139.11075318669293 0 -139.11075318669293 54.661633190577412 0 0 0 0 -426.99892609880408 165.44577709937013 0 165.44577709937013 -27.193195457570482 0 0 0 0 -228.5920952847373 60.257544234267641 0 60.257544234267641 11.675347986884576 0 0 0 0 -307.15301440225085 77.755754880733804 0 77.755754880733804 77.418459763675486 0 0 0 0 -256.50342134520542 -116.6962944819945 0 -116.6962944819945 56.089232760186512 0 0 0 0 -291.051194626697 4.3126719117690309 0 4.3126719117690309 61.741551386726137 0 0 0 0 -228.06216538087938 17.031607073252282 0 17.031607073252282 14.989542842215702 0 0 0 0 -137.39035909782797 -13.580871959517957 0 -13.580871959517957 112.05701413362294 0 0 0 0 -299.47663097749864 15.923525901946562 0 15.923525901946562 146.20919416092897 0 0 0 0 0.44178632985232014 0.5319299449976107 0 0.5319299449976107 -0.16203580611202351 0 0 0 0 -187.65146355822435 -8.359748159484532 0 -8.359748159484532 332.60851153740941 0 0 0 0 -70.738625290498021 -37.375616773623847 0 -37.375616773623847 216.61319605338713 0 0 0 0 -153.40978061928035 84.55630563366195 0 84.55630563366195 191.66154140804144 0 0 0 0 -209.64782569595445 -42.928937572126813 0 -42.928937572126813 216.53348372597395 0 0 0 0 -104.70481436429964 89.759287110834478 0 89.759287110834478 284.9403632287972 0 0 0 0 -112.82699461063748 -0.46547823196783611 0 -0.46547823196783611 326.13118185662279 0 0 0 0 -245.44871453495034 -63.71086982413113 0 -63.71086982413113 197.52791438853529 0 0 0 0 -91.997379156684474 -35.581281423325692 0 -35.581281423325692 189.87619487002985 0 0 0 0 -174.66478109723903 -11.975804179709115 0 -11.975804179709115 186.19360845917919 0 0 0 0 -154.24537843097278 -164.10243745633346 0 -164.10243745633346 211.74166055540095 0 0 0 0 -137.84596295713436 -195.7637903518845 0 -195.7637903518845 305.91063134503798 0 0 0 0 -45.779536502746168 124.29517825498473 0 124.29517825498473 390.19797020763673 0 0 0 0 2.7071388740048121 -0.41392297980472748 0 -0.41392297980472748 1.0540893497673498 0 0 0 0 -62.227398544219795 -1.4904121703871986 0 -1.4904121703871986 0.12049627365905735 0 0 0 0 -79.109747023961972 -230.78818445614698 0 -230.78818445614698 -157.91075741470067 0 0 0 0 -90.98863756201149 -174.17739026989059 0 -174.17739026989059 127.2289466922763 0 0 0 0 -72.465200821639883 -60.25051111575219 0 -60.25051111575219 77.264585084016176 0 0 0 0 -111.75617844655881 -35.612408390400901 0 -35.612408390400901 206.46263781657643 0 0 0 0 -114.86881879784778 -72.694292943931941 0 -72.694292943931941 178.00795862735444 0 0 0 0 -75.855355337114133 -13.2734211361498 0 -13.2734211361498 -2.1531277198054606 0 0 0 0 -65.83699715392504 -21.372493097815493 0 -21.372493097815493 28.108934995213559 0 0 0 0 -79.97855506437827 -3.0233239648448098 0 -3.0233239648448098 5.3472962568008597 0 0 0 0 -83.871219204680074 -36.753957197319721 0 -36.753957197319721 14.449551522231218 0 0 0 0 -76.243109815652133 42.81021899078678 0 42.81021899078678 24.226153952420646 0 0 0 0 -41.753545875774662 -4.0861099750702294 0 -4.0861099750702294 10.49547611367479 0 0 0 0 -76.389550954958338 -18.037847799003561 0 -18.037847799003561 -0.50365044741370746 0 0 0 0 -52.874521329176787 -24.394423965654823 0 -24.394423965654823 -36.558108074498705 0 0 0 0 -95.3217758317478 -67.043324091912098 0 -67.043324091912098 16.818618906620031 0 0 0 0 -20.629048351532532 -7.1628606284694314 0 -7.1628606284694314 -2.8757289899550491 0 0 0 0 -189.29661440157997 -106.47256266934303 0 -106.47256266934303 29.316353837990391 0 0 0 0 -108.62919501808574 -46.384282783628407 0 -46.384282783628407 -33.848361289172601 0 0 0 0 -15.102529478799227 -7.2273800746415358 0 -7.2273800746415358 0.61093136494545008 0 0 0 0 -75.760397695510619 -10.374893783105449 0 -10.374893783105449 5.5976510981537899 0 0 0 0 -98.449097565113334 -5.8004785603519622 0 -5.8004785603519622 4.6806426920876447 0 0 0 0 -227.96458541566244 -60.425392621134449 0 -60.425392621134449 311.91409061685135 0 0 0 0 -36.782632413742249 104.9706121691559 0 104.9706121691559 288.87540806711968 0 0 0 0 -67.413411433088498 -9.4149538221506148 0 -9.4149538221506148 0.40973671682303214 0 0 0 0 -69.837627814104053 9.2252295548079708 0 9.2252295548079708 144.91479429471428 0 0 0 0 -80.413206494929909 24.407404449874605 0 24.407404449874605 121.88020939931505 0 0 0 0 -106.33017776427914 -28.771666371306594 0 -28.771666371306594 35.901900339139729 0 0 0 0 -144.2767655694297 3.5771341365672242 0 3.5771341365672242 166.54921955408543 0 0 0 0 -38.417321211778471 -5.7380439555161047 0 -5.7380439555161047 229.61474319792518 0 0 0 0 -8.9906278014986558 -0.98219958616867586 0 -0.98219958616867586 1.6673260387486248 0 0 0 0 -100.70200917193142 1.2990945648666923 0 1.2990945648666923 7.0048690482444727 0 0 0 0 -178.22451163679216 -66.679989413219005 0 -66.679989413219005 -7.4074643202898187 0 0 0 0 -60.553717168899311 23.853213124470471 0 23.853213124470471 0.90777101179037345 0 0 0 0 -7.8282443898593996 -2.328299898377157 0 -2.328299898377157 -0.56766074389307741 0 0 0 0 -178.12822572544974 -59.307887582969101 0 -59.307887582969101 57.505652948266061 0 0 0 0 -52.53265123705205 -12.313623872072867 0 -12.313623872072867 1.311200397335881 0 0 0 0 -122.77899579828954 12.386004888044226 0 12.386004888044226 13.050864054670456 0 0 0 0 -161.70586021799681 -23.401963167761323 0 -23.401963167761323 -14.829033987293769 0 0 0 0 -16.825006403210864 -12.797027428426645 0 -12.797027428426645 -2.386356583036104 0 0 0 0 -42.15802412213543 -4.9065340368296688 0 -4.9065340368296688 2.6300636554529406 0 0 0 0 -210.32721255302749 33.21030702117605 0 33.21030702117605 -3.6700568593532807 0 0 0 0 -19.759664301573366 -12.389971736244554 0 -12.389971736244554 -5.4564960582903685 0 0 0 0 -158.60516959193774 -2.8476209595951332 0 -2.8476209595951332 5.4085456214083365 0 0 0 0 3.1990740346007627 -7.3411631656600269 0 -7.3411631656600269 -3.4502870225116529 0 0 0 0 -26.536577103735141 -16.724373310557041 0 -16.724373310557041 -7.5318327774093428 0 0 0 0 -38.048221997880169 -19.325310786762898 0 -19.325310786762898 -3.1816277758241469 0 0 0 0 -46.608630873051879 -8.5815402084672314 0 -8.5815402084672314 -6.5861111896920193 0 0 0 0 -145.0613929329993 -27.92495915377674 0 -27.92495915377674 -12.347018560129072 0 0 0 0 -134.08423397301158 12.35341475239909 0 12.35341475239909 -16.714313094683348 0 0 0 0 -129.70371710418112 3.6909093190723752 0 3.6909093190723752 -2.4633363155676307 0 0 0 0 -67.548754610885226 19.847177934970489 0 19.847177934970489 -11.961830558910492 0 0 0 0 -95.205935302903526 -0.12439522648514867 0 -0.12439522648514867 -26.379177100690185 0 0 0 0 -101.37984887477933 2.1009019391226076 0 2.1009019391226076 42.557882513464619 0 0 0 0 -100.95008928277457 -1.5290125519287585 0 -1.5290125519287585 -20.722010701349973 0 0 0 0 -75.731721398535683 3.5730552489910288 0 3.5730552489910288 0.43137452109856755 0 0 0 0 -62.59890890472775 36.267896986347445 0 36.267896986347445 40.840022459355396 0 0 0 0 -63.283596326062252 -8.6281918834374665 0 -8.6281918834374665 -26.106685497975349 0 0 0 0 -68.956002350461347 1.6989533105093386 0 1.6989533105093386 0.50905757194935364 0 0 0 0 -73.349214131491408 -32.525327062365342 0 -32.525327062365342 97.778322210555643 0 0 0 0 -36.383566430196879 -21.323669341217339 0 -21.323669341217339 101.16024451110752 0 0 0 0 -80.983411738463474 -27.885962076318151 0 -27.885962076318151 114.50574807947868 0 0 0 0 -70.50457653117337 -31.446215269051208 0 -31.446215269051208 271.93790057052274 0 0 0 0 0.69180618002246774 30.52128010019527 0 30.52128010019527 153.20752128756561 0 0 0 0 -6.0731198462235625 -75.092078014926244 0 -75.092078014926244 174.89313203759968 0 0 0 0 -61.664364674836179 -55.438226586476731 0 -55.438226586476731 247.81561663728371 0 0 0 0 -32.079756049991374 54.416024269452862 0 54.416024269452862 100.96510277808807 0 0 0 0 10.634253046937374 -50.402243635260298 0 -50.402243635260298 65.915911534716059 0 0 0 0 -5.2249578644759254 0.096523701415769381 0 0.096523701415769381 2.1306457846734004 0 0 0 0 34.836286036297679 -104.45609559066028 0 -104.45609559066028 169.43039950040904 0 0 0 0 -32.744786343342639 -63.516116777500159 0 -63.516116777500159 187.58369307906696 0 0 0 0 -42.328139051456674 29.55577649626224 0 29.55577649626224 86.185651418673586 0 0 0 0 4.3420742633825284 -42.045586034191246 0 -42.045586034191246 183.12627481909885 0 0 0 0 -54.740931406238815 48.44702894671974 0 48.44702894671974 136.00582748284108 0 0 0 0 -42.91136280178398 34.169163744160187 0 34.169163744160187 150.89160945351955 0 0 0 0 -78.609056360448449 29.62367347869494 0 29.62367347869494 189.66904849140525 0 0 0 0 -101.11907778809109 47.131560240408817 0 47.131560240408817 176.05773363590754 0 0 0 0 -52.830374084423966 -29.554654036179784 0 -29.554654036179784 221.71177426201808 0 0 0 0 -86.692296167899258 8.2925600167321534 0 8.2925600167321534 187.23688763963287 0 0 0 0 -79.784539132451755 13.184879030011132 0 13.184879030011132 182.11108287646937 0 0 0 0 -130.20514482370709 37.864959190484484 0 37.864959190484484 189.77270031278164 0 0 0 0 -124.22674230326811 25.33065780666459 0 25.33065780666459 172.27501548307421 0 0 0 0 -138.87591248217359 7.3564856103564011 0 7.3564856103564011 181.72774188287588 0 0 0 0 -110.09297266825888 61.514548211309204 0 61.514548211309204 213.25751312674345 0 0 0 0 -126.06608783919364 36.535751401279185 0 36.535751401279185 228.90954671895699 0 0 0 0 -148.26845034873986 57.293490320559499 0 57.293490320559499 266.4629110181412 0 0 0 0 -161.61745882268588 27.52226612795485 0 27.52226612795485 206.3387007064847 0 0 0 0 -120.05609356719651 53.456083920725149 0 53.456083920725149 213.09325839219593 0 0 0 0 -126.94430255502084 67.756175275367582 0 67.756175275367582 190.1555613217412 0 0 0 0 -137.80809241314273 62.356518640936201 0 62.356518640936201 215.5136154725497 0 0 0 0 -124.48003325398167 63.045784103208604 0 63.045784103208604 190.5845082567285 0 0 0 0 -126.54731949668349 71.21228478763669 0 71.21228478763669 167.83343731632294 0 0 0 0 -108.50145186702321 59.834187450372589 0 59.834187450372589 169.65786434414946 0 0 0 0 -121.24333097251292 72.085750101506434 0 72.085750101506434 161.19486590864233 0 0 0 0 -122.32453386819907 63.322885588869426 0 63.322885588869426 170.33513852938611 0 0 0 0 -49.170566847731607 -79.759093526710785 0 -79.759093526710785 -65.58738755945086 0 0 0 0 54.552721860312886 75.810627093169117 0 75.810627093169117 -69.487901826851555 0 0 0 0 -93.619302579412761 -79.175692211183247 0 -79.175692211183247 28.734712951397967 0 0 0 0 -77.123450842056627 -14.899746590258317 0 -14.899746590258317 50.986732966041217 0 0 0 0 -1.5435025753308764 -0.51435316379733464 0 -0.51435316379733464 -0.42463992647509963 0 0 0 0 -61.136311423957522 46.467180414131931 0 46.467180414131931 120.66314073237115 0 0 0 0 -1.7897102639841904 -0.89916048427550876 0 -0.89916048427550876 -0.020311400992233219 0 0 0 0 -47.762690091287368 -31.287679735380028 0 -31.287679735380028 -29.655486554773674 0 0 0 0 -47.125833164138385 -11.156025504608797 0 -11.156025504608797 -0.72172147868580971 0 0 0 0 -23.525820558365012 -3.2173821336762103 0 -3.2173821336762103 -2.0264906339216395 0 0 0 0 -4.2801853486034638 -6.2028081897880973 0 -6.2028081897880973 -3.5969564415550366 0 0 0 0 -38.064607883516146 -14.862930348336866 0 -14.862930348336866 -1.9254045722804953 0 0 0 0 -34.347631910055497 5.3011030847368126 0 5.3011030847368126 18.568599412492645 0 0 0 0 -7.6886309989268202 -1.1156198898993885 0 -1.1156198898993885 -0.24459044624521029 0 0 0 0 -51.665615234810502 -10.200473212955785 0 -10.200473212955785 -14.967754442147452 0 0 0 0 -4.6184940604689846 -3.5153781576255323 0 -3.5153781576255323 -11.953407352849357 0 0 0 0 -37.195349111151529 -7.3791370441653328 0 -7.3791370441653328 -0.94993550079753275 0 0 0 0 -56.740514146153146 -14.776263292671501 0 -14.776263292671501 -1.6527104814924769 0 0 0 0 -14.905717797577365 1.0615133032328501 0 1.0615133032328501 0.89087784200973807 0 0 0 0 -40.172029699469931 -6.319498038587426 0 -6.319498038587426 -2.8040585788949102 0 0 0 0 -3.2051449889629993 0.46737677151139856 0 0.46737677151139856 -1.0514203149263412 0 0 0 0 -28.249104998670646 12.992558841551443 0 12.992558841551443 -47.559005486129536 0 0 0 0 -113.62190024752181 2.9483234823646853 0 2.9483234823646853 4.5300791799062381 0 0 0 0 -86.900994324917519 -50.882820854832744 0 -50.882820854832744 23.659230396429393 0 0 0 0 -492.92165297274096 307.90294097827581 0 307.90294097827581 -85.845515910311178 0 0 0 0 170.56448572525369 139.62997799860972 0 139.62997799860972 -155.5700504417639 0 0 0 0 -134.9489323279995 37.419251914332563 0 37.419251914332563 -12.247525644611414 0 0 0 0 -121.81063155897573 31.044558900788616 0 31.044558900788616 -9.2661036856197825 0 0 0 0 -60.296712682969883 29.035000224497253 0 29.035000224497253 -23.735817967753519 0 0 0 0 0.057966014395337773 5.7330353781986894 0 5.7330353781986894 -11.134043497189337 0 0 0 0 -126.08305961301539 27.079744457058723 0 27.079744457058723 -4.8424839253966638 0 0 0 0 -9.1079163806003685 -2.5148039311428576 0 -2.5148039311428576 -4.431372574848476 0 0 0 0 -15.771897763343986 -5.176398679884187 0 -5.176398679884187 -2.0837406125601774 0 0 0 0 67.167409535762999 -26.042929997716328 0 -26.042929997716328 -48.669611997053835 0 0 0 0 -13.137927995261258 -4.4205690495481145 0 -4.4205690495481145 -7.347697014848114 0 0 0 0 -132.25347893555772 -3.9691370033092426 0 -3.9691370033092426 44.706080995701541 0 0 0 0 -0.13192533491315572 0.50723982093216424 0 0.50723982093216424 -2.2723095452350535 0 0 0 0 -91.524322955335265 36.241188266108793 0 36.241188266108793 -22.527446726911876 0 0 0 0 -1.9375128688772918 -0.50968167718866297 0 -0.50968167718866297 1.2018736065557327 0 0 0 0 -92.170245915418491 3.8359759460909117 0 3.8359759460909117 -11.172282009778428 0 0 0 0 -58.034030610233458 28.898603948915024 0 28.898603948915024 -47.769916584242083 0 0 0 0 -103.06566037697849 16.462234351500911 0 16.462234351500911 -49.793084563458251 0 0 0 0 -103.36747324022144 52.471401801728916 0 52.471401801728916 -37.942244461604787 0 0 0 0 -61.168067889059785 64.736919157506833 0 64.736919157506833 -52.809184664222812 0 0 0 0 -27.45414970845377 3.6077279759358021 0 3.6077279759358021 3.783088547261741 0 0 0 0 -62.738913287987089 40.314311368151721 0 40.314311368151721 -28.258566311696995 0 0 0 0 -64.886089179546616 27.9857068465532 0 27.9857068465532 10.19502413473883 0 0 0 0 -5.5367214507071694 -0.43358725867002335 0 -0.43358725867002335 1.8783267784055981 0 0 0 0 -9.7700591352424677 -7.3981396241504527 0 -7.3981396241504527 -1.5753432479080578 0 0 0 0 -30.0910702575502 -23.401848857601266 0 -23.401848857601266 -16.625904526230229 0 0 0 0 -22.765442266815626 -4.7279659777532856 0 -4.7279659777532856 0.16253300906419099 0 0 0 0 29.583713051986706 -17.321154578886119 0 -17.321154578886119 -6.886836252567452 0 0 0 0 -13.995148240201978 -1.2300464754902949 0 -1.2300464754902949 0.71605761780463162 0 0 0 0 -9.049302110899589 -23.404609848562984 0 -23.404609848562984 1.8231985313701102 0 0 0 0 -19.77006921570004 -0.20373416474021955 0 -0.20373416474021955 0.24426321338028623 0 0 0 0 -16.997689743366209 7.1213719928906016 0 7.1213719928906016 99.025347739954213 0 0 0 0 -1.8850385052666212 0.66607200336018302 0 0.66607200336018302 -2.4180194013735461 0 0 0 0 -8.3634845569976477 -5.5242090260574273 0 -5.5242090260574273 -4.1741892703521568 0 0 0 0 -220.22150979884645 184.61708117068295 0 184.61708117068295 42.362442883142421 0 0 0 0 -148.52714874342564 -31.867404727649117 0 -31.867404727649117 -13.875364399800219 0 0 0 0 -178.96266175758137 45.085058250597967 0 45.085058250597967 -248.95623324960707 0 0 0 0 -276.90651854278622 175.0541737455037 0 175.0541737455037 44.389520524932777 0 0 0 0 -52.816113136213971 69.273861261232469 0 69.273861261232469 -55.433434852174287 0 0 0 0 -103.17222336660052 164.48107817008668 0 164.48107817008668 -235.28957382106069 0 0 0 0 -119.75895119394772 105.3287039727129 0 105.3287039727129 -55.200463334202084 0 0 0 0 -185.07030743169707 78.661252276975574 0 78.661252276975574 9.2848995653794191 0 0 0 0 -234.20148726247498 97.243497952824555 0 97.243497952824555 357.91828985977008 0 0 0 0 -19.024008579491099 14.680763305121896 0 14.680763305121896 27.346957750566396 0 0 0 0 -181.0196339458189 60.274290558368364 0 60.274290558368364 72.385869065697079 0 0 0 0 -164.09013036131546 40.720073493387645 0 40.720073493387645 25.17664732911453 0 0 0 0 -75.678096726776985 -29.059875491579682 0 -29.059875491579682 -0.89870212930508053 0 0 0 0 -134.1205347118746 45.112260818887307 0 45.112260818887307 -3.0737635483437771 0 0 0 0 -147.23200610592903 39.68169725419466 0 39.68169725419466 -1.5611102976384927 0 0 0 0 -161.66979891249866 39.61873196884153 0 39.61873196884153 5.8081191938235861 0 0 0 0 -150.46143671771642 50.962164426347044 0 50.962164426347044 6.935923907678557 0 0 0 0 -3312.7057889204857 2485.1237370592889 0 2485.1237370592889 -1740.071898010628 0 0 0 0 -3244.0805683577764 1920.2452332848195 0 1920.2452332848195 -1230.8724458512934 0 0 0 0 3.9783465855034592 300.87054864941661 0 300.87054864941661 -24.533910564815812 0 0 0 0 -5494.8469831793882 3970.5213259999618 0 3970.5213259999618 -2693.3404531515353 0 0 0 0 -31.478049037520165 -7.7598855710856292 0 -7.7598855710856292 -2.6027841027054825 0 0 0 0 -2603.7765027818677 -1391.9491555124916 0 -1391.9491555124916 -375.93900450239113 0 0 0 0 -363.14063693941716 -865.28891435756827 0 -865.28891435756827 -373.5121598592844 0 0 0 0 4.3381181411388994 2.6269466668621533 0 2.6269466668621533 9.126415468114029 0 0 0 0 -91.90351054283019 -134.06570520772215 0 -134.06570520772215 -516.6912812493772 0 0 0 0 -483.84778190504949 261.92836533333116 0 261.92836533333116 -160.6339679513037 0 0 0 0 -2517.2463341159455 -78.216802115903761 0 -78.216802115903761 477.49513523010285 0 0 0 0 -5490.7289209284736 -653.60142311295192 0 -653.60142311295192 1114.7205352081169 0 0 0 0 -2636.9068950379042 242.00462286072604 0 242.00462286072604 1100.9206444502045 0 0 0 0 -5489.2428966193402 837.92110434397807 0 837.92110434397807 1098.8031708089957 0 0 0 0 -2087.572468148257 1812.3517580141274 0 1812.3517580141274 -272.83444270599853 0 0 0 0 48.689745996918646 -286.1173802254184 0 -286.1173802254184 -369.29668810966211 0 0 0 0 -9.6267899675191018 1.5469892176913014 0 1.5469892176913014 0.73733382362423061 0 0 0 0 -5308.8591850831554 1071.870909545313 0 1071.870909545313 157.24199897204699 0 0 0 0 -8.785042582148705 5.9051345560777655 0 5.9051345560777655 -3.4383116625620485 0 0 0 0 -3.1217924110897002 1412.348657937164 0 1412.348657937164 -265.29983432743654 0 0 0 0 329.88483677568001 -482.64564925279171 0 -482.64564925279171 96.080197842916505 0 0 0 0 -299.85609500737081 23.871443463235291 0 23.871443463235291 -281.17789841324827 0 0 0 0 -265.26157870970565 -204.51104708234379 0 -204.51104708234379 -177.64467163129024 0 0 0 0 -1210.2158131060605 -28.480153365733656 0 -28.480153365733656 -66.108031809338001 0 0 0 0 -298.17086944870277 -35.002130606995905 0 -35.002130606995905 -131.35952326886803 0 0 0 0 -281.14237310658757 259.54833258253353 0 259.54833258253353 -29.777137809595388 0 0 0 0 -2.9762941154849329 -2.325326296530374 0 -2.325326296530374 -1.01037220352082 0 0 0 0 -6.4978033347033488 -56.58215787487552 0 -56.58215787487552 94.884166286343358 0 0 0 0 -60.153703286957807 -57.283426641631152 0 -57.283426641631152 204.81789745843457 0 0 0 0 -68.288206217315746 -44.469549539772856 0 -44.469549539772856 203.16052426993258 0 0 0 0 31.865913886227645 -147.41699955386906 0 -147.41699955386906 243.61655618110785 0 0 0 0 -16.072418757350533 -27.073866342849101 0 -27.073866342849101 246.22572258560209 0 0 0 0 -23.295606877558384 -65.43294927153346 0 -65.43294927153346 145.95262737746918 0 0 0 0 -16.531691046759079 -54.540644629911242 0 -54.540644629911242 -88.377661982940367 0 0 0 0 -79.302717662507348 -28.831884502413573 0 -28.831884502413573 153.27813743797242 0 0 0 0 -42.598498140940137 1.2864053604494075 0 1.2864053604494075 -30.8790545360946 0 0 0 0 -95.849551893785247 5.0350675897871042 0 5.0350675897871042 33.836294528506414 0 0 0 0 -29.203872206806196 4.2947831756581536 0 4.2947831756581536 -2.5758622290069808 0 0 0 0 -16.882241926999995 13.915202193818004 0 13.915202193818004 30.546917493907131 0 0 0 0 -30.030296865472337 14.934157031949326 0 14.934157031949326 32.112404028178616 0 0 0 0 -18.515835019432927 3.1183005217654856 0 3.1183005217654856 -1.0902906335697016 0 0 0 0 -23.217961745644402 -15.153947584576173 0 -15.153947584576173 1.6001890450459084 0 0 0 0 -49.675078123436833 13.431695988579463 0 13.431695988579463 -18.549584784516469 0 0 0 0 -30.751335061344463 8.7117654196987466 0 8.7117654196987466 -6.392568735021479 0 0 0 0 -12.708612972520584 1.161644795780262 0 1.161644795780262 1.1486026348291714 0 0 0 0 -38.814944412484735 7.8628969483798077 0 7.8628969483798077 -0.47142540050963899 0 0 0 0 -1313.8312396521869 -110.80599224613353 0 -110.80599224613353 229.88683821696731 0 0 0 0 -69.154888593533542 -31.518451444749417 0 -31.518451444749417 -41.506996110321325 0 0 0 0 -28.906882936293215 -17.612308744745434 0 -17.612308744745434 11.200668053925668 0 0 0 0 -83.307454538131424 -85.442357858544284 0 -85.442357858544284 27.170444095732741 0 0 0 0 -5489.9394509846352 -2150.9231913666222 0 -2150.9231913666222 33.002505326632004 0 0 0 0 -18.249264785150274 1.3096934081998608 0 1.3096934081998608 -0.92977418167983017 0 0 0 0 -135.18423960987275 216.60785392775841 0 216.60785392775841 -263.52841324723568 0 0 0 0 -5474.2129759510235 -191.75012299111924 0 -191.75012299111924 176.60161787244812 0 0 0 0 -440.70551973884176 273.49256594648023 0 273.49256594648023 990.37833122824259 0 0 0 0 -332.23876642758842 -26.778952692639336 0 -26.778952692639336 -40.524451514194425 0 0 0 0 -20.738461016946147 12.496754606712685 0 12.496754606712685 -4.5231753437468045 0 0 0 0 -679.41334713685501 -107.23592077440935 0 -107.23592077440935 -27.833335893709091 0 0 0 0 -392.68958383460995 -310.18343784064245 0 -310.18343784064245 -130.28759664704285 0 0 0 0 -228.66134432728722 -264.86358676060604 0 -264.86358676060604 -168.32285026076624 0 0 0 0 -239.76871190682141 -83.708634244817404 0 -83.708634244817404 -7.8648828662294363 0 0 0 0 -205.54099502824101 -84.44730298744571 0 -84.44730298744571 -37.526604542866153 0 0 0 0 -349.48669004885596 55.050088332635823 0 55.050088332635823 -7.4018403891709568 0 0 0 0 -130.13426908175461 245.01745989822666 0 245.01745989822666 -110.38770402912451 0 0 0 0 -307.22743403400818 427.35039198350069 0 427.35039198350069 -283.19292776248176 0 0 0 0 -313.51938872720712 460.68965659122205 0 460.68965659122205 -55.025722907013915 0 0 0 0 -312.82152902607049 416.46074709280902 0 416.46074709280902 -69.509508337979241 0 0 0 0 -374.92752139879303 447.45380481783263 0 447.45380481783263 -55.710493858689006 0 0 0 0 -465.12471376732356 180.86316756853375 0 180.86316756853375 5.7225426440104457 0 0 0 0 -515.3324088836689 259.65470599241326 0 259.65470599241326 -91.800915029412863 0 0 0 0 -780.5745044366704 129.17521678353756 0 129.17521678353756 27.148745441679239 0 0 0 0 -661.73910005970538 617.26364931387945 0 617.26364931387945 -105.59933721183643 0 0 0 0 -207.47456488647003 411.63994045288337 0 411.63994045288337 -89.05158993190571 0 0 0 0 -2.104511021541839 265.96545891787218 0 265.96545891787218 -403.30162172258542 0 0 0 0 -771.77229179309143 1238.913156925817 0 1238.913156925817 -893.85550616445653 0 0 0 0 -2002.8965103925802 367.82429135928987 0 367.82429135928987 117.04457799074544 0 0 0 0 -1204.2224813765351 -809.4475585518735 0 -809.4475585518735 -510.00226932606347 0 0 0 0 -324.53817746458662 -161.86172711203199 0 -161.86172711203199 -181.87163103228954 0 0 0 0 -323.63175371515536 -190.28995805421914 0 -190.28995805421914 -17.035579084035817 0 0 0 0 -277.60920363699552 919.08682915286454 0 919.08682915286454 1652.7128414658532 0 0 0 0 -63.034747538230164 18.709563404950021 0 18.709563404950021 -2.7667768847678982 0 0 0 0 -289.46088772400981 362.21685569157489 0 362.21685569157489 1552.5836870810872 0 0 0 0 88.191401738877175 90.950172422792548 0 90.950172422792548 721.57497474244519 0 0 0 0 -255.87286038457023 10.049172411974723 0 10.049172411974723 254.44055612517059 0 0 0 0 -86.121990136469918 22.54048089415226 0 22.54048089415226 -1.7918998439572267 0 0 0 0 -205.65257652370929 -223.93349717619139 0 -223.93349717619139 -115.18066909299296 0 0 0 0 -360.15008153273266 -178.7465299564783 0 -178.7465299564783 667.99055308918923 0 0 0 0 -18.363309973937248 209.84894687268752 0 209.84894687268752 655.147189926799 0 0 0 0 -346.99427725028727 229.40337342903558 0 229.40337342903558 983.01945367971757 0 0 0 0 -95.822298567399713 24.583626640530412 0 24.583626640530412 -2.5887393778333614 0 0 0 0 -238.94848881027065 23.145769260908764 0 23.145769260908764 -436.68457236443328 0 0 0 0 -188.4200469767602 325.71034412518793 0 325.71034412518793 264.95747346438156 0 0 0 0 -189.49944458082297 -149.25049415832299 0 -149.25049415832299 -45.965933929740459 0 0 0 0 -548.69409696334333 -10.341898575222785 0 -10.341898575222785 18.310060158119995 0 0 0 0 -322.62648256251123 -214.33930231515058 0 -214.33930231515058 -55.466590773350617 0 0 0 0 -519.93848962326592 -12.98398390694615 0 -12.98398390694615 -90.924291506590748 0 0 0 0 -390.52758037324384 -264.28969920131931 0 -264.28969920131931 -66.206726565510962 0 0 0 0 -442.26927087086005 -319.06487692514111 0 -319.06487692514111 -120.77976917112119 0 0 0 0 -379.07760168303503 -106.18109291914652 0 -106.18109291914652 -455.63742202883532 0 0 0 0 -602.90503410719248 -100.7486604337887 0 -100.7486604337887 -108.75038462146676 0 0 0 0 -521.80950537394165 110.02023772365118 0 110.02023772365118 -59.270093823072671 0 0 0 0 2.1670876838132962 2.4863531514602926 0 2.4863531514602926 -4.121601487745286 0 0 0 0 -565.23569417364888 -131.59929506745397 0 -131.59929506745397 75.095623689223885 0 0 0 0 -810.09149003920902 299.77985477046798 0 299.77985477046798 -131.12531238673546 0 0 0 0 -478.45873307519651 75.367791585097166 0 75.367791585097166 -412.45541198358717 0 0 0 0 -620.17801684279402 124.10016794955413 0 124.10016794955413 54.832164343112709 0 0 0 0 -421.02491021784226 -60.22432130246807 0 -60.22432130246807 -69.268871552845667 0 0 0 0 -517.61299988521205 -47.072539116475355 0 -47.072539116475355 79.241476698611905 0 0 0 0 -579.71405755923115 -70.69589324996582 0 -70.69589324996582 15.43259726256656 0 0 0 0 -606.58716199508672 -27.840604763903116 0 -27.840604763903116 12.715967458247178 0 0 0 0 -586.65910637910565 -74.780541049911562 0 -74.780541049911562 24.956072054136712 0 0 0 0 -560.74692209700152 -101.86899760234837 0 -101.86899760234837 47.300206772874844 0 0 0 0 -615.04036683473532 -58.327323594886366 0 -58.327323594886366 75.852493084427806 0 0 0 0 -588.82015981452787 -117.28524399055993 0 -117.28524399055993 -25.337408122818488 0 0 0 0 -561.70830123069027 -106.47753657827093 0 -106.47753657827093 -55.09534383049504 0 0 0 0 -583.59158976765684 -83.945017814462631 0 -83.945017814462631 25.74371177328976 0 0 0 0 -554.87043569385605 -60.884987236155553 0 -60.884987236155553 -40.157916013497015 0 0 0 0 -494.46366862597642 -123.17136200236837 0 -123.17136200236837 21.017620903026 0 0 0 0 -5.5889013764217736 0.92706521580120693 0 0.92706521580120693 0.10623142037409039 0 0 0 0 -655.84821163284505 266.48942098360436 0 266.48942098360436 -64.217833909519641 0 0 0 0 -698.96240744839452 -310.5698378076541 0 -310.5698378076541 51.022867919558223 0 0 0 0 -543.83143075525368 -76.426710928141233 0 -76.426710928141233 -15.50634218578125 0 0 0 0 -22.214513458520937 -4.0071708562819452 0 -4.0071708562819452 -10.642971602847751 0 0 0 0 -199.50449557138654 -108.4448118881877 0 -108.4448118881877 4.4026249560458837 0 0 0 0 -142.61644745214289 93.72851952209686 0 93.72851952209686 -9.4384959400758817 0 0 0 0 -457.42860915629717 4.1443637431110574 0 4.1443637431110574 80.07649231873927 0 0 0 0 -111.07233929074937 61.090662263407538 0 61.090662263407538 -134.83709616094427 0 0 0 0 -62.919636103542871 1.0574090655572945 0 1.0574090655572945 -124.30512766507672 0 0 0 0 -106.07405887064076 -6.191026020888879 0 -6.191026020888879 5.8491804923473554 0 0 0 0 -48.319618894085579 63.524837097927929 0 63.524837097927929 -146.72236852217281 0 0 0 0 39.074982988364354 -42.64904286289368 0 -42.64904286289368 -66.52984849677307 0 0 0 0 -21.286677709060314 226.93051306779353 0 226.93051306779353 -218.57810491985549 0 0 0 0 -43.987546519507305 -188.09825052938345 0 -188.09825052938345 -130.57425163726566 0 0 0 0 -12.003252308115805 3.4508648897520438 0 3.4508648897520438 -0.38106178309708705 0 0 0 0 -64.929951844038442 151.4514626444909 0 151.4514626444909 184.54253252926321 0 0 0 0 -97.494513479723537 61.846754726777817 0 61.846754726777817 230.08028762625918 0 0 0 0 -65.335986229398259 -130.11402240646089 0 -130.11402240646089 -19.381147800733743 0 0 0 0 -368.51006165673061 -181.75042095875111 0 -181.75042095875111 -3.4718516679376989 0 0 0 0 -111.90235463638237 478.90945318451202 0 478.90945318451202 -608.94420217664265 0 0 0 0 147.79038176251197 106.11156388261588 0 106.11156388261588 -212.65837205797675 0 0 0 0 -12.409191362632015 3.6884772833497905 0 3.6884772833497905 -0.52198699942705984 0 0 0 0 11.144541004257917 103.50433878259469 0 103.50433878259469 -1.9888150000502094 0 0 0 0 -114.08337348378336 98.422948509976322 0 98.422948509976322 328.73007107483227 0 0 0 0 -295.63551084160281 75.766292491154388 0 75.766292491154388 193.21163847167793 0 0 0 0 77.416419827546633 10.761854681328856 0 10.761854681328856 -186.02002625525552 0 0 0 0 -165.605088216289 -377.99612203202673 0 -377.99612203202673 -129.74436249385599 0 0 0 0 -73.959059179825488 53.988645192193125 0 53.988645192193125 -14.341946461256029 0 0 0 0 51.125991759123281 188.39198674215072 0 188.39198674215072 -142.91162033216915 0 0 0 0 -192.59528559697355 -134.17842113608299 0 -134.17842113608299 -34.151280286447673 0 0 0 0 -84.843245837079436 35.702175252300123 0 35.702175252300123 -12.537255690272087 0 0 0 0 -35.39956749828707 38.372800074665804 0 38.372800074665804 -75.400778331369793 0 0 0 0 -217.78160135525832 -182.7982061231329 0 -182.7982061231329 -157.69166263101368 0 0 0 0 -0.19781925700954162 226.56564159243771 0 226.56564159243771 119.53077601805307 0 0 0 0 -93.955018801518122 11.356125679535969 0 11.356125679535969 -0.56755224778078306 0 0 0 0 93.903568201152666 227.01824454978123 0 227.01824454978123 -353.79663558030916 0 0 0 0 -1148.6630881217861 -323.87400421253187 0 -323.87400421253187 231.71885448099829 0 0 0 0 -913.54323123948416 -172.37318992944074 0 -172.37318992944074 -325.77464152915485 0 0 0 0 -104.98251538867936 -3.3670600749244031 0 -3.3670600749244031 5.0247666563845641 0 0 0 0 -499.28207865633885 80.728730556492337 0 80.728730556492337 27.995798057763977 0 0 0 0 -1472.4163285885443 290.35388064762196 0 290.35388064762196 450.64112039224187 0 0 0 0 -1125.9843688227484 -331.40665635561402 0 -331.40665635561402 45.712693036661221 0 0 0 0 -103.15970862141558 1.2867342745403043 0 1.2867342745403043 2.9873939574752049 0 0 0 0 -905.86338570518228 -32.706908227293411 0 -32.706908227293411 -424.32238525209959 0 0 0 0 -997.48779107410519 -201.27585586609621 0 -201.27585586609621 -658.76234518210231 0 0 0 0 -1385.375757137037 126.06029614090789 0 126.06029614090789 -375.39864217536444 0 0 0 0 -1084.1037729153613 495.83955008131284 0 495.83955008131284 -613.36374338609767 0 0 0 0 -1217.0210755520966 549.20826122384369 0 549.20826122384369 -472.80313528287934 0 0 0 0 -1172.0553938276134 441.27485271323872 0 441.27485271323872 -646.70423959650498 0 0 0 0 -1255.8556950978818 588.60031471248249 0 588.60031471248249 157.62590679457185 0 0 0 0 -102.08663003236035 4.0081675625279694 0 4.0081675625279694 1.5942721040307106 0 0 0 0 -1831.3230131333858 9.2534266963341452 0 9.2534266963341452 240.10721632395052 0 0 0 0 -1646.8660810433139 1074.9847760282157 0 1074.9847760282157 -441.85504762329583 0 0 0 0 -562.3826008781034 706.83073281589941 0 706.83073281589941 -882.19966772034923 0 0 0 0 -678.49672263449065 280.30766551906044 0 280.30766551906044 -581.08918569644993 0 0 0 0 -1118.8059325938666 252.90681583719231 0 252.90681583719231 2481.6312999353713 0 0 0 0 -79.180167585669324 -6.9398737985763432 0 -6.9398737985763432 2.5802933478261876 0 0 0 0 -2367.7097347511299 -2250.5532820272124 0 -2250.5532820272124 1915.2539078116608 0 0 0 0 -2168.6008194180904 2086.2627310958806 0 2086.2627310958806 -2046.2195268756223 0 0 0 0 -3936.5480358317363 780.17525352098255 0 780.17525352098255 -21.077603961320165 0 0 0 0 -32.46778960641916 -3.9422971027407598 0 -3.9422971027407598 0.19504667060707792 0 0 0 0 -2224.4637370562996 -1219.0311034569809 0 -1219.0311034569809 -750.31977897460911 0 0 0 0 198.27939221559791 15.131621744232291 0 15.131621744232291 -2758.729479577712 0 0 0 0 -359.04884645837592 -108.5762739850461 0 -108.5762739850461 -29.950437628578129 0 0 0 0 -989.81747713155346 616.70934021369976 0 616.70934021369976 -801.54620375471859 0 0 0 0 -40.208023267128738 1060.1189735761261 0 1060.1189735761261 -623.65877455133216 0 0 0 0 -5.8957457118288517 1.24811392096451 0 1.24811392096451 -0.25426417943454727 0 0 0 0 -84.742528176857348 58.343984250124024 0 58.343984250124024 -15.653388901001577 0 0 0 0 -1002.4925840419892 -448.94694108711792 0 -448.94694108711792 39.423456049113383 0 0 0 0 -710.71555972914211 -74.719133276968932 0 -74.719133276968932 -232.03680090349735 0 0 0 0 -185.47210050768626 -532.76397759982092 0 -532.76397759982092 -251.0923921944086 0 0 0 0 -1518.0531629740435 -38.845721621373968 0 -38.845721621373968 98.263540754694986 0 0 0 0 -385.35495220767916 -276.95214778221271 0 -276.95214778221271 -68.534956706901539 0 0 0 0 -70.925593757798197 -38.760591319355171 0 -38.760591319355171 -29.384787969947183 0 0 0 0 -161.76700367387093 10.434845023200296 0 10.434845023200296 123.06520352449343 0 0 0 0 -174.06286174695651 731.27348664048714 0 731.27348664048714 1518.5509192339478 0 0 0 0 -23.090433145767122 9.3317852454550945 0 9.3317852454550945 0.29383798369842395 0 0 0 0 -9.103103850956245 4.6607110422346096 0 4.6607110422346096 -1.3598843257852575 0 0 0 0 -285.86930857885454 101.80065353795533 0 101.80065353795533 194.44326007357176 0 0 0 0 -193.8278305195272 110.0545281781292 0 110.0545281781292 173.48913844284334 0 0 0 0 -1618.0257792270804 267.19000437623862 0 267.19000437623862 -0.46564153767576499 0 0 0 0 -101.57629399708969 5.6032050452487923 0 5.6032050452487923 4.1300681246465754 0 0 0 0 64.149687874712981 155.80721513500657 0 155.80721513500657 99.163075626976479 0 0 0 0 -31.900374340752968 -4.4034104086939863 0 -4.4034104086939863 2.5851244637787243 0 0 0 0 -1582.5534024807275 -757.94629899905385 0 -757.94629899905385 -355.04117671564154 0 0 0 0 -1997.9470768195533 1078.7598579253847 0 1078.7598579253847 -284.80539315052374 0 0 0 0 -1312.5049524231727 479.79508462741114 0 479.79508462741114 -523.18186735925769 0 0 0 0 -1313.7750290228432 504.61916106293108 0 504.61916106293108 147.50190250292189 0 0 0 0 -826.83039997109881 3.5514025145922687 0 3.5514025145922687 -398.22157772453465 0 0 0 0 -994.89871268296702 363.9031531951523 0 363.9031531951523 -555.66342117919294 0 0 0 0 -716.6431672222534 137.17672010222793 0 137.17672010222793 1251.2150045368221 0 0 0 0 -25.955769964489136 36.460176167943487 0 36.460176167943487 10.965422169321641 0 0 0 0 -999.39675369425822 250.90909375854682 0 250.90909375854682 556.2527936555507 0 0 0 0 -105.58518676837278 -3.6928324748206549 0 -3.6928324748206549 10.021069421394401 0 0 0 0 -1052.6490258983395 65.64478399364998 0 65.64478399364998 -315.91351565240689 0 0 0 0 -1098.9482059827715 -123.07782851619504 0 -123.07782851619504 -233.88164658739106 0 0 0 0 -1536.5826003312213 -55.995173451998824 0 -55.995173451998824 -203.56363532128125 0 0 0 0 -119.15993072260972 7.395116711689468 0 7.395116711689468 32.042906408438284 0 0 0 0 -71.195607525770768 -0.00082650529520833516 0 -0.00082650529520833516 19.184342644868405 0 0 0 0 -106.53369273996213 3.0925824416376599 0 3.0925824416376599 29.757050580832583 0 0 0 0 -88.4795145796312 12.086261191022896 0 12.086261191022896 3.9178579806115819 0 0 0 0 -72.308665830089012 5.3869254429506555 0 5.3869254429506555 21.797789429032491 0 0 0 0 -70.585420289809974 0.76380493655518933 0 0.76380493655518933 3.8585932128548408 0 0 0 0 -81.56856452980719 18.310064278035952 0 18.310064278035952 15.284386931706422 0 0 0 0 -102.28666636996786 10.687809990315259 0 10.687809990315259 21.399315623065377 0 0 0 0 -74.084808402258204 27.262404527647504 0 27.262404527647504 -5.2872614951243122 0 0 0 0 -71.260873202889343 23.828755954189319 0 23.828755954189319 -9.586105229358509 0 0 0 0 -85.636177142361703 -3.9569050629554567 0 -3.9569050629554567 -41.561088229007964 0 0 0 0 -83.395329986893557 9.5550381662195889 0 9.5550381662195889 -15.764663934203782 0 0 0 0 -86.975530138408828 -8.2659790762957535 0 -8.2659790762957535 3.6963889961183467 0 0 0 0 -118.27005169288896 24.862091144798228 0 24.862091144798228 -9.2258701622021135 0 0 0 0 -142.08676445102901 -22.624531268233 0 -22.624531268233 -6.3299629775642572 0 0 0 0 -71.649091742843666 -0.43204401934349335 0 -0.43204401934349335 72.893440596980099 0 0 0 0 -85.766953992083273 3.9227227102599471 0 3.9227227102599471 5.8536987508557461 0 0 0 0 -73.232605259821867 39.085370859087561 0 39.085370859087561 25.775877433326798 0 0 0 0 -49.742331084707985 18.46668458204158 0 18.46668458204158 27.84453577943674 0 0 0 0 -42.888354282569708 43.633714998401445 0 43.633714998401445 -27.29858985948249 0 0 0 0 -72.222752998348369 40.784660539655533 0 40.784660539655533 -2.809521210213461 0 0 0 0 -73.947740990573948 26.065595583183494 0 26.065595583183494 -10.026438890615282 0 0 0 0 -12.063430121663608 39.05936470624772 0 39.05936470624772 0.8640853275449949 0 0 0 0 -91.491855145417503 32.132910140026979 0 32.132910140026979 24.442012911005349 0 0 0 0 -68.889769278877793 285.29204530324387 0 285.29204530324387 -312.05008111472944 0 0 0 0 -234.90914045042882 316.48593201991804 0 316.48593201991804 80.046098013205892 0 0 0 0 -735.10175818097196 359.92680053945207 0 359.92680053945207 88.379973103563316 0 0 0 0 -366.20132771075441 514.8711433155936 0 514.8711433155936 -67.601256559067906 0 0 0 0 -835.21212471866238 313.89654646536155 0 313.89654646536155 -904.10585056079071 0 0 0 0 -583.52356783096911 789.74001663972797 0 789.74001663972797 -507.2295363321673 0 0 0 0 -1711.7902409930393 270.4542982058656 0 270.4542982058656 -585.9088648488887 0 0 0 0 -925.80114278024121 188.14183166302973 0 188.14183166302973 -1152.3615596309046 0 0 0 0 -1790.8736866294057 -198.02592889722564 0 -198.02592889722564 -401.04768580215386 0 0 0 0 -860.80901414947584 -20.556020684432042 0 -20.556020684432042 -501.25853990245866 0 0 0 0 -1453.113552707182 -716.68057906534705 0 -716.68057906534705 -688.10077437822292 0 0 0 0 -692.57416857832868 -524.57999843847028 0 -524.57999843847028 -338.67712811267211 0 0 0 0 -1241.0975276535028 -341.75512225274815 0 -341.75512225274815 -53.266924796255807 0 0 0 0 -1363.8486262668011 -662.16041000096538 0 -662.16041000096538 -219.01346686356646 0 0 0 0 -683.62578946999565 -262.95767857924147 0 -262.95767857924147 -58.447621953995622 0 0 0 0 -151.37397259677527 -97.780095244620497 0 -97.780095244620497 -266.49367116276176 0 0 0 0 450.91697159787873 -44.164477860014813 0 -44.164477860014813 -225.69692218372711 0 0 0 0 268.62320596837526 -140.84252664642077 0 -140.84252664642077 93.133526905829058 0 0 0 0 146.37707160470018 302.37302732479975 0 302.37302732479975 354.07925475548655 0 0 0 0 -392.21261117015092 -581.8598450382724 0 -581.8598450382724 -158.20206218226576 0 0 0 0 -260.71647586753534 523.77599971150494 0 523.77599971150494 -35.648893788077658 0 0 0 0 2.2044987892816721 11.766178021006779 0 11.766178021006779 -2.2504949764700708 0 0 0 0 -64.024671618673892 -1.9194125689446082 0 -1.9194125689446082 31.082434974862736 0 0 0 0 -62.86329100619642 8.0865292032900626 0 8.0865292032900626 3.7209078585125002 0 0 0 0 -80.74074522502633 38.373359830844038 0 38.373359830844038 -33.183040334515681 0 0 0 0 309.46036829866352 275.1991234617085 0 275.1991234617085 -6.3588666601190198 0 0 0 0 -11.626188858528327 1.7700853806956189 0 1.7700853806956189 2.8685591028649853 0 0 0 0 -211.90455526759251 131.57508040671769 0 131.57508040671769 194.56048877311514 0 0 0 0 178.25045934855007 -15.704988506955488 0 -15.704988506955488 -243.30850611302594 0 0 0 0 49.639793508446019 252.58301553029855 0 252.58301553029855 203.17643368082645 0 0 0 0 -53.748308493864897 -291.19268205873982 0 -291.19268205873982 303.12532026027338 0 0 0 0 98.777537700007088 -215.5871351038295 0 -215.5871351038295 -716.8842010196945 0 0 0 0 6.0531522870151093 140.40495229545922 0 140.40495229545922 -84.960881462957332 0 0 0 0 -12.201803525389153 -8.372558579080561 0 -8.372558579080561 -4.3802257973384595 0 0 0 0 -76.107882550808426 41.866238421052458 0 41.866238421052458 23.767512072577119 0 0 0 0 -58.463009828468785 -41.736682276206011 0 -41.736682276206011 -58.192272857619628 0 0 0 0 -75.362729886699995 49.860722650067942 0 49.860722650067942 -1.7800189866299512 0 0 0 0 -16.639129071360912 205.94872691801311 0 205.94872691801311 -36.70442244759306 0 0 0 0 -101.4098263973865 54.070388185367392 0 54.070388185367392 32.006264301126066 0 0 0 0 -403.25104539572931 330.11175057179253 0 330.11175057179253 -22.080407073724018 0 0 0 0 -670.09730928156205 763.40596043679852 0 763.40596043679852 -311.72508449318138 0 0 0 0 -1029.330600902782 164.17825220881264 0 164.17825220881264 209.16896389904741 0 0 0 0 -3534.7945646553708 -487.13356569399593 0 -487.13356569399593 1030.2965917007004 0 0 0 0 -4280.9846168543299 -81.264772436346163 0 -81.264772436346163 1120.8255639695908 0 0 0 0 -4127.3493692463653 -1132.4586305803814 0 -1132.4586305803814 1348.8514779572988 0 0 0 0 -2140.470627736795 -1511.5365594592627 0 -1511.5365594592627 492.26093408045199 0 0 0 0 -2551.0714202604722 -1585.4098888490657 0 -1585.4098888490657 1292.3218541821436 0 0 0 0 -1465.7938288629812 599.41846834479884 0 599.41846834479884 -73.377170083968736 0 0 0 0 -737.53512577906076 873.1888285281027 0 873.1888285281027 1416.9138558465786 0 0 0 0 69.7372600351664 -1030.6755720272697 0 -1030.6755720272697 499.7591703864897 0 0 0 0 -2887.9628814589232 -625.96570565819343 0 -625.96570565819343 470.49887902007731 0 0 0 0 -2394.6553067938075 -789.46588178294678 0 -789.46588178294678 174.36067371766603 0 0 0 0 -1192.0529998241327 237.1985199873136 0 237.1985199873136 -1096.4726513629339 0 0 0 0 -2875.5472530185361 302.2387293996112 0 302.2387293996112 -1414.8702941659521 0 0 0 0 -2732.1563942195789 -43.204978394894169 0 -43.204978394894169 -738.81676660674384 0 0 0 0 -1671.875568518386 190.8442689337694 0 190.8442689337694 -1531.1338842302739 0 0 0 0 -1220.3609735836508 -6.0835343916915008 0 -6.0835343916915008 202.08506917608429 0 0 0 0 -798.1632150462392 -2626.885397479793 0 -2626.885397479793 -2057.9914479800718 0 0 0 0 -4221.9067439803621 -1046.4950065365165 0 -1046.4950065365165 511.33208836044207 0 0 0 0 -3170.4179972072161 84.892883640177388 0 84.892883640177388 -770.83200896889957 0 0 0 0 -6434.1466446574632 -732.47197102903283 0 -732.47197102903283 -92.415458559513354 0 0 0 0 -22.042693800197952 -0.3226920959324957 0 -0.3226920959324957 -0.25068669724395676 0 0 0 0 -4640.2471765066148 -1568.1076245278864 0 -1568.1076245278864 -1846.8823919777151 0 0 0 0 -711.92875184030709 1831.0374518345272 0 1831.0374518345272 -1660.1862921518896 0 0 0 0 -957.52018872790995 260.65308832612573 0 260.65308832612573 -672.1475886219323 0 0 0 0 -6671.0557587010553 -749.51912529567562 0 -749.51912529567562 -92.142700889559535 0 0 0 0 -0.54755734182060678 8.0438274928599469 0 8.0438274928599469 -5.1545147024283011 0 0 0 0 -3984.5581310438065 356.68927504864723 0 356.68927504864723 -173.94895757509039 0 0 0 0 -1828.255202416447 -417.36484577706779 0 -417.36484577706779 -1635.7986466980865 0 0 0 0 -2817.14312253354 219.4186866864402 0 219.4186866864402 -1052.5805196538749 0 0 0 0 -3110.3874050786835 -570.01463992064055 0 -570.01463992064055 -1571.5729152334191 0 0 0 0 -5601.5721929687206 939.54483808567693 0 939.54483808567693 -1504.593404030813 0 0 0 0 -3056.7657503343507 -506.39031336536709 0 -506.39031336536709 -482.64350933459536 0 0 0 0 -2946.790439836841 -546.9115052205625 0 -546.9115052205625 -1736.1848837486295 0 0 0 0 -2497.3419549859391 -386.64615347030349 0 -386.64615347030349 -144.77290859599998 0 0 0 0 -2014.3373617486286 -194.0984814462372 0 -194.0984814462372 -401.61192401248081 0 0 0 0 -1700.5191797898042 470.48155088834005 0 470.48155088834005 -294.8544610143781 0 0 0 0 -1861.4294604031384 617.83390836378931 0 617.83390836378931 -214.51121647147136 0 0 0 0 -795.38978327430232 690.66408213644445 0 690.66408213644445 -630.19783043838288 0 0 0 0 -954.72569796560856 1098.5045776172337 0 1098.5045776172337 -516.96994146487157 0 0 0 0 24.897718281914976 14.70205045538161 0 14.70205045538161 -4.4202918960386164 0 0 0 0 110.53912453090743 43.177913292424819 0 43.177913292424819 -13.957490919146949 0 0 0 0 20.027952924447646 28.224369211005474 0 28.224369211005474 2.7360997377821903 0 0 0 0 -177.59736253342999 236.42925497997567 0 236.42925497997567 -2.6020507135325488 0 0 0 0 -32.757330596514294 256.51209618848679 0 256.51209618848679 -178.44433354040939 0 0 0 0 72.589452527869071 422.03957979258189 0 422.03957979258189 -77.954578338443753 0 0 0 0 387.0430975772033 -83.956950951446288 0 -83.956950951446288 -67.76928877815817 0 0 0 0 -949.21679906863028 1024.5403134488363 0 1024.5403134488363 -432.65424205339559 0 0 0 0 13.288155212523705 8.3362839669729567 0 8.3362839669729567 -3.008328987394929 0 0 0 0 -105.52544145339198 799.48344981750279 0 799.48344981750279 -532.9994898798559 0 0 0 0 150.63606871102093 -75.900080684388968 0 -75.900080684388968 -259.61634944087893 0 0 0 0 -584.57222210952023 520.3135175253052 0 520.3135175253052 -674.24777354062462 0 0 0 0 -922.31242244182067 423.56483495086491 0 423.56483495086491 -250.7576999376256 0 0 0 0 -1639.6771763502329 -118.15577527925871 0 -118.15577527925871 -39.381400886262327 0 0 0 0 -932.48677140779182 449.28394610166447 0 449.28394610166447 -315.19133647574927 0 0 0 0 -1487.3218302182868 -157.22597754700269 0 -157.22597754700269 -111.06466041241401 0 0 0 0 -1185.990806189162 325.49932113954566 0 325.49932113954566 -747.77314282739098 0 0 0 0 -1482.1713037481823 349.46513667436443 0 349.46513667436443 105.11591995682306 0 0 0 0 -308.60317513234077 2047.1341277951681 0 2047.1341277951681 -2445.1549431218464 0 0 0 0 -1121.2481900981293 -375.29542987616435 0 -375.29542987616435 1506.3123536432349 0 0 0 0 -272.06127162085977 -444.44715758526297 0 -444.44715758526297 -736.96343903881302 0 0 0 0 165.49717714895087 -100.78355484404597 0 -100.78355484404597 223.21582041622875 0 0 0 0 -2076.6474678965533 86.614515614271852 0 86.614515614271852 221.25338705598961 0 0 0 0 -197.66722930035758 1617.0030297645853 0 1617.0030297645853 -114.50846729600516 0 0 0 0 -341.01267134932277 1067.3932304380974 0 1067.3932304380974 -353.00275852075492 0 0 0 0 -37.766341425216524 694.35572290230675 0 694.35572290230675 -793.98776396114044 0 0 0 0 -790.7815069182725 866.69881478038349 0 866.69881478038349 529.65452171181869 0 0 0 0 -1127.9951367721733 277.98351008119312 0 277.98351008119312 995.18355801229234 0 0 0 0 -921.96326772531756 1102.2629656640411 0 1102.2629656640411 830.98934484062329 0 0 0 0 -52.190258355387527 13.744091787153156 0 13.744091787153156 4.222438331562044 0 0 0 0 -21.827114347222306 8.0415027230349239 0 8.0415027230349239 0.92556661250019623 0 0 0 0 -129.20095503899938 33.280220303325905 0 33.280220303325905 -166.96935105554917 0 0 0 0 -108.06990302241866 -121.38475302705649 0 -121.38475302705649 -615.81453254709504 0 0 0 0 -292.85836715016376 -175.70440259511008 0 -175.70440259511008 -204.35031334108999 0 0 0 0 -289.59723761601344 -63.249389850400121 0 -63.249389850400121 -225.05253988419281 0 0 0 0 -408.09878634969391 61.146653035620773 0 61.146653035620773 -116.23960702050408 0 0 0 0 157.74424180523033 -281.37055190804227 0 -281.37055190804227 -849.44786986832287 0 0 0 0 172.67913032545766 108.461497739278 0 108.461497739278 -437.09697857380229 0 0 0 0 -414.69567664882925 -665.59954617794006 0 -665.59954617794006 -735.47394932988141 0 0 0 0 -193.64973583961546 -298.41073813459661 0 -298.41073813459661 -323.76219272000071 0 0 0 0 -885.3804302038734 -394.81430543007735 0 -394.81430543007735 -330.5813379508927 0 0 0 0 -921.55625790995691 -428.32425772869874 0 -428.32425772869874 -197.2381910501436 0 0 0 0 -495.29248404843383 8.8332207238090632 0 8.8332207238090632 -219.62953539314469 0 0 0 0 -834.51157131023865 -627.55470955715532 0 -627.55470955715532 -590.23102305081738 0 0 0 0 -5.3564493699836078 -2.928430964183093 0 -2.928430964183093 -1.9841299891716195 0 0 0 0 -1171.3144564225513 -443.6010614783263 0 -443.6010614783263 -672.81212257522793 0 0 0 0 -1601.2882235336474 -431.33108896203805 0 -431.33108896203805 -349.59166635358997 0 0 0 0 -659.01070912140131 -92.823197537323495 0 -92.823197537323495 -628.42695581361363 0 0 0 0 61.431917050584161 -128.37387158658436 0 -128.37387158658436 137.33616886677322 0 0 0 0 -683.25678124075785 -216.9703450466518 0 -216.9703450466518 144.86984398872062 0 0 0 0 -514.86020327519509 -571.68034236666392 0 -571.68034236666392 39.537012437161138 0 0 0 0 -353.3308165718845 -399.61040308157362 0 -399.61040308157362 88.527916937800015 0 0 0 0 -386.20062103345845 -443.0963493587808 0 -443.0963493587808 -404.25833000900138 0 0 0 0 -425.24334756258759 -589.96407380870892 0 -589.96407380870892 -237.01906615323423 0 0 0 0 -455.07495829803702 -540.33958760084329 0 -540.33958760084329 -127.5142764845973 0 0 0 0 -480.66418100910232 -440.68364785486028 0 -440.68364785486028 -174.55726422248154 0 0 0 0 -325.90786320703046 -373.77318723770213 0 -373.77318723770213 -363.6647775464387 0 0 0 0 -406.38287957556895 -527.21700197875577 0 -527.21700197875577 -42.196204312871032 0 0 0 0 -543.48496872364922 -495.1432366883393 0 -495.1432366883393 -38.896569464388676 0 0 0 0 -567.6891897578389 -359.31662002698425 0 -359.31662002698425 46.661841712500973 0 0 0 0 -390.52954349951688 -260.95908753653737 0 -260.95908753653737 -76.089922150993061 0 0 0 0 -313.96909424512705 -240.00857645023711 0 -240.00857645023711 -72.272840152736308 0 0 0 0 324.47240449157835 -150.79959312317101 0 -150.79959312317101 -65.261306846889511 0 0 0 0 0.058078847357036167 -2.7346635758870264 0 -2.7346635758870264 -3.1619085360440016 0 0 0 0 -2431.877912604934 -1805.5978348029637 0 -1805.5978348029637 -568.94049060328734 0 0 0 0 -124.37625021908025 -114.46375729539966 0 -114.46375729539966 153.54121244400335 0 0 0 0 118.05899256509292 -355.74721886678185 0 -355.74721886678185 -63.828111568288477 0 0 0 0 -1170.8162533285504 -272.11562816487196 0 -272.11562816487196 61.17947688309323 0 0 0 0 -496.62506610967102 -438.38234468115894 0 -438.38234468115894 74.887800002115 0 0 0 0 -715.42567819702526 -756.14640335258719 0 -756.14640335258719 -77.679500117940051 0 0 0 0 -195.99281159487145 -545.3105898462145 0 -545.3105898462145 -168.60919207393169 0 0 0 0 -459.37840137283638 -490.87514954626386 0 -490.87514954626386 167.06051685448097 0 0 0 0 -371.23676236064057 -396.7081308685049 0 -396.7081308685049 -68.172939001732743 0 0 0 0 -354.80750334008235 -225.39310911525331 0 -225.39310911525331 310.84077902255831 0 0 0 0 -293.78672119305702 -129.71816426931522 0 -129.71816426931522 195.79503749674075 0 0 0 0 -244.81685577452549 -94.990932403879512 0 -94.990932403879512 220.25586992490628 0 0 0 0 -241.18354909474147 -183.92556080115492 0 -183.92556080115492 122.38571187477544 0 0 0 0 -201.91480077020105 -199.81519669480693 0 -199.81519669480693 128.01651324634895 0 0 0 0 -123.07861230062554 -120.77841056968612 0 -120.77841056968612 153.57493427769708 0 0 0 0 -259.51592286206142 -53.440925286276524 0 -53.440925286276524 186.67406544680426 0 0 0 0 -248.22556792946125 150.66129821227236 0 150.66129821227236 767.02576553046447 0 0 0 0 -335.53851591172861 -62.90049888308377 0 -62.90049888308377 266.35270656875178 0 0 0 0 -224.94116344668146 39.489591943662219 0 39.489591943662219 326.08100687309718 0 0 0 0 -388.87476085707749 -469.19436462044519 0 -469.19436462044519 516.54279209938591 0 0 0 0 -39.810430992827605 165.19430311762028 0 165.19430311762028 142.05036605342787 0 0 0 0 -65.367506952646423 29.934458621148494 0 29.934458621148494 12.131067489897564 0 0 0 0 -81.572437934673871 57.897153659116256 0 57.897153659116256 130.90761135764967 0 0 0 0 -176.70108249709301 178.02950172519468 0 178.02950172519468 126.16180844734572 0 0 0 0 -438.51016736165184 127.82864282409264 0 127.82864282409264 130.308459533659 0 0 0 0 30.815701950723451 66.204949652161304 0 66.204949652161304 -168.51614864949352 0 0 0 0 27.939865762633417 98.233785585299756 0 98.233785585299756 17.361818475051678 0 0 0 0 -67.559585690764621 27.583320858288019 0 27.583320858288019 12.981096967518324 0 0 0 0 -117.21901864033862 -18.21165390430042 0 -18.21165390430042 31.250687646883023 0 0 0 0 -120.96654825715814 -11.015899422448967 0 -11.015899422448967 50.063919493675826 0 0 0 0 -62.820443653690745 107.1819527547824 0 107.1819527547824 134.58386169579444 0 0 0 0 -112.05169054186081 28.105277041625904 0 28.105277041625904 87.454705995933296 0 0 0 0 -114.14621135457128 13.676171566892549 0 13.676171566892549 24.099265884490492 0 0 0 0 -167.78124973009108 -25.737975414164964 0 -25.737975414164964 186.02822297531139 0 0 0 0 -184.64105442708387 -68.050761555629634 0 -68.050761555629634 114.6432849747564 0 0 0 0 -114.80844717223954 -65.735399896116064 0 -65.735399896116064 86.188517960917579 0 0 0 0 -89.143137744646083 -21.211072157637972 0 -21.211072157637972 -16.306875581347981 0 0 0 0 -113.23042073527176 -0.69550334621709453 0 -0.69550334621709453 45.550774431637819 0 0 0 0 -78.406185016960819 -15.136648511448858 0 -15.136648511448858 1.3562731282638458 0 0 0 0 -605.75489473860216 1376.5008325134384 0 1376.5008325134384 -270.26831455974934 0 0 0 0 -23.914528917916737 -5.3534679601046378 0 -5.3534679601046378 4.0872566615624146 0 0 0 0 -104.67417429407215 -52.598457621539296 0 -52.598457621539296 56.515655039539638 0 0 0 0 -116.54169265389282 -53.553257797539615 0 -53.553257797539615 70.98102458116341 0 0 0 0 -42.152189552361961 -66.966316956339767 0 -66.966316956339767 64.949140477402125 0 0 0 0 -94.018125702412362 -223.48461906314242 0 -223.48461906314242 -227.98605318488353 0 0 0 0 -152.04398361012863 -236.42782519984803 0 -236.42782519984803 -73.715030971285159 0 0 0 0 -152.580280915201 -163.02540557432849 0 -163.02540557432849 0.13809108993064001 0 0 0 0 -134.79589501579176 -93.048150044490285 0 -93.048150044490285 11.664217540062054 0 0 0 0 114.57252362423606 -283.32820494556381 0 -283.32820494556381 -123.2996465859369 0 0 0 0 237.99601997884565 -238.4634844022828 0 -238.4634844022828 -479.02165362910364 0 0 0 0 139.90857193503325 -409.76498825995009 0 -409.76498825995009 282.65364042979309 0 0 0 0 -116.95231792868435 30.311141842816596 0 30.311141842816596 -408.57163613166176 0 0 0 0 -20.94251075144247 5.356501998368012 0 5.356501998368012 -2.5565168322276599 0 0 0 0 -399.24000317605169 1410.2561858183617 0 1410.2561858183617 -1729.1418857994286 0 0 0 0 296.98122425978727 -97.23064901988073 0 -97.23064901988073 -737.28751239909479 0 0 0 0 -62.755229270396967 12.464786978914553 0 12.464786978914553 4.4699343769327458 0 0 0 0 -452.9729532193669 644.49598916279058 0 644.49598916279058 1300.2163285395859 0 0 0 0 -130.32764457685698 693.93554458535664 0 693.93554458535664 -347.1896421911884 0 0 0 0 -36.056943190982565 -163.71735675995842 0 -163.71735675995842 945.82911971922749 0 0 0 0 -62.223882847662026 -114.17846309798551 0 -114.17846309798551 -351.99728776153518 0 0 0 0 -377.19511001662249 -395.85891999765596 0 -395.85891999765596 1442.0928322155578 0 0 0 0 476.22097122395644 1062.7442933609959 0 1062.7442933609959 2580.7216163313287 0 0 0 0 -10.856352704729915 -4.076095676534635 0 -4.076095676534635 9.9588393756771669 0 0 0 0 7.7809682792613444 10.564311946785921 0 10.564311946785921 1.7546707674250681 0 0 0 0 -733.01188271883075 307.65059086353602 0 307.65059086353602 1607.6337270211909 0 0 0 0 -498.97569971058692 -41.707266345797848 0 -41.707266345797848 1904.3700460651364 0 0 0 0 -188.2339247143027 -70.029446165688569 0 -70.029446165688569 5.5150016750239956 0 0 0 0 -70.836740751065463 27.055435090358195 0 27.055435090358195 12.027115990846942 0 0 0 0 23.248064683990378 135.24414699434465 0 135.24414699434465 -83.436508401371228 0 0 0 0 -198.12867917267431 -121.27118196321408 0 -121.27118196321408 33.081616943961762 0 0 0 0 -186.15781785752915 -42.889870794759645 0 -42.889870794759645 -140.33565070550503 0 0 0 0 -205.1985459082789 -102.14070814209572 0 -102.14070814209572 11.566438256750644 0 0 0 0 -170.3396374971926 -136.32848186868523 0 -136.32848186868523 -15.546033057989916 0 0 0 0 -174.5393368700461 -86.852087494988155 0 -86.852087494988155 -82.643091764321071 0 0 0 0 -188.09814058457778 -99.171346011473787 0 -99.171346011473787 66.235105146863134 0 0 0 0 -184.07619622459015 -145.52447905388544 0 -145.52447905388544 61.101120993231234 0 0 0 0 -182.2839888803137 -102.57117725350327 0 -102.57117725350327 75.173754683264178 0 0 0 0 -210.47722419589263 -120.90623700397146 0 -120.90623700397146 91.816052838764335 0 0 0 0 -290.3311793842804 -135.65610091848248 0 -135.65610091848248 89.516634749951663 0 0 0 0 -191.47475708421189 -97.393584756523751 0 -97.393584756523751 129.52789590775137 0 0 0 0 -82.492187026109605 -79.728356906067347 0 -79.728356906067347 79.222568125923772 0 0 0 0 -187.52353984047659 -62.362738282520695 0 -62.362738282520695 74.177751297325813 0 0 0 0 -225.18256987202767 -95.895374755552439 0 -95.895374755552439 52.224655729599363 0 0 0 0 -497.1534680266559 -158.60183387146162 0 -158.60183387146162 70.698326453627033 0 0 0 0 -272.27289467729861 -67.118521886151029 0 -67.118521886151029 103.59845185415497 0 0 0 0 -261.51900666305664 -150.57145006450412 0 -150.57145006450412 -117.00843026619168 0 0 0 0 -42.017728652273945 -50.263644361808474 0 -50.263644361808474 16.588081277046513 0 0 0 0 -152.10748753109328 -67.996769357864991 0 -67.996769357864991 90.784797815380443 0 0 0 0 -135.1426107037114 -120.29107254533119 0 -120.29107254533119 7.1059186186284933 0 0 0 0 -250.09544555021603 -106.90111933321384 0 -106.90111933321384 21.485080798336639 0 0 0 0 -69.122518503027095 -133.36759095745174 0 -133.36759095745174 -115.8415669410897 0 0 0 0 6.3777071063232142 19.354364057320709 0 19.354364057320709 31.039265591708499 0 0 0 0 -13.51903694999055 15.467910581134674 0 15.467910581134674 67.688691321499164 0 0 0 0 -1568.4998907650406 -178.19203577917213 0 -178.19203577917213 482.73300143096708 0 0 0 0 111.73573099308851 31.705565044357627 0 31.705565044357627 63.592285161319523 0 0 0 0 45.875627194240224 -4.8336044684874651 0 -4.8336044684874651 62.427164835765325 0 0 0 0 29.02314322674647 50.654818055310898 0 50.654818055310898 128.41534906645938 0 0 0 0 -58.040927795182142 -0.91751559786530379 0 -0.91751559786530379 114.17087580994848 0 0 0 0 -99.509875315775389 -21.318246973728833 0 -21.318246973728833 151.09116444490428 0 0 0 0 4.3806772005045786 41.12251636552628 0 41.12251636552628 181.55758650555435 0 0 0 0 -127.04751802355258 -139.46899830369961 0 -139.46899830369961 75.899022461779168 0 0 0 0 -145.23527072769502 -36.781718867016025 0 -36.781718867016025 381.89623588091854 0 0 0 0 -167.63288841104077 -79.609228481315768 0 -79.609228481315768 212.51149802175996 0 0 0 0 -120.83532280307554 -127.92113141400296 0 -127.92113141400296 78.506809546595832 0 0 0 0 105.52412824757016 209.54539286170902 0 209.54539286170902 246.54846191360593 0 0 0 0 -75.77684878324726 147.85432020537814 0 147.85432020537814 414.47077161077596 0 0 0 0 -162.63417128954461 -111.6807462558204 0 -111.6807462558204 570.45908301359304 0 0 0 0 -25.968198892544983 20.354559897978657 0 20.354559897978657 -12.759698401680334 0 0 0 0 -240.14213388699136 -624.37195292510751 0 -624.37195292510751 -657.03443729007722 0 0 0 0 -297.96533919607191 -594.90619710681608 0 -594.90619710681608 -265.04164576899331 0 0 0 0 -413.15698719484499 185.35224113158654 0 185.35224113158654 -789.68641170141007 0 0 0 0 -256.15870346825204 -222.42592870221071 0 -222.42592870221071 -49.672175906075154 0 0 0 0 -280.81823326450103 -421.08652899782066 0 -421.08652899782066 -477.74032472043655 0 0 0 0 -238.18599252245622 -33.210946674343688 0 -33.210946674343688 60.430810094179606 0 0 0 0 -245.79952250144447 -112.96055529156121 0 -112.96055529156121 94.879275311225797 0 0 0 0 -685.08450703823837 -443.58902643742533 0 -443.58902643742533 -148.47349608175085 0 0 0 0 -841.30482801278049 454.12479108273033 0 454.12479108273033 299.76293987734937 0 0 0 0 -503.61264781119917 105.6960888267859 0 105.6960888267859 202.90222241481536 0 0 0 0 -101.25064715514736 -397.89074685217696 0 -397.89074685217696 -436.83191305396957 0 0 0 0 -698.43590908114857 293.73904821921553 0 293.73904821921553 422.74970969458735 0 0 0 0 -272.57173490721516 343.96033455911061 0 343.96033455911061 57.469183091049274 0 0 0 0 -561.10892557095576 601.38929773343671 0 601.38929773343671 -129.39182598800409 0 0 0 0 -532.6509866136812 537.65933553346918 0 537.65933553346918 -174.75645883624497 0 0 0 0 -274.76164051865317 904.6368071860976 0 904.6368071860976 -703.52305655089242 0 0 0 0 -2560.5729864423447 1604.6566625191003 0 1604.6566625191003 -635.4067566341721 0 0 0 0 -303.2003012899836 -637.39640518442263 0 -637.39640518442263 -73.022816888776447 0 0 0 0 -1084.2714847205934 -1055.0189613671721 0 -1055.0189613671721 244.09787882289626 0 0 0 0 -3784.3393009599458 -1001.1934300823987 0 -1001.1934300823987 471.52359423417533 0 0 0 0 -966.42377759977171 935.40702842291671 0 935.40702842291671 -395.26977835974509 0 0 0 0 -2132.5555062620115 105.42949743688233 0 105.42949743688233 207.56950402329892 0 0 0 0 -251.77205680343468 165.02815273967164 0 165.02815273967164 -655.97025256995096 0 0 0 0 -921.15853058915945 162.41758457473134 0 162.41758457473134 -112.10174744620917 0 0 0 0 -1213.0259132842748 502.54722340590286 0 502.54722340590286 -480.88793931984861 0 0 0 0 -1582.7009771042622 -52.64594265328401 0 -52.64594265328401 -3.2907239645510344 0 0 0 0 885.8838777790661 625.14796694365486 0 625.14796694365486 -656.99098518955248 0 0 0 0 -3.3089464048054591 5.0558599034359553 0 5.0558599034359553 -4.6801990866288508 0 0 0 0 251.65135230914711 659.53888651741158 0 659.53888651741158 -1023.4152009286687 0 0 0 0 -596.77014610588594 214.57108898795079 0 214.57108898795079 573.59045125251305 0 0 0 0 -29.463743922649918 10.522602206069438 0 10.522602206069438 -2.9592801264609685 0 0 0 0 633.78236285866296 241.42061194285108 0 241.42061194285108 -123.62149251343806 0 0 0 0 -109.74321857677569 -128.55721102830512 0 -128.55721102830512 -307.67698625982689 0 0 0 0 -1277.9841663163825 1922.7292717353839 0 1922.7292717353839 -1089.9696661394692 0 0 0 0 -4110.3972947082802 990.6997311614839 0 990.6997311614839 -411.80126583585388 0 0 0 0 -13.161331673070599 9.8568637637516225 0 9.8568637637516225 -7.2061903886062773 0 0 0 0 -2786.73660708651 49.316894539417262 0 49.316894539417262 -1482.2145865175853 0 0 0 0 -2232.3503464874884 -420.94950768272065 0 -420.94950768272065 647.51767278231819 0 0 0 0 -447.35515246073555 1233.5459830831937 0 1233.5459830831937 -1369.4494586190451 0 0 0 0 -16.24021791352871 5.5065540499061685 0 5.5065540499061685 -1.9721311588695252 0 0 0 0 -416.9083635191364 -1225.4031664119191 0 -1225.4031664119191 -1632.2991912042144 0 0 0 0 899.16305580204607 -413.48694344631878 0 -413.48694344631878 -1664.0296611433087 0 0 0 0 -128.66597673887736 -1019.5901353906982 0 -1019.5901353906982 -660.58139590805763 0 0 0 0 -106.73943659624638 -470.32107840847175 0 -470.32107840847175 -725.22919526459964 0 0 0 0 -2809.8764119229672 -427.73454238539307 0 -427.73454238539307 -416.28660534309103 0 0 0 0 -1323.4510244012781 -773.34594809832106 0 -773.34594809832106 -410.71375043156957 0 0 0 0 -2259.8392206777353 8.1748563220451729 0 8.1748563220451729 -595.61426606444877 0 0 0 0 -1796.7655595771648 602.45530538610933 0 602.45530538610933 -7.8084403939685672 0 0 0 0 -1971.2366502142686 470.68115849197397 0 470.68115849197397 -1619.5262693749719 0 0 0 0 -2083.5521341051062 1468.389422266247 0 1468.389422266247 -284.84345487426026 0 0 0 0 -667.55462755978078 1455.6655808779228 0 1455.6655808779228 -322.61441009170113 0 0 0 0 -1392.1829161549322 52.626383574134252 0 52.626383574134252 372.87895716716162 0 0 0 0 -1320.7113498985709 198.8903877071948 0 198.8903877071948 514.23905839389772 0 0 0 0 1209.57691654269 -373.07151581364303 0 -373.07151581364303 581.30177203107814 0 0 0 0 -492.81250560549961 1537.6267950070257 0 1537.6267950070257 -745.65396982691641 0 0 0 0 1.4323146567866161 1.9547828538003458 0 1.9547828538003458 2.0104535225743518 0 0 0 0 -16.164549831046315 1004.8026202157145 0 1004.8026202157145 108.49461813781693 0 0 0 0 249.0264223953709 345.45329598602393 0 345.45329598602393 -253.74112290857568 0 0 0 0 -48.383764631750552 10.234428159107157 0 10.234428159107157 3.6061462943378921 0 0 0 0 1014.5582430836002 641.70689202592666 0 641.70689202592666 -32.794569109662007 0 0 0 0 -586.91058718554632 -257.3642333250981 0 -257.3642333250981 1523.1003739178468 0 0 0 0 -992.37255861066296 -807.19958976146302 0 -807.19958976146302 1889.0987330352864 0 0 0 0 -742.55724035956518 -174.87249659624555 0 -174.87249659624555 205.59596166073732 0 0 0 0 -192.72560298366079 -844.31297514727225 0 -844.31297514727225 350.8744837301806 0 0 0 0 532.26213827346146 -435.76523619996766 0 -435.76523619996766 -161.43170545626856 0 0 0 0 506.69389136906466 -171.32583200155074 0 -171.32583200155074 290.47888285813815 0 0 0 0 -496.01693917555713 -383.64667352068852 0 -383.64667352068852 143.97821857059319 0 0 0 0 -18.096583519826979 4.9624467388638793 0 4.9624467388638793 0.079835350878917077 0 0 0 0 -122.06963159649968 -587.64503264165694 0 -587.64503264165694 242.61499720114216 0 0 0 0 -582.91384053735419 1443.0471593031982 0 1443.0471593031982 -1739.715255966993 0 0 0 0 -651.12164522605781 859.58401595217367 0 859.58401595217367 84.959731361186641 0 0 0 0 -698.44085473899759 797.5256385926823 0 797.5256385926823 537.96202952253861 0 0 0 0 -986.3572749298728 1386.3632204734272 0 1386.3632204734272 -64.009979074692637 0 0 0 0 -174.04509442152414 188.15794919273549 0 188.15794919273549 651.44484452310189 0 0 0 0 -83.700688868478665 1663.7335368560946 0 1663.7335368560946 -96.180789789118535 0 0 0 0 -23.385379780968464 8.6263459551797617 0 8.6263459551797617 -2.9731514498117306 0 0 0 0 -236.85335594768549 -661.72017458699338 0 -661.72017458699338 -1092.4252170858324 0 0 0 0 722.05717638572241 -897.37495349403889 0 -897.37495349403889 -254.05872686757294 0 0 0 0 1054.3029028097808 -1093.3279583496155 0 -1093.3279583496155 123.48731920925729 0 0 0 0 211.7461825813516 209.44440132305033 0 209.44440132305033 597.98352247273488 0 0 0 0 -1459.7002805025386 641.49912919277176 0 641.49912919277176 448.41534897073052 0 0 0 0 115.04954590248599 235.21792543560014 0 235.21792543560014 369.57561011242433 0 0 0 0 -466.01549166539598 -54.995159848837503 0 -54.995159848837503 74.850573062251897 0 0 0 0 -797.10563806599203 -327.7436458906202 0 -327.7436458906202 -29.74482373991782 0 0 0 0 -623.85808265428386 -182.14437249877074 0 -182.14437249877074 -36.988728464260021 0 0 0 0 -452.45384762285357 -425.75086143149156 0 -425.75086143149156 149.69569780854908 0 0 0 0 -431.43337231196165 -333.74312481012794 0 -333.74312481012794 544.85649749229788 0 0 0 0 -404.99280724997698 318.77378643079192 0 318.77378643079192 616.64099590203296 0 0 0 0 -339.35494563517932 757.18697743196753 0 757.18697743196753 -98.736262413618533 0 0 0 0 -639.2047431447977 -188.17119244541993 0 -188.17119244541993 115.82300084738563 0 0 0 0 -655.29772512155614 264.28575704183334 0 264.28575704183334 -349.8915541153425 0 0 0 0 -1699.9243917926142 585.82691321663629 0 585.82691321663629 -94.019895192909985 0 0 0 0 -748.85391351891758 -33.039064275880548 0 -33.039064275880548 -767.23391504958931 0 0 0 0 -1693.777811013535 771.34834203500316 0 771.34834203500316 -921.31102744761245 0 0 0 0 -749.10275992324387 43.584714724710921 0 43.584714724710921 -463.29484439929496 0 0 0 0 -920.45106092731021 -188.53908302723539 0 -188.53908302723539 -777.57415351581369 0 0 0 0 -494.33092953308915 -258.12780469471863 0 -258.12780469471863 -581.10776353166284 0 0 0 0 -520.52879371614108 -321.5412479977856 0 -321.5412479977856 -276.03194170670736 0 0 0 0 -691.1938740209207 -200.29197295251288 0 -200.29197295251288 -147.90550651503179 0 0 0 0 -1175.923264213995 634.81854668094047 0 634.81854668094047 -818.98393659834665 0 0 0 0 -762.49972767707732 195.23391437922726 0 195.23391437922726 -232.26640655418146 0 0 0 0 -778.1781752561983 156.2247681156004 0 156.2247681156004 -325.24428638224049 0 0 0 0 -13.473355725372571 4.455109347161093 0 4.455109347161093 -1.44666512696406 0 0 0 0 -1029.036913945698 1158.6137512229993 0 1158.6137512229993 -868.04034929303145 0 0 0 0 -1827.9008957698788 604.84345824747788 0 604.84345824747788 -152.54894585391776 0 0 0 0 -1652.5091835296298 -458.01157784770021 0 -458.01157784770021 450.49237248062576 0 0 0 0 -433.27217055547862 -323.69596942432361 0 -323.69596942432361 -252.69470062978712 0 0 0 0 -984.32037246234813 339.60432480779116 0 339.60432480779116 -242.45426391205888 0 0 0 0 -912.83361672078354 184.90138494872713 0 184.90138494872713 -130.8783640435513 0 0 0 0 -1002.3159420648428 -23.487142690086817 0 -23.487142690086817 -391.66159878472331 0 0 0 0 -1417.167928862078 369.58818619023828 0 369.58818619023828 -195.44695946736505 0 0 0 0 -779.2497490236683 -62.89485277385586 0 -62.89485277385586 -381.05644108292358 0 0 0 0 -1429.8382144016487 364.98730275228166 0 364.98730275228166 -21.602427165605945 0 0 0 0 -564.0794837915073 236.87345794746079 0 236.87345794746079 -223.69617559815811 0 0 0 0 -1348.4407611486313 702.45826281533846 0 702.45826281533846 -301.64213936824825 0 0 0 0 -2712.0056274654735 300.21981106760359 0 300.21981106760359 583.42634889932197 0 0 0 0 -1590.2677232682508 -313.10184566164435 0 -313.10184566164435 636.72930550886576 0 0 0 0 -2.5147358634175148 4.9765705148771175 0 4.9765705148771175 -8.1427551390048656 0 0 0 0 -365.09405590623464 54.495663171778688 0 54.495663171778688 -175.00050840076074 0 0 0 0 -775.6685043313737 82.280255636718266 0 82.280255636718266 77.925986243405987 0 0 0 0 -894.89960544689711 179.78732928255067 0 179.78732928255067 8.6376178235955194 0 0 0 0 -2367.9733345066616 -903.8670143537621 0 -903.8670143537621 593.56708898550187 0 0 0 0 -18.608561648477369 10.877633370032676 0 10.877633370032676 -6.5329274425010677 0 0 0 0 -918.48214710173488 155.83098947213671 0 155.83098947213671 -118.85587375562238 0 0 0 0 -933.26657371526198 185.89245710233877 0 185.89245710233877 41.32999183373704 0 0 0 0 -952.78084445559762 168.08740371787337 0 168.08740371787337 3.9008174332857379 0 0 0 0 -914.59432496180125 236.24552493889973 0 236.24552493889973 11.707128229917544 0 0 0 0 -811.98726155721124 219.13745256888615 0 219.13745256888615 -30.67991504407928 0 0 0 0 -855.18949039613835 175.61120333330223 0 175.61120333330223 -64.595061405732849 0 0 0 0 -863.78165668080965 168.70618961199023 0 168.70618961199023 3.8458233774990731 0 0 0 0 -935.55011336076495 113.43091441174306 0 113.43091441174306 50.576588635253756 0 0 0 0 -946.42021003847731 125.10561100740688 0 125.10561100740688 68.42729575008525 0 0 0 0 -1007.4413141643627 -102.2706980229309 0 -102.2706980229309 191.69859674659347 0 0 0 0 -1104.8816834285208 11.268970119240748 0 11.268970119240748 293.154362710643 0 0 0 0 -844.09023305666778 -0.33436604704365891 0 -0.33436604704365891 85.228594016284433 0 0 0 0 -451.9966748093193 -192.4941264832687 0 -192.4941264832687 -76.289915203386613 0 0 0 0 -818.93059355897549 4.605474821702046 0 4.605474821702046 -132.0416700328451 0 0 0 0 -778.84981882739612 245.18014444101095 0 245.18014444101095 -314.49509871553528 0 0 0 0 -722.79544282539064 113.15426017733125 0 113.15426017733125 -39.283292828104777 0 0 0 0 -570.34092548708304 5.8224770615136094 0 5.8224770615136094 -264.35704712060851 0 0 0 0 271.51320743818906 -330.10718618363626 0 -330.10718618363626 -169.39127599285234 0 0 0 0 -375.95574746812235 -660.09486557495029 0 -660.09486557495029 515.94838669655201 0 0 0 0 -860.89275570539121 -460.09593736848205 0 -460.09593736848205 100.89459490582612 0 0 0 0 -1061.7373203879761 -225.76861022867206 0 -225.76861022867206 221.07487085739206 0 0 0 0 -487.78241370155229 -442.27717344774646 0 -442.27717344774646 92.225609998630944 0 0 0 0 -1853.7349853065807 -326.15851979526269 0 -326.15851979526269 406.48008900064633 0 0 0 0 -1393.5068519148481 -380.66960381647368 0 -380.66960381647368 262.01830802014865 0 0 0 0 -1220.0890126046661 -294.92516680686322 0 -294.92516680686322 405.88345730314904 0 0 0 0 -2259.0672233065607 1990.1221601251796 0 1990.1221601251796 781.6614935742582 0 0 0 0 -768.59481054215757 1659.0427179428698 0 1659.0427179428698 -943.98649244516764 0 0 0 0 -1407.8331486277266 883.13795028620598 0 883.13795028620598 -3237.9637746984772 0 0 0 0 -2.5692392998265552 8.1415460510182438 0 8.1415460510182438 -16.941511915958248 0 0 0 0 -973.45639379376553 292.46009134693554 0 292.46009134693554 -126.08356109363467 0 0 0 0 -577.46057421935075 25.253082514699599 0 25.253082514699599 -164.85511854323249 0 0 0 0 -655.93183487668284 246.86489878290172 0 246.86489878290172 -634.24594693850759 0 0 0 0 -1.313602255073347 1.225739115980593 0 1.225739115980593 -8.8233800814782146 0 0 0 0 -2142.49290218738 424.16654615834278 0 424.16654615834278 1158.4841947206905 0 0 0 0 -1146.7928728713014 -283.12420602166594 0 -283.12420602166594 -98.054417147613094 0 0 0 0 -504.19198348187456 669.10563217518916 0 669.10563217518916 660.67535307772505 0 0 0 0 631.06404767206777 207.50331890420154 0 207.50331890420154 -292.91517195370761 0 0 0 0 -145.56225992734664 110.78270597143683 0 110.78270597143683 916.3828094667515 0 0 0 0 375.90998684536106 240.67929412735725 0 240.67929412735725 -823.91377684346571 0 0 0 0 267.6409034457854 198.10397922446708 0 198.10397922446708 387.13632652747947 0 0 0 0 -100.12114599509296 2.9551718753444272 0 2.9551718753444272 6.4710175156989367 0 0 0 0 -423.83759316650503 235.01816627175697 0 235.01816627175697 79.2963179983999 0 0 0 0 177.78075368771897 -254.10575013619552 0 -254.10575013619552 -661.04365002444911 0 0 0 0 11.9455798168201 60.913837514022816 0 60.913837514022816 -31.419076968770241 0 0 0 0 47.140116098205127 -88.736752430521875 0 -88.736752430521875 -31.618753355940498 0 0 0 0 6.7615146824847638 50.662194831292815 0 50.662194831292815 14.11027150807532 0 0 0 0 -234.45823873052723 41.567304790230651 0 41.567304790230651 226.78483270887804 0 0 0 0 39.594750989217346 23.473530123374644 0 23.473530123374644 -97.463134144423748 0 0 0 0 4.6468115263841741 -3.0106474220192609 0 -3.0106474220192609 -0.33049553233616891 0 0 0 0 -137.20712107703002 61.567133937961444 0 61.567133937961444 -71.867099867917659 0 0 0 0 -1141.4737329570125 -118.85619213536575 0 -118.85619213536575 317.32105579884382 0 0 0 0 -386.00300862393669 1287.0428669500179 0 1287.0428669500179 -275.39615031461233 0 0 0 0 230.14718462085239 -450.52305947975731 0 -450.52305947975731 1024.7750377057309 0 0 0 0 172.39720233232492 293.04056194197096 0 293.04056194197096 291.32310225456604 0 0 0 0 -28.884477048842321 8.9329026048088984 0 8.9329026048088984 1.841288653046036 0 0 0 0 -140.07314419205431 257.60640480557959 0 257.60640480557959 690.57130176621069 0 0 0 0 -21.995774152645392 7.8664353765314452 0 7.8664353765314452 6.2801865125974565 0 0 0 0 -11.832005325776239 -1.7012766974502913 0 -1.7012766974502913 -0.619264438605724 0 0 0 0 -1441.9003641224936 -918.46270254540923 0 -918.46270254540923 -90.358917725818173 0 0 0 0 -2213.7531882910653 -883.47714207479839 0 -883.47714207479839 336.21469565307416 0 0 0 0 -120.95852009491452 -284.47123239762487 0 -284.47123239762487 -207.24629469602405 0 0 0 0 -1228.2266577547034 -781.77709669986189 0 -781.77709669986189 320.27285514212963 0 0 0 0 -3075.9199358861733 -125.92225419779425 0 -125.92225419779425 43.069183488041745 0 0 0 0 -349.48981219913776 342.70341344898543 0 342.70341344898543 -473.87943816393818 0 0 0 0 -2316.244406959333 1480.974884875091 0 1480.974884875091 -914.8563036715741 0 0 0 0 -842.97882383408432 759.85600874911643 0 759.85600874911643 -585.34327109551305 0 0 0 0 -2671.2845958516682 697.04677962089681 0 697.04677962089681 91.012524692631814 0 0 0 0 -211.86878455981287 202.12039932597509 0 202.12039932597509 -39.55394602134902 0 0 0 0 -356.78192620417781 108.27004567962695 0 108.27004567962695 -49.119093187862745 0 0 0 0 -200.28792546890509 184.73531003011249 0 184.73531003011249 -104.42350055909867 0 0 0 0 -292.13281862248499 174.07301932267069 0 174.07301932267069 -3.7262360252898361 0 0 0 0 -328.43823169335428 343.86493935996714 0 343.86493935996714 -330.65324637191588 0 0 0 0 -681.8631511111364 437.77981186494708 0 437.77981186494708 -47.64165619969026 0 0 0 0 -486.11262980523156 266.14531056645546 0 266.14531056645546 -30.392718684046486 0 0 0 0 -232.81522682379932 288.27303548254531 0 288.27303548254531 -194.54046330714391 0 0 0 0 -1312.3676548686396 265.91784536493293 0 265.91784536493293 160.44044213662164 0 0 0 0 -1374.5604778727675 646.39131998254561 0 646.39131998254561 -71.615515038287413 0 0 0 0 -715.3900470467911 368.18160988021418 0 368.18160988021418 -9.398687912494097 0 0 0 0 -1094.6976722753718 93.754422571478074 0 93.754422571478074 180.64020968691329 0 0 0 0 -1056.2778376497424 371.97986459196557 0 371.97986459196557 80.213197232415041 0 0 0 0 -445.46077110920396 306.08114303348702 0 306.08114303348702 -49.383927588250117 0 0 0 0 -694.45956014334206 266.56511096510985 0 266.56511096510985 75.910974890525722 0 0 0 0 -691.40459646818135 284.78226266760794 0 284.78226266760794 62.40967829303645 0 0 0 0 -585.9884832548978 155.03329037192907 0 155.03329037192907 81.649550245557748 0 0 0 0 -274.85038548172452 -124.75805727763782 0 -124.75805727763782 185.46036528437094 0 0 0 0 -337.09676325596524 60.866798126820868 0 60.866798126820868 32.962110701500478 0 0 0 0 -996.52887322429524 -192.89824530245792 0 -192.89824530245792 86.821732027918188 0 0 0 0 -20.782965714636383 -15.618434418466506 0 -15.618434418466506 -30.253131675382335 0 0 0 0 -985.6427443626817 -25.619307380378558 0 -25.619307380378558 -16.978443847852759 0 0 0 0 -1108.1419663609086 -322.32394026007751 0 -322.32394026007751 -5.1797122809057328 0 0 0 0 -739.95225484347725 -352.98794866452698 0 -352.98794866452698 -123.91738961740157 0 0 0 0 -362.8637447654437 -329.98836844601124 0 -329.98836844601124 -124.45102941487312 0 0 0 0 -769.05527354526862 68.708311590269346 0 68.708311590269346 -45.69481113261736 0 0 0 0 -535.47520734975205 89.44569885982844 0 89.44569885982844 -49.767188495453411 0 0 0 0 0.74114198962434485 67.94733284836208 0 67.94733284836208 20.634819491920101 0 0 0 0 -85.250845407985381 193.1097057004427 0 193.1097057004427 -120.57608993242138 0 0 0 0 -115.37833797486746 -6.696510158433739 0 -6.696510158433739 121.97032629850582 0 0 0 0 -233.37172708342769 210.46621360268 0 210.46621360268 59.770342775993413 0 0 0 0 -11.202055848871057 -5.6758932460725049 0 -5.6758932460725049 26.988715063271105 0 0 0 0 -113.71904004234966 -24.714135966791218 0 -24.714135966791218 77.56889395868393 0 0 0 0 -30.714545757517953 24.978632618507618 0 24.978632618507618 123.79318046645858 0 0 0 0 -32.88226523106141 -8.7674701097612342 0 -8.7674701097612342 2.256556206979667 0 0 0 0 -32.610504564818768 -1.1148751380909161 0 -1.1148751380909161 5.8559573825730471 0 0 0 0 -27.164305023816269 25.488562935444634 0 25.488562935444634 13.686307826607845 0 0 0 0 -649.36950443596209 17.746220724858176 0 17.746220724858176 -14.357681760426203 0 0 0 0 -643.78252370394478 -240.44835562345793 0 -240.44835562345793 -59.880485263885021 0 0 0 0 -4.3360945013425685 3.5335193291618667 0 3.5335193291618667 -3.1595933731805914 0 0 0 0 -918.14279483469022 103.33366899165594 0 103.33366899165594 132.82205971441181 0 0 0 0 -968.93640951536429 -65.321137193037089 0 -65.321137193037089 -35.711748597412225 0 0 0 0 -1159.3276971783193 -526.61596995379432 0 -526.61596995379432 47.846202590205394 0 0 0 0 -1592.3058009628326 200.16629004703282 0 200.16629004703282 207.59120613653886 0 0 0 0 -75.563164077269903 2.9323054067244811 0 2.9323054067244811 200.97228609936906 0 0 0 0 -29.080506220777721 77.304063455003899 0 77.304063455003899 136.46984865166905 0 0 0 0 -20.165531394728177 16.006696014867082 0 16.006696014867082 -10.570034023383585 0 0 0 0 114.56977404196368 82.261702156405363 0 82.261702156405363 -212.9021350528601 0 0 0 0 19.858322758364466 -140.68031008604748 0 -140.68031008604748 -10.021580349078249 0 0 0 0 -72.668366013072955 -111.61133312413222 0 -111.61133312413222 150.24140409899655 0 0 0 0 -3030.7711082707374 142.74985077142901 0 142.74985077142901 -1203.0927521115682 0 0 0 0 -1936.7255991099137 -589.77609140022014 0 -589.77609140022014 53.086736272274038 0 0 0 0 -168.36909645117976 617.10553359922119 0 617.10553359922119 -287.58881315092003 0 0 0 0 -8.6762373008851856 6.6055262264811549 0 6.6055262264811549 -4.7728790441001578 0 0 0 0 -2951.6633366763645 -598.42024788728668 0 -598.42024788728668 178.60863896469027 0 0 0 0 -877.79938929864693 392.09452254350754 0 392.09452254350754 -37.778237452915164 0 0 0 0 -1038.947815637679 658.83096315571129 0 658.83096315571129 -138.09968313260833 0 0 0 0 -2324.1486252411378 1336.6932791978124 0 1336.6932791978124 -391.97866210573795 0 0 0 0 -3094.0466237175096 -26.209193095086903 0 -26.209193095086903 604.07341199035545 0 0 0 0 -149.8251641615152 67.539665662560765 0 67.539665662560765 -185.93834552042699 0 0 0 0 -368.36996688721047 455.57570472151838 0 455.57570472151838 -444.09907945361692 0 0 0 0 -223.14228370635374 73.806142971985537 0 73.806142971985537 -73.641978911022306 0 0 0 0 -322.78904145531124 224.34265703661049 0 224.34265703661049 -223.60795707806483 0 0 0 0 -23.478387368154472 -66.971216449420353 0 -66.971216449420353 -40.345860674191954 0 0 0 0 -0.22378578095730894 -0.23834922943870573 0 -0.23834922943870573 16.59955523391978 0 0 0 0 -306.13211670686724 42.059871794763694 0 42.059871794763694 23.628768824015879 0 0 0 0 1118.5054090062531 487.86805149784777 0 487.86805149784777 208.58601058177919 0 0 0 0 -51.842145054151842 -104.29674003020045 0 -104.29674003020045 -72.041660306357016 0 0 0 0 -55.374028897467724 -105.23236399644577 0 -105.23236399644577 3.7808417938194907 0 0 0 0 -78.58689163065867 -26.4300039043396 0 -26.4300039043396 37.666779536441027 0 0 0 0 -104.48361087683043 61.920480071591555 0 61.920480071591555 107.28254685459524 0 0 0 0 -341.72835726467747 204.20604457615264 0 204.20604457615264 202.3540631689666 0 0 0 0 229.38985613777368 186.22307982603706 0 186.22307982603706 152.94128116103093 0 0 0 0 -835.73883853786629 -214.72365970501369 0 -214.72365970501369 158.49503530152288 0 0 0 0 -678.6819588031376 115.57811929356012 0 115.57811929356012 252.75876994863029 0 0 0 0 579.73713043256612 605.01599405244724 0 605.01599405244724 522.53061139871716 0 0 0 0 -2.6782614543133221 3.7686051946130252 0 3.7686051946130252 2.6329809120355989 0 0 0 0 -450.70623013821569 -82.265196072870822 0 -82.265196072870822 92.356251159675594 0 0 0 0 -381.55358521399938 20.469303391159812 0 20.469303391159812 71.867600854648117 0 0 0 0 -379.82006684403314 55.158859116834719 0 55.158859116834719 -26.246505968869315 0 0 0 0 -376.67985653170098 -147.61857103783186 0 -147.61857103783186 -187.42834547465463 0 0 0 0 -0.64437614628992357 0.78985325579497889 0 0.78985325579497889 5.6327948403426849 0 0 0 0 1197.5220509533024 514.04432042577992 0 514.04432042577992 -74.935214177049602 0 0 0 0 -440.09152594222542 120.88604467436562 0 120.88604467436562 -21.830638620354875 0 0 0 0 378.58422591087583 480.85435533178907 0 480.85435533178907 612.09677756081464 0 0 0 0 -6.1114496372688389 8.5510651187735043 0 8.5510651187735043 1.8883968983849151 0 0 0 0 -451.1456772517131 -39.338819233518734 0 -39.338819233518734 94.347355543627145 0 0 0 0 -371.05560388807726 -89.514248484684742 0 -89.514248484684742 108.74667172057525 0 0 0 0 -280.71390563132081 4.2977914696220978 0 4.2977914696220978 107.13880244012307 0 0 0 0 -384.74034318155827 -1.8622415099252976 0 -1.8622415099252976 116.739432128918 0 0 0 0 -195.01036916860812 70.163565813415744 0 70.163565813415744 92.805226418949132 0 0 0 0 -298.33218381519038 78.163070517394218 0 78.163070517394218 68.765545976109934 0 0 0 0 -293.55897829647859 -13.701351186700435 0 -13.701351186700435 27.595443084323051 0 0 0 0 -1531.7288548712204 39.120155236373648 0 39.120155236373648 408.10447459535226 0 0 0 0 -1280.5994398251914 178.40648617703937 0 178.40648617703937 423.34357286894465 0 0 0 0 -1861.2497750705679 -266.94103492517115 0 -266.94103492517115 607.25257292333299 0 0 0 0 -2155.2722022233825 572.16783953698109 0 572.16783953698109 299.33207610436511 0 0 0 0 -776.54869926427637 405.93058599040705 0 405.93058599040705 -56.241700106947974 0 0 0 0 -1304.2266731952375 456.97961783387012 0 456.97961783387012 199.88922202873255 0 0 0 0 -1015.0883344124632 238.68210519057266 0 238.68210519057266 301.40703497580034 0 0 0 0 -599.15601062839801 276.99237333960963 0 276.99237333960963 -48.129138271684496 0 0 0 0 -599.17349646515925 276.97034151934167 0 276.97034151934167 -29.558080651231649 0 0 0 0 -451.88308047642022 104.80391232761576 0 104.80391232761576 166.27085143188287 0 0 0 0 -813.46350322187936 253.45974608492816 0 253.45974608492816 580.61197796608212 0 0 0 0 -348.78845234439359 487.59214161708906 0 487.59214161708906 358.43381630898921 0 0 0 0 184.39411060400198 103.72635610343536 0 103.72635610343536 -2.1265762971142976 0 0 0 0 -797.10616105441295 267.09364794056364 0 267.09364794056364 279.10997375102374 0 0 0 0 -1128.9847950810708 129.31998205391346 0 129.31998205391346 396.02432171596683 0 0 0 0 -838.32045965192265 245.8002719321712 0 245.8002719321712 315.61486479819018 0 0 0 0 -1083.4214376744294 52.351939167123874 0 52.351939167123874 362.54070416603577 0 0 0 0 -994.45231674839306 238.37497935363854 0 238.37497935363854 122.22832650147689 0 0 0 0 -1001.3267993821701 135.40284736398416 0 135.40284736398416 212.01543341684464 0 0 0 0 -988.2635336856074 110.9835043846698 0 110.9835043846698 216.46695291941887 0 0 0 0 -943.58534541852168 51.093640512180173 0 51.093640512180173 112.55322510217161 0 0 0 0 -492.07008905275234 66.010861497551332 0 66.010861497551332 -31.669264452243169 0 0 0 0 -797.14840230094524 179.03669066913972 0 179.03669066913972 231.3968990852045 0 0 0 0 -524.93598206606475 184.84952321379615 0 184.84952321379615 125.26773720249912 0 0 0 0 -473.64418892489357 41.652191223132718 0 41.652191223132718 -3.8079746693347261 0 0 0 0 -618.58065716611509 -113.50721014529711 0 -113.50721014529711 0.46029925567063401 0 0 0 0 -925.9094239380338 203.69895621600773 0 203.69895621600773 -125.13513018630329 0 0 0 0 -236.89287025271551 -38.512830496332015 0 -38.512830496332015 60.836659521703268 0 0 0 0 -176.47346823779299 36.32121100938275 0 36.32121100938275 111.21117731446266 0 0 0 0 -266.28781207417433 -8.1013364939065013 0 -8.1013364939065013 113.96689101715037 0 0 0 0 -240.4331136013534 -53.628723269731154 0 -53.628723269731154 108.28753946072754 0 0 0 0 -309.74767022247624 -81.080704139216948 0 -81.080704139216948 97.447408695687955 0 0 0 0 66.782494872957614 455.6910994222863 0 455.6910994222863 195.81425178489644 0 0 0 0 -7.3834026884092285 10.950288110648284 0 10.950288110648284 -4.5337198751046008 0 0 0 0 -7.7884985994918381 1.8918279433025571 0 1.8918279433025571 0.95706497311281424 0 0 0 0 -669.63156468312036 -549.33224846086455 0 -549.33224846086455 -138.54397366254364 0 0 0 0 -1191.101256481681 233.5052321431059 0 233.5052321431059 958.45946542268405 0 0 0 0 -33.071312623185804 683.10144037229634 0 683.10144037229634 504.63150958971352 0 0 0 0 143.06142902437568 -37.379219653134442 0 -37.379219653134442 39.219420857631178 0 0 0 0 -32.081874324653654 -112.56614247109513 0 -112.56614247109513 255.17641581368434 0 0 0 0 -180.51910865224818 -204.98638128108576 0 -204.98638128108576 319.46154622555719 0 0 0 0 -160.09778511262448 130.04824073001612 0 130.04824073001612 540.16063553379161 0 0 0 0 -337.96576033355814 -36.979267673835693 0 -36.979267673835693 261.66563299864703 0 0 0 0 -182.53838727866287 39.052712304770353 0 39.052712304770353 138.66563528548886 0 0 0 0 -17.753503484100037 5.1166744437768195 0 5.1166744437768195 0.94469472188473835 0 0 0 0 -80.889842266453343 -6.8800158490121248 0 -6.8800158490121248 117.39199818507404 0 0 0 0 -3.5893155914903971 -3.7362177356969575 0 -3.7362177356969575 10.122240579726657 0 0 0 0 -21.995065702712807 7.6314561761863686 0 7.6314561761863686 2.255344496752663 0 0 0 0 -50.357326987601482 2.9109730477914582 0 2.9109730477914582 83.696185084947047 0 0 0 0 38.159047902940074 -73.493552945075749 0 -73.493552945075749 14.868149995845329 0 0 0 0 395.16005751682678 -239.8434885191084 0 -239.8434885191084 74.485298217517197 0 0 0 0 -35.602763364818856 25.769450248953273 0 25.769450248953273 -11.967350384096269 0 0 0 0 -0.48114727229203069 -1.0175102963494851 0 -1.0175102963494851 3.4813393272328153 0 0 0 0 -872.45566293743104 -943.76988539707327 0 -943.76988539707327 7.6269946249221903 0 0 0 0 -1297.1649275803588 -610.71363867302603 0 -610.71363867302603 -225.00198557935073 0 0 0 0 -121.54839822821668 -667.15960152768434 0 -667.15960152768434 370.39776582669072 0 0 0 0 210.92420099075025 144.27901781895002 0 144.27901781895002 -77.497380696350547 0 0 0 0 296.78036709686421 -193.40622872483982 0 -193.40622872483982 -258.46246695760965 0 0 0 0 -183.28896897848608 -26.144297828980143 0 -26.144297828980143 -95.19472989806377 0 0 0 0 -71.42956095145928 -371.81176778219287 0 -371.81176778219287 -185.70853856665917 0 0 0 0 -671.30174074696333 -17.635478796418511 0 -17.635478796418511 -15.610568850243453 0 0 0 0 -332.54524270466027 -397.6697788747374 0 -397.6697788747374 -52.564203134131276 0 0 0 0 -291.2447063367681 -217.45205089928876 0 -217.45205089928876 -29.395272972203202 0 0 0 0 -464.69485496960624 366.38876510100738 0 366.38876510100738 37.919214648322551 0 0 0 0 -43.43928964945691 32.874045051835736 0 32.874045051835736 -15.452731278393806 0 0 0 0 -597.40315727883535 -336.94176656974832 0 -336.94176656974832 -177.73585315700859 0 0 0 0 -607.98166923956069 -353.83522616713935 0 -353.83522616713935 -191.89701205046549 0 0 0 0 -5.242998900491223 0.0080120876646141426 0 0.0080120876646141426 4.4166718465500274 0 0 0 0 -6.4948463417791373 3.7308070173995107 0 3.7308070173995107 8.1632874612573829 0 0 0 0 159.88944508367467 113.86799222429227 0 113.86799222429227 30.744107159162013 0 0 0 0 -734.90051314209904 184.79658707674389 0 184.79658707674389 -31.626471064908401 0 0 0 0 -734.37040147352218 212.29325261628026 0 212.29325261628026 49.034762929012686 0 0 0 0 -172.90194368669108 -382.3965581154207 0 -382.3965581154207 -130.41904692170874 0 0 0 0 -384.61023308761651 -300.82436794447403 0 -300.82436794447403 20.067643470803432 0 0 0 0 -446.80257097602316 6.6466792267401615 0 6.6466792267401615 497.55320971503625 0 0 0 0 192.05973834677638 313.22028607560253 0 313.22028607560253 169.87400725999123 0 0 0 0 -913.13467771046362 -135.98481304677216 0 -135.98481304677216 138.9831239058467 0 0 0 0 82.935250996308241 102.12685964221691 0 102.12685964221691 83.514808176835686 0 0 0 0 66.680041088819053 62.923417072968732 0 62.923417072968732 35.257564383551426 0 0 0 0 -16.235474285764212 120.29180436237721 0 120.29180436237721 45.361150492182787 0 0 0 0 -81.659054007879604 38.049398439639845 0 38.049398439639845 70.936684396181136 0 0 0 0 -144.2550364646504 24.328551345685355 0 24.328551345685355 -17.58596064925041 0 0 0 0 -152.98501001367003 70.552619593565396 0 70.552619593565396 74.306771054356432 0 0 0 0 -3.440903257120226 73.692465217208792 0 73.692465217208792 20.905293415918095 0 0 0 0 58.552107286108367 77.5686162686643 0 77.5686162686643 47.983843714786417 0 0 0 0 -115.64474992150281 17.859712130888056 0 17.859712130888056 64.972422358865515 0 0 0 0 -122.27416654896342 92.677759003336064 0 92.677759003336064 75.297650116326622 0 0 0 0 28.827307613913945 130.23938584263669 0 130.23938584263669 103.79158943665834 0 0 0 0 94.376042260984832 61.544093697417111 0 61.544093697417111 66.428223678631184 0 0 0 0 5.4050071882957127 118.17679405479112 0 118.17679405479112 52.595899888346821 0 0 0 0 -58.435197285042022 -5.1172759716648368 0 -5.1172759716648368 6.015893201309666 0 0 0 0 -7.697368230543157 -19.477289208034463 0 -19.477289208034463 5.1187199570249762 0 0 0 0 -510.90846199419411 -193.06584455662806 0 -193.06584455662806 -47.510613250006827 0 0 0 0 -30.729694237521429 -20.1115468354018 0 -20.1115468354018 3.3712339545447678 0 0 0 0 -69.610654985513065 -8.5586366706514578 0 -8.5586366706514578 5.1641530336295318 0 0 0 0 30.815794272653875 -9.9292233337227742 0 -9.9292233337227742 -28.089008538220014 0 0 0 0 -89.979741153267241 -16.7000826875543 0 -16.7000826875543 16.340640661140128 0 0 0 0 -14.393796481088181 -3.9142441242347843 0 -3.9142441242347843 4.390817644404974 0 0 0 0 -44.396818323170528 4.8968233807981179 0 4.8968233807981179 8.3212316957744861 0 0 0 0 -59.014730959332155 66.715123959885617 0 66.715123959885617 58.026704616794106 0 0 0 0 -140.48555652586219 -1.8081790362695287 0 -1.8081790362695287 77.689115160175618 0 0 0 0 -40.083004476666247 -32.445780384853272 0 -32.445780384853272 -26.33409852645817 0 0 0 0 -90.594709295639404 18.486079900407049 0 18.486079900407049 73.812009777516323 0 0 0 0 -21.689393352038678 49.682412460151525 0 49.682412460151525 47.104447615940387 0 0 0 0 -33.872979129592409 3.576357015715157 0 3.576357015715157 8.3299555161484431 0 0 0 0 5.3374471677694544 22.235707679512245 0 22.235707679512245 7.5429614872805564 0 0 0 0 -3.0126316064777399 0.60424353547336906 0 0.60424353547336906 1.014202353825878 0 0 0 0 -6.3048812907419602 -1.6902357924309728 0 -1.6902357924309728 0.19907529373655386 0 0 0 0 -593.3545395294168 141.13422916173676 0 141.13422916173676 -30.517590297495644 0 0 0 0 -38.284475234103411 -76.270980467064135 0 -76.270980467064135 -79.733742751122918 0 0 0 0 -134.12694946367992 -196.30768144517992 0 -196.30768144517992 -187.8123215725941 0 0 0 0 -231.52965232495626 -173.50005284696527 0 -173.50005284696527 -18.243939577975141 0 0 0 0 -238.99634872310344 -164.15382724397904 0 -164.15382724397904 -22.656956141962176 0 0 0 0 -310.29512272908687 -185.22765701043454 0 -185.22765701043454 -15.05960661751655 0 0 0 0 -329.29601277495794 -86.325716363125352 0 -86.325716363125352 -19.084499918185656 0 0 0 0 -41.962670144778102 32.897573608672793 0 32.897573608672793 -16.895095910625749 0 0 0 0 -211.39969922866112 -32.842738701330745 0 -32.842738701330745 -121.64281685885771 0 0 0 0 -156.4361660754912 -117.45186159875959 0 -117.45186159875959 -31.968604101076153 0 0 0 0 -193.8578878891658 -23.091934500644335 0 -23.091934500644335 12.322026516080356 0 0 0 0 -135.6280294289927 54.652915475958508 0 54.652915475958508 13.626048092500469 0 0 0 0 -162.55989447966931 -90.711149235832409 0 -90.711149235832409 -53.681006461284596 0 0 0 0 -154.53349115528772 94.679634888922408 0 94.679634888922408 -64.858874317172649 0 0 0 0 38.133589287530413 17.335427407802399 0 17.335427407802399 -24.102524579172609 0 0 0 0 -7.3355519101233293 1.9922568868361026 0 1.9922568868361026 9.5918795009492381 0 0 0 0 -36.679939804035257 -251.06805407004038 0 -251.06805407004038 -189.59550526103203 0 0 0 0 25.925124121220506 -63.718178710998245 0 -63.718178710998245 -84.230230207142085 0 0 0 0 0.75924186019030704 1.9258009972101071 0 1.9258009972101071 2.5877317805923674 0 0 0 0 -264.7854589012004 29.806634758373775 0 29.806634758373775 -28.222102648195232 0 0 0 0 -51.29402454359024 -172.95439279921175 0 -172.95439279921175 81.482068252639095 0 0 0 0 -33.7029449650597 27.505046009569682 0 27.505046009569682 -15.516746467286778 0 0 0 0 260.3468582425719 769.13549133703964 0 769.13549133703964 49.164657070539761 0 0 0 0 -372.24096661926524 -253.5242241770693 0 -253.5242241770693 -139.74071240207721 0 0 0 0 -679.22979044915405 -214.10430838284947 0 -214.10430838284947 405.81173915777254 0 0 0 0 -818.13084019404403 -9.9217384450716963 0 -9.9217384450716963 318.80328146820466 0 0 0 0 -942.10165881358591 376.83169517090187 0 376.83169517090187 168.29300209970643 0 0 0 0 -557.41284852965418 -8.3514775955127334 0 -8.3514775955127334 299.3630836067623 0 0 0 0 -116.96759155613927 -0.65390768310317071 0 -0.65390768310317071 214.21432562186055 0 0 0 0 -604.88070206161137 109.92202080014636 0 109.92202080014636 230.10740592697584 0 0 0 0 -456.32752640861736 87.312273083119635 0 87.312273083119635 49.309816339309691 0 0 0 0 -681.83562343833751 69.017157996110654 0 69.017157996110654 254.10740494381434 0 0 0 0 -430.69670073230373 13.292491461583268 0 13.292491461583268 222.20622488718709 0 0 0 0 -173.49162832938964 81.630193655471885 0 81.630193655471885 185.66444706795664 0 0 0 0 -183.4759253096272 27.385412577827083 0 27.385412577827083 259.15106841626675 0 0 0 0 -179.31718584756118 67.784574594074002 0 67.784574594074002 352.40257029590248 0 0 0 0 68.555238803690372 92.138873862447326 0 92.138873862447326 212.37763553304831 0 0 0 0 632.74014432968261 205.27871367948455 0 205.27871367948455 -32.559325254603209 0 0 0 0 -49.812787153541876 267.83591407951747 0 267.83591407951747 341.99365714012492 0 0 0 0 532.28384945780999 651.72152246366261 0 651.72152246366261 417.96128853949085 0 0 0 0 -21.242751565518056 18.075084330151121 0 18.075084330151121 -10.985961513570359 0 0 0 0 136.23723582729235 397.7213701806279 0 397.7213701806279 474.3140109201704 0 0 0 0 -90.534792261278199 132.45882616731615 0 132.45882616731615 403.86379929775649 0 0 0 0 624.53084781954931 283.99895832521543 0 283.99895832521543 315.38360027947056 0 0 0 0 641.21113691825121 636.3714658070337 0 636.3714658070337 404.60056769589028 0 0 0 0 -6.7965219539740573 6.0781790050772742 0 6.0781790050772742 -4.3316470198986501 0 0 0 0 724.42351206614512 487.06902372055811 0 487.06902372055811 247.95011855732901 0 0 0 0 -1168.7353549339059 -428.42359804815806 0 -428.42359804815806 120.69407397315808 0 0 0 0 453.54755126611053 431.65666519739807 0 431.65666519739807 426.52534610814837 0 0 0 0 -131.0235024922149 -41.061940710324961 0 -41.061940710324961 -224.81971239160794 0 0 0 0 -507.41488454622595 -217.01055958371808 0 -217.01055958371808 -160.19551156266425 0 0 0 0 11.672855342917501 -40.597491127706235 0 -40.597491127706235 232.70201412932238 0 0 0 0 -56.428380213821583 -81.839610869027638 0 -81.839610869027638 257.59806038682245 0 0 0 0 9.4726851793366222 22.587314883454383 0 22.587314883454383 225.9127191296775 0 0 0 0 -75.859921778484477 -25.964842536230435 0 -25.964842536230435 153.4720131242193 0 0 0 0 -85.437904598964451 8.6298234542373393 0 8.6298234542373393 233.36301839303968 0 0 0 0 -233.89742012726856 33.632072388318193 0 33.632072388318193 232.55525849627008 0 0 0 0 -97.259592783428161 21.71455974617129 0 21.71455974617129 128.17228009691826 0 0 0 0 -294.79046273786025 -27.781394578267054 0 -27.781394578267054 171.75105464485023 0 0 0 0 -257.22248850886535 54.304326462153767 0 54.304326462153767 130.05848023397175 0 0 0 0 -220.84739810923929 7.0080169343636953 0 7.0080169343636953 10.271989161394231 0 0 0 0 -172.58741877481862 100.1698012028728 0 100.1698012028728 105.61368097770719 0 0 0 0 -212.16520392507027 -24.595918631025597 0 -24.595918631025597 137.08111706232739 0 0 0 0 63.313443068808738 151.59341895511261 0 151.59341895511261 144.99008990792572 0 0 0 0 -96.582361435336168 -1.1455995462165305 0 -1.1455995462165305 255.17336287173202 0 0 0 0 147.44671315652886 60.168022642071264 0 60.168022642071264 67.200329125281996 0 0 0 0 -1.192693526406158 1.9379987467636868 0 1.9379987467636868 3.506784483564882 0 0 0 0 -726.28486805502325 -412.4787187280308 0 -412.4787187280308 248.07772063739139 0 0 0 0 355.29248804679037 275.12032476896502 0 275.12032476896502 240.81054227631648 0 0 0 0 -540.11806234714459 -286.79326418076744 0 -286.79326418076744 301.3743619626166 0 0 0 0 -10.402565650017586 -2.2532184071472514 0 -2.2532184071472514 -0.31869257607481671 0 0 0 0 -15.157190747750064 -145.80736882571091 0 -145.80736882571091 222.53931637771348 0 0 0 0 -582.35402518334604 504.52164362341318 0 504.52164362341318 -272.59944242535676 0 0 0 0 -17.924913739557269 53.286895199930541 0 53.286895199930541 483.34426033486488 0 0 0 0 -10.824590032854758 -108.44992377163908 0 -108.44992377163908 328.74287563215148 0 0 0 0 -173.92246532106287 23.1109121166769 0 23.1109121166769 56.169051079515157 0 0 0 0 -137.63100925773315 -106.87055752053874 0 -106.87055752053874 115.96443446016838 0 0 0 0 -142.99008253832261 195.2255430269428 0 195.2255430269428 -68.893216319116618 0 0 0 0 -636.97694755953989 180.47493643055077 0 180.47493643055077 103.03789388561654 0 0 0 0 -629.1454122508901 129.03116529372892 0 129.03116529372892 273.543993716768 0 0 0 0 -484.88587249688487 97.278115260908635 0 97.278115260908635 143.56159238760665 0 0 0 0 -614.12449622688246 10.737598422829706 0 10.737598422829706 129.68647287254316 0 0 0 0 -349.66926356023077 -105.59770817323965 0 -105.59770817323965 5.135998175941495 0 0 0 0 3.6664023280281981 -28.43881000759302 0 -28.43881000759302 -54.384555745131365 0 0 0 0 -27.896719561038562 -8.081245623659429 0 -8.081245623659429 -2.4141824684477484 0 0 0 0 -41.971842596226622 -15.476558749815169 0 -15.476558749815169 0.77239482198821108 0 0 0 0 -54.953411484855678 -0.5680489365286121 0 -0.5680489365286121 122.22683919684914 0 0 0 0 -3.4415145982028341 -7.779392246269798 0 -7.779392246269798 2.4796943808801082 0 0 0 0 2.4047327395192042 -76.642975425218538 0 -76.642975425218538 38.281456264203825 0 0 0 0 13.758591911865096 -21.553214535875668 0 -21.553214535875668 -30.557769143324549 0 0 0 0 -26.661518255904866 -35.467183449999084 0 -35.467183449999084 -8.9101835470655715 0 0 0 0 -20.93168897329258 -10.128067918079978 0 -10.128067918079978 -23.170471828521841 0 0 0 0 2.8833815870439254 -1.7068059766609087 0 -1.7068059766609087 -9.8584007394144937 0 0 0 0 -187.42303580855878 65.935825583037968 0 65.935825583037968 3.7563902975182941 0 0 0 0 -18.318985668483037 21.311914122446979 0 21.311914122446979 -5.5855045493754005 0 0 0 0 10.312349977643407 14.72564607926256 0 14.72564607926256 -9.7740965464313376 0 0 0 0 -5.9525805734627966 13.062803511747916 0 13.062803511747916 -68.6806844136363 0 0 0 0 -2.0264552424691451 -0.89727211647837346 0 -0.89727211647837346 1.5642171194673562 0 0 0 0 -166.33715994800309 -22.092285445537982 0 -22.092285445537982 -19.81342199301821 0 0 0 0 -18.638169454955005 -47.397838543079388 0 -47.397838543079388 -73.612081022542043 0 0 0 0 -459.08515107260001 -250.9413526967387 0 -250.9413526967387 -211.98348370385065 0 0 0 0 -164.94881036421066 -27.990601702931144 0 -27.990601702931144 -84.425203513542556 0 0 0 0 -877.12548145053893 19.28695966068517 0 19.28695966068517 134.60454841467663 0 0 0 0 -582.41687102721994 85.368038544259434 0 85.368038544259434 -289.35141343288342 0 0 0 0 -936.43533968323993 -78.220968243569189 0 -78.220968243569189 60.788622729881354 0 0 0 0 -3.8335755518661321 -2.93039403172605 0 -2.93039403172605 -0.80450063953660944 0 0 0 0 -861.03590342275129 -264.6427858869605 0 -264.6427858869605 -75.376681040482254 0 0 0 0 -60.592241979923074 -27.37918390815139 0 -27.37918390815139 -191.52102971755303 0 0 0 0 -238.44720579572231 142.04010894909061 0 142.04010894909061 -10.996092022622179 0 0 0 0 -11.952807707892688 -3.3773231268183035 0 -3.3773231268183035 -5.242332830216994 0 0 0 0 41.237792463906317 -194.50309369833366 0 -194.50309369833366 -76.648590659778222 0 0 0 0 -305.72840606663613 -62.472826572333496 0 -62.472826572333496 36.834937560940432 0 0 0 0 -50.447283408516341 30.847425014703049 0 30.847425014703049 -72.352728985815702 0 0 0 0 -750.1139314474226 -230.08235236691957 0 -230.08235236691957 -125.87053003711449 0 0 0 0 -383.77523081583365 104.51120864263305 0 104.51120864263305 -140.45827526091529 0 0 0 0 -302.71239905359153 132.41464187120715 0 132.41464187120715 92.489350780913838 0 0 0 0 -1139.3475055398999 -76.00023316164561 0 -76.00023316164561 219.47949556891967 0 0 0 0 -990.60508345715425 39.458946496107387 0 39.458946496107387 185.46527628761282 0 0 0 0 107.86055805313072 108.85952562756825 0 108.85952562756825 -137.91072817314705 0 0 0 0 -25.831931500005446 22.522462646694844 0 22.522462646694844 -16.109914927426754 0 0 0 0 -47.8316512694973 -6.7715808636861787 0 -6.7715808636861787 -1.5815323016663587 0 0 0 0 -168.32167533945903 -14.185360625182057 0 -14.185360625182057 -202.93232376875494 0 0 0 0 -59.691165691170681 9.7256011128621367 0 9.7256011128621367 -20.841286343372303 0 0 0 0 -238.0889828606239 -6.1190346727784686 0 -6.1190346727784686 -14.53961547651943 0 0 0 0 4.5703782973517324 -3.8353265056831605 0 -3.8353265056831605 -8.9083862363629311 0 0 0 0 -218.97506120154139 47.562287800025274 0 47.562287800025274 12.203450633051034 0 0 0 0 -130.01833593680931 11.854730588836901 0 11.854730588836901 -19.525329984556038 0 0 0 0 -37.193951443672177 -70.217326496019268 0 -70.217326496019268 -22.81846326991581 0 0 0 0 65.858157941552236 221.70927924680677 0 221.70927924680677 -242.94245555708267 0 0 0 0 -88.038134397817927 37.315562120066566 0 37.315562120066566 -20.490498673438374 0 0 0 0 -52.478881389995877 -56.440750942434533 0 -56.440750942434533 -8.615288930585848 0 0 0 0 1.2636713108622644 -21.100770624443157 0 -21.100770624443157 -4.822876672811617 0 0 0 0 -42.075345597902789 5.6386245324230106 0 5.6386245324230106 -21.017898360903729 0 0 0 0 -7.8612236173581049 2.2910834397164592 0 2.2910834397164592 -5.8579822605459739 0 0 0 0 -63.391521894818652 -37.397435707311161 0 -37.397435707311161 -32.92780265489273 0 0 0 0 -9.5836528993372827 -3.0973942317246452 0 -3.0973942317246452 -18.15841132965031 0 0 0 0 -69.788365337331697 -36.117551105003031 0 -36.117551105003031 -31.338997842278332 0 0 0 0 -11.744110848894714 -6.9355292952487702 0 -6.9355292952487702 -2.0790732883143974 0 0 0 0 -29.381869427373204 -16.065264595153621 0 -16.065264595153621 -12.204034469280487 0 0 0 0 -1.7559064404476494 0.49401327946525786 0 0.49401327946525786 -0.99331643823779103 0 0 0 0 -191.95566835664681 40.86211788513026 0 40.86211788513026 -94.031637206979212 0 0 0 0 -240.11668439439927 59.438464388212196 0 59.438464388212196 27.206136375179995 0 0 0 0 -319.52037705894782 44.480651980301218 0 44.480651980301218 35.053999650534934 0 0 0 0 -9.35773739903264 -2.0282481847148288 0 -2.0282481847148288 -0.017492321427893032 0 0 0 0 -218.81267035289693 84.537936677075777 0 84.537936677075777 9.163148521714902 0 0 0 0 -107.55063404087014 98.433604693501366 0 98.433604693501366 -6.723897682039933 0 0 0 0 -50.563316835054138 8.9518492655879527 0 8.9518492655879527 -34.656747046334203 0 0 0 0 -249.65376247695167 128.71301217455675 0 128.71301217455675 3.9011330152061419 0 0 0 0 -50.349824150189022 -34.511496357681153 0 -34.511496357681153 108.56398861847629 0 0 0 0 -52.273276698700101 -24.777856938050718 0 -24.777856938050718 84.668931835487456 0 0 0 0 -70.58896559847426 4.4165896779486502 0 4.4165896779486502 103.52093749443748 0 0 0 0 390.09607854115893 535.48101124614914 0 535.48101124614914 598.523730965504 0 0 0 0 -47.038247289993706 -7.3175257578777746 0 -7.3175257578777746 69.307032433373024 0 0 0 0 -48.427031588937744 12.360730034795665 0 12.360730034795665 4.636326470687882 0 0 0 0 391.10998843144262 611.27796454586587 0 611.27796454586587 538.11723393285024 0 0 0 0 429.51497652592661 587.96526260666724 0 587.96526260666724 468.03385284604519 0 0 0 0 492.45617667867555 531.51552768429883 0 531.51552768429883 517.96078963740911 0 0 0 0 -59.696233057833524 9.771296563978467 0 9.771296563978467 184.24085277329323 0 0 0 0 -7.1010358429424425 2.2443421925278102 0 2.2443421925278102 0.49075840757496536 0 0 0 0 372.57461796886264 480.37159553892343 0 480.37159553892343 550.83922880200407 0 0 0 0 0.33326549672806394 -3.9927321910438938 0 -3.9927321910438938 5.3233925721345532 0 0 0 0 6.7087120501646496 38.43534264479149 0 38.43534264479149 -217.28975535284735 0 0 0 0 -44.575582589675378 -23.20572770642525 0 -23.20572770642525 82.39549392365916 0 0 0 0 -26.425770526358637 -13.052952555376091 0 -13.052952555376091 32.793498874394842 0 0 0 0 -46.612191823883222 -20.334750744214034 0 -20.334750744214034 87.920819401224435 0 0 0 0 -5.0273875513803432 -55.83545606535921 0 -55.83545606535921 -61.788578306759803 0 0 0 0 -27.915397533558462 72.103341354092692 0 72.103341354092692 -139.87727860465654 0 0 0 0 -333.26861648570639 102.36690732616489 0 102.36690732616489 -51.691235481943295 0 0 0 0 -81.366747915890301 70.627082769480694 0 70.627082769480694 132.70157347808345 0 0 0 0 -132.22974691713716 79.613045994047525 0 79.613045994047525 -27.880955736826763 0 0 0 0 -117.88416848516817 -12.592672571417552 0 -12.592672571417552 -48.41949294683036 0 0 0 0 -11.927513546992941 36.25690806947182 0 36.25690806947182 50.487860361221465 0 0 0 0 -91.094688161551858 20.594654758185698 0 20.594654758185698 49.196503745228256 0 0 0 0 -313.88529053245929 -13.680928468442289 0 -13.680928468442289 73.166956432853112 0 0 0 0 -185.32612513403774 60.573079434793499 0 60.573079434793499 64.057654824131532 0 0 0 0 -391.12516023045646 81.425334519650278 0 81.425334519650278 -32.643284100970959 0 0 0 0 -563.99128533567364 -7.3696933297756004 0 -7.3696933297756004 85.360799666256526 0 0 0 0 -641.29742385532995 -55.829707436179888 0 -55.829707436179888 92.619844547294633 0 0 0 0 -984.2579897455247 -116.72096444347015 0 -116.72096444347015 86.774197560292393 0 0 0 0 -519.20205913644759 -88.042222421986253 0 -88.042222421986253 -64.952977456694612 0 0 0 0 -4.7057738255748465 -7.1447778326179696 0 -7.1447778326179696 3.2677228366886757 0 0 0 0 -517.43984060455659 222.88839641551067 0 222.88839641551067 -51.365881456043496 0 0 0 0 -982.10645590672334 9.8665679402353845 0 9.8665679402353845 128.20643837792386 0 0 0 0 -317.98530238720519 -146.04429719109021 0 -146.04429719109021 107.99674685549095 0 0 0 0 98.517180880447995 -62.17476969420477 0 -62.17476969420477 -10.908485742136804 0 0 0 0 -9.6134981037503167 -88.172922734680924 0 -88.172922734680924 -16.746989089067029 0 0 0 0 -116.72992880378047 -202.48987290213574 0 -202.48987290213574 -206.60670749317796 0 0 0 0 -24.642927824732386 -31.885009174085898 0 -31.885009174085898 -10.467705073054345 0 0 0 0 -25.507369231288976 -110.35814774704318 0 -110.35814774704318 93.000078157993812 0 0 0 0 -46.117233750305786 -24.938457248345912 0 -24.938457248345912 80.701000413937436 0 0 0 0 -41.951359479708593 -38.152558422996968 0 -38.152558422996968 -5.4628642040536466 0 0 0 0 49.738839915302378 -135.14801889393607 0 -135.14801889393607 -86.893405429593713 0 0 0 0 -67.082922372970643 -170.14851265258403 0 -170.14851265258403 19.179649241831157 0 0 0 0 -27.856632550669474 -58.70223259812019 0 -58.70223259812019 64.449099251949974 0 0 0 0 239.34449557190783 592.49095310897405 0 592.49095310897405 287.71544068186245 0 0 0 0 762.99448010506239 275.01748349863448 0 275.01748349863448 -793.32496939101725 0 0 0 0 187.26589420110486 -222.68036129235949 0 -222.68036129235949 -403.72300808867067 0 0 0 0 -376.86027063202346 -119.18584868380242 0 -119.18584868380242 -27.333724780045941 0 0 0 0 -312.74890568362389 -555.75202184311581 0 -555.75202184311581 -529.59184364562248 0 0 0 0 152.38685937618357 -63.57525062099603 0 -63.57525062099603 -66.524630315027935 0 0 0 0 128.98299006560819 -52.09196705885789 0 -52.09196705885789 19.445240288488776 0 0 0 0 45.370843128326669 85.111225005647555 0 85.111225005647555 69.100164714769619 0 0 0 0 69.826025499995012 71.614003797338029 0 71.614003797338029 -91.078814394531037 0 0 0 0 -43.194158176008443 -14.869779298205321 0 -14.869779298205321 22.237309008025917 0 0 0 0 -100.44953024231654 -145.46695551973835 0 -145.46695551973835 -33.587887730270268 0 0 0 0 -134.22132641378448 78.748456141526731 0 78.748456141526731 206.48232470206676 0 0 0 0 21.731519910277711 -37.417629871771368 0 -37.417629871771368 5.2904217779160376 0 0 0 0 -21.242722271210198 -23.003635350260527 0 -23.003635350260527 2.8863267694847767 0 0 0 0 99.478329901477537 19.892805838093494 0 19.892805838093494 38.523913177631812 0 0 0 0 -18.780228417625743 -30.024831344294746 0 -30.024831344294746 22.34820485604115 0 0 0 0 -849.95134616294786 509.60264935056239 0 509.60264935056239 8.3800017039675367 0 0 0 0 -11.17856655960248 -9.1165954998814751 0 -9.1165954998814751 -1.4563269789093383 0 0 0 0 -1595.3564617939019 82.694688828740254 0 82.694688828740254 -247.64413180351607 0 0 0 0 -1621.8233764724437 -244.32886241768301 0 -244.32886241768301 -396.51106503042047 0 0 0 0 115.11624061107113 -215.82645522335082 0 -215.82645522335082 -350.14538231738106 0 0 0 0 -1903.7770998764822 195.38638160898836 0 195.38638160898836 287.31655223066628 0 0 0 0 -2.7908223403667041 -13.957306319082454 0 -13.957306319082454 -23.383433623539862 0 0 0 0 -438.77252638307618 -749.98389835544936 0 -749.98389835544936 -644.13642944643652 0 0 0 0 -765.14685527459494 717.28791967563825 0 717.28791967563825 670.63255653595479 0 0 0 0 -4545.6962988873947 221.58324768350485 0 221.58324768350485 1508.1215019153778 0 0 0 0 -1670.8839101471094 -1178.4827791662651 0 -1178.4827791662651 -187.01110492359601 0 0 0 0 -425.99030641932859 -543.42881095680127 0 -543.42881095680127 -118.32154210551653 0 0 0 0 -431.34860367526926 -438.71766183059481 0 -438.71766183059481 149.15797850104491 0 0 0 0 -352.063287856442 -412.72021968760441 0 -412.72021968760441 -38.161059058029423 0 0 0 0 -33.419323717142774 20.717553585281202 0 20.717553585281202 -0.73612375722924028 0 0 0 0 -26.357949030815618 20.313397806799671 0 20.313397806799671 -0.29290974863967278 0 0 0 0 -312.31224843734526 -322.4416210356253 0 -322.4416210356253 -56.28616229381123 0 0 0 0 -215.13613636441187 -492.12270467324242 0 -492.12270467324242 -60.903931597309565 0 0 0 0 -258.08464112836737 -569.84575973916708 0 -569.84575973916708 -108.39989773689013 0 0 0 0 -380.32368311498431 -475.00015525362414 0 -475.00015525362414 -45.530943284207751 0 0 0 0 -380.78491332212434 -627.0102560688174 0 -627.0102560688174 -28.394228527504538 0 0 0 0 -205.83356447629922 -630.21991984470969 0 -630.21991984470969 -43.224132817838836 0 0 0 0 -261.88405067090207 -377.14700692362385 0 -377.14700692362385 -121.80572709427361 0 0 0 0 -328.65707032592036 -456.48734582826 0 -456.48734582826 24.818763488136028 0 0 0 0 -457.98413094604621 -204.63240452884202 0 -204.63240452884202 -130.38898705389602 0 0 0 0 -399.37242814966885 -324.55186610523742 0 -324.55186610523742 -3.5785365519859624 0 0 0 0 -932.16434945886067 -323.62734885004284 0 -323.62734885004284 -64.874705120852013 0 0 0 0 -736.22277758586006 -349.60341296504544 0 -349.60341296504544 -146.97360598688465 0 0 0 0 -702.46833242231514 -152.21710173247266 0 -152.21710173247266 -121.62656070501907 0 0 0 0 -462.25962020036968 -218.1234493291231 0 -218.1234493291231 -172.8200424718998 0 0 0 0 -368.74119596730452 -219.75388711363485 0 -219.75388711363485 -193.24687665272359 0 0 0 0 126.34578758313728 -202.6507702973613 0 -202.6507702973613 -391.08685406937457 0 0 0 0 -1837.604154962537 -302.85541295626444 0 -302.85541295626444 453.13885304691212 0 0 0 0 -726.06411649636721 -87.365534533858408 0 -87.365534533858408 -230.3220228663231 0 0 0 0 -693.27270782395863 -209.51521179472093 0 -209.51521179472093 -13.589485450942902 0 0 0 0 -490.92046841232514 -555.1270754700422 0 -555.1270754700422 -74.707194222619137 0 0 0 0 -391.48683777335464 -520.352035043147 0 -520.352035043147 -232.77434834898077 0 0 0 0 -257.35433741550514 -148.74368608761074 0 -148.74368608761074 -7.1927108197905909 0 0 0 0 -93.647793272717536 -355.85671214128035 0 -355.85671214128035 -253.02809549803851 0 0 0 0 -281.63879225940036 -182.16141393865109 0 -182.16141393865109 -40.698777301687642 0 0 0 0 -162.28452451385238 -608.49439722071202 0 -608.49439722071202 432.76594276070136 0 0 0 0 8.804161062747994 -3.1079767227325092 0 -3.1079767227325092 -5.7531082383995553 0 0 0 0 -429.14045168190205 34.311994539417128 0 34.311994539417128 -38.024275934447132 0 0 0 0 -227.412269253673 112.50252992965976 0 112.50252992965976 -33.314154567981859 0 0 0 0 313.53155736389635 61.629718007150245 0 61.629718007150245 186.32894956824657 0 0 0 0 328.40552162018139 -219.40106654202191 0 -219.40106654202191 -30.073193529853597 0 0 0 0 18.950368322766735 -204.9862245734148 0 -204.9862245734148 -23.546907233061575 0 0 0 0 -751.41985651476716 -507.54907480651855 0 -507.54907480651855 -230.39620903310424 0 0 0 0 -22.224877438385214 -5.2133270758695431 0 -5.2133270758695431 -3.9151404450992864 0 0 0 0 3.3536615544508095 -147.98560973382087 0 -147.98560973382087 108.48581695165785 0 0 0 0 68.06606062623905 -120.27188145874788 0 -120.27188145874788 16.726967772006446 0 0 0 0 -158.75293676662113 -21.328796946849252 0 -21.328796946849252 -6.6654512320092181 0 0 0 0 -38.295389906961645 113.64505509168339 0 113.64505509168339 -246.1282085972116 0 0 0 0 -19.329402308212593 37.112996850895115 0 37.112996850895115 58.645647316689065 0 0 0 0 -67.534419974424964 -9.9589906240357777 0 -9.9589906240357777 212.64444769913734 0 0 0 0 8.1952635584915612 4.6740074759606145 0 4.6740074759606145 2.9314816898590195 0 0 0 0 -35.855529723914515 -105.97575562501561 0 -105.97575562501561 475.36137311487937 0 0 0 0 -40.032069879896881 -147.12968858331078 0 -147.12968858331078 293.1032607244772 0 0 0 0 36.990733427031955 -24.487632658762209 0 -24.487632658762209 404.55530031882927 0 0 0 0 -104.29822553753183 15.406617249182091 0 15.406617249182091 -16.281312295244788 0 0 0 0 -60.852648312626116 -0.99113455941551365 0 -0.99113455941551365 -12.47853583088181 0 0 0 0 -89.699445798898523 19.035165154604329 0 19.035165154604329 -10.676145749832358 0 0 0 0 -104.44308602328965 -8.7241649037637217 0 -8.7241649037637217 -38.816114589557401 0 0 0 0 -163.28426815283456 -13.027495672210534 0 -13.027495672210534 -2.4770648810408602 0 0 0 0 -163.73650294722029 -16.092871295553778 0 -16.092871295553778 11.258870799136275 0 0 0 0 -258.39502201095456 -65.969944501932332 0 -65.969944501932332 -14.463607160753781 0 0 0 0 -119.96470077021513 -35.861148958386366 0 -35.861148958386366 -79.733044273600171 0 0 0 0 -75.351897556742188 3.5131259467816562 0 3.5131259467816562 -57.639265726265876 0 0 0 0 -429.40690956412436 100.40230108621654 0 100.40230108621654 122.40268327124249 0 0 0 0 -173.76267579791602 36.756528619795517 0 36.756528619795517 -55.971158573660432 0 0 0 0 -18.138290141504569 6.3976424635442619 0 6.3976424635442619 -3.8485302635952259 0 0 0 0 -62.721296294316993 -39.624483903054411 0 -39.624483903054411 -3.0551484270190947 0 0 0 0 -46.954333884310373 27.798860937614904 0 27.798860937614904 -12.981704044996647 0 0 0 0 -76.252273573718412 39.681431288081058 0 39.681431288081058 -14.67647123964889 0 0 0 0 -67.632378241141851 30.679933207402883 0 30.679933207402883 -49.673697146114137 0 0 0 0 -33.076206419678783 23.244275339946853 0 23.244275339946853 -35.164020003104497 0 0 0 0 -626.5088179196382 -44.755152068012421 0 -44.755152068012421 -303.91635297248013 0 0 0 0 -424.37872029716027 -488.07184593170177 0 -488.07184593170177 157.91978361892325 0 0 0 0 -1616.2633643486943 -153.91334942995542 0 -153.91334942995542 98.956530202171962 0 0 0 0 -1577.4763395784512 183.53707455108923 0 183.53707455108923 127.86426883991862 0 0 0 0 -112.5422817906599 -240.07608635229963 0 -240.07608635229963 -492.50898889142172 0 0 0 0 -23.446064788216958 30.161633528134953 0 30.161633528134953 -22.486782536186425 0 0 0 0 -190.46487215738784 456.97691771126006 0 456.97691771126006 -153.62449826077261 0 0 0 0 -2063.2491400379345 -2747.8490684773324 0 -2747.8490684773324 -889.49801516019761 0 0 0 0 -28.991128642544936 8.7886885934640304 0 8.7886885934640304 -16.463980912238185 0 0 0 0 -64.211105529260749 13.633959577322003 0 13.633959577322003 -6.2433943124556208 0 0 0 0 -43.378221433816563 29.303205053596059 0 29.303205053596059 -13.546311434448917 0 0 0 0 -33.361158380139386 7.4815781671804871 0 7.4815781671804871 -20.940358974887204 0 0 0 0 -29.268924102179881 33.480783984130539 0 33.480783984130539 -0.57755517489204067 0 0 0 0 -66.600198342741351 16.452543226474518 0 16.452543226474518 -11.588708634279101 0 0 0 0 -18.434948481393803 21.188544671035743 0 21.188544671035743 -30.020558923468343 0 0 0 0 -14.873987896396017 11.962939168233412 0 11.962939168233412 -11.70354147996273 0 0 0 0 -16.6064619825911 39.033766806480912 0 39.033766806480912 -21.349182328875031 0 0 0 0 -50.550276781053981 17.517155770288809 0 17.517155770288809 -16.18015636794064 0 0 0 0 -41.277823654207168 37.256663783763543 0 37.256663783763543 -14.93881662514832 0 0 0 0 -92.211086272993271 22.868621570299638 0 22.868621570299638 60.942045468813376 0 0 0 0 56.711557165705017 59.937010751370508 0 59.937010751370508 -100.89506161204008 0 0 0 0 -41.105949938741105 2.0283779581059207 0 2.0283779581059207 -14.177717210750416 0 0 0 0 -24.60129030355175 18.563934063300096 0 18.563934063300096 -4.6565294861094788 0 0 0 0 -43.773086700963177 -1.7404601542966702 0 -1.7404601542966702 -19.501133680138992 0 0 0 0 12.376898233536849 17.245215939776244 0 17.245215939776244 -41.476795416625464 0 0 0 0 -58.591795545289642 -0.66070155087345483 0 -0.66070155087345483 -10.106489171119392 0 0 0 0 -4.5448485608969236 11.94305342482734 0 11.94305342482734 -10.84666677133464 0 0 0 0 -50.547105636826018 8.7232879394623524 0 8.7232879394623524 -9.7035268998715765 0 0 0 0 -64.062770858086878 33.429222245385972 0 33.429222245385972 -21.833506507769926 0 0 0 0 -14.544273990337388 -8.7112135301040325 0 -8.7112135301040325 -8.7716248931455993 0 0 0 0 -45.815903526483453 32.021049826211311 0 32.021049826211311 16.604854765077107 0 0 0 0 -70.530105450110568 5.9600559934924604 0 5.9600559934924604 -12.429051317895301 0 0 0 0 -42.249396902108856 27.335386805797498 0 27.335386805797498 -40.717662264221872 0 0 0 0 -90.97848171897931 35.5479974547643 0 35.5479974547643 -43.593366456068907 0 0 0 0 -162.51771737823583 33.257288459621122 0 33.257288459621122 -1.186259165773663 0 0 0 0 -107.51967720469111 11.209006682747713 0 11.209006682747713 -6.4929120288725244 0 0 0 0 -174.17729296810285 7.0997220243443735 0 7.0997220243443735 9.3546400656241531 0 0 0 0 -114.93980633298634 23.880212993113673 0 23.880212993113673 -0.93635169191475143 0 0 0 0 -120.9008558719288 5.9737273377122619 0 5.9737273377122619 3.0729779931207304 0 0 0 0 -114.23080493493762 -4.777754693352108 0 -4.777754693352108 -8.4825858357535253 0 0 0 0 -67.544684078393402 19.287414923022425 0 19.287414923022425 -13.901056753900775 0 0 0 0 -228.77763670658896 -17.018174758284658 0 -17.018174758284658 24.696984937846537 0 0 0 0 -174.63938107442937 6.8725932059437582 0 6.8725932059437582 34.250884240624146 0 0 0 0 -221.59037772942247 24.699073692165257 0 24.699073692165257 27.482534740456686 0 0 0 0 -162.61141925384436 34.130717147598261 0 34.130717147598261 6.4740629275929678 0 0 0 0 -215.6294505794358 68.095097358920611 0 68.095097358920611 -15.216577004708597 0 0 0 0 -215.79389403514506 44.485382660499454 0 44.485382660499454 18.315299225261697 0 0 0 0 -186.61187288021756 5.7924136132314743 0 5.7924136132314743 11.081675634643034 0 0 0 0 -262.91247992546414 37.15491058995849 0 37.15491058995849 41.363344154224251 0 0 0 0 -217.86313469172273 13.704209754000658 0 13.704209754000658 47.743896178975774 0 0 0 0 -222.71237520890281 -36.547011428136102 0 -36.547011428136102 47.454396275676118 0 0 0 0 -131.1351138545856 -39.172345057258553 0 -39.172345057258553 1.8650385713717696 0 0 0 0 -82.306750924813969 -73.124074044110785 0 -73.124074044110785 35.021125106607769 0 0 0 0 -53.935587198897167 -44.104545193655767 0 -44.104545193655767 -0.35094520907080096 0 0 0 0 -221.5470864756162 33.383832821869476 0 33.383832821869476 42.607565433288983 0 0 0 0 -169.52599152553739 29.412876454148318 0 29.412876454148318 35.51034615228491 0 0 0 0 13.820352425704186 -57.506737374046679 0 -57.506737374046679 -238.01826778474788 0 0 0 0 -268.19560418555648 22.734560246318438 0 22.734560246318438 40.887971102547453 0 0 0 0 -54.578141773252547 -45.140497766680369 0 -45.140497766680369 -1.2789055674689003 0 0 0 0 -148.21310972509764 -1.5528232581568773 0 -1.5528232581568773 3.163731494501917 0 0 0 0 -85.964975615356025 -62.242924997830869 0 -62.242924997830869 -3.0568577795311285 0 0 0 0 -170.6632658786516 -56.564126210288123 0 -56.564126210288123 -6.9407830126747285 0 0 0 0 -36.69950900780168 -59.549575188102608 0 -59.549575188102608 -32.904335921979509 0 0 0 0 -97.626999633741434 -15.272429791339164 0 -15.272429791339164 -4.6484429912710823 0 0 0 0 -560.69135962098676 22.356987782543939 0 22.356987782543939 16.440260855306406 0 0 0 0 -292.61485807067129 115.64100914460596 0 115.64100914460596 -54.603874438670118 0 0 0 0 -0.78613170287060052 0.93564377824485234 0 0.93564377824485234 -0.30492292985657343 0 0 0 0 -171.02217452521651 -20.940779501809462 0 -20.940779501809462 -17.121187723869298 0 0 0 0 -251.56931724987771 -11.795977142352058 0 -11.795977142352058 13.263290382127707 0 0 0 0 -158.02455458213035 -19.658153563555061 0 -19.658153563555061 -14.324117275817116 0 0 0 0 -408.55846270117672 -16.659034047559089 0 -16.659034047559089 42.568272671950581 0 0 0 0 2.1816635027757973 -0.37260691644699051 0 -0.37260691644699051 1.6408376124659299 0 0 0 0 -93.350504992290325 26.998891982701196 0 26.998891982701196 -129.44116717680845 0 0 0 0 -246.78995398364168 74.313946899695111 0 74.313946899695111 -53.203699773917833 0 0 0 0 -150.25491613755821 5.8840252797299399 0 5.8840252797299399 -12.240609711924208 0 0 0 0 -222.86593301719259 -10.488358437848177 0 -10.488358437848177 15.280294983220301 0 0 0 0 -159.82077079016153 -0.44845333155717526 0 -0.44845333155717526 -11.872875119554919 0 0 0 0 -178.94228241732253 3.3619592710310826 0 3.3619592710310826 -5.9913342807067238 0 0 0 0 -114.45979794852474 -4.2122053111429523 0 -4.2122053111429523 100.28613732311806 0 0 0 0 -190.06657395027833 10.451535155778402 0 10.451535155778402 234.86194998743531 0 0 0 0 -188.2920703400473 11.980500425343052 0 11.980500425343052 -2.7296986649380415 0 0 0 0 -113.98900898536795 -88.414015840638058 0 -88.414015840638058 -52.942346635789363 0 0 0 0 -24.13316174900152 4.1403923005691041 0 4.1403923005691041 4.7337020149587801 0 0 0 0 -196.14626865507216 -112.34008907535463 0 -112.34008907535463 173.81670052689742 0 0 0 0 86.600892377090986 19.670675921827751 0 19.670675921827751 -359.32480378084983 0 0 0 0 -34.909830960038981 11.12273922389236 0 11.12273922389236 -3.7370831965250524 0 0 0 0 -1878.4955925823633 -1089.6339456726137 0 -1089.6339456726137 -176.19708524956533 0 0 0 0 -2455.6512880662558 -474.18317206984648 0 -474.18317206984648 -162.98413347915141 0 0 0 0 -341.4420964860451 746.167173122436 0 746.167173122436 -1592.3454755444163 0 0 0 0 -1731.904398327064 2551.9843220576076 0 2551.9843220576076 -879.88134580389124 0 0 0 0 -1236.9530450716684 870.43793122576608 0 870.43793122576608 570.39844518637437 0 0 0 0 -2108.7845635248641 613.47947522124105 0 613.47947522124105 600.42300338100176 0 0 0 0 -935.23134363456847 624.93577512843967 0 624.93577512843967 324.95241450361209 0 0 0 0 -1177.2402403466667 317.41951475651877 0 317.41951475651877 252.31468446306258 0 0 0 0 -169.56666041461904 162.10762361323395 0 162.10762361323395 -112.51579381806187 0 0 0 0 -633.61172843637041 580.94263556589112 0 580.94263556589112 -464.03060705578719 0 0 0 0 -1429.0882699091053 1254.7422183824892 0 1254.7422183824892 -1061.4298566624493 0 0 0 0 -174.33994706294561 594.77982773738427 0 594.77982773738427 -1218.5304391743121 0 0 0 0 -64.934874526021304 -293.27874586169673 0 -293.27874586169673 -861.5783715641046 0 0 0 0 -1331.7825537957438 175.08529634366937 0 175.08529634366937 -286.26358223862917 0 0 0 0 -578.12442416357226 280.75059371514726 0 280.75059371514726 -692.3767875962476 0 0 0 0 -17.354758863566531 -43.189512078150074 0 -43.189512078150074 -468.48224872437459 0 0 0 0 -1719.5281059072868 -1351.1387399873747 0 -1351.1387399873747 253.96298767396001 0 0 0 0 -23.826833057641714 64.005568764625153 0 64.005568764625153 -30.597532262543275 0 0 0 0 -1531.1784734883549 437.47082699337898 0 437.47082699337898 -4065.2346208573217 0 0 0 0 -3949.818097209667 2789.1716267517531 0 2789.1716267517531 3219.3986249557456 0 0 0 0 -1816.3835978460083 -442.72552686361269 0 -442.72552686361269 2571.45655531386 0 0 0 0 -694.24860131079913 480.10655105485421 0 480.10655105485421 99.992920791781216 0 0 0 0 -833.91980492780567 317.20127491595485 0 317.20127491595485 252.66965706113479 0 0 0 0 -504.44348142344097 -223.70757634434267 0 -223.70757634434267 -80.503889630075719 0 0 0 0 -1533.9458989694831 252.10698928002057 0 252.10698928002057 -134.66368937878724 0 0 0 0 -1977.3897309102649 -224.58259475217801 0 -224.58259475217801 -162.55381507753191 0 0 0 0 -1621.7387001483148 478.10379846344222 0 478.10379846344222 -87.690972468895779 0 0 0 0 -947.64840421167901 105.6709484402636 0 105.6709484402636 -74.429226614112849 0 0 0 0 -1419.5707089220778 56.444365550578368 0 56.444365550578368 189.64880169463868 0 0 0 0 -703.87719422767987 363.76326501938456 0 363.76326501938456 -41.877790767802253 0 0 0 0 -1556.5629852494767 269.23408105805356 0 269.23408105805356 204.60166107260011 0 0 0 0 -764.68327391897401 -180.5386122128275 0 -180.5386122128275 377.26360228855992 0 0 0 0 -998.32117941378874 -440.35659666097581 0 -440.35659666097581 794.07614489443222 0 0 0 0 -3.960902091518764 57.373412577363197 0 57.373412577363197 -80.565597276353344 0 0 0 0 -234.71161440194192 210.20132261056278 0 210.20132261056278 -153.58894624323875 0 0 0 0 -1261.9531800488394 74.015107831648038 0 74.015107831648038 -6.2019510940444889 0 0 0 0 -6.615087766311901 64.831727415305906 0 64.831727415305906 -94.638170241048641 0 0 0 0 -1681.743074838716 406.70746506416305 0 406.70746506416305 276.88906127675727 0 0 0 0 -1685.4069189371658 119.55887398572304 0 119.55887398572304 518.45316837706559 0 0 0 0 -2125.7552392273283 648.54967923049117 0 648.54967923049117 -2.4197357787452347 0 0 0 0 -592.78062614610462 282.52690608274042 0 282.52690608274042 -54.109192836376224 0 0 0 0 -768.32539376424529 109.75400071632384 0 109.75400071632384 89.439656487155844 0 0 0 0 -1041.1503988934483 -244.09975269947972 0 -244.09975269947972 120.13764475289099 0 0 0 0 -1209.2321498227975 42.867919926543436 0 42.867919926543436 951.69177993449739 0 0 0 0 -1159.7821076232599 182.70126956701642 0 182.70126956701642 -50.166554389115845 0 0 0 0 -843.70864612814808 86.193414953211231 0 86.193414953211231 -330.86332408378075 0 0 0 0 -850.18938670916577 80.296256620044687 0 80.296256620044687 79.462633102892141 0 0 0 0 -554.24567313959642 109.71588297892868 0 109.71588297892868 -161.23408823250065 0 0 0 0 -740.48359942518391 201.12705584917421 0 201.12705584917421 -44.089284735622641 0 0 0 0 -624.3608679677086 116.1669923873751 0 116.1669923873751 -58.355272358636284 0 0 0 0 -793.23700705342139 108.60903277531952 0 108.60903277531952 -141.23842201316984 0 0 0 0 -877.86199574755983 203.05424453070555 0 203.05424453070555 -110.9236893848356 0 0 0 0 -726.19333404797237 194.7301343378067 0 194.7301343378067 -71.746770964749885 0 0 0 0 -865.77667266638935 195.98603718700656 0 195.98603718700656 -26.05818648359309 0 0 0 0 -856.58720426223772 122.47262819819412 0 122.47262819819412 -164.65476936067898 0 0 0 0 -725.45384618160301 186.89562348626487 0 186.89562348626487 4.1774724307433644 0 0 0 0 -648.18242900520409 208.2378774541171 0 208.2378774541171 -67.851576765786376 0 0 0 0 -1240.7230960284214 1136.6893513763189 0 1136.6893513763189 -358.73035774929303 0 0 0 0 -31.165266971310288 7.1667882522315267 0 7.1667882522315267 -1.3834906206467181 0 0 0 0 443.66514317049587 -2164.9353810146567 0 -2164.9353810146567 -1370.6778016779281 0 0 0 0 -1058.0563211727806 -0.18633265490325357 0 -0.18633265490325357 -153.15000038136168 0 0 0 0 -6.7848951489630718 72.557222215001559 0 72.557222215001559 -77.084698426090796 0 0 0 0 -4191.1021978670688 2687.2147081063267 0 2687.2147081063267 693.35393840055531 0 0 0 0 59.673982371656166 548.73501799826772 0 548.73501799826772 -325.29449388501598 0 0 0 0 -923.31305219098374 135.61987759958356 0 135.61987759958356 -25.915569483760009 0 0 0 0 -2711.2984934511724 -1590.5541745018727 0 -1590.5541745018727 -547.2871195754924 0 0 0 0 -596.18968748448242 -276.77953625126247 0 -276.77953625126247 260.39322473815264 0 0 0 0 -1841.9271049625768 -409.27152482844576 0 -409.27152482844576 390.7961334285028 0 0 0 0 -1257.8617589578789 -740.17409832234557 0 -740.17409832234557 -109.49628748361647 0 0 0 0 -595.70162813471006 162.06863465321294 0 162.06863465321294 -31.32279965194175 0 0 0 0 -1104.9483864847098 180.83535563111855 0 180.83535563111855 357.19618259117669 0 0 0 0 -8.0605464820579247 73.077078465686242 0 73.077078465686242 -28.557330059952385 0 0 0 0 -572.23655652602702 191.83990355985918 0 191.83990355985918 -1.9522392803464754 0 0 0 0 -579.41368868932386 -80.741254424455974 0 -80.741254424455974 -47.620815128364484 0 0 0 0 129.33585693433633 -431.53148315791077 0 -431.53148315791077 -42.915712357615121 0 0 0 0 1.0221016469875508 -2.2380172467969146 0 -2.2380172467969146 -15.477496734436059 0 0 0 0 -194.91432333301782 252.41708895628108 0 252.41708895628108 -114.11742826441514 0 0 0 0 -746.70391810189221 216.50622137124174 0 216.50622137124174 -2.9106796578021203 0 0 0 0 -788.12347114442196 91.428804103079528 0 91.428804103079528 -57.141594524049651 0 0 0 0 -747.34813647211718 220.11071811147349 0 220.11071811147349 15.363708471204518 0 0 0 0 -741.28809422721167 230.25823998584929 0 230.25823998584929 -13.41318883870008 0 0 0 0 -709.19275004453834 223.73748199860893 0 223.73748199860893 37.975151262755389 0 0 0 0 -699.17422101469708 247.33277450604839 0 247.33277450604839 28.780205285651391 0 0 0 0 -557.56071698695348 246.52524066010631 0 246.52524066010631 20.235914894423331 0 0 0 0 -847.66400725563699 147.95950230492309 0 147.95950230492309 35.66747387237956 0 0 0 0 -827.49080057472941 264.40312622269994 0 264.40312622269994 82.087943339527556 0 0 0 0 -824.78023696618891 167.68104503304812 0 167.68104503304812 52.636665152877868 0 0 0 0 -715.47646724778201 49.724705384522395 0 49.724705384522395 -26.027781232764028 0 0 0 0 -701.67432283260518 148.26788912441089 0 148.26788912441089 55.679083509946395 0 0 0 0 -651.78067162966602 149.74398925554124 0 149.74398925554124 -16.778247290181753 0 0 0 0 -372.82341475263166 58.652313536823613 0 58.652313536823613 -60.169821501795013 0 0 0 0 -555.21433503603362 -30.617611751840741 0 -30.617611751840741 57.529095134745148 0 0 0 0 -725.31931765338697 66.076694407811374 0 66.076694407811374 39.903764822881612 0 0 0 0 -355.05146150299618 -284.70316983868338 0 -284.70316983868338 -137.10075986863194 0 0 0 0 -120.65283383719429 19.757538283432496 0 19.757538283432496 -44.630797845137749 0 0 0 0 -9.6239754873620313 3.4957188947962026 0 3.4957188947962026 -1.7902023794678072 0 0 0 0 -30.319055178068822 -6.2241458409764618 0 -6.2241458409764618 -7.3532815526568811 0 0 0 0 -22.973271938506969 -28.507354600605595 0 -28.507354600605595 -94.283243077788939 0 0 0 0 -34.790220022035783 -24.727364927382951 0 -24.727364927382951 -4.6688432998960252 0 0 0 0 -26.738861154292408 -28.729803986855586 0 -28.729803986855586 -33.010289747213392 0 0 0 0 -4.2463746175933785 4.8668495016515152 0 4.8668495016515152 -3.5888532214218891 0 0 0 0 -299.73974825466826 -117.25183289003826 0 -117.25183289003826 -12.887039401869515 0 0 0 0 -129.63706807534527 -115.57335715859699 0 -115.57335715859699 -97.049792985983458 0 0 0 0 -164.71346800380616 -17.589052842028195 0 -17.589052842028195 -52.845222138608733 0 0 0 0 -206.12375742370568 -82.397636612617134 0 -82.397636612617134 -15.581962421355911 0 0 0 0 -39.795616368674018 -24.105114780772055 0 -24.105114780772055 -28.179169666331291 0 0 0 0 -139.35456347266586 -74.830370991097425 0 -74.830370991097425 -1.9088249263932084 0 0 0 0 -32.932887762576229 -51.96538194778168 0 -51.96538194778168 -60.753164051677231 0 0 0 0 -104.9406735052853 -64.553218207084683 0 -64.553218207084683 -30.42255870945155 0 0 0 0 -60.330697857426458 -38.167574232807965 0 -38.167574232807965 -35.402560606467887 0 0 0 0 -125.98773364058638 -29.299936901835054 0 -29.299936901835054 -12.467377397091695 0 0 0 0 -232.14472628981071 3.772501289750835 0 3.772501289750835 -11.450293295407391 0 0 0 0 -584.62450114292369 171.09835728176404 0 171.09835728176404 -0.57260744055088253 0 0 0 0 -0.52386278949938525 0.66436521193555453 0 0.66436521193555453 -0.3865570058961616 0 0 0 0 -473.15471176017365 136.79834746308438 0 136.79834746308438 -68.623884145077682 0 0 0 0 -611.0085923472227 120.54931085941189 0 120.54931085941189 -2.7437699907422939 0 0 0 0 -314.04764325241013 -34.716634427933059 0 -34.716634427933059 -1.3207510206311781 0 0 0 0 -3900.3046168109604 149.77825598672689 0 149.77825598672689 416.00776111963114 0 0 0 0 -3706.9397522283689 -533.70908963190743 0 -533.70908963190743 1091.4350605844963 0 0 0 0 -5486.6379179959949 -839.09184353186356 0 -839.09184353186356 1123.4828522647078 0 0 0 0 -2717.7414953403786 129.6923578692531 0 129.6923578692531 352.08974404200922 0 0 0 0 -2910.6379896551261 64.605579019317247 0 64.605579019317247 331.87584073851224 0 0 0 0 -3180.0570156846443 313.58826282669997 0 313.58826282669997 452.08226976404427 0 0 0 0 -2963.6223766761541 373.83441479465273 0 373.83441479465273 202.30643959065924 0 0 0 0 -3041.8175883703734 442.99295811952265 0 442.99295811952265 201.89287771323484 0 0 0 0 -2871.8865362266442 519.34586566137159 0 519.34586566137159 182.69990543680706 0 0 0 0 -3264.5876013386551 340.27852557157894 0 340.27852557157894 426.99532203510239 0 0 0 0 -3269.4157388340209 515.36972443630214 0 515.36972443630214 301.302987207775 0 0 0 0 -3219.1186549662343 537.17886147043498 0 537.17886147043498 324.23807976474177 0 0 0 0 -2947.2742728986141 447.57444612386485 0 447.57444612386485 260.49173310924198 0 0 0 0 -3000.5290873972299 585.78515995494877 0 585.78515995494877 220.20681606038102 0 0 0 0 -2644.2523796119931 551.97155567333766 0 551.97155567333766 142.44260275687805 0 0 0 0 -2591.9833992806198 406.09038727794996 0 406.09038727794996 224.44330924273618 0 0 0 0 -2829.9320771085168 719.71393068992643 0 719.71393068992643 126.8687391351873 0 0 0 0 -2660.3204185415452 618.13896738789583 0 618.13896738789583 156.19731317497889 0 0 0 0 -3285.7342381221342 696.01660358336346 0 696.01660358336346 361.82250975285388 0 0 0 0 -3574.6944211461196 702.13581907796095 0 702.13581907796095 370.75036446964839 0 0 0 0 -3919.9469105141416 1012.8628314272473 0 1012.8628314272473 359.5220579979374 0 0 0 0 -4152.9183473135281 433.46674552320985 0 433.46674552320985 874.59359199354162 0 0 0 0 -4107.3983290891701 393.39750656900907 0 393.39750656900907 483.37499368673485 0 0 0 0 -5501.9449668434263 43.782314875256326 0 43.782314875256326 1043.9696653088945 0 0 0 0 -4673.6934477606519 590.92454997904724 0 590.92454997904724 839.56898763693448 0 0 0 0 -4421.808999260953 1112.3353195830587 0 1112.3353195830587 539.55766701670098 0 0 0 0 -5498.9328063645298 1062.8334330317159 0 1062.8334330317159 851.8820230718452 0 0 0 0 -4244.6116283532265 960.8271143993793 0 960.8271143993793 385.66726464040346 0 0 0 0 -4323.1410459340213 1541.078090842333 0 1541.078090842333 -16.447543014809469 0 0 0 0 -4354.5190917646014 1204.1066625450424 0 1204.1066625450424 510.06189504005579 0 0 0 0 -5498.6942749740438 1948.4590234354876 0 1948.4590234354876 170.15808446281434 0 0 0 0 -4153.2958288863592 1825.6297510900315 0 1825.6297510900315 -35.121638710445382 0 0 0 0 -4091.478465557273 2110.5712822007899 0 2110.5712822007899 -590.0695618635965 0 0 0 0 -5500.3389797360705 2733.0664696558188 0 2733.0664696558188 -601.99397568830057 0 0 0 0 -208.19202596194373 23.509422791104839 0 23.509422791104839 26.275541533275828 0 0 0 0 -146.93888628943932 35.776903093384135 0 35.776903093384135 -1.9817219470656937 0 0 0 0 -99.44805259523217 -19.646278765770425 0 -19.646278765770425 36.572015714729332 0 0 0 0 -35.877123039435169 10.592939065293983 0 10.592939065293983 -15.015434358465548 0 0 0 0 -2154.5988546815697 1158.8549560262697 0 1158.8549560262697 -819.50780990064754 0 0 0 0 -2958.503861078003 1941.3010197230642 0 1941.3010197230642 -1254.5748864598022 0 0 0 0 -3406.0665623562418 1743.7531045864666 0 1743.7531045864666 -712.7436201369909 0 0 0 0 -3310.4809660472092 1485.028247887004 0 1485.028247887004 -521.11785982480762 0 0 0 0 -3458.6036384377512 1707.4386209760116 0 1707.4386209760116 -592.82582162943913 0 0 0 0 -3531.9238643377321 1829.0541131243947 0 1829.0541131243947 -719.43348752045176 0 0 0 0 -3315.5089825254618 1678.4249452628765 0 1678.4249452628765 -835.90723384257467 0 0 0 0 -294.51364603002366 733.42734703478254 0 733.42734703478254 -887.73545609958364 0 0 0 0 -132.09313243197175 217.45340049251899 0 217.45340049251899 84.964613244498651 0 0 0 0 -3.0772522387199857 0.69510775570689276 0 0.69510775570689276 -4.3260022494229453 0 0 0 0 -2324.1299183224119 1030.2900895626233 0 1030.2900895626233 -416.9570897773412 0 0 0 0 -2334.0006389642867 1037.1318123141527 0 1037.1318123141527 26.877710054699776 0 0 0 0 -3385.850729118687 1109.1665356324038 0 1109.1665356324038 181.03462647396088 0 0 0 0 -3412.0856285025839 1275.5340835831553 0 1275.5340835831553 8.738198583622875 0 0 0 0 -3113.9515422932673 1049.4340451546302 0 1049.4340451546302 12.145259442941324 0 0 0 0 -2406.6189761139749 840.6695670442823 0 840.6695670442823 -287.04955409115166 0 0 0 0 -2329.0195452351545 727.65774385355894 0 727.65774385355894 -230.85482490297943 0 0 0 0 -2478.0745392154204 1015.8507086485736 0 1015.8507086485736 -25.164140283977986 0 0 0 0 -2227.5320963885679 1116.7803356012662 0 1116.7803356012662 13.000520305418604 0 0 0 0 -1859.7955521354306 558.31626062813189 0 558.31626062813189 -82.217793269740696 0 0 0 0 224.44010152665578 95.305375701730611 0 95.305375701730611 -183.44362796668025 0 0 0 0 -4.5982167224683792 -5.2449993170172853 0 -5.2449993170172853 2.928971988584089 0 0 0 0 -528.55636652022804 -272.15539283453563 0 -272.15539283453563 -138.97566193348507 0 0 0 0 -10.189881989419519 -139.72765672351593 0 -139.72765672351593 28.483876366906799 0 0 0 0 -81.979156821381366 -16.536739862064223 0 -16.536739862064223 -23.643595891387804 0 0 0 0 -162.60924994990455 -30.998914915194156 0 -30.998914915194156 70.884161637855527 0 0 0 0 731.25222824846423 136.58386331384628 0 136.58386331384628 2.1033423469924628 0 0 0 0 -41.044510830589104 6.4235320126311777 0 6.4235320126311777 5.5346773452031313 0 0 0 0 -80.110984043719554 -36.719525965633949 0 -36.719525965633949 0.12320972623191651 0 0 0 0 -1343.2721825542758 464.78111946625728 0 464.78111946625728 -60.713513932585521 0 0 0 0 -1041.8242059045951 -391.46443100416286 0 -391.46443100416286 437.45324062665566 0 0 0 0 -1031.9270579109379 599.65699180519027 0 599.65699180519027 -182.78240519754792 0 0 0 0 -496.78894173858862 -308.46307263057679 0 -308.46307263057679 106.65542248104668 0 0 0 0 -99.898002103180914 -26.008663439257745 0 -26.008663439257745 28.743415532562423 0 0 0 0 -136.19652311226491 38.660275937189908 0 38.660275937189908 -35.718682383434498 0 0 0 0 -336.16708907663633 -232.34456918078786 0 -232.34456918078786 -165.0509598540572 0 0 0 0 -143.71511203898945 31.538464778101343 0 31.538464778101343 -20.653377805005221 0 0 0 0 -25.034697878942353 8.6125057633863058 0 8.6125057633863058 -22.549041661588525 0 0 0 0 -80.812870188567103 -37.564758210340415 0 -37.564758210340415 -8.4232987236055124 0 0 0 0 -92.462402414859753 -29.302401024337087 0 -29.302401024337087 -7.4003672262879263 0 0 0 0 -138.85516273941539 17.567983346265464 0 17.567983346265464 -2.5265124833238133 0 0 0 0 -117.10174613823256 1.2106051773821491 0 1.2106051773821491 -6.5919606878305785 0 0 0 0 -152.50152553214684 22.397325922624077 0 22.397325922624077 -10.452327117665845 0 0 0 0 -129.34394460119256 22.657825867809152 0 22.657825867809152 -35.20873650053727 0 0 0 0 -166.60848618804448 -442.92046764615998 0 -442.92046764615998 -333.45987131097223 0 0 0 0 143.80000052689184 -74.840148984360439 0 -74.840148984360439 -163.49493583837238 0 0 0 0 -64.342082440432023 15.02803294493242 0 15.02803294493242 -102.90609620155101 0 0 0 0 4.4729025964343032 -1.2683243467399663 0 -1.2683243467399663 -17.276770350617557 0 0 0 0 -91.351861437178741 -54.104190988097798 0 -54.104190988097798 -33.938983603192298 0 0 0 0 -107.41045601102633 -46.198372793606723 0 -46.198372793606723 5.7617403888225454 0 0 0 0 -81.743970204904144 -14.376787277670473 0 -14.376787277670473 -7.6957668132406525 0 0 0 0 -92.445496009115232 -27.671775758448803 0 -27.671775758448803 15.890840578604866 0 0 0 0 -338.11498918484347 -82.571034180730408 0 -82.571034180730408 166.15759150124723 0 0 0 0 -336.50306857674605 -117.56240462066808 0 -117.56240462066808 67.585246300189965 0 0 0 0 -235.19555549746929 -6.2890218883585476 0 -6.2890218883585476 -27.460439740837955 0 0 0 0 -142.33683615403788 -32.800909279121356 0 -32.800909279121356 -20.823213467774394 0 0 0 0 -12.885552254419208 -5.6277780618473434 0 -5.6277780618473434 -18.466599025023072 0 0 0 0 -17.22693956533471 -27.18203250197384 0 -27.18203250197384 -22.842605425369101 0 0 0 0 -16.318851553655069 -41.825527856347357 0 -41.825527856347357 11.607551965022822 0 0 0 0 -46.314111855012015 -120.83012439381548 0 -120.83012439381548 -162.78330591859395 0 0 0 0 -265.74607166914325 74.884836777869623 0 74.884836777869623 -42.922701264397347 0 0 0 0 -6.8702090479288938 -7.2238127746548493 0 -7.2238127746548493 -9.4438612854986452 0 0 0 0 388.77539427410034 652.64498395492865 0 652.64498395492865 -572.29315090221417 0 0 0 0 -205.1488833971689 -314.20719460621035 0 -314.20719460621035 57.133282982571473 0 0 0 0 -325.8475561740961 -740.9311514042106 0 -740.9311514042106 -121.8457826018207 0 0 0 0 51.717823756385769 -436.58544910524074 0 -436.58544910524074 -8.0593844775685284 0 0 0 0 -21.154908948401498 -354.12552684889187 0 -354.12552684889187 -99.149327077230964 0 0 0 0 -336.06037819019184 -300.52164202898439 0 -300.52164202898439 200.71137672250006 0 0 0 0 -693.02028006540786 -827.19302029047753 0 -827.19302029047753 334.39534813249247 0 0 0 0 -1116.8356595070072 -659.26726207020647 0 -659.26726207020647 1081.3075861505465 0 0 0 0 -478.85565871627477 -590.70216687976927 0 -590.70216687976927 593.32297318992164 0 0 0 0 -472.24500445697049 -292.99787977535198 0 -292.99787977535198 306.19580158469034 0 0 0 0 -424.67490873833412 -79.837194423019127 0 -79.837194423019127 815.98340393118451 0 0 0 0 163.69286960151476 -449.75966897924746 0 -449.75966897924746 37.721087477488993 0 0 0 0 -67.614500038885126 -52.978931737117691 0 -52.978931737117691 -22.526109888074821 0 0 0 0 -235.92629052198754 -31.270275748771382 0 -31.270275748771382 163.82861982802706 0 0 0 0 -1495.6901128023019 635.96315143864672 0 635.96315143864672 -102.6217284757513 0 0 0 0 -992.78831532536424 531.12955046163961 0 531.12955046163961 -239.41085301614885 0 0 0 0 -1965.356427387047 377.08327416997372 0 377.08327416997372 -30.849391381907935 0 0 0 0 -1953.613434182982 238.45469495349039 0 238.45469495349039 77.523823734915368 0 0 0 0 -2299.2130279754347 572.00188214311333 0 572.00188214311333 -65.733095916538389 0 0 0 0 -2503.745922142698 229.93864810080981 0 229.93864810080981 278.40756389330454 0 0 0 0 -2011.4977043783001 378.69157221230785 0 378.69157221230785 34.525403064071611 0 0 0 0 -1774.5579215622674 65.841535488596719 0 65.841535488596719 30.043870018016605 0 0 0 0 -2517.373750412662 -81.071168967460608 0 -81.071168967460608 356.08584906035139 0 0 0 0 -2552.553472512438 393.45514803691435 0 393.45514803691435 160.66330056361312 0 0 0 0 -77.203494107441657 226.95696526174166 0 226.95696526174166 496.29340160920219 0 0 0 0 -14.144897613039987 0.094792524575304071 0 0.094792524575304071 22.593153269213971 0 0 0 0 -602.12962742621312 276.11414621758627 0 276.11414621758627 -418.05780935774828 0 0 0 0 -813.0965597867762 359.50968993580591 0 359.50968993580591 1436.9940437659097 0 0 0 0 -1540.2024849798618 21.886323208062095 0 21.886323208062095 8.8322804616350368 0 0 0 0 -1142.2820124549326 -496.03972402504519 0 -496.03972402504519 -23.453170378519644 0 0 0 0 -2825.768508422887 -1532.6635145148066 0 -1532.6635145148066 3362.7948916686305 0 0 0 0 -1102.3787180539803 -904.69252713070705 0 -904.69252713070705 249.11308165384435 0 0 0 0 -1065.3322560958622 -588.6257000423484 0 -588.6257000423484 139.0134589753261 0 0 0 0 -3.6465039330513811 4.5592040177202691 0 4.5592040177202691 -1.2772241936851643 0 0 0 0 -306.04550114984704 -828.04671064451463 0 -828.04671064451463 -2470.1397825801919 0 0 0 0 -3338.8413428009662 -175.37991767571862 0 -175.37991767571862 265.39985732616537 0 0 0 0 -2003.0317002935626 -402.36739207706751 0 -402.36739207706751 226.71336265433956 0 0 0 0 -3130.5086986448041 384.66185612145284 0 384.66185612145284 193.29674138248947 0 0 0 0 -2826.6110915640174 303.8592613565059 0 303.8592613565059 169.4246717995884 0 0 0 0 -2987.6351320306439 423.09658077219984 0 423.09658077219984 132.82234134674491 0 0 0 0 -1668.3213678698557 576.48784439347151 0 576.48784439347151 28.604274798619144 0 0 0 0 691.21419848296864 851.12670981873998 0 851.12670981873998 -274.32865214005733 0 0 0 0 -648.64359708321354 -386.61592478474449 0 -386.61592478474449 262.89543486301568 0 0 0 0 430.36174027401421 -237.07967882821796 0 -237.07967882821796 -79.366910989759162 0 0 0 0 357.12966931955634 -557.16854180058283 0 -557.16854180058283 -105.58973516794276 0 0 0 0 -4.9925133562937845 -911.50132643528616 0 -911.50132643528616 -322.27542967325303 0 0 0 0 -5.156480847729128 -7.9935013634927827 0 -7.9935013634927827 -8.5371130132760342 0 0 0 0 -564.01887541861652 -1698.5085236328623 0 -1698.5085236328623 -1059.3286386403165 0 0 0 0 -7.2927394857450025 -9.3964913966731629 0 -9.3964913966731629 -13.370806254500835 0 0 0 0 -1102.9608641734376 -975.28650088630457 0 -975.28650088630457 327.2226759741161 0 0 0 0 126.21799824359277 164.2640663347197 0 164.2640663347197 -395.79561166983603 0 0 0 0 -47.160890756638608 -178.67443498550486 0 -178.67443498550486 -7.3358271661838614 0 0 0 0 131.67223627585645 -265.99153184706529 0 -265.99153184706529 -46.581347688004826 0 0 0 0 182.49779865948221 -127.16843038676166 0 -127.16843038676166 212.28954111801181 0 0 0 0 -30.781661367377843 -20.452176598018031 0 -20.452176598018031 -12.272850307399207 0 0 0 0 529.03229287581598 -734.66100896053013 0 -734.66100896053013 603.08704556283192 0 0 0 0 560.54141964747214 -55.947468023303372 0 -55.947468023303372 -78.442378605502199 0 0 0 0 -178.43834162748141 33.900004024098962 0 33.900004024098962 -122.5163770760269 0 0 0 0 -685.5454225871938 -617.32481972775167 0 -617.32481972775167 -22.753193196841039 0 0 0 0 -1216.5448735118334 -1032.2933623819936 0 -1032.2933623819936 404.26191454708487 0 0 0 0 -102.81476665973179 -174.06003455438076 0 -174.06003455438076 -1320.7665879799083 0 0 0 0 -982.13601844130881 243.78584212316878 0 243.78584212316878 -16.091305740557345 0 0 0 0 -13.006807422777916 -9.428246724430128 0 -9.428246724430128 -7.0798454861681552 0 0 0 0 -161.1785111142317 19.872155014194277 0 19.872155014194277 98.313647349063103 0 0 0 0 -194.44790052937606 105.2350898449854 0 105.2350898449854 -115.87186215290239 0 0 0 0 -328.50101083975278 175.95016150864126 0 175.95016150864126 -27.377897192122191 0 0 0 0 -529.9929435531858 -109.08945667486898 0 -109.08945667486898 -46.516099467575259 0 0 0 0 -68.052098782351095 240.34644982684222 0 240.34644982684222 -65.162484545446205 0 0 0 0 -207.38262155700249 94.573695443584484 0 94.573695443584484 -209.4496075994889 0 0 0 0 22.62642406597115 141.46042148170409 0 141.46042148170409 -380.97735046835271 0 0 0 0 139.25150129872418 401.00353350096384 0 401.00353350096384 122.84623153139455 0 0 0 0 -183.28453721124561 52.086824240751639 0 52.086824240751639 387.75671924196195 0 0 0 0 -41.941594032970862 -25.87878119348396 0 -25.87878119348396 -15.03282725665461 0 0 0 0 1.8432137493236951 -147.12041922686581 0 -147.12041922686581 -215.66307526210676 0 0 0 0 220.48299389468866 -253.17364503476892 0 -253.17364503476892 -196.40559998612025 0 0 0 0 -63.781373054085222 -39.969654074412347 0 -39.969654074412347 -23.287255071470881 0 0 0 0 442.6146392144783 -18.617634494149229 0 -18.617634494149229 -974.97853650524303 0 0 0 0 -1615.7323754694098 -1188.7546894544562 0 -1188.7546894544562 815.11697887073251 0 0 0 0 -737.98570098583514 -522.19737112133339 0 -522.19737112133339 -385.90226653031732 0 0 0 0 -956.47670567968362 191.10265823152463 0 191.10265823152463 -47.747983207681955 0 0 0 0 -208.65917174450715 -109.03155865526423 0 -109.03155865526423 -128.35274904097287 0 0 0 0 -133.67431872780799 -66.702422361279559 0 -66.702422361279559 -370.29267123548863 0 0 0 0 -265.09999604018049 -107.36403887914275 0 -107.36403887914275 -128.23162387644754 0 0 0 0 -508.8627637706777 -45.07568415029732 0 -45.07568415029732 82.05216825134994 0 0 0 0 -504.10044793460838 9.8369931796094079 0 9.8369931796094079 81.691185036098432 0 0 0 0 -447.08025950750744 -45.046245270834106 0 -45.046245270834106 81.232240238101042 0 0 0 0 -444.35542139336758 13.997722052291238 0 13.997722052291238 81.828735773591561 0 0 0 0 -288.17454451308214 -18.975264976342672 0 -18.975264976342672 145.58193174110147 0 0 0 0 -287.21009648676045 67.518340963462492 0 67.518340963462492 153.22255592096781 0 0 0 0 -275.76870482496815 260.80127286297409 0 260.80127286297409 234.57701772014184 0 0 0 0 -28.073302284779857 -84.844603513681591 0 -84.844603513681591 86.853304572718116 0 0 0 0 -718.2064656305995 56.46165287798506 0 56.46165287798506 261.84724518291705 0 0 0 0 -770.55072317809208 -294.62620953998419 0 -294.62620953998419 100.03648186483474 0 0 0 0 -24.896851194427057 -1.8688621219610475 0 -1.8688621219610475 2.5507449123795034 0 0 0 0 46.066210531811521 -94.274212700118142 0 -94.274212700118142 106.92940588843112 0 0 0 0 -20.563293634326328 -124.57859866126137 0 -124.57859866126137 157.65742759960995 0 0 0 0 -20.018346361451023 -3.6532633546195417 0 -3.6532633546195417 0.10771127944657982 0 0 0 0 -114.50979323160391 -89.771297402679011 0 -89.771297402679011 338.96713679617937 0 0 0 0 -133.4299309611506 -21.899152256023854 0 -21.899152256023854 175.66153922308285 0 0 0 0 -9.4506023520989402 -7.9910250906522151 0 -7.9910250906522151 126.41310950297475 0 0 0 0 -85.448886147833036 -61.997683999112724 0 -61.997683999112724 120.56352929868012 0 0 0 0 11.256553169740073 -195.10412575360351 0 -195.10412575360351 199.13664096151388 0 0 0 0 -61.17535848649095 -119.93020217639469 0 -119.93020217639469 -53.996949842478898 0 0 0 0 -105.30188684614586 -26.899862312352298 0 -26.899862312352298 -17.53707237985941 0 0 0 0 -227.59161249257977 -42.391392153331708 0 -42.391392153331708 -18.266819329549435 0 0 0 0 -105.40404265025973 22.253083758781713 0 22.253083758781713 -143.41922344695922 0 0 0 0 -111.60273013406322 2.3536119769512425 0 2.3536119769512425 -160.66295036987913 0 0 0 0 -220.89055077761077 -62.82552926132189 0 -62.82552926132189 -42.992998344148418 0 0 0 0 -185.08946258062497 -83.338903436664623 0 -83.338903436664623 -40.161412215746623 0 0 0 0 -264.15386452582425 -254.28520870993316 0 -254.28520870993316 -79.554400939365678 0 0 0 0 -329.94617350330441 -240.55506749874388 0 -240.55506749874388 -26.814980559734977 0 0 0 0 -326.1750233016478 -254.48947644588719 0 -254.48947644588719 -29.33962523854143 0 0 0 0 -339.59859937909641 -279.71717972327758 0 -279.71717972327758 54.652301046733555 0 0 0 0 -364.79945008915911 -216.17509746132765 0 -216.17509746132765 -53.858091732791763 0 0 0 0 -192.97430633159456 -221.24996329383657 0 -221.24996329383657 -27.645149034867984 0 0 0 0 -58.584179354415028 -316.70905535118425 0 -316.70905535118425 23.811480375042947 0 0 0 0 -271.52021203011645 -233.05409392870706 0 -233.05409392870706 247.49139271320087 0 0 0 0 -288.96631034992242 -162.50096535534203 0 -162.50096535534203 18.916060271111064 0 0 0 0 -395.42699467516286 -205.01728035333872 0 -205.01728035333872 60.874331305999476 0 0 0 0 -293.73789409130404 -62.911710122555093 0 -62.911710122555093 -7.3393525349413125 0 0 0 0 -411.26537945284144 -173.36985346186654 0 -173.36985346186654 -81.95080335010465 0 0 0 0 184.56706737640798 -144.29952196285183 0 -144.29952196285183 96.814609211130119 0 0 0 0 -213.1835541642231 -149.70245623824371 0 -149.70245623824371 -84.933376954235314 0 0 0 0 -81.862174280111503 -8.1350622246271413 0 -8.1350622246271413 57.974348528328022 0 0 0 0 -0.81186672410566985 0.70449158478024865 0 0.70449158478024865 0.99184250644105543 0 0 0 0 -72.327762352164427 39.732480642704488 0 39.732480642704488 13.26853206671953 0 0 0 0 -4.0697776497773148 0.1160144638771996 0 0.1160144638771996 3.0700734676116226 0 0 0 0 -702.17894202881325 -164.83351496999273 0 -164.83351496999273 21.832986959159371 0 0 0 0 -694.50557748794381 -145.94734319041322 0 -145.94734319041322 11.977291511938688 0 0 0 0 -956.551349797341 -204.32404071526545 0 -204.32404071526545 16.082711837471606 0 0 0 0 -555.05644976153781 -205.10009477563233 0 -205.10009477563233 -91.762488967878937 0 0 0 0 -470.21661533995575 -111.73993732204491 0 -111.73993732204491 -21.37764981143232 0 0 0 0 -565.93640948520988 -190.61597753007732 0 -190.61597753007732 -5.64306118430585 0 0 0 0 -416.61451565317066 -137.03625247690815 0 -137.03625247690815 -49.775268689260884 0 0 0 0 -783.04018807319517 -114.75624447605128 0 -114.75624447605128 4.0152132657935908 0 0 0 0 -584.91375849014003 -136.96268041356325 0 -136.96268041356325 -1.504030059923025 0 0 0 0 -766.81141438272971 -328.15160342964919 0 -328.15160342964919 -116.38253945574661 0 0 0 0 -7.9369077544762874 -3.7551322623576837 0 -3.7551322623576837 3.8832450597267085 0 0 0 0 -427.91168125859622 -247.4321055330804 0 -247.4321055330804 -92.985356148429332 0 0 0 0 -523.14081471532336 -103.9120676302789 0 -103.9120676302789 -146.85528759858289 0 0 0 0 -477.27732496648969 -226.01329573761018 0 -226.01329573761018 9.5007300299130293 0 0 0 0 -450.04918000343059 -267.81523609677015 0 -267.81523609677015 -10.197453429103916 0 0 0 0 -577.79231081182297 -116.52437106244383 0 -116.52437106244383 67.409194162560652 0 0 0 0 -200.88941141849665 -46.245993867464762 0 -46.245993867464762 23.888544504983656 0 0 0 0 -343.95049062428006 -86.513779345758394 0 -86.513779345758394 49.995760119095394 0 0 0 0 -274.7997466384254 77.021246646243412 0 77.021246646243412 6.0145204248401569 0 0 0 0 -267.66195655565753 -15.943870111189426 0 -15.943870111189426 -166.07661580583317 0 0 0 0 -187.044590637699 -63.907850528761173 0 -63.907850528761173 -75.014272265278123 0 0 0 0 -259.53661983057646 28.441241218373364 0 28.441241218373364 -192.44433733287042 0 0 0 0 -317.61282005955582 -193.79777424956001 0 -193.79777424956001 -37.258958901306073 0 0 0 0 -357.75292423987685 -140.13729535177418 0 -140.13729535177418 -108.98027425955752 0 0 0 0 -321.0078278012079 -210.48961880615025 0 -210.48961880615025 -93.606451993774158 0 0 0 0 -316.66025050022654 -228.7375594433081 0 -228.7375594433081 -111.42715667727543 0 0 0 0 -376.13399319824748 -267.72833580632175 0 -267.72833580632175 -149.40029887951505 0 0 0 0 -267.7560100701703 -270.88797028175532 0 -270.88797028175532 -149.40414132045481 0 0 0 0 -210.33178550852972 -171.3622355894604 0 -171.3622355894604 -220.39933231953592 0 0 0 0 -256.86757589575291 -282.68354640398508 0 -282.68354640398508 -366.34268750248884 0 0 0 0 147.58299122195604 -46.032420995624307 0 -46.032420995624307 -462.69952499662509 0 0 0 0 123.96661146519114 98.814385627983171 0 98.814385627983171 -237.7550296741374 0 0 0 0 -942.08549987189986 -740.59109571418912 0 -740.59109571418912 -469.89897818138616 0 0 0 0 162.88225181832422 -316.64844828382638 0 -316.64844828382638 -1048.6196431906337 0 0 0 0 24.545417447427099 644.54094758098745 0 644.54094758098745 -311.96065695025391 0 0 0 0 -188.38092707240412 523.40816213266862 0 523.40816213266862 884.65300158546961 0 0 0 0 364.27183696156862 44.566044308621258 0 44.566044308621258 -228.45733068904156 0 0 0 0 -5.429997353525323 112.86062212740399 0 112.86062212740399 -115.13125210473481 0 0 0 0 69.245055941963074 320.03201448686013 0 320.03201448686013 226.38532781052049 0 0 0 0 -604.38771217928297 -244.19463330937015 0 -244.19463330937015 -236.64898778191036 0 0 0 0 -870.70314995974331 280.70991002453479 0 280.70991002453479 505.95217700377543 0 0 0 0 -445.34474314229374 5.268025805270554 0 5.268025805270554 223.59646486111114 0 0 0 0 -306.06337938757133 262.58490171060021 0 262.58490171060021 129.76742141573618 0 0 0 0 -308.15932754644018 5.8947502751170759 0 5.8947502751170759 -165.88152335096623 0 0 0 0 -65.428493713572607 179.60933996561516 0 179.60933996561516 -138.60214556046594 0 0 0 0 -302.05606170824944 52.91038485211439 0 52.91038485211439 -197.36262290092236 0 0 0 0 -125.11762511304573 -125.21266504020969 0 -125.21266504020969 45.17073737395458 0 0 0 0 -40.548461335923548 91.452422202923117 0 91.452422202923117 151.92701414145085 0 0 0 0 -79.755425128560773 -33.309476810100023 0 -33.309476810100023 214.42844867976464 0 0 0 0 -82.292902529041839 -19.255712807549571 0 -19.255712807549571 137.72179098626248 0 0 0 0 -75.636509909810911 -33.227536899415554 0 -33.227536899415554 153.81708167341822 0 0 0 0 -73.812487422771483 -7.0785831898901961 0 -7.0785831898901961 142.43598893884973 0 0 0 0 -748.00712027324698 -166.4241588532177 0 -166.4241588532177 1378.6350467145512 0 0 0 0 -675.92270607314822 -983.32404693805984 0 -983.32404693805984 -29.244740276524681 0 0 0 0 332.77164947400524 665.87325271200189 0 665.87325271200189 488.32115839833568 0 0 0 0 -61.957940300946575 425.66741437755354 0 425.66741437755354 680.33233834728981 0 0 0 0 -50.119473660887593 11.294873881559088 0 11.294873881559088 2.1684675710524832 0 0 0 0 -37.951184880340463 32.707332095440506 0 32.707332095440506 68.914493070058597 0 0 0 0 443.22996718519062 114.5885919913535 0 114.5885919913535 287.14963168478698 0 0 0 0 -38.950558872749326 5.5894131155640245 0 5.5894131155640245 2.0415818227738498 0 0 0 0 96.996855323115824 72.38247835702532 0 72.38247835702532 -73.180493629747389 0 0 0 0 -170.38321873390669 -95.983561327270763 0 -95.983561327270763 1556.446521201523 0 0 0 0 -6.5787991745222403 11.188693626673341 0 11.188693626673341 12.510910075486755 0 0 0 0 -127.04768843531753 120.06551369182944 0 120.06551369182944 638.3292626458624 0 0 0 0 -203.9180209666921 -93.422124472091809 0 -93.422124472091809 148.10562691209634 0 0 0 0 109.5373167966253 100.3961116078608 0 100.3961116078608 218.99440116681217 0 0 0 0 -71.054128483988549 216.49401520652896 0 216.49401520652896 191.8342955860353 0 0 0 0 -36.50656868298222 200.28394610144096 0 200.28394610144096 458.88217469821575 0 0 0 0 -6.8439256385468159 -9.9818568215371624 0 -9.9818568215371624 -6.0850332997114016 0 0 0 0 -176.17787382724259 -94.509746723163971 0 -94.509746723163971 327.94870186438311 0 0 0 0 43.277010987989684 34.088429694684237 0 34.088429694684237 266.94565309457448 0 0 0 0 -243.81915942028081 -135.40188718399781 0 -135.40188718399781 197.12133931423341 0 0 0 0 -141.09338571715489 -66.210597524186142 0 -66.210597524186142 1.2383043553639368 0 0 0 0 -142.7441691010265 3.4909573044840485 0 3.4909573044840485 40.390103884733435 0 0 0 0 70.594311599837965 177.11519896280356 0 177.11519896280356 39.83920807964023 0 0 0 0 -57.331870398344535 -40.821361782332218 0 -40.821361782332218 -17.969126065675603 0 0 0 0 77.197462515396751 108.2185215643658 0 108.2185215643658 19.723697819490098 0 0 0 0 -77.010512250650208 -20.629429758213064 0 -20.629429758213064 6.137449049040697 0 0 0 0 -91.084561063910115 -22.848184533947414 0 -22.848184533947414 16.020697046688337 0 0 0 0 -67.847785770260089 -20.704507475627906 0 -20.704507475627906 104.50131650319418 0 0 0 0 -523.12771280830748 -12.346622671273508 0 -12.346622671273508 501.31271917249251 0 0 0 0 -48.01653190329624 -49.776398981999662 0 -49.776398981999662 -6.2541665091577254 0 0 0 0 -3.2885933919841364 13.093003097703797 0 13.093003097703797 13.035564409218242 0 0 0 0 -103.29156524953839 -33.119891267800227 0 -33.119891267800227 6.8251757486637317 0 0 0 0 -413.00228037961551 -893.70820560729294 0 -893.70820560729294 149.1341918957969 0 0 0 0 -2.5257198993581085 -8.4101185019752833 0 -8.4101185019752833 -8.9108424580739189 0 0 0 0 -27.279210087405758 -25.084745063003961 0 -25.084745063003961 -22.524016955965457 0 0 0 0 387.26575356900139 187.48667454277165 0 187.48667454277165 -284.85534499645792 0 0 0 0 -42.280321495520184 72.98314593449777 0 72.98314593449777 -73.466721090800092 0 0 0 0 -102.61772661195573 98.642878675563907 0 98.642878675563907 -69.160491269240254 0 0 0 0 -162.46051229414661 44.67932467247374 0 44.67932467247374 54.070645772558237 0 0 0 0 -96.466767382909893 74.962987676883586 0 74.962987676883586 -176.49856370668613 0 0 0 0 -90.792322011642341 -33.057098858996689 0 -33.057098858996689 2.61795115567684 0 0 0 0 -137.61838276273193 78.774562633096139 0 78.774562633096139 130.29594532286683 0 0 0 0 19.497789751207165 30.233773619005433 0 30.233773619005433 39.508006437975382 0 0 0 0 -219.36619524383059 -113.93123949489564 0 -113.93123949489564 266.96592810482218 0 0 0 0 -67.787059275172311 -35.593378616858473 0 -35.593378616858473 -6.4220536260542147 0 0 0 0 -312.91857600663934 -198.24074087090162 0 -198.24074087090162 -3.3369391285198162 0 0 0 0 -206.13428751374522 149.40936237170808 0 149.40936237170808 -28.498161143217658 0 0 0 0 752.80777680183019 649.05445342518613 0 649.05445342518613 93.234680031792209 0 0 0 0 -877.54063856814901 -301.41736808315261 0 -301.41736808315261 -65.130925022615429 0 0 0 0 -592.93287285806946 247.18459887296319 0 247.18459887296319 -215.75010723487264 0 0 0 0 -6.2655537480708148 -8.4799475986213437 0 -8.4799475986213437 -9.4191163854958369 0 0 0 0 -180.82353241723831 -504.72446042149966 0 -504.72446042149966 80.258212105168241 0 0 0 0 -17.658225442619937 -18.702924370493658 0 -18.702924370493658 -15.152282121073329 0 0 0 0 -9.3038338012665918 -60.9211215768687 0 -60.9211215768687 69.293309085700912 0 0 0 0 -57.066464258823544 -40.800921347960411 0 -40.800921347960411 260.16294094294267 0 0 0 0 -23.185580460783967 -127.69478827386274 0 -127.69478827386274 169.50728609322027 0 0 0 0 -57.057794718485411 -41.853696697423445 0 -41.853696697423445 127.33788818812673 0 0 0 0 -1265.169301185917 -1213.7708988148638 0 -1213.7708988148638 94.971153505567599 0 0 0 0 -33.517324633027883 -22.187541734524395 0 -22.187541734524395 -10.365572421202472 0 0 0 0 40.494110532250488 -60.039407600095046 0 -60.039407600095046 8.9915095741644109 0 0 0 0 -101.22800849651685 38.265362089034625 0 38.265362089034625 585.69189080658271 0 0 0 0 9.1598849027941469 -114.12687570645494 0 -114.12687570645494 -12.645782037538083 0 0 0 0 -96.138218396918091 -109.98420334597176 0 -109.98420334597176 455.2862933227043 0 0 0 0 -8.9785640421544812 2.1318909290722843 0 2.1318909290722843 2.2912377406995326 0 0 0 0 -44.01015524387185 -38.144353076681 0 -38.144353076681 8.8497518176778769 0 0 0 0 -6.6743452426608201 -8.3503303982307351 0 -8.3503303982307351 5.1721015974450468 0 0 0 0 -73.582466810010374 -171.34324508267673 0 -171.34324508267673 508.86367312458356 0 0 0 0 11.971772759232408 -105.94330631086359 0 -105.94330631086359 104.36644188349419 0 0 0 0 -7.375469246544526 31.915379713427797 0 31.915379713427797 45.46134100657946 0 0 0 0 -11.625657743621559 41.94119093620202 0 41.94119093620202 149.93675571988115 0 0 0 0 -25.075585287013382 -23.493514482586761 0 -23.493514482586761 -0.52194679892681961 0 0 0 0 -13.54915775404082 -8.4051664870893887 0 -8.4051664870893887 1.3372698443726438 0 0 0 0 5.3006410184680135 -27.467660757735302 0 -27.467660757735302 -0.92919414410687295 0 0 0 0 -21.313590174762425 -15.100702309668872 0 -15.100702309668872 -8.2935063791296475 0 0 0 0 -30.84847733505012 -20.154062465250718 0 -20.154062465250718 1.102745436458008 0 0 0 0 -21.708972906074422 -16.550035490868268 0 -16.550035490868268 -11.33949744258401 0 0 0 0 -1.3334604949486675 136.27043607289488 0 136.27043607289488 -249.89503216358344 0 0 0 0 -88.755542819832044 -66.179582571327046 0 -66.179582571327046 -40.215944444129491 0 0 0 0 -41.198494391035638 -52.152547397241619 0 -52.152547397241619 -120.11988424903166 0 0 0 0 -3.5362417394609906 -2.7723332855565666 0 -2.7723332855565666 -2.0989059395762428 0 0 0 0 7.5106200922018616 17.993950789594635 0 17.993950789594635 -32.258380137323684 0 0 0 0 25.850409467944701 -10.53972140921951 0 -10.53972140921951 -13.508132752687288 0 0 0 0 -38.25618163344916 -43.677038356973185 0 -43.677038356973185 163.92953684654003 0 0 0 0 -62.799985802470474 -60.06246616560702 0 -60.06246616560702 204.59071488832751 0 0 0 0 -13.605953884949201 -9.9857608025044797 0 -9.9857608025044797 -6.446799149641854 0 0 0 0 -44.149876560666598 -27.184170099800554 0 -27.184170099800554 143.39260338774079 0 0 0 0 -115.94534944438783 -78.806723753302208 0 -78.806723753302208 41.500870626056809 0 0 0 0 -157.02447813871549 -145.86135771525335 0 -145.86135771525335 -46.504636383885554 0 0 0 0 -446.61915362301806 142.91119399053059 0 142.91119399053059 95.548133307093167 0 0 0 0 -106.34452539160247 -312.45085498579692 0 -312.45085498579692 0.44532815856223351 0 0 0 0 -92.731213615188608 8.6489762145210989 0 8.6489762145210989 129.83905806431085 0 0 0 0 -72.831595773735899 -28.759308665299159 0 -28.759308665299159 191.22085233638677 0 0 0 0 -25.572831750971091 -51.638735489217197 0 -51.638735489217197 128.65902643215668 0 0 0 0 -20.912101773014001 -40.824963440139982 0 -40.824963440139982 90.900042726377251 0 0 0 0 -59.173699671024224 -5.2223224377771658 0 -5.2223224377771658 128.26051127385335 0 0 0 0 -22.834624808881927 -24.969632747399828 0 -24.969632747399828 25.888310063747667 0 0 0 0 173.34990553183161 -173.17836775407068 0 -173.17836775407068 8.4344996457748493 0 0 0 0 -439.42587772816478 52.191084152683288 0 52.191084152683288 50.094929183524528 0 0 0 0 -546.57689760051471 -329.50870997666652 0 -329.50870997666652 157.6420840171304 0 0 0 0 -463.63853604018368 -201.17700305488984 0 -201.17700305488984 201.7167536765831 0 0 0 0 9.5434373204625444 -73.826843255557833 0 -73.826843255557833 88.157723630914916 0 0 0 0 764.54115201955415 -339.18850543375243 0 -339.18850543375243 -41.465758593116334 0 0 0 0 429.79134136137145 -238.699334738787 0 -238.699334738787 249.22462686755352 0 0 0 0 356.21992565675464 45.673018581055658 0 45.673018581055658 -59.388503874083881 0 0 0 0 98.979282478088862 -140.31318714602958 0 -140.31318714602958 11.226446128017415 0 0 0 0 139.31631514392211 361.6276259853779 0 361.6276259853779 -44.885013211666092 0 0 0 0 760.88486348111473 -168.09664360358806 0 -168.09664360358806 -109.58285625642407 0 0 0 0 -405.12525702714629 -305.03434905764573 0 -305.03434905764573 135.59266973288425 0 0 0 0 -3.1033733648902739 -5.0024620199363241 0 -5.0024620199363241 -4.2639583345716838 0 0 0 0 -280.02784059803525 281.65623755171953 0 281.65623755171953 -55.292498453229769 0 0 0 0 -255.32504426846572 343.80815628323319 0 343.80815628323319 100.04143384630106 0 0 0 0 -7.912565849684924 -12.685036983532157 0 -12.685036983532157 -16.630068213548359 0 0 0 0 -868.70862575878709 327.11948563273347 0 327.11948563273347 139.4554488335898 0 0 0 0 403.77968654755387 -720.04726111861248 0 -720.04726111861248 -113.8070878285489 0 0 0 0 -616.3098674752473 135.22519062975823 0 135.22519062975823 48.645441663815291 0 0 0 0 -383.37870782992832 162.37774261765458 0 162.37774261765458 -276.07110438207451 0 0 0 0 -13.375119340113713 -20.420178754913366 0 -20.420178754913366 -22.424934126810058 0 0 0 0 -407.60576618732011 234.97234267883937 0 234.97234267883937 312.25694196617724 0 0 0 0 234.33422318407247 -523.24345345804727 0 -523.24345345804727 -65.03625987167004 0 0 0 0 -253.2145106686803 -4.3508039742631581 0 -4.3508039742631581 -2.1790057244256786 0 0 0 0 -438.93280312355637 82.020467946611006 0 82.020467946611006 37.664266577451372 0 0 0 0 -450.08174708592014 -140.16761536959399 0 -140.16761536959399 74.294951085586945 0 0 0 0 -22.117598598371842 33.644369090777218 0 33.644369090777218 -87.989265268294275 0 0 0 0 -0.64295377590895875 0.20705103727556207 0 0.20705103727556207 9.0744781625422313 0 0 0 0 -37.366274807100126 202.77526032648302 0 202.77526032648302 -122.73607204617952 0 0 0 0 2.4501239714519736 2.7632931170345927 0 2.7632931170345927 14.703084605205786 0 0 0 0 -154.50680656489567 60.227813669193381 0 60.227813669193381 -19.527132002910889 0 0 0 0 -118.23756856815453 -9.0282190727227203 0 -9.0282190727227203 9.5413820293789513 0 0 0 0 -164.83622361438756 36.086665992459871 0 36.086665992459871 3.392087162643179 0 0 0 0 -294.24996812271274 5.1034816211351028 0 5.1034816211351028 37.032730427310412 0 0 0 0 -556.11492812623328 -231.08781878086404 0 -231.08781878086404 -247.91935258732701 0 0 0 0 -1172.9791234108488 656.49544586985485 0 656.49544586985485 310.46446740766851 0 0 0 0 -1310.7009612215916 -247.87834722596745 0 -247.87834722596745 455.44312825175075 0 0 0 0 -75.801640465710079 -703.85657716397418 0 -703.85657716397418 -646.64861668062076 0 0 0 0 -225.16573283824255 22.671685895592276 0 22.671685895592276 38.097257933566766 0 0 0 0 -36.678840680058805 -2.7081900162481958 0 -2.7081900162481958 26.263201810603487 0 0 0 0 -0.92320818940379468 -2.2476144428472509 0 -2.2476144428472509 -7.9258249220293475 0 0 0 0 -96.536798482520055 21.506982472507513 0 21.506982472507513 -1.3777801859640266 0 0 0 0 -194.32329120979557 3.2312956878677994 0 3.2312956878677994 23.391654034031376 0 0 0 0 -112.60156222380465 45.065048215590195 0 45.065048215590195 35.474192753346188 0 0 0 0 -42.893773867709982 -22.869552795543889 0 -22.869552795543889 -25.125760461179308 0 0 0 0 47.088118020881666 103.97520275674833 0 103.97520275674833 -38.992697483649863 0 0 0 0 58.489240969262028 73.844595282226578 0 73.844595282226578 22.304549462191972 0 0 0 0 111.55152566652396 14.699262276758986 0 14.699262276758986 -39.443757295821342 0 0 0 0 122.56414634531393 36.450758956521668 0 36.450758956521668 -112.33743754604757 0 0 0 0 54.40368296430097 47.888072836752599 0 47.888072836752599 -26.825981740550674 0 0 0 0 -244.11149791512798 -33.025153651179153 0 -33.025153651179153 225.40139782546566 0 0 0 0 97.940643375583022 99.026996000979352 0 99.026996000979352 -113.82716143903872 0 0 0 0 120.13182848683937 586.55318203588831 0 586.55318203588831 -442.5866617532738 0 0 0 0 -83.452653728985752 2.110379067408644 0 2.110379067408644 49.194025671559075 0 0 0 0 -87.162772568226501 -12.836855600703075 0 -12.836855600703075 17.389761564152195 0 0 0 0 -48.813182971173603 -10.7415019207931 0 -10.7415019207931 3.3167108628008473 0 0 0 0 -24.456420837566355 14.631856663329899 0 14.631856663329899 16.349913199435356 0 0 0 0 -87.415258854339086 1.615516480423679 0 1.615516480423679 33.084844005696155 0 0 0 0 -69.184968957459205 -18.225654190433261 0 -18.225654190433261 -12.93172140022989 0 0 0 0 -28.853284394543152 176.17028549376664 0 176.17028549376664 459.29206502887405 0 0 0 0 187.73397095283872 36.989673845110701 0 36.989673845110701 -70.140267982797013 0 0 0 0 10.011584517395022 420.3969977112547 0 420.3969977112547 -407.06084287298108 0 0 0 0 -108.41170873587544 239.20569675083789 0 239.20569675083789 429.98507033786518 0 0 0 0 -262.20311035744817 -414.15396920345302 0 -414.15396920345302 -150.80802112275705 0 0 0 0 -78.688420440943446 -48.476203346067905 0 -48.476203346067905 33.715224983688131 0 0 0 0 -79.432711334318299 -22.280965017069338 0 -22.280965017069338 28.610745570322337 0 0 0 0 -85.751371620572172 -45.408079076882018 0 -45.408079076882018 57.077825909306284 0 0 0 0 -46.04213786129931 -28.435985572620726 0 -28.435985572620726 -7.0200285680752375 0 0 0 0 -84.368705736356787 -27.192163729631829 0 -27.192163729631829 32.686355867147753 0 0 0 0 -77.564859804519202 9.8694025994544816 0 9.8694025994544816 42.898227087938949 0 0 0 0 -81.378341425315739 -51.828035694102198 0 -51.828035694102198 47.818242716936766 0 0 0 0 -60.241826928810042 3.8211707678195808 0 3.8211707678195808 7.889666241712348 0 0 0 0 2.3284913385286927 -4.9571593531484268 0 -4.9571593531484268 -53.208436723316481 0 0 0 0 -28.577921401512867 -71.208317079741391 0 -71.208317079741391 30.524115586291487 0 0 0 0 -72.643351493347723 -29.340867300489336 0 -29.340867300489336 -6.7305600470462679 0 0 0 0 -990.08086137716623 -424.79828309654113 0 -424.79828309654113 1759.3830281016121 0 0 0 0 -1081.3186577186075 -772.65747508175264 0 -772.65747508175264 1389.8474626045354 0 0 0 0 1294.0398279368321 -347.24091384448911 0 -347.24091384448911 216.12743803338526 0 0 0 0 -0.85235569504142195 -1.588958793400657 0 -1.588958793400657 0.64451093836707507 0 0 0 0 -461.77939206442034 -183.21888824559028 0 -183.21888824559028 777.69485253414678 0 0 0 0 -550.6443048785593 -1.5984214578961655 0 -1.5984214578961655 466.38927076428081 0 0 0 0 -985.4478283094104 -284.26054727354131 0 -284.26054727354131 1393.2631022623436 0 0 0 0 -991.7457896593653 919.32873289978306 0 919.32873289978306 407.7235733356232 0 0 0 0 -15.414697098904762 -0.29678127503356677 0 -0.29678127503356677 0.58831955256977553 0 0 0 0 -83.301454357554121 354.0742480177787 0 354.0742480177787 -768.70599345292067 0 0 0 0 -1468.4141859307033 513.49619211072604 0 513.49619211072604 1461.7565121136977 0 0 0 0 -52.702389070014846 -32.39056833731545 0 -32.39056833731545 -16.710417019259793 0 0 0 0 -198.6221437250033 -103.93147078614629 0 -103.93147078614629 513.21959783889633 0 0 0 0 712.55855601612984 -1463.7524826970384 0 -1463.7524826970384 348.69278162918272 0 0 0 0 -224.70578212218788 -13.301223241496473 0 -13.301223241496473 -25.379972366583388 0 0 0 0 -101.57229311506671 347.0959658875945 0 347.0959658875945 6.1010039855218565 0 0 0 0 -149.63559296189487 -109.77522628887073 0 -109.77522628887073 21.820136554197234 0 0 0 0 -221.39633833248809 -258.27756610422466 0 -258.27756610422466 -154.36444951891826 0 0 0 0 -303.00370291140825 -256.00635095509961 0 -256.00635095509961 257.4369782982285 0 0 0 0 -227.48889742322717 -280.78378028698489 0 -280.78378028698489 -229.89304882396027 0 0 0 0 -4.9063664703095924 2.251516558201601 0 2.251516558201601 1.5170159991725183 0 0 0 0 -121.00754133309238 -195.34042238418988 0 -195.34042238418988 -368.06457848206628 0 0 0 0 -29.187454208295094 -33.888848581462298 0 -33.888848581462298 -177.03369078783362 0 0 0 0 -147.25506955832316 -103.73358789809663 0 -103.73358789809663 34.314841689103559 0 0 0 0 -44.621466780445189 8.6425399265026499 0 8.6425399265026499 -34.02663514095434 0 0 0 0 -5.2316288645250779 -1.2924616473872419 0 -1.2924616473872419 -0.11037812627924737 0 0 0 0 -1072.6528751794049 -301.57236826880819 0 -301.57236826880819 -123.97584538359979 0 0 0 0 -235.92641382356669 280.75437005560048 0 280.75437005560048 37.154866019276824 0 0 0 0 -21.16035233450512 -30.591473513731039 0 -30.591473513731039 -34.151338197428892 0 0 0 0 -83.342952145132585 -308.94694353409091 0 -308.94694353409091 -206.50777015770745 0 0 0 0 206.52847906620309 -508.51163076126738 0 -508.51163076126738 -714.9433883245747 0 0 0 0 413.57455991343159 -314.08061314943416 0 -314.08061314943416 76.86857176846479 0 0 0 0 -239.36164475057012 118.20678162659533 0 118.20678162659533 305.31145899794876 0 0 0 0 -824.65552057995956 -237.78260058064382 0 -237.78260058064382 -136.21132469163695 0 0 0 0 -20.783662938992023 -25.258494344968973 0 -25.258494344968973 -28.059193310433834 0 0 0 0 -2564.8583110808067 -150.28042713649256 0 -150.28042713649256 238.64057442592502 0 0 0 0 -1137.0335295223995 374.17562703369276 0 374.17562703369276 70.063859362158212 0 0 0 0 -2610.8679208549147 -49.397758442948316 0 -49.397758442948316 254.52866498471491 0 0 0 0 -2542.7944355297259 -382.37604259956754 0 -382.37604259956754 434.05852976114465 0 0 0 0 -1353.4315421476276 80.046513630926484 0 80.046513630926484 198.55390002021227 0 0 0 0 -2534.5979446580022 -467.0415640676772 0 -467.0415640676772 143.10496205981781 0 0 0 0 -1139.2090571849767 -356.33441708838109 0 -356.33441708838109 -141.40788074517013 0 0 0 0 -2182.9688314436166 -785.17618469069589 0 -785.17618469069589 -413.37574437560215 0 0 0 0 -2224.3632190687722 -483.64826592956132 0 -483.64826592956132 10.066190939128774 0 0 0 0 -1007.6878464932088 -233.88722506135218 0 -233.88722506135218 -241.147425422754 0 0 0 0 -156.02271146078419 82.845764089210888 0 82.845764089210888 -251.70532647514435 0 0 0 0 -626.89980279681185 24.169850285793814 0 24.169850285793814 7.7969999005842965 0 0 0 0 -252.8528689720697 -169.98550059855756 0 -169.98550059855756 -256.51111590319988 0 0 0 0 -924.17524211507043 20.931520123834389 0 20.931520123834389 -17.801079554446915 0 0 0 0 -128.89983047018177 67.505531804620205 0 67.505531804620205 59.820430424931146 0 0 0 0 -246.287942078161 -37.942743979628403 0 -37.942743979628403 -9.9519806917896858 0 0 0 0 -19.652657901373459 50.468647408592005 0 50.468647408592005 -73.03256228788814 0 0 0 0 -21.113486812522751 67.018435842057897 0 67.018435842057897 -176.67100692062331 0 0 0 0 54.633058373759013 48.475322632718161 0 48.475322632718161 -107.38123461193754 0 0 0 0 -157.66745210072258 89.803021726842871 0 89.803021726842871 -42.04967895914001 0 0 0 0 47.031315156034452 105.41881045039109 0 105.41881045039109 -72.686695448765931 0 0 0 0 -43.236434961436316 44.527933814276935 0 44.527933814276935 -52.961290658025518 0 0 0 0 -95.93836026245117 234.50741187620264 0 234.50741187620264 257.56425817628406 0 0 0 0 -41.31865756244062 16.288068587770375 0 16.288068587770375 -1.7551147786570449 0 0 0 0 223.516629941063 224.51431063835184 0 224.51431063835184 -16.562211759113126 0 0 0 0 -29.409489845949196 0.22586953867603654 0 0.22586953867603654 8.0432461002761286 0 0 0 0 55.191893236056785 201.94429117220457 0 201.94429117220457 -161.68387382338574 0 0 0 0 -138.56646011563498 -307.56987368908744 0 -307.56987368908744 -295.46356242311879 0 0 0 0 -32.482290698157158 16.628502647933772 0 16.628502647933772 -9.4425150865910155 0 0 0 0 -71.831110874169099 71.40159835162261 0 71.40159835162261 -6.5526559183660993 0 0 0 0 -34.952026019785066 17.888665533166858 0 17.888665533166858 4.0862610611577335 0 0 0 0 -54.236244814725069 8.9589603089817729 0 8.9589603089817729 16.077032811539652 0 0 0 0 -121.29476282111136 -4.1830795922089123 0 -4.1830795922089123 55.824301025704983 0 0 0 0 17.92855882330332 55.907117271545786 0 55.907117271545786 -36.000927664465735 0 0 0 0 -21.31971900182532 20.495851909223191 0 20.495851909223191 5.7482039177130808 0 0 0 0 -52.823193421783799 -4.3260140783727934 0 -4.3260140783727934 3.7567424336518513 0 0 0 0 1.1908176842372313 10.513513166628314 0 10.513513166628314 5.4195414881378241 0 0 0 0 -10.839110843386152 2.9851137346531686 0 2.9851137346531686 14.216009909464788 0 0 0 0 -53.591062000203237 81.959946880266273 0 81.959946880266273 -54.140388873162237 0 0 0 0 -331.8299871347408 742.53409150840093 0 742.53409150840093 -955.70438864316361 0 0 0 0 -134.40442069144046 413.03164804469498 0 413.03164804469498 -756.61433510856978 0 0 0 0 -151.72638463636395 983.91355594144966 0 983.91355594144966 103.64824451745244 0 0 0 0 -147.51058425905649 298.29840985883493 0 298.29840985883493 -169.64538777248481 0 0 0 0 -43.389530214337356 15.313824912912821 0 15.313824912912821 -1.4560795914085247 0 0 0 0 -347.94983065738052 412.84530508088005 0 412.84530508088005 29.728076823295396 0 0 0 0 -435.77468512563792 235.78714102229719 0 235.78714102229719 -219.74677232884756 0 0 0 0 -25.853063254725924 2.3783833385765334 0 2.3783833385765334 6.0505424924315685 0 0 0 0 -21.869359227232053 4.9794500538691864 0 4.9794500538691864 2.1550605682798505 0 0 0 0 -12.573168656301988 3.7949352939609327 0 3.7949352939609327 3.1844559592733828 0 0 0 0 -23.465853242344366 -1.7547660097205835 0 -1.7547660097205835 4.4799444598474745 0 0 0 0 -22.700164123793002 9.5125583292242766 0 9.5125583292242766 14.520007990470845 0 0 0 0 -1577.6819905926241 -879.42758543227546 0 -879.42758543227546 -359.23845316280131 0 0 0 0 -450.22893038037728 -887.85776596763412 0 -887.85776596763412 -696.21819008961234 0 0 0 0 -39.027050467797267 6.8301607528562016 0 6.8301607528562016 2.5992596547754432 0 0 0 0 -557.54139816065435 96.898751703341361 0 96.898751703341361 217.08308223546362 0 0 0 0 -40.761902373833436 19.415698863107679 0 19.415698863107679 24.429541755514038 0 0 0 0 -762.57010176254244 -477.40833864930545 0 -477.40833864930545 -108.47117715808315 0 0 0 0 -1729.1964994608861 -662.20546046692903 0 -662.20546046692903 -65.526763189460326 0 0 0 0 -2174.9464629393478 -1020.3138939307903 0 -1020.3138939307903 -63.985116151030866 0 0 0 0 -3317.0196259928634 -1355.4085876318477 0 -1355.4085876318477 241.87987177663052 0 0 0 0 -3381.4374372739003 -1500.5117193152512 0 -1500.5117193152512 -59.227228844016508 0 0 0 0 -3197.7561219822965 -1615.5648392978685 0 -1615.5648392978685 -595.30779787953145 0 0 0 0 -3143.1865830480601 -1347.4930578507826 0 -1347.4930578507826 -28.382707323612976 0 0 0 0 -2722.8035348506637 -1533.1172321152917 0 -1533.1172321152917 -587.68892131719178 0 0 0 0 -2666.6829810456693 -1491.953543133932 0 -1491.953543133932 -257.40149414961888 0 0 0 0 -1458.6639711948228 -892.12144840383144 0 -892.12144840383144 -952.90595163142916 0 0 0 0 -2950.2588912539213 -1046.9029019953728 0 -1046.9029019953728 -43.891530403364868 0 0 0 0 -3005.4813173173461 -1099.1808277279938 0 -1099.1808277279938 -540.41108572791154 0 0 0 0 -3090.1151092582659 -1342.7627974236952 0 -1342.7627974236952 -587.23106225932054 0 0 0 0 -3892.2103112648692 -3519.0529167759869 0 -3519.0529167759869 -1546.3969178823336 0 0 0 0 -1804.6594446494128 2090.3162442721309 0 2090.3162442721309 -1761.0325296034807 0 0 0 0 -2.2521580329486994 -1.6666013657298393 0 -1.6666013657298393 2.4173754163000067 0 0 0 0 -7795.9989240025607 -884.47611898786545 0 -884.47611898786545 -999.84861819498838 0 0 0 0 -7.7186964496216888 -1.9274225340315745 0 -1.9274225340315745 1.465943701357344 0 0 0 0 -4558.8536316884565 2283.6548436011308 0 2283.6548436011308 -1140.3270481959426 0 0 0 0 -2308.7484042562428 -778.01644156673183 0 -778.01644156673183 -897.38393442424331 0 0 0 0 -2771.5635794751288 -455.24064626360996 0 -455.24064626360996 -1064.547728808353 0 0 0 0 -2364.0120532691362 -1557.8987700511552 0 -1557.8987700511552 -2207.7373950500787 0 0 0 0 -3442.5389763106941 -2069.0836236690939 0 -2069.0836236690939 -1251.2130205179838 0 0 0 0 -3096.1055871964927 -2370.8426557885332 0 -2370.8426557885332 -3106.3873153193304 0 0 0 0 -2989.4721545515349 -472.21735347238752 0 -472.21735347238752 -2341.7672708105647 0 0 0 0 -2764.9758043296606 -1321.6427935042702 0 -1321.6427935042702 -1646.5399569718838 0 0 0 0 -2991.3129200537514 -1918.1487170329106 0 -1918.1487170329106 -1131.4685058160503 0 0 0 0 -2293.2613867083292 -2140.9737674598337 0 -2140.9737674598337 -1060.6440149241023 0 0 0 0 -2299.4420595299016 -1871.6991685812757 0 -1871.6991685812757 -1510.6089697736866 0 0 0 0 -2246.4304343046097 -1760.8460603700435 0 -1760.8460603700435 -1361.8503435189123 0 0 0 0 -2588.3133297026143 -1982.5939268416223 0 -1982.5939268416223 -599.47393054914198 0 0 0 0 -2289.503483931032 -2307.0265986248519 0 -2307.0265986248519 -253.90103977553713 0 0 0 0 -2359.0048626927892 -2073.5440162970181 0 -2073.5440162970181 -719.88375136036075 0 0 0 0 -795.55079251046118 -1732.0365261856582 0 -1732.0365261856582 -668.95319820351915 0 0 0 0 -1524.031898665271 -780.16575923252094 0 -780.16575923252094 18.334875037304528 0 0 0 0 764.24829907742128 1215.3199361969369 0 1215.3199361969369 629.44027232093595 0 0 0 0 729.37070966640022 -1028.575983660066 0 -1028.575983660066 -21.829570905973696 0 0 0 0 -811.0149157047199 -845.19326119470509 0 -845.19326119470509 -490.24066488735389 0 0 0 0 -847.52102281212865 138.58450821139672 0 138.58450821139672 -1029.4856155385496 0 0 0 0 -696.97412330046063 696.11570214705307 0 696.11570214705307 -455.01510404340479 0 0 0 0 -2325.8564820257889 -415.47757480893142 0 -415.47757480893142 -471.70555117316599 0 0 0 0 -1637.0812407435733 -1518.1544900377635 0 -1518.1544900377635 -1117.83295327527 0 0 0 0 -3782.8817731397066 -3071.6079355830279 0 -3071.6079355830279 -913.59482653251598 0 0 0 0 -2662.7503132493393 -2336.1460832204502 0 -2336.1460832204502 -869.9578150179492 0 0 0 0 -3766.2878541679456 -2971.4956271320725 0 -2971.4956271320725 -1096.2266923266136 0 0 0 0 -3828.3984495732293 -2596.7672193779217 0 -2596.7672193779217 -813.37094713553017 0 0 0 0 -3003.2454580354733 -1896.1233473451005 0 -1896.1233473451005 -480.24723464490518 0 0 0 0 -4412.507465464194 -1997.6367216042554 0 -1997.6367216042554 176.43952566707594 0 0 0 0 -5501.1636188677585 -2711.7428502729226 0 -2711.7428502729226 -16.319098297784198 0 0 0 0 -4129.8615603547805 -1800.3144734378488 0 -1800.3144734378488 136.42425869553273 0 0 0 0 -3994.4949350870738 -1571.8002135618121 0 -1571.8002135618121 78.748573133239915 0 0 0 0 -3188.8648787096317 -1711.7685879386297 0 -1711.7685879386297 -501.08628254983989 0 0 0 0 -3314.0777363599736 -1726.8817692597474 0 -1726.8817692597474 444.17749607852829 0 0 0 0 -3011.9450415248939 -1407.0400688384805 0 -1407.0400688384805 97.249611411768811 0 0 0 0 -5498.0696997296545 -1328.2916960879995 0 -1328.2916960879995 788.98009183561487 0 0 0 0 -3830.2447441594923 -505.79593496240909 0 -505.79593496240909 1110.2177121191817 0 0 0 0 -5500.3305314186873 -320.89100104217317 0 -320.89100104217317 1327.8473884094842 0 0 0 0 -1911.7413282948619 931.12953160082498 0 931.12953160082498 1340.3205287778685 0 0 0 0 -3620.1145929410995 -1466.0011712328794 0 -1466.0011712328794 792.98008349995689 0 0 0 0 -3735.8184979496218 -1254.9525960914928 0 -1254.9525960914928 419.5261221688769 0 0 0 0 -2930.5564699303577 -484.97607323179841 0 -484.97607323179841 -19.679136654589001 0 0 0 0 -3859.0030703457014 -1151.9094817978194 0 -1151.9094817978194 143.67610430081754 0 0 0 0 -22.473627985877044 -8.0437111072997851 0 -8.0437111072997851 0.73454399237654489 0 0 0 0 -1383.9670392480693 -2606.0115326342966 0 -2606.0115326342966 1272.5505240177629 0 0 0 0 -3746.4804113880564 1514.7863964367161 0 1514.7863964367161 975.58574163934918 0 0 0 0 -4755.7501568241933 -204.5229623719049 0 -204.5229623719049 999.2313873885214 0 0 0 0 -3447.0142671847716 -233.80738344166332 0 -233.80738344166332 514.37840123033948 0 0 0 0 -3346.9404843906123 317.45580150145327 0 317.45580150145327 1191.5851495111342 0 0 0 0 -2752.8009977399779 362.29341057855208 0 362.29341057855208 457.32293014214258 0 0 0 0 -2857.675810176228 157.97437858761251 0 157.97437858761251 424.62145259865406 0 0 0 0 -3390.4866745896088 -1904.25144861839 0 -1904.25144861839 718.5014477234289 0 0 0 0 -5490.2636506156896 1606.2370229769758 0 1606.2370229769758 1351.1166902440038 0 0 0 0 -960.08002883380323 -2339.5010769493192 0 -2339.5010769493192 795.83178330648479 0 0 0 0 -23.299814321886402 -7.5900622540366456 0 -7.5900622540366456 0.98166322204659684 0 0 0 0 -318.16850830399198 514.13877051078373 0 514.13877051078373 250.25483892319153 0 0 0 0 -1821.1952590424335 -509.36980769430619 0 -509.36980769430619 192.1219275971082 0 0 0 0 301.02521684164822 106.37621144853573 0 106.37621144853573 -557.04806580783963 0 0 0 0 -11.046733684016276 -18.405719985303506 0 -18.405719985303506 -5.86628030834017 0 0 0 0 -4263.8944901601499 -633.0100891116839 0 -633.0100891116839 788.96552539406377 0 0 0 0 -2972.9328606723284 855.96604273173341 0 855.96604273173341 216.81242964980461 0 0 0 0 -5500.8292706740467 474.4101969321697 0 474.4101969321697 1280.3225121548055 0 0 0 0 -2868.9034112729714 -2166.6157718991194 0 -2166.6157718991194 -592.88960193272987 0 0 0 0 -6877.9007039479911 -807.15252617563715 0 -807.15252617563715 337.90620721733495 0 0 0 0 -5059.0823446483409 -82.982071843382585 0 -82.982071843382585 451.09097208537821 0 0 0 0 -6210.0188693929522 -2104.8786493282832 0 -2104.8786493282832 -516.64701279880444 0 0 0 0 -560.75105855573929 2342.7681860892844 0 2342.7681860892844 -454.56583724087841 0 0 0 0 -15.259495679258293 6.0372939585025165 0 6.0372939585025165 -1.0364771744983883 0 0 0 0 -1010.7199087400222 325.78023440992411 0 325.78023440992411 95.270662247488147 0 0 0 0 -1300.6151608910877 -356.3405260183772 0 -356.3405260183772 1168.6038558101309 0 0 0 0 632.05245982953056 -864.14417265384532 0 -864.14417265384532 663.83587860109219 0 0 0 0 -13.745789422489704 -3.4948308037094762 0 -3.4948308037094762 1.6117956198814514 0 0 0 0 494.95404223812511 159.46808528577139 0 159.46808528577139 -1282.8946708938015 0 0 0 0 43.495742981729563 -138.69576155098753 0 -138.69576155098753 1194.9267009395476 0 0 0 0 -36.023331055279698 9.5109084215031885 0 9.5109084215031885 1.2676082218110469 0 0 0 0 -873.8965745405294 -1713.433898180195 0 -1713.433898180195 470.8778476373036 0 0 0 0 -198.14097230625339 -48.501468346222055 0 -48.501468346222055 16.014125657389286 0 0 0 0 -144.39084729201022 -21.28411395591975 0 -21.28411395591975 -24.821152259879 0 0 0 0 -44.052046906101168 -112.62729587095413 0 -112.62729587095413 -7.0756529137887583 0 0 0 0 -119.14818430499872 -43.522330378037623 0 -43.522330378037623 -78.424031858969101 0 0 0 0 -133.07174302695785 -66.06639996793092 0 -66.06639996793092 33.386763044007921 0 0 0 0 -142.00246163910197 -64.552920466580417 0 -64.552920466580417 19.12990686197827 0 0 0 0 -136.39645157163613 -53.261794000216014 0 -53.261794000216014 3.1541312556419143 0 0 0 0 -48.426461111200808 5.473110648489012 0 5.473110648489012 24.551679230604321 0 0 0 0 -91.27784679371689 -36.527933064511672 0 -36.527933064511672 -0.19347255441061861 0 0 0 0 -80.280102022397841 -20.847494754750208 0 -20.847494754750208 13.71059588525145 0 0 0 0 -95.2256439201592 -100.63251251848851 0 -100.63251251848851 -54.33974066708015 0 0 0 0 -79.971307807385529 -19.648746388509039 0 -19.648746388509039 8.6230102389822605 0 0 0 0 -37.686292647661077 2.3238560726190656 0 2.3238560726190656 29.566416080078895 0 0 0 0 -89.048502149613341 -13.211214858398307 0 -13.211214858398307 8.3794985134950082 0 0 0 0 -30.827479090658017 -8.5062904655151215 0 -8.5062904655151215 -17.459649156534397 0 0 0 0 -92.930225266289199 20.159058813685078 0 20.159058813685078 -30.473486173170386 0 0 0 0 -34.491082721302519 -40.721597538477226 0 -40.721597538477226 -11.802160322952659 0 0 0 0 -72.695365157647757 -17.904084846480032 0 -17.904084846480032 10.706465627642615 0 0 0 0 -80.591353609779617 -22.630074111875956 0 -22.630074111875956 12.678693410668529 0 0 0 0 -148.59667326079216 -9.7452876515453681 0 -9.7452876515453681 10.867931072693182 0 0 0 0 -81.72132078478171 -58.605663356328023 0 -58.605663356328023 1.2502407675456197 0 0 0 0 -5.7344694254680881 -15.132697911524275 0 -15.132697911524275 19.070827071000522 0 0 0 0 339.51363949988445 -261.07970443080626 0 -261.07970443080626 -133.47663742552504 0 0 0 0 -31.020266806619475 -144.76184578145876 0 -144.76184578145876 340.17813804400612 0 0 0 0 -315.4797299123602 -392.61714469066158 0 -392.61714469066158 172.07641966031497 0 0 0 0 -1492.1269770518702 786.68932702466986 0 786.68932702466986 -51.554969715958492 0 0 0 0 -4820.7064931573113 291.21833695472486 0 291.21833695472486 512.32714983960432 0 0 0 0 -3995.8857378178218 1791.3777554290236 0 1791.3777554290236 38.636491466870467 0 0 0 0 -1775.6314298546058 258.62262432671156 0 258.62262432671156 210.80765247250554 0 0 0 0 -1277.26557309895 1133.7806412443663 0 1133.7806412443663 -631.57044149191699 0 0 0 0 -5491.9521982471924 1065.2054214379398 0 1065.2054214379398 -346.69422856176254 0 0 0 0 -4085.5839678601769 180.99065071481229 0 180.99065071481229 -8.4320541239487738 0 0 0 0 -3756.1657310137816 4024.7203004875541 0 4024.7203004875541 -1260.0887119598376 0 0 0 0 -20.597713024704717 366.56724125964138 0 366.56724125964138 -186.16486540433834 0 0 0 0 -12.812384626669029 7.1772956713312794 0 7.1772956713312794 -6.4175327933995341 0 0 0 0 -17.505995620606427 -1.8571625669112066 0 -1.8571625669112066 3.861400692317484 0 0 0 0 -8.5795027606507119 -1.5445499684646116 0 -1.5445499684646116 -1.4360779335932465 0 0 0 0 -2609.8809784188124 -1039.4574894573882 0 -1039.4574894573882 26.312799738998024 0 0 0 0 469.32908644102281 -2393.4067604008455 0 -2393.4067604008455 -3235.2425676882754 0 0 0 0 -5493.2872402506619 -1427.2057366514218 0 -1427.2057366514218 634.27369936258458 0 0 0 0 -8.6372127295665564 5.530289238846934 0 5.530289238846934 -0.78195675323531422 0 0 0 0 390.07972576575412 217.01248943440638 0 217.01248943440638 -387.52817133638092 0 0 0 0 -17.537293249391951 6.7811955551170016 0 6.7811955551170016 36.740894339615231 0 0 0 0 -1.2055486184245865 -10.956396476321544 0 -10.956396476321544 9.4259774202168725 0 0 0 0 -31.88179350411923 18.102478255082723 0 18.102478255082723 13.944236103356902 0 0 0 0 6.4740555873140693 -3.0619903872775467 0 -3.0619903872775467 100.90512216431125 0 0 0 0 -1.274949338793208 3.0335687195780565 0 3.0335687195780565 -0.19374855818831094 0 0 0 0 -27.043429982873931 32.36949356312843 0 32.36949356312843 141.18519376093718 0 0 0 0 -60.972598073819398 -11.52724656158577 0 -11.52724656158577 28.35236002097686 0 0 0 0 -2034.5228410097297 31.17357653829902 0 31.17357653829902 51.588149133607317 0 0 0 0 333.14979003738699 -250.2741472294484 0 -250.2741472294484 -484.67895566421606 0 0 0 0 -2018.4113804905064 -110.28727982223529 0 -110.28727982223529 733.09859826457853 0 0 0 0 -5489.8226635433966 650.34000461083929 0 650.34000461083929 807.33612172682797 0 0 0 0 -35.69951172871464 -11.533197701363735 0 -11.533197701363735 -7.5931571909315974 0 0 0 0 -2573.0983024339512 1517.2728032498637 0 1517.2728032498637 -473.73083837087341 0 0 0 0 -1891.1151453529019 -2286.9843300863795 0 -2286.9843300863795 -2054.2782407659802 0 0 0 0 46.502577939296316 -368.77815745621228 0 -368.77815745621228 -968.84542278543631 0 0 0 0 -5489.8447476915844 -4273.9101138290198 0 -4273.9101138290198 -1712.1489580866614 0 0 0 0 -2420.2521767520375 -3843.4878263753635 0 -3843.4878263753635 -5422.4425762126375 0 0 0 0 632.33931088011013 -935.61166624997782 0 -935.61166624997782 678.48909485949389 0 0 0 0 -13.467184642289368 -6.0476223639872444 0 -6.0476223639872444 6.9702257465190645 0 0 0 0 761.64183179143583 860.58258974908767 0 860.58258974908767 2485.1625791498427 0 0 0 0 -4.6073551119263527 0.74882170658595015 0 0.74882170658595015 2.7773819263490678 0 0 0 0 -783.54570642828185 -197.78749663699273 0 -197.78749663699273 8.8016859194708559 0 0 0 0 434.99498522836075 265.93051620379629 0 265.93051620379629 -123.3146011432043 0 0 0 0 -752.99369994454901 -1347.8159669729234 0 -1347.8159669729234 -248.50932087928206 0 0 0 0 -87.255808926386266 -18.012996272232272 0 -18.012996272232272 8.4986991418924482 0 0 0 0 -1302.9579820940126 -567.73433891017703 0 -567.73433891017703 -19.761840116604617 0 0 0 0 147.01835597257013 -227.0572959670925 0 -227.0572959670925 164.68475934399549 0 0 0 0 -125.47262318794674 -147.05464978827513 0 -147.05464978827513 -172.20243822908287 0 0 0 0 -2.4054520902063814 36.417144516302642 0 36.417144516302642 20.935854041747916 0 0 0 0 -4.2346307685993452 0.7327417507915257 0 0.7327417507915257 8.5918270134805468 0 0 0 0 -63.803373988136158 1.7787652721479503 0 1.7787652721479503 36.912953543406182 0 0 0 0 -200.68860978014709 -103.77353247965493 0 -103.77353247965493 45.213203676536523 0 0 0 0 -51.914372965662551 23.938655640358434 0 23.938655640358434 108.13348457890879 0 0 0 0 -38.459311963059008 -49.007530903822953 0 -49.007530903822953 -74.895841559536166 0 0 0 0 -54.127930725811893 -66.724405608283405 0 -66.724405608283405 -14.229862986796434 0 0 0 0 -27.970604061236372 -66.131956915134879 0 -66.131956915134879 -14.555225518004477 0 0 0 0 -0.65765786072847732 -19.34131098416978 0 -19.34131098416978 18.200758970457187 0 0 0 0 -178.7962806065334 73.759769112506547 0 73.759769112506547 119.78431086193496 0 0 0 0 -74.553566645685351 -47.65599612122071 0 -47.65599612122071 63.828613105681143 0 0 0 0 -59.993972018564818 21.786708420727336 0 21.786708420727336 138.09308954546259 0 0 0 0 -47.044598964774991 -7.5909018781671893 0 -7.5909018781671893 5.5348995384069424 0 0 0 0 -8.8045475292528863 -12.250205381153307 0 -12.250205381153307 85.530741232471883 0 0 0 0 -0.2306035319022044 -6.2229598611989871 0 -6.2229598611989871 5.144134825442424 0 0 0 0 -48.122751633058272 -9.4501555544973463 0 -9.4501555544973463 2.0114660323482729 0 0 0 0 -48.503976569678343 -50.681713687652291 0 -50.681713687652291 50.753044899538509 0 0 0 0 47.403057860006811 -30.11944255495473 0 -30.11944255495473 -67.015163101969392 0 0 0 0 -129.09871272707824 -2.3548043871965092 0 -2.3548043871965092 187.59284900740636 0 0 0 0 -49.119664838945027 -22.978690018506768 0 -22.978690018506768 9.9169683381751383 0 0 0 0 1371.4007649592822 267.56555048873975 0 267.56555048873975 -234.61173075760962 0 0 0 0 -23.061522642670298 -27.480619011484492 0 -27.480619011484492 -12.032411569734354 0 0 0 0 -15.852228281686621 37.966430673643913 0 37.966430673643913 261.73204856777556 0 0 0 0 50.707677565973427 75.984786436144532 0 75.984786436144532 202.71181789743878 0 0 0 0 -4.4229449311386659 -2.2107660089894523 0 -2.2107660089894523 -0.033202677199668074 0 0 0 0 -40.684350374038331 -6.7727525036393672 0 -6.7727525036393672 164.07009534457393 0 0 0 0 -1138.956968450213 -81.691449799073553 0 -81.691449799073553 116.05701054294127 0 0 0 0 -3.0628776177857731 -6.2998980352380656 0 -6.2998980352380656 -1.488822292934544 0 0 0 0 659.15447392224451 -564.82157914923141 0 -564.82157914923141 -943.96322101759483 0 0 0 0 65.901376289046311 13.657330503922822 0 13.657330503922822 -31.082533426183545 0 0 0 0 42.603058455773862 50.752373708635787 0 50.752373708635787 70.558292304713177 0 0 0 0 89.486666178359883 63.44738346381564 0 63.44738346381564 73.251747542957219 0 0 0 0 21.949569361982867 62.43044536394882 0 62.43044536394882 71.647176831628258 0 0 0 0 63.677833281486528 96.375475821341752 0 96.375475821341752 54.551199950645241 0 0 0 0 60.263367341613048 128.04283343734323 0 128.04283343734323 63.196879940838699 0 0 0 0 -161.26100329417386 10.07849263368189 0 10.07849263368189 114.21096855934866 0 0 0 0 3.227245645277435 -22.170889150437688 0 -22.170889150437688 119.56538131261732 0 0 0 0 57.352498975058552 87.944879623366432 0 87.944879623366432 62.898089136337148 0 0 0 0 27.042624298104784 68.319205218158459 0 68.319205218158459 56.267755796347501 0 0 0 0 -13.687105244956911 104.18602493012804 0 104.18602493012804 34.104114596433647 0 0 0 0 20.779766133287922 48.106055863214351 0 48.106055863214351 6.1445501747084563 0 0 0 0 -116.01630932386615 -11.88277403556549 0 -11.88277403556549 52.438372420367159 0 0 0 0 -396.639625489639 -141.7647168617068 0 -141.7647168617068 219.07174242616202 0 0 0 0 -392.34043694837601 -75.227149220433603 0 -75.227149220433603 45.968330323568239 0 0 0 0 142.75113490899093 120.4583605164471 0 120.4583605164471 -254.22549501580306 0 0 0 0 -227.3749537390031 181.993254743124 0 181.993254743124 -47.630339893858036 0 0 0 0 174.11021282510774 -65.014003398549903 0 -65.014003398549903 -67.361974368075607 0 0 0 0 -222.84959180749138 217.32078212611441 0 217.32078212611441 38.995300284025461 0 0 0 0 58.226581495735445 -69.396244383603516 0 -69.396244383603516 197.87074032862984 0 0 0 0 -40.630310507197919 -16.920939875349831 0 -16.920939875349831 -7.4273856112958416 0 0 0 0 -362.937078018178 191.411289901109 0 191.411289901109 46.83020701647397 0 0 0 0 -2.387824520381173 0.090472759842029404 0 0.090472759842029404 0.50481696168842627 0 0 0 0 -829.99974313882558 -26.734853686316228 0 -26.734853686316228 153.07725155930257 0 0 0 0 -791.07896791439271 198.62522781007203 0 198.62522781007203 519.5262933274405 0 0 0 0 -615.34365188976517 68.538032066437722 0 68.538032066437722 377.3161667965901 0 0 0 0 55.934225553646684 -248.72218610871892 0 -248.72218610871892 567.54290674679294 0 0 0 0 -459.66979866506426 337.99673547058626 0 337.99673547058626 712.17884709688951 0 0 0 0 -452.95693946786923 450.81125103404975 0 450.81125103404975 86.263601575940811 0 0 0 0 -67.150260205495215 -27.024920488855521 0 -27.024920488855521 -2.6995690868841562 0 0 0 0 -385.85540014611615 272.37046740865549 0 272.37046740865549 609.30918485727148 0 0 0 0 -401.18243660657026 207.66943759676769 0 207.66943759676769 2335.8661261863217 0 0 0 0 -174.14047944435151 -339.81499133426274 0 -339.81499133426274 703.17341232428521 0 0 0 0 -112.19689291268878 -182.17635306912297 0 -182.17635306912297 459.19909343206598 0 0 0 0 -469.33742019883357 208.54122499807099 0 208.54122499807099 485.19631141006244 0 0 0 0 -437.27789907308761 -24.149255683574914 0 -24.149255683574914 937.49513060444656 0 0 0 0 -241.74904420881649 -478.61807272711638 0 -478.61807272711638 868.60953812667753 0 0 0 0 1.2644629478976981 1.4187089797664143 0 1.4187089797664143 1.7527418472727401 0 0 0 0 125.42896101993392 -202.19117480387422 0 -202.19117480387422 468.58385342664224 0 0 0 0 -513.40226670823176 -64.777349492452686 0 -64.777349492452686 486.02743257303985 0 0 0 0 -99.462541996901564 118.30265781474748 0 118.30265781474748 478.04943394357963 0 0 0 0 -18.870334772902424 30.151037473801125 0 30.151037473801125 557.48097372753682 0 0 0 0 243.37561448097404 420.29375927902629 0 420.29375927902629 288.70677832989645 0 0 0 0 -280.22918738446606 16.599952839711023 0 16.599952839711023 431.4234540730647 0 0 0 0 -389.70017639372963 204.70663284417333 0 204.70663284417333 242.91821075617358 0 0 0 0 -208.68575901574513 575.26740013668132 0 575.26740013668132 259.69397676894869 0 0 0 0 -154.96979280798405 345.00965971736855 0 345.00965971736855 -547.85545100684612 0 0 0 0 -1033.281232408699 183.92409167145229 0 183.92409167145229 204.96048339534991 0 0 0 0 -186.04647770086012 108.50439353513457 0 108.50439353513457 178.93823923307582 0 0 0 0 -219.63143638562178 -331.80618616406116 0 -331.80618616406116 197.6836702227024 0 0 0 0 -406.47417105383647 -118.00776134816942 0 -118.00776134816942 155.32713619221659 0 0 0 0 -315.25298933506565 -188.88268347403823 0 -188.88268347403823 -120.46502158489602 0 0 0 0 -1639.7503210609648 -226.52559751012166 0 -226.52559751012166 -93.054193684802158 0 0 0 0 -134.6387710609124 -267.47017365438478 0 -267.47017365438478 -305.87287115438357 0 0 0 0 -838.50914097526402 819.32403414898408 0 819.32403414898408 -652.30633634267031 0 0 0 0 -14.243259808212599 -4.9706186959364018 0 -4.9706186959364018 -2.470902704987866 0 0 0 0 -730.70233426830964 -688.29222796469958 0 -688.29222796469958 -327.0349495766626 0 0 0 0 -116.88632782512286 -134.79776056853507 0 -134.79776056853507 96.811273995119791 0 0 0 0 -16.071962087246106 0.47816918675431297 0 0.47816918675431297 0.48925437714411235 0 0 0 0 -570.8060720398571 -579.15062555675013 0 -579.15062555675013 537.70707707070028 0 0 0 0 -635.41123295387661 -967.30572373785049 0 -967.30572373785049 -5.8035629962253097 0 0 0 0 -116.40341512038867 811.92386516788895 0 811.92386516788895 -580.94175582678827 0 0 0 0 360.17641842288867 265.13645158521837 0 265.13645158521837 -176.52583046459904 0 0 0 0 -166.3622704626905 315.915051914679 0 315.915051914679 -136.46763875499937 0 0 0 0 86.506103236792114 80.893335069332636 0 80.893335069332636 42.848289041490716 0 0 0 0 -101.42295224085137 76.142416485027525 0 76.142416485027525 151.67479956705165 0 0 0 0 -222.51579115244385 479.15798820850364 0 479.15798820850364 -112.83787039615501 0 0 0 0 -1063.5617827712122 307.74425603321811 0 307.74425603321811 123.02922441380497 0 0 0 0 -869.03650228411425 -838.37481451314727 0 -838.37481451314727 184.08448432188106 0 0 0 0 -271.62836180979502 -708.24940344942308 0 -708.24940344942308 -148.44885620453078 0 0 0 0 -456.33199904474168 -352.49040437824544 0 -352.49040437824544 46.68966434333106 0 0 0 0 217.05275226048252 -412.66367354221063 0 -412.66367354221063 -156.65873910589607 0 0 0 0 -47.088623272957193 -34.021206340224467 0 -34.021206340224467 11.025446185604778 0 0 0 0 -38.645560170978627 -8.5288871738339225 0 -8.5288871738339225 30.413109258907841 0 0 0 0 -43.308300703094574 -74.788187276890767 0 -74.788187276890767 -73.049310547566165 0 0 0 0 -97.646843664931112 -59.42733218651037 0 -59.42733218651037 18.477162267090534 0 0 0 0 6.0847791762460819 -39.871984391860877 0 -39.871984391860877 -38.110627760142435 0 0 0 0 32.433774950186489 -151.42955312611252 0 -151.42955312611252 30.636547821056865 0 0 0 0 -282.5897939735587 -18.280216490771636 0 -18.280216490771636 103.97642366565105 0 0 0 0 -161.324846795334 5.9416169154903358 0 5.9416169154903358 105.75623398291191 0 0 0 0 -26.309540557398577 21.845196062952482 0 21.845196062952482 75.381895490604393 0 0 0 0 54.131525078038976 -57.277684054095459 0 -57.277684054095459 -46.032318519701334 0 0 0 0 -1.4666370155067465 -36.55778803751096 0 -36.55778803751096 -0.881411581889191 0 0 0 0 -390.14871597352612 -295.01105417960389 0 -295.01105417960389 -223.3716570328429 0 0 0 0 -61.413416378832238 26.228804359857193 0 26.228804359857193 -10.409936206632107 0 0 0 0 -388.56369573649135 -312.68670052953303 0 -312.68670052953303 -243.91125684530198 0 0 0 0 -398.37136714497365 -492.63181615193747 0 -492.63181615193747 -498.03449247097637 0 0 0 0 -411.94179550699118 -263.51755897771574 0 -263.51755897771574 -176.57312389826029 0 0 0 0 -35.739669592257485 15.966950315581656 0 15.966950315581656 -6.5982707676683017 0 0 0 0 -161.4915053001605 212.29557707756931 0 212.29557707756931 131.43959584995343 0 0 0 0 -758.98618389038893 -395.05534333201024 0 -395.05534333201024 109.64565795586569 0 0 0 0 -448.45393178537779 -555.70771700899627 0 -555.70771700899627 -855.55779084014171 0 0 0 0 -321.92125727725943 -302.88349516440758 0 -302.88349516440758 -192.00576250719314 0 0 0 0 -74.166890180509654 68.331005138090404 0 68.331005138090404 -31.285508358011271 0 0 0 0 464.49745208928653 28.685357851805293 0 28.685357851805293 -732.13742077429288 0 0 0 0 -1.9125301381540893 5.6025475135420209 0 5.6025475135420209 -16.692643962578707 0 0 0 0 -314.72848244449051 -89.49962509072725 0 -89.49962509072725 -202.1680649825521 0 0 0 0 -300.03221904874954 93.452727836573104 0 93.452727836573104 -785.98232459871997 0 0 0 0 -486.47680787945865 -442.98862320846547 0 -442.98862320846547 -492.78248267284471 0 0 0 0 -335.2338550388813 -231.51388674620102 0 -231.51388674620102 -197.08895708847194 0 0 0 0 -5.1078800513471663 4.9832631157724023 0 4.9832631157724023 -5.0645865085246093 0 0 0 0 -514.88180837468826 262.90860242683698 0 262.90860242683698 268.85303750597814 0 0 0 0 -502.71318033021817 316.84852371624766 0 316.84852371624766 270.93991950541977 0 0 0 0 -305.59742409871978 431.26809678289641 0 431.26809678289641 -606.8893490975006 0 0 0 0 -187.02643984637689 112.56930972656096 0 112.56930972656096 235.54541413661093 0 0 0 0 -211.19554684470495 -312.64044838357722 0 -312.64044838357722 -233.80243609942227 0 0 0 0 -6.3214128578317741 11.642640425364021 0 11.642640425364021 -18.744872763426024 0 0 0 0 367.61176114388218 416.54950521564103 0 416.54950521564103 -116.58191729874508 0 0 0 0 -298.57940218955628 -229.81404088215345 0 -229.81404088215345 180.28984729455891 0 0 0 0 -532.19420007837471 -409.1393430763294 0 -409.1393430763294 65.225610354118771 0 0 0 0 334.63687629296328 511.50052615309073 0 511.50052615309073 -520.77083904525171 0 0 0 0 -278.55912271299167 -607.1755600116926 0 -607.1755600116926 -240.93737524658172 0 0 0 0 122.96537278777396 -534.607181219837 0 -534.607181219837 -1486.4927303578283 0 0 0 0 76.376152960277977 -408.5066932649712 0 -408.5066932649712 -187.11984332427801 0 0 0 0 -1142.1730055810185 -345.18994568858807 0 -345.18994568858807 -384.38768104063757 0 0 0 0 883.09189474015147 -385.0740363924042 0 -385.0740363924042 -384.07090958363779 0 0 0 0 -743.535841940095 -892.70538655589462 0 -892.70538655589462 -1350.2440776311951 0 0 0 0 -448.91774282672486 -434.06153053430023 0 -434.06153053430023 -805.23766576061564 0 0 0 0 -434.06358772638487 403.38320562235299 0 403.38320562235299 113.83833541130173 0 0 0 0 -2.246961821589835 4.7935700359716975 0 4.7935700359716975 -7.7314191416515854 0 0 0 0 -1110.9975725733239 83.548365217791087 0 83.548365217791087 -1186.7521768385986 0 0 0 0 -13.151698085543671 4.1824491959542343 0 4.1824491959542343 -1.7926830704354804 0 0 0 0 -728.32008615194354 -885.37178771949527 0 -885.37178771949527 -866.74909616128843 0 0 0 0 156.618102888875 57.545683163361502 0 57.545683163361502 -388.816890353796 0 0 0 0 -657.2937243974593 821.37077684093765 0 821.37077684093765 -267.07976196813229 0 0 0 0 116.1168258261896 -53.869550844239825 0 -53.869550844239825 257.34858342969892 0 0 0 0 -1061.5243440565537 548.65494770259625 0 548.65494770259625 1081.1863903848696 0 0 0 0 -31.584223412589154 1.8435118741954377 0 1.8435118741954377 1.4245061943561481 0 0 0 0 -216.16127938675345 291.58061367908954 0 291.58061367908954 632.55946411304001 0 0 0 0 179.87732518703797 67.238861050228337 0 67.238861050228337 -182.787732738464 0 0 0 0 193.33473473902995 -83.894847290903044 0 -83.894847290903044 -38.77378998394579 0 0 0 0 169.85377126585263 16.186465155642509 0 16.186465155642509 -80.451318222664668 0 0 0 0 234.60135487795924 -51.065649210217316 0 -51.065649210217316 -166.40039029238619 0 0 0 0 -151.74745380153763 -470.78119296830891 0 -470.78119296830891 -931.45731475664059 0 0 0 0 187.85291901976598 17.26456875454528 0 17.26456875454528 -256.5412975441468 0 0 0 0 -282.51926964605809 -516.98429347060824 0 -516.98429347060824 43.176840912058196 0 0 0 0 -16.454863292266964 -349.03050602990618 0 -349.03050602990618 147.42482738726403 0 0 0 0 -264.26046917615167 -21.293762695472651 0 -21.293762695472651 185.2298601530365 0 0 0 0 -0.074066553234291455 -0.51728575793161724 0 -0.51728575793161724 3.5300161753924169 0 0 0 0 -134.19465265739564 45.351185522987407 0 45.351185522987407 88.608191738911955 0 0 0 0 -203.44888576212543 -109.57291044731232 0 -109.57291044731232 18.584652880559588 0 0 0 0 -9.0402593378457823 -31.336685322758512 0 -31.336685322758512 -0.8481736316189199 0 0 0 0 -59.295273357666247 -365.36207799547418 0 -365.36207799547418 270.64487206535432 0 0 0 0 -194.88341223428142 39.404265263621824 0 39.404265263621824 1.4876981095582096 0 0 0 0 -171.2149247565394 105.75463356861906 0 105.75463356861906 -98.166718908857092 0 0 0 0 -261.43510650312237 -145.70350699088749 0 -145.70350699088749 637.89855338189636 0 0 0 0 -356.75012156381126 -4.025479081313506 0 -4.025479081313506 102.94093274298757 0 0 0 0 -324.11427088765777 103.27502250646967 0 103.27502250646967 -65.690681097972401 0 0 0 0 -256.71385318169632 40.799209686403174 0 40.799209686403174 147.36410878062088 0 0 0 0 -347.64885718889127 -53.636250375782311 0 -53.636250375782311 57.026530419526352 0 0 0 0 -363.51990706228389 -61.292077973071628 0 -61.292077973071628 211.02611431322794 0 0 0 0 -15.746916287118637 -25.038517602219258 0 -25.038517602219258 -26.321212689910492 0 0 0 0 -817.87728168963804 100.70403748512945 0 100.70403748512945 219.89747524310928 0 0 0 0 -480.1851964267662 -16.276667622938589 0 -16.276667622938589 271.13506073865392 0 0 0 0 88.685770360854804 -35.240683749978416 0 -35.240683749978416 87.233405523421425 0 0 0 0 -408.42345698919235 89.212069189095018 0 89.212069189095018 207.16364056139446 0 0 0 0 -15.636582940005383 -0.86654742572360455 0 -0.86654742572360455 0.30328407103680577 0 0 0 0 -586.05904874331463 -792.06716694326064 0 -792.06716694326064 143.65848712589218 0 0 0 0 -244.0354653415925 295.21751501941901 0 295.21751501941901 -46.159479031417959 0 0 0 0 -884.49000692405389 -623.36069581544734 0 -623.36069581544734 -156.07964500424714 0 0 0 0 36.831466199699207 -558.26770331916055 0 -558.26770331916055 -1004.5618657827554 0 0 0 0 306.79065317894856 -597.8156038197053 0 -597.8156038197053 -288.37335003529734 0 0 0 0 -43.383695312712007 -14.615495084028453 0 -14.615495084028453 -41.25580112438638 0 0 0 0 119.64853249621228 -222.03975185301852 0 -222.03975185301852 257.59350254705805 0 0 0 0 123.9230927596509 459.89842918157046 0 459.89842918157046 244.36116734252369 0 0 0 0 -73.397846104402561 -34.686622140731743 0 -34.686622140731743 -41.220016104069146 0 0 0 0 -41.900822723545048 11.290930874132954 0 11.290930874132954 -1.8817816339533664 0 0 0 0 -78.475821160594933 55.136033956104257 0 55.136033956104257 11.632307602143555 0 0 0 0 7.6127490095655617 3.5281109570831859 0 3.5281109570831859 -3.5883647234155553 0 0 0 0 -256.50626468170231 -65.860562040271816 0 -65.860562040271816 -303.29232283258898 0 0 0 0 -465.01033420560998 -556.19410507979774 0 -556.19410507979774 -77.737911182919561 0 0 0 0 -545.36238295133808 79.049576041751607 0 79.049576041751607 341.6451267168768 0 0 0 0 -229.24049012831529 331.37682246043551 0 331.37682246043551 270.55877626743336 0 0 0 0 -145.08125980661134 87.335998544052018 0 87.335998544052018 243.18241659494743 0 0 0 0 -75.036727317608893 -6.5075460111676193 0 -6.5075460111676193 148.95748443112279 0 0 0 0 -152.28511175769381 105.3962709593111 0 105.3962709593111 205.04928900002051 0 0 0 0 -9.5477549414246425 -1.1916070785488131 0 -1.1916070785488131 2.0605283816879236 0 0 0 0 -60.262609783821972 -41.312851061567699 0 -41.312851061567699 217.0183276791316 0 0 0 0 -11.826077600069539 -0.93383372427109634 0 -0.93383372427109634 2.8571311775594666 0 0 0 0 -76.946413266690797 -29.224320665806772 0 -29.224320665806772 -5.9934688424073101 0 0 0 0 -32.957939534443881 10.619995179503505 0 10.619995179503505 9.0431035889165852 0 0 0 0 -73.399733448226471 -35.285678871279288 0 -35.285678871279288 -55.471430065626919 0 0 0 0 -56.561183649930172 -11.298732949884652 0 -11.298732949884652 -31.259551841118082 0 0 0 0 -85.170400681279716 -17.797923425257522 0 -17.797923425257522 -2.3905458213303064 0 0 0 0 -75.917316100516473 -24.474829934441914 0 -24.474829934441914 2.375154037554239 0 0 0 0 -69.456198255524214 -18.405491878514567 0 -18.405491878514567 3.8509231515163265 0 0 0 0 -80.599716619923129 -12.409300775941119 0 -12.409300775941119 12.932108614371373 0 0 0 0 -19.818367753983779 -23.040037156714178 0 -23.040037156714178 -31.322941845023898 0 0 0 0 -74.962006868459866 -33.416085964457693 0 -33.416085964457693 -9.4592648625430229 0 0 0 0 -5.7946627823293966 -126.4400278514014 0 -126.4400278514014 102.29926509822417 0 0 0 0 -70.253426206028962 -19.968643945477652 0 -19.968643945477652 17.872015862553781 0 0 0 0 -78.618601041147485 -10.837975744119376 0 -10.837975744119376 13.51848376685939 0 0 0 0 -78.691728462108586 -21.682160609894709 0 -21.682160609894709 17.150811975981014 0 0 0 0 -82.309895604499616 -17.706092503291529 0 -17.706092503291529 52.225209663770329 0 0 0 0 -70.350650683154527 32.912613642808651 0 32.912613642808651 -19.588390428684306 0 0 0 0 -1.2569790158813703 -7.3898880881615696 0 -7.3898880881615696 -12.781867146057266 0 0 0 0 -74.080325128856202 39.750708478589672 0 39.750708478589672 56.968610033900404 0 0 0 0 -11.340318228694855 -8.0507973235235895 0 -8.0507973235235895 -2.3080561382904996 0 0 0 0 -244.94104568651892 72.478393623353895 0 72.478393623353895 173.70151005972184 0 0 0 0 -124.73272289529996 142.65238461130684 0 142.65238461130684 -129.58439704389616 0 0 0 0 -30.939214911508316 -18.755402540757132 0 -18.755402540757132 -0.16551264871213789 0 0 0 0 -27.367172663366375 -15.47360249233418 0 -15.47360249233418 1.729841231023125 0 0 0 0 -32.024074909000774 -15.57324058631059 0 -15.57324058631059 20.737548050509986 0 0 0 0 -9.958902703896932 -3.1753923442341971 0 -3.1753923442341971 10.685276648027621 0 0 0 0 -60.975901906189392 -5.3604917772408953 0 -5.3604917772408953 10.298446154137309 0 0 0 0 -37.355957262472657 -22.868169753384905 0 -22.868169753384905 12.988275475091086 0 0 0 0 -24.975058725423878 -14.943167865937085 0 -14.943167865937085 1.1311394891954478 0 0 0 0 -51.404449961759383 -12.647522906939002 0 -12.647522906939002 7.6017931417836735 0 0 0 0 -12.254939013028832 -1.3929754172824431 0 -1.3929754172824431 6.0051986354065257 0 0 0 0 -78.59511505568662 14.879926463850893 0 14.879926463850893 -123.49398529180303 0 0 0 0 -23.52415845397536 -6.0969606274673751 0 -6.0969606274673751 18.079600892589724 0 0 0 0 -21.995564316325897 -9.8494760387734956 0 -9.8494760387734956 17.412665908426348 0 0 0 0 -106.4888939033408 -256.9694045105814 0 -256.9694045105814 -289.73899235372005 0 0 0 0 -155.38032061600825 -369.61553926650322 0 -369.61553926650322 -269.11455576585718 0 0 0 0 -242.7132827662208 -256.32770197390772 0 -256.32770197390772 -237.15707442545454 0 0 0 0 -218.76534535357496 -191.91082986867332 0 -191.91082986867332 -124.34835429406576 0 0 0 0 -73.707871042162878 -71.363302141360464 0 -71.363302141360464 -78.348653497341729 0 0 0 0 -25.561251772319736 0.93678212397932725 0 0.93678212397932725 16.07271207188375 0 0 0 0 -71.070003617242037 -14.229274550813443 0 -14.229274550813443 36.798533663044509 0 0 0 0 -469.36289578292053 -476.43290478324798 0 -476.43290478324798 -154.77036395903087 0 0 0 0 -473.47178884119785 -199.16090078156139 0 -199.16090078156139 303.44952416759497 0 0 0 0 -269.79934481080272 -290.43395070355928 0 -290.43395070355928 2.6237472708608038 0 0 0 0 -229.79956622279133 -475.44639625576337 0 -475.44639625576337 -262.39124459771301 0 0 0 0 -613.96173007604375 -775.99087989084092 0 -775.99087989084092 -445.8660682512209 0 0 0 0 -566.98906916400119 -292.79799603465875 0 -292.79799603465875 -444.79190707180533 0 0 0 0 -213.47130255857337 -292.26814107400583 0 -292.26814107400583 -348.88986488186492 0 0 0 0 -121.08517897882848 -326.69926747162071 0 -326.69926747162071 -336.13907533933298 0 0 0 0 -169.32588370904705 -377.93804436025607 0 -377.93804436025607 -262.07444923034564 0 0 0 0 -225.56361567918066 -471.71114100017667 0 -471.71114100017667 -276.1700980907799 0 0 0 0 -92.347538281115703 -470.16602765551852 0 -470.16602765551852 -399.70674426117694 0 0 0 0 -34.747684744470462 -323.68475475435912 0 -323.68475475435912 -362.39035071416765 0 0 0 0 -126.704783445457 -88.917781953674421 0 -88.917781953674421 47.140910721454929 0 0 0 0 -34.689292465475006 -6.7877629125079677 0 -6.7877629125079677 -0.64603034055225539 0 0 0 0 82.337658430784359 -353.7440066274803 0 -353.7440066274803 -355.36150610625191 0 0 0 0 -53.890962692603352 -370.19777076091304 0 -370.19777076091304 -165.59143993105681 0 0 0 0 -14.396468013932463 -196.53301780114998 0 -196.53301780114998 -165.51528047124657 0 0 0 0 -35.105961571556691 -255.26354296176032 0 -255.26354296176032 -332.0704820806277 0 0 0 0 -4.0629336395359132 -346.07571490356167 0 -346.07571490356167 -401.8253991830029 0 0 0 0 13.594362133211689 -289.82697171287691 0 -289.82697171287691 -317.19098815912002 0 0 0 0 -113.95590308023384 60.994342955282264 0 60.994342955282264 -37.744945492731858 0 0 0 0 -35.963487882210757 32.35679786928813 0 32.35679786928813 203.38489583365663 0 0 0 0 -24.926442176612909 -349.81300863219076 0 -349.81300863219076 119.57000858886022 0 0 0 0 -33.124947586555209 -4.271443033306241 0 -4.271443033306241 7.1245421398389226 0 0 0 0 -61.076031560180127 2.2267276623833823 0 2.2267276623833823 5.0948477446081597 0 0 0 0 -34.23353088890579 -1.236144427120621 0 -1.236144427120621 0.67030056817975137 0 0 0 0 -189.66651604569051 76.478974865959572 0 76.478974865959572 0.69403979884737055 0 0 0 0 -466.9216172544111 -65.371036275003462 0 -65.371036275003462 71.119725864475186 0 0 0 0 49.573266901788884 109.45159760408569 0 109.45159760408569 31.924895354219188 0 0 0 0 -101.03804168151692 -8.192930988745502 0 -8.192930988745502 51.495350527200571 0 0 0 0 -43.559852457957845 21.907333478011623 0 21.907333478011623 8.2247766593069969 0 0 0 0 83.84132257886813 -36.498133747601969 0 -36.498133747601969 -69.909888048137873 0 0 0 0 -18.493284817343323 5.3183739942596731 0 5.3183739942596731 0.57437112336671348 0 0 0 0 -458.11543931486085 35.811505835919888 0 35.811505835919888 9.773980553214642 0 0 0 0 16.902271941435174 133.11061133375279 0 133.11061133375279 -182.12087690328553 0 0 0 0 -573.78646908144583 240.71521379160095 0 240.71521379160095 -120.01288220608058 0 0 0 0 -6.8003886234994582 -4.8485300567040062 0 -4.8485300567040062 -3.8609666833624674 0 0 0 0 -432.67358579207212 -716.13827421963379 0 -716.13827421963379 -1228.332367261577 0 0 0 0 130.16045654127083 102.86119313707968 0 102.86119313707968 -751.39708639987657 0 0 0 0 -2.0099519918411204 1.2047434130502666 0 1.2047434130502666 -3.8711034773210002 0 0 0 0 2.1062054676444859 -510.31976067490456 0 -510.31976067490456 -973.56374777794736 0 0 0 0 -6.2664708599083099 6.449992197874181 0 6.449992197874181 -2.9134031488726251 0 0 0 0 -695.09491894810344 -834.85050727036923 0 -834.85050727036923 -1002.7332821588861 0 0 0 0 -994.65789432438032 -410.1956725509699 0 -410.1956725509699 -255.25982477798061 0 0 0 0 -209.78183555077703 -300.27114149118552 0 -300.27114149118552 -457.88634902216108 0 0 0 0 -262.06700937444475 -18.75237388475125 0 -18.75237388475125 -1732.3121201899194 0 0 0 0 -1233.4444880977971 -79.424317872859319 0 -79.424317872859319 78.502348857557081 0 0 0 0 -1212.4209328578436 -695.52338898193193 0 -695.52338898193193 -132.60040084615684 0 0 0 0 308.77938906056261 656.72292367799605 0 656.72292367799605 -15.207129992090813 0 0 0 0 -11.016612968411906 10.709196115677898 0 10.709196115677898 -28.152282592930113 0 0 0 0 -31.854201584981638 119.82281455971497 0 119.82281455971497 -261.56099255150548 0 0 0 0 -4.3506766104546841 7.4438742288084541 0 7.4438742288084541 -415.91115550162795 0 0 0 0 -209.14340119322878 -227.46565528256724 0 -227.46565528256724 -59.56696273068701 0 0 0 0 -147.88304665111355 -343.04590646823999 0 -343.04590646823999 -607.49410492260995 0 0 0 0 -288.11157736512541 -334.59085857417358 0 -334.59085857417358 -135.2383499732523 0 0 0 0 -411.2522374871478 -50.386865036225572 0 -50.386865036225572 60.584709175846456 0 0 0 0 -494.48363015259383 -398.23422375048813 0 -398.23422375048813 -29.981408925379583 0 0 0 0 -485.42142721675918 -510.31270110537662 0 -510.31270110537662 -239.10709002876138 0 0 0 0 -743.5899443791277 -254.84177618299509 0 -254.84177618299509 34.641004421115213 0 0 0 0 -334.75010625788127 -195.09841940428487 0 -195.09841940428487 -43.833582629473312 0 0 0 0 -297.19646114011266 -108.08220448893826 0 -108.08220448893826 25.748792438851524 0 0 0 0 -180.03657744225347 -113.51526268769703 0 -113.51526268769703 -70.836017059240476 0 0 0 0 -275.93978872535808 -128.20177305420111 0 -128.20177305420111 5.9322707016290224 0 0 0 0 -386.09130216841004 -295.51961447127178 0 -295.51961447127178 -110.97613724612711 0 0 0 0 -279.06991639296757 -304.49491446332286 0 -304.49491446332286 -221.70236650836159 0 0 0 0 -270.43615505818161 -0.51827443413822039 0 -0.51827443413822039 -131.70998407455227 0 0 0 0 -249.28799701636308 -230.49758031284273 0 -230.49758031284273 -262.34809212456457 0 0 0 0 -212.07639982393448 -96.878951424227125 0 -96.878951424227125 12.932644822029033 0 0 0 0 -30.515703665005276 66.756700877017465 0 66.756700877017465 -70.355942179070098 0 0 0 0 -99.365408619531081 5.3491920411461251 0 5.3491920411461251 2.8030918606305022 0 0 0 0 -21.021294400102775 26.551895766037234 0 26.551895766037234 16.020734525229919 0 0 0 0 -113.20908142235203 -21.964640427841687 0 -21.964640427841687 5.3964987100207509 0 0 0 0 -58.555880320243887 -0.13335713448395836 0 -0.13335713448395836 -7.2117340613804117 0 0 0 0 -37.675988555447333 5.3699809670917773 0 5.3699809670917773 6.8691512729234638 0 0 0 0 -48.296907619536796 13.216923475736792 0 13.216923475736792 3.2568324741769175 0 0 0 0 -25.385395369984877 -7.858602592600846 0 -7.858602592600846 3.1097785486150791 0 0 0 0 -56.391815560265968 -4.4466886692598564 0 -4.4466886692598564 1.3289939069363754 0 0 0 0 -66.521018504339736 4.8789433792981072 0 4.8789433792981072 6.1387483329508541 0 0 0 0 -24.571204804561006 -10.510019400052144 0 -10.510019400052144 1.289083092005388 0 0 0 0 -74.780767797827139 -2.325262989534167 0 -2.325262989534167 -9.7449955895599487 0 0 0 0 -91.796170827066817 -3.0493164595043254 0 -3.0493164595043254 0.41779739608136879 0 0 0 0 -7.6745886768912897 65.878373027910129 0 65.878373027910129 -9.6747616938191641 0 0 0 0 9.8678489171410888 5.2243203750549441 0 5.2243203750549441 -2.4071610388387121 0 0 0 0 -28.485232521595364 25.361565254869731 0 25.361565254869731 8.5790913126007666 0 0 0 0 -129.9603315325221 -40.567028344908977 0 -40.567028344908977 27.31024716767115 0 0 0 0 -143.68298698423314 106.99000647630601 0 106.99000647630601 85.169018551257977 0 0 0 0 -18.883517945738276 -32.342292335107231 0 -32.342292335107231 -28.651081086187332 0 0 0 0 -57.941752741884557 1.9140300184340049 0 1.9140300184340049 -19.952316965686805 0 0 0 0 -41.865306811180346 6.7067693356177784 0 6.7067693356177784 3.4216708572975367 0 0 0 0 -19.402598165972478 7.3871069978542039 0 7.3871069978542039 -16.224599709164188 0 0 0 0 -75.374981912333169 -30.327955150864682 0 -30.327955150864682 -42.242595994205658 0 0 0 0 -37.674411504340242 -6.1018368193613242 0 -6.1018368193613242 -17.99385322537637 0 0 0 0 3.1024326062761247 25.367387155605684 0 25.367387155605684 17.408563563614734 0 0 0 0 -56.292873427719684 -13.652333059803851 0 -13.652333059803851 -5.4217125000937614 0 0 0 0 -42.316224850172148 6.8845259867666044 0 6.8845259867666044 4.0150981424034047 0 0 0 0 -97.971050473162904 -4.1542307854488172 0 -4.1542307854488172 -0.10290208628430264 0 0 0 0 -14.857950833606481 9.6143377168655491 0 9.6143377168655491 -0.39084842252636065 0 0 0 0 -48.948333563121196 -1.9168057445043019 0 -1.9168057445043019 -21.009673897089669 0 0 0 0 -49.227633695954864 -4.0272064490663979 0 -4.0272064490663979 -24.920929984553368 0 0 0 0 -45.539227421908038 3.2666453445974781 0 3.2666453445974781 5.0067709711158912 0 0 0 0 -45.946000499316142 2.4087668234490138 0 2.4087668234490138 -6.586067109020405 0 0 0 0 -53.230422158085275 -10.613959958220221 0 -10.613959958220221 -13.304241526279839 0 0 0 0 -53.40432513471751 -13.88871998974696 0 -13.88871998974696 -0.97944522332363704 0 0 0 0 -86.40856495180924 0.6495125842784546 0 0.6495125842784546 4.465281865281213 0 0 0 0 -45.309137382212384 4.8962830530903432 0 4.8962830530903432 2.2963989852874249 0 0 0 0 -91.496650802218937 -5.2705250708931999 0 -5.2705250708931999 -8.2296750695277296 0 0 0 0 -82.438379533625266 -13.65731010427703 0 -13.65731010427703 -5.5731181187438779 0 0 0 0 -185.06079561090883 -12.765769759591876 0 -12.765769759591876 52.14528944198355 0 0 0 0 -194.84419039744535 48.377484995780833 0 48.377484995780833 -202.61601174862972 0 0 0 0 -291.72671869301121 34.782886346598389 0 34.782886346598389 14.251996200033318 0 0 0 0 -239.72117798698309 117.36667649084575 0 117.36667649084575 98.22894431423083 0 0 0 0 -116.62963520539779 -25.311337440639818 0 -25.311337440639818 -4.955669673759985 0 0 0 0 -47.375273060212123 10.113565092911728 0 10.113565092911728 16.444051500645962 0 0 0 0 -182.66091736216913 105.14764205797837 0 105.14764205797837 -27.126541862285194 0 0 0 0 -90.921732533406612 -25.813491896495634 0 -25.813491896495634 -26.748020280661876 0 0 0 0 -40.358121115830727 -9.5324881652268232 0 -9.5324881652268232 -13.843370004334702 0 0 0 0 -55.626620568523407 -41.023232791099446 0 -41.023232791099446 -37.048980584105195 0 0 0 0 -41.379368349864421 5.8297147854275408 0 5.8297147854275408 13.032819954602335 0 0 0 0 -37.164461771400511 0.15584571679362114 0 0.15584571679362114 -2.8362506013409403 0 0 0 0 -94.743627727853891 -30.734782941936601 0 -30.734782941936601 -28.838448743928438 0 0 0 0 -75.822399675649649 -29.927544977944422 0 -29.927544977944422 -40.284928384843624 0 0 0 0 1809.2014280593139 -243.10322325511061 0 -243.10322325511061 36.389139577840979 0 0 0 0 -135.73673335367337 -5.5328488796335762 0 -5.5328488796335762 39.195123666833332 0 0 0 0 -7.0547284988546721 0.41630074221015434 0 0.41630074221015434 -21.265111848761379 0 0 0 0 -11.717663966471207 4.7893870179125173 0 4.7893870179125173 -0.17188648160528786 0 0 0 0 -1151.4024317493895 443.80039944993405 0 443.80039944993405 779.2640886783829 0 0 0 0 -1015.0621229119861 -153.354458066067 0 -153.354458066067 -68.858676092996689 0 0 0 0 129.82285187602974 403.94339031007985 0 403.94339031007985 692.06950589800272 0 0 0 0 -1082.1643671994098 -814.83224746948531 0 -814.83224746948531 50.510217639126495 0 0 0 0 -10.38122933365446 -10.364693869634451 0 -10.364693869634451 -6.2019043437362615 0 0 0 0 -2722.1095926531707 1286.9950227015233 0 1286.9950227015233 116.53817664262391 0 0 0 0 -722.23402743693441 -508.77516700113983 0 -508.77516700113983 -359.62676752800053 0 0 0 0 -949.35324241692433 -397.0469568736894 0 -397.0469568736894 -155.661093121774 0 0 0 0 -618.0259631932131 -446.33177030489827 0 -446.33177030489827 -173.57945395395632 0 0 0 0 -684.48835356745985 -175.6164078385741 0 -175.6164078385741 -151.06142074053969 0 0 0 0 -6.451401659972305 10.534788553589948 0 10.534788553589948 -8.5522006934426251 0 0 0 0 -78.025739867167431 -36.442219485884834 0 -36.442219485884834 -34.005709309725717 0 0 0 0 -45.948332250161911 -11.617956738442444 0 -11.617956738442444 -18.135151865440093 0 0 0 0 -60.00344075637986 -11.247983664650747 0 -11.247983664650747 -16.826568337267418 0 0 0 0 -53.852364283680799 -2.5852839320987187 0 -2.5852839320987187 -7.1780927030654311 0 0 0 0 -52.612418898491796 -3.8063855706200975 0 -3.8063855706200975 -24.49048906128337 0 0 0 0 -52.691679569412372 -11.909707124500528 0 -11.909707124500528 -23.188613104195611 0 0 0 0 -64.748738780050189 -11.915795371520289 0 -11.915795371520289 -21.341922591253024 0 0 0 0 -49.171485229278915 -12.533548351058926 0 -12.533548351058926 -34.134350486327094 0 0 0 0 -49.269969434812083 -10.342691747612662 0 -10.342691747612662 -15.748778546890208 0 0 0 0 -49.924285927532253 1.2404354510967153 0 1.2404354510967153 4.4231788603166287 0 0 0 0 -52.185552148177521 -32.04516421286371 0 -32.04516421286371 81.666149770042011 0 0 0 0 -26.53692451340612 -81.105350497329709 0 -81.105350497329709 50.006577163212569 0 0 0 0 92.506119424506323 -11.871568268695682 0 -11.871568268695682 -139.15289099982147 0 0 0 0 -30.221944422097295 -43.576285414715585 0 -43.576285414715585 -15.072874796431279 0 0 0 0 -15.495114873428179 -1.0372312308054727 0 -1.0372312308054727 0.16673008161811942 0 0 0 0 -83.436598449725523 -8.8562453915377368 0 -8.8562453915377368 -0.78427448097344554 0 0 0 0 -150.4421778988908 104.53328695129539 0 104.53328695129539 269.83968430356617 0 0 0 0 -34.061346079484792 103.15875582862236 0 103.15875582862236 56.760649244135493 0 0 0 0 33.187949027647846 49.324403614102948 0 49.324403614102948 -19.4931025558285 0 0 0 0 -75.073495797376381 -25.769073993615862 0 -25.769073993615862 15.838167684915273 0 0 0 0 -74.705103675281862 -13.116932397512038 0 -13.116932397512038 0.0046286477701564868 0 0 0 0 -116.30049938622324 6.2285730948306206 0 6.2285730948306206 -2.5684295859041981 0 0 0 0 -75.124872948941629 -26.962743593510588 0 -26.962743593510588 0.055544212032143547 0 0 0 0 -132.26157088385662 -54.215432791345705 0 -54.215432791345705 65.301100830202657 0 0 0 0 -93.463342366487382 -9.7815173653100871 0 -9.7815173653100871 -0.48884563380266144 0 0 0 0 -285.04216061692568 26.268180375818247 0 26.268180375818247 288.8948236437227 0 0 0 0 -164.03380019289034 12.049189823334473 0 12.049189823334473 226.95425636964319 0 0 0 0 -444.51329685232486 141.09847722208997 0 141.09847722208997 180.68937871094704 0 0 0 0 103.87311903887894 18.636506802246004 0 18.636506802246004 175.04200145233744 0 0 0 0 135.73919859320449 -63.156090058837094 0 -63.156090058837094 166.7448972839702 0 0 0 0 -9.0616676171039217 -3.1372119440902679 0 -3.1372119440902679 -2.8412365740651282 0 0 0 0 355.83772117064655 126.12831812703496 0 126.12831812703496 17.410307125316649 0 0 0 0 249.19940130615578 -103.05443328473939 0 -103.05443328473939 -188.65421216526738 0 0 0 0 -32.958325971699253 0.074461830953325148 0 0.074461830953325148 1.2812165712103472 0 0 0 0 -5.3815573486162975 0.35975114877276226 0 0.35975114877276226 0.018608926010768911 0 0 0 0 -145.62505426371354 168.62393624186279 0 168.62393624186279 20.180308288959168 0 0 0 0 -456.20710495894309 136.5613071684229 0 136.5613071684229 229.72101228721658 0 0 0 0 -463.47335785301402 -136.90128190652194 0 -136.90128190652194 135.0522135714582 0 0 0 0 -49.338240220255102 -10.236116645874063 0 -10.236116645874063 -15.054957673189165 0 0 0 0 -39.022985441615958 -0.73103297909885612 0 -0.73103297909885612 4.3990616429259992 0 0 0 0 -14.440781400505188 3.6283442071854495 0 3.6283442071854495 -5.5397596311688737 0 0 0 0 -722.48418136523105 -447.1404684088734 0 -447.1404684088734 -60.933109049052291 0 0 0 0 -79.705362746797618 -28.026367080560931 0 -28.026367080560931 -19.761442251161498 0 0 0 0 0.44084875032964987 -1.5499049275041443 0 -1.5499049275041443 -14.898325192168526 0 0 0 0 -82.507244150358019 -17.107648353351578 0 -17.107648353351578 -21.438995228829754 0 0 0 0 -597.48352441485622 -358.23026981570439 0 -358.23026981570439 -73.846509663231728 0 0 0 0 -730.40011019675876 -401.53728831238368 0 -401.53728831238368 -39.411674143642585 0 0 0 0 -423.7181613962166 -102.49638124170053 0 -102.49638124170053 22.347039550961 0 0 0 0 -1050.8569565366197 -127.59267712447718 0 -127.59267712447718 93.174803279020125 0 0 0 0 -694.52216495655011 -383.99624478608348 0 -383.99624478608348 -314.84499976299867 0 0 0 0 65.05696292698849 425.15351994070545 0 425.15351994070545 55.081497224179941 0 0 0 0 -293.53646217184723 126.73798173633401 0 126.73798173633401 99.427252006526032 0 0 0 0 -35.256198121372506 27.403209690545026 0 27.403209690545026 -6.8297060813532937 0 0 0 0 -224.3131340645341 -294.60129471721422 0 -294.60129471721422 167.11677899858773 0 0 0 0 -212.56652209465392 62.603825880612021 0 62.603825880612021 -265.65971074956178 0 0 0 0 605.50781409662159 8.8450538725478509 0 8.8450538725478509 -373.85133204676231 0 0 0 0 -245.88146980533293 -224.94147477419111 0 -224.94147477419111 -1120.0975155678716 0 0 0 0 -1072.2332626176649 -620.99188499527918 0 -620.99188499527918 118.47919611642283 0 0 0 0 -245.70440795829472 -262.24036001389368 0 -262.24036001389368 240.89967768668794 0 0 0 0 -535.26821195645607 490.72779564995199 0 490.72779564995199 -313.55576763447971 0 0 0 0 -367.09478162848973 -82.231648027892334 0 -82.231648027892334 -18.909850596595788 0 0 0 0 -10.762908900683215 -4.6860839478684966 0 -4.6860839478684966 -2.8223778522082172 0 0 0 0 -1623.050578149152 302.93796743471921 0 302.93796743471921 -190.68926392709182 0 0 0 0 -1138.9192920564674 -841.71900803475637 0 -841.71900803475637 -699.14416372601045 0 0 0 0 -672.54624549730215 69.466087412374691 0 69.466087412374691 649.17358123282611 0 0 0 0 -98.989794892017471 -11.177579335502621 0 -11.177579335502621 -0.31504446521146917 0 0 0 0 -455.7596678105765 17.82279285295202 0 17.82279285295202 161.50088278210734 0 0 0 0 -398.38202155590989 14.181260632983339 0 14.181260632983339 15.397742112126467 0 0 0 0 -1264.5565525634738 208.01252214796841 0 208.01252214796841 375.62216635070763 0 0 0 0 -437.60356973618036 239.46440883842752 0 239.46440883842752 341.55412935029744 0 0 0 0 -354.56362672321848 -80.639390571504919 0 -80.639390571504919 539.77760911302175 0 0 0 0 -343.66271848388715 -254.91766854704747 0 -254.91766854704747 296.99461962389523 0 0 0 0 -24.287129816959379 13.678273928067711 0 13.678273928067711 14.918555540098481 0 0 0 0 228.75726639511413 -501.90035552765403 0 -501.90035552765403 -132.66251489112892 0 0 0 0 -97.93105760050355 -8.0719852004204533 0 -8.0719852004204533 -0.64421909403200805 0 0 0 0 -589.57974242910859 -404.49088959483151 0 -404.49088959483151 832.32264921748174 0 0 0 0 -98.915456462709756 -11.76102019868541 0 -11.76102019868541 -0.60203435257443871 0 0 0 0 -668.68449602938199 143.19318677505819 0 143.19318677505819 11.3834492573896 0 0 0 0 -92.216455644549569 -20.879059171130766 0 -20.879059171130766 0.0039869653160555137 0 0 0 0 -24.854301960682818 0.85711156589616166 0 0.85711156589616166 0.99048750185946699 0 0 0 0 -365.55360878870124 -75.728080959798774 0 -75.728080959798774 -0.12922331190087263 0 0 0 0 -710.00570092694397 -18.878499709240685 0 -18.878499709240685 131.52912662283279 0 0 0 0 -65.159588034308399 -15.226617801050212 0 -15.226617801050212 -0.020659756172666931 0 0 0 0 -59.72621644019091 -22.966522605843487 0 -22.966522605843487 10.995419857384434 0 0 0 0 -73.736881620716304 -29.818882539999926 0 -29.818882539999926 -10.6997535547907 0 0 0 0 -60.685836824969272 -14.906020965775191 0 -14.906020965775191 -1.5099986823827842 0 0 0 0 -67.905923548397311 -1.3017411437319115 0 -1.3017411437319115 4.2252082325725224 0 0 0 0 -163.74746264926216 65.680397167068804 0 65.680397167068804 197.29658746748191 0 0 0 0 -29.52987198298797 17.794930996566109 0 17.794930996566109 225.621126063822 0 0 0 0 -88.500749787359382 29.149147636563157 0 29.149147636563157 106.4295914933864 0 0 0 0 -116.6781835257425 -63.040452712096339 0 -63.040452712096339 182.40903467392627 0 0 0 0 -63.455174020299751 -6.5453073638499681 0 -6.5453073638499681 0.20084745665709919 0 0 0 0 18.612446113867918 -85.66296621594438 0 -85.66296621594438 18.050816283763197 0 0 0 0 -100.48277776205941 35.406782568797098 0 35.406782568797098 -75.951603522536061 0 0 0 0 -146.76652165457199 131.50848685364781 0 131.50848685364781 120.09342110981288 0 0 0 0 -17.923586460674414 76.669963651272155 0 76.669963651272155 -70.232102443746953 0 0 0 0 -102.21566887204244 125.83832438675381 0 125.83832438675381 -15.416334595237458 0 0 0 0 3.6673580554883927 24.57756926046028 0 24.57756926046028 15.256205725445643 0 0 0 0 -46.942036601519135 3.0118045164985006 0 3.0118045164985006 56.797557943477344 0 0 0 0 -51.315999133163132 80.021305007151341 0 80.021305007151341 153.27820945684198 0 0 0 0 -135.97285624250071 -27.525446823316088 0 -27.525446823316088 35.457907449331287 0 0 0 0 0.13581875046725145 5.9751568019068486 0 5.9751568019068486 11.581147537429253 0 0 0 0 -209.60616121412022 -66.985487182722864 0 -66.985487182722864 14.69464466966383 0 0 0 0 -26.584004119007233 -8.5098647054949481 0 -8.5098647054949481 -3.8191854677355437 0 0 0 0 -216.39624724645546 -5.5344750530579176 0 -5.5344750530579176 61.683536288821415 0 0 0 0 -173.99411281142966 18.524341415689378 0 18.524341415689378 73.112437164018047 0 0 0 0 -24.106027837330195 -5.9440019650837144 0 -5.9440019650837144 1.7896960911973281 0 0 0 0 -305.39222811104264 -19.183578193420544 0 -19.183578193420544 36.261903892187547 0 0 0 0 -118.05513756975063 10.396859603829739 0 10.396859603829739 26.641714576958091 0 0 0 0 18.538680153753376 63.158964235041367 0 63.158964235041367 -15.262114200075303 0 0 0 0 -157.56770267281536 -182.36142955755713 0 -182.36142955755713 -84.977925556275295 0 0 0 0 -97.325345846547862 -65.989082854344815 0 -65.989082854344815 6.340102784201008 0 0 0 0 -114.2648614827558 -91.319865848508016 0 -91.319865848508016 43.502467864007485 0 0 0 0 -566.14531048113713 -96.890531524881226 0 -96.890531524881226 31.498885725675791 0 0 0 0 -135.60083501326153 -140.55995948773671 0 -140.55995948773671 -54.40132378263479 0 0 0 0 -116.07786513557664 -14.932396203617188 0 -14.932396203617188 44.187331127186624 0 0 0 0 -122.78590381436516 -55.842912664632422 0 -55.842912664632422 58.821782411698223 0 0 0 0 -33.349343569223436 -6.1656672152926433 0 -6.1656672152926433 6.351194193342721 0 0 0 0 -8.4402124025509693 68.729714570602482 0 68.729714570602482 148.84328133806434 0 0 0 0 21.925167824898381 232.03949328367389 0 232.03949328367389 356.14811306941465 0 0 0 0 -370.49272214746452 102.67773631870523 0 102.67773631870523 251.02168472708041 0 0 0 0 -26.982848409562223 15.164459875463038 0 15.164459875463038 -6.891356545707735 0 0 0 0 -190.45871826418443 -19.443350561337866 0 -19.443350561337866 -141.5694401433243 0 0 0 0 -665.07667396604666 -334.37884200073199 0 -334.37884200073199 168.3837701882976 0 0 0 0 -309.46186659106752 -385.98106377713202 0 -385.98106377713202 -354.54812478869826 0 0 0 0 -126.22370779756761 -11.000427325246434 0 -11.000427325246434 38.157168547084709 0 0 0 0 234.40256281197799 296.59279591294649 0 296.59279591294649 354.02934913061381 0 0 0 0 -292.04845235929679 53.90901949299041 0 53.90901949299041 143.47895712292393 0 0 0 0 -244.92301295041398 -143.63320756923076 0 -143.63320756923076 44.474837528667194 0 0 0 0 -415.67433852743125 8.6575324377245124 0 8.6575324377245124 49.098405701611682 0 0 0 0 -190.53639367159485 -53.876929057945745 0 -53.876929057945745 65.664275020850255 0 0 0 0 -205.06667943717912 103.75788020799018 0 103.75788020799018 -23.670318461099669 0 0 0 0 -316.42800181740313 149.42905725782657 0 149.42905725782657 -294.76288299916632 0 0 0 0 -642.63392476926674 208.22081125780369 0 208.22081125780369 -163.30198446960458 0 0 0 0 -454.37812569512243 -36.602589684705436 0 -36.602589684705436 9.1737218695452611 0 0 0 0 -586.72373288228755 -135.28623864404153 0 -135.28623864404153 92.102832088667128 0 0 0 0 -303.67046127765934 -296.60880218563966 0 -296.60880218563966 85.666218146960091 0 0 0 0 -175.77964912260359 -22.28024611321689 0 -22.28024611321689 51.842586068601122 0 0 0 0 2.204017044641212 4.6365924767609386 0 4.6365924767609386 -10.351401105450492 0 0 0 0 73.014157029978378 14.848548797595186 0 14.848548797595186 -126.54850999080008 0 0 0 0 -40.613763946661493 -80.615014550775413 0 -80.615014550775413 -25.678051301769301 0 0 0 0 -61.47244741646864 -230.26857810465435 0 -230.26857810465435 33.092693943833183 0 0 0 0 35.561627277355001 -85.9862256868646 0 -85.9862256868646 -16.480671147793146 0 0 0 0 -230.66196765369386 -199.77547170058642 0 -199.77547170058642 -229.45512334358682 0 0 0 0 -103.90582571826235 -14.666160579490679 0 -14.666160579490679 -50.264582172741939 0 0 0 0 -314.18007876293996 -235.47109833065224 0 -235.47109833065224 -145.20550580028248 0 0 0 0 -269.05542475187394 -279.05507477041851 0 -279.05507477041851 -281.60508614258561 0 0 0 0 -335.98630265444808 -211.00046191707952 0 -211.00046191707952 -172.59271243919011 0 0 0 0 -716.01015554143669 -378.20926477463581 0 -378.20926477463581 -237.03505709365936 0 0 0 0 48.857661683990955 102.30953274549672 0 102.30953274549672 -221.26255237265741 0 0 0 0 -14.47640576210874 5.3108038225485075 0 5.3108038225485075 -6.6256001203180155 0 0 0 0 -266.06475720899471 -38.115571417403771 0 -38.115571417403771 -465.51832032274342 0 0 0 0 -319.4801855172027 -381.27985853966572 0 -381.27985853966572 -528.35722095393248 0 0 0 0 -610.18255930580199 -113.22347416927187 0 -113.22347416927187 -65.721740289149238 0 0 0 0 -252.81070654613723 -165.53758643721267 0 -165.53758643721267 7.7440054118417265 0 0 0 0 -229.97322198398251 -187.51525092459997 0 -187.51525092459997 -58.710197435460941 0 0 0 0 -355.08844251427217 -36.408076924000852 0 -36.408076924000852 56.243874660885922 0 0 0 0 -179.60266462320578 17.435965560908699 0 17.435965560908699 -82.340136579779937 0 0 0 0 -166.82840566714003 -20.180116266768891 0 -20.180116266768891 5.4563115561577433 0 0 0 0 -162.17158736591955 19.875626061782896 0 19.875626061782896 -127.36734749871175 0 0 0 0 -301.76721649284445 -81.960490229006609 0 -81.960490229006609 -97.018291466396477 0 0 0 0 -94.195009598624893 61.102824371069801 0 61.102824371069801 49.173784913335112 0 0 0 0 -103.08086172128969 -38.89111773256991 0 -38.89111773256991 -69.997004091179406 0 0 0 0 -58.442748366811429 12.473924033321964 0 12.473924033321964 63.833272353462235 0 0 0 0 -87.177663783077151 66.315130747425428 0 66.315130747425428 -25.708588586209771 0 0 0 0 -220.62585141052841 -61.948420453159997 0 -61.948420453159997 42.281334076153144 0 0 0 0 -86.038319301500451 103.5122770054586 0 103.5122770054586 129.7537344966604 0 0 0 0 -96.514266239165806 -6.2002905756175295 0 -6.2002905756175295 27.30653428418276 0 0 0 0 37.823212006303947 -189.58822333870921 0 -189.58822333870921 97.02995895319691 0 0 0 0 -165.0230729220566 -72.18038017465733 0 -72.18038017465733 58.789504807235062 0 0 0 0 -44.286442686381633 57.6106308668368 0 57.6106308668368 21.284706474519226 0 0 0 0 176.38319606333971 23.168785289131847 0 23.168785289131847 129.70407208813231 0 0 0 0 1.4471818754426522 0.073997396494206669 0 0.073997396494206669 0.32055332822052307 0 0 0 0 -82.758056316321017 -185.63423309087261 0 -185.63423309087261 -146.74703562580908 0 0 0 0 -331.01510488271015 277.71345009916058 0 277.71345009916058 177.4649243288452 0 0 0 0 -73.801286598163244 -15.326672618181647 0 -15.326672618181647 33.12521803844804 0 0 0 0 76.915318748098798 -77.837290013554593 0 -77.837290013554593 -132.23347100768683 0 0 0 0 -265.76059337158222 -28.482385290964885 0 -28.482385290964885 48.691310949800027 0 0 0 0 -164.83419004626921 -50.279462584920566 0 -50.279462584920566 -9.988795360783115 0 0 0 0 -96.03970351757016 -36.5857290288277 0 -36.5857290288277 -55.426870133132979 0 0 0 0 -5.3275918205908965 63.928410852106026 0 63.928410852106026 49.861970956340883 0 0 0 0 -154.86263653470087 54.460451151511734 0 54.460451151511734 51.665240270678623 0 0 0 0 -228.77996695463662 -5.4191484036637121 0 -5.4191484036637121 301.63383820189301 0 0 0 0 -68.034945660991582 -10.987501368083846 0 -10.987501368083846 -1.1427958429604903 0 0 0 0 -42.991018827073276 13.263219509723058 0 13.263219509723058 168.90123382169713 0 0 0 0 -265.26338695478626 -165.33016901088558 0 -165.33016901088558 161.91295588218964 0 0 0 0 -65.921238572134371 -9.6955718240647446 0 -9.6955718240647446 -0.50678584797493631 0 0 0 0 -100.45396274939412 -51.540865684154596 0 -51.540865684154596 134.8338430425074 0 0 0 0 -61.82438829424791 -33.318579430901593 0 -33.318579430901593 43.227981786099491 0 0 0 0 -57.285593772146967 -21.113247427620294 0 -21.113247427620294 0.064768152029671885 0 0 0 0 -2.7717769555280825 1.6384337524887087 0 1.6384337524887087 1.5886751662612977 0 0 0 0 -19.011833606986329 -3.879270412268478 0 -3.879270412268478 0.0084839608364928234 0 0 0 0 -79.311117757730244 80.122309122242356 0 80.122309122242356 -9.8837206010826009 0 0 0 0 -152.52751633815933 -14.128819843150936 0 -14.128819843150936 96.685554571015274 0 0 0 0 -63.672638745323638 -43.278516156759963 0 -43.278516156759963 -0.15846902214643593 0 0 0 0 -48.878396959335078 5.7095424986746366 0 5.7095424986746366 103.52992930189976 0 0 0 0 -68.166162629244354 -4.7248919078688196 0 -4.7248919078688196 5.8307446653536879 0 0 0 0 -66.266834610840306 -9.4080342540473794 0 -9.4080342540473794 96.083758017271521 0 0 0 0 -65.626595985591962 -9.2028955789971736 0 -9.2028955789971736 -0.77089605900193225 0 0 0 0 -102.31562116707209 -99.333013398141247 0 -99.333013398141247 74.207678579965432 0 0 0 0 -57.136807415160376 -6.3055545063798384 0 -6.3055545063798384 13.773193862447886 0 0 0 0 -100.41848063986981 -13.940837872334669 0 -13.940837872334669 4.4875772117214581 0 0 0 0 -114.41913735773414 -18.586957106506816 0 -18.586957106506816 33.830213228702632 0 0 0 0 -11.517724081582855 -45.975991386364512 0 -45.975991386364512 64.610447837276297 0 0 0 0 -39.114494681823999 -7.671319829645654 0 -7.671319829645654 12.196086334552092 0 0 0 0 -41.282304561883905 -28.545816611043861 0 -28.545816611043861 -0.39438823117395927 0 0 0 0 -0.32177002129753873 12.362690841361456 0 12.362690841361456 2.1049943747632822 0 0 0 0 -60.592505151005923 -36.059405616765162 0 -36.059405616765162 26.131354990597885 0 0 0 0 -130.87995820936339 -95.620836316487839 0 -95.620836316487839 46.413452341324955 0 0 0 0 -8.7637786108896876 -10.428405137482031 0 -10.428405137482031 -1.0491992736382336 0 0 0 0 -145.91660528891953 115.89246438486589 0 115.89246438486589 143.78785811337366 0 0 0 0 -131.3455655372527 5.8701737253741157 0 5.8701737253741157 124.1278923235368 0 0 0 0 -133.48803944456449 -154.90603831504268 0 -154.90603831504268 8.5682668115186971 0 0 0 0 -169.62200765740818 -139.73016653713921 0 -139.73016653713921 13.907307280180248 0 0 0 0 -149.13808679701469 -184.10200104905562 0 -184.10200104905562 -43.719898701049942 0 0 0 0 11.854714220608912 -255.10064321422908 0 -255.10064321422908 -52.53388815260405 0 0 0 0 21.915435186223476 -106.09317704234854 0 -106.09317704234854 -121.01424975927966 0 0 0 0 -53.978467179927975 -76.960393304288118 0 -76.960393304288118 -187.4282975337228 0 0 0 0 -47.173493462236365 -118.64359454384066 0 -118.64359454384066 -94.816994048749621 0 0 0 0 -108.05918016268697 -127.867697448748 0 -127.867697448748 -38.850291009334342 0 0 0 0 -42.033951519759796 -14.948447974980652 0 -14.948447974980652 -1.5480901594076464 0 0 0 0 -71.614701696002157 -18.153286638905229 0 -18.153286638905229 11.314321116607971 0 0 0 0 -65.138535254416638 -25.904478725329682 0 -25.904478725329682 -0.72891275914025755 0 0 0 0 -64.216673527381033 -4.5056769569263793 0 -4.5056769569263793 10.524455654329152 0 0 0 0 -72.116902493584007 -45.328384820871705 0 -45.328384820871705 8.6223786037838739 0 0 0 0 -11.713691066222964 -79.610112299042157 0 -79.610112299042157 -55.787507687656216 0 0 0 0 -73.049752379287384 84.857323960033682 0 84.857323960033682 -58.616343200385018 0 0 0 0 -54.919555430887215 -20.461431153233377 0 -20.461431153233377 0.98140126506033698 0 0 0 0 -4.0246063355808701 -3.4874264974113203 0 -3.4874264974113203 -2.1069801816283094 0 0 0 0 -91.71933698071507 -64.524380350416266 0 -64.524380350416266 -11.678968815098102 0 0 0 0 -19.034251513512572 -3.9088465366263208 0 -3.9088465366263208 -0.0053201357534034995 0 0 0 0 -5487.5590664533665 -1379.6617552631787 0 -1379.6617552631787 354.82995797419107 0 0 0 0 -2095.4703337528481 -568.71928833646405 0 -568.71928833646405 437.81659370613136 0 0 0 0 -13.106169694253595 -3.6557029620525014 0 -3.6557029620525014 -5.6805012595258395 0 0 0 0 -36.355305576638784 -14.987528807036966 0 -14.987528807036966 -2.1374284559333416 0 0 0 0 -89.855645829913556 -4.2159139193245823 0 -4.2159139193245823 11.510490720210809 0 0 0 0 -57.192072025616653 -10.315348106578112 0 -10.315348106578112 -0.15522174441088185 0 0 0 0 -24.14553330851605 -7.5088667325372285 0 -7.5088667325372285 -0.76733053292266096 0 0 0 0 -61.973056022982973 -15.453758653514313 0 -15.453758653514313 11.362775096953101 0 0 0 0 -2.4607047371973749 9.3239215398498345 0 9.3239215398498345 -295.99749932514169 0 0 0 0 -74.881869602104416 73.528255824609005 0 73.528255824609005 56.752919474835835 0 0 0 0 -7.7651862746227494 3.9327099447628484 0 3.9327099447628484 5.5257816465194551 0 0 0 0 -238.46665178937837 -174.83337256852064 0 -174.83337256852064 207.97583509844299 0 0 0 0 -20.305079667938557 -25.645852945725977 0 -25.645852945725977 -43.076818435030425 0 0 0 0 21.164502932253527 -146.44737654834171 0 -146.44737654834171 -492.62970780066098 0 0 0 0 -68.752719439189718 -58.096308237439459 0 -58.096308237439459 -24.290287659636551 0 0 0 0 -213.7958927443251 -596.09546266012694 0 -596.09546266012694 -224.15245827012086 0 0 0 0 -55.710706579422549 616.74159561922067 0 616.74159561922067 -1040.6166970328727 0 0 0 0 -2556.5774124414311 1406.3836422234328 0 1406.3836422234328 -637.53352696717889 0 0 0 0 -19.737492202219755 -10.939072221752538 0 -10.939072221752538 -23.388112521724782 0 0 0 0 -5493.6384362599638 496.14430183362862 0 496.14430183362862 584.72642728230846 0 0 0 0 -2926.7819006669451 -2575.1535113331952 0 -2575.1535113331952 -2152.5869820944358 0 0 0 0 -5491.9052898522059 -1973.0501549806922 0 -1973.0501549806922 74.085887845357789 0 0 0 0 -39.285589223960415 -121.01704080696618 0 -121.01704080696618 -124.63475594366173 0 0 0 0 -1187.5940708040725 -1137.760245196469 0 -1137.760245196469 -1582.850553076649 0 0 0 0 -8.9623174111264881 -30.100853591085809 0 -30.100853591085809 -104.19478764496694 0 0 0 0 -4034.5166911583801 -790.05720088466853 0 -790.05720088466853 391.05425730918205 0 0 0 0 -5500.0368976379023 -395.59342669059538 0 -395.59342669059538 328.6810565004003 0 0 0 0 -4265.0924434691697 -933.27054647814646 0 -933.27054647814646 340.65042897783161 0 0 0 0 -4682.9374110636272 -202.43881234781236 0 -202.43881234781236 365.29127001832546 0 0 0 0 743.14967739659187 -286.39191130982454 0 -286.39191130982454 -128.05464409235719 0 0 0 0 -4258.7249457612343 125.66910880439909 0 125.66910880439909 110.50369013075021 0 0 0 0 -1.8991727709828936 -10.898124916941725 0 -10.898124916941725 -56.650051425034405 0 0 0 0 -0.03770803811177359 -19.019804589017753 0 -19.019804589017753 -83.064110483358633 0 0 0 0 215.04014687441031 -185.62982661253773 0 -185.62982661253773 -109.75602567621536 0 0 0 0 103.63023292912112 -107.22877304137546 0 -107.22877304137546 -9.3813660918185633 0 0 0 0 -204.61747727681359 -280.16444613592466 0 -280.16444613592466 -49.4379392375713 0 0 0 0 -47.521496200090041 -136.34077259810965 0 -136.34077259810965 -78.15725113536746 0 0 0 0 102.82116000991664 -285.9504015243383 0 -285.9504015243383 -163.21146060473257 0 0 0 0 485.56753103176015 -84.171148654793797 0 -84.171148654793797 -131.88493505274346 0 0 0 0 83.466530637888354 -279.43616181633661 0 -279.43616181633661 -40.959918603481128 0 0 0 0 269.72723359456086 14.811643931675292 0 14.811643931675292 -381.29496313342679 0 0 0 0 -103.1880571055226 -236.69934979186201 0 -236.69934979186201 -507.4032337857343 0 0 0 0 41.955902413828881 -18.625118715420285 0 -18.625118715420285 -447.99573440133526 0 0 0 0 -179.79021763320634 -360.52252877494084 0 -360.52252877494084 -456.847597714318 0 0 0 0 26.538680689860485 -30.819256820858755 0 -30.819256820858755 -276.63186737522665 0 0 0 0 -486.29870619130725 -221.11650046282824 0 -221.11650046282824 -136.63811138906021 0 0 0 0 1.8212954646285766 3.5701573410239007 0 3.5701573410239007 -3.4474794996122711 0 0 0 0 -225.70907006293419 -166.36774803854223 0 -166.36774803854223 -206.07594512010564 0 0 0 0 -228.24559229917941 -31.815155339063494 0 -31.815155339063494 -12.154192451610015 0 0 0 0 2383.3166421748265 545.09055560076729 0 545.09055560076729 -1366.4696910813741 0 0 0 0 1738.5300565991638 12.769374232625069 0 12.769374232625069 -445.68938626665476 0 0 0 0 -3203.0404701895168 -46.70378838016309 0 -46.70378838016309 -858.02600392908585 0 0 0 0 -1.103398012505231 -1.4282486795687817 0 -1.4282486795687817 -21.205492121552084 0 0 0 0 -2376.6320195890439 -345.42865109054065 0 -345.42865109054065 -1165.8609908139722 0 0 0 0 -5500.4842756391445 611.29611076599576 0 611.29611076599576 -1843.7107723143738 0 0 0 0 -2934.8401723133284 1898.8871911705326 0 1898.8871911705326 -305.32699305384853 0 0 0 0 -5961.3213555232651 516.49507139732486 0 516.49507139732486 -96.753945695021287 0 0 0 0 -4500.9610074364464 635.72846577677319 0 635.72846577677319 -146.22967245607441 0 0 0 0 -5499.3831237712438 350.94907337533641 0 350.94907337533641 524.1468528050882 0 0 0 0 261.67173522160374 -31.896505400648039 0 -31.896505400648039 369.11091655156633 0 0 0 0 -3920.410295488924 -215.69469559584326 0 -215.69469559584326 152.99959809760946 0 0 0 0 -61.717513606664113 7.4053237528235911 0 7.4053237528235911 12.250038336596155 0 0 0 0 41.785964978538686 -49.860204816773603 0 -49.860204816773603 -15.081629345778538 0 0 0 0 -576.0045328168344 -338.00780379916523 0 -338.00780379916523 1313.8357175732262 0 0 0 0 -47.991563049154024 -20.327913014945779 0 -20.327913014945779 -11.636802945474795 0 0 0 0 447.62595987063833 37.32493226553197 0 37.32493226553197 -600.433671230443 0 0 0 0 -42.696853037912717 -4.9223360294936196 0 -4.9223360294936196 -0.99454376307650527 0 0 0 0 -388.92644130499684 599.27386908644985 0 599.27386908644985 166.69980475522243 0 0 0 0 -264.65507636500115 -235.53710112494537 0 -235.53710112494537 -34.998693638590339 0 0 0 0 251.42356566651142 258.24481099964396 0 258.24481099964396 339.86811407466485 0 0 0 0 -191.99635014908563 -51.494254969466965 0 -51.494254969466965 276.56881843146039 0 0 0 0 -149.50017936844961 60.839724759721321 0 60.839724759721321 47.511747583721444 0 0 0 0 -235.01210901785817 201.41271863075053 0 201.41271863075053 223.78374003193494 0 0 0 0 -199.63257132430954 274.5707861875544 0 274.5707861875544 -159.99059133008996 0 0 0 0 -225.52860186444741 20.307476014113945 0 20.307476014113945 125.89931765563779 0 0 0 0 -119.05484994973345 8.1693556950781065 0 8.1693556950781065 21.687085659882655 0 0 0 0 -171.44556326448946 95.95801928435867 0 95.95801928435867 79.567229588398732 0 0 0 0 -50.683245384489055 14.719476685764775 0 14.719476685764775 21.899697848814593 0 0 0 0 -29.135146216489375 62.065993686243019 0 62.065993686243019 -14.331508404065971 0 0 0 0 -126.65467415045714 5.2245625378395317 0 5.2245625378395317 20.252476334766875 0 0 0 0 -60.072996911403607 6.5846378884575643 0 6.5846378884575643 32.589919510641721 0 0 0 0 -74.967592356440065 -16.295221079346419 0 -16.295221079346419 10.180290603193537 0 0 0 0 -62.456496525483203 15.604193328667005 0 15.604193328667005 23.251223387206295 0 0 0 0 -106.64950308209518 2.2339857332976862 0 2.2339857332976862 22.914581002991326 0 0 0 0 -86.75516615062952 3.4288539090248378 0 3.4288539090248378 21.807718702837519 0 0 0 0 -93.590953659342631 -0.93885682469749554 0 -0.93885682469749554 38.788428841189543 0 0 0 0 -158.56034411170043 13.497215164145743 0 13.497215164145743 53.990954543039749 0 0 0 0 -52.154038991895504 -11.497229629656431 0 -11.497229629656431 48.92551987774641 0 0 0 0 -70.612653741605357 -22.231422648062491 0 -22.231422648062491 14.520181045668682 0 0 0 0 -123.87343730832799 15.013487379669414 0 15.013487379669414 13.866304061887377 0 0 0 0 -77.616499745494252 9.6328054438141635 0 9.6328054438141635 12.445264024637641 0 0 0 0 -68.432592245249452 16.934544560783465 0 16.934544560783465 6.1672546035211013 0 0 0 0 -106.02904458414559 16.174841146118197 0 16.174841146118197 21.099431802503119 0 0 0 0 -56.622025596190312 9.8948922047424617 0 9.8948922047424617 15.82605158992305 0 0 0 0 -61.49700961864437 -0.54219425388964737 0 -0.54219425388964737 26.496008982211606 0 0 0 0 -113.30105128964351 24.536158827890176 0 24.536158827890176 29.992118527410639 0 0 0 0 -96.041909421757339 -0.45020118000530296 0 -0.45020118000530296 10.764243992291043 0 0 0 0 -75.020894660789054 261.44923039273363 0 261.44923039273363 286.43221485209801 0 0 0 0 66.47907172088162 150.13591395301722 0 150.13591395301722 64.942505346935832 0 0 0 0 -13.089922840028159 38.171326683399343 0 38.171326683399343 20.650761769947835 0 0 0 0 115.42434635123936 236.03819298126518 0 236.03819298126518 -38.948869392273764 0 0 0 0 -57.24881997515331 28.523970856476581 0 28.523970856476581 17.821589029510051 0 0 0 0 -64.481938175435062 37.881469646022424 0 37.881469646022424 5.7303159562004566 0 0 0 0 -47.864602109396401 27.345396838461902 0 27.345396838461902 -3.7926032096663675 0 0 0 0 -26.644742311034975 8.5285537670705764 0 8.5285537670705764 2.6376736843370168 0 0 0 0 -55.428638318408048 42.786857107640856 0 42.786857107640856 -21.015051268400271 0 0 0 0 314.09182909448282 -41.563111258373283 0 -41.563111258373283 -199.17479169056969 0 0 0 0 12.105120704390842 30.495714957295121 0 30.495714957295121 -22.712997380417278 0 0 0 0 296.36960191238904 -87.645375462273932 0 -87.645375462273932 -290.57779252890123 0 0 0 0 199.17345645377645 62.929131467411935 0 62.929131467411935 -587.2751106509786 0 0 0 0 132.24705449884641 -31.182342993408383 0 -31.182342993408383 -68.996597233068314 0 0 0 0 -338.61868010590115 63.062943135827084 0 63.062943135827084 -398.0026551847377 0 0 0 0 122.52123119842145 309.27754633875475 0 309.27754633875475 -580.10418022811336 0 0 0 0 -1.4724056680424837 195.26396899698329 0 195.26396899698329 209.9846895194587 0 0 0 0 -307.59131242515286 535.25840092060753 0 535.25840092060753 142.51452783960303 0 0 0 0 -1174.8706872930343 726.82678744569125 0 726.82678744569125 646.57212398172805 0 0 0 0 -268.01782786236072 536.06745722972801 0 536.06745722972801 -1128.2895087398974 0 0 0 0 -11.948847247798824 -10.264848645876441 0 -10.264848645876441 -9.4201331061775342 0 0 0 0 -2573.7806389973084 535.29686094478427 0 535.29686094478427 87.536186202854879 0 0 0 0 -447.48534412120352 -377.1251215805753 0 -377.1251215805753 -1297.2023396767154 0 0 0 0 -2661.6244805829629 -217.14340568088755 0 -217.14340568088755 60.097594602862955 0 0 0 0 6.8217907966172788 -189.89390087063293 0 -189.89390087063293 -251.8377891207183 0 0 0 0 44.942591591825476 -914.86484409366358 0 -914.86484409366358 -936.04557814350119 0 0 0 0 -47.288500514619955 -734.01537360082489 0 -734.01537360082489 483.83033442448868 0 0 0 0 -581.37964844843373 -1287.443099110194 0 -1287.443099110194 -79.178790197268199 0 0 0 0 -68.780966303165769 50.609007005617968 0 50.609007005617968 695.22378972303113 0 0 0 0 -78.175183333490537 -9.9962918236685567 0 -9.9962918236685567 66.002806242343908 0 0 0 0 -132.26787802707986 -4.90405040065707 0 -4.90405040065707 126.37442975974136 0 0 0 0 -175.20726011611987 5.5958953702884173 0 5.5958953702884173 133.06305100049849 0 0 0 0 -94.904729021727945 26.314064109104493 0 26.314064109104493 42.411609005173133 0 0 0 0 -1229.8657179403381 1898.2853679671757 0 1898.2853679671757 1082.3844775855016 0 0 0 0 458.18888426045305 -796.5825401469715 0 -796.5825401469715 -974.98832283962156 0 0 0 0 -56.855008845217526 -1420.5606781250153 0 -1420.5606781250153 -55.693506932936998 0 0 0 0 4.4251233981412952 -1546.862629896616 0 -1546.862629896616 -689.4489216166894 0 0 0 0 -12.057374879745737 -14.877723483974179 0 -14.877723483974179 -10.95697997155823 0 0 0 0 -1468.294143923209 337.84946975180173 0 337.84946975180173 -136.89993831506854 0 0 0 0 -244.72311530797742 -45.896882139155878 0 -45.896882139155878 231.26907941714308 0 0 0 0 -270.16552904367563 -120.22829834701588 0 -120.22829834701588 64.162494697087823 0 0 0 0 -174.65049089860986 -98.465443820151449 0 -98.465443820151449 59.13396034045536 0 0 0 0 -288.64202911811299 -49.909086585348632 0 -49.909086585348632 155.17636417354333 0 0 0 0 -158.64478228263761 -31.62399011015259 0 -31.62399011015259 88.25189472783677 0 0 0 0 76.422826817506575 52.102695743458071 0 52.102695743458071 -15.780911830195237 0 0 0 0 -198.78758994748932 -163.16500443210862 0 -163.16500443210862 -112.26878975149248 0 0 0 0 -20.568267487516572 66.376782001820516 0 66.376782001820516 11.504821073775904 0 0 0 0 9.8873851850905794 13.879962638435899 0 13.879962638435899 -1.428765705372868 0 0 0 0 -629.54907327060937 -240.04617980912553 0 -240.04617980912553 -138.30886244619978 0 0 0 0 -202.32821174152195 -52.837839320511421 0 -52.837839320511421 -59.012778181496287 0 0 0 0 -105.55315639509354 235.67461198956011 0 235.67461198956011 -164.18698072333825 0 0 0 0 -1.2893165568611948 0.98813293402163538 0 0.98813293402163538 -2.2761663612724394 0 0 0 0 -54.99157945587649 9.0639872380417614 0 9.0639872380417614 39.261845253599176 0 0 0 0 -0.33203141792072799 74.059149774185528 0 74.059149774185528 -34.191746381751933 0 0 0 0 100.03871656897536 147.83837483425796 0 147.83837483425796 -245.54986702964726 0 0 0 0 -12.71136547187109 2.2258611802070085 0 2.2258611802070085 -1.0735985289795575 0 0 0 0 -1434.8516289938852 -328.84118277027483 0 -328.84118277027483 -80.10756324234535 0 0 0 0 60.707732249719811 64.643416796653582 0 64.643416796653582 -124.02130615859369 0 0 0 0 -2008.2237450714747 432.92161594745448 0 432.92161594745448 478.17624589897787 0 0 0 0 -1425.3564148576988 487.95844120903257 0 487.95844120903257 337.85119987175676 0 0 0 0 -1125.8945367457345 -1024.8304493676551 0 -1024.8304493676551 -431.57265735132387 0 0 0 0 -542.6310896029172 -379.02135610759888 0 -379.02135610759888 146.89227011363619 0 0 0 0 -137.97200178549974 149.42963880905336 0 149.42963880905336 -1123.2573430142411 0 0 0 0 -806.24135422532709 -7.2527660082755574 0 -7.2527660082755574 789.30449196922564 0 0 0 0 -1434.8609923463955 751.66095739803313 0 751.66095739803313 -52.510871676322495 0 0 0 0 -9.9266779960338454 9.5547080223118144 0 9.5547080223118144 22.911198582120505 0 0 0 0 -401.8158650570258 -148.69937237174418 0 -148.69937237174418 795.64173485763513 0 0 0 0 -662.27658575729765 331.10251444880032 0 331.10251444880032 77.228730188393456 0 0 0 0 -779.03668725120042 13.949464083675139 0 13.949464083675139 -100.30112789117447 0 0 0 0 -165.43446796684208 -28.184444520114909 0 -28.184444520114909 77.798407665834219 0 0 0 0 -1069.3164449021497 17.488214889731353 0 17.488214889731353 144.34947864580681 0 0 0 0 -221.04767015453399 -160.90227860297455 0 -160.90227860297455 -280.65378624307596 0 0 0 0 -517.23460430909836 44.966334784781793 0 44.966334784781793 -213.31921394254459 0 0 0 0 -178.33503487779961 -67.969014186190762 0 -67.969014186190762 71.705283303807875 0 0 0 0 -189.46383216173581 144.07386618258653 0 144.07386618258653 -324.58428981898942 0 0 0 0 -193.30065417528385 168.16215213386045 0 168.16215213386045 1.2616004251951836 0 0 0 0 -42.755787813141438 57.944766470391528 0 57.944766470391528 -71.801201494646364 0 0 0 0 -251.10888629900001 258.9090347502829 0 258.9090347502829 -114.81047544812736 0 0 0 0 -44.949469513949225 220.78855089693553 0 220.78855089693553 -192.87958242283639 0 0 0 0 -121.21409834579208 471.23467911077762 0 471.23467911077762 98.43792570766982 0 0 0 0 -588.94643334452121 45.371970446285559 0 45.371970446285559 7.4761740787980671 0 0 0 0 -692.21576294769784 107.21942443146918 0 107.21942443146918 53.914387292126776 0 0 0 0 -116.87838742201586 11.120442465144791 0 11.120442465144791 24.369140438565214 0 0 0 0 -61.259851934715108 87.499630066751592 0 87.499630066751592 -24.088203064267773 0 0 0 0 -471.87820689905129 -277.18834572798187 0 -277.18834572798187 630.49602837053681 0 0 0 0 -113.40013470656359 49.540322016133679 0 49.540322016133679 10.180285491299072 0 0 0 0 -534.99527063769347 134.5220111751878 0 134.5220111751878 -28.003634618646174 0 0 0 0 -304.63723542440084 105.4029727952709 0 105.4029727952709 272.07887864877557 0 0 0 0 -302.10071803843311 82.436934540386574 0 82.436934540386574 -44.893824794256943 0 0 0 0 -207.43429594258487 -134.19836680772642 0 -134.19836680772642 -178.22161934953692 0 0 0 0 -778.72151063156525 -226.03154738492049 0 -226.03154738492049 -44.386342885522026 0 0 0 0 -456.3248505201409 -194.36741938284104 0 -194.36741938284104 -134.34396631089112 0 0 0 0 -455.05192793276376 -25.997420100870514 0 -25.997420100870514 -60.088833710702602 0 0 0 0 -1087.477824732101 213.63950683495386 0 213.63950683495386 -41.236465810679874 0 0 0 0 -922.94820946521986 272.10485963466135 0 272.10485963466135 -53.786244973045541 0 0 0 0 -1586.8774049179119 -535.58959082338083 0 -535.58959082338083 -208.93565240807584 0 0 0 0 -1861.7774494050936 711.09690359080923 0 711.09690359080923 -95.444889138296276 0 0 0 0 -2066.3139701644941 -1147.7649376146364 0 -1147.7649376146364 985.87000090398942 0 0 0 0 -14.870176413917243 33.612189038096489 0 33.612189038096489 -12.248222257593811 0 0 0 0 -121.76949270709702 325.76872103567212 0 325.76872103567212 -13.696765590029827 0 0 0 0 190.10062410972023 -364.62658147703223 0 -364.62658147703223 -915.0552000002408 0 0 0 0 -84.0130845138805 36.406560553876105 0 36.406560553876105 -18.372486574631424 0 0 0 0 -113.0693156960624 -101.17488193817189 0 -101.17488193817189 -140.07475257155329 0 0 0 0 -60.165203539062411 -38.639005396695552 0 -38.639005396695552 0.24090614421133694 0 0 0 0 -160.11228069048411 30.124385417460871 0 30.124385417460871 -26.340622652271122 0 0 0 0 24.658929131117475 5.1165676040800463 0 5.1165676040800463 13.53149336147726 0 0 0 0 7.2428462944226339 -106.39441029517002 0 -106.39441029517002 -43.742397951120438 0 0 0 0 -137.40760062528716 29.23772174252008 0 29.23772174252008 20.370086689665186 0 0 0 0 -94.676687169222888 14.608342103332021 0 14.608342103332021 -4.8490532972249376 0 0 0 0 -41.764951184259189 -25.30269931556586 0 -25.30269931556586 -139.25371368633387 0 0 0 0 -9.4277277404385416 -10.445649959567142 0 -10.445649959567142 0.20956232276295239 0 0 0 0 -47.376165698053228 -12.035893803513318 0 -12.035893803513318 -148.81147395513835 0 0 0 0 -18.929182054175755 1.1825479776952861 0 1.1825479776952861 5.5151021635612345 0 0 0 0 -85.699806530377828 7.145720776032249 0 7.145720776032249 -45.201992969866296 0 0 0 0 -147.00477942305588 -37.715352540946697 0 -37.715352540946697 -60.398212851887365 0 0 0 0 -86.760578022485788 8.234829295144209 0 8.234829295144209 -28.829409458499867 0 0 0 0 28.768713205419772 24.892660694490587 0 24.892660694490587 -117.5097866887736 0 0 0 0 -215.93417703122395 -46.27595746208317 0 -46.27595746208317 51.313225430250895 0 0 0 0 -27.17278658770892 19.165931171642356 0 19.165931171642356 -56.047912958040762 0 0 0 0 139.56421154185227 1.8478471685684781 0 1.8478471685684781 -214.34286683063692 0 0 0 0 -110.63613314384202 -9.1025533587244354 0 -9.1025533587244354 -134.66615129668935 0 0 0 0 -18.95769139480981 -2.8717370649196781 0 -2.8717370649196781 -78.88712721548626 0 0 0 0 -86.476331779378597 0.1487612415587023 0 0.1487612415587023 -34.903760678953404 0 0 0 0 -80.59916122489085 -125.91291901198929 0 -125.91291901198929 -239.55160562301171 0 0 0 0 -256.56467617856106 -115.92376074180356 0 -115.92376074180356 -45.628507126195473 0 0 0 0 -99.771014495090412 -32.284276309612245 0 -32.284276309612245 21.476982385373908 0 0 0 0 -88.935290893183264 0.65236492124586221 0 0.65236492124586221 -27.993464955245145 0 0 0 0 -45.319364695534603 -15.729791977733216 0 -15.729791977733216 -16.277727477318191 0 0 0 0 -58.801033433097473 -16.384171626775242 0 -16.384171626775242 -33.827056696502041 0 0 0 0 -43.887951151060406 -20.984777333686907 0 -20.984777333686907 -33.370084425941741 0 0 0 0 -104.59914277982836 5.2513948913588635 0 5.2513948913588635 16.177743154698128 0 0 0 0 -90.468825135169027 41.474913282948137 0 41.474913282948137 9.5342599695408126 0 0 0 0 -122.19832395846606 -69.691116492477249 0 -69.691116492477249 67.399912727265473 0 0 0 0 -34.893255473131447 -9.8945494699143808 0 -9.8945494699143808 6.8618916102125738 0 0 0 0 -109.30042483967554 -100.74098994120504 0 -100.74098994120504 133.24181160515309 0 0 0 0 321.88768245144456 204.4884088068502 0 204.4884088068502 209.25011780639761 0 0 0 0 238.88486666791141 161.07385712631913 0 161.07385712631913 231.10027013122453 0 0 0 0 209.25368520485063 7.8336405268705676 0 7.8336405268705676 -77.182909702503821 0 0 0 0 -97.784213903137811 -5.1188758046945964 0 -5.1188758046945964 15.838005434602868 0 0 0 0 -150.51775139287929 -39.2196308358034 0 -39.2196308358034 15.669093626072936 0 0 0 0 -124.74300838521133 -57.643748737870354 0 -57.643748737870354 -2.3950199155872696 0 0 0 0 -162.404680775815 -5.0418310388583905 0 -5.0418310388583905 51.734501233659103 0 0 0 0 -13.648456907614275 0.61650510869856845 0 0.61650510869856845 25.864583214045687 0 0 0 0 -199.4976669294374 -16.5798486823914 0 -16.5798486823914 -2.7060814165470219 0 0 0 0 -92.780251853080699 -15.556513547858231 0 -15.556513547858231 29.847792273245432 0 0 0 0 -8.4457519936937331 -0.55073619530929108 0 -0.55073619530929108 0.37531134799657906 0 0 0 0 -50.357592975305003 14.112455309962812 0 14.112455309962812 24.918250300671428 0 0 0 0 -61.28165256043367 -32.20601537360556 0 -32.20601537360556 12.185918673978902 0 0 0 0 -263.95078575304069 19.293135794969658 0 19.293135794969658 69.570806014700793 0 0 0 0 -69.772434754057031 23.691364758404461 0 23.691364758404461 -52.355142452849577 0 0 0 0 -456.56168187940784 -40.54388159865448 0 -40.54388159865448 35.663094669899692 0 0 0 0 -282.07920008785732 149.30169364088033 0 149.30169364088033 -96.361758575649219 0 0 0 0 -325.58700373358442 215.16439051695488 0 215.16439051695488 -185.32063232210203 0 0 0 0 -188.85059740227007 40.804943293165707 0 40.804943293165707 -47.685805170465756 0 0 0 0 -49.049886812907062 -29.536104196055021 0 -29.536104196055021 -103.77937257952726 0 0 0 0 -112.44231669450528 80.590188022268194 0 80.590188022268194 -156.12660561497614 0 0 0 0 -328.83163400224294 156.32682265876247 0 156.32682265876247 -174.72758659883584 0 0 0 0 -63.102338306169258 53.492241766433835 0 53.492241766433835 33.234095811332736 0 0 0 0 -383.09129951606155 128.76362818706684 0 128.76362818706684 46.009944958937922 0 0 0 0 -405.04398306910298 200.52323806513778 0 200.52323806513778 -25.967535325806239 0 0 0 0 -254.55247480423714 15.300212075799209 0 15.300212075799209 7.415841133093636 0 0 0 0 -423.86208242081921 326.82954039259494 0 326.82954039259494 -141.06971773797341 0 0 0 0 -393.66670540220366 -54.629214546077037 0 -54.629214546077037 4.438191739267495 0 0 0 0 -1645.4760647793009 -486.78472713653537 0 -486.78472713653537 293.48658806007006 0 0 0 0 -134.94924846005961 -3.022214272266865 0 -3.022214272266865 -64.834259503619251 0 0 0 0 -0.76120690033338789 -0.072479645917070457 0 -0.072479645917070457 8.4177196096911331 0 0 0 0 -692.63730665220646 -245.20444799691904 0 -245.20444799691904 -226.82232859593205 0 0 0 0 -393.00403329265828 -238.88140080169615 0 -238.88140080169615 -305.05256548374018 0 0 0 0 -630.06628667468613 -5.4779994657474163 0 -5.4779994657474163 -125.59554482767271 0 0 0 0 -1293.6815572239575 -132.80685183355308 0 -132.80685183355308 -105.39125578222956 0 0 0 0 -1607.310726710828 911.84627899159022 0 911.84627899159022 -426.53240650983935 0 0 0 0 -241.01910295472771 301.07158888792765 0 301.07158888792765 -216.87160628211495 0 0 0 0 -186.15974739958619 262.12193238345753 0 262.12193238345753 -622.04526181981782 0 0 0 0 617.70765412253286 -261.55196503016685 0 -261.55196503016685 -483.36574669979746 0 0 0 0 659.69815860409062 1047.2172780885521 0 1047.2172780885521 -1531.8597244835983 0 0 0 0 -169.90358149832173 -59.69905400638163 0 -59.69905400638163 -217.06603577438727 0 0 0 0 -15.237592087189057 -6.5848334120939533 0 -6.5848334120939533 -1.8091534498374813 0 0 0 0 49.608750338265963 56.105389871476291 0 56.105389871476291 -191.95876825357846 0 0 0 0 -124.73821702107671 -147.56523362160806 0 -147.56523362160806 -156.10863538834701 0 0 0 0 -238.71168585387932 -46.144232171859585 0 -46.144232171859585 -127.93231612079398 0 0 0 0 -5.8208864246789744 -59.040190823790454 0 -59.040190823790454 -58.266440158411569 0 0 0 0 52.100690245881196 -72.886928133785204 0 -72.886928133785204 -209.22757817917591 0 0 0 0 -186.31290138238546 -62.856951658733124 0 -62.856951658733124 -38.097780837311802 0 0 0 0 -311.31103590240673 125.33640287971684 0 125.33640287971684 -102.69173052761835 0 0 0 0 -319.43629608389165 121.3022149824792 0 121.3022149824792 -103.66077461826717 0 0 0 0 -559.54035738276252 288.62788323425684 0 288.62788323425684 -197.25007331076631 0 0 0 0 -362.08283276983275 11.898927262018333 0 11.898927262018333 -45.20836703182249 0 0 0 0 -635.17250532289108 -74.259201123747516 0 -74.259201123747516 -54.175613742860151 0 0 0 0 -281.30807295175327 -185.88701482230135 0 -185.88701482230135 -144.13018303480203 0 0 0 0 -430.4085797812586 9.3298539024326601 0 9.3298539024326601 14.763480730460287 0 0 0 0 -256.43959433960663 90.792667146214626 0 90.792667146214626 -31.872192093665944 0 0 0 0 -297.93835447099991 -21.157922656717346 0 -21.157922656717346 18.984450690804806 0 0 0 0 -205.68073258853838 112.4354891958692 0 112.4354891958692 -127.70499213919538 0 0 0 0 -264.32115806527145 71.792025025290059 0 71.792025025290059 -43.39311428583278 0 0 0 0 -149.65787899472343 81.7555411887015 0 81.7555411887015 -89.906164091269602 0 0 0 0 -149.6928201871051 48.382756572882499 0 48.382756572882499 -53.173173490748013 0 0 0 0 -172.40562398487236 61.711747147852293 0 61.711747147852293 -58.900133454303614 0 0 0 0 -129.27435533433891 65.516826651994961 0 65.516826651994961 -77.093434848746256 0 0 0 0 -112.16371705088568 9.4846999876173186 0 9.4846999876173186 -123.77774394026346 0 0 0 0 -156.59042892663274 64.412133921192435 0 64.412133921192435 -122.78627774537699 0 0 0 0 -115.65474328136042 36.831225549247392 0 36.831225549247392 -227.96137057132 0 0 0 0 -244.48661565519433 184.79405592948206 0 184.79405592948206 -284.09129147076601 0 0 0 0 -143.78468792286003 -76.017380339733791 0 -76.017380339733791 -182.95070471606778 0 0 0 0 -42.745388042327249 45.129120839690586 0 45.129120839690586 -298.52684384599115 0 0 0 0 -109.99167615878832 20.074996689799264 0 20.074996689799264 -199.76268084698677 0 0 0 0 -62.245683577624732 -170.91314484507348 0 -170.91314484507348 -141.21733573569145 0 0 0 0 -112.16974485095125 -37.840631913605648 0 -37.840631913605648 -139.63842448432661 0 0 0 0 -106.95702177338535 -59.751963844686543 0 -59.751963844686543 -97.242933082517311 0 0 0 0 -183.03568122068828 -42.234333277182486 0 -42.234333277182486 -49.150591732166504 0 0 0 0 -268.42063396904268 -151.83371942996746 0 -151.83371942996746 -120.19279978386294 0 0 0 0 -46.278506913084129 -55.964572668385699 0 -55.964572668385699 -38.309914681083683 0 0 0 0 -58.036173368411255 -15.973852017444187 0 -15.973852017444187 -58.089352096771108 0 0 0 0 -90.011537666716322 29.496009775041784 0 29.496009775041784 -113.71364661774805 0 0 0 0 -57.25591390072077 -6.9566349464994346 0 -6.9566349464994346 -52.339476588014804 0 0 0 0 -116.68550833453082 36.300250149753992 0 36.300250149753992 -42.437516179368686 0 0 0 0 -57.988742028646811 -12.436956515942711 0 -12.436956515942711 -77.054350917806005 0 0 0 0 -46.49231931000395 9.6282150426504813 0 9.6282150426504813 -89.633897823115149 0 0 0 0 -20.758551448599974 11.492591820762073 0 11.492591820762073 -18.02556186333095 0 0 0 0 -27.641298293725413 -6.9224478788382839 0 -6.9224478788382839 -45.200266589724606 0 0 0 0 -45.817806239399943 14.899118231902776 0 14.899118231902776 -65.53373885172914 0 0 0 0 -57.863459878006324 1.0598109294710412 0 1.0598109294710412 -12.611596969485618 0 0 0 0 -21.006304158702541 6.9641696789903591 0 6.9641696789903591 -9.7238026982209327 0 0 0 0 -18.182315843325341 -24.346464962738537 0 -24.346464962738537 -39.16331076194092 0 0 0 0 -73.543710731879401 -4.2888661599872648 0 -4.2888661599872648 -13.33160618933141 0 0 0 0 -21.961665110262402 -24.917443915523108 0 -24.917443915523108 -21.426038774468907 0 0 0 0 -21.181278278701939 -24.051565058720371 0 -24.051565058720371 -78.791548607225195 0 0 0 0 -24.296290391568618 -26.003070889959417 0 -26.003070889959417 -26.685759150639569 0 0 0 0 -16.436585663235746 -43.915846317196156 0 -43.915846317196156 -34.659696144699865 0 0 0 0 -29.640476530017622 -28.955919820638883 0 -28.955919820638883 -6.0492569562484277 0 0 0 0 -54.807004406800175 -19.249130129107066 0 -19.249130129107066 -8.6330032285686862 0 0 0 0 -23.613366628520453 -45.696275289306868 0 -45.696275289306868 -2.9838561910146382 0 0 0 0 -84.96315613076149 -23.146912211248491 0 -23.146912211248491 -63.531568137583918 0 0 0 0 -72.183390211634105 21.512594622823144 0 21.512594622823144 -59.063309438858596 0 0 0 0 -90.008323880290845 39.245066997456888 0 39.245066997456888 -76.403792277073762 0 0 0 0 -96.561156987909271 72.58456794129745 0 72.58456794129745 -151.69430488609578 0 0 0 0 -99.257110433332855 11.642432400340113 0 11.642432400340113 -18.815221070252846 0 0 0 0 -72.474147610675573 20.108169867914967 0 20.108169867914967 -34.767412574840819 0 0 0 0 -59.315610900059369 -24.327195966982714 0 -24.327195966982714 -9.3230603667797816 0 0 0 0 -67.73939689292456 16.390124993944482 0 16.390124993944482 -62.883722520993615 0 0 0 0 -143.73349665325077 -52.035096251467621 0 -52.035096251467621 89.529624162782056 0 0 0 0 -70.449327965625031 -23.343025782528333 0 -23.343025782528333 -3.3908791517717844 0 0 0 0 -110.32550252447982 -6.1051110782427713 0 -6.1051110782427713 44.954821131358585 0 0 0 0 -133.58545750617304 -50.192715389012847 0 -50.192715389012847 -28.034201306079922 0 0 0 0 -167.47467673740175 21.43483135286624 0 21.43483135286624 7.3141489098088641 0 0 0 0 -209.00282347754546 -80.455307389453083 0 -80.455307389453083 -35.355997001082869 0 0 0 0 -41.766487803535711 -86.063150647801649 0 -86.063150647801649 -31.383623087131127 0 0 0 0 -60.08649599411001 -90.908384958469469 0 -90.908384958469469 60.20819687369476 0 0 0 0 -832.62340537316049 -508.72555563621984 0 -508.72555563621984 -254.73710103420717 0 0 0 0 -6.4574482087540446 -4.4292516470498953 0 -4.4292516470498953 5.0585297243056706 0 0 0 0 -170.41878381775041 -358.68962786524014 0 -358.68962786524014 -616.66282169590522 0 0 0 0 -307.94415011302044 116.53761932864836 0 116.53761932864836 4.3892857160294625 0 0 0 0 -34.824398547293768 -25.102156179196179 0 -25.102156179196179 10.785078711381265 0 0 0 0 -33.994502147393177 -33.638548837663109 0 -33.638548837663109 -4.2493764861374075 0 0 0 0 -36.821884569678758 -20.628016576622983 0 -20.628016576622983 -10.365289068895656 0 0 0 0 -633.14039816585137 -455.52693442021518 0 -455.52693442021518 -282.34553062802343 0 0 0 0 -569.03943361283746 -396.0872320715207 0 -396.0872320715207 -272.84221157313414 0 0 0 0 -604.23134548702365 -528.27638472832632 0 -528.27638472832632 -22.663778294974691 0 0 0 0 -57.618502916334336 -56.703863982274378 0 -56.703863982274378 -41.938733297645584 0 0 0 0 -674.03441892095179 -348.15588864420442 0 -348.15588864420442 -178.86850285904075 0 0 0 0 -612.73966559357359 -313.16970259560912 0 -313.16970259560912 -161.35802211569535 0 0 0 0 -691.22515490581281 -434.9854848813884 0 -434.9854848813884 -214.82534615162876 0 0 0 0 -591.9699313070887 -399.22466725929553 0 -399.22466725929553 -266.44591257938009 0 0 0 0 -563.32557325520611 -339.16824212192296 0 -339.16824212192296 -232.79602528957912 0 0 0 0 -558.86062471996411 -318.96545057705771 0 -318.96545057705771 -210.79687084138277 0 0 0 0 -508.38448828831315 -332.96206809303112 0 -332.96206809303112 -253.77577803577151 0 0 0 0 -489.27957885733485 -340.3976433863354 0 -340.3976433863354 -237.7300395170023 0 0 0 0 -843.46840922870615 -737.97658518363778 0 -737.97658518363778 -200.25100132693387 0 0 0 0 73.11344618734438 -102.04465739361331 0 -102.04465739361331 -129.64222312823495 0 0 0 0 -127.24804609376588 -150.11396402969763 0 -150.11396402969763 -797.10880435599563 0 0 0 0 -1018.2622862333737 -321.74834526433716 0 -321.74834526433716 63.828989722259507 0 0 0 0 -138.06272347334016 72.189666562829302 0 72.189666562829302 -127.26845817170323 0 0 0 0 -14.012556699521014 -8.203501846504075 0 -8.203501846504075 -10.18395816568961 0 0 0 0 -126.21613773343415 88.678674186998251 0 88.678674186998251 127.22864655561534 0 0 0 0 -75.243582619397785 81.633555470372357 0 81.633555470372357 -118.4861465609174 0 0 0 0 -116.57922602506005 7.1341881523476331 0 7.1341881523476331 -200.61548700799176 0 0 0 0 -87.362118656157662 -35.985847476647692 0 -35.985847476647692 -78.854095281420257 0 0 0 0 -28.798932487889946 -11.19668937013688 0 -11.19668937013688 -1.8005718384200833 0 0 0 0 -420.29693248850526 -218.17211461892293 0 -218.17211461892293 -195.00352577095327 0 0 0 0 -52.786634850307877 6.6277020160811517 0 6.6277020160811517 22.266383752249528 0 0 0 0 -424.93978794157738 -291.24373609026952 0 -291.24373609026952 -233.13446281221695 0 0 0 0 -408.10839059877253 -235.20403958986162 0 -235.20403958986162 -242.94861617412244 0 0 0 0 -404.43020885312217 -263.1252430731256 0 -263.1252430731256 -242.34475416308851 0 0 0 0 -82.378790153306909 0.87913759669754654 0 0.87913759669754654 -11.894609879789641 0 0 0 0 -407.13916796840931 -270.8649643012759 0 -270.8649643012759 -238.91870209449553 0 0 0 0 -197.43429100289359 -269.3351788170412 0 -269.3351788170412 -36.602739024559924 0 0 0 0 -468.13749923190335 -258.51057341198612 0 -258.51057341198612 -234.32499604242912 0 0 0 0 -467.5528979403316 -262.49843200350733 0 -262.49843200350733 -222.41610358603066 0 0 0 0 -482.31920588818321 -270.88846980208109 0 -270.88846980208109 -224.26722063495981 0 0 0 0 -430.29664990997117 -248.51379298896063 0 -248.51379298896063 -231.76082101733482 0 0 0 0 -438.59546684630914 -283.97070534500381 0 -283.97070534500381 -243.96540608176292 0 0 0 0 -531.5861296068033 -280.77715713703219 0 -280.77715713703219 -221.37300682028581 0 0 0 0 -562.28787547588581 -288.76717424250819 0 -288.76717424250819 -185.72168078372488 0 0 0 0 -457.00298254942754 -206.82784716744936 0 -206.82784716744936 -216.78723954310408 0 0 0 0 -495.5948840942292 -221.07398722134531 0 -221.07398722134531 -202.97607884902391 0 0 0 0 -584.80478559477024 -210.29526784113079 0 -210.29526784113079 -153.53874412216828 0 0 0 0 -447.64936069646501 -211.38495977573984 0 -211.38495977573984 -203.2730893495318 0 0 0 0 -592.71164835151012 -310.75431630686762 0 -310.75431630686762 -195.14494444006414 0 0 0 0 -441.4740081277123 -236.32584371361372 0 -236.32584371361372 -113.82715328141057 0 0 0 0 -21.65764343029371 -3.3718481240122671 0 -3.3718481240122671 2.6924651175825254 0 0 0 0 -61.020694039154478 4.8994911971626607 0 4.8994911971626607 -11.16116215832335 0 0 0 0 -63.60786521967384 4.6153647788469243 0 4.6153647788469243 -6.4493858973992246 0 0 0 0 -65.999174367104786 -14.306339961106184 0 -14.306339961106184 -3.0615225360178471 0 0 0 0 -137.25345020250825 61.891605714501566 0 61.891605714501566 -73.30854564994479 0 0 0 0 -72.482580431737006 3.1049425069377321 0 3.1049425069377321 -11.358627919554351 0 0 0 0 -85.637273957048819 -5.900512790589346 0 -5.900512790589346 2.7495872492081617 0 0 0 0 -277.12344026035862 69.706845593949765 0 69.706845593949765 -72.013952127892026 0 0 0 0 -18.632035408778172 -3.5917063028625478 0 -3.5917063028625478 -1.6472947370493998 0 0 0 0 -144.48016080942762 138.71511595083075 0 138.71511595083075 -107.1682439430424 0 0 0 0 -51.338599391383468 -18.819333842958713 0 -18.819333842958713 -148.15086339999652 0 0 0 0 -216.9526182529662 54.147029598873814 0 54.147029598873814 -30.057148868483637 0 0 0 0 -107.08458555089601 -12.433822851126024 0 -12.433822851126024 -16.873690941311906 0 0 0 0 -135.81575568854896 -76.753568836712475 0 -76.753568836712475 -105.71118648342417 0 0 0 0 -237.49468245454773 -60.066052691017376 0 -60.066052691017376 -20.355925788198874 0 0 0 0 -66.851539762414177 12.943380944709133 0 12.943380944709133 7.8259338747716356 0 0 0 0 -1.9409146342299266 -1.609772247887534 0 -1.609772247887534 0.05599981823137945 0 0 0 0 -121.65909810528683 -67.225360340932639 0 -67.225360340932639 -23.448328340066837 0 0 0 0 298.26666003459104 -28.840933954778848 0 -28.840933954778848 -320.37510941248547 0 0 0 0 -134.23831895500189 33.286093542805588 0 33.286093542805588 -12.393996472350409 0 0 0 0 225.96566828055074 -113.38083089704332 0 -113.38083089704332 -129.84045676255118 0 0 0 0 -2.6376295187474987 -0.59071101400429882 0 -0.59071101400429882 0.74315447161703219 0 0 0 0 -98.235069031768944 76.86890887152822 0 76.86890887152822 -116.01566572331467 0 0 0 0 -69.16521188589104 -14.773209274455439 0 -14.773209274455439 -146.56441763758994 0 0 0 0 -19.733786547614329 8.8327784421983324 0 8.8327784421983324 -26.473701178027518 0 0 0 0 -65.448725677362745 -186.4710179564529 0 -186.4710179564529 -207.91329521265652 0 0 0 0 -838.88820008450421 -168.09888508684298 0 -168.09888508684298 8.1082875479535232 0 0 0 0 -7.3121312920763444 1.3762398452051343 0 1.3762398452051343 4.5189436458770471 0 0 0 0 -68.861928661682327 -265.86084990737345 0 -265.86084990737345 70.728602604164735 0 0 0 0 189.81670668520383 -4.2261481132300105 0 -4.2261481132300105 -447.28361515735196 0 0 0 0 -132.4081725016149 229.36639816658862 0 229.36639816658862 -97.931314666772778 0 0 0 0 -3.7849745897980114 6.0657710413842096 0 6.0657710413842096 -5.5503886374166562 0 0 0 0 -69.851105472771451 67.430379032927704 0 67.430379032927704 310.29619487238597 0 0 0 0 -440.49766919509239 -339.57548245164003 0 -339.57548245164003 252.12414522545623 0 0 0 0 -165.8466537908389 264.11683394761258 0 264.11683394761258 249.72495428166303 0 0 0 0 -23.044492725640993 4.3632297327064862 0 4.3632297327064862 4.8733915759469433 0 0 0 0 779.40236159213964 -750.9018622411545 0 -750.9018622411545 124.56570443555029 0 0 0 0 -576.25818553639692 -161.0801787221817 0 -161.0801787221817 -284.84540894623615 0 0 0 0 -516.00874522689264 89.344639835866474 0 89.344639835866474 -191.8512692237764 0 0 0 0 -516.98758308304241 72.647498176932459 0 72.647498176932459 -351.07346948596933 0 0 0 0 -151.04204005100473 -102.75425951595798 0 -102.75425951595798 -302.4633847418354 0 0 0 0 -318.66960123625176 -310.04812805786423 0 -310.04812805786423 -290.13638626640341 0 0 0 0 -379.98300671241304 -172.25191656403797 0 -172.25191656403797 -310.61899739853743 0 0 0 0 -243.75982535364165 -240.12312916733441 0 -240.12312916733441 -341.56732511376185 0 0 0 0 -744.50141739399987 142.00660268028878 0 142.00660268028878 -119.83682253535517 0 0 0 0 -839.73002383919084 -182.61439191206557 0 -182.61439191206557 -198.20948872066208 0 0 0 0 -426.81327578367927 -362.2216068501059 0 -362.2216068501059 -212.53248315341455 0 0 0 0 -59.135121874889592 5.5749184894539212 0 5.5749184894539212 10.870341043151711 0 0 0 0 -45.697049452579506 2.3493848774566475 0 2.3493848774566475 3.85168723141848 0 0 0 0 -41.940777842872194 0.66695830680419022 0 0.66695830680419022 27.871379691740003 0 0 0 0 -40.261750535151805 0.51393520757301303 0 0.51393520757301303 3.7270307592880272 0 0 0 0 -47.022370780401843 -3.7264144279948823 0 -3.7264144279948823 10.463588952121153 0 0 0 0 -43.017682564124698 73.546820070474496 0 73.546820070474496 62.962807988944405 0 0 0 0 327.45940394693753 -668.87174591180883 0 -668.87174591180883 1040.6542501399472 0 0 0 0 -3.5164859839245537 10.604478189823293 0 10.604478189823293 5.2335458679953 0 0 0 0 360.44676962561789 -2.7898113520568586 0 -2.7898113520568586 -524.22332689850009 0 0 0 0 217.36791732170968 -259.5994379908625 0 -259.5994379908625 -116.59412038843948 0 0 0 0 -25.568519993787049 -338.39164905037069 0 -338.39164905037069 -117.16861788713504 0 0 0 0 -25.396986041042766 1.1429011155255751 0 1.1429011155255751 7.0018197478172688 0 0 0 0 487.24800164799672 -274.18326121320092 0 -274.18326121320092 -291.61755891873327 0 0 0 0 -1044.963218728808 1044.6350181098442 0 1044.6350181098442 -259.72451828918201 0 0 0 0 -32.606396867753205 0.74689142165660716 0 0.74689142165660716 2.8788735628965805 0 0 0 0 -28.99605079167668 5.6083447986484316 0 5.6083447986484316 7.4949917059284417 0 0 0 0 -43.835398970419192 -4.0335573065008248 0 -4.0335573065008248 7.5370538428378495 0 0 0 0 -46.978459762081911 -2.8299226644294322 0 -2.8299226644294322 16.333865504988353 0 0 0 0 -39.41585599652899 -2.5594726841718511 0 -2.5594726841718511 19.071431994434533 0 0 0 0 -39.598817898541654 -1.6718363951437087 0 -1.6718363951437087 4.1711631291765263 0 0 0 0 -45.445257943094475 -3.2409796699721483 0 -3.2409796699721483 19.876096105266242 0 0 0 0 -35.740808105532778 2.6498561447024258 0 2.6498561447024258 7.3612118033724983 0 0 0 0 -110.44685982336523 -3.4722176395039241 0 -3.4722176395039241 142.79806069488586 0 0 0 0 -84.90651473030448 61.236464749286824 0 61.236464749286824 -1.6205000233221654 0 0 0 0 -25.583709722437447 1.1027715908271887 0 1.1027715908271887 6.151667199285944 0 0 0 0 -30.474205381498905 4.1682147689871272 0 4.1682147689871272 9.5685347730532158 0 0 0 0 -22.068646830274531 7.630194910403219 0 7.630194910403219 5.5510365520747804 0 0 0 0 -36.00475520887143 -1.3916644878609929 0 -1.3916644878609929 9.7315627836809213 0 0 0 0 -16.265451472485438 -13.150696314432025 0 -13.150696314432025 37.681701608080402 0 0 0 0 -49.330884115314504 5.1097466929383728 0 5.1097466929383728 10.516241805421526 0 0 0 0 -12.434920082546846 -12.0425544065439 0 -12.0425544065439 3.9227772803369909 0 0 0 0 -62.644351368881871 -22.638683060599988 0 -22.638683060599988 3.7452923135906531 0 0 0 0 -117.23127751803258 -39.582689587721916 0 -39.582689587721916 56.486159579617379 0 0 0 0 -68.294152635899081 -21.791184778079241 0 -21.791184778079241 14.475138663129883 0 0 0 0 -156.00513545341528 -7.8225816270032738 0 -7.8225816270032738 20.836126527332453 0 0 0 0 -81.091754935834729 -8.1526850689725556 0 -8.1526850689725556 2.6908582796405627 0 0 0 0 -30.827676032538875 -23.483997251096298 0 -23.483997251096298 -62.613532909536389 0 0 0 0 -149.73037314997055 202.26186149685327 0 202.26186149685327 56.99594213303908 0 0 0 0 -111.51147944266631 22.457129288014016 0 22.457129288014016 139.89426977971243 0 0 0 0 -23.891357958391609 -7.9271844472068302 0 -7.9271844472068302 0.024956362005410515 0 0 0 0 -3.5179888311649847 -10.88114289056 0 -10.88114289056 -133.93084522623121 0 0 0 0 10.338894551605335 -52.693853992242111 0 -52.693853992242111 -42.339577569011453 0 0 0 0 -90.636983552792685 10.083126314117521 0 10.083126314117521 10.995313421062169 0 0 0 0 34.193923882208765 60.896404460339454 0 60.896404460339454 36.618174055888176 0 0 0 0 -61.036384116545378 5.2292125964393108 0 5.2292125964393108 5.5022044296592867 0 0 0 0 -55.816589582886081 14.035457555749417 0 14.035457555749417 19.328491353874369 0 0 0 0 -78.176332626200747 7.9453979660356708 0 7.9453979660356708 25.976416374858672 0 0 0 0 -75.835842529743786 1.4446921241563757 0 1.4446921241563757 13.293947929460309 0 0 0 0 -69.947998286366783 18.146234948173856 0 18.146234948173856 28.445004194933517 0 0 0 0 -52.092828832068335 22.262875724242747 0 22.262875724242747 32.796376323086406 0 0 0 0 -87.340660162648419 -25.738584826898659 0 -25.738584826898659 -8.4442706455356529 0 0 0 0 -66.788528179138666 -43.47035535460418 0 -43.47035535460418 0.92700863932532229 0 0 0 0 -33.776767647483211 -32.319500181948001 0 -32.319500181948001 -23.611438147430817 0 0 0 0 -20.299502560138563 -6.2098108470706563 0 -6.2098108470706563 -12.903638785570166 0 0 0 0 -65.771715511466027 -5.6195041346672951 0 -5.6195041346672951 -8.3418953764976322 0 0 0 0 -48.208377828836092 -3.3874495360223591 0 -3.3874495360223591 5.1496841398970901 0 0 0 0 -36.4420879808319 8.8365366884589349 0 8.8365366884589349 6.2749652505384272 0 0 0 0 -54.074066870729439 -6.9592791092291009 0 -6.9592791092291009 -12.454661987371537 0 0 0 0 -53.123076512488524 2.1611883675810333 0 2.1611883675810333 1.4123237081317761 0 0 0 0 -20.504470002173946 -6.177717621225753 0 -6.177717621225753 -0.83738961246463894 0 0 0 0 -51.124898537775152 -1.26787850261735 0 -1.26787850261735 -12.418272889297441 0 0 0 0 -53.920834584030672 2.8394106021776224 0 2.8394106021776224 -3.4565819839899632 0 0 0 0 -73.676298483638675 6.1440476834604851 0 6.1440476834604851 -4.5686657530466164 0 0 0 0 -44.349832234929295 13.600154173658751 0 13.600154173658751 3.9391782420893975 0 0 0 0 -61.086047454242362 -4.5975222107917944 0 -4.5975222107917944 -2.4047364003258735 0 0 0 0 -44.920913101895536 -0.79600402442318341 0 -0.79600402442318341 -3.1827018711664188 0 0 0 0 -53.025966337780119 3.5319591178040355 0 3.5319591178040355 -5.8196153226808747 0 0 0 0 -53.085495994280791 7.4043895543900362 0 7.4043895543900362 4.5288826463309988 0 0 0 0 -91.68431805956061 17.829509990862789 0 17.829509990862789 19.612790759456402 0 0 0 0 -85.375468187485239 6.9760981728773004 0 6.9760981728773004 5.0745636846413618 0 0 0 0 -89.537890175270149 29.21037615062869 0 29.21037615062869 -11.361218373796873 0 0 0 0 -90.317750824523699 15.433469234577586 0 15.433469234577586 8.6512738725705223 0 0 0 0 -70.933326737237053 10.346633824898746 0 10.346633824898746 9.2862964247347382 0 0 0 0 -81.31861046073027 0.075604296554047323 0 0.075604296554047323 -3.2477297480918423 0 0 0 0 -49.441658420121144 5.0776383460077312 0 5.0776383460077312 7.1341544117996269 0 0 0 0 -87.570235132981907 13.763438877025692 0 13.763438877025692 5.3813334990709336 0 0 0 0 -68.324364499265357 -1.5496668021110054 0 -1.5496668021110054 -1.1870170082192999 0 0 0 0 -82.538881638261955 7.2993991011403523 0 7.2993991011403523 -4.5614259556718935 0 0 0 0 -86.897908031176485 -6.5850856267165909 0 -6.5850856267165909 -26.992702268173616 0 0 0 0 -78.607186998400721 7.6650454623982114 0 7.6650454623982114 -1.8517944243567399 0 0 0 0 -83.680086848689825 13.682415741714522 0 13.682415741714522 -4.8491169912763326 0 0 0 0 -81.479891208364279 5.1165453151143083 0 5.1165453151143083 -24.824440938970383 0 0 0 0 -92.484713560843375 24.159874861002208 0 24.159874861002208 4.6642056379187125 0 0 0 0 -80.051605917513371 21.716711855327048 0 21.716711855327048 -6.6074478237601397 0 0 0 0 -111.44629255139444 40.147774256171942 0 40.147774256171942 -10.235312487235205 0 0 0 0 -93.278774295176845 16.424901266181223 0 16.424901266181223 17.715985183870544 0 0 0 0 -80.25525414513686 34.399382708245867 0 34.399382708245867 15.368047939217831 0 0 0 0 277.89913719274773 102.68544377502485 0 102.68544377502485 -450.4442908216206 0 0 0 0 -16.280954370260588 -97.599791336848284 0 -97.599791336848284 122.78768807521919 0 0 0 0 -93.322721559539787 31.561965256459189 0 31.561965256459189 35.32544067436811 0 0 0 0 -6.9515302853635035 -3.8725836056934959 0 -3.8725836056934959 -1.5534636290264121 0 0 0 0 -1429.353091390105 -683.03848672341155 0 -683.03848672341155 238.91243399700033 0 0 0 0 -102.35382560231665 10.118178340003851 0 10.118178340003851 46.708449193158231 0 0 0 0 -72.962881683641683 -3.0760210365298057 0 -3.0760210365298057 0.031085383219980667 0 0 0 0 -49.032361999600141 -6.1224797298835796 0 -6.1224797298835796 2.9602181652380395 0 0 0 0 -86.06868432094052 -2.4583683069704421 0 -2.4583683069704421 19.173528154911764 0 0 0 0 -63.410064926761322 1.0451939192582103 0 1.0451939192582103 4.3966914817692908 0 0 0 0 -63.871190555357316 -30.230988788670061 0 -30.230988788670061 23.424919942156521 0 0 0 0 -57.005208193149883 8.1847621694978443 0 8.1847621694978443 29.47258436550419 0 0 0 0 -580.48478063382208 93.826380469737614 0 93.826380469737614 1.0197354818237727 0 0 0 0 -237.37160341007984 -62.033263839102801 0 -62.033263839102801 48.613614972714458 0 0 0 0 -275.22846029815264 6.0824944608139049 0 6.0824944608139049 45.90989556725799 0 0 0 0 -235.83423306413169 63.567119948910658 0 63.567119948910658 6.8396528235898586 0 0 0 0 334.86183330713538 -232.98794881559297 0 -232.98794881559297 11.767276698425121 0 0 0 0 -134.23966596805258 -86.150645030443229 0 -86.150645030443229 22.635448634616864 0 0 0 0 -2718.9317354410014 765.39199922534499 0 765.39199922534499 1030.2020109320038 0 0 0 0 -55.716166203063665 -5.7357418230118142 0 -5.7357418230118142 2.4283233428067028 0 0 0 0 20.070526033145143 -58.517090131218993 0 -58.517090131218993 -5.8212647807540634 0 0 0 0 -20.703277215536218 -27.820852574973287 0 -27.820852574973287 -7.9199355390455821 0 0 0 0 -117.19384819926927 -53.173850488970857 0 -53.173850488970857 7.8317586725174806 0 0 0 0 -117.59715422120644 -48.687427598806835 0 -48.687427598806835 16.769739961240703 0 0 0 0 -96.073466737900162 -28.597561430248788 0 -28.597561430248788 -3.1261090627692738 0 0 0 0 -113.56059772445587 34.173590224001146 0 34.173590224001146 1.4324290975710028 0 0 0 0 -167.09061436072807 -14.580488955680266 0 -14.580488955680266 36.082368152118761 0 0 0 0 -176.30048589460785 -29.670361394852989 0 -29.670361394852989 26.813450655107772 0 0 0 0 -158.32744477762026 3.0499177585643338 0 3.0499177585643338 0.83910896201996366 0 0 0 0 -129.90193813346559 -28.141855915223459 0 -28.141855915223459 24.563006664443947 0 0 0 0 -162.95376311321161 2.601044362833818 0 2.601044362833818 36.669921392067977 0 0 0 0 -178.64970704095322 -5.1492123035882287 0 -5.1492123035882287 35.190625250798803 0 0 0 0 -12.881824369638309 14.710493025407402 0 14.710493025407402 -3.1680741986383971 0 0 0 0 -39.541883361162036 11.081159168691556 0 11.081159168691556 -3.8524518809635993 0 0 0 0 -6.1558932754336553 0.41723643727405602 0 0.41723643727405602 1.3858295001004084 0 0 0 0 -20.84328985348111 32.78670360684464 0 32.78670360684464 -0.74674301382037811 0 0 0 0 -11.305279448744841 44.527087463269254 0 44.527087463269254 -6.4499397739195956 0 0 0 0 6.5268252023961395 29.198507701240487 0 29.198507701240487 -51.28525909673499 0 0 0 0 -118.41009504336398 40.581011541281441 0 40.581011541281441 8.8363270838185599 0 0 0 0 -100.52758490604174 -23.837314283251089 0 -23.837314283251089 47.520947214528974 0 0 0 0 -4.0803653258874988 1.2500601192938348 0 1.2500601192938348 -1.4392663789816806 0 0 0 0 -125.00589206523728 93.679675488764133 0 93.679675488764133 -72.685961127808696 0 0 0 0 -78.208886001107999 -0.085024852489482328 0 -0.085024852489482328 4.699892865238958 0 0 0 0 335.63448610671912 38.416746956538873 0 38.416746956538873 -148.66396102848876 0 0 0 0 -27.823238296333471 -1.810428225020587 0 -1.810428225020587 6.9028815262719467 0 0 0 0 -56.210707364254631 22.818079371637594 0 22.818079371637594 6.9082590777469193 0 0 0 0 -46.919271870034208 18.468620582129375 0 18.468620582129375 8.7681569520526068 0 0 0 0 -38.324827130069025 11.925658867756738 0 11.925658867756738 -8.1841618378598469 0 0 0 0 -27.572233102113501 3.1386604197997343 0 3.1386604197997343 10.147351275014888 0 0 0 0 -28.898096552817151 2.6298914101994342 0 2.6298914101994342 -5.8229715804577609 0 0 0 0 -28.979605784523301 9.4205410489071255 0 9.4205410489071255 -7.5464012765023654 0 0 0 0 -40.480426772483042 5.5593303359390802 0 5.5593303359390802 -6.5122358182588869 0 0 0 0 -21.829477744671749 -17.126683708731207 0 -17.126683708731207 -3.0489989785755824 0 0 0 0 -25.915433558805091 0.72188461382211244 0 0.72188461382211244 0.32541088607909696 0 0 0 0 -46.097485890698408 -1.0578052689288739 0 -1.0578052689288739 -5.75572103881359 0 0 0 0 -42.616528080907301 6.4336141463948024 0 6.4336141463948024 4.3530454799688414 0 0 0 0 -44.211776375462421 9.6103477460735149 0 9.6103477460735149 -0.31048843905363466 0 0 0 0 -47.251970214161702 12.218412077286928 0 12.218412077286928 -1.9646737831199061 0 0 0 0 -27.393567674938026 1.8262692503662379 0 1.8262692503662379 2.7374044901072914 0 0 0 0 -34.012228015140863 14.065042118667407 0 14.065042118667407 -1.8342622598104867 0 0 0 0 -42.268042152358248 9.9999445134019425 0 9.9999445134019425 -3.1098636755368716 0 0 0 0 -18.578489895318512 11.437707611412662 0 11.437707611412662 0.82356303772587225 0 0 0 0 -57.885587323617074 5.8606795093844539 0 5.8606795093844539 14.854342282586913 0 0 0 0 -38.967172366799787 30.51115176420717 0 30.51115176420717 -0.01451179338619113 0 0 0 0 4.0357678627327118 -0.11247867571873371 0 -0.11247867571873371 -1.0621029486496667 0 0 0 0 -102.47926938382443 -27.108427633033443 0 -27.108427633033443 13.324013597304656 0 0 0 0 -20.259926843536959 -3.2773961616289853 0 -3.2773961616289853 -1.3217771842264483 0 0 0 0 -9.018914135143433 3.108923681271591 0 3.108923681271591 1.4384428756040624 0 0 0 0 -130.68579824558401 -7.6941465329002767 0 -7.6941465329002767 -1.2963134222927692 0 0 0 0 -140.8273736682313 -20.357300003378441 0 -20.357300003378441 -10.882711920502061 0 0 0 0 -98.189138782356167 -7.0764593257808883 0 -7.0764593257808883 -6.2319390651418871 0 0 0 0 -162.88624686939875 29.359223298419238 0 29.359223298419238 -1.8974293788269279 0 0 0 0 -62.219193312717834 -11.497704865029164 0 -11.497704865029164 -18.165224449224297 0 0 0 0 -102.34771642966371 -10.857507745859039 0 -10.857507745859039 -11.021292555974469 0 0 0 0 -78.594395428415737 -17.721683345392194 0 -17.721683345392194 -15.739846119719004 0 0 0 0 -75.739328860683599 -1.1036676180224276 0 -1.1036676180224276 -32.337692700373736 0 0 0 0 -101.02861672278959 1.4682659732329739 0 1.4682659732329739 -13.25580779661027 0 0 0 0 -90.835529511648929 -1.5420952784411384 0 -1.5420952784411384 -12.3816983008237 0 0 0 0 -102.56407068578119 26.40382167636335 0 26.40382167636335 -1.7560209820480281 0 0 0 0 -31.47566802468117 17.74068418460908 0 17.74068418460908 1.6042760622698324 0 0 0 0 -107.069704092748 -2.325544216741946 0 -2.325544216741946 -8.1411701029510368 0 0 0 0 -52.384306993750215 45.532090078626425 0 45.532090078626425 59.856941954710237 0 0 0 0 -127.54933255162905 10.199719377036672 0 10.199719377036672 48.091462644583316 0 0 0 0 -18.310235067097295 -2.3219209315268472 0 -2.3219209315268472 2.8065807846423141 0 0 0 0 -75.215684687282192 11.639330398385937 0 11.639330398385937 -10.235555100308375 0 0 0 0 -76.894072953789703 16.782486470620924 0 16.782486470620924 1.2135598981070146 0 0 0 0 -224.72040174665744 -43.502141083894458 0 -43.502141083894458 28.213460363759623 0 0 0 0 -66.519292233439046 -6.0915702125935809 0 -6.0915702125935809 3.7709502733387126 0 0 0 0 -107.59174338626326 32.728610565147392 0 32.728610565147392 44.358641833567162 0 0 0 0 31.108903376501985 190.15195777186705 0 190.15195777186705 128.10337680838711 0 0 0 0 -74.921206689294195 24.307383307966575 0 24.307383307966575 75.275349941074182 0 0 0 0 0.66794972578190936 -1.3801307875814075 0 -1.3801307875814075 -0.41620415410843137 0 0 0 0 -111.28924323972024 13.14860635911009 0 13.14860635911009 76.153046127493326 0 0 0 0 -96.663867458555615 -27.62271452446339 0 -27.62271452446339 46.978721606514171 0 0 0 0 -60.564590261637932 -16.539658673669237 0 -16.539658673669237 35.897746565599846 0 0 0 0 -32.889730810034791 -11.236622678389182 0 -11.236622678389182 2.3349255408842886 0 0 0 0 -64.549737084424123 -7.3552058878764228 0 -7.3552058878764228 36.124007998726483 0 0 0 0 -73.525323868641863 8.469689562734402 0 8.469689562734402 18.958889382377038 0 0 0 0 -50.032518930529477 0.37937322105017302 0 0.37937322105017302 -13.703262522864861 0 0 0 0 -21.3736388397665 11.17526540910967 0 11.17526540910967 -29.887031979826133 0 0 0 0 -50.151261611028531 2.761898713531636 0 2.761898713531636 -5.0708026836873614 0 0 0 0 -58.137061900779372 -8.1065280121797514 0 -8.1065280121797514 -4.2508984938604044 0 0 0 0 -50.509500127489446 -3.8384983910480059 0 -3.8384983910480059 -9.8552219676485038 0 0 0 0 -49.535014750232222 -5.3929037924438035 0 -5.3929037924438035 -17.415563419634736 0 0 0 0 -12.664235597912096 0.51253157470372912 0 0.51253157470372912 -3.6652329741564547 0 0 0 0 -77.745817286253441 -7.281194151388263 0 -7.281194151388263 13.183598432671715 0 0 0 0 -91.254267260286724 28.146043290840225 0 28.146043290840225 14.070874153720524 0 0 0 0 -93.059828302444657 21.984037087644083 0 21.984037087644083 7.5824195219893227 0 0 0 0 -74.861785618501017 27.59883973117212 0 27.59883973117212 -3.2370028111299689 0 0 0 0 -84.935710413163179 15.655295464164055 0 15.655295464164055 -10.603114900159198 0 0 0 0 1.5759504371619357 0.22762537317299802 0 0.22762537317299802 -3.1183797772766297 0 0 0 0 -246.0631023402384 38.316645702050664 0 38.316645702050664 -12.975610893378416 0 0 0 0 -133.4837269091513 42.606274680419119 0 42.606274680419119 -24.967613495562546 0 0 0 0 -83.525393679708941 -21.876907655174364 0 -21.876907655174364 -49.642216734593603 0 0 0 0 -83.653660871874308 -32.505403347152424 0 -32.505403347152424 -46.331174687695238 0 0 0 0 -130.29290902829962 -38.449452476927945 0 -38.449452476927945 -24.848775023084727 0 0 0 0 -88.835645589686465 -9.0145817506654566 0 -9.0145817506654566 -3.9548499030697712 0 0 0 0 -100.31750879687752 -23.535675883452541 0 -23.535675883452541 18.042973061730663 0 0 0 0 -91.491314919374418 2.9612387753068106 0 2.9612387753068106 46.635552691177963 0 0 0 0 -89.909556065502329 -13.747487795453623 0 -13.747487795453623 13.815476146810397 0 0 0 0 -78.895212054194417 5.5464893979205954 0 5.5464893979205954 28.319425380055691 0 0 0 0 -75.257207915128674 -11.444087927049623 0 -11.444087927049623 3.064981390280991 0 0 0 0 -94.04419334152044 -31.174559408304845 0 -31.174559408304845 -12.810177707042385 0 0 0 0 -77.423607827731757 -20.976191115997779 0 -20.976191115997779 -12.082606488922465 0 0 0 0 -69.849535572233435 -4.6362076548339246 0 -4.6362076548339246 1.5681106580614141 0 0 0 0 -70.995089536008891 -3.6734265836880695 0 -3.6734265836880695 7.24606318756787 0 0 0 0 -62.899659584683832 -15.348077520805873 0 -15.348077520805873 -23.996847137051645 0 0 0 0 -64.16950730161625 -10.645656626098116 0 -10.645656626098116 -25.334702192269106 0 0 0 0 -65.724772917441442 -22.536478240935139 0 -22.536478240935139 -40.937390623013016 0 0 0 0 -27.135796445982123 8.6481387810242722 0 8.6481387810242722 -68.667468979137084 0 0 0 0 -81.414622410746233 54.727624608070983 0 54.727624608070983 56.304725687686187 0 0 0 0 -70.894040438218667 10.502542129149418 0 10.502542129149418 0.52272480808502131 0 0 0 0 -54.98183187196264 25.406822838141579 0 25.406822838141579 0.19470261988863058 0 0 0 0 -53.772734037971532 24.822513117176186 0 24.822513117176186 11.216180957115284 0 0 0 0 -70.599564192205435 17.18238697664583 0 17.18238697664583 30.89962415719765 0 0 0 0 -62.057235019580787 7.2120118690821329 0 7.2120118690821329 0.73982175460023036 0 0 0 0 -63.244071644745418 38.685020891332442 0 38.685020891332442 17.606944310492509 0 0 0 0 -67.985314947989536 -40.613558228184729 0 -40.613558228184729 -96.308171358075924 0 0 0 0 -81.047778825712157 86.755905359517783 0 86.755905359517783 22.184759672469227 0 0 0 0 -182.8817676542385 -60.707029824777692 0 -60.707029824777692 -55.804957201738034 0 0 0 0 -20.621723031596048 20.81711759887321 0 20.81711759887321 -26.618495348182478 0 0 0 0 -16.036728010956637 3.2858617264719214 0 3.2858617264719214 1.720430346917265 0 0 0 0 -91.191921693374752 -211.44780386933235 0 -211.44780386933235 -85.220474327267084 0 0 0 0 -132.21428392284724 -20.535040033981659 0 -20.535040033981659 -9.8200034851624878 0 0 0 0 -58.024279071556919 4.1315445691806616 0 4.1315445691806616 3.89762032257123 0 0 0 0 -73.416167857154505 9.0472160263238948 0 9.0472160263238948 4.9565839078927638 0 0 0 0 -45.012214605580084 -14.259341983135528 0 -14.259341983135528 -51.248614700170947 0 0 0 0 -42.577165116803371 -0.87294155103882076 0 -0.87294155103882076 -26.869736995495259 0 0 0 0 -23.14793017956714 -2.7473075815563837 0 -2.7473075815563837 0.073626892537876021 0 0 0 0 -15.520276558629121 -20.504038759967443 0 -20.504038759967443 19.300912405244162 0 0 0 0 -67.706454392537125 0.50576301623345898 0 0.50576301623345898 14.346485993070019 0 0 0 0 -36.767899002574268 -12.045521709927471 0 -12.045521709927471 -19.45442787855518 0 0 0 0 -72.873151218336716 16.938747668666565 0 16.938747668666565 0.5750658865817968 0 0 0 0 -49.882616896196851 -11.695643594673811 0 -11.695643594673811 52.768112702430699 0 0 0 0 -19.816419027636584 -0.0022446479345035186 0 -0.0022446479345035186 1.5925818749537939 0 0 0 0 -51.578760862998024 14.76259588581479 0 14.76259588581479 33.179215235472839 0 0 0 0 -4.6504607191277785 2.5446291252894468 0 2.5446291252894468 6.9063729518342711 0 0 0 0 -13.952801553562296 1.3171402440285647 0 1.3171402440285647 2.664261563867127 0 0 0 0 -62.025214357257937 51.839808445112567 0 51.839808445112567 -18.414107626485929 0 0 0 0 -46.327509952912806 31.283784700390129 0 31.283784700390129 -29.653638918307479 0 0 0 0 85.03531812588335 -231.41190513159495 0 -231.41190513159495 251.93159062915856 0 0 0 0 -421.75605112151243 182.07179415189262 0 182.07179415189262 341.56329861122322 0 0 0 0 151.61815563579148 -165.22334034269761 0 -165.22334034269761 172.19433597833813 0 0 0 0 -7.6095685424400301 1.3978539400620491 0 1.3978539400620491 2.9213414684974133 0 0 0 0 -163.20332736463752 50.587145786617384 0 50.587145786617384 75.250043427307901 0 0 0 0 -74.142302653859588 -10.194603105296553 0 -10.194603105296553 -0.00095068132800096503 0 0 0 0 -72.749291500058462 -10.171061086828692 0 -10.171061086828692 -1.1189878329746086 0 0 0 0 -73.08259747485863 -10.57543751415195 0 -10.57543751415195 0.1212561275862889 0 0 0 0 99.407106339582242 -1.7043753753696365 0 -1.7043753753696365 -166.87743077808409 0 0 0 0 -124.92463951464742 -144.86194847465777 0 -144.86194847465777 289.45084582605489 0 0 0 0 -14.806744784495095 -203.44676011762522 0 -203.44676011762522 -40.529172351152283 0 0 0 0 -26.372348059482704 -4.2216176326404007 0 -4.2216176326404007 0.97039877500181015 0 0 0 0 13.855839445488527 -10.545167619050517 0 -10.545167619050517 130.93498920942693 0 0 0 0 -106.47578951044125 -232.06703067546232 0 -232.06703067546232 118.556494773125 0 0 0 0 -85.271858524575691 184.32405566946579 0 184.32405566946579 100.16752424923015 0 0 0 0 -73.017986370394283 -10.33511727743856 0 -10.33511727743856 0.0023591872668472791 0 0 0 0 -75.296000269833996 -9.1900274219932907 0 -9.1900274219932907 -1.0831764459333941 0 0 0 0 -74.599973315402167 -12.521691696024549 0 -12.521691696024549 2.8741966478126213 0 0 0 0 -0.68989628087729216 -206.83828782978901 0 -206.83828782978901 25.308456271804971 0 0 0 0 103.53306967933895 19.787262768247274 0 19.787262768247274 -249.23181190732214 0 0 0 0 -164.76756187039427 -52.139896628050337 0 -52.139896628050337 431.63700982574744 0 0 0 0 -507.33701513468986 0.84552679880835058 0 0.84552679880835058 21.05217445452945 0 0 0 0 -216.69803645636421 -9.4781322858721069 0 -9.4781322858721069 5.3864204014671486 0 0 0 0 -528.04647945737815 222.82514671996478 0 222.82514671996478 -177.378980780142 0 0 0 0 -718.00545245604008 85.109771682496557 0 85.109771682496557 -8.7791749520224585 0 0 0 0 -517.4418796680693 -377.8933351395101 0 -377.8933351395101 -121.74765802128286 0 0 0 0 27.155750908947084 -39.883244367172665 0 -39.883244367172665 -52.762090755335521 0 0 0 0 16.730424469482386 -191.49644273192416 0 -191.49644273192416 -110.18570836364052 0 0 0 0 25.885875287109229 -63.70106796463655 0 -63.70106796463655 -88.399932246095887 0 0 0 0 99.330235132045345 -2.091288338150207 0 -2.091288338150207 -144.95165898498863 0 0 0 0 -57.890817272404092 -86.683597712762094 0 -86.683597712762094 -38.274979064948639 0 0 0 0 -100.38155151242972 -47.898605719993611 0 -47.898605719993611 49.423897364716083 0 0 0 0 -170.90993291791528 -91.189220766178096 0 -91.189220766178096 34.372147942943229 0 0 0 0 -329.11808951821877 -127.28790423560486 0 -127.28790423560486 29.289686589700977 0 0 0 0 -191.5009819213592 29.028379920573286 0 29.028379920573286 105.94342795295324 0 0 0 0 -74.1416726387979 33.349836778384088 0 33.349836778384088 44.450676556325789 0 0 0 0 -157.55859801929182 128.53287581075051 0 128.53287581075051 -59.648537190107163 0 0 0 0 -217.24392079611425 -35.160772276153239 0 -35.160772276153239 46.80916350268626 0 0 0 0 -56.500434747023974 72.095460655448733 0 72.095460655448733 51.677232569857665 0 0 0 0 -50.756355819918099 117.20476771304675 0 117.20476771304675 -68.761983012229393 0 0 0 0 -20.706921264005359 24.733467279396564 0 24.733467279396564 -45.816752682536389 0 0 0 0 7.7456842476967722 28.175612330519471 0 28.175612330519471 -90.164840934842346 0 0 0 0 -202.03576234460343 119.96746341229709 0 119.96746341229709 -58.603646298888179 0 0 0 0 -11.275429250730667 94.881547638002303 0 94.881547638002303 -261.5298488315143 0 0 0 0 -206.18968155479524 144.50085731865011 0 144.50085731865011 -159.49995020521783 0 0 0 0 -7.3268451038450166 -0.24054814992019757 0 -0.24054814992019757 -0.52098335167947385 0 0 0 0 -318.26866338876425 60.476721010586061 0 60.476721010586061 -39.258968951165571 0 0 0 0 -193.60663011038559 205.56270171458982 0 205.56270171458982 -328.528400333332 0 0 0 0 143.2792425637017 -608.4671130289571 0 -608.4671130289571 -156.36372680912473 0 0 0 0 -684.67950228938571 668.13551418221175 0 668.13551418221175 262.13340207205329 0 0 0 0 -20.451780834058297 -0.49307901809210541 0 -0.49307901809210541 1.8831898983586703 0 0 0 0 38.228252558445092 -21.945094698880894 0 -21.945094698880894 -48.962952846610847 0 0 0 0 195.80315021885326 -48.211884991203533 0 -48.211884991203533 -373.33092123702136 0 0 0 0 178.61096700267808 -129.08924389415097 0 -129.08924389415097 14.435981335972428 0 0 0 0 -60.745575328823179 -65.640050141107167 0 -65.640050141107167 207.08944771535494 0 0 0 0 -28.442396373779047 -298.1485307276439 0 -298.1485307276439 323.13360230380476 0 0 0 0 -74.292158064467003 -10.736756386620305 0 -10.736756386620305 0.26875457627934196 0 0 0 0 -76.559847370120906 -10.666995992806307 0 -10.666995992806307 -0.69649100382295004 0 0 0 0 -77.028423879382899 -9.8515771251426809 0 -9.8515771251426809 0.0014404923137751777 0 0 0 0 -76.720694300360265 -8.6445335375936043 0 -8.6445335375936043 1.381998638665511 0 0 0 0 -490.91472279166919 96.58073597576049 0 96.58073597576049 629.32943697299288 0 0 0 0 -70.179168145696167 -7.7084960879456537 0 -7.7084960879456537 0.0029837840468547464 0 0 0 0 -76.23878528316277 -8.0786814627128134 0 -8.0786814627128134 -0.13886249990269361 0 0 0 0 118.55407606367953 -299.76990996114819 0 -299.76990996114819 -13.404263177598295 0 0 0 0 2.685075419372879 162.98789869837765 0 162.98789869837765 -370.45561383250742 0 0 0 0 -8.0194917570991038 0.91022971881744486 0 0.91022971881744486 -0.093744729188862008 0 0 0 0 -998.58456943411147 -77.146540481117881 0 -77.146540481117881 125.20192966437753 0 0 0 0 466.55590612511151 -368.66153621392277 0 -368.66153621392277 -415.54466523923975 0 0 0 0 222.51495744333079 170.92995815230972 0 170.92995815230972 -24.467420600220976 0 0 0 0 -89.281546035927022 65.971400043812991 0 65.971400043812991 199.38570315579273 0 0 0 0 -69.644696314171597 -5.7748118910115718 0 -5.7748118910115718 1.2442822614357048 0 0 0 0 -64.396322442850249 -5.3064286082071703 0 -5.3064286082071703 -0.29535871372416672 0 0 0 0 8.5307257748499978 207.48722641030099 0 207.48722641030099 65.386893988259544 0 0 0 0 -56.008031201257836 -5.3099195379793533 0 -5.3099195379793533 0.0016363007096832384 0 0 0 0 -52.727747818746138 -48.637353944307506 0 -48.637353944307506 61.871326492269418 0 0 0 0 -48.053950999288531 -4.7960188256569314 0 -4.7960188256569314 0.43229080889398452 0 0 0 0 -55.846031294178829 -4.7577822476514759 0 -4.7577822476514759 0.3678677657044509 0 0 0 0 -48.97550080952351 9.041405580612377 0 9.041405580612377 43.087067852831751 0 0 0 0 -46.11449901011656 20.255535341404993 0 20.255535341404993 28.643812881244685 0 0 0 0 -32.948697692911594 3.5493528338290563 0 3.5493528338290563 4.084169190546926 0 0 0 0 -16.768873975554015 0.32292125319600018 0 0.32292125319600018 24.395623850266162 0 0 0 0 -1.919990717443909 -1.3025042220870944 0 -1.3025042220870944 -0.2585257393526712 0 0 0 0 -37.821761826082366 10.887131676872741 0 10.887131676872741 16.691424061883481 0 0 0 0 -61.168720729299821 3.4414788381254766 0 3.4414788381254766 29.11313035199737 0 0 0 0 -169.6928152134642 24.731583684619181 0 24.731583684619181 25.518786481730274 0 0 0 0 27.153343833429972 -14.973392731177682 0 -14.973392731177682 16.247352121755739 0 0 0 0 39.651814930664841 33.970813051561436 0 33.970813051561436 -63.190633821926895 0 0 0 0 28.381067120935768 78.704422350204368 0 78.704422350204368 138.98681869676784 0 0 0 0 36.897618628805503 73.21848866274695 0 73.21848866274695 -85.306521643231008 0 0 0 0 -21.69468875324668 3.1663362000948103 0 3.1663362000948103 -0.4116611262996891 0 0 0 0 -49.376783983490895 -1.5432443114868397 0 -1.5432443114868397 1.5107869719640896 0 0 0 0 -50.006949502561042 3.2071463054382257 0 3.2071463054382257 3.2168072416157143 0 0 0 0 -154.75891559472075 73.19647929831649 0 73.19647929831649 -40.036330945885766 0 0 0 0 -129.89730009729101 66.599342815009251 0 66.599342815009251 -41.024436737219617 0 0 0 0 -39.828501297160983 3.6168557284583933 0 3.6168557284583933 0.012324668303045787 0 0 0 0 -26.531330319606028 -7.5468080957273571 0 -7.5468080957273571 16.308189957404494 0 0 0 0 -41.436573615355883 -0.21984937745810385 0 -0.21984937745810385 29.375231509402965 0 0 0 0 -50.608057073317468 -4.3806447143703888 0 -4.3806447143703888 0.0003297660340238032 0 0 0 0 -41.776069680404163 1.7871611020975706 0 1.7871611020975706 0.60817835736287429 0 0 0 0 -44.993564510892611 -34.50581192382726 0 -34.50581192382726 -2.3898187519813519 0 0 0 0 -18.804063872895625 7.4334317833963439 0 7.4334317833963439 11.052157925421245 0 0 0 0 -34.605536739429226 23.00380987992753 0 23.00380987992753 9.3328551147624239 0 0 0 0 -3.8880325808713678 -0.97508254368312919 0 -0.97508254368312919 17.514905572768384 0 0 0 0 -55.710767584852874 63.653141637771341 0 63.653141637771341 -45.664831864357438 0 0 0 0 -159.77430475357687 77.65422671156557 0 77.65422671156557 13.770172241203227 0 0 0 0 -158.25714639498619 66.478721325450351 0 66.478721325450351 64.54587710315991 0 0 0 0 -0.37305234004202248 2.1700445339102092 0 2.1700445339102092 3.0031009858639837 0 0 0 0 -113.13454647973413 107.07610655668367 0 107.07610655668367 -77.779481413112364 0 0 0 0 -208.85006058589897 56.496761360334816 0 56.496761360334816 20.304916986920944 0 0 0 0 -191.05453203059733 58.581525813354801 0 58.581525813354801 18.306684177834768 0 0 0 0 -210.17971086123725 80.205203527538742 0 80.205203527538742 14.721990000607548 0 0 0 0 -196.18576276011299 77.862935762660868 0 77.862935762660868 -32.640375296874623 0 0 0 0 -241.51011344400467 90.91338243685118 0 90.91338243685118 20.621516118633593 0 0 0 0 -204.97403146524448 113.47058787382866 0 113.47058787382866 44.332575444757822 0 0 0 0 -96.530737024073858 25.122532082034951 0 25.122532082034951 -2.1133193957046368 0 0 0 0 -228.60081057854404 116.99750079284138 0 116.99750079284138 50.598023890790955 0 0 0 0 -187.84309534924978 13.311842041403565 0 13.311842041403565 10.690948634367032 0 0 0 0 -99.908533501089551 2.1727517264234848 0 2.1727517264234848 126.6430177794482 0 0 0 0 -26.370939233509716 4.6011762133892944 0 4.6011762133892944 13.895069860358516 0 0 0 0 -104.8225208458025 25.246500381036412 0 25.246500381036412 44.998213097179359 0 0 0 0 -51.09172057739562 -5.2267889844412565 0 -5.2267889844412565 6.8145292565890063 0 0 0 0 -35.111608393344795 -2.7873781860462259 0 -2.7873781860462259 7.3465633132168477 0 0 0 0 -34.096339937757051 -9.667466611881224 0 -9.667466611881224 2.6066378524474434 0 0 0 0 -8.1402178188582184 -27.356428533238045 0 -27.356428533238045 -25.615254152171474 0 0 0 0 -51.801529457864035 -17.991408124101667 0 -17.991408124101667 10.006471622962007 0 0 0 0 -196.53940875311673 -23.54459111254846 0 -23.54459111254846 36.682780135764915 0 0 0 0 -22.121783394140252 -19.875032214781641 0 -19.875032214781641 5.7480531328398108 0 0 0 0 -268.79778629532666 27.479671130416591 0 27.479671130416591 8.6255890973009173 0 0 0 0 -295.92103039831272 91.619353898714053 0 91.619353898714053 21.875357196875029 0 0 0 0 -358.31659071677132 104.19934778032462 0 104.19934778032462 104.73744027275552 0 0 0 0 12.964820868946845 -9.7997621139120383 0 -9.7997621139120383 -28.744353241270119 0 0 0 0 2.9278434029547498 15.740678412264515 0 15.740678412264515 -30.89137094963462 0 0 0 0 65.191027056367602 58.425002710033368 0 58.425002710033368 -5.3915925295650595 0 0 0 0 -89.503111379308393 41.540143637039819 0 41.540143637039819 1.5734718101512044 0 0 0 0 -38.894515635853168 -46.72136288980164 0 -46.72136288980164 -37.635222737001641 0 0 0 0 -72.358713221008657 -38.401663439820823 0 -38.401663439820823 -9.6411516347070574 0 0 0 0 -38.514676838065498 -20.873648194983161 0 -20.873648194983161 -1.7484787998428146 0 0 0 0 -45.840006521728355 -28.276761658806208 0 -28.276761658806208 11.022810902471065 0 0 0 0 -27.150308819635541 -20.220833796116693 0 -20.220833796116693 -0.96650647445969184 0 0 0 0 -12.133453316884697 -39.568245223363874 0 -39.568245223363874 6.3907106824797211 0 0 0 0 -15.216528459422989 -36.705432598533207 0 -36.705432598533207 20.228513495877564 0 0 0 0 -4.1028686957724858 -13.407851388836605 0 -13.407851388836605 -23.646965178668324 0 0 0 0 -15.533679561398458 -34.996981316022357 0 -34.996981316022357 -3.371328522865042 0 0 0 0 -30.018159040330033 -16.132647443242234 0 -16.132647443242234 0.73343236013903379 0 0 0 0 -19.169114426156739 -60.13227316296161 0 -60.13227316296161 14.257873922564841 0 0 0 0 -24.157168390520383 -5.726989485369586 0 -5.726989485369586 -14.465377610553105 0 0 0 0 -39.834954418358393 -28.306784546204653 0 -28.306784546204653 1.7377346734961066 0 0 0 0 -61.487890998905641 -8.8294663842589216 0 -8.8294663842589216 6.1862390063233761 0 0 0 0 -7.0853020033264471 -24.133703907448648 0 -24.133703907448648 -7.5790826081158187 0 0 0 0 -26.075473101846001 -2.0897678351668674 0 -2.0897678351668674 -7.9335168386869555 0 0 0 0 -17.389384875732503 -161.48419036936161 0 -161.48419036936161 4.3477424055363372 0 0 0 0 -353.4821513259667 -20.764052619276754 0 -20.764052619276754 79.238815343395345 0 0 0 0 -530.82352650570101 124.31279903913673 0 124.31279903913673 105.85705805319594 0 0 0 0 -356.89957621967187 -26.302200142888978 0 -26.302200142888978 126.78218397194905 0 0 0 0 -434.50462635336226 -179.58449492264015 0 -179.58449492264015 67.030782192263359 0 0 0 0 -832.40348408052523 -2.0586695122783567 0 -2.0586695122783567 167.95679004303111 0 0 0 0 -431.02422023695544 -166.05966601647651 0 -166.05966601647651 105.44314634753573 0 0 0 0 324.73336477094563 -79.120071658325287 0 -79.120071658325287 -192.5101475150168 0 0 0 0 -344.06773686528322 -674.12766756965357 0 -674.12766756965357 -549.50767355697099 0 0 0 0 855.57310573855648 125.79461243527112 0 125.79461243527112 -638.21979301294016 0 0 0 0 -878.36796732481889 -156.74823587945639 0 -156.74823587945639 69.697060847262037 0 0 0 0 -2519.2157071876281 -871.77164823742714 0 -871.77164823742714 4.7647746597176592 0 0 0 0 -1469.5173719262384 1039.7976629779655 0 1039.7976629779655 -287.9484503192034 0 0 0 0 -707.29049202753231 476.50662965542779 0 476.50662965542779 245.17112975457076 0 0 0 0 3.5981460882493366 -5.026453867087497 0 -5.026453867087497 3.8997535487589907 0 0 0 0 -3258.1007726126991 647.4321717166722 0 647.4321717166722 856.83160563677484 0 0 0 0 -19.705689237800868 9.583674087240297 0 9.583674087240297 9.9200508645238958 0 0 0 0 -274.88648974205717 655.12362531881445 0 655.12362531881445 -720.94558341547781 0 0 0 0 -1912.6240969613282 -1142.3399517098937 0 -1142.3399517098937 -485.76680374526768 0 0 0 0 365.97618698436418 402.32801274048916 0 402.32801274048916 318.80750597574661 0 0 0 0 26.644481460730333 -14.567142307753102 0 -14.567142307753102 -6.2228164443368073 0 0 0 0 67.765470614191145 -176.44258082402666 0 -176.44258082402666 235.33140398039086 0 0 0 0 144.1455407263129 -755.59696053449898 0 -755.59696053449898 -1062.9529107084745 0 0 0 0 130.57217736220628 -320.22431107263583 0 -320.22431107263583 -315.96888976838818 0 0 0 0 121.46574631420663 -175.48082116388832 0 -175.48082116388832 234.6305461608431 0 0 0 0 228.98982841461839 -223.81465267518342 0 -223.81465267518342 -221.16215196099074 0 0 0 0 -2.8735146696745915 6.5342468583412483 0 6.5342468583412483 -12.662716721161793 0 0 0 0 184.70726979375468 -206.77117948944715 0 -206.77117948944715 280.61446767847519 0 0 0 0 -20.816470758552896 61.590161788037221 0 61.590161788037221 7.6645067606023076 0 0 0 0 -7.8159251361321367 8.8598294918562033 0 8.8598294918562033 -16.485598542755724 0 0 0 0 1.6978281558176889 12.940029964588149 0 12.940029964588149 -31.277814523748827 0 0 0 0 -21.913516946631717 4.6982822889103772 0 4.6982822889103772 -17.468344963102481 0 0 0 0 -24.276652830420062 10.247765916175013 0 10.247765916175013 -15.535899366306694 0 0 0 0 -27.972384748834884 8.2552061292825556 0 8.2552061292825556 -11.502353962961024 0 0 0 0 -24.533492002956336 5.957016722271419 0 5.957016722271419 -11.63969173452756 0 0 0 0 -20.08941547900929 2.8553651168141982 0 2.8553651168141982 -6.6696958370627506 0 0 0 0 -4.0719425827858515 -24.770215676832834 0 -24.770215676832834 -19.668187373252721 0 0 0 0 326.50265011097508 -86.814076206386744 0 -86.814076206386744 -167.86578833113526 0 0 0 0 -34.463565400626976 -11.005817050275027 0 -11.005817050275027 -16.822815423652173 0 0 0 0 -125.54104517700034 324.83869360960853 0 324.83869360960853 215.79325533511837 0 0 0 0 -2.0399746221539203 3.3815753849163386 0 3.3815753849163386 -1.9985264109715963 0 0 0 0 57.807138518954162 134.99595795800224 0 134.99595795800224 91.297429042977456 0 0 0 0 134.07933397396118 28.621228989284646 0 28.621228989284646 161.90050925905234 0 0 0 0 -436.37824111295049 -64.704188277309186 0 -64.704188277309186 223.76050032491185 0 0 0 0 -461.56598917848169 132.60237455534707 0 132.60237455534707 191.95888226536772 0 0 0 0 -290.36090589527157 -157.30635912610433 0 -157.30635912610433 183.63760422656469 0 0 0 0 -262.31377306574723 -104.60246011847721 0 -104.60246011847721 229.78184657102429 0 0 0 0 -205.38272758878884 23.163433053648987 0 23.163433053648987 193.40847008746641 0 0 0 0 -330.07620724657318 42.249646349284376 0 42.249646349284376 190.52134808715618 0 0 0 0 -14.064147489122348 24.249817914733825 0 24.249817914733825 89.585182311326435 0 0 0 0 1.0292329089570558 27.983122881384588 0 27.983122881384588 98.838496612451763 0 0 0 0 -70.376250125082151 109.27031256009263 0 109.27031256009263 126.47647638582202 0 0 0 0 -50.315493758938828 31.287294120972547 0 31.287294120972547 -415.3982979546654 0 0 0 0 -859.44698346750374 399.10705231781412 0 399.10705231781412 38.697470019245884 0 0 0 0 -256.32709410812822 240.49413077630925 0 240.49413077630925 17.340997585972218 0 0 0 0 -70.114096005971078 156.87550415614169 0 156.87550415614169 26.277749980754379 0 0 0 0 0.048978861694422449 22.842896591800013 0 22.842896591800013 84.775105046945214 0 0 0 0 -150.78816262786859 -81.789399195069564 0 -81.789399195069564 4.1274412912371758 0 0 0 0 -469.4524114098167 317.19255973660665 0 317.19255973660665 -16.552594085698729 0 0 0 0 -508.85973339059274 404.7825240777147 0 404.7825240777147 10.979853456347428 0 0 0 0 -783.26500765560559 316.99762548814527 0 316.99762548814527 77.181408328884572 0 0 0 0 -475.92390167112171 284.96403572475242 0 284.96403572475242 6.2427989446059655 0 0 0 0 -433.85760344061418 195.55869142523443 0 195.55869142523443 118.65869171448799 0 0 0 0 -451.13990019698394 287.77725659311636 0 287.77725659311636 -14.903946148967549 0 0 0 0 -95.196828914486105 110.62067791408481 0 110.62067791408481 28.078232831052446 0 0 0 0 -14.830967715351107 15.822248639480534 0 15.822248639480534 24.43307963090172 0 0 0 0 -20.057459285256044 31.991088745361225 0 31.991088745361225 84.328869032880078 0 0 0 0 -413.91681379083457 81.050318960567893 0 81.050318960567893 133.94900159492408 0 0 0 0 -165.68443709841813 213.72233100310405 0 213.72233100310405 125.71042067521012 0 0 0 0 -316.47964941831015 201.08479141146336 0 201.08479141146336 145.72945572106619 0 0 0 0 -284.11904721440078 169.50916221438365 0 169.50916221438365 90.162611185221976 0 0 0 0 -169.53449309540883 250.58813942590132 0 250.58813942590132 -31.160968093223346 0 0 0 0 -97.273256014887011 135.03183021153382 0 135.03183021153382 -131.53270314837027 0 0 0 0 -12.251389167345167 -1.6611790615438622 0 -1.6611790615438622 34.279431662844473 0 0 0 0 -286.73397764310721 -53.681575767201139 0 -53.681575767201139 194.3042578142522 0 0 0 0 -139.64059975964483 215.95020885922668 0 215.95020885922668 433.70380114752243 0 0 0 0 -101.30237425806229 37.031555216646254 0 37.031555216646254 41.622558930723258 0 0 0 0 -412.31162917672918 167.66986091037597 0 167.66986091037597 90.677130179074084 0 0 0 0 -36.647628950030992 19.549340124639969 0 19.549340124639969 -8.4255233161186709 0 0 0 0 -367.98549174389336 63.625393500315568 0 63.625393500315568 331.63713596724392 0 0 0 0 -442.45168117032154 435.5854919431855 0 435.5854919431855 436.36518245688728 0 0 0 0 -382.13123637432 423.71074345756551 0 423.71074345756551 -143.46984407321702 0 0 0 0 -308.8003777568083 150.75528256867233 0 150.75528256867233 361.06711440094159 0 0 0 0 -328.95081998640671 199.96258238993255 0 199.96258238993255 463.13140963192131 0 0 0 0 -93.653665594818108 27.394140559844757 0 27.394140559844757 -7.0563139212324248 0 0 0 0 -436.83745184949657 195.64669507816916 0 195.64669507816916 164.41957417044887 0 0 0 0 -98.13636162751294 24.755890539441324 0 24.755890539441324 12.256437607889524 0 0 0 0 -316.52956656564493 165.08036753801252 0 165.08036753801252 34.230052472187367 0 0 0 0 -593.43839297816157 400.54120689659385 0 400.54120689659385 78.945857498762734 0 0 0 0 -361.09376803810301 329.13149087653449 0 329.13149087653449 143.11047671587667 0 0 0 0 -369.39192753189127 290.47964632160409 0 290.47964632160409 -1.7367795555746852 0 0 0 0 -330.03114690474467 229.76361280554352 0 229.76361280554352 89.289480241440288 0 0 0 0 -270.40185795347497 194.6286640575953 0 194.6286640575953 -49.647323734178826 0 0 0 0 -154.30494656576775 123.03076929482594 0 123.03076929482594 -15.658636748148936 0 0 0 0 -85.13249159330735 128.21443379775997 0 128.21443379775997 -86.873791839259184 0 0 0 0 -226.47743958554929 219.89102574192174 0 219.89102574192174 -131.69711989833627 0 0 0 0 -31.023776362534022 5.5493266439416082 0 5.5493266439416082 -0.057696672776264279 0 0 0 0 -173.77954169997975 298.38478761733859 0 298.38478761733859 -391.24520640243304 0 0 0 0 -21.214039452839643 4.7059555763904664 0 4.7059555763904664 -0.0010618248988081332 0 0 0 0 -39.626972270689294 4.2182385254215111 0 4.2182385254215111 0.13716588318607559 0 0 0 0 -400.29654955313163 322.79518722643257 0 322.79518722643257 170.69643797577419 0 0 0 0 -769.92085624547326 408.22370904532818 0 408.22370904532818 209.22481672985523 0 0 0 0 -223.8465698644286 329.05333242348058 0 329.05333242348058 -118.33133247086815 0 0 0 0 -21.213292538632231 4.7079440798210648 0 4.7079440798210648 -0.0034174043218637273 0 0 0 0 -269.16663292385056 534.46224068434879 0 534.46224068434879 -1044.5444878193314 0 0 0 0 -10.640019316401322 3.6473743959396554 0 3.6473743959396554 -1.0625507063498238 0 0 0 0 -1031.9746446227218 999.36724754778527 0 999.36724754778527 -779.13159879007844 0 0 0 0 -312.26526797638508 904.16596308681414 0 904.16596308681414 -1582.2033015389302 0 0 0 0 -1246.8416657207999 111.2349793089967 0 111.2349793089967 368.68278176092065 0 0 0 0 -245.17923198966309 -57.690986470700409 0 -57.690986470700409 114.12133321176066 0 0 0 0 -412.34139766522276 -151.51167120922139 0 -151.51167120922139 489.01327438665589 0 0 0 0 -45.836216292402241 -433.21218039033658 0 -433.21218039033658 521.29459745104691 0 0 0 0 -147.43873820502631 92.73655636485185 0 92.73655636485185 349.37242555320603 0 0 0 0 -390.53478043308132 -243.41589973053212 0 -243.41589973053212 -5.0055781575857425 0 0 0 0 135.99734738413827 -63.092753024255721 0 -63.092753024255721 1.4511782182524147 0 0 0 0 -466.56222737580174 -252.17243389884499 0 -252.17243389884499 13.163878159098829 0 0 0 0 -502.15222785136939 -405.88798140859541 0 -405.88798140859541 857.57337615993811 0 0 0 0 -979.44195594484336 -59.905885523842386 0 -59.905885523842386 565.75846346043522 0 0 0 0 428.45974636702886 -365.48898149536717 0 -365.48898149536717 338.40648103566582 0 0 0 0 -346.83703634073026 276.40753843467121 0 276.40753843467121 137.31286097896202 0 0 0 0 -24.523410391171836 7.3904344659934509 0 7.3904344659934509 14.74508181529993 0 0 0 0 -47.422291434741055 106.83286527398286 0 106.83286527398286 -125.4384999287031 0 0 0 0 -85.834215525282843 35.916965576902768 0 35.916965576902768 28.945980023505438 0 0 0 0 67.957747178385034 -313.70240768938493 0 -313.70240768938493 340.10606423360218 0 0 0 0 -444.62486209478811 152.55724718194534 0 152.55724718194534 109.35247937931877 0 0 0 0 -843.39486012002453 -96.050879851611626 0 -96.050879851611626 5.4575218314579388 0 0 0 0 -26.302071119196142 50.68185457960638 0 50.68185457960638 -73.031683369788709 0 0 0 0 -800.03184684697771 -125.17568364958811 0 -125.17568364958811 24.929690359518645 0 0 0 0 -64.952363525422697 95.873154803387479 0 95.873154803387479 -77.78041845363623 0 0 0 0 -113.83213765696564 72.042234423226546 0 72.042234423226546 -63.698739851124628 0 0 0 0 -93.89637228170858 33.606584100170735 0 33.606584100170735 34.410481400281938 0 0 0 0 -83.693901017773896 146.44872598642723 0 146.44872598642723 -14.393804881710821 0 0 0 0 -357.51386292063398 -239.80369336598358 0 -239.80369336598358 806.04599881706781 0 0 0 0 -103.1557094137388 -137.09919335915953 0 -137.09919335915953 459.01024487210861 0 0 0 0 -704.31064045717358 -58.261250950172666 0 -58.261250950172666 519.41360129637042 0 0 0 0 130.20652718513156 -208.33983751859523 0 -208.33983751859523 442.67977350885769 0 0 0 0 -283.11603850402753 -158.06186520687947 0 -158.06186520687947 -20.946435193983405 0 0 0 0 -290.14397807588102 54.446329226796614 0 54.446329226796614 -0.077776219258003931 0 0 0 0 -115.1477129895793 -58.266918137706 0 -58.266918137706 3.3835882987862931 0 0 0 0 -733.58859014371774 -92.85706339466762 0 -92.85706339466762 229.38434552808781 0 0 0 0 -57.510674649063731 41.999852681733955 0 41.999852681733955 -10.396343481336594 0 0 0 0 -12.489371525902186 7.0618997851370011 0 7.0618997851370011 -1.4707542323194767 0 0 0 0 -794.12030301094637 -277.00996705258092 0 -277.00996705258092 95.303954712947075 0 0 0 0 10.823392580496147 52.222083531235526 0 52.222083531235526 -0.017426461902129042 0 0 0 0 -1615.7550642912101 -869.44804580088794 0 -869.44804580088794 -280.24225877651554 0 0 0 0 -6.519159229387185 1.8578829331955831 0 1.8578829331955831 0.08885288711426681 0 0 0 0 -952.94518020743271 136.77347014744038 0 136.77347014744038 -1.6078633664877522 0 0 0 0 -1657.8897282110365 -168.52634384476568 0 -168.52634384476568 346.02263885074746 0 0 0 0 -997.26693795560277 -148.12679868564345 0 -148.12679868564345 134.82201515234806 0 0 0 0 -1091.773413570656 -43.891541499214213 0 -43.891541499214213 257.88937843531676 0 0 0 0 -835.4317044299296 -32.573638011623757 0 -32.573638011623757 131.9556899734489 0 0 0 0 -823.18028195930674 -195.95109546893787 0 -195.95109546893787 -191.30053220581067 0 0 0 0 -974.30151429660327 -200.35041845044225 0 -200.35041845044225 70.653069654380602 0 0 0 0 -970.78975810088741 -156.14014083407415 0 -156.14014083407415 139.09418522462261 0 0 0 0 -1119.9829133209278 -225.56908047095769 0 -225.56908047095769 237.48016450731029 0 0 0 0 -842.59845253423555 -206.90609007607054 0 -206.90609007607054 153.25410511555924 0 0 0 0 -828.17787948424302 -262.49106709678063 0 -262.49106709678063 232.97416940410903 0 0 0 0 -368.96860253885097 -101.28697229752879 0 -101.28697229752879 19.750244770974859 0 0 0 0 -354.99483083230325 358.2572282537451 0 358.2572282537451 506.72028909604433 0 0 0 0 -13.788776029907808 9.5355804508369317 0 9.5355804508369317 -4.120247589460277 0 0 0 0 -323.65375810876139 -0.72279510553732962 0 -0.72279510553732962 -30.245749483419953 0 0 0 0 -101.56216051629235 622.80302709218427 0 622.80302709218427 -1223.9398539196 0 0 0 0 -80.168402885170508 492.62955028058184 0 492.62955028058184 -879.08545797581291 0 0 0 0 -40.598038491880288 -86.908756341324988 0 -86.908756341324988 -143.85073584070233 0 0 0 0 -925.16940078251355 592.5248209652101 0 592.5248209652101 -622.0529790075193 0 0 0 0 -1086.7619235184793 -220.22756875265932 0 -220.22756875265932 -215.57699286849675 0 0 0 0 -1003.8396780784242 32.198797921879304 0 32.198797921879304 76.682609950803908 0 0 0 0 -990.30319774552481 40.472175619724567 0 40.472175619724567 -817.69277387113743 0 0 0 0 -1168.3872047526384 -91.734745617769477 0 -91.734745617769477 -211.31023971113268 0 0 0 0 -960.23888022979008 -308.39243951324505 0 -308.39243951324505 -106.36512849222299 0 0 0 0 -945.10730684947339 -251.81679173963721 0 -251.81679173963721 -154.29541513833715 0 0 0 0 -1001.0220646121743 -304.42027738939862 0 -304.42027738939862 -172.64871043613175 0 0 0 0 -1358.4505606221646 -40.101007629977744 0 -40.101007629977744 -300.92304101779428 0 0 0 0 -15.704739780742216 26.907527578737017 0 26.907527578737017 -36.709027468907173 0 0 0 0 -3773.1460808456613 4.1211563851752544 0 4.1211563851752544 92.638359291452161 0 0 0 0 -1624.5231537043874 -147.31764359302588 0 -147.31764359302588 -108.82251169059646 0 0 0 0 -1825.4479305564601 471.42121980763943 0 471.42121980763943 -131.47975225887512 0 0 0 0 -1470.0931693181919 463.09750919985436 0 463.09750919985436 -364.71057247201043 0 0 0 0 -889.64302982712979 517.41984293967107 0 517.41984293967107 -601.42864443235339 0 0 0 0 -1.1809852249215851 1.8751720310849862 0 1.8751720310849862 -3.5636265349830918 0 0 0 0 194.47587779667811 -552.22314735649115 0 -552.22314735649115 -343.4086714609752 0 0 0 0 -890.79992224008311 675.98716520011567 0 675.98716520011567 -184.42074113760464 0 0 0 0 -1363.3360791378655 889.63157310260203 0 889.63157310260203 -169.83832115317637 0 0 0 0 136.30767109001135 -227.19298406323813 0 -227.19298406323813 -349.74020417426436 0 0 0 0 -3.2608178208120648 4.7137390687927621 0 4.7137390687927621 -7.0624858111622908 0 0 0 0 155.76043899162323 179.75948340330467 0 179.75948340330467 -971.811324128038 0 0 0 0 -86.015650321249268 86.526788239496454 0 86.526788239496454 73.019790051741722 0 0 0 0 -18.162543209240539 55.354882303623526 0 55.354882303623526 72.768213083458804 0 0 0 0 -66.979063463200873 48.018936777456474 0 48.018936777456474 -109.13082120145191 0 0 0 0 -103.32911745755337 200.08394098153713 0 200.08394098153713 -88.345117975200992 0 0 0 0 -46.322625545471965 46.560840066405945 0 46.560840066405945 44.760110059109138 0 0 0 0 -36.962939337376156 60.048622522862388 0 60.048622522862388 -47.949275239774579 0 0 0 0 -56.292651800875319 123.7790614529149 0 123.7790614529149 -21.049195806319403 0 0 0 0 62.826304408743454 162.61887007784799 0 162.61887007784799 53.91027342455709 0 0 0 0 -20.362078027859866 36.904669780273622 0 36.904669780273622 -56.703024347374708 0 0 0 0 -94.576079865975771 139.14746587810168 0 139.14746587810168 107.6858300604963 0 0 0 0 -94.287256443087244 91.974246305450833 0 91.974246305450833 115.50094144539889 0 0 0 0 267.14535902211719 347.80663757461593 0 347.80663757461593 220.07039944091048 0 0 0 0 -385.11239277568529 313.29926305069921 0 313.29926305069921 304.12683033932808 0 0 0 0 -251.96741946713882 -62.742415641622756 0 -62.742415641622756 215.77174216903586 0 0 0 0 -23.497395263650105 43.388870726853384 0 43.388870726853384 225.90422012759518 0 0 0 0 -89.491865873598726 36.064083233090969 0 36.064083233090969 226.64813084998423 0 0 0 0 -74.925835407491832 15.311055109440986 0 15.311055109440986 269.95848220161497 0 0 0 0 -5.8992735795431486 5.2528327159972292 0 5.2528327159972292 -2.3232088909762503 0 0 0 0 -63.954309330321848 133.17674161546256 0 133.17674161546256 360.44571317688315 0 0 0 0 -182.44720230204985 242.42629077151287 0 242.42629077151287 489.68196087549859 0 0 0 0 -212.07049481394642 -158.33852944506225 0 -158.33852944506225 68.99715399579236 0 0 0 0 -262.02027312820428 50.018021048440914 0 50.018021048440914 382.50845410282409 0 0 0 0 25.521156774375413 125.30881767777169 0 125.30881767777169 -63.913347655460711 0 0 0 0 -487.50903155650303 292.26416396366903 0 292.26416396366903 -110.62146183675054 0 0 0 0 -623.24538438970922 37.17407375369271 0 37.17407375369271 -251.88547392744346 0 0 0 0 -346.1729825758448 181.16316580304147 0 181.16316580304147 -232.38938380568925 0 0 0 0 -470.19427255798655 290.7503888363583 0 290.7503888363583 -137.24946413322778 0 0 0 0 -1226.5759070039785 180.57352574968286 0 180.57352574968286 -11.224904987850721 0 0 0 0 -632.52731843938591 253.65803517806754 0 253.65803517806754 -3.1500264486644483 0 0 0 0 -566.66709220092889 -56.527078197465983 0 -56.527078197465983 -128.17689883888465 0 0 0 0 -463.40471751708537 151.29650749215125 0 151.29650749215125 -103.73009280160881 0 0 0 0 -764.54459566669539 504.93421739514952 0 504.93421739514952 25.328526393490222 0 0 0 0 -596.27385422615043 634.44242372288818 0 634.44242372288818 -22.910403215732686 0 0 0 0 -599.1250200172617 589.25931253617307 0 589.25931253617307 -133.97725397379781 0 0 0 0 -644.28632760383334 717.73454924100213 0 717.73454924100213 -133.53415066158186 0 0 0 0 -473.5896535347274 713.31263646751631 0 713.31263646751631 -140.67325360232962 0 0 0 0 -462.54516945099203 555.48011295153356 0 555.48011295153356 -488.45771001286448 0 0 0 0 -452.57256443913502 462.84792291498115 0 462.84792291498115 -56.322288347595531 0 0 0 0 -1.7204810995721687 3.9925820871785049 0 3.9925820871785049 -2.5351338407089195 0 0 0 0 -185.27353334036161 578.09336905648286 0 578.09336905648286 -66.241066646800391 0 0 0 0 318.83639398515515 169.81836630033331 0 169.81836630033331 -298.11799291997795 0 0 0 0 -6.6483295872014594 9.38892760156142 0 9.38892760156142 -14.141826956226044 0 0 0 0 827.38329551081551 944.62857164335014 0 944.62857164335014 -810.20327204912246 0 0 0 0 -2233.009297814031 1404.4767052354255 0 1404.4767052354255 -976.95024553831536 0 0 0 0 -824.27130713881343 291.48007134429326 0 291.48007134429326 -1262.7021345802282 0 0 0 0 -1748.1123120045231 327.85423260543644 0 327.85423260543644 34.876922529714193 0 0 0 0 -840.22666710994963 1339.5029597108146 0 1339.5029597108146 -655.2854577499337 0 0 0 0 299.25789232057286 -257.29001637248666 0 -257.29001637248666 -602.46380277080698 0 0 0 0 -444.37140850551077 -189.25644049553284 0 -189.25644049553284 87.242385651909444 0 0 0 0 -1617.1540680177568 384.96489754618779 0 384.96489754618779 -239.79824757820279 0 0 0 0 -802.2551016795187 538.2098747648356 0 538.2098747648356 -994.76716110899361 0 0 0 0 -261.10046544577926 120.63981925214284 0 120.63981925214284 -334.58415561300717 0 0 0 0 -848.09282958881795 -187.80144236980817 0 -187.80144236980817 -358.49097211078697 0 0 0 0 181.79609686665935 -202.39088662920494 0 -202.39088662920494 -411.0491477311125 0 0 0 0 11.452621352131246 -328.5153315059697 0 -328.5153315059697 -489.01001733616022 0 0 0 0 582.42388915887568 -225.78827485550778 0 -225.78827485550778 -418.96462600886207 0 0 0 0 28.928488557226956 46.267719240849374 0 46.267719240849374 116.32503976401131 0 0 0 0 -781.08388269336137 225.24623425081495 0 225.24623425081495 565.68032461817029 0 0 0 0 4.2523712425027043 -60.686540052349301 0 -60.686540052349301 -287.99957241142124 0 0 0 0 -201.58903935557464 111.00181442339556 0 111.00181442339556 446.24928093487455 0 0 0 0 -194.55614735709969 273.69321944801794 0 273.69321944801794 1488.9685995118875 0 0 0 0 983.35759392473847 399.07404934755937 0 399.07404934755937 213.50208005334957 0 0 0 0 -614.83665074521559 560.50187841628576 0 560.50187841628576 65.128223755959539 0 0 0 0 -674.67069313267712 387.45305763167636 0 387.45305763167636 382.92620014996987 0 0 0 0 -340.63736864452949 328.19024129997229 0 328.19024129997229 309.37829242010309 0 0 0 0 -498.43359327797225 157.76923473257932 0 157.76923473257932 657.23855307249596 0 0 0 0 -766.10271270968951 749.65539578029848 0 749.65539578029848 121.23051609436538 0 0 0 0 -434.94270104414318 381.2185222813855 0 381.2185222813855 235.11177431444878 0 0 0 0 -537.03106974984257 244.93164064817424 0 244.93164064817424 573.61341839049976 0 0 0 0 -46.672028271364979 -69.964796498457716 0 -69.964796498457716 596.0321804775964 0 0 0 0 -250.36972713469004 288.39428554601682 0 288.39428554601682 549.0647560187108 0 0 0 0 3.4848965232900468 1.9267579485552488 0 1.9267579485552488 -3.0889430011594659 0 0 0 0 -292.10389862512602 188.66518514374667 0 188.66518514374667 -81.465483363768271 0 0 0 0 -163.83023355537443 -220.64489969088027 0 -220.64489969088027 -148.66233117171987 0 0 0 0 0.99562453187991196 2.0561080072956486 0 2.0561080072956486 12.255979765335958 0 0 0 0 696.79101065419673 615.06218850909772 0 615.06218850909772 325.53169631615219 0 0 0 0 338.58895767565264 -608.40861788870131 0 -608.40861788870131 851.63825412961319 0 0 0 0 29.041186077025486 -119.60349546981894 0 -119.60349546981894 216.5654370248846 0 0 0 0 0.094778660708868756 -0.76137281783420008 0 -0.76137281783420008 7.7318909055121363 0 0 0 0 -50.463722957792925 -85.463304629245613 0 -85.463304629245613 -16.97187712070081 0 0 0 0 -5.6967970760015305 -48.345115466107927 0 -48.345115466107927 263.46824408497764 0 0 0 0 -7.5599546221944962 4.8877882458411648 0 4.8877882458411648 34.646430976645433 0 0 0 0 -49.793233784155746 117.30067761224939 0 117.30067761224939 192.93056053468717 0 0 0 0 23.260383465909399 -53.468687951726679 0 -53.468687951726679 32.099971816535799 0 0 0 0 -65.145625112359994 15.626520463789802 0 15.626520463789802 42.646389609081098 0 0 0 0 -29.484161410388197 6.8538489025525422 0 6.8538489025525422 17.537977284938101 0 0 0 0 -49.357508287313976 -4.4656122433416385 0 -4.4656122433416385 72.041063800238589 0 0 0 0 -18.838476609633503 -19.270497797478953 0 -19.270497797478953 40.325733721881718 0 0 0 0 -100.67409665630839 -18.243996203605775 0 -18.243996203605775 32.024083370493827 0 0 0 0 -88.360415231676598 6.6196808072149906 0 6.6196808072149906 168.36910855952738 0 0 0 0 -5.3491206163781726 -5.4654849081100281 0 -5.4654849081100281 7.7680938440829053 0 0 0 0 -91.377505100346752 54.806410684932757 0 54.806410684932757 42.448479055486132 0 0 0 0 -0.63983777057177349 -5.6082070224324152 0 -5.6082070224324152 4.714833400252723 0 0 0 0 372.3390801367932 706.7715085652103 0 706.7715085652103 207.67461669214413 0 0 0 0 -41.34918956557101 21.078575227879 0 21.078575227879 -9.5795338191093258 0 0 0 0 -231.76538905438792 192.81282961282545 0 192.81282961282545 319.1851501586907 0 0 0 0 -78.73485842388618 -68.292419256837093 0 -68.292419256837093 103.62960333671617 0 0 0 0 2.1532327372115105 19.83383425752254 0 19.83383425752254 36.436152823171142 0 0 0 0 2.5172136785113253 0.097112686138643767 0 0.097112686138643767 -13.979025617145453 0 0 0 0 -42.929334331418602 20.218602325877868 0 20.218602325877868 -4.4268733669898399 0 0 0 0 84.534318265228649 -93.583509441952174 0 -93.583509441952174 76.702397472771736 0 0 0 0 173.34119135231595 -72.429000757374979 0 -72.429000757374979 -174.28347631048018 0 0 0 0 366.74103801243473 -322.16764018377762 0 -322.16764018377762 84.289778231737728 0 0 0 0 -2772.9395331424894 -1161.3755862083817 0 -1161.3755862083817 965.81910698641423 0 0 0 0 170.97069819632452 -1077.8208740791642 0 -1077.8208740791642 -1547.510806243813 0 0 0 0 1257.9254407061235 523.7856994427259 0 523.7856994427259 -1951.217340176689 0 0 0 0 -3147.4636877930971 -533.31083137144356 0 -533.31083137144356 884.01336853305929 0 0 0 0 -21.158253929772741 9.4123029307409496 0 9.4123029307409496 -3.8793311440433831 0 0 0 0 -1800.4161808267818 -1583.128521030168 0 -1583.128521030168 1054.4076087799258 0 0 0 0 169.2446168110182 2527.9116548953953 0 2527.9116548953953 -3418.087223658606 0 0 0 0 -28.971985915008588 0.19435294066306952 0 0.19435294066306952 -0.081633299781697533 0 0 0 0 -955.62234843606711 30.378814950808191 0 30.378814950808191 2096.8747015999088 0 0 0 0 -800.81377193177468 1787.0030077942884 0 1787.0030077942884 380.61581839911969 0 0 0 0 -116.16833804372325 10.541311963210234 0 10.541311963210234 18.662036414954244 0 0 0 0 -90.767526300490033 32.782666071338213 0 32.782666071338213 28.115382196703209 0 0 0 0 -147.77087647051118 -24.625190868244886 0 -24.625190868244886 53.340518442958121 0 0 0 0 -97.868268095414294 50.327227968674656 0 50.327227968674656 29.670335706789892 0 0 0 0 -1657.896942968684 549.11230466210691 0 549.11230466210691 620.59089720884094 0 0 0 0 -203.24613733720616 793.04172100939491 0 793.04172100939491 618.92269377228331 0 0 0 0 -76.545727083710517 265.71850544302708 0 265.71850544302708 471.60858327141068 0 0 0 0 -361.17745759451645 933.71145442446596 0 933.71145442446596 -589.27542010374191 0 0 0 0 -1409.2859187622089 878.13539672166007 0 878.13539672166007 849.00450906502147 0 0 0 0 -1181.3687215296377 -699.52137124643536 0 -699.52137124643536 -1232.4834411125 0 0 0 0 -404.52765960719262 178.85053661660504 0 178.85053661660504 -93.288529712515469 0 0 0 0 -390.6008592279868 169.72948580000386 0 169.72948580000386 -367.97404195288118 0 0 0 0 -763.44456871599687 -178.87515765825407 0 -178.87515765825407 -358.34556503380622 0 0 0 0 -900.74101283318305 606.79774043911607 0 606.79774043911607 48.270978117771165 0 0 0 0 -672.21714777493617 635.52939236677992 0 635.52939236677992 19.32205577868217 0 0 0 0 -29.919632384306169 -29.809964525056898 0 -29.809964525056898 96.424221663691469 0 0 0 0 -387.10060381634685 778.42545128849815 0 778.42545128849815 -588.48195327921508 0 0 0 0 -2000.9324120327547 660.74153147976881 0 660.74153147976881 64.336970875902807 0 0 0 0 -322.07302464349777 -250.43380027867761 0 -250.43380027867761 5.5346395361229952 0 0 0 0 -237.78292101205079 -241.12209932921314 0 -241.12209932921314 -8.8052492609222099 0 0 0 0 -281.00979021194507 -142.029514177956 0 -142.029514177956 140.01829892658498 0 0 0 0 -409.23671445378568 -189.0020813892952 0 -189.0020813892952 227.69652089385727 0 0 0 0 -342.30684681573621 -332.0298017525663 0 -332.0298017525663 160.53020651194856 0 0 0 0 -317.72573557405849 -274.35481390356654 0 -274.35481390356654 39.098951258866236 0 0 0 0 -247.38286199640424 -265.9032038848236 0 -265.9032038848236 -126.82079844811142 0 0 0 0 55.15461123973364 -353.98440438442185 0 -353.98440438442185 -109.19566892984858 0 0 0 0 -661.39074054831872 -248.7521046874399 0 -248.7521046874399 -21.174981596400812 0 0 0 0 -351.45762122972519 -205.16909178762126 0 -205.16909178762126 -51.381171784932803 0 0 0 0 -1108.2789124219125 193.99553833422124 0 193.99553833422124 193.16423675804162 0 0 0 0 -1928.4494994950001 405.08327883590073 0 405.08327883590073 182.83453069475399 0 0 0 0 -1530.3465303190787 -564.27993116747518 0 -564.27993116747518 166.57657062007274 0 0 0 0 214.76259063245379 -742.9030300482591 0 -742.9030300482591 73.481133153999508 0 0 0 0 -10.024525175165309 -5.2070219026286111 0 -5.2070219026286111 -4.1338791191884212 0 0 0 0 -45.905221488195764 -10.074213593903863 0 -10.074213593903863 -9.3581599078667956 0 0 0 0 -3938.8454628165491 1566.9416686299405 0 1566.9416686299405 -430.06124247113712 0 0 0 0 -484.32614430035756 -307.9859318776671 0 -307.9859318776671 -573.20913211727839 0 0 0 0 -83.849268923455384 463.80901832780455 0 463.80901832780455 -418.40261635692548 0 0 0 0 -2339.7331849633483 875.26587748921793 0 875.26587748921793 700.39310069978819 0 0 0 0 -98.28086744735333 16.432672129298396 0 16.432672129298396 -0.37037414707879668 0 0 0 0 -1364.1329323488753 -192.77495835498121 0 -192.77495835498121 -266.129862462348 0 0 0 0 -7.3637432677786592 -25.95375150212157 0 -25.95375150212157 -0.19023815720608539 0 0 0 0 228.39592310826993 -574.67957414516604 0 -574.67957414516604 -749.07176062915869 0 0 0 0 -353.20755822399224 -43.389370767255969 0 -43.389370767255969 554.53170193232108 0 0 0 0 -1608.8965838029253 314.20794578132245 0 314.20794578132245 -42.95072637728299 0 0 0 0 -117.20371706837534 -43.377190754453153 0 -43.377190754453153 15.301122002925819 0 0 0 0 -1414.6266726691974 590.57566932844202 0 590.57566932844202 -214.85152202309837 0 0 0 0 -1060.9443407747312 560.60538747675309 0 560.60538747675309 -225.77956016703502 0 0 0 0 -294.74156582992873 -225.1139199943018 0 -225.1139199943018 463.28272156550065 0 0 0 0 106.36004907233291 -303.96164947268517 0 -303.96164947268517 434.63082876784938 0 0 0 0 -244.95705643885594 -16.362005600955854 0 -16.362005600955854 241.78636175715201 0 0 0 0 -464.80489439234952 -329.95502498527821 0 -329.95502498527821 132.63127543792143 0 0 0 0 -310.81505358808863 -58.109187408475748 0 -58.109187408475748 340.74067456334524 0 0 0 0 -621.27272463220288 -200.71238165887189 0 -200.71238165887189 480.62489844435004 0 0 0 0 -84.380035818947874 -25.168171746657219 0 -25.168171746657219 3.6104199227985543 0 0 0 0 -649.77363788323419 -9.5654980770736984 0 -9.5654980770736984 293.25741903404924 0 0 0 0 91.229088903957745 76.191117731877966 0 76.191117731877966 201.7136566301715 0 0 0 0 -79.043002590740798 -203.69913315187387 0 -203.69913315187387 35.184670427720448 0 0 0 0 -190.10922403659788 -43.896077944682474 0 -43.896077944682474 526.03031682028995 0 0 0 0 -96.308956791242849 -13.24065900688452 0 -13.24065900688452 1.6113994114096699 0 0 0 0 -33.427983569941716 66.166959734920965 0 66.166959734920965 109.12503328522143 0 0 0 0 -141.34830449594301 -130.32415653410953 0 -130.32415653410953 254.16501594774127 0 0 0 0 -193.90746364861843 -52.329545944345227 0 -52.329545944345227 157.63809567749104 0 0 0 0 9.5018037379777525 23.979864853203253 0 23.979864853203253 36.350921846777055 0 0 0 0 -101.96921403676436 -13.90203669600621 0 -13.90203669600621 8.7075179011991963 0 0 0 0 -325.46517782611772 381.56459881366754 0 381.56459881366754 283.70340901255872 0 0 0 0 -35.558817987242946 22.991481205191349 0 22.991481205191349 28.852288923310454 0 0 0 0 -2.6319660728327108 26.486330375742085 0 26.486330375742085 38.554666881619497 0 0 0 0 49.423245315090753 -429.05762440098442 0 -429.05762440098442 14.427191751541613 0 0 0 0 0.85951004044005686 3.2640166609439802 0 3.2640166609439802 2.7130015233100764 0 0 0 0 -430.77284480478556 20.886164263104092 0 20.886164263104092 -19.46093817455403 0 0 0 0 -138.64937664265744 208.04916947380389 0 208.04916947380389 -80.809885626968025 0 0 0 0 -202.97535047633573 175.39282749488439 0 175.39282749488439 38.064026925027292 0 0 0 0 -2.3094308298578881 3.060980971054704 0 3.060980971054704 4.6165305385458772 0 0 0 0 -9.1618917076739308 -42.974955796562085 0 -42.974955796562085 414.24103710717463 0 0 0 0 57.258413737639785 327.48482445220361 0 327.48482445220361 536.37190146565229 0 0 0 0 -410.74346846240223 400.14612370975829 0 400.14612370975829 644.96046056784235 0 0 0 0 -262.89476148749236 80.165341051724454 0 80.165341051724454 247.36832103875895 0 0 0 0 4.6837690276879584 166.7915226864352 0 166.7915226864352 85.291383803481494 0 0 0 0 -537.03481545185787 -247.02974707167232 0 -247.02974707167232 229.39482345559873 0 0 0 0 -416.37184594069004 -154.20708521339299 0 -154.20708521339299 295.81133604067327 0 0 0 0 -218.51298555155518 243.86659318535794 0 243.86659318535794 234.06266315780908 0 0 0 0 -415.61991278719506 9.2233655998384165 0 9.2233655998384165 564.38363043253685 0 0 0 0 -759.23439622711157 -324.44096275678976 0 -324.44096275678976 363.10367046528472 0 0 0 0 -547.43569136240694 -473.13614357681695 0 -473.13614357681695 78.753098892260596 0 0 0 0 -524.58232852687433 -282.53820801833444 0 -282.53820801833444 81.096259357086637 0 0 0 0 -1349.2438323805691 -843.97821858239217 0 -843.97821858239217 -286.19342024197272 0 0 0 0 -1217.8873314827797 -228.35185457563398 0 -228.35185457563398 192.53375457292805 0 0 0 0 -1058.2547418441536 -241.80017308398055 0 -241.80017308398055 -191.48611122877855 0 0 0 0 -778.3448320609823 -401.89502102837503 0 -401.89502102837503 -484.34926755207198 0 0 0 0 -1.4740048165041628 -3.2438951786905363 0 -3.2438951786905363 -2.1738679221843427 0 0 0 0 -2703.4029729631875 -102.49847789057526 0 -102.49847789057526 100.98902568862104 0 0 0 0 816.60956424473989 -575.19425102125024 0 -575.19425102125024 268.98321311503423 0 0 0 0 -120.87022217467893 275.68895321962668 0 275.68895321962668 1419.6218165191344 0 0 0 0 -153.09141743625514 68.087057719137931 0 68.087057719137931 185.71395581169872 0 0 0 0 -462.75060360963107 321.81586092099496 0 321.81586092099496 -21.925683088575624 0 0 0 0 -625.02832319396111 -101.05971223454361 0 -101.05971223454361 -504.01253431054602 0 0 0 0 -407.10323312523542 -678.80760708728667 0 -678.80760708728667 -279.11955088054174 0 0 0 0 -1.3471353501763019 1.1434406039396094 0 1.1434406039396094 -3.2374681746239684 0 0 0 0 -1302.0897174144047 558.19069152888324 0 558.19069152888324 -553.48583572965254 0 0 0 0 -152.35153131006518 -570.63674621024256 0 -570.63674621024256 -399.8239680178724 0 0 0 0 114.19404731433315 -240.62668958582753 0 -240.62668958582753 -286.62385962840563 0 0 0 0 -446.40380715305218 -332.43586447807456 0 -332.43586447807456 -163.4910430859868 0 0 0 0 65.151378908805782 -285.60417533284408 0 -285.60417533284408 157.38425881233798 0 0 0 0 290.37222578365891 -128.35443196701834 0 -128.35443196701834 -495.19609215974651 0 0 0 0 192.93972605002637 -199.02776313269533 0 -199.02776313269533 -467.82535019445277 0 0 0 0 330.58449577444117 -823.03136883661909 0 -823.03136883661909 161.48371274131478 0 0 0 0 -839.88901827430527 -39.150156314144709 0 -39.150156314144709 -124.08620197547498 0 0 0 0 -2.5872869786902584 2.5924400896096245 0 2.5924400896096245 -4.2417448768485642 0 0 0 0 -910.27962312451564 -133.06416263035817 0 -133.06416263035817 -468.76755838441204 0 0 0 0 -949.70297868864145 -96.652112676893921 0 -96.652112676893921 -227.29428169968219 0 0 0 0 -822.46213969407836 18.714139441670341 0 18.714139441670341 -297.4162453700792 0 0 0 0 -868.53673127258662 -99.830859833865361 0 -99.830859833865361 -62.350440955235172 0 0 0 0 -887.52982206296292 11.191858780729376 0 11.191858780729376 -79.70048375933402 0 0 0 0 -680.27134576218668 -225.75342328619649 0 -225.75342328619649 70.675715648859295 0 0 0 0 -745.20285034988774 -193.9209773231762 0 -193.9209773231762 90.05034550454684 0 0 0 0 -843.31570642691804 -47.043630473971007 0 -47.043630473971007 28.691162935883085 0 0 0 0 -821.83855083635717 -123.14900582532857 0 -123.14900582532857 7.5833594038413139 0 0 0 0 -0.64401562911979227 3.2996499665429155 0 3.2996499665429155 -7.7594841214439167 0 0 0 0 -91.890541215572739 19.623243774861749 0 19.623243774861749 -169.87746426516696 0 0 0 0 -289.69379871210549 -305.82471273263491 0 -305.82471273263491 13.347087023586482 0 0 0 0 -1578.1091038440209 28.058044222508215 0 28.058044222508215 -61.626379266921504 0 0 0 0 -9.4803395664181807 -10.600799764001408 0 -10.600799764001408 -4.6126000834409737 0 0 0 0 -1573.3114966255671 74.789455475195552 0 74.789455475195552 -9.5129159210155194 0 0 0 0 -1323.3810649185616 -68.743776898741316 0 -68.743776898741316 -127.77753484410678 0 0 0 0 -1393.3660694673235 151.51842980682449 0 151.51842980682449 -88.711597028781398 0 0 0 0 -1451.9159081716934 -23.190097930699721 0 -23.190097930699721 -138.32940797115589 0 0 0 0 -1461.5433944030374 -30.168867584576219 0 -30.168867584576219 -127.40085459081456 0 0 0 0 -1357.4812947485188 -351.49497703438396 0 -351.49497703438396 -311.70937136166913 0 0 0 0 -952.30721080217336 -93.740350179932761 0 -93.740350179932761 -242.55235906866619 0 0 0 0 -1114.7630341956974 -127.18889993631024 0 -127.18889993631024 -225.4393953386658 0 0 0 0 -1211.4018289041414 26.195591368832766 0 26.195591368832766 -82.272532721910011 0 0 0 0 -1121.7991105949623 -38.914693028908687 0 -38.914693028908687 -91.074334462752176 0 0 0 0 -1020.5775981926126 -92.803662118020156 0 -92.803662118020156 -94.587249957666486 0 0 0 0 -992.77951291034697 -2.880004225826724 0 -2.880004225826724 -99.873780788098429 0 0 0 0 -989.43943345383741 -26.486840380388344 0 -26.486840380388344 34.269141653261158 0 0 0 0 -915.63949359219987 -115.41486996790991 0 -115.41486996790991 0.074041054014855945 0 0 0 0 -1033.0081451049191 -64.485866609832556 0 -64.485866609832556 -2.5843795445523483 0 0 0 0 -1118.825209204093 -5.2509081126150932 0 -5.2509081126150932 6.8860798803916623 0 0 0 0 -1246.0176132091437 44.054627670975378 0 44.054627670975378 15.975664259646237 0 0 0 0 -1326.247790861642 57.640663879751628 0 57.640663879751628 -72.858023618640118 0 0 0 0 -1830.439375025162 341.27039254879992 0 341.27039254879992 -2.7599723359144264 0 0 0 0 2.0589132079000478 -1.0714539118389439 0 -1.0714539118389439 -2.190556946975402 0 0 0 0 -1195.3724139498081 72.214632392183375 0 72.214632392183375 -81.633601079356367 0 0 0 0 -1283.2901979006128 270.29916268490229 0 270.29916268490229 -8.2381005768429532 0 0 0 0 385.76117449684534 -617.24503705026564 0 -617.24503705026564 411.24445372744185 0 0 0 0 -33.999125436655333 -15.874440659519195 0 -15.874440659519195 -3.0378177535491178 0 0 0 0 560.05084135464858 -356.6494034085822 0 -356.6494034085822 435.40662651091827 0 0 0 0 -0.77792536570632365 -358.44281423506914 0 -358.44281423506914 269.93624697345695 0 0 0 0 507.93041491994518 -528.66151410254861 0 -528.66151410254861 279.78830259619997 0 0 0 0 351.25856272310193 -561.63245355308641 0 -561.63245355308641 121.84039369604398 0 0 0 0 425.89084204219398 -319.28373114764236 0 -319.28373114764236 61.978718823802808 0 0 0 0 836.74829911454435 -451.66324817711262 0 -451.66324817711262 138.05616849950047 0 0 0 0 375.43183892639354 -485.90758681169928 0 -485.90758681169928 355.43961931656622 0 0 0 0 432.58393587986939 -517.42488403073776 0 -517.42488403073776 181.58507394199501 0 0 0 0 746.41487451532157 -521.681899237621 0 -521.681899237621 108.15299960374978 0 0 0 0 1493.4759234837002 -425.66406525106379 0 -425.66406525106379 -174.5055787118913 0 0 0 0 70.054417046892922 -446.65368484035639 0 -446.65368484035639 108.22967515702521 0 0 0 0 115.84141235507559 -49.799642335451153 0 -49.799642335451153 -142.45644967639419 0 0 0 0 -116.13349587113771 -175.47029125719519 0 -175.47029125719519 -122.4624436236345 0 0 0 0 -237.71403749576712 -89.290119637587395 0 -89.290119637587395 -137.17984047401251 0 0 0 0 -295.52395938942209 -555.86256853198483 0 -555.86256853198483 -112.56005190631504 0 0 0 0 469.16212120944692 -707.68952945712135 0 -707.68952945712135 -83.163194700752229 0 0 0 0 -1122.1552444187982 150.50711007103814 0 150.50711007103814 71.70814596501441 0 0 0 0 -606.46776876563672 102.12290543915628 0 102.12290543915628 59.120730439164959 0 0 0 0 64.18073964316136 -197.35107528247264 0 -197.35107528247264 -370.85807339358553 0 0 0 0 -567.39275201612327 142.02394942078388 0 142.02394942078388 -153.117724082412 0 0 0 0 -1154.9196275818831 541.01553593190692 0 541.01553593190692 -183.14057361663993 0 0 0 0 -311.55447637727775 -299.63864508375906 0 -299.63864508375906 -791.48779312528757 0 0 0 0 -1495.9199098835452 513.73882101088907 0 513.73882101088907 83.220514445576782 0 0 0 0 -364.35414846461208 -340.01617708194863 0 -340.01617708194863 199.36632197197798 0 0 0 0 127.17876937444089 -156.27654064091519 0 -156.27654064091519 179.38351331915396 0 0 0 0 245.05253960064147 -264.12367281242342 0 -264.12367281242342 156.59287712865193 0 0 0 0 -180.78287673554769 32.044366636763669 0 32.044366636763669 534.14327708681321 0 0 0 0 -102.21093863368151 -401.52437074844283 0 -401.52437074844283 732.64082609967954 0 0 0 0 -36.596983421656319 -10.19170695153926 0 -10.19170695153926 3.8359510643193158 0 0 0 0 -65.204684676893521 -13.114041538466267 0 -13.114041538466267 48.7760952691238 0 0 0 0 -38.842678305059394 -14.175616244124797 0 -14.175616244124797 -0.18591071374787127 0 0 0 0 -44.916428836761042 -53.725213764807677 0 -53.725213764807677 60.898340330053998 0 0 0 0 -34.250724550296582 -699.39133330325387 0 -699.39133330325387 678.54423890375506 0 0 0 0 -31.056886214180849 -6.1928933755665412 0 -6.1928933755665412 -6.2458386868547677 0 0 0 0 -3.7897171937974719 3.9337042065557171 0 3.9337042065557171 1.1853536799658579 0 0 0 0 -74.658620870672166 -11.202251471907857 0 -11.202251471907857 26.55282939147537 0 0 0 0 -1067.5148486733669 131.78901786339424 0 131.78901786339424 -12.575595415951739 0 0 0 0 0.35523459042961747 1.7969209216037143 0 1.7969209216037143 0.2505370125720443 0 0 0 0 -93.884659969713539 30.928119016610935 0 30.928119016610935 15.371254100471788 0 0 0 0 -58.96390368732682 -12.818002602123727 0 -12.818002602123727 38.102490949060439 0 0 0 0 -159.80396126715641 -16.096164720758395 0 -16.096164720758395 38.640342916695317 0 0 0 0 -112.67721487402741 37.364127208924401 0 37.364127208924401 48.288121664898199 0 0 0 0 -894.30076470868516 140.76576924604294 0 140.76576924604294 -67.882238038125024 0 0 0 0 -98.10292964434484 35.53394667667169 0 35.53394667667169 29.740302900085794 0 0 0 0 -766.13952142946073 224.67037180486204 0 224.67037180486204 -14.208813365993592 0 0 0 0 -706.96530966348655 353.14529032293717 0 353.14529032293717 -33.203189914004042 0 0 0 0 -518.84642334756791 159.35303894950613 0 159.35303894950613 18.27729460661908 0 0 0 0 -125.22596156779036 -117.17710548315416 0 -117.17710548315416 -145.2289763260365 0 0 0 0 -4.7810150603787918 -0.16227720627983899 0 -0.16227720627983899 0.8005122229055992 0 0 0 0 -569.15699483489152 113.76064989474753 0 113.76064989474753 48.46245638098997 0 0 0 0 -15.112928521411959 -12.388572113270129 0 -12.388572113270129 -13.593397891955078 0 0 0 0 -21.995929484575754 -2.4562064688157079 0 -2.4562064688157079 -0.69475612562922606 0 0 0 0 -15.004498337977566 -8.3037841778628376 0 -8.3037841778628376 -6.8407830989242484 0 0 0 0 -160.5086731313786 173.56515248092091 0 173.56515248092091 381.81330139977308 0 0 0 0 -19.158930383960865 -9.3382765661836231 0 -9.3382765661836231 8.3904415939367674 0 0 0 0 -16.340271326660513 -21.956618818870041 0 -21.956618818870041 6.2042257084532366 0 0 0 0 -15.542915627538605 -51.87989236094495 0 -51.87989236094495 50.810639839996384 0 0 0 0 -6.7946885911223944 -36.052133642766336 0 -36.052133642766336 -6.4450127416248506 0 0 0 0 -43.438663540408015 -54.335829606029506 0 -54.335829606029506 -59.118991406676969 0 0 0 0 -32.936293676350033 -18.710037321009622 0 -18.710037321009622 17.256111523936397 0 0 0 0 -532.05812069631065 13.8832772713547 0 13.8832772713547 -122.97222878993398 0 0 0 0 -21.445599575265078 -15.0210987588423 0 -15.0210987588423 -634.26187779606562 0 0 0 0 -515.5845375523495 -161.80441065179275 0 -161.80441065179275 -97.331836194423659 0 0 0 0 -270.1278817988059 -268.59496623891528 0 -268.59496623891528 166.29563602625331 0 0 0 0 -4.6566337032286356 7.4606122995601538 0 7.4606122995601538 -11.571734300610975 0 0 0 0 121.50985725413921 166.2478355235024 0 166.2478355235024 -191.4317319734082 0 0 0 0 -2.6026803396234754 179.56112217143402 0 179.56112217143402 32.365630272026465 0 0 0 0 -484.94060329004424 66.910075191107353 0 66.910075191107353 303.292798393098 0 0 0 0 -396.63331594647025 -94.275910057403735 0 -94.275910057403735 5.3494487234133885 0 0 0 0 -738.17973237601109 -119.26465156326867 0 -119.26465156326867 143.83687715606175 0 0 0 0 -564.7222328465723 -56.176359010915348 0 -56.176359010915348 55.777280800321932 0 0 0 0 -896.02425463849795 -69.317684539023048 0 -69.317684539023048 107.37553727704972 0 0 0 0 -739.09157949611199 -152.09451266221535 0 -152.09451266221535 41.140691456958393 0 0 0 0 -889.36159241810674 -105.93340586467298 0 -105.93340586467298 78.783190137146562 0 0 0 0 -872.07423049252247 -160.81085578059901 0 -160.81085578059901 76.48135357754245 0 0 0 0 -707.65418118798698 -141.6827163699063 0 -141.6827163699063 -34.414272487950257 0 0 0 0 -778.38701229583239 -61.264262015664599 0 -61.264262015664599 56.068887081490175 0 0 0 0 -738.88464328016562 21.003754594017408 0 21.003754594017408 -245.28616645033435 0 0 0 0 -712.86606739566196 -154.05438850341375 0 -154.05438850341375 -165.06385420869265 0 0 0 0 -839.68596217388404 -127.58638719996384 0 -127.58638719996384 -118.24061305685882 0 0 0 0 -840.94134352367837 -181.33683773225243 0 -181.33683773225243 -25.782326545417618 0 0 0 0 -922.71817837805429 -84.957587661169327 0 -84.957587661169327 -45.727019443077552 0 0 0 0 -832.22183040168602 -106.35155365471769 0 -106.35155365471769 -49.247843828112906 0 0 0 0 -832.75058781474945 -156.7298117194307 0 -156.7298117194307 -176.79866178135353 0 0 0 0 -941.76655204722192 -64.430608459018231 0 -64.430608459018231 16.481047352756775 0 0 0 0 -869.46919157195589 -144.32298034879804 0 -144.32298034879804 20.45561758713211 0 0 0 0 -891.46852758686873 -85.84446710504713 0 -85.84446710504713 22.242541230218649 0 0 0 0 -966.73104508768301 -110.91272084821821 0 -110.91272084821821 58.643621782061686 0 0 0 0 -1018.8295900511439 -35.438897798830567 0 -35.438897798830567 53.609988458521457 0 0 0 0 -1016.5944797567063 -38.00568335017897 0 -38.00568335017897 13.461101922720445 0 0 0 0 -1072.2164477329934 91.215418789566456 0 91.215418789566456 -3.0058685287801836 0 0 0 0 -1134.5192362853268 89.764808481058253 0 89.764808481058253 27.333995795518604 0 0 0 0 -994.93402848896221 -19.419271638184682 0 -19.419271638184682 26.551128460642758 0 0 0 0 -1077.484567806765 39.071601347838168 0 39.071601347838168 13.032021413229529 0 0 0 0 -1115.7539554344694 14.208566972183235 0 14.208566972183235 28.253748576713861 0 0 0 0 -960.70750009684707 67.635868169269997 0 67.635868169269997 -15.267140271151447 0 0 0 0 -846.05510122864507 93.558658384173555 0 93.558658384173555 -48.135882571117804 0 0 0 0 -628.16959039031644 208.06274351735078 0 208.06274351735078 -131.89053909874792 0 0 0 0 -838.74738992509083 56.884880658177053 0 56.884880658177053 -130.7556950323567 0 0 0 0 -803.95626370696118 115.60193931176252 0 115.60193931176252 -177.77490469934946 0 0 0 0 -710.61225699192437 307.56335742836865 0 307.56335742836865 -230.2497559816411 0 0 0 0 -521.15168247136171 366.79758904614971 0 366.79758904614971 -211.74742416658876 0 0 0 0 -530.95704824427958 87.659996431364561 0 87.659996431364561 -357.74943745437849 0 0 0 0 -474.69256294234947 -122.08807823284815 0 -122.08807823284815 -538.71009531470008 0 0 0 0 -795.23192287635175 -196.6912762033221 0 -196.6912762033221 -372.83379896345195 0 0 0 0 -743.09091179847019 -119.65959501427642 0 -119.65959501427642 -365.29757076176867 0 0 0 0 -666.56442485643856 44.757697951171508 0 44.757697951171508 -350.41341570969735 0 0 0 0 -829.96692858599999 -44.807988096462111 0 -44.807988096462111 -157.12476034275778 0 0 0 0 -741.42377626872621 -55.902620671399518 0 -55.902620671399518 -202.05648949448914 0 0 0 0 -727.56165532112209 -97.017626563998704 0 -97.017626563998704 -227.54574751599648 0 0 0 0 -845.0321633600397 -118.95173532234298 0 -118.95173532234298 -253.4592653128002 0 0 0 0 -842.80211758275982 -185.68889018532059 0 -185.68889018532059 -203.85057760460131 0 0 0 0 -863.57780549157178 -52.49332493034899 0 -52.49332493034899 -233.36874106800951 0 0 0 0 -869.9586048189376 -57.658465144959109 0 -57.658465144959109 -237.29613591032739 0 0 0 0 -1006.2203523666831 -6.2150901952354616 0 -6.2150901952354616 -249.46487126758893 0 0 0 0 -1319.1984358745394 -149.36683865049645 0 -149.36683865049645 -312.94477798206481 0 0 0 0 -1057.5310726591852 -153.59524997692779 0 -153.59524997692779 -366.30989219370599 0 0 0 0 -942.25190050686069 -220.276215021459 0 -220.276215021459 -358.97522979115001 0 0 0 0 -658.334420825704 -230.2749692494574 0 -230.2749692494574 -493.94369489903875 0 0 0 0 -818.71337051238515 -258.50403241887398 0 -258.50403241887398 -509.41377340500276 0 0 0 0 -932.47190530062653 -127.77324342310885 0 -127.77324342310885 -478.23088968585841 0 0 0 0 -964.10984486760572 -206.86214913518825 0 -206.86214913518825 -670.51018887309965 0 0 0 0 -972.34563162567792 -120.46992348916228 0 -120.46992348916228 -352.2736908928016 0 0 0 0 -1353.0012734936317 348.84137305355353 0 348.84137305355353 -1244.3668235481755 0 0 0 0 -1466.4692796622403 -271.58168641294515 0 -271.58168641294515 -829.32169717275747 0 0 0 0 -1309.9155501793139 130.1755728699095 0 130.1755728699095 -536.14269100335969 0 0 0 0 -1398.3963870233856 -94.954702893679951 0 -94.954702893679951 -497.82617245195706 0 0 0 0 -1029.2517088468885 -150.73208836768254 0 -150.73208836768254 -524.78000781883657 0 0 0 0 -1828.3044222959725 549.93798009312889 0 549.93798009312889 -496.93532476201153 0 0 0 0 321.21765590297582 448.26185595083916 0 448.26185595083916 -882.92908466331914 0 0 0 0 -33.031480002697208 1027.4475737647761 0 1027.4475737647761 -658.8191309203462 0 0 0 0 -2062.4570568856288 391.6964863496753 0 391.6964863496753 -676.00558132657784 0 0 0 0 -432.00873848749325 296.42553864012802 0 296.42553864012802 -492.80574773574858 0 0 0 0 -1121.3320140145297 511.75473088832973 0 511.75473088832973 -501.07110008371274 0 0 0 0 -921.31564515850187 62.159795122676542 0 62.159795122676542 -237.93596923668156 0 0 0 0 -442.07332497753669 347.37637271069002 0 347.37637271069002 -745.48197491904602 0 0 0 0 -896.89984127682692 -164.74850482181455 0 -164.74850482181455 62.404917629183387 0 0 0 0 -386.58441864981796 -193.26466027099974 0 -193.26466027099974 -155.8429093252081 0 0 0 0 -6.5542412014326601 4.7259199774858303 0 4.7259199774858303 -2.8800149817247567 0 0 0 0 -1594.7674149008526 -207.14078223119361 0 -207.14078223119361 -60.407827665028833 0 0 0 0 -4.7703091056653193 -1.2775844324869752 0 -1.2775844324869752 -0.72077145050559821 0 0 0 0 -1684.0330170786401 712.4500241271744 0 712.4500241271744 -178.90215725807803 0 0 0 0 -918.57322508924699 399.77419058937608 0 399.77419058937608 -185.55250918399645 0 0 0 0 -134.97787451575277 178.41791706449186 0 178.41791706449186 -436.10842662858818 0 0 0 0 -333.80708362627774 -166.48095117689846 0 -166.48095117689846 -352.16435456037453 0 0 0 0 -403.43998202557123 510.30214685369538 0 510.30214685369538 -253.0339284200108 0 0 0 0 -569.82143728021765 115.34918333302909 0 115.34918333302909 -52.514701231949687 0 0 0 0 -9.322219840599189 -2.9574330370789426 0 -2.9574330370789426 0.65007161055079887 0 0 0 0 -546.73669496678485 257.6765360895144 0 257.6765360895144 -73.956062077844138 0 0 0 0 -79.7813736598182 109.489497395909 0 109.489497395909 -33.05955014773032 0 0 0 0 -396.56632189064112 176.61766998615758 0 176.61766998615758 44.163218424431932 0 0 0 0 -577.94841580413049 176.38751176225759 0 176.38751176225759 22.486025690770848 0 0 0 0 -464.89747104747948 107.77680780145178 0 107.77680780145178 -0.12609536616144723 0 0 0 0 -574.15328002092792 131.59658496938783 0 131.59658496938783 4.127184497167292 0 0 0 0 -649.50717467434879 93.898930307075702 0 93.898930307075702 0.27480211269091509 0 0 0 0 -462.64910370390862 -80.854577018350028 0 -80.854577018350028 67.781322809668438 0 0 0 0 -470.60025503246288 -20.776866458255185 0 -20.776866458255185 44.514659640323714 0 0 0 0 260.3909011495125 83.513706922052393 0 83.513706922052393 -46.118332037686514 0 0 0 0 -1.160120541169988 8.2743812378390089 0 8.2743812378390089 14.304720746492874 0 0 0 0 -124.15829880203819 134.4558179633421 0 134.4558179633421 -318.67120054616237 0 0 0 0 -77.508261281836894 302.81227860292813 0 302.81227860292813 -71.591255643955833 0 0 0 0 -534.15956606909458 -62.87130916611909 0 -62.87130916611909 7.4910302830967339 0 0 0 0 22.616868992423406 47.47384979644869 0 47.47384979644869 161.75125249301345 0 0 0 0 -106.61490224552108 148.86737062716929 0 148.86737062716929 83.923248333297806 0 0 0 0 38.971020584916914 166.36813805032858 0 166.36813805032858 137.58509870540092 0 0 0 0 -25.271805876325686 -5.0820069001745765 0 -5.0820069001745765 10.119925437654445 0 0 0 0 -773.82626786036417 -208.11058517056608 0 -208.11058517056608 -9.1436622424287748 0 0 0 0 -389.75750881526619 513.12782721650638 0 513.12782721650638 -429.85663151319739 0 0 0 0 -5.9698515565942785 3.3841392970319077 0 3.3841392970319077 2.4649548784898814 0 0 0 0 -1144.5305649687944 361.40042365351479 0 361.40042365351479 0.010756006980150723 0 0 0 0 -732.35617899365025 628.22268787842927 0 628.22268787842927 -453.88844303848066 0 0 0 0 -560.75789609638741 103.22501808014164 0 103.22501808014164 -454.48511708120583 0 0 0 0 -1002.7597584271498 507.09476171741625 0 507.09476171741625 -216.63925310853386 0 0 0 0 -690.55909083901497 115.20091304367114 0 115.20091304367114 113.29390760264511 0 0 0 0 -1000.1175649863435 536.62373692147332 0 536.62373692147332 -55.669651761461921 0 0 0 0 -1217.7772564913139 471.35763616512719 0 471.35763616512719 28.930123116849018 0 0 0 0 -5.1055776264731776 -1.0461977046077209 0 -1.0461977046077209 0.65102571262826014 0 0 0 0 -1159.1347500398406 807.78591633894791 0 807.78591633894791 -192.52504063134941 0 0 0 0 -285.03453794700908 142.5873952629085 0 142.5873952629085 0.32387151057358637 0 0 0 0 -278.52712710927881 -133.42208471482974 0 -133.42208471482974 216.87520696090763 0 0 0 0 -1100.6095634889207 454.30966039533428 0 454.30966039533428 -0.14161322128842163 0 0 0 0 -1001.1031204411993 129.38152730902129 0 129.38152730902129 437.21172937816152 0 0 0 0 -687.97068219400535 219.57874882689649 0 219.57874882689649 -162.87720569117346 0 0 0 0 1.789925456210824 3.3822595228309069 0 3.3822595228309069 2.2297898498014779 0 0 0 0 398.7348192651807 -163.95009298970592 0 -163.95009298970592 -231.07956111011822 0 0 0 0 -748.49561181412719 549.29457189523157 0 549.29457189523157 -1.7195627350227742 0 0 0 0 -1406.882006304877 -930.8519528051022 0 -930.8519528051022 -403.31428540364334 0 0 0 0 -8.3822600918725811 2.9162753237414734 0 2.9162753237414734 -0.42572651981686316 0 0 0 0 22.318950421220507 32.439491444035248 0 32.439491444035248 0.032121515648390934 0 0 0 0 -638.44574032686069 -127.00145041438077 0 -127.00145041438077 -214.73484438296998 0 0 0 0 -398.54457882871793 -281.92606565975808 0 -281.92606565975808 -115.03025454388808 0 0 0 0 -547.11581477284199 -130.54364324526296 0 -130.54364324526296 -41.212973629453472 0 0 0 0 54.043194925994612 -6.2878531068545271 0 -6.2878531068545271 35.473649005676748 0 0 0 0 -350.52041758902487 -239.97473198673606 0 -239.97473198673606 12.451759608868088 0 0 0 0 -28.502576965855837 21.098928251866255 0 21.098928251866255 -10.941032193864096 0 0 0 0 -752.91776550554641 747.9118150026618 0 747.9118150026618 -404.68219015790419 0 0 0 0 -13.836319924565032 65.19558790817041 0 65.19558790817041 18.801677137207051 0 0 0 0 -580.84399097284768 -764.61599004912705 0 -764.61599004912705 -166.49981824426254 0 0 0 0 -21.151451027400867 12.334940772555058 0 12.334940772555058 -4.4673700195809838 0 0 0 0 -946.40383013065366 -606.65977094777304 0 -606.65977094777304 -16.446667207133032 0 0 0 0 -454.13224780684141 -606.22632046052229 0 -606.22632046052229 -41.539426005126188 0 0 0 0 -40.758055684244027 30.662206210615395 0 30.662206210615395 26.583115850021528 0 0 0 0 -7.5172397427013493 20.083710234198268 0 20.083710234198268 -3.1732650967894074 0 0 0 0 8.2548985318280756 54.528484438579135 0 54.528484438579135 15.697916861794035 0 0 0 0 8.6123739478935022 18.119443668558876 0 18.119443668558876 6.3746239401875018 0 0 0 0 -20.310088671612903 36.735670256380381 0 36.735670256380381 -0.0040191586536953844 0 0 0 0 -61.109770212628064 7.0389209491621187 0 7.0389209491621187 -1.3166464676679865 0 0 0 0 -94.294434613948397 35.893326781732732 0 35.893326781732732 -0.031001116559982982 0 0 0 0 -179.90832488972228 1.1742309616098865 0 1.1742309616098865 11.169895777517084 0 0 0 0 -92.471154337894404 16.819278862153752 0 16.819278862153752 -8.0819600869294703 0 0 0 0 -41.579575426119845 37.807923466632204 0 37.807923466632204 -1.2769968348564271 0 0 0 0 -91.221592567322659 12.633823116023976 0 12.633823116023976 5.2978836091697588 0 0 0 0 -286.90937347066938 37.960646855316917 0 37.960646855316917 0.01854667024267917 0 0 0 0 -178.57978147221911 -5.3853894973307899 0 -5.3853894973307899 -8.2785741367275705 0 0 0 0 -273.6027283097792 24.176936545274387 0 24.176936545274387 6.4942330536143871 0 0 0 0 -316.32206200675137 -28.166954014671056 0 -28.166954014671056 43.317728817017667 0 0 0 0 -170.1955025322095 -18.077851402667761 0 -18.077851402667761 -3.2934828443752338 0 0 0 0 -179.92250910081202 8.3173684378806456 0 8.3173684378806456 8.711397053611563 0 0 0 0 -158.72601230657892 -16.605229821861599 0 -16.605229821861599 6.1417972318627108 0 0 0 0 -248.10736291037756 -68.967339180307363 0 -68.967339180307363 14.216015535676263 0 0 0 0 -38.659607076893735 29.591503235374496 0 29.591503235374496 -6.4063544762716447 0 0 0 0 -162.19769016591454 13.173776863865875 0 13.173776863865875 9.7749002284203641 0 0 0 0 -82.829223920838558 21.287605071573267 0 21.287605071573267 12.231082788803121 0 0 0 0 -78.933750500669703 9.740077292106605 0 9.740077292106605 -9.3805359037579308 0 0 0 0 -55.622323466493981 -2.5157183079950869 0 -2.5157183079950869 -19.65184949602741 0 0 0 0 -17.693637896620203 24.564775675059479 0 24.564775675059479 -10.257783911357819 0 0 0 0 257.74431631164043 158.86096272618943 0 158.86096272618943 -35.762186712197945 0 0 0 0 459.08777924064634 -195.30911487203753 0 -195.30911487203753 -345.23352360522222 0 0 0 0 -73.711350110766944 23.017415275667815 0 23.017415275667815 15.352950761924603 0 0 0 0 -28.541789553439855 19.303986404408761 0 19.303986404408761 -15.820013002082639 0 0 0 0 -58.275451500783674 28.449948742885852 0 28.449948742885852 11.876359153862552 0 0 0 0 27.532590773555057 1.6456462072756324 0 1.6456462072756324 -36.430971166822701 0 0 0 0 -13.861047043328956 0.018572912937145247 0 0.018572912937145247 0.24229061466795976 0 0 0 0 5.0199757666684377 2.6679707922153568 0 2.6679707922153568 -9.6182259953127911 0 0 0 0 -66.864404049760196 -18.489611445431365 0 -18.489611445431365 -83.317954105132202 0 0 0 0 -151.82327905041166 -53.673042756644008 0 -53.673042756644008 -79.31374876535574 0 0 0 0 -127.53972648631316 -46.900979126055972 0 -46.900979126055972 -82.28309892154266 0 0 0 0 -78.217576610972174 -49.651950559375109 0 -49.651950559375109 -89.560432390649112 0 0 0 0 -89.285868708248017 -156.24375681131232 0 -156.24375681131232 -195.13652704496781 0 0 0 0 -46.462677163421176 -110.12562864894608 0 -110.12562864894608 -161.01599922704554 0 0 0 0 -170.86320407586754 -331.15507272769219 0 -331.15507272769219 -198.21138113511006 0 0 0 0 75.998736064881086 -87.176701542552109 0 -87.176701542552109 -177.00608891387083 0 0 0 0 -320.77769833960338 -51.759184603856681 0 -51.759184603856681 28.572353551250472 0 0 0 0 -142.6278218786756 -60.444299784681562 0 -60.444299784681562 -22.249539458449703 0 0 0 0 -87.053206240234431 28.662642732096401 0 28.662642732096401 25.497612083538115 0 0 0 0 -148.66861794573197 -53.431108485773791 0 -53.431108485773791 -2.9814613153462233 0 0 0 0 -4.8688053214144134 6.3158304838746631 0 6.3158304838746631 0.035546530634072315 0 0 0 0 -62.02016951868427 34.449546568143091 0 34.449546568143091 20.761837931805559 0 0 0 0 -40.933311769476859 -14.940245933488768 0 -14.940245933488768 13.14784578911781 0 0 0 0 -110.85728099846165 -11.113500728926169 0 -11.113500728926169 -0.57913345452061549 0 0 0 0 -74.414340066403383 13.656186054564046 0 13.656186054564046 -9.4230981085183885 0 0 0 0 -72.049917785989237 -83.442176427219437 0 -83.442176427219437 -106.64160919228902 0 0 0 0 16.818830127012916 -16.662667204319405 0 -16.662667204319405 -80.021154429682042 0 0 0 0 -27.579311089066323 37.588158663107151 0 37.588158663107151 -34.100446364845197 0 0 0 0 -287.19930602255045 -96.464662988583768 0 -96.464662988583768 -16.942446586739379 0 0 0 0 10.747984122281196 -55.158731412983286 0 -55.158731412983286 -24.616075226545036 0 0 0 0 -152.699788568847 -225.88588962269131 0 -225.88588962269131 -180.65310649715661 0 0 0 0 -88.178764517448144 112.19426160035505 0 112.19426160035505 160.20642778385673 0 0 0 0 -40.647018619486971 4.7924049967908502 0 4.7924049967908502 19.765573112662814 0 0 0 0 77.01016802090453 33.174736370525125 0 33.174736370525125 -21.747488614972553 0 0 0 0 -52.864736125862692 -91.34042624351423 0 -91.34042624351423 -101.34388335347103 0 0 0 0 -50.750476223300211 -76.664829448878663 0 -76.664829448878663 -95.64644222377683 0 0 0 0 -32.833431687904522 -70.479912323258759 0 -70.479912323258759 -120.68229960132976 0 0 0 0 -43.339913269854151 -61.687756718133642 0 -61.687756718133642 -65.770733332812597 0 0 0 0 -3.3529562626399922 1.6138980055216336 0 1.6138980055216336 3.6004038538229293 0 0 0 0 -62.47795008457615 -31.125859403946492 0 -31.125859403946492 -116.08368539782418 0 0 0 0 -50.203265650197864 -32.280647771481085 0 -32.280647771481085 -4.9503229173335512 0 0 0 0 -42.646115498937434 32.362906745767191 0 32.362906745767191 -7.2780315277489649 0 0 0 0 -60.749090433819219 -66.983633803386056 0 -66.983633803386056 -49.6903774662469 0 0 0 0 -256.38773032699828 -41.226613476915418 0 -41.226613476915418 3.7242111017701518 0 0 0 0 -48.86716607833074 19.737838231387713 0 19.737838231387713 15.607830947905768 0 0 0 0 -155.08322509017307 -166.60162900515701 0 -166.60162900515701 -128.00949799081195 0 0 0 0 138.12981548975222 200.126584705293 0 200.126584705293 45.314890661473328 0 0 0 0 -31.781972483091522 -132.08343199890078 0 -132.08343199890078 -189.82318926386029 0 0 0 0 266.34002207622689 37.603282371538853 0 37.603282371538853 -132.86869421805386 0 0 0 0 -269.49059946126363 -130.75162999064082 0 -130.75162999064082 -35.635782621569888 0 0 0 0 -151.81446971045807 -192.21100613189856 0 -192.21100613189856 -151.81083187822014 0 0 0 0 -150.43613256444769 -147.33908403221542 0 -147.33908403221542 -110.14841976602838 0 0 0 0 -197.09663307662413 -100.58043954741561 0 -100.58043954741561 -27.870439486798205 0 0 0 0 -64.348387951613404 -80.462887919891955 0 -80.462887919891955 -82.377961743828564 0 0 0 0 -10.219308648879105 -10.284497489493759 0 -10.284497489493759 -37.488165871764345 0 0 0 0 -143.14728989664582 -117.98110615440146 0 -117.98110615440146 -39.855366988394962 0 0 0 0 -159.13699673447991 -86.013698328164537 0 -86.013698328164537 -100.12788477941922 0 0 0 0 -60.432403278828133 -86.289126528224187 0 -86.289126528224187 -94.457289948961261 0 0 0 0 -60.904304166935617 -71.385710846960819 0 -71.385710846960819 -58.671008962392079 0 0 0 0 -135.38396830565762 -108.61597002255303 0 -108.61597002255303 -38.745798123054101 0 0 0 0 -165.31089265276387 -141.53735986948891 0 -141.53735986948891 16.631132191805591 0 0 0 0 -426.29664399227477 2.2570777966254809 0 2.2570777966254809 4.6590557699023947 0 0 0 0 -327.90795340028126 -147.52407149276746 0 -147.52407149276746 127.99530321703674 0 0 0 0 17.506022367088917 -7.1392154180484866 0 -7.1392154180484866 -22.994421006361563 0 0 0 0 0.60119385100562184 -6.5329110261437222 0 -6.5329110261437222 -12.854993165373251 0 0 0 0 35.3072678239987 -82.263489424529894 0 -82.263489424529894 18.791569049693862 0 0 0 0 -109.41476164403139 -103.25109490851924 0 -103.25109490851924 -124.24850894233987 0 0 0 0 -101.64276514770609 -5.4154699693061161 0 -5.4154699693061161 27.687463588474202 0 0 0 0 51.722142797560082 362.27125740705264 0 362.27125740705264 310.38116560484548 0 0 0 0 -1.2091913521949209 0.77163491574259524 0 0.77163491574259524 -0.21862162229263493 0 0 0 0 -834.5378476804035 -2.5248834450392224 0 -2.5248834450392224 163.07167007016983 0 0 0 0 -393.19154667807743 256.10068063981294 0 256.10068063981294 69.382461949720209 0 0 0 0 -807.37706849801179 236.78569329498123 0 236.78569329498123 272.18807441086619 0 0 0 0 -458.09214941876417 341.1345489235681 0 341.1345489235681 133.41132589677045 0 0 0 0 -64.846576453259331 6.9320178055389761 0 6.9320178055389761 223.51746330663696 0 0 0 0 -556.59489714255324 295.79235364674969 0 295.79235364674969 259.03247352980429 0 0 0 0 53.279337008221773 18.710960314022486 0 18.710960314022486 223.44930126182862 0 0 0 0 -334.08637207391439 63.288434664787474 0 63.288434664787474 359.22055833821048 0 0 0 0 -158.58625074234442 -137.5746810663386 0 -137.5746810663386 351.21930784223991 0 0 0 0 -31.157712325697617 -3.3367440570776523 0 -3.3367440570776523 11.074793116652735 0 0 0 0 -14.464541763158195 -33.185435064586969 0 -33.185435064586969 38.16157740838014 0 0 0 0 -8.6472256145352731 -13.876594622714833 0 -13.876594622714833 13.280544790135025 0 0 0 0 -13.368081992312341 -17.19892060067717 0 -17.19892060067717 10.129559752735672 0 0 0 0 -152.02075610755128 29.969113343708614 0 29.969113343708614 275.39257666618232 0 0 0 0 -55.98217278739321 -353.16382996170159 0 -353.16382996170159 -443.37619252615741 0 0 0 0 -10.343496294943975 -6.9892374165205808 0 -6.9892374165205808 -1.4146895885914503 0 0 0 0 -1439.2087316120596 40.886522563944709 0 40.886522563944709 1.9485930855621518 0 0 0 0 -551.63038719265023 -691.30941804819486 0 -691.30941804819486 77.53736443669959 0 0 0 0 -1459.0800471522525 -185.63552018312112 0 -185.63552018312112 199.53763138919112 0 0 0 0 -363.32862644835404 -309.13765695124061 0 -309.13765695124061 -134.28572409726712 0 0 0 0 -322.98746982721786 -157.71285212256248 0 -157.71285212256248 -236.40229521740548 0 0 0 0 -131.77179900506189 262.58599652689435 0 262.58599652689435 -14.329238743996939 0 0 0 0 -6.8553991138814467 -1.4574994143878541 0 -1.4574994143878541 1.2132520550472954 0 0 0 0 -5494.9617825695823 -132.19411076325409 0 -132.19411076325409 583.18705062924198 0 0 0 0 -4853.9808519091166 -1006.9092216590938 0 -1006.9092216590938 501.69003549547705 0 0 0 0 -6.7885190676172158 -9.7114181753802313 0 -9.7114181753802313 -4.4788143981365742 0 0 0 0 1899.1617024208317 -1865.4539391217377 0 -1865.4539391217377 549.15776957288267 0 0 0 0 -5.9269776131769731 -5.3301184240146711 0 -5.3301184240146711 -1.7707918284875512 0 0 0 0 -2471.4638792234764 2633.4190958282747 0 2633.4190958282747 722.6769311822527 0 0 0 0 -6697.6541942048498 -248.7587272823082 0 -248.7587272823082 -11.862177914993627 0 0 0 0 -11.689047500999948 -4.5544258967736653 0 -4.5544258967736653 -0.47857008890473429 0 0 0 0 -831.96403861645376 25.45152556135162 0 25.45152556135162 0.014747757035777617 0 0 0 0 -527.56040930343443 47.047148085054147 0 47.047148085054147 -61.243964498683617 0 0 0 0 -1857.0962213915627 280.86875480691344 0 280.86875480691344 11.582698982879849 0 0 0 0 -1054.6877966374159 -3933.5660734177582 0 -3933.5660734177582 -787.56560255203863 0 0 0 0 -860.6081067789637 151.26616615059206 0 151.26616615059206 -27.740357677146733 0 0 0 0 -1227.2356634136522 -38.306768436522923 0 -38.306768436522923 29.704297096241799 0 0 0 0 -995.40010942734079 -104.68431958581508 0 -104.68431958581508 -107.16603052751998 0 0 0 0 -833.12827093125816 19.668002291063889 0 19.668002291063889 34.306933466885994 0 0 0 0 -838.02541424590163 -2.3784471788605619 0 -2.3784471788605619 0.077570851892039772 0 0 0 0 -648.18416629706917 20.880643852626616 0 20.880643852626616 -25.057922027636948 0 0 0 0 -738.89707197237294 -112.52363162295296 0 -112.52363162295296 -143.25710236075903 0 0 0 0 -571.2539668182726 45.059513205418085 0 45.059513205418085 1.6175225666243023 0 0 0 0 -384.56491870383616 -8.8314220172979816 0 -8.8314220172979816 -233.56158026991449 0 0 0 0 57.602442707051523 -56.585348981687048 0 -56.585348981687048 -268.19703219419824 0 0 0 0 -1306.4051995283371 -480.17334130493049 0 -480.17334130493049 -68.924323061629764 0 0 0 0 -936.13385089178337 -438.54491480338584 0 -438.54491480338584 -294.18515409846782 0 0 0 0 -611.91141321932082 -44.353695403453173 0 -44.353695403453173 308.52533825677074 0 0 0 0 322.47739486776118 350.3023841616843 0 350.3023841616843 345.25273265807027 0 0 0 0 -206.32112199571566 -195.75872020092288 0 -195.75872020092288 630.91148853771222 0 0 0 0 -121.09385154864867 -87.006005716822301 0 -87.006005716822301 223.09101018637887 0 0 0 0 -546.2979668998596 137.87276371150244 0 137.87276371150244 219.23365394733617 0 0 0 0 -451.02551892309566 134.90067531755403 0 134.90067531755403 42.278194301557903 0 0 0 0 -540.0574077017518 97.921072891443174 0 97.921072891443174 73.439947339645471 0 0 0 0 -560.76578672483447 113.47903740040834 0 113.47903740040834 158.00357824695303 0 0 0 0 -533.73686034133425 78.538815098013004 0 78.538815098013004 68.592450320623101 0 0 0 0 -539.01461680324792 80.959163371588147 0 80.959163371588147 67.630843913043066 0 0 0 0 -533.2833690129919 137.34022840542639 0 137.34022840542639 48.686573488066529 0 0 0 0 -528.26447055039171 43.372644401454977 0 43.372644401454977 -72.922988484155454 0 0 0 0 -551.52826104742417 49.536334255631765 0 49.536334255631765 -0.096743721648156977 0 0 0 0 -665.07149940435193 -58.682017979705201 0 -58.682017979705201 -63.434337792801017 0 0 0 0 -471.33183449324861 -0.34153239859042728 0 -0.34153239859042728 0.080444508394521108 0 0 0 0 -489.45409891181043 71.518077558835031 0 71.518077558835031 1.2730252328594105 0 0 0 0 -416.05600349552697 49.493780511229438 0 49.493780511229438 0.030295788710701356 0 0 0 0 -317.69893351259816 -15.063319188517287 0 -15.063319188517287 19.929523739346752 0 0 0 0 -399.12425617421104 38.760540558315384 0 38.760540558315384 22.076477476030728 0 0 0 0 -322.98640168746351 -5.2557306717619809 0 -5.2557306717619809 33.193807626732848 0 0 0 0 -533.42818318740865 41.243765584732074 0 41.243765584732074 91.71908966443209 0 0 0 0 -423.18570983527752 8.4073874650201503 0 8.4073874650201503 54.244369904015599 0 0 0 0 -480.78011096495902 0.50802084844508499 0 0.50802084844508499 121.55833414677409 0 0 0 0 -470.35939248448994 -51.772751521914813 0 -51.772751521914813 70.514444958396211 0 0 0 0 -520.08510747595574 -114.97492315371551 0 -114.97492315371551 59.435139373898096 0 0 0 0 -325.44393200687591 -83.671809609239048 0 -83.671809609239048 55.20547595727146 0 0 0 0 -661.4741955146892 -28.865744008714216 0 -28.865744008714216 127.93568307617539 0 0 0 0 -510.3356069594156 -81.168443813625402 0 -81.168443813625402 99.213267050367108 0 0 0 0 -750.47545018713572 -136.69850908036801 0 -136.69850908036801 27.248710112024355 0 0 0 0 -756.07029659711407 -130.98599001320929 0 -130.98599001320929 89.114937576386922 0 0 0 0 -521.77374426798633 -245.1341512580222 0 -245.1341512580222 -91.059291736207342 0 0 0 0 -293.14184695878248 -165.03858499889554 0 -165.03858499889554 -8.2515354645818206 0 0 0 0 -489.86266082970542 -176.81391064971046 0 -176.81391064971046 -4.097683026480297 0 0 0 0 41.367064585938351 -23.906042214734043 0 -23.906042214734043 -132.68184519056649 0 0 0 0 -443.54684510448715 -283.54475476005052 0 -283.54475476005052 -191.9093404932953 0 0 0 0 -4.1351959934202682 -0.54422266023961186 0 -0.54422266023961186 0.10001454664312437 0 0 0 0 -683.13336519984296 30.94027610469152 0 30.94027610469152 -15.580695482703732 0 0 0 0 -123.22079172969097 111.35421222794957 0 111.35421222794957 -138.27023673156145 0 0 0 0 -91.239965343731456 -27.025388580967501 0 -27.025388580967501 209.97428831023672 0 0 0 0 -656.73132723526214 -261.05787053195104 0 -261.05787053195104 -223.40158065422168 0 0 0 0 -413.5056182188564 -167.87080155707054 0 -167.87080155707054 -313.70443822349762 0 0 0 0 -521.27535022082884 -321.42386232046226 0 -321.42386232046226 -439.76034831436255 0 0 0 0 -1046.6845387519425 -201.17930338433081 0 -201.17930338433081 13.219287951775186 0 0 0 0 -607.11872855009278 -173.390283644997 0 -173.390283644997 -115.33766861304389 0 0 0 0 -712.17184970711241 -393.56184711784738 0 -393.56184711784738 -436.32545239979248 0 0 0 0 -958.97396370797651 -108.0571344238607 0 -108.0571344238607 -45.902035587664159 0 0 0 0 -1228.7782194715692 130.91063382501693 0 130.91063382501693 101.13049917799481 0 0 0 0 -2357.4305743990699 -411.59652024617026 0 -411.59652024617026 -45.244892571040396 0 0 0 0 -2671.6423458528006 451.84241472919393 0 451.84241472919393 -125.66013246195553 0 0 0 0 -174.11312637483206 -960.66481825257733 0 -960.66481825257733 140.06575488326689 0 0 0 0 -11.432457695177391 -9.0075563538266863 0 -9.0075563538266863 -7.1715508384189635 0 0 0 0 2.1876238147347067 -4.6322513333779369 0 -4.6322513333779369 -4.2688907129427811 0 0 0 0 -1598.8440983709152 837.21423844817571 0 837.21423844817571 -436.99862331465124 0 0 0 0 -784.46487484670797 -765.62240367828076 0 -765.62240367828076 -556.48300661458143 0 0 0 0 -3181.5367436853703 -812.06746096827965 0 -812.06746096827965 -230.14982339963626 0 0 0 0 -113.04767936842109 54.365834101637574 0 54.365834101637574 633.62019957420034 0 0 0 0 220.8624157969025 -104.68428050044986 0 -104.68428050044986 441.09618259917693 0 0 0 0 -391.73417996731587 423.59266284179751 0 423.59266284179751 -302.82205289321791 0 0 0 0 -26.178807581085152 -11.462850728182332 0 -11.462850728182332 -1.8778721980022051 0 0 0 0 -10.772763773694123 -19.134613290849984 0 -19.134613290849984 -14.232887184082607 0 0 0 0 -343.92520806244647 54.47592653403273 0 54.47592653403273 -2.0703794950291012 0 0 0 0 -627.38631907373201 140.96053865353929 0 140.96053865353929 175.05458426388361 0 0 0 0 -565.14996465852892 59.699830820126465 0 59.699830820126465 137.8402669503887 0 0 0 0 -425.70445181931427 222.73191463545209 0 222.73191463545209 -21.993078824526947 0 0 0 0 -900.20620349931414 13.109002803308044 0 13.109002803308044 203.22483864757351 0 0 0 0 -734.64286308546434 164.86958190238397 0 164.86958190238397 103.24461711617552 0 0 0 0 -713.19128779604216 27.53840919375773 0 27.53840919375773 170.68568373782762 0 0 0 0 -616.45221330053755 67.647156963867474 0 67.647156963867474 171.47913529376797 0 0 0 0 -621.48427566896862 65.156149585452766 0 65.156149585452766 185.90609445892642 0 0 0 0 -518.82281774112562 114.52313680074565 0 114.52313680074565 154.4877687119133 0 0 0 0 -516.97324446011589 93.664711226712768 0 93.664711226712768 209.69037349118594 0 0 0 0 -376.18011814664351 58.280285268058037 0 58.280285268058037 177.50684127628313 0 0 0 0 -388.81566018309422 -85.977399636805757 0 -85.977399636805757 318.81897808537951 0 0 0 0 52.073579652816989 -76.598790270773975 0 -76.598790270773975 98.398917892350823 0 0 0 0 229.03830755446688 -373.08862889715601 0 -373.08862889715601 254.11035649640962 0 0 0 0 -114.15871409695683 -51.23421477722718 0 -51.23421477722718 133.31974693971824 0 0 0 0 -22.10224476810896 -16.688966555886253 0 -16.688966555886253 -2.1842007650976534 0 0 0 0 -18.515879109511246 0.9919020099482907 0 0.9919020099482907 18.581339090480547 0 0 0 0 -25.44145077696885 -47.259122103594137 0 -47.259122103594137 23.867491790381791 0 0 0 0 -39.446263311217933 -24.085325165218876 0 -24.085325165218876 -6.5864048754088955 0 0 0 0 -133.83027257725189 31.191417979965138 0 31.191417979965138 45.994887758911091 0 0 0 0 -139.36333687332808 -68.18528985425894 0 -68.18528985425894 124.40842019981835 0 0 0 0 -6.9125708433940929 3.8973874775657009 0 3.8973874775657009 12.219641425778597 0 0 0 0 -15.663730430009309 -66.80261938255606 0 -66.80261938255606 37.533176909712154 0 0 0 0 -15.241224035838968 70.652092944657852 0 70.652092944657852 110.94934196350914 0 0 0 0 31.756203633820405 -8.7009255204016469 0 -8.7009255204016469 19.256458003514808 0 0 0 0 -34.695977394910472 -24.909581670206379 0 -24.909581670206379 -7.7884580703078914 0 0 0 0 -104.62316903081955 104.0366961249548 0 104.0366961249548 839.55369516420888 0 0 0 0 1193.6826967704692 -875.49666239403268 0 -875.49666239403268 203.98331405558474 0 0 0 0 108.26580081990687 22.461758415531676 0 22.461758415531676 585.01114682565549 0 0 0 0 423.41778648283798 -664.79669459338163 0 -664.79669459338163 931.91397470206425 0 0 0 0 668.08177525104838 -418.94623001114479 0 -418.94623001114479 98.169359579894262 0 0 0 0 736.01298252313427 -194.50733771546459 0 -194.50733771546459 462.50438271112739 0 0 0 0 -372.24028692004504 -844.18936644155156 0 -844.18936644155156 864.44929829301714 0 0 0 0 -474.61897468639654 -1056.9031438977704 0 -1056.9031438977704 423.36721902082735 0 0 0 0 -1161.9456714947446 -1194.3425789277401 0 -1194.3425789277401 -369.22540144150406 0 0 0 0 -552.37409962460515 -495.87056842135109 0 -495.87056842135109 383.3017530497292 0 0 0 0 -43.195549296855461 -838.62930861764141 0 -838.62930861764141 -16.991601779680934 0 0 0 0 -277.94277529345709 -315.06791810072377 0 -315.06791810072377 196.0703294260743 0 0 0 0 17.639070604142034 -220.692644775817 0 -220.692644775817 106.59124095382998 0 0 0 0 -282.66690565660247 -508.15294059701523 0 -508.15294059701523 -870.96362995330628 0 0 0 0 -929.21747217144002 -381.02082454666282 0 -381.02082454666282 -419.45485985182307 0 0 0 0 -369.94697738043033 -159.61371344028777 0 -159.61371344028777 -214.93863793501077 0 0 0 0 -103.55139578547096 160.05353290155654 0 160.05353290155654 -621.36090011243141 0 0 0 0 132.89616841514362 -99.252737915045145 0 -99.252737915045145 -333.07969762789662 0 0 0 0 -5495.7948589275475 -1617.1955623850608 0 -1617.1955623850608 756.63949483863087 0 0 0 0 -1895.3922200660454 -2228.277002547014 0 -2228.277002547014 -1865.2503971421199 0 0 0 0 -536.71132095827488 -882.73381221574118 0 -882.73381221574118 -1473.957746624736 0 0 0 0 -554.45078426066902 -770.48587500907979 0 -770.48587500907979 -1622.0256976883802 0 0 0 0 -1747.0111686906603 -776.29087973450191 0 -776.29087973450191 -414.81084737307106 0 0 0 0 -1251.1974868811667 41.17178307899303 0 41.17178307899303 922.52871359238407 0 0 0 0 -3051.8269104621431 -140.43718675162748 0 -140.43718675162748 911.21323181267439 0 0 0 0 -19.277291283558952 -9.0009170309693474 0 -9.0009170309693474 -6.6106252540082435 0 0 0 0 -5488.1755712563318 1137.9498922802554 0 1137.9498922802554 1049.466261474339 0 0 0 0 -1571.1669806796417 -752.04104849882106 0 -752.04104849882106 -346.95501145220601 0 0 0 0 -253.17734178816318 151.33985523523438 0 151.33985523523438 -3.5015496866298434 0 0 0 0 -17.844818793900373 -18.814659403311737 0 -18.814659403311737 -4.1663263999663869 0 0 0 0 -699.42836346044351 -1595.2053437337574 0 -1595.2053437337574 -1111.5267720006113 0 0 0 0 9.2401805020210759 -1.9469567872708922 0 -1.9469567872708922 -1.6542233493844063 0 0 0 0 -276.56914624002707 -912.78964405280794 0 -912.78964405280794 -1711.7662131436227 0 0 0 0 3.41430084049024 -32.835466984781988 0 -32.835466984781988 -47.041975732283795 0 0 0 0 -1894.108275462997 -1615.1356818840186 0 -1615.1356818840186 -1117.548893939319 0 0 0 0 -6731.088242056343 -554.97154108722953 0 -554.97154108722953 -133.49757351888945 0 0 0 0 -504.78830538695911 349.65535415388968 0 349.65535415388968 139.27468182118355 0 0 0 0 -6.9618155660705057 -6.5522208912287567 0 -6.5522208912287567 -3.8877107265010702 0 0 0 0 -304.02255328799947 255.61075196935781 0 255.61075196935781 114.89089759282069 0 0 0 0 701.68315291700128 190.29387976841554 0 190.29387976841554 -359.28537822223916 0 0 0 0 28.143309496532311 222.57112143915128 0 222.57112143915128 86.408004748056555 0 0 0 0 -4821.8301756131186 324.4191587889589 0 324.4191587889589 991.44267457714432 0 0 0 0 -5499.3400349157819 -948.85938814460758 0 -948.85938814460758 -140.8867164295749 0 0 0 0 -3577.4578557604982 379.10689900790936 0 379.10689900790936 216.04176298785976 0 0 0 0 -5.1191393820579343 -27.129551092931536 0 -27.129551092931536 -33.869558867339478 0 0 0 0 -5493.6655902867733 1567.2550190477591 0 1567.2550190477591 -322.54142862984287 0 0 0 0 -2.3543443566619118 -2.1091435838526991 0 -2.1091435838526991 0.65010816405803951 0 0 0 0 102.03147934254957 235.22256696237127 0 235.22256696237127 -785.49303212414043 0 0 0 0 -186.21061959501822 226.76935415883781 0 226.76935415883781 -328.03803586706999 0 0 0 0 -12.948666035567669 -10.474566797389542 0 -10.474566797389542 -11.247051301556436 0 0 0 0 -102.49586807553533 245.48465130307991 0 245.48465130307991 86.004687237324106 0 0 0 0 169.34745017121895 321.72488838940262 0 321.72488838940262 22.460490155666776 0 0 0 0 -640.73433768115501 -209.32742392921944 0 -209.32742392921944 714.444870022533 0 0 0 0 -168.87264555389993 507.97277265564708 0 507.97277265564708 195.0428858055202 0 0 0 0 -167.5201211294916 169.82802756461024 0 169.82802756461024 29.172039601226061 0 0 0 0 95.790967518495563 111.33365806113022 0 111.33365806113022 160.73999278259726 0 0 0 0 10.237200344307098 1.1221907064408754 0 1.1221907064408754 -5.3576434178694434 0 0 0 0 114.95825731713558 239.25869226329905 0 239.25869226329905 40.596783400100094 0 0 0 0 133.11888495110179 276.379717464176 0 276.379717464176 54.824833935780589 0 0 0 0 163.01082172147289 281.80798214652714 0 281.80798214652714 -18.004190226780338 0 0 0 0 384.52385591992061 303.07212165550914 0 303.07212165550914 72.891449135609946 0 0 0 0 304.63279457180761 246.95646768280858 0 246.95646768280858 994.90166292294271 0 0 0 0 235.59256173085305 217.76099981739526 0 217.76099981739526 42.77393253416426 0 0 0 0 -29.126957326749107 -573.23733034258794 0 -573.23733034258794 716.03677894541534 0 0 0 0 740.91993453681062 -15.988612690887976 0 -15.988612690887976 -41.633459270507046 0 0 0 0 -267.23505159218621 -214.03976170942042 0 -214.03976170942042 -287.37548840990894 0 0 0 0 -274.62100215489045 -287.9162257736325 0 -287.9162257736325 -42.280348340340481 0 0 0 0 -826.71468317238032 -700.24842639645976 0 -700.24842639645976 -359.02109383821698 0 0 0 0 -1098.0026560538681 -473.52368623162783 0 -473.52368623162783 -512.49552944028073 0 0 0 0 -794.45236463609035 -729.07411220559743 0 -729.07411220559743 -1005.6796867131707 0 0 0 0 -1003.9654045952193 -559.65560353865112 0 -559.65560353865112 -333.22270070975901 0 0 0 0 -335.69195110119472 -294.64211713197437 0 -294.64211713197437 -551.94036033851808 0 0 0 0 148.58482459002698 -30.169252494762759 0 -30.169252494762759 -410.60787750842428 0 0 0 0 -442.50689685044927 -261.63504441746954 0 -261.63504441746954 -5.0986345975022402 0 0 0 0 -522.46510444194428 -517.08024864752406 0 -517.08024864752406 -497.17694186018616 0 0 0 0 -711.21370915556327 -175.46125116264193 0 -175.46125116264193 -157.73918022826001 0 0 0 0 -845.22680499957642 -308.07753438590771 0 -308.07753438590771 -581.6353032922234 0 0 0 0 -587.25243008092366 -548.23291454315586 0 -548.23291454315586 -647.17112313341204 0 0 0 0 -1429.8433993448853 -1232.9728392753495 0 -1232.9728392753495 -746.90551923939984 0 0 0 0 -22.501879706903196 11.17477457091195 0 11.17477457091195 2.7374019115476287 0 0 0 0 -1485.2170413597196 -607.54988726627016 0 -607.54988726627016 -354.99991859415604 0 0 0 0 -246.12842935999652 534.26972367681037 0 534.26972367681037 251.28016626622411 0 0 0 0 -16.905341359743034 -385.49535972105059 0 -385.49535972105059 -225.71525924992784 0 0 0 0 -11.606503588546275 8.8299383694033509 0 8.8299383694033509 -5.7691331129115611 0 0 0 0 77.888040999678196 164.69344199653005 0 164.69344199653005 218.07567100570304 0 0 0 0 123.34507014904375 135.88294691218789 0 135.88294691218789 -37.477918643264275 0 0 0 0 107.34593226626748 70.201505266533786 0 70.201505266533786 -126.6853691491483 0 0 0 0 -229.6615054429567 84.956125371463713 0 84.956125371463713 106.00617650049207 0 0 0 0 -25.280582051273086 320.62946810545282 0 320.62946810545282 -655.59308771310316 0 0 0 0 -17.613973199856559 0.0091868233356251494 0 0.0091868233356251494 26.649155999185126 0 0 0 0 -545.6362494425266 -441.78836265868813 0 -441.78836265868813 837.06490284924689 0 0 0 0 -310.91554049357364 -213.18622467710316 0 -213.18622467710316 11.56735305273105 0 0 0 0 -32.170589397725735 17.679058446427007 0 17.679058446427007 -6.2516475084515335 0 0 0 0 46.214891298383009 -41.191787256409043 0 -41.191787256409043 -130.6947623409178 0 0 0 0 -1285.6062356979892 -1207.153134917452 0 -1207.153134917452 -621.12582114543511 0 0 0 0 -33.725261616549687 259.81580476817635 0 259.81580476817635 125.24935962297604 0 0 0 0 -32.555363108059908 16.533216186644466 0 16.533216186644466 5.730384259879699 0 0 0 0 -394.41367028262539 107.39277047163 0 107.39277047163 326.43882344895974 0 0 0 0 -719.11922059598146 -616.86631769754149 0 -616.86631769754149 -749.15087942562786 0 0 0 0 -648.46052393133868 -866.50688341553769 0 -866.50688341553769 -266.53500815356892 0 0 0 0 -495.75470662297448 -439.06100053686441 0 -439.06100053686441 2.1990482693222475 0 0 0 0 -969.12424323847517 -975.92814524416576 0 -975.92814524416576 -21.651490134979213 0 0 0 0 -177.11915593678714 -737.69886941643517 0 -737.69886941643517 -121.78886944357419 0 0 0 0 -403.78351040586131 -677.18593576391595 0 -677.18593576391595 241.22926244730024 0 0 0 0 -37.721087028214242 -447.67272919052925 0 -447.67272919052925 -76.995545234511155 0 0 0 0 -2772.9450070649764 -187.59157683353408 0 -187.59157683353408 145.59022377610381 0 0 0 0 -1356.9285904555582 -1276.162028737228 0 -1276.162028737228 91.407171251210002 0 0 0 0 -2484.343406766915 -981.43209245316359 0 -981.43209245316359 203.01365005005027 0 0 0 0 -1411.0134944559541 -1183.6429312111741 0 -1183.6429312111741 124.34548684813626 0 0 0 0 -1096.6287188568967 -873.57694067993452 0 -873.57694067993452 -35.708169393794378 0 0 0 0 -2136.5858277526568 -448.14096174275392 0 -448.14096174275392 111.16580248722676 0 0 0 0 -174.93681645282777 5.6098249917772591 0 5.6098249917772591 84.308875259439446 0 0 0 0 -1446.0965812462819 -607.62358179180569 0 -607.62358179180569 97.815925756292017 0 0 0 0 -45.104170912252528 22.998367538173369 0 22.998367538173369 7.1889726069294433 0 0 0 0 -1368.0534544502152 -752.63179819601555 0 -752.63179819601555 -86.691311264814431 0 0 0 0 -296.39063938850813 22.365657322348568 0 22.365657322348568 184.88560939586841 0 0 0 0 -74.488370847851684 38.003965924900257 0 38.003965924900257 4.3218866282144326 0 0 0 0 -207.23132109211292 -9.7250218010021854 0 -9.7250218010021854 164.70573243476974 0 0 0 0 -7.4087867553327698 -28.621722389184782 0 -28.621722389184782 17.264037335148835 0 0 0 0 64.18863772333134 171.56971142275597 0 171.56971142275597 -127.09094881326678 0 0 0 0 -175.27800383249996 -113.74011061793476 0 -113.74011061793476 -74.625930006182443 0 0 0 0 -490.44578041387285 58.094602505414286 0 58.094602505414286 17.330121847340706 0 0 0 0 -15.211751066638726 1.2835620743469462 0 1.2835620743469462 3.7673153239476047 0 0 0 0 236.79337474494241 297.2141439114921 0 297.2141439114921 -1312.2023052492568 0 0 0 0 -544.84146642725682 -66.814854631893922 0 -66.814854631893922 -41.366239178927117 0 0 0 0 -59.139971995103906 29.163366758986626 0 29.163366758986626 5.4662519923551836 0 0 0 0 -13.354672580375336 366.27497533526366 0 366.27497533526366 95.09342261979873 0 0 0 0 -222.76863163883172 -144.3147459349135 0 -144.3147459349135 -62.77303733696408 0 0 0 0 -111.72262368051452 -81.098086865275036 0 -81.098086865275036 -100.92729991273904 0 0 0 0 -203.73661650012946 -50.294545487929099 0 -50.294545487929099 -8.5879038467692226 0 0 0 0 -32.590453850891208 -14.86361100551585 0 -14.86361100551585 14.505191124171688 0 0 0 0 -162.34414208043017 -94.986804356868561 0 -94.986804356868561 17.442885776724324 0 0 0 0 -4.9392002000393234 -1.1551583181657179 0 -1.1551583181657179 8.1276370769097426 0 0 0 0 -274.78571078789537 -313.24962437597696 0 -313.24962437597696 -32.779683511411349 0 0 0 0 -175.75524301770201 -143.07315610723708 0 -143.07315610723708 -119.58632167963879 0 0 0 0 -311.47867364939884 -169.69327950537627 0 -169.69327950537627 201.3591419196573 0 0 0 0 -138.60036037919053 -287.58933594931023 0 -287.58933594931023 -350.59036087082131 0 0 0 0 -5.3677426050525128 -2.8070136691346335 0 -2.8070136691346335 1.7818959920443875 0 0 0 0 -489.49879886428243 -55.249261605255015 0 -55.249261605255015 147.84582401378066 0 0 0 0 -552.59400565824762 294.91405965500121 0 294.91405965500121 -288.47105064506468 0 0 0 0 -7.3027832641423061 1.5896369180749446 0 1.5896369180749446 3.3541663593195139 0 0 0 0 -663.08454996734508 194.22406467812652 0 194.22406467812652 788.67965589923188 0 0 0 0 -7.1309489631894394 4.5151157603304455 0 4.5151157603304455 -5.6046133418949466 0 0 0 0 -33.456109728751471 5.4659048965813781 0 5.4659048965813781 26.469635539986484 0 0 0 0 -17.794000593224553 -2.5595103881567294 0 -2.5595103881567294 2.7338333925199905 0 0 0 0 29.681785124121234 95.220723960632768 0 95.220723960632768 -31.501628940686714 0 0 0 0 -98.700533784911386 222.26264084540526 0 222.26264084540526 360.84996553721612 0 0 0 0 -11.543471722864751 3.1294067072661846 0 3.1294067072661846 1.7587055075915572 0 0 0 0 -537.73311784028192 -284.45877705798739 0 -284.45877705798739 1.7157291109615471 0 0 0 0 -987.17925994907273 -669.16009430873964 0 -669.16009430873964 -309.24739658266481 0 0 0 0 0.5416097096217527 0.9108595776677646 0 0.9108595776677646 -0.6982835733927395 0 0 0 0 -896.13724426997942 -437.95582100096908 0 -437.95582100096908 -215.56631960907907 0 0 0 0 -314.14393056579866 -59.675448696326384 0 -59.675448696326384 634.67936908717093 0 0 0 0 64.287172570810071 -17.898376524689411 0 -17.898376524689411 72.888946150793345 0 0 0 0 357.09867981124989 493.47749488623231 0 493.47749488623231 380.7106252688809 0 0 0 0 -349.242252076976 39.699647371513493 0 39.699647371513493 245.14946909753962 0 0 0 0 -1.3267403005754659 -4.4284048461839234 0 -4.4284048461839234 12.356217279301493 0 0 0 0 -432.75937109116239 -391.06422950466413 0 -391.06422950466413 -90.321074223820688 0 0 0 0 -50.866518544666178 23.597632464436174 0 23.597632464436174 216.3581816619353 0 0 0 0 279.93051325024862 385.44588684862447 0 385.44588684862447 297.59313495877723 0 0 0 0 -501.3367707614234 138.59354579678438 0 138.59354579678438 511.11988108105106 0 0 0 0 47.374054497529869 -73.972957032749036 0 -73.972957032749036 27.992029045461095 0 0 0 0 -29.237821681424975 -37.465316401823657 0 -37.465316401823657 -162.25024783394474 0 0 0 0 -91.971803552827794 4.6124396957608411 0 4.6124396957608411 6.4407532857503886 0 0 0 0 -151.15123689448228 -240.82519712376234 0 -240.82519712376234 171.79851808937019 0 0 0 0 440.04980816249736 -7.2009870473684714 0 -7.2009870473684714 -216.42714178175629 0 0 0 0 -232.39736318907671 -276.82982016206734 0 -276.82982016206734 -22.758661898489663 0 0 0 0 -334.84399403403222 -526.46528182464408 0 -526.46528182464408 -197.66829586758286 0 0 0 0 0.18209703563934454 -1.9060697314388335 0 -1.9060697314388335 4.2317838455869676 0 0 0 0 -51.235961762984516 -47.351430601909669 0 -47.351430601909669 -182.58296047826479 0 0 0 0 -34.070665056264261 -283.90974216759969 0 -283.90974216759969 104.52509986482414 0 0 0 0 -277.13105859150528 10.47793748179356 0 10.47793748179356 103.84364328271363 0 0 0 0 -251.30753597686999 -88.229648333377554 0 -88.229648333377554 3.6285549036474549 0 0 0 0 -421.10350644838763 -34.394016537926291 0 -34.394016537926291 98.906813905912713 0 0 0 0 -382.45032755791908 -196.90831888759749 0 -196.90831888759749 96.257756109450156 0 0 0 0 -470.54389493170311 -334.95340629258226 0 -334.95340629258226 23.182391089379962 0 0 0 0 -640.44466107798507 -13.857524986024146 0 -13.857524986024146 20.39713394219325 0 0 0 0 -102.5819284070206 -0.48262403735187576 0 -0.48262403735187576 2.2568582630122496 0 0 0 0 -361.89711284197983 -113.96654612084058 0 -113.96654612084058 155.2015201919412 0 0 0 0 -365.87676762480987 70.621030657315259 0 70.621030657315259 -257.90317311262879 0 0 0 0 612.03682756616035 525.34977302487641 0 525.34977302487641 -2964.2126258951575 0 0 0 0 -486.07346255177981 -77.463498203027484 0 -77.463498203027484 -36.192768898861686 0 0 0 0 -365.24901787715498 95.915246280399515 0 95.915246280399515 79.037520211457377 0 0 0 0 -307.28252820068155 52.078355351988648 0 52.078355351988648 104.43276188082746 0 0 0 0 -413.52529034150939 185.19740820283641 0 185.19740820283641 229.43337740265997 0 0 0 0 -139.08413276274223 190.72448922994226 0 190.72448922994226 226.1864760005592 0 0 0 0 -276.46044029608311 93.368308577271819 0 93.368308577271819 336.56471467666415 0 0 0 0 -230.64536043003318 72.353147562177583 0 72.353147562177583 236.0154100277141 0 0 0 0 -342.11187160317786 82.91280908207591 0 82.91280908207591 235.5928246923504 0 0 0 0 -1048.4852378205978 -659.5657989978863 0 -659.5657989978863 1312.1149577470642 0 0 0 0 -3.0172682398674056 1.1785898960194459 0 1.1785898960194459 0.6862718560028469 0 0 0 0 -180.82611443530186 54.404192634599895 0 54.404192634599895 -26.367186783878424 0 0 0 0 -667.35712803417118 366.06225977214126 0 366.06225977214126 193.81763806491654 0 0 0 0 -329.98225197431748 -101.12885376451231 0 -101.12885376451231 687.28458775277977 0 0 0 0 -361.61796114462777 20.387502669655078 0 20.387502669655078 373.66794458156801 0 0 0 0 -96.761981069474132 -251.11252754959332 0 -251.11252754959332 -485.14305494410655 0 0 0 0 -213.03054496279219 -190.95215608007311 0 -190.95215608007311 193.35976272834523 0 0 0 0 1.8530968959528025 -1.6732805602160852 0 -1.6732805602160852 6.759582724616898 0 0 0 0 -260.3520608269464 -171.57553856077948 0 -171.57553856077948 322.12760094878467 0 0 0 0 -193.57127272053913 -62.613654896858861 0 -62.613654896858861 -850.42807639446983 0 0 0 0 -16.668660946103046 -116.5927757510326 0 -116.5927757510326 -86.963025304848998 0 0 0 0 -13.305762181000318 7.8542348220416898 0 7.8542348220416898 289.11265367369197 0 0 0 0 -56.127783150077448 -38.248906668299242 0 -38.248906668299242 244.27332516411116 0 0 0 0 -7.8775725146988407 1.5508664130356919 0 1.5508664130356919 289.01569299926086 0 0 0 0 -51.541490511386655 132.5563455876545 0 132.5563455876545 341.70000802425966 0 0 0 0 157.38944402424568 75.719526686118002 0 75.719526686118002 241.6765452642212 0 0 0 0 -172.31839833091362 -88.739351639247616 0 -88.739351639247616 436.57251842106052 0 0 0 0 -212.24948336015223 -16.246248863457367 0 -16.246248863457367 348.96150562358525 0 0 0 0 164.27383792144246 -874.21258629470321 0 -874.21258629470321 -262.10895389543703 0 0 0 0 132.02481787260785 492.05086634887823 0 492.05086634887823 389.62144900197745 0 0 0 0 -3.4239831734823838 2.2168966973163435 0 2.2168966973163435 -1.0941380024582728 0 0 0 0 -1191.7957988361013 289.0934291537942 0 289.0934291537942 -57.333007780420303 0 0 0 0 -1925.3185684336349 -1272.0515187326628 0 -1272.0515187326628 -556.59028167495467 0 0 0 0 -8.1625092160743407 3.9149551325924392 0 3.9149551325924392 -0.3573462932969278 0 0 0 0 -278.31944006186677 1011.5003976941352 0 1011.5003976941352 213.85893759498504 0 0 0 0 -627.39989111394971 244.62510354151891 0 244.62510354151891 363.50979859945073 0 0 0 0 -1209.7255634595058 -113.13849151796057 0 -113.13849151796057 330.8169551479823 0 0 0 0 -553.96087621490005 198.12167854566815 0 198.12167854566815 296.54564042362472 0 0 0 0 -373.40610166374245 364.70302950344194 0 364.70302950344194 428.85165519250813 0 0 0 0 -380.48295554009383 198.92389248211839 0 198.92389248211839 190.93979149359802 0 0 0 0 -433.38933247173554 254.23968679760219 0 254.23968679760219 297.7485846432304 0 0 0 0 -536.19841046987131 97.412219763454686 0 97.412219763454686 183.28901618052987 0 0 0 0 -476.47549393780355 173.75744764839965 0 173.75744764839965 277.6680506229859 0 0 0 0 -1411.831217760664 1051.1339523176866 0 1051.1339523176866 413.5361348966926 0 0 0 0 -104.66368789191279 5.6385643348442969 0 5.6385643348442969 5.1556707241145929 0 0 0 0 -54.785411645047134 68.85017102047459 0 68.85017102047459 -158.55969328960782 0 0 0 0 -23.829814907830723 -7.52391578997522 0 -7.52391578997522 -13.726309415146275 0 0 0 0 -100.82685051241424 -97.567703606656323 0 -97.567703606656323 -101.37534363777741 0 0 0 0 -190.11796377140126 17.377025018491622 0 17.377025018491622 46.443854549272146 0 0 0 0 -310.4907429070372 -148.26631867633432 0 -148.26631867633432 307.50088816958305 0 0 0 0 -482.98985489689221 201.32251548071918 0 201.32251548071918 242.28614263173949 0 0 0 0 336.18060721149959 -353.2862177129 0 -353.2862177129 -21.891863814875251 0 0 0 0 -367.01045479603636 -179.70192717453256 0 -179.70192717453256 373.50031676794606 0 0 0 0 -57.57858266797848 -53.580976830660802 0 -53.580976830660802 -161.26436658709827 0 0 0 0 -84.988731414996437 -36.772194056574335 0 -36.772194056574335 -94.146684975326934 0 0 0 0 -88.005692803911643 -1.9417160633747201 0 -1.9417160633747201 -0.66861684542613453 0 0 0 0 -39.603627566300247 -32.168547342191886 0 -32.168547342191886 -30.661368690862147 0 0 0 0 -96.340889085215167 -31.949635306291611 0 -31.949635306291611 -26.105920666546524 0 0 0 0 -3333.0733585216331 -376.66653255598067 0 -376.66653255598067 -98.72889637167448 0 0 0 0 -98.276021758538263 -27.837553784579654 0 -27.837553784579654 -17.567459773059454 0 0 0 0 -16.78386748187831 -24.136957989725886 0 -24.136957989725886 -26.150750698054463 0 0 0 0 -5490.6803545120347 1537.6281822523351 0 1537.6281822523351 142.12635362770965 0 0 0 0 -3174.5586606973375 -1841.1991109348976 0 -1841.1991109348976 -1084.4904100862843 0 0 0 0 -51.35539970449463 -19.145028530156196 0 -19.145028530156196 -20.528045841769426 0 0 0 0 -22.338563429212215 -25.271980763555376 0 -25.271980763555376 -26.58464055365204 0 0 0 0 -8.8686734211898894 -40.794805818690293 0 -40.794805818690293 -27.999096664339547 0 0 0 0 -4.8936659970131586 -11.452899260661233 0 -11.452899260661233 -18.521140560883989 0 0 0 0 -15.938380553183492 -68.717997092539832 0 -68.717997092539832 -75.074205312715236 0 0 0 0 -5491.4531611951243 -244.0900103140732 0 -244.0900103140732 511.30242464728354 0 0 0 0 -231.63926315830031 -380.97460379658332 0 -380.97460379658332 -766.24395345642188 0 0 0 0 -223.51364298598492 -247.91561037372594 0 -247.91561037372594 236.84024098763075 0 0 0 0 959.67139252990819 23.596259712169854 0 23.596259712169854 -624.38027199572389 0 0 0 0 -75.033016598317772 -590.47522337841656 0 -590.47522337841656 -215.4197874072488 0 0 0 0 9.1862506842890852 -12.452145928467701 0 -12.452145928467701 -14.680355219742442 0 0 0 0 96.388610601043183 -82.989890868890484 0 -82.989890868890484 -174.20705216613896 0 0 0 0 -5503.0867012004428 427.65926073473105 0 427.65926073473105 -125.24435989536381 0 0 0 0 -9.4883608744677304 -42.444706517825352 0 -42.444706517825352 -45.769681872210626 0 0 0 0 -4804.2042772084969 -205.46611840434315 0 -205.46611840434315 313.42840095876608 0 0 0 0 -77.995138249563752 65.434943386498162 0 65.434943386498162 131.40626068608799 0 0 0 0 -38.85172377317582 5.7835772034026931 0 5.7835772034026931 -0.92876425666539242 0 0 0 0 -158.24588532283087 -79.678087930664518 0 -79.678087930664518 179.94675828453754 0 0 0 0 -4.7286449648381677 45.193563961313998 0 45.193563961313998 -88.697824152741759 0 0 0 0 -217.70390770175436 -74.673978838669427 0 -74.673978838669427 -127.8780803020627 0 0 0 0 -9.3926545076537877 113.05798303746224 0 113.05798303746224 -170.09386057367601 0 0 0 0 -895.15099610801553 14.789773873203103 0 14.789773873203103 186.01924917247359 0 0 0 0 -1467.913012619425 55.700865074617525 0 55.700865074617525 188.78082204191696 0 0 0 0 -661.76084534187976 -424.14722885124507 0 -424.14722885124507 -23.112283057891318 0 0 0 0 -14.869706558445159 1.7788623920646955 0 1.7788623920646955 -0.66778620973906422 0 0 0 0 2.3409591124946019 221.94265900312092 0 221.94265900312092 -311.04182433940548 0 0 0 0 -249.13450122522772 561.97255533112991 0 561.97255533112991 -770.14596327661638 0 0 0 0 -576.37148533505388 63.602415904859072 0 63.602415904859072 296.83079514395331 0 0 0 0 -566.53428213092866 525.94181338112514 0 525.94181338112514 -77.438826170162883 0 0 0 0 -392.7718578754575 249.08605693828849 0 249.08605693828849 164.57828047648081 0 0 0 0 -211.32563625453622 143.40091601371512 0 143.40091601371512 123.71089711873843 0 0 0 0 -33.147289753091172 8.8421180857884281 0 8.8421180857884281 -20.88459036797849 0 0 0 0 -715.03802994811122 -60.294313816136878 0 -60.294313816136878 -38.074274785555644 0 0 0 0 -177.73085784394061 44.973966844705728 0 44.973966844705728 -23.479647072562102 0 0 0 0 149.14874867131584 274.67939221873098 0 274.67939221873098 117.0971618740499 0 0 0 0 -0.86484604904387652 1.4348884911187838 0 1.4348884911187838 0.038808096681349102 0 0 0 0 -118.22065939227468 19.762073080936943 0 19.762073080936943 300.73007052657636 0 0 0 0 -68.122575120480178 -179.20263762997681 0 -179.20263762997681 -65.257938894735162 0 0 0 0 169.33806460353662 91.101363921734674 0 91.101363921734674 -119.73171266451848 0 0 0 0 15.663928504582145 -8.3481646048544462 0 -8.3481646048544462 1.3067487102771338 0 0 0 0 -577.98749479200342 42.646273156383131 0 42.646273156383131 472.84755783836817 0 0 0 0 1.6408118630342461 -6.7512787350989072 0 -6.7512787350989072 8.8717777292747293 0 0 0 0 -488.98463906845427 130.86052070508879 0 130.86052070508879 -25.629985643421605 0 0 0 0 -84.550023676303681 -1.9260497098443068 0 -1.9260497098443068 -93.609303776853849 0 0 0 0 -244.38072138021744 -158.43645608723904 0 -158.43645608723904 -53.987493329983977 0 0 0 0 -254.91240102446318 -35.542561580744504 0 -35.542561580744504 50.954719275086518 0 0 0 0 -34.713487988890847 -2.0464051489670965 0 -2.0464051489670965 2.4139605527898311 0 0 0 0 -16.235259371867869 -17.069681906439087 0 -17.069681906439087 -24.270163080197335 0 0 0 0 -18.457036131061614 -16.28525534717204 0 -16.28525534717204 10.179793547872578 0 0 0 0 -5.9429193495889194 5.5900898873442202 0 5.5900898873442202 3.5739430799594629 0 0 0 0 -6.6869682602700777 -16.261377425607861 0 -16.261377425607861 25.926725304283536 0 0 0 0 -25.550574535518535 -8.9672071298755327 0 -8.9672071298755327 21.658102456834968 0 0 0 0 -14.158840779302409 -3.4891950078799709 0 -3.4891950078799709 6.3930199231314759 0 0 0 0 -18.439749694967759 -16.433068122726809 0 -16.433068122726809 7.4387252230208105 0 0 0 0 -2.9450610635752241 1.0130052166105656 0 1.0130052166105656 5.4306421928225106 0 0 0 0 -109.59045140457511 10.280652806346808 0 10.280652806346808 -41.264515198072331 0 0 0 0 -46.213599260270712 -28.474948064722639 0 -28.474948064722639 2.8932688432932991 0 0 0 0 -20.115030173037667 -10.104434290563404 0 -10.104434290563404 -7.5644321922168274 0 0 0 0 -27.382917735842057 4.0746478868650229 0 4.0746478868650229 14.269657633667521 0 0 0 0 -27.974445615138393 -1.6716796933537807 0 -1.6716796933537807 30.300540898197141 0 0 0 0 -18.031756533068403 0.39486785496459831 0 0.39486785496459831 2.6798239065431737 0 0 0 0 -18.71086199660931 0.3401018332649528 0 0.3401018332649528 33.317689167202843 0 0 0 0 3.4153424172985751 -19.922000830614607 0 -19.922000830614607 19.204991530460102 0 0 0 0 228.88292721658945 -655.8593878333395 0 -655.8593878333395 305.10194352829649 0 0 0 0 -71.21299914231389 19.651959475770273 0 19.651959475770273 4.0764674660830984 0 0 0 0 13.736777133191936 -39.950498694292946 0 -39.950498694292946 -6.7454088509502981 0 0 0 0 -18.055869657808216 1.8906731062420477 0 1.8906731062420477 15.986160888032828 0 0 0 0 -16.573143267222235 -7.8728716204243767 0 -7.8728716204243767 22.341709447965975 0 0 0 0 -155.87237250810358 -99.073366622245203 0 -99.073366622245203 97.394495259290125 0 0 0 0 -16.148828283068724 -6.059177443254157 0 -6.059177443254157 15.595207837435737 0 0 0 0 -30.007334517816957 4.9990203118918117 0 4.9990203118918117 3.19746058344289 0 0 0 0 -108.70654781941266 138.71752266146177 0 138.71752266146177 176.11337820029075 0 0 0 0 -170.14247241948033 24.268972595523508 0 24.268972595523508 254.2357142158682 0 0 0 0 -55.930134922986099 6.3315931020697214 0 6.3315931020697214 1.9052952358648048 0 0 0 0 -26.979926744803379 33.102377013870012 0 33.102377013870012 27.062254245067606 0 0 0 0 -17.37130981803486 6.4029908102888555 0 6.4029908102888555 3.3354335561009938 0 0 0 0 72.31977366132196 -76.348248680996448 0 -76.348248680996448 220.54049896302899 0 0 0 0 -138.44863720366266 78.729707418096581 0 78.729707418096581 119.59735350668956 0 0 0 0 -144.16970479484644 -135.38243487389067 0 -135.38243487389067 106.75484775437252 0 0 0 0 -17.003658644752932 -2.2064766923503782 0 -2.2064766923503782 10.728400331119149 0 0 0 0 -352.23844645160716 323.99946987822022 0 323.99946987822022 -243.76504315226703 0 0 0 0 -39.536210559308529 -31.506155003454296 0 -31.506155003454296 -10.321583491856472 0 0 0 0 -2.7220982428952425 -0.47826139806392121 0 -0.47826139806392121 4.0248495833517381 0 0 0 0 0.85556303640432496 -2.9008637397444659 0 -2.9008637397444659 -0.85382383287463526 0 0 0 0 -150.73493550252169 289.18253149596421 0 289.18253149596421 -710.43914749637042 0 0 0 0 -77.668922195131017 8.4038521501917298 0 8.4038521501917298 -33.357009272491226 0 0 0 0 -66.49928638843511 16.955989496153126 0 16.955989496153126 3.835387037674181 0 0 0 0 -76.002732498469413 42.957675963656129 0 42.957675963656129 38.214730026865254 0 0 0 0 -117.83699105255073 -10.213920181885896 0 -10.213920181885896 38.32405565827878 0 0 0 0 -12.746949705685338 0.017233429899135899 0 0.017233429899135899 13.952412927163127 0 0 0 0 -53.298365477996413 -6.6165780675778478 0 -6.6165780675778478 -28.400498600757146 0 0 0 0 -35.026005826905021 -20.456623320572362 0 -20.456623320572362 -19.824001750142997 0 0 0 0 -172.20608103047562 -14.687946336360824 0 -14.687946336360824 68.583641587627426 0 0 0 0 0.73905623253835984 -0.1760564805865954 0 -0.1760564805865954 10.713420321752182 0 0 0 0 -154.78315788324471 -106.18028091662939 0 -106.18028091662939 -13.218955311327591 0 0 0 0 -16.293234014243353 -110.78001196471632 0 -110.78001196471632 -70.755542191169297 0 0 0 0 -23.882115832835552 -29.268217821963418 0 -29.268217821963418 23.208115956447728 0 0 0 0 -1.4007069155777572 52.649015285472274 0 52.649015285472274 74.653432839611924 0 0 0 0 -245.39940526126884 -201.23028171597889 0 -201.23028171597889 81.116697560075863 0 0 0 0 0.63979863919644231 -5.4950404624474061 0 -5.4950404624474061 14.537383808210588 0 0 0 0 -23.449853585188976 -31.736419051793746 0 -31.736419051793746 2.3927088452755925 0 0 0 0 -50.743183447804768 -59.301227677405222 0 -59.301227677405222 -21.803604447712132 0 0 0 0 21.691764472154318 -9.80854248977721 0 -9.80854248977721 50.899178252257116 0 0 0 0 61.92694011698768 132.75180143859779 0 132.75180143859779 197.56924774325125 0 0 0 0 -56.860583851899719 45.220735643692024 0 45.220735643692024 171.33433705212883 0 0 0 0 -149.12170843125205 -83.267063182191123 0 -83.267063182191123 144.15590439365405 0 0 0 0 -50.35539677325869 -36.684630349947838 0 -36.684630349947838 164.74005234702963 0 0 0 0 -113.03823355849636 -119.70206025038487 0 -119.70206025038487 177.00761467837947 0 0 0 0 -208.15114186344726 -242.98027563382493 0 -242.98027563382493 171.38417005887277 0 0 0 0 -15.590318579169548 -0.97840985788931523 0 -0.97840985788931523 0.61216895033537977 0 0 0 0 -793.30282522266498 65.370551853620782 0 65.370551853620782 -32.406857538875556 0 0 0 0 -81.491257968635011 -16.05898132127324 0 -16.05898132127324 3.2277665603121588 0 0 0 0 -128.56144570882861 -254.09398275553917 0 -254.09398275553917 144.22373652262831 0 0 0 0 -399.4547677958617 -128.27653606674903 0 -128.27653606674903 192.42388472042512 0 0 0 0 -341.47993619635236 -135.11608246335709 0 -135.11608246335709 191.42868527906649 0 0 0 0 -51.659794707488402 -5.0431957391712139 0 -5.0431957391712139 -0.83393973668275567 0 0 0 0 387.45057646714849 -103.60926313595337 0 -103.60926313595337 -151.97940159683822 0 0 0 0 -49.363445405848324 -2.7178739969749586 0 -2.7178739969749586 -15.847365936388542 0 0 0 0 -70.557392271755248 -28.374108009956466 0 -28.374108009956466 -3.2250763959291047 0 0 0 0 -144.51028597328695 10.934409769783997 0 10.934409769783997 117.1969981565162 0 0 0 0 -365.49906671573626 40.892763959975582 0 40.892763959975582 113.16271922277519 0 0 0 0 -163.82395822659601 -8.6320089585206006 0 -8.6320089585206006 183.05815978685723 0 0 0 0 -1.6050462556158891 -56.072470616259579 0 -56.072470616259579 36.617471578632831 0 0 0 0 -98.094616984584718 -17.471297324771058 0 -17.471297324771058 344.04319016197405 0 0 0 0 33.0911847409443 -163.34091578561856 0 -163.34091578561856 77.414028523069646 0 0 0 0 -69.697092948190402 86.139504801219118 0 86.139504801219118 31.283573452230939 0 0 0 0 -0.73998964209677354 1.1832334452967928 0 1.1832334452967928 5.0524504531288272 0 0 0 0 31.786928735251422 349.7209929317155 0 349.7209929317155 681.6693636637392 0 0 0 0 -37.941550881281728 729.60054552909514 0 729.60054552909514 9.8759430012578378 0 0 0 0 671.09773652697913 215.16501761961626 0 215.16501761961626 -102.82736219350591 0 0 0 0 586.84433597465977 42.043201808621234 0 42.043201808621234 -36.362699218430862 0 0 0 0 -91.9527796474149 -20.028749905907645 0 -20.028749905907645 -0.96155702750572303 0 0 0 0 -217.19176476832945 -21.24630839152087 0 -21.24630839152087 28.567512080514007 0 0 0 0 -1762.0904721838888 -349.08573427784722 0 -349.08573427784722 395.84744520332242 0 0 0 0 -14.985069301357726 -153.31834490882375 0 -153.31834490882375 379.36412449758063 0 0 0 0 -1028.157893064199 -1412.7707689209647 0 -1412.7707689209647 -132.1321950015008 0 0 0 0 -12.241873222904474 7.7170301410630771 0 7.7170301410630771 3.4687660777677465 0 0 0 0 -69.88008891935533 -57.613671649384059 0 -57.613671649384059 348.12878487639955 0 0 0 0 -47.727320170003225 7.1472807919206502 0 7.1472807919206502 -4.6457767382228914 0 0 0 0 -82.278629326487135 -142.26867238169029 0 -142.26867238169029 709.66507466677467 0 0 0 0 -4.8102274647317245 -121.83361204036146 0 -121.83361204036146 66.673625814437401 0 0 0 0 -35.890623569997842 -106.8601137840792 0 -106.8601137840792 276.80607787395456 0 0 0 0 33.989128641260322 -79.025223376962458 0 -79.025223376962458 -55.051866222951503 0 0 0 0 -8.4314530061965343 -75.608116145353506 0 -75.608116145353506 81.459276017320008 0 0 0 0 48.071204809049959 -125.71494814108087 0 -125.71494814108087 -144.01172551995842 0 0 0 0 -14.861450626929582 51.922296673129495 0 51.922296673129495 -167.82740796129838 0 0 0 0 28.891499429752002 -15.680687356528779 0 -15.680687356528779 -79.731997497229429 0 0 0 0 -11.399461572342261 -38.613314703811284 0 -38.613314703811284 -71.998497708588729 0 0 0 0 -537.36784438258474 233.52233386615444 0 233.52233386615444 -176.54440560182047 0 0 0 0 -148.9979535188686 115.11984675835492 0 115.11984675835492 -117.01814645564718 0 0 0 0 -709.68380486962269 648.19292510010837 0 648.19292510010837 -719.66528673174253 0 0 0 0 -307.1099947194889 4.2620770822209124 0 4.2620770822209124 -152.64770064072297 0 0 0 0 -82.14672581855848 302.49812328682856 0 302.49812328682856 104.64519849849512 0 0 0 0 178.47971788088034 -272.28908902180274 0 -272.28908902180274 -58.600096794854039 0 0 0 0 -76.460169203021735 14.77128111918843 0 14.77128111918843 -0.37501859973752882 0 0 0 0 -450.11134014744312 -206.02786100710546 0 -206.02786100710546 -87.03817031367862 0 0 0 0 -96.305821737357348 22.101909057786855 0 22.101909057786855 -1.3000470320971962 0 0 0 0 -1586.1173375244471 -69.145969674334765 0 -69.145969674334765 1639.4736360018533 0 0 0 0 23.861526159002096 40.526262329446581 0 40.526262329446581 -63.475323998819704 0 0 0 0 0.67404567233461421 96.493315096004153 0 96.493315096004153 -197.45886990550844 0 0 0 0 -45.161545480092173 23.6665518181876 0 23.6665518181876 -45.861896785385397 0 0 0 0 13.428152532978856 -80.11513079961378 0 -80.11513079961378 -414.27580247140213 0 0 0 0 -319.33096513422788 -222.72558387186336 0 -222.72558387186336 -193.59793601352067 0 0 0 0 -441.80412337028247 146.33723620159526 0 146.33723620159526 -77.356849404003697 0 0 0 0 -5.4384663848176729 3.1211271629779347 0 3.1211271629779347 1.1105463200551906 0 0 0 0 -247.36812833638396 20.052595828076846 0 20.052595828076846 330.27108149334799 0 0 0 0 208.52385909666191 -142.48914453666202 0 -142.48914453666202 -47.978002207193242 0 0 0 0 -88.126230449328432 -39.096568523588758 0 -39.096568523588758 -47.796639060474263 0 0 0 0 0.33422083107507206 -270.74561600823165 0 -270.74561600823165 104.6320168094735 0 0 0 0 -291.01350461937545 -146.85747198402601 0 -146.85747198402601 47.65869147614859 0 0 0 0 72.777960671373876 -331.33230018577069 0 -331.33230018577069 80.282563091323027 0 0 0 0 -65.807483416684391 -32.048341759843254 0 -32.048341759843254 -7.6939603978634103 0 0 0 0 -15.255179161167405 4.0760731415854821 0 4.0760731415854821 2.3595417616220944 0 0 0 0 -335.55314906635613 -43.758681301917022 0 -43.758681301917022 21.6260690180643 0 0 0 0 -26.987126441294095 -151.05876460108641 0 -151.05876460108641 -46.18743021405885 0 0 0 0 6.0078478675859515 151.343636898363 0 151.343636898363 10.821334233720336 0 0 0 0 -150.01480901040486 -91.528662406566582 0 -91.528662406566582 -59.001185794057164 0 0 0 0 -27.338141159838415 20.063669393234704 0 20.063669393234704 25.803037305826365 0 0 0 0 -31.96119169633846 -15.695281058118322 0 -15.695281058118322 0.22530536980556565 0 0 0 0 -60.31653364864269 -10.988732931194491 0 -10.988732931194491 5.3462064608937183 0 0 0 0 97.429327545820342 -33.316592415711966 0 -33.316592415711966 21.533840547584987 0 0 0 0 -124.5289027064282 -299.74583385386768 0 -299.74583385386768 294.5944557387507 0 0 0 0 -13.211068489639729 -1.1219447106514053 0 -1.1219447106514053 54.029650633871825 0 0 0 0 14.508390549119213 -29.15971244721004 0 -29.15971244721004 -210.6515184725431 0 0 0 0 -23.296202986501157 6.1083508595127114 0 6.1083508595127114 -127.70683810307355 0 0 0 0 25.156132074771449 -75.271486652750923 0 -75.271486652750923 -57.527009315472696 0 0 0 0 -37.189142054650119 -8.9370182050831222 0 -8.9370182050831222 0.34795547305215635 0 0 0 0 -29.361546234489651 -64.137193272712466 0 -64.137193272712466 -64.378280540036542 0 0 0 0 -29.725936669390649 -72.526589526469479 0 -72.526589526469479 -56.313703809608569 0 0 0 0 -5.5918371077059419 -128.60173290852825 0 -128.60173290852825 72.638432769332724 0 0 0 0 16.901800219092365 -33.746408839539185 0 -33.746408839539185 -24.358493952011031 0 0 0 0 9.0146608253926388 -59.986842779837076 0 -59.986842779837076 -14.492312691111692 0 0 0 0 -37.931779065838782 -77.394424097722094 0 -77.394424097722094 -20.325465411446658 0 0 0 0 -49.063406284938537 -60.083775268001773 0 -60.083775268001773 12.039980832449146 0 0 0 0 -59.934741493727472 -23.637618574478196 0 -23.637618574478196 -9.0487993768842259 0 0 0 0 -47.514914063144971 -23.352846451956822 0 -23.352846451956822 -10.211764901413339 0 0 0 0 -23.296842319075949 -3.6833609903951583 0 -3.6833609903951583 27.419193810947718 0 0 0 0 68.622671156867 -118.90644444105237 0 -118.90644444105237 -26.774048816963841 0 0 0 0 -36.652032373240218 -54.657502729494809 0 -54.657502729494809 11.088947613054188 0 0 0 0 39.091802710390766 -19.811417989715665 0 -19.811417989715665 -97.254403048886161 0 0 0 0 -11.147997152741368 -4.0230302899405856 0 -4.0230302899405856 -3.3274283969309293 0 0 0 0 -35.901910043582575 -23.28720622684321 0 -23.28720622684321 -11.375392784463779 0 0 0 0 -55.593347980547207 -18.771714620184781 0 -18.771714620184781 -4.5929760570208131 0 0 0 0 -60.057353042255272 -2.3696727181950337 0 -2.3696727181950337 -22.553516660140303 0 0 0 0 -41.683990489770423 -19.57368442294694 0 -19.57368442294694 -16.606558837925153 0 0 0 0 -28.737211435787913 -23.356964838330359 0 -23.356964838330359 -11.293174206596118 0 0 0 0 -33.790453620604239 -16.184312433594641 0 -16.184312433594641 -54.065458152340057 0 0 0 0 -35.425230755805387 -39.964979529876473 0 -39.964979529876473 -2.3304318508216966 0 0 0 0 -16.485019330391879 8.1806313767364998 0 8.1806313767364998 9.4997660326811442 0 0 0 0 -35.593957250991252 -31.076120937986815 0 -31.076120937986815 -55.558513089810731 0 0 0 0 -89.215325206687965 -29.333929949102004 0 -29.333929949102004 -8.0518496616162327 0 0 0 0 -212.3175901947543 -67.225252058168735 0 -67.225252058168735 59.380237266514087 0 0 0 0 -43.686165522027295 1.7360851880139307 0 1.7360851880139307 -1.3089206796657891 0 0 0 0 -69.480661863883142 -153.18877912263065 0 -153.18877912263065 162.84903692705646 0 0 0 0 -31.346217530268405 -98.48311802874494 0 -98.48311802874494 -37.142905096399545 0 0 0 0 -41.347729868335591 -115.83942378258962 0 -115.83942378258962 123.19337740710944 0 0 0 0 -40.335882529037917 -20.95947831145574 0 -20.95947831145574 136.47510245900855 0 0 0 0 -75.008651375528132 -13.936615853895734 0 -13.936615853895734 3.1553551988841679 0 0 0 0 -73.005316202560834 -25.568036571603447 0 -25.568036571603447 95.803662967312448 0 0 0 0 -81.651950854452195 -26.088827143511029 0 -26.088827143511029 -6.1576061348069011 0 0 0 0 -73.087570548232179 -21.061661948779147 0 -21.061661948779147 34.456594309737056 0 0 0 0 -43.003235567866454 -33.386385016796687 0 -33.386385016796687 39.096552126764436 0 0 0 0 -145.62302089324658 -191.61974942968817 0 -191.61974942968817 369.72680194650565 0 0 0 0 -50.847082179352583 -74.492192522120718 0 -74.492192522120718 69.502513189247793 0 0 0 0 -333.68180260905501 -97.674553270084346 0 -97.674553270084346 120.92685811408569 0 0 0 0 -451.1630041003009 -275.17700696791326 0 -275.17700696791326 -216.11259061111468 0 0 0 0 -87.147056842753955 -38.753010969256366 0 -38.753010969256366 -66.037692124905334 0 0 0 0 -42.3216740380376 -48.490981119893263 0 -48.490981119893263 -182.62955558988324 0 0 0 0 -101.57832977838461 -196.85603192255107 0 -196.85603192255107 -57.610093297066442 0 0 0 0 -69.652669933901052 -161.8350478591542 0 -161.8350478591542 -605.22044952328861 0 0 0 0 -6.8921214417833596 -2.0599636460348929 0 -2.0599636460348929 -0.63038903935006385 0 0 0 0 -56.989209641753405 -54.710075100952736 0 -54.710075100952736 -29.650591478287083 0 0 0 0 -19.940800583619279 -3.6800317925578163 0 -3.6800317925578163 -0.32811111439949447 0 0 0 0 -8.2327796279278118 -54.629925136859129 0 -54.629925136859129 -262.03768909669725 0 0 0 0 -24.097349924366426 -71.35341197302273 0 -71.35341197302273 -139.44632055646616 0 0 0 0 -31.565150212814274 -6.1177482150657845 0 -6.1177482150657845 0.11358043349436397 0 0 0 0 79.882805885332345 46.893351395802256 0 46.893351395802256 55.72712088238768 0 0 0 0 -7.6013365491235163 -32.097004719585584 0 -32.097004719585584 141.40053488033936 0 0 0 0 -125.7022840503123 23.610826555433505 0 23.610826555433505 131.29910381143418 0 0 0 0 50.928363595794508 106.37720416318336 0 106.37720416318336 48.027741945529669 0 0 0 0 8.5252735456597293 65.682920859306705 0 65.682920859306705 141.12355080807259 0 0 0 0 26.034445623474312 60.289589946460637 0 60.289589946460637 39.994149456333105 0 0 0 0 40.180552738398546 67.596381926444337 0 67.596381926444337 -52.531689401217591 0 0 0 0 -14.782052189701318 2.4273013738788798 0 2.4273013738788798 -1.0576113455824441 0 0 0 0 -15.173381397915648 -0.31459239790694404 0 -0.31459239790694404 -1.3598565443958064 0 0 0 0 4.0133215471869335 4.3440559556902372 0 4.3440559556902372 -24.145950220625309 0 0 0 0 -41.379263834198355 116.33061813467066 0 116.33061813467066 22.202027588422425 0 0 0 0 -128.23780099119176 159.56760074150463 0 159.56760074150463 -135.23700027110453 0 0 0 0 -729.99338261214871 -12.42294072348659 0 -12.42294072348659 49.078345104569962 0 0 0 0 -14.653251985670067 1.7521136654022484 0 1.7521136654022484 -25.875253215830526 0 0 0 0 -61.525329298441648 197.57101158798196 0 197.57101158798196 275.30056122267888 0 0 0 0 21.807131595887768 82.560573584519489 0 82.560573584519489 164.47242843548065 0 0 0 0 -55.039300828895648 145.55784809226861 0 145.55784809226861 89.907953002651993 0 0 0 0 25.379161521603237 143.55953943226632 0 143.55953943226632 -45.390429228413154 0 0 0 0 -283.83182254184248 -239.85779332035656 0 -239.85779332035656 231.66881977445928 0 0 0 0 40.197271101773367 -42.992522891986937 0 -42.992522891986937 37.544738151954334 0 0 0 0 -40.885895994988459 43.153218443758021 0 43.153218443758021 -53.955260258677299 0 0 0 0 82.738161780376686 189.89974173605697 0 189.89974173605697 -2.4866498881192456 0 0 0 0 25.814090148938703 273.00411602084932 0 273.00411602084932 122.32957980478272 0 0 0 0 -1951.7543778492036 435.69413465503021 0 435.69413465503021 -837.2156206056743 0 0 0 0 -959.48877134226495 2068.6735221753534 0 2068.6735221753534 -451.64445880405765 0 0 0 0 -9.4226388315363181 -0.16356826677511549 0 -0.16356826677511549 0.80621385909675247 0 0 0 0 -221.96500578150517 362.07624825228868 0 362.07624825228868 -907.58500577755331 0 0 0 0 1564.0667657359045 -3111.1521870505371 0 -3111.1521870505371 -3378.1159203562493 0 0 0 0 -27.274461948798631 2.0605460812042411 0 2.0605460812042411 -0.92169773416013245 0 0 0 0 -22.144835565622571 1.4832841948689399 0 1.4832841948689399 0.6204598502892722 0 0 0 0 -82.019303155131638 -5.9143131798668946 0 -5.9143131798668946 12.926330088273971 0 0 0 0 575.77084824554913 -736.80733898615972 0 -736.80733898615972 932.65918006388392 0 0 0 0 63.281904971387121 -52.47555672202634 0 -52.47555672202634 -434.66759811474003 0 0 0 0 -186.38404014351545 297.51529186726293 0 297.51529186726293 -626.13158371642385 0 0 0 0 -57.713426049376721 41.53153117124657 0 41.53153117124657 -314.69114314437684 0 0 0 0 -532.06220693051728 152.78400021334983 0 152.78400021334983 -96.710035371750564 0 0 0 0 -1333.3648054437072 658.73911937541925 0 658.73911937541925 -400.99891951618338 0 0 0 0 -129.82056381784059 2.7370625025323534 0 2.7370625025323534 18.142969392977648 0 0 0 0 -26.240531087089039 66.847788760208914 0 66.847788760208914 -211.82776794327697 0 0 0 0 11.077692411468888 -62.665367985815465 0 -62.665367985815465 -216.23046519507261 0 0 0 0 -4.5546020133042475 65.327936347914147 0 65.327936347914147 -304.07911559452987 0 0 0 0 -83.570143315351743 30.046151774181453 0 30.046151774181453 -297.4499072029339 0 0 0 0 -187.22218284080009 -29.464913696438998 0 -29.464913696438998 -405.0612442279853 0 0 0 0 -106.7633288416182 -125.67841123441531 0 -125.67841123441531 -295.17349913980979 0 0 0 0 -353.27746438137547 -243.1900055473352 0 -243.1900055473352 -293.13614326353854 0 0 0 0 9.0714642385646584 -186.55289075175551 0 -186.55289075175551 -358.2791628357445 0 0 0 0 -423.44494206300442 -193.39509542667929 0 -193.39509542667929 -285.11502156758252 0 0 0 0 -297.13406489096087 -268.40531479525453 0 -268.40531479525453 -280.2416126583521 0 0 0 0 -293.48504088429763 -280.10181670227576 0 -280.10181670227576 -441.28401875311829 0 0 0 0 -144.61951013685305 -14.442672625491745 0 -14.442672625491745 44.470184490409913 0 0 0 0 -337.80003806718742 -14.827334410811545 0 -14.827334410811545 24.96326589768023 0 0 0 0 -75.523509339676821 -160.51007319199289 0 -160.51007319199289 -571.39776552027797 0 0 0 0 -146.50369359270903 -15.481172291712546 0 -15.481172291712546 45.779950255398425 0 0 0 0 -368.34964360814047 -32.628578865313557 0 -32.628578865313557 -527.871974202415 0 0 0 0 -214.16628602612764 -169.73848503546378 0 -169.73848503546378 -553.89684016185674 0 0 0 0 -95.374112828583748 -120.37884931789949 0 -120.37884931789949 -643.49157156632828 0 0 0 0 -171.21627974158037 -170.94036572153254 0 -170.94036572153254 -357.6663653471187 0 0 0 0 -309.67104491873761 -352.85648175039114 0 -352.85648175039114 -320.06030070411725 0 0 0 0 -214.15306423930451 -206.15349339595787 0 -206.15349339595787 -322.11415672131625 0 0 0 0 41.702093256797525 -176.19420609647023 0 -176.19420609647023 -366.99040114945205 0 0 0 0 -65.404578865411167 -404.89429852133981 0 -404.89429852133981 -123.38304938638066 0 0 0 0 -82.143885741432314 -39.240794507186365 0 -39.240794507186365 86.333023267598946 0 0 0 0 -205.49053719202493 -326.65815944918819 0 -326.65815944918819 497.33965339062456 0 0 0 0 -264.56985195878951 -176.70740647937737 0 -176.70740647937737 -7.1841684190258093 0 0 0 0 315.03515465604141 -112.00150348291754 0 -112.00150348291754 -6.581229350886133 0 0 0 0 -319.36678218904126 -390.71566496001515 0 -390.71566496001515 231.85216183682951 0 0 0 0 -459.24680175937829 51.185698617458456 0 51.185698617458456 948.67688571800409 0 0 0 0 226.15379677328747 370.22196831165479 0 370.22196831165479 -221.7450200551757 0 0 0 0 -109.1551516772015 267.24649683322104 0 267.24649683322104 593.94552530392582 0 0 0 0 -33.421434096453595 -1.2623208486456861 0 -1.2623208486456861 4.6763794771586618 0 0 0 0 203.8418264605134 -47.433644660053687 0 -47.433644660053687 -457.52212892533953 0 0 0 0 -4.4108763339514496 0.90700467848108701 0 0.90700467848108701 -0.22230982492277107 0 0 0 0 -222.10358414582879 219.73677616102304 0 219.73677616102304 -240.35872938864122 0 0 0 0 -6.5772108093438248 -3.7198374382101278 0 -3.7198374382101278 0.47455025397219552 0 0 0 0 -388.56674993783236 238.90131343236317 0 238.90131343236317 -20.483618239743919 0 0 0 0 -3474.1360242214359 1301.3449814261553 0 1301.3449814261553 -178.92444478458421 0 0 0 0 -5492.2719412776714 317.96083474054365 0 317.96083474054365 1018.5886756338417 0 0 0 0 -308.64228106007067 79.907846091764043 0 79.907846091764043 -16.419167498900904 0 0 0 0 -352.33055525936652 447.48395434161921 0 447.48395434161921 -671.10966331346924 0 0 0 0 -451.74238220982443 -282.27332302467283 0 -282.27332302467283 -167.98823073860854 0 0 0 0 -14.81354726067601 0.77107420612260569 0 0.77107420612260569 7.09813573109603 0 0 0 0 -282.0386279142549 -355.37722406632088 0 -355.37722406632088 -551.52717753272304 0 0 0 0 -19.308587869304432 8.2936036022534267 0 8.2936036022534267 -7.500241644542303 0 0 0 0 -154.76632491203782 334.75720647438652 0 334.75720647438652 -1028.1571941014431 0 0 0 0 -5491.1699898339211 -408.98833198788293 0 -408.98833198788293 457.29974056496724 0 0 0 0 -3759.535416778017 -1680.2238044281487 0 -1680.2238044281487 153.50917829193781 0 0 0 0 -15.495927060862069 1.914678429776913 0 1.914678429776913 9.3996550417455857 0 0 0 0 -287.90406613267987 -414.81838875270893 0 -414.81838875270893 -744.26847813708082 0 0 0 0 -4507.6761220381522 -101.81906157872022 0 -101.81906157872022 247.03141790946361 0 0 0 0 -5975.4878844452105 1218.4147109474463 0 1218.4147109474463 170.37816593572592 0 0 0 0 -5503.895010848908 87.787311211187784 0 87.787311211187784 -841.65033992944029 0 0 0 0 -81.814071324115503 -31.500401721784868 0 -31.500401721784868 -60.598534129899768 0 0 0 0 -72.726435942324542 -30.318039343918983 0 -30.318039343918983 -16.927714918321378 0 0 0 0 -7504.2145768476767 -987.67689212028813 0 -987.67689212028813 140.86676021112038 0 0 0 0 -4.3022854763751184 -5.7298184218072699 0 -5.7298184218072699 -1.8447521707245367 0 0 0 0 -111.40983604171197 -57.79855691325065 0 -57.79855691325065 23.090233488195736 0 0 0 0 -82.325727564882584 -16.656554763035381 0 -16.656554763035381 -7.5606868038637405 0 0 0 0 -83.904160787249566 -2.7398112713572118 0 -2.7398112713572118 -3.7610691380459684 0 0 0 0 -67.339991018423461 -5.7238973426101438 0 -5.7238973426101438 -19.469927869363346 0 0 0 0 -428.51523619061481 131.39132264465056 0 131.39132264465056 304.70702594407078 0 0 0 0 -83.297752950937138 -18.271328134448595 0 -18.271328134448595 -26.366265032136653 0 0 0 0 -90.938550923077855 -11.303826720975394 0 -11.303826720975394 -13.143662836037947 0 0 0 0 -31.955505490670561 -15.621942186319941 0 -15.621942186319941 -29.337187777834927 0 0 0 0 -54.012648132226815 13.980699501673726 0 13.980699501673726 9.2811816320081792 0 0 0 0 -276.8879792173102 -93.610401135787413 0 -93.610401135787413 52.875833619600598 0 0 0 0 -225.40435125538897 -306.90131535110743 0 -306.90131535110743 -245.110218394654 0 0 0 0 -65.728868103475918 -0.45713893607486877 0 -0.45713893607486877 0.57908160951743382 0 0 0 0 -69.638618299726659 -15.390204581173293 0 -15.390204581173293 -16.907518501679988 0 0 0 0 -65.144451348462979 0.69905865273675261 0 0.69905865273675261 3.5462994388126869 0 0 0 0 -469.62517523414135 -66.283208217402404 0 -66.283208217402404 -3.9036767760708244 0 0 0 0 -279.00533817124233 -58.351231734740622 0 -58.351231734740622 -149.62283581627003 0 0 0 0 -1150.9232617789239 -140.27608179543131 0 -140.27608179543131 54.099823173168261 0 0 0 0 -103.57739769686179 -23.958240829548721 0 -23.958240829548721 6.75059860905374 0 0 0 0 -405.24502200911229 72.044765218935481 0 72.044765218935481 -280.57834314169463 0 0 0 0 -309.49692973127821 92.115556567713725 0 92.115556567713725 74.275809663540542 0 0 0 0 -43.102120363460926 -120.97785320211216 0 -120.97785320211216 -351.38538036253169 0 0 0 0 -0.74459245871196345 1.112125272843798 0 1.112125272843798 -1.3191993997768878 0 0 0 0 -90.214593770760985 -262.99538726627077 0 -262.99538726627077 -356.28671634352258 0 0 0 0 -49.41893895965768 53.64474484126481 0 53.64474484126481 -213.60387677995686 0 0 0 0 -10.764905238297786 -1.4052813653317031 0 -1.4052813653317031 -0.76314833583293407 0 0 0 0 -10.471613781872762 2.3670093830160681 0 2.3670093830160681 -5.4036807143432268 0 0 0 0 44.714000648775254 100.69837854677053 0 100.69837854677053 -13.034234076705616 0 0 0 0 -136.45652645626978 20.636355076039763 0 20.636355076039763 -14.492827584637325 0 0 0 0 40.819425459476406 -15.931180025518817 0 -15.931180025518817 -38.447745191334889 0 0 0 0 -166.37005994328501 102.59895110115076 0 102.59895110115076 -127.52105463129101 0 0 0 0 -308.36685044041224 163.00322698776881 0 163.00322698776881 -22.778871829629452 0 0 0 0 -367.2440274863402 281.33306925820807 0 281.33306925820807 -171.09678470249401 0 0 0 0 -292.85885108337607 208.22566003951749 0 208.22566003951749 -108.94380254277212 0 0 0 0 -330.02195616201789 212.56208095106814 0 212.56208095106814 -109.43251453402581 0 0 0 0 -295.87624222592422 229.82242919247471 0 229.82242919247471 -121.75335234583167 0 0 0 0 -293.9378322736593 168.41199941437702 0 168.41199941437702 -198.46598441171875 0 0 0 0 -477.98928462133335 48.172745990491137 0 48.172745990491137 -112.2632256168589 0 0 0 0 -459.25741692959127 15.278750455950139 0 15.278750455950139 -54.864231318405928 0 0 0 0 -535.41723476974585 3.059175010740546 0 3.059175010740546 -51.662095713230315 0 0 0 0 -104.49105575798956 -31.037082650939155 0 -31.037082650939155 4.5527806364829342 0 0 0 0 -544.8980120132037 -9.8612182838440106 0 -9.8612182838440106 -67.297404420913267 0 0 0 0 -738.6838584774523 166.0847724228297 0 166.0847724228297 -5.6186255454413185 0 0 0 0 -368.49700350147032 339.98440393108797 0 339.98440393108797 5.26034051142768 0 0 0 0 -103.15918605266668 -20.842191262246381 0 -20.842191262246381 3.9353883971789276 0 0 0 0 -264.52785563041834 171.27879001584006 0 171.27879001584006 -443.14887596345216 0 0 0 0 -649.40769034728874 45.958781253861105 0 45.958781253861105 46.400084658066447 0 0 0 0 -222.41303588541996 31.477779308479519 0 31.477779308479519 21.637956889269788 0 0 0 0 -394.1227959255084 143.94380616738573 0 143.94380616738573 90.828820122964203 0 0 0 0 -338.20128176254366 243.68704664333973 0 243.68704664333973 -47.943559016408926 0 0 0 0 -393.41449927668145 139.81578471287207 0 139.81578471287207 -16.468164662886466 0 0 0 0 -336.75029172360519 109.45723743096971 0 109.45723743096971 108.50127840265384 0 0 0 0 -330.9376718530184 91.427085356247431 0 91.427085356247431 298.88902088397094 0 0 0 0 -72.753168918416861 -20.741263110532607 0 -20.741263110532607 4.4230311395403215 0 0 0 0 -41.897233495152648 -32.995884819342614 0 -32.995884819342614 -2.5904413546358165 0 0 0 0 -52.208435256034136 9.2111004496837268 0 9.2111004496837268 335.74345032657038 0 0 0 0 -115.83970839585527 125.48706971149579 0 125.48706971149579 104.89643060519614 0 0 0 0 -193.80035962903639 -137.32170681881149 0 -137.32170681881149 434.75924839152265 0 0 0 0 -60.196192980374462 70.355050286392995 0 70.355050286392995 51.350315993350321 0 0 0 0 -405.66829854244861 228.73062354335394 0 228.73062354335394 -33.894177097872216 0 0 0 0 -262.15487015581311 -89.227877424068879 0 -89.227877424068879 -21.010172637796131 0 0 0 0 -683.35717536434822 90.273306729920932 0 90.273306729920932 -61.259708369377677 0 0 0 0 -415.47902440475445 123.57244051321845 0 123.57244051321845 -131.37230771381087 0 0 0 0 -521.43732768870541 272.40747453190488 0 272.40747453190488 -338.97184487395452 0 0 0 0 -757.79089707466483 -162.12918474581124 0 -162.12918474581124 32.098912464161003 0 0 0 0 -627.76035541235615 -104.27936619791944 0 -104.27936619791944 -393.15458670016119 0 0 0 0 -510.043819386623 190.77337863333389 0 190.77337863333389 -146.58371097140662 0 0 0 0 -323.73112518983544 64.576717451283912 0 64.576717451283912 -176.597820066856 0 0 0 0 -869.36267582838263 571.23791811058106 0 571.23791811058106 -603.15766278289539 0 0 0 0 -946.48248386432533 -52.939957957445586 0 -52.939957957445586 237.72154229676562 0 0 0 0 -1099.9845335944628 107.68268435039545 0 107.68268435039545 110.94350074340514 0 0 0 0 -1665.6087443027936 233.53008844468059 0 233.53008844468059 -697.49128762278269 0 0 0 0 -20.017346723284675 3.2205932555735211 0 3.2205932555735211 0.016449197928469772 0 0 0 0 -3.5665858252614271 1715.4579860039198 0 1715.4579860039198 -477.41517021509731 0 0 0 0 -27.612729456751651 13.977552497010386 0 13.977552497010386 -6.2510757324409507 0 0 0 0 -1522.1279854921886 -855.91831962937886 0 -855.91831962937886 224.12285523786431 0 0 0 0 153.89864966621099 -421.19876824249332 0 -421.19876824249332 -116.13529999342791 0 0 0 0 -407.6628806960216 154.62268163802469 0 154.62268163802469 1237.3205171704865 0 0 0 0 -64.035754581935436 32.69322712822845 0 32.69322712822845 -13.807853959747352 0 0 0 0 -27.189482515103009 28.876365945279758 0 28.876365945279758 50.669713891951687 0 0 0 0 3.369669502688339 -192.65937414578502 0 -192.65937414578502 -1141.4592691084536 0 0 0 0 -531.18876877658931 -1037.8866828565212 0 -1037.8866828565212 239.97069966795061 0 0 0 0 -5.8924869225138536 -205.19859002614476 0 -205.19859002614476 -344.5718503653261 0 0 0 0 -100.51701159864024 -345.03567727277141 0 -345.03567727277141 133.67899143992082 0 0 0 0 -54.874574802124698 -175.31994068374456 0 -175.31994068374456 78.084639078301734 0 0 0 0 -17.694050623489602 -100.74800517479252 0 -100.74800517479252 128.68461865410049 0 0 0 0 -33.216043685592012 -82.750437477273408 0 -82.750437477273408 83.115375169436447 0 0 0 0 -142.94267352312454 -126.78160969385499 0 -126.78160969385499 86.054536398148684 0 0 0 0 -334.47190954923281 101.84704146395507 0 101.84704146395507 -25.066018603582052 0 0 0 0 -20.195998660579789 -156.27995117945648 0 -156.27995117945648 61.737792600219109 0 0 0 0 -50.355404447072942 -178.02501317759538 0 -178.02501317759538 65.03083171785147 0 0 0 0 -7.5543645255597625 -4.0266408909898956 0 -4.0266408909898956 -0.77846456617423954 0 0 0 0 12.750925534139242 -194.47576619821962 0 -194.47576619821962 26.435923435122277 0 0 0 0 51.519383575709071 -146.10402569237044 0 -146.10402569237044 27.10334189697187 0 0 0 0 -17.684885022550588 -195.3460872936339 0 -195.3460872936339 42.259020370930557 0 0 0 0 -1.9654427638743073 -177.43977032842213 0 -177.43977032842213 60.906535081000129 0 0 0 0 3.8225108200567774 -206.87782522385805 0 -206.87782522385805 13.156203714906951 0 0 0 0 45.311658856880968 124.68105789378751 0 124.68105789378751 -69.231986714769391 0 0 0 0 -263.88298857478367 170.11045334775645 0 170.11045334775645 -238.69136096721343 0 0 0 0 -16.122017988745938 -21.478726223050671 0 -21.478726223050671 -174.68570238268967 0 0 0 0 -211.1507625760205 176.67921690811522 0 176.67921690811522 -158.13780848116858 0 0 0 0 -292.39684342177497 46.556664448033189 0 46.556664448033189 -219.26125234611442 0 0 0 0 -61.587914016516152 -52.474553718082575 0 -52.474553718082575 -30.498091491132982 0 0 0 0 286.07262013517902 17.865351263161983 0 17.865351263161983 -242.51387752707797 0 0 0 0 61.630109290046676 -66.56827946657836 0 -66.56827946657836 -203.54128306777397 0 0 0 0 -31.282041562313019 -27.626383271253999 0 -27.626383271253999 8.9285162587048905 0 0 0 0 -94.034732863859972 -37.619461863245078 0 -37.619461863245078 372.13781494451268 0 0 0 0 62.413095688614703 -90.335032987510431 0 -90.335032987510431 -17.885274792132115 0 0 0 0 -371.06507875031457 -157.90008679971152 0 -157.90008679971152 329.44852671651961 0 0 0 0 484.88569740885578 -403.34840636243666 0 -403.34840636243666 -349.59042011971593 0 0 0 0 1.198769688967964 0.33807255267733183 0 0.33807255267733183 -0.60009089071644084 0 0 0 0 47.448142537672538 -60.337207863493404 0 -60.337207863493404 -140.42527974685345 0 0 0 0 -299.28483029372842 -66.855772134543159 0 -66.855772134543159 114.45603865462454 0 0 0 0 -28.274525739403899 -38.481928559734484 0 -38.481928559734484 -6.6009826161488725 0 0 0 0 -175.05105911959117 -63.653884870602027 0 -63.653884870602027 61.504538857034277 0 0 0 0 311.52967381108101 347.78830324725857 0 347.78830324725857 -62.534871875913012 0 0 0 0 -262.31740106674988 90.367624375648347 0 90.367624375648347 88.240292831969782 0 0 0 0 339.86043505735142 -257.28952951254621 0 -257.28952951254621 -149.38840583424826 0 0 0 0 692.00608847792319 -192.18618647509652 0 -192.18618647509652 -343.49686037618267 0 0 0 0 -18.313397610673206 -40.829136625995361 0 -40.829136625995361 -18.44751255419845 0 0 0 0 -1581.7422905045096 249.24900869022827 0 249.24900869022827 48.255491795287298 0 0 0 0 -463.84871005421155 122.47223375612347 0 122.47223375612347 -166.66576887414524 0 0 0 0 -484.79140523003298 109.7319706733923 0 109.7319706733923 34.274531050613234 0 0 0 0 -1411.6707512636858 677.31187755935457 0 677.31187755935457 -213.59731290237966 0 0 0 0 -474.12650294323976 -87.47671452400877 0 -87.47671452400877 217.6542432308697 0 0 0 0 -266.89395037242139 12.050451737617976 0 12.050451737617976 -372.00873021843859 0 0 0 0 -3326.9497566317295 1397.9852842269577 0 1397.9852842269577 -101.60294137465249 0 0 0 0 -1322.1919290043661 743.27726202763506 0 743.27726202763506 -484.06525713081783 0 0 0 0 -1335.8054740409134 769.37465214991562 0 769.37465214991562 -331.04576225403991 0 0 0 0 -1945.0485284164643 255.04801154702926 0 255.04801154702926 70.293985579098035 0 0 0 0 -1563.3467520096892 428.03134532606271 0 428.03134532606271 -31.714973190620412 0 0 0 0 -5497.2094751143268 690.27841931057719 0 690.27841931057719 1087.9590746396977 0 0 0 0 -3498.4921230463005 1019.7214587533274 0 1019.7214587533274 417.34945338271677 0 0 0 0 -6148.8490053204296 1261.8917695146206 0 1261.8917695146206 454.98652810987755 0 0 0 0 -16.589711385207593 12.418839620062876 0 12.418839620062876 -11.251832159968643 0 0 0 0 -6770.5842540278754 -210.41093582787687 0 -210.41093582787687 150.7230940239925 0 0 0 0 -5502.7613702401904 824.91237530261174 0 824.91237530261174 -2593.8938628035621 0 0 0 0 -3497.396155095732 2576.9406732027815 0 2576.9406732027815 -994.60012967882142 0 0 0 0 -116.74272347182705 -320.32791449203614 0 -320.32791449203614 -530.3319425167432 0 0 0 0 -210.74358818611654 1491.9093179956217 0 1491.9093179956217 -1393.9484316678117 0 0 0 0 -43.297757204410942 28.744896634177266 0 28.744896634177266 -20.45466999377992 0 0 0 0 -3363.724110471172 -662.5210517039643 0 -662.5210517039643 210.69523916827544 0 0 0 0 -5810.7776189797478 -1976.5370883948729 0 -1976.5370883948729 -430.2787260917367 0 0 0 0 -5491.3956793588113 -2034.9116379423137 0 -2034.9116379423137 -1264.2319615123608 0 0 0 0 -15.206142494974372 0.15262485911143742 0 0.15262485911143742 1.877022945669903 0 0 0 0 -410.24168791779084 303.23338714921294 0 303.23338714921294 68.497272917511367 0 0 0 0 7.9944640956819057 -98.571103150389945 0 -98.571103150389945 -73.733866394791164 0 0 0 0 -31.0363891244142 -251.27277805768739 0 -251.27277805768739 -542.11644747715047 0 0 0 0 -2579.0803571219658 -634.39887994487424 0 -634.39887994487424 -45.950908659431661 0 0 0 0 -32.396097923643538 -48.049310828163186 0 -48.049310828163186 -30.649963551843257 0 0 0 0 -30.114402563975176 2.2632845431576207 0 2.2632845431576207 -10.125947458441441 0 0 0 0 -2120.2115348271 -987.72878470100875 0 -987.72878470100875 -522.81609859668299 0 0 0 0 -7.4789698117465235 8.2360881921840203 0 8.2360881921840203 -10.929988678540148 0 0 0 0 -3076.547334818868 -1396.0574630635972 0 -1396.0574630635972 -358.93537035027714 0 0 0 0 -6070.4265267482551 -2784.7252443011062 0 -2784.7252443011062 -998.11089603413632 0 0 0 0 -5501.2527872491992 -1335.0807405659518 0 -1335.0807405659518 791.06713482022963 0 0 0 0 -4008.693729808936 -280.4479397352157 0 -280.4479397352157 892.77416393193107 0 0 0 0 -3408.4942650601843 -141.87929811122001 0 -141.87929811122001 923.14140361714226 0 0 0 0 -3236.2619199291221 309.14145449732598 0 309.14145449732598 409.33847662926155 0 0 0 0 -1410.7928176159476 -388.89984635619203 0 -388.89984635619203 68.735725098322234 0 0 0 0 -2669.5469594272545 -1136.3287260274005 0 -1136.3287260274005 -284.49627873324732 0 0 0 0 -1996.7824431523331 -216.34944742555405 0 -216.34944742555405 178.2481251679601 0 0 0 0 -980.8384541242558 -818.64613995754451 0 -818.64613995754451 -179.06685135220562 0 0 0 0 164.87362176472379 -437.37391767686336 0 -437.37391767686336 -576.11660482606533 0 0 0 0 -97.373472510575084 -257.13031584779975 0 -257.13031584779975 21.333729290740621 0 0 0 0 -376.91243251687411 278.71239674562361 0 278.71239674562361 91.020035018897644 0 0 0 0 -775.61978736132278 156.27096017555152 0 156.27096017555152 -133.86423272441607 0 0 0 0 -336.06837422092212 -64.892807284713626 0 -64.892807284713626 -213.41235168214655 0 0 0 0 -1172.779360730914 191.36755267869583 0 191.36755267869583 -4.0372632796495509 0 0 0 0 -111.90314735809807 -167.67735690152085 0 -167.67735690152085 -107.06338274833752 0 0 0 0 354.30806659604059 113.89867854939297 0 113.89867854939297 -216.89494981099415 0 0 0 0 -205.62900687774163 3.1071055335506514 0 3.1071055335506514 24.348629598753632 0 0 0 0 -30.249112457472791 26.611873091982439 0 26.611873091982439 -36.334343029548187 0 0 0 0 40.090930417202799 265.30335799486687 0 265.30335799486687 71.159811405537084 0 0 0 0 -146.27284977011732 97.458756963558699 0 97.458756963558699 -24.935050343539842 0 0 0 0 -77.546836813380651 -42.265845003888899 0 -42.265845003888899 -86.443712261641394 0 0 0 0 -6.6911648662667176 -26.028364409148935 0 -26.028364409148935 -169.09927718386461 0 0 0 0 10.018618496023464 30.79334645220672 0 30.79334645220672 -176.60570963061764 0 0 0 0 6.8170843826069358 48.182502275633851 0 48.182502275633851 -93.737932341588021 0 0 0 0 -28.550219020536815 33.190466960464484 0 33.190466960464484 -42.476938778016809 0 0 0 0 -10.006376680045044 -27.404563659205252 0 -27.404563659205252 -61.897778557288063 0 0 0 0 -33.115315376060153 -35.167624080616484 0 -35.167624080616484 -86.630544610209881 0 0 0 0 -4.5750998230723781 -4.9140212366437481 0 -4.9140212366437481 -106.02235770948391 0 0 0 0 12.633985683685751 -28.809232965925389 0 -28.809232965925389 -86.697470521477044 0 0 0 0 6.6092230963367911 -75.209309808859985 0 -75.209309808859985 -170.3630540590184 0 0 0 0 -37.610347612202531 18.253152177542518 0 18.253152177542518 -75.622615493184526 0 0 0 0 -110.09999507042085 -75.812297780252266 0 -75.812297780252266 -81.189143864168727 0 0 0 0 -32.428175651989378 -30.31128725800523 0 -30.31128725800523 -49.732170086485603 0 0 0 0 -127.44454832984047 -68.73473341065619 0 -68.73473341065619 -17.42202704283045 0 0 0 0 -124.96672719550499 -10.64180158123612 0 -10.64180158123612 28.957275789689188 0 0 0 0 -110.25131716351461 -181.03319372776241 0 -181.03319372776241 -56.938261699467148 0 0 0 0 -68.2290356106123 131.90709291762323 0 131.90709291762323 -583.36828211228931 0 0 0 0 -5.8209226850849518 -259.79923871538449 0 -259.79923871538449 -465.25351677391882 0 0 0 0 -70.164556173724122 -75.575944397593048 0 -75.575944397593048 -249.20420172345257 0 0 0 0 -42.30619175171887 16.010849939473701 0 16.010849939473701 -214.14350431730509 0 0 0 0 -158.62148315024024 186.51918397623376 0 186.51918397623376 26.750952248581598 0 0 0 0 -19.0473717172422 12.495850206108685 0 12.495850206108685 -1.1436383702595236 0 0 0 0 91.350284500781413 -39.584036325549818 0 -39.584036325549818 -195.69023890760582 0 0 0 0 -22.508405793332528 -32.395199655696686 0 -32.395199655696686 -23.394507180379872 0 0 0 0 -82.806631007753253 36.809877571663392 0 36.809877571663392 -19.977820109410672 0 0 0 0 -93.567156893957872 -164.69853602802596 0 -164.69853602802596 114.0208934853049 0 0 0 0 -153.31776005252459 66.02235689946761 0 66.02235689946761 139.97259843959137 0 0 0 0 -131.5302551993791 -57.550295228472692 0 -57.550295228472692 -13.575692315615015 0 0 0 0 12.657232729415384 5.225924942806671 0 5.225924942806671 -6.2301868193387762 0 0 0 0 -677.5920343846301 147.86444375409519 0 147.86444375409519 -128.14028139794755 0 0 0 0 -66.951441609679023 -4.7990389126234732 0 -4.7990389126234732 -109.2141514645009 0 0 0 0 -532.56995240439937 -372.45167485889579 0 -372.45167485889579 -174.44307847747586 0 0 0 0 -110.5848912163965 -249.14316245823193 0 -249.14316245823193 -94.458306997221371 0 0 0 0 -329.38437480068387 -117.01408372962578 0 -117.01408372962578 33.970017352599825 0 0 0 0 -474.69823495638411 -390.50552369641809 0 -390.50552369641809 -49.971122544295213 0 0 0 0 -664.30076234832086 -136.9247161857129 0 -136.9247161857129 -13.577307368355832 0 0 0 0 -301.03553979731805 -233.43887026201992 0 -233.43887026201992 -91.389599422013816 0 0 0 0 -338.97509277282006 -213.66489188100468 0 -213.66489188100468 -53.345051518870605 0 0 0 0 -170.98780739901849 -50.18668253074361 0 -50.18668253074361 -41.769366426404304 0 0 0 0 -12.543711596104941 24.568395789451941 0 24.568395789451941 27.95054342081022 0 0 0 0 -823.25382948834886 341.93390825523966 0 341.93390825523966 104.58866523599863 0 0 0 0 -135.06135105088276 -4.8907181064643757 0 -4.8907181064643757 38.859000434886866 0 0 0 0 -278.09168933519686 -309.66081942878463 0 -309.66081942878463 -433.26728143429864 0 0 0 0 -31.28582094150579 400.75804811629376 0 400.75804811629376 241.55037808526907 0 0 0 0 -60.699098255921911 162.87052390679264 0 162.87052390679264 116.75490941609121 0 0 0 0 28.006455298644141 131.74408961239112 0 131.74408961239112 -126.18145386816673 0 0 0 0 -60.505906746311211 112.76572324710901 0 112.76572324710901 -34.026846874667172 0 0 0 0 -45.44692646624344 25.949220877005359 0 25.949220877005359 -200.2715986107321 0 0 0 0 -50.690117359372032 21.7543193237886 0 21.7543193237886 -9.3152364929831286 0 0 0 0 -34.242711460405161 10.479022664329541 0 10.479022664329541 -2.8732538305050923 0 0 0 0 -1168.7430264477407 127.23707590299637 0 127.23707590299637 1336.71235149731 0 0 0 0 -646.92657336516095 -1180.9128475681127 0 -1180.9128475681127 -1413.7503031776268 0 0 0 0 -608.09119829226256 718.51898340568914 0 718.51898340568914 1247.4001300532002 0 0 0 0 -267.71624090038677 309.84343533851279 0 309.84343533851279 450.39709329925245 0 0 0 0 -568.27687948843959 233.16161172043576 0 233.16161172043576 469.9846001781516 0 0 0 0 -825.28633455980162 168.50802176491015 0 168.50802176491015 340.53920621266661 0 0 0 0 -625.77373281244581 -10.045990932622772 0 -10.045990932622772 -41.802535659864589 0 0 0 0 -965.85092865885554 238.64117943811215 0 238.64117943811215 -343.10746794028455 0 0 0 0 -998.92392561849556 -94.842094841184007 0 -94.842094841184007 -50.504315893302191 0 0 0 0 -979.1096131083832 -93.911140951115158 0 -93.911140951115158 -51.799265404317339 0 0 0 0 -981.40445346225169 -261.691877571644 0 -261.691877571644 164.78429999880609 0 0 0 0 -1381.6455214561065 -509.75408942897775 0 -509.75408942897775 771.8404719496084 0 0 0 0 -1548.5170645500621 -1027.2648016321145 0 -1027.2648016321145 -472.14642872406694 0 0 0 0 309.8971512047865 87.348400768434658 0 87.348400768434658 -701.03082528576488 0 0 0 0 -411.02080578290042 53.764082404110013 0 53.764082404110013 -29.750342762050423 0 0 0 0 -890.89174168835598 -383.30666069240669 0 -383.30666069240669 -271.66662287529471 0 0 0 0 -715.41481049954746 -667.30091729087326 0 -667.30091729087326 -773.27936849911566 0 0 0 0 -2455.9591181228534 -1118.6740205799051 0 -1118.6740205799051 1510.1056212624826 0 0 0 0 266.4260891920203 900.30110926270936 0 900.30110926270936 -502.68187088337254 0 0 0 0 191.26565773497714 530.79923131214127 0 530.79923131214127 3867.5490401315983 0 0 0 0 94.252049313432508 969.95419448476423 0 969.95419448476423 41.173126725429029 0 0 0 0 -125.68141783640385 279.99876737770865 0 279.99876737770865 -2.205557262590446 0 0 0 0 -246.38592761847394 -1110.1773277912089 0 -1110.1773277912089 -3123.464465395271 0 0 0 0 921.43874336003501 2333.0076232809515 0 2333.0076232809515 -3416.1958527963943 0 0 0 0 -12.534450742133224 12.321808621282155 0 12.321808621282155 1.1086630657543921 0 0 0 0 -40.349477969935336 37.058867977134476 0 37.058867977134476 -27.961789959211437 0 0 0 0 -43.939753616888083 39.057136427719797 0 39.057136427719797 -37.56318643100667 0 0 0 0 162.46343203188007 711.80381114333795 0 711.80381114333795 530.21991249077837 0 0 0 0 -54.827982967781281 313.6531053560102 0 313.6531053560102 -291.30993817782291 0 0 0 0 -126.26261060997058 136.87428475031084 0 136.87428475031084 490.73846177180531 0 0 0 0 22.326429476917838 214.28899347324113 0 214.28899347324113 -8.5888097814013236 0 0 0 0 508.35458126227604 690.90370426350455 0 690.90370426350455 688.95829855853299 0 0 0 0 109.89779600216389 56.909556726995561 0 56.909556726995561 -266.26922247346374 0 0 0 0 8.0285773349460214 83.533498938125376 0 83.533498938125376 994.63031552734901 0 0 0 0 1096.2561263263706 251.05771963589723 0 251.05771963589723 542.86227513670383 0 0 0 0 -10.480999429738844 12.093451673743953 0 12.093451673743953 -3.5754548697245347 0 0 0 0 551.69466334991012 -267.07424033812458 0 -267.07424033812458 -127.51224578311667 0 0 0 0 345.19823711978006 427.03024429577124 0 427.03024429577124 -650.04468095484481 0 0 0 0 259.48338424519079 -18.925684092807046 0 -18.925684092807046 -659.6621236050305 0 0 0 0 -203.20398225127428 -139.74397358594433 0 -139.74397358594433 -171.55733037482878 0 0 0 0 -197.2402434155083 21.714378665767072 0 21.714378665767072 80.428003109527708 0 0 0 0 321.26787296192197 114.20503214674136 0 114.20503214674136 -577.67145286915911 0 0 0 0 126.34802130256503 271.49578729380414 0 271.49578729380414 -721.97200683050414 0 0 0 0 -24.87456820784784 23.251975527366973 0 23.251975527366973 -17.628647738957316 0 0 0 0 110.68476716241594 119.33266942925331 0 119.33266942925331 -692.24710923234761 0 0 0 0 200.15584668321117 100.89179075082247 0 100.89179075082247 -6.6733686678134259 0 0 0 0 -20.167594956458412 6.6519892973820998 0 6.6519892973820998 -0.36523354194191304 0 0 0 0 -44.069491933307461 39.642417880071179 0 39.642417880071179 -33.50940890065408 0 0 0 0 153.91738219093713 -21.553174676990068 0 -21.553174676990068 -5.3159675167585192 0 0 0 0 -62.679537566153158 34.927276264399751 0 34.927276264399751 -23.799778199304086 0 0 0 0 -59.546832747861345 76.882562670111369 0 76.882562670111369 -56.67164748628511 0 0 0 0 -12.027755452652869 4.272744637323191 0 4.272744637323191 -3.3119524159721401 0 0 0 0 -53.481553824182583 111.84277367133549 0 111.84277367133549 -68.326865528078088 0 0 0 0 -81.44780051635621 141.69438851731212 0 141.69438851731212 92.815504518577654 0 0 0 0 -9.4517089517695005 20.083445168475176 0 20.083445168475176 21.149442554137494 0 0 0 0 -80.12023119039668 38.879370520230623 0 38.879370520230623 -22.39343841583468 0 0 0 0 -72.16806685028223 17.642616753671518 0 17.642616753671518 -24.10372025574452 0 0 0 0 46.947116882038245 95.062382516462321 0 95.062382516462321 -46.622180202287211 0 0 0 0 -62.858571624473178 28.560626892844351 0 28.560626892844351 -17.034357494593188 0 0 0 0 -161.88280901844337 216.14851130652499 0 216.14851130652499 99.408750445371595 0 0 0 0 34.180065362861114 23.184849118167598 0 23.184849118167598 -203.46516898388677 0 0 0 0 -48.552100127757257 12.462913924921519 0 12.462913924921519 -9.5706044770770973 0 0 0 0 -51.692258136427427 11.356262440353589 0 11.356262440353589 -22.300259762618225 0 0 0 0 -40.359296840244099 -5.8530699489182965 0 -5.8530699489182965 0.72508248772781236 0 0 0 0 -108.16763657279034 -53.656203509500301 0 -53.656203509500301 52.344597741618855 0 0 0 0 -46.725966000832159 17.948085620953975 0 17.948085620953975 -27.474109836704542 0 0 0 0 60.286429935011711 -18.930072592770983 0 -18.930072592770983 -93.109551501964461 0 0 0 0 100.38240301479345 -107.40345197306885 0 -107.40345197306885 -132.54977322049115 0 0 0 0 240.97165694284786 69.521189822461878 0 69.521189822461878 -135.33100266181208 0 0 0 0 96.967176052688728 -141.64489866264643 0 -141.64489866264643 -251.94759950988345 0 0 0 0 -314.71271796995279 -150.35198194437453 0 -150.35198194437453 -66.376153707464482 0 0 0 0 -552.0871537237457 355.22347798588703 0 355.22347798588703 -306.75730211394625 0 0 0 0 -304.14648266484733 -515.87761153052702 0 -515.87761153052702 174.46078540463026 0 0 0 0 -413.64424541298104 75.24955864299659 0 75.24955864299659 53.961298028545002 0 0 0 0 -0.37670758696713325 0.91177147938447767 0 0.91177147938447767 1.1240278502082526 0 0 0 0 -732.98901105902928 3.4133696346079887 0 3.4133696346079887 82.363287308973668 0 0 0 0 -61.490980232900768 698.66308357235869 0 698.66308357235869 -1071.6202952825577 0 0 0 0 -1493.9076792225001 852.24097791246732 0 852.24097791246732 -254.33400018408511 0 0 0 0 -868.08077754249848 249.06032105697994 0 249.06032105697994 -158.14995383310884 0 0 0 0 -2273.3071462575076 1458.0875869137494 0 1458.0875869137494 -482.36608347945429 0 0 0 0 -2833.6205574368396 1050.5421976637094 0 1050.5421976637094 247.39128531491389 0 0 0 0 -5494.6368742764535 2676.3540483161041 0 2676.3540483161041 2.8334370462218192 0 0 0 0 -674.01724125208739 1944.0925945265208 0 1944.0925945265208 -2921.5654685424647 0 0 0 0 -13.20931625748765 7.9295663832862173 0 7.9295663832862173 -6.4518350583345283 0 0 0 0 -5470.8228113991172 29.269611856259441 0 29.269611856259441 -6.758875977596694 0 0 0 0 -13.40803895790156 4.3420076728646535 0 4.3420076728646535 -3.2196897284329116 0 0 0 0 -78.907131008516444 -57.68868126178927 0 -57.68868126178927 -105.43746736038106 0 0 0 0 -7.5804463931055714 12.171803056789653 0 12.171803056789653 3.9864501097219209 0 0 0 0 -79.424087452519871 94.248873329366234 0 94.248873329366234 -2.1012827390109123 0 0 0 0 -57.450792868064909 10.195595542393614 0 10.195595542393614 -4.3166451532785697 0 0 0 0 -53.900091479499679 50.343491852018388 0 50.343491852018388 -16.075934690763368 0 0 0 0 -30.512671806386393 -1.0627078431144348 0 -1.0627078431144348 -5.362268983962986 0 0 0 0 -129.54710624921177 -17.627805193115378 0 -17.627805193115378 388.8587250493315 0 0 0 0 -688.96389678623746 663.56319256519191 0 663.56319256519191 -300.30283182706012 0 0 0 0 54.911238015374693 -1349.9198162750249 0 -1349.9198162750249 -1296.5831602477951 0 0 0 0 -8.8662105026908336 -5.2007265169368626 0 -5.2007265169368626 -4.8218472587879697 0 0 0 0 -5459.7955996502769 199.89066910861126 0 199.89066910861126 92.625526669250164 0 0 0 0 65.50825853731294 -179.16319904637976 0 -179.16319904637976 -109.54163595653472 0 0 0 0 122.3690894976753 -19.296544541403136 0 -19.296544541403136 40.000372352687918 0 0 0 0 -19.689952745487972 -142.35245826679966 0 -142.35245826679966 88.48986239966689 0 0 0 0 -170.89556754154 -286.12161828429134 0 -286.12161828429134 -84.595003269697372 0 0 0 0 72.730152771997382 -74.073269899633715 0 -74.073269899633715 -20.038930450636144 0 0 0 0 6.6972661645741027 -265.32402838272094 0 -265.32402838272094 -296.100480820455 0 0 0 0 -56.689499781748964 -94.45246498766852 0 -94.45246498766852 106.09067021033502 0 0 0 0 199.41685914582922 103.195462540981 0 103.195462540981 -219.28225413753097 0 0 0 0 64.761870654772792 172.41010809125865 0 172.41010809125865 176.25124350907879 0 0 0 0 4.6498822273203189 -7.9876699695591196 0 -7.9876699695591196 7.132938076787493 0 0 0 0 -80.80718107512439 -222.18269108177304 0 -222.18269108177304 -175.18963856673946 0 0 0 0 -274.13669826922705 136.95211145536649 0 136.95211145536649 476.51159895838708 0 0 0 0 66.61786249846773 -93.873943310140362 0 -93.873943310140362 13.86149751607843 0 0 0 0 -323.94082828384489 137.52438325821504 0 137.52438325821504 140.77109986877298 0 0 0 0 492.29023668993977 -223.07764984987512 0 -223.07764984987512 -688.78855881635786 0 0 0 0 0.89468710205494517 -4.2966100275891961 0 -4.2966100275891961 3.8214634494031179 0 0 0 0 -345.37382986398734 44.622955896393819 0 44.622955896393819 -257.93435871572683 0 0 0 0 -804.03268191189636 -128.54945240575717 0 -128.54945240575717 46.283439942407313 0 0 0 0 -1718.6266128316129 327.26175295463349 0 327.26175295463349 366.08531078870624 0 0 0 0 -1.8108836816555467 -1.7754455208657092 0 -1.7754455208657092 -6.3170796211405609 0 0 0 0 -28.394699673568539 -277.78398481750082 0 -277.78398481750082 -418.50186175695762 0 0 0 0 -45.43458590494447 75.376240311750621 0 75.376240311750621 390.96576521794123 0 0 0 0 60.756049058451026 -139.85448586648272 0 -139.85448586648272 -175.21133614850169 0 0 0 0 -99.900939941522665 -251.49323233080759 0 -251.49323233080759 235.29270787028145 0 0 0 0 -113.46216404057077 -27.148231999645077 0 -27.148231999645077 -173.65713926617445 0 0 0 0 -75.172808854807954 139.46633515330268 0 139.46633515330268 -460.82508467997616 0 0 0 0 -573.29455343155905 83.205025746853892 0 83.205025746853892 -116.69197559259192 0 0 0 0 -191.16056568115891 -31.20130082066089 0 -31.20130082066089 -82.537287565699444 0 0 0 0 -136.75058946098397 -88.538791814832621 0 -88.538791814832621 -139.50614029909048 0 0 0 0 -174.72173839021161 17.513864441836859 0 17.513864441836859 -57.113500399639634 0 0 0 0 -12.049715523477062 -117.73971368442471 0 -117.73971368442471 -134.27341035800237 0 0 0 0 -133.40127202067379 -145.41891770386428 0 -145.41891770386428 -107.72749288268005 0 0 0 0 -237.55263183524858 -202.74982445412445 0 -202.74982445412445 -67.891117121648676 0 0 0 0 -86.255138085326053 -240.84436656278785 0 -240.84436656278785 -60.408378503313543 0 0 0 0 -443.56811125406784 -52.020498835652234 0 -52.020498835652234 324.40861525007222 0 0 0 0 -143.48259120386993 -12.891430320606279 0 -12.891430320606279 43.071583899592625 0 0 0 0 -124.7086511872767 -142.05422387372982 0 -142.05422387372982 -490.71135215842787 0 0 0 0 -120.30559018030181 48.428250855448823 0 48.428250855448823 -295.04613613737092 0 0 0 0 -200.47342822369683 -81.434174450109822 0 -81.434174450109822 -353.57610887794544 0 0 0 0 -529.06100788924778 424.93956639015369 0 424.93956639015369 487.56315201210055 0 0 0 0 -54.277770304111073 -1.7040072702034195 0 -1.7040072702034195 88.166802443905908 0 0 0 0 -393.94928748554958 25.8554891014237 0 25.8554891014237 -148.2930128534972 0 0 0 0 -156.38197447772836 -55.202508022633083 0 -55.202508022633083 -153.04478305260454 0 0 0 0 -185.75827814161676 114.09957303855572 0 114.09957303855572 -211.32857623460222 0 0 0 0 -140.10715775899007 -10.18527935429908 0 -10.18527935429908 41.458809735874176 0 0 0 0 -343.64658539979428 -180.0043957892849 0 -180.0043957892849 -13.112154666130664 0 0 0 0 93.524690370547432 245.01432268830467 0 245.01432268830467 104.96889083722658 0 0 0 0 -134.68700040293379 -16.735319978405027 0 -16.735319978405027 40.884462885003103 0 0 0 0 -30.589047288277506 13.461231172052562 0 13.461231172052562 16.932074326734448 0 0 0 0 -50.586190341660767 -170.88798578633879 0 -170.88798578633879 129.07141729833438 0 0 0 0 345.60415785400073 586.27810480739811 0 586.27810480739811 -36.244007325665848 0 0 0 0 -1002.9146831452679 -1733.6364299160507 0 -1733.6364299160507 -140.26784920032253 0 0 0 0 -731.05954319187867 397.4998493567179 0 397.4998493567179 1390.2428611556923 0 0 0 0 -341.41774853990046 -660.85479215280714 0 -660.85479215280714 -628.66551706165183 0 0 0 0 -1245.1494070408171 -3.7697204060225431 0 -3.7697204060225431 117.92257192469032 0 0 0 0 -12.0577901572856 -7.2294031944254478 0 -7.2294031944254478 -3.058197305864141 0 0 0 0 -221.16768899497129 290.45399556872326 0 290.45399556872326 -428.75241871115622 0 0 0 0 132.22113828518377 -274.94891968119555 0 -274.94891968119555 35.814287645032891 0 0 0 0 -756.20741539362825 -1011.8494365884237 0 -1011.8494365884237 753.93191727660405 0 0 0 0 -1016.8936902130772 -449.01869704513479 0 -449.01869704513479 11.641967990519959 0 0 0 0 -75.523236750165779 -559.43100009065438 0 -559.43100009065438 -978.21000721748987 0 0 0 0 -189.7743755825586 -513.85193919367202 0 -513.85193919367202 -32.749538905708505 0 0 0 0 -139.42528464983297 280.70273837077639 0 280.70273837077639 -689.45752783213402 0 0 0 0 2.2635904157585998 -16.440886908547618 0 -16.440886908547618 9.2349161234382464 0 0 0 0 -53.885059933073876 -20.299886264800463 0 -20.299886264800463 -0.64187599093127634 0 0 0 0 -267.84325760419415 314.14917137564225 0 314.14917137564225 258.97219050448393 0 0 0 0 14.378616115982368 -416.78084564192397 0 -416.78084564192397 293.15194357721975 0 0 0 0 -2.9404706618336576 1.1179141752010029 0 1.1179141752010029 6.489729152103985 0 0 0 0 -59.274123963681575 -13.452695136130302 0 -13.452695136130302 18.906082399086412 0 0 0 0 -48.657613513017168 37.36160319575356 0 37.36160319575356 69.126187099846902 0 0 0 0 -121.34078274120293 134.95628319558182 0 134.95628319558182 -61.693008885461325 0 0 0 0 -64.866287321576237 -21.918863285851103 0 -21.918863285851103 26.748357118966624 0 0 0 0 -70.351633024596595 -32.10463844416563 0 -32.10463844416563 21.453374595285823 0 0 0 0 -713.22577385073964 384.1403474859967 0 384.1403474859967 86.11084646436575 0 0 0 0 -59.013915052255477 -25.603185657353656 0 -25.603185657353656 30.82003540922436 0 0 0 0 -73.211611578267025 -32.576519296678725 0 -32.576519296678725 18.667528490867198 0 0 0 0 -62.780021233298612 -28.31472899127516 0 -28.31472899127516 9.9087725901636077 0 0 0 0 -63.808366908097575 -33.325111505281491 0 -33.325111505281491 18.725087867251204 0 0 0 0 -1998.720041290715 -441.08013776239977 0 -441.08013776239977 -340.22189430444678 0 0 0 0 1.7268832389696627 -10.476509783523539 0 -10.476509783523539 -890.14337836617665 0 0 0 0 -325.9237894386315 715.17622042214452 0 715.17622042214452 -435.20771864706433 0 0 0 0 -682.54655360903075 -1197.7212755494186 0 -1197.7212755494186 -1383.5317505858525 0 0 0 0 -21.200110768794509 3.4981951344865436 0 3.4981951344865436 -9.2296715549438542 0 0 0 0 -75.602812273362815 -27.423817070362929 0 -27.423817070362929 -481.99574982693412 0 0 0 0 -2265.0854760479215 259.81907513871329 0 259.81907513871329 103.70433485472449 0 0 0 0 -601.64029679216037 196.43401962391545 0 196.43401962391545 390.68355316388079 0 0 0 0 -94.846275863734988 29.069668997726822 0 29.069668997726822 -3.8393443375927738 0 0 0 0 -573.33460523038593 -1011.2898607333009 0 -1011.2898607333009 -1215.6256285882928 0 0 0 0 -20.516669147769512 5.1307641304686591 0 5.1307641304686591 -1.5769981579497969 0 0 0 0 -495.74394710965862 196.33330689821742 0 196.33330689821742 501.86827362412657 0 0 0 0 140.00089364119049 525.22944470072616 0 525.22944470072616 489.62772452436184 0 0 0 0 -48.247395982265516 43.996182858782504 0 43.996182858782504 302.30032923072213 0 0 0 0 -486.54724488790089 15.984204239217433 0 15.984204239217433 372.77066353995542 0 0 0 0 -397.52826100336824 -38.623888562846332 0 -38.623888562846332 354.30934490944128 0 0 0 0 -508.35458943116737 -74.349739605242348 0 -74.349739605242348 230.77022615134592 0 0 0 0 -605.83887363529357 81.301864678381207 0 81.301864678381207 318.92222267244142 0 0 0 0 -595.02468755528389 -93.707152016834698 0 -93.707152016834698 258.19275603764072 0 0 0 0 -592.41792129362511 -143.97897979946038 0 -143.97897979946038 176.7538362844316 0 0 0 0 -638.25221116194734 -76.34783295582065 0 -76.34783295582065 200.21038118293654 0 0 0 0 -564.14701704657637 -56.074662035804067 0 -56.074662035804067 129.87984612547598 0 0 0 0 -531.85615046343446 -111.67045577802674 0 -111.67045577802674 211.5424097613477 0 0 0 0 -529.26542763092107 1.3994504213230243 0 1.3994504213230243 212.82174529183976 0 0 0 0 -390.05195841820387 -81.676388144005614 0 -81.676388144005614 261.78443534485996 0 0 0 0 -485.49132764255774 65.234111991998361 0 65.234111991998361 52.034973904988192 0 0 0 0 -602.59302933912477 -40.782832619755027 0 -40.782832619755027 194.26583062089594 0 0 0 0 -602.48319912262377 210.67700456889361 0 210.67700456889361 70.748396515584318 0 0 0 0 -391.44268239852681 58.489522402063812 0 58.489522402063812 147.5513155077997 0 0 0 0 -321.17282252887708 236.40574738253827 0 236.40574738253827 369.58767727680606 0 0 0 0 -69.874732791760835 -37.371166454459399 0 -37.371166454459399 48.416247777957778 0 0 0 0 -101.74813434194493 -41.960024187961608 0 -41.960024187961608 7.6453758773645859 0 0 0 0 -32.512824496517254 -16.725264792849124 0 -16.725264792849124 33.883549039023691 0 0 0 0 -603.60233285366121 11.093081139735659 0 11.093081139735659 89.632718609247689 0 0 0 0 -643.87600880804166 23.728719040753276 0 23.728719040753276 135.69378915162997 0 0 0 0 -41.362856056709333 -48.644372974517715 0 -48.644372974517715 16.069824508226372 0 0 0 0 -653.79038843652233 -138.16937636593684 0 -138.16937636593684 44.89587987768391 0 0 0 0 -445.34216813033072 -105.94840369243263 0 -105.94840369243263 138.04929900529896 0 0 0 0 -38.018036127657354 -8.5114950684374193 0 -8.5114950684374193 20.671397924908966 0 0 0 0 -612.79249309822626 -55.639945893729418 0 -55.639945893729418 193.45245271251224 0 0 0 0 -508.63502282180707 -79.713554172372824 0 -79.713554172372824 193.88086881470662 0 0 0 0 -63.040063381431537 -82.767580468725555 0 -82.767580468725555 114.56911881547421 0 0 0 0 -46.432231135277107 -68.566053831098088 0 -68.566053831098088 39.008874286440459 0 0 0 0 -48.969401260124563 -40.973189393041459 0 -40.973189393041459 40.109942772467733 0 0 0 0 -61.701791131333721 -42.123861512351709 0 -42.123861512351709 31.147895118484939 0 0 0 0 -99.509096607918764 -41.044141939943529 0 -41.044141939943529 39.46891847878851 0 0 0 0 -107.83626719206222 -41.56057844551674 0 -41.56057844551674 25.520821734152378 0 0 0 0 -101.5723981381152 -54.208419556364561 0 -54.208419556364561 27.964812857910601 0 0 0 0 -103.3703274299661 -19.110870901544686 0 -19.110870901544686 -2.9237164786568428 0 0 0 0 -95.706152002672297 -41.496711642015669 0 -41.496711642015669 4.1524708691686101 0 0 0 0 -107.14175082666952 -47.388061842361822 0 -47.388061842361822 5.7409706409703176 0 0 0 0 -68.147494790191104 -38.990905874525311 0 -38.990905874525311 6.5630843845383424 0 0 0 0 -38.324988722957656 -6.8160747071182906 0 -6.8160747071182906 19.654920268140838 0 0 0 0 -96.467889956100748 -34.247001625554311 0 -34.247001625554311 0.87508368505982226 0 0 0 0 66.647615217254497 -97.454197128666237 0 -97.454197128666237 -71.910500440493195 0 0 0 0 19.904479813654689 -135.87910014330106 0 -135.87910014330106 53.221144377768042 0 0 0 0 -14.798932691855768 -18.986903111468816 0 -18.986903111468816 11.9684036364521 0 0 0 0 229.91813018115135 19.094593340046799 0 19.094593340046799 -40.831824566665773 0 0 0 0 3.6217642041266771 -2.7312519391392911 0 -2.7312519391392911 2.2673460410279427 0 0 0 0 -87.093971881808102 -76.516119201647143 0 -76.516119201647143 11.669148180871389 0 0 0 0 -78.693170038527569 -20.930905827431936 0 -20.930905827431936 107.7333864033568 0 0 0 0 -259.96825930036357 -66.170658771213425 0 -66.170658771213425 -193.19573378177324 0 0 0 0 -261.03254854311308 -112.3934404177586 0 -112.3934404177586 9.3696554580899374 0 0 0 0 128.37522859288583 -299.83511763290664 0 -299.83511763290664 -13.142004978776413 0 0 0 0 -188.30195913367061 -28.194737695475681 0 -28.194737695475681 35.983100157781109 0 0 0 0 76.608060123502582 -123.62430852497084 0 -123.62430852497084 -83.77153506773152 0 0 0 0 -382.297579806871 -151.56188347741818 0 -151.56188347741818 54.712695451649324 0 0 0 0 19.719479411342036 -304.14301248071479 0 -304.14301248071479 144.02391169708795 0 0 0 0 -137.76132150678222 105.08811468722524 0 105.08811468722524 109.06291081766904 0 0 0 0 -97.962561297161741 -33.295390789224378 0 -33.295390789224378 -2.1044471702800074 0 0 0 0 -102.2245797986775 -30.711085477787378 0 -30.711085477787378 3.3266044979723119 0 0 0 0 -89.586561919125415 -54.194551110575276 0 -54.194551110575276 12.822593535056967 0 0 0 0 -268.7618133740034 -306.66347966220042 0 -306.66347966220042 369.68075112222459 0 0 0 0 -96.790979150867571 -31.946695970667058 0 -31.946695970667058 0.56150325769675646 0 0 0 0 -61.751726316979784 -145.49190062045687 0 -145.49190062045687 45.003290932210803 0 0 0 0 -425.92490769120559 222.17702105635476 0 222.17702105635476 15.180787764886873 0 0 0 0 -131.85566753712556 235.22813241714402 0 235.22813241714402 -103.10083822793467 0 0 0 0 -493.51742894098379 390.07094686512318 0 390.07094686512318 -315.98085718791572 0 0 0 0 17.253133066390056 40.950181284343635 0 40.950181284343635 -2.4460334405300017 0 0 0 0 142.34518805149105 -326.32731132384106 0 -326.32731132384106 -108.06030050731874 0 0 0 0 9.2296406298864611 2.3726305008817334 0 2.3726305008817334 -12.713085461419343 0 0 0 0 -231.75248493357503 -53.395920970642919 0 -53.395920970642919 -156.68037248726159 0 0 0 0 -996.79806390806334 224.81251029901068 0 224.81251029901068 -73.674616360578511 0 0 0 0 -527.84166116664937 -54.274306126244483 0 -54.274306126244483 75.258658937827931 0 0 0 0 -341.51643695037274 136.69569765188874 0 136.69569765188874 -20.056846288192901 0 0 0 0 -373.83679310194566 17.635208743738076 0 17.635208743738076 -439.46210889842359 0 0 0 0 -558.79391487631074 -43.958308997604945 0 -43.958308997604945 153.47057152841035 0 0 0 0 -694.03384516500955 412.26805644655161 0 412.26805644655161 -43.249910601323847 0 0 0 0 -576.1048145673567 329.43816039743643 0 329.43816039743643 -259.40717111326239 0 0 0 0 -649.91924699821993 361.2839472835355 0 361.2839472835355 -48.202370886564495 0 0 0 0 -339.38902320001216 281.46992125603833 0 281.46992125603833 -106.73540388984503 0 0 0 0 -640.11613765531183 45.632861381234932 0 45.632861381234932 242.93173104481616 0 0 0 0 -1255.8836117236028 -58.167947571814409 0 -58.167947571814409 304.17486759909173 0 0 0 0 -1268.6522953632802 1052.7795944156217 0 1052.7795944156217 -622.11734816469482 0 0 0 0 -11.777077392183365 -4.5452292479201546 0 -4.5452292479201546 -1.6482442115076306 0 0 0 0 -279.12684496708243 35.284365685163586 0 35.284365685163586 51.640089967876733 0 0 0 0 -271.25512746452523 69.135428464004406 0 69.135428464004406 -5.1737586821145669 0 0 0 0 -932.68374136274997 -528.09279846531786 0 -528.09279846531786 459.00405532920854 0 0 0 0 -135.93840470898544 -805.23682719655358 0 -805.23682719655358 438.03029460871869 0 0 0 0 -363.31743199962375 557.9712210762591 0 557.9712210762591 163.7612005319902 0 0 0 0 -114.12344690318923 419.73047277997932 0 419.73047277997932 -1562.2968560727713 0 0 0 0 -123.20473482166705 30.117288361358142 0 30.117288361358142 22.778277638073845 0 0 0 0 -401.98593100917765 -408.97335800802557 0 -408.97335800802557 461.20472829753163 0 0 0 0 -23.411265629525541 -18.135937790041098 0 -18.135937790041098 -32.155617530129355 0 0 0 0 -405.16643520415414 111.79821843122663 0 111.79821843122663 -193.41023503128508 0 0 0 0 -598.56923801719677 121.17850687939278 0 121.17850687939278 37.9285933640449 0 0 0 0 -612.58518157918297 206.83931797393973 0 206.83931797393973 -74.606150073389344 0 0 0 0 -100.59714720155716 -42.117084879746585 0 -42.117084879746585 -46.877160552524401 0 0 0 0 -106.80697077396326 -23.482025550739763 0 -23.482025550739763 -91.01097654599107 0 0 0 0 -109.56972114217704 29.053820692157174 0 29.053820692157174 20.878117197343965 0 0 0 0 -143.35230317040623 37.752236584654156 0 37.752236584654156 8.4657653104802648 0 0 0 0 -136.9664127806027 49.521083521076093 0 49.521083521076093 -76.064447326838376 0 0 0 0 -1046.746788995697 273.77255341069497 0 273.77255341069497 33.190687955781755 0 0 0 0 -5.0266975354538062 -10.012596274693998 0 -10.012596274693998 -18.327385354902475 0 0 0 0 -33.991748701451797 -58.430179286941893 0 -58.430179286941893 7.4103176822122805 0 0 0 0 -54.731064176532527 41.871889942597193 0 41.871889942597193 72.584414869900911 0 0 0 0 18.870564899676538 -166.36443425027119 0 -166.36443425027119 -74.888638161276958 0 0 0 0 133.480039133221 -147.6594520672719 0 -147.6594520672719 -111.52500677363423 0 0 0 0 -255.23139978205654 -97.765269780411472 0 -97.765269780411472 59.070032255791375 0 0 0 0 -335.86576609938857 5.5857505558911384 0 5.5857505558911384 -5.3675485401499827 0 0 0 0 -226.56783474529584 65.705652703319402 0 65.705652703319402 9.6136604671360146 0 0 0 0 -292.98842388150297 91.137608503867114 0 91.137608503867114 28.122997610305447 0 0 0 0 -307.39431675840751 107.22099185908451 0 107.22099185908451 13.198844746995292 0 0 0 0 -362.56073708971962 20.246204050091364 0 20.246204050091364 -23.192488574546587 0 0 0 0 -445.36922518352367 74.209200743224756 0 74.209200743224756 11.324059844031126 0 0 0 0 -335.10526923599173 176.92682090238986 0 176.92682090238986 -14.588876307349892 0 0 0 0 -448.11176670870918 148.52691536859356 0 148.52691536859356 -21.45401920989616 0 0 0 0 -592.38389574992107 15.887717666087156 0 15.887717666087156 -17.112196553758622 0 0 0 0 -364.53378741412598 -155.49031927247256 0 -155.49031927247256 -87.68228037451928 0 0 0 0 -502.83031510532328 -216.65508491909929 0 -216.65508491909929 -73.327072302758552 0 0 0 0 -366.33150192026005 23.786264089658289 0 23.786264089658289 -10.122216463830227 0 0 0 0 23.76308772642156 10.019487567332341 0 10.019487567332341 -15.941272140960319 0 0 0 0 -166.12260033213533 -69.857871563406661 0 -69.857871563406661 -197.97285573725594 0 0 0 0 -46.102644065203023 68.965997478086777 0 68.965997478086777 -6.3588713797520455 0 0 0 0 -202.92297113974564 53.672039868552019 0 53.672039868552019 -22.961721139923611 0 0 0 0 -195.99254271163204 -170.49686434083395 0 -170.49686434083395 -350.81276146512573 0 0 0 0 -210.04371433506458 -72.79954010936035 0 -72.79954010936035 -161.92238999199435 0 0 0 0 -186.50335653936145 -80.515179920898163 0 -80.515179920898163 -90.952802463691114 0 0 0 0 -180.05823133532249 38.368263561511867 0 38.368263561511867 37.064182932314907 0 0 0 0 -244.34481959197728 204.45486814886794 0 204.45486814886794 -3.2103962503898344 0 0 0 0 -323.51471653724002 204.97226797047824 0 204.97226797047824 -12.402403706770201 0 0 0 0 -226.15568444663586 207.81400034731428 0 207.81400034731428 -60.586269468797809 0 0 0 0 -322.56792592314741 184.08056555925305 0 184.08056555925305 -126.51709035339627 0 0 0 0 -262.32355945888958 216.7024068408943 0 216.7024068408943 -47.768825725025181 0 0 0 0 -307.38458958655974 160.66474927475389 0 160.66474927475389 -10.410686670623875 0 0 0 0 -254.96988582578706 164.73237430187237 0 164.73237430187237 -14.85891211079786 0 0 0 0 -1473.954285222917 -119.42368396025995 0 -119.42368396025995 -1211.3133763572368 0 0 0 0 -121.94132944018041 29.82468276862388 0 29.82468276862388 19.712688603511651 0 0 0 0 -636.99167460611716 -875.11849059736983 0 -875.11849059736983 -531.02999372324848 0 0 0 0 -454.56167027103947 381.01564762835187 0 381.01564762835187 -503.33927799742344 0 0 0 0 -9.5060435669370058 -2.9689849147370682 0 -2.9689849147370682 -0.69894925129683938 0 0 0 0 -986.31663522894996 570.29883963214024 0 570.29883963214024 -57.743437954131878 0 0 0 0 267.12103002837102 -660.8330330166641 0 -660.8330330166641 -972.27452549828104 0 0 0 0 -109.9151977379249 36.827220082457011 0 36.827220082457011 16.826106627461257 0 0 0 0 -622.85752883165333 -17.001221605542014 0 -17.001221605542014 -1286.1859684267602 0 0 0 0 -27.620735585599302 0.51821984737197013 0 0.51821984737197013 -4.0309515319048295 0 0 0 0 -3.4766046702679887 -194.84329032178221 0 -194.84329032178221 -902.29304103164941 0 0 0 0 -529.39861201641907 -378.71731558046849 0 -378.71731558046849 -324.00797335514744 0 0 0 0 -1037.863189970949 -788.65826390065104 0 -788.65826390065104 -686.42972418793397 0 0 0 0 -501.74662109759447 -340.80060302904803 0 -340.80060302904803 -314.54429099799745 0 0 0 0 -75.552328322984977 -148.48825902943372 0 -148.48825902943372 -1942.3693260968112 0 0 0 0 -137.53116517309172 8.0769110943056148 0 8.0769110943056148 -575.95363102882038 0 0 0 0 -18.784199229814156 -1.028046077740429 0 -1.028046077740429 0.37779449173591045 0 0 0 0 246.71125515103802 3.3859967861470182 0 3.3859967861470182 -681.88836145540336 0 0 0 0 -759.87250379403486 -31.637447522671209 0 -31.637447522671209 739.36708369490657 0 0 0 0 7.6270305681327955 9.4722662058179594 0 9.4722662058179594 -37.241061896081632 0 0 0 0 -33.365184979611513 -16.078628206699932 0 -16.078628206699932 79.732774090393377 0 0 0 0 30.767285528373122 13.198245412977485 0 13.198245412977485 -65.047560528348185 0 0 0 0 -105.37290912951221 174.70709122962535 0 174.70709122962535 -32.41960954221031 0 0 0 0 -176.06422037432367 76.40446774523673 0 76.40446774523673 257.66977709504187 0 0 0 0 -56.580381638741528 66.22869462330425 0 66.22869462330425 204.5749105813893 0 0 0 0 22.835304658914538 105.94287810863625 0 105.94287810863625 112.35301902992933 0 0 0 0 -457.41435706630273 -259.00480186316531 0 -259.00480186316531 86.869064104671452 0 0 0 0 -1145.572893771543 439.24006849698765 0 439.24006849698765 -119.75536975794876 0 0 0 0 -1507.3966439063024 -911.52600505228315 0 -911.52600505228315 -261.85409801488458 0 0 0 0 -723.40722637247381 161.31909518099565 0 161.31909518099565 49.668252725170532 0 0 0 0 -90.398735125920211 228.26310577489676 0 228.26310577489676 -442.0447359597506 0 0 0 0 -327.85335710699428 133.55734758994697 0 133.55734758994697 269.29795406799622 0 0 0 0 -293.60793961673153 120.88369849596484 0 120.88369849596484 53.02204375418907 0 0 0 0 -531.14278078001735 96.177336007636768 0 96.177336007636768 355.52245588232313 0 0 0 0 -187.73782465487784 -90.717738472489401 0 -90.717738472489401 411.95144984204677 0 0 0 0 -418.01287716901606 -463.38234082038014 0 -463.38234082038014 257.82262546036407 0 0 0 0 173.19451967688019 -268.52385453977911 0 -268.52385453977911 278.63818850105014 0 0 0 0 -211.19528561717925 -30.384663962473205 0 -30.384663962473205 634.21903106604327 0 0 0 0 -72.166514480842125 -356.12366410721449 0 -356.12366410721449 709.13254874964287 0 0 0 0 -278.44043922800597 78.949934605044533 0 78.949934605044533 422.52472518178405 0 0 0 0 -133.98201324154206 -129.51604577784096 0 -129.51604577784096 465.97467058013137 0 0 0 0 -503.17734549033139 326.47231352347319 0 326.47231352347319 391.07323762154715 0 0 0 0 -29.588373614060401 22.062109659979797 0 22.062109659979797 -149.93460264914063 0 0 0 0 -168.07135968721923 234.07957149028425 0 234.07957149028425 -179.2605407026881 0 0 0 0 236.67354327008252 146.06750369296378 0 146.06750369296378 -309.43358469695522 0 0 0 0 -607.94931410107529 300.80077615825815 0 300.80077615825815 -87.232931296243805 0 0 0 0 -475.48476113009747 359.76971586466789 0 359.76971586466789 -225.20528921192658 0 0 0 0 -608.51047627372554 294.18180507370926 0 294.18180507370926 -95.552152564714106 0 0 0 0 -33.171751935612214 -12.407744134010944 0 -12.407744134010944 -2.8923586705553817 0 0 0 0 -501.79864977466468 250.98504908542202 0 250.98504908542202 -69.194464959640754 0 0 0 0 -25.927018757383394 164.95307981568351 0 164.95307981568351 376.35961849350281 0 0 0 0 25.607568086520587 121.43218030500728 0 121.43218030500728 204.91639164164101 0 0 0 0 -131.77836236350868 16.505026356525121 0 16.505026356525121 326.74409910516056 0 0 0 0 -164.75066819152653 -47.885134331722952 0 -47.885134331722952 285.20999050745115 0 0 0 0 -38.657249828441081 75.140428739364467 0 75.140428739364467 299.38845780647921 0 0 0 0 -44.642441318329062 -19.206167671791214 0 -19.206167671791214 -0.78460909035662096 0 0 0 0 -5.1101267917503037 0.67439571485687444 0 0.67439571485687444 0.60769995494941353 0 0 0 0 -38.550911125461425 90.579815563879265 0 90.579815563879265 276.43968402578867 0 0 0 0 -98.94122703159519 57.309101747346858 0 57.309101747346858 391.31803865166876 0 0 0 0 26.105981002404974 -13.896164654012935 0 -13.896164654012935 52.756856208836439 0 0 0 0 -12.231445586924814 3.2603885165492987 0 3.2603885165492987 -0.01410425534374582 0 0 0 0 -46.891050887888468 61.995179800313025 0 61.995179800313025 215.03355362293789 0 0 0 0 -44.516131495203808 19.220554616133995 0 19.220554616133995 151.64090531383215 0 0 0 0 -16.008575613920325 5.4934515579768117 0 5.4934515579768117 -1.7059241520351003 0 0 0 0 -20.886480019332112 -15.608172460887406 0 -15.608172460887406 122.58355989375619 0 0 0 0 -4.1595440564360615 13.514922889926254 0 13.514922889926254 40.836204305715796 0 0 0 0 -28.175522940511478 -6.1146003615162048 0 -6.1146003615162048 8.148943438536568 0 0 0 0 -67.928419873457528 -21.350860501894658 0 -21.350860501894658 29.560554736024642 0 0 0 0 -26.868530269013213 -19.36967324874977 0 -19.36967324874977 17.717571702108106 0 0 0 0 7.2215728125553653 -53.294267906909226 0 -53.294267906909226 24.646393825032646 0 0 0 0 -5.9351072423860671 -33.791065157000958 0 -33.791065157000958 -3.5982979802811315 0 0 0 0 -14.508047515606222 -51.905427615030831 0 -51.905427615030831 26.984982447262382 0 0 0 0 -58.028694736874058 10.821767999316137 0 10.821767999316137 96.656298230652396 0 0 0 0 -7.9294443850482486 -6.0687649390395837 0 -6.0687649390395837 -2.1584594009570219 0 0 0 0 -12.581093581720779 47.256131158543255 0 47.256131158543255 150.23425334093184 0 0 0 0 -34.581026723770265 -0.078202529197142212 0 -0.078202529197142212 185.45275483028297 0 0 0 0 60.658538745303304 136.95905954455611 0 136.95905954455611 258.84510407058769 0 0 0 0 39.646065896835353 52.539660738004159 0 52.539660738004159 253.73776939528852 0 0 0 0 -66.285330873726707 226.86772007960872 0 226.86772007960872 235.94935151852769 0 0 0 0 -18.783261861187459 7.1308258564892917 0 7.1308258564892917 1.4786733949928088 0 0 0 0 23.43971653829658 23.740566451238138 0 23.740566451238138 17.048394637776141 0 0 0 0 51.360750421697958 503.98428262360358 0 503.98428262360358 -396.33612467925559 0 0 0 0 413.78335199729645 85.301492787761163 0 85.301492787761163 19.651212549716092 0 0 0 0 31.153625400023884 72.026329009815981 0 72.026329009815981 136.03215060694311 0 0 0 0 -50.662966433386828 62.109664720956971 0 62.109664720956971 251.66566718810645 0 0 0 0 -14.177776500486289 -3.8263487734193404 0 -3.8263487734193404 170.56615892510695 0 0 0 0 -16.978513058114913 92.653552913739077 0 92.653552913739077 229.15713587399705 0 0 0 0 30.264877941063332 52.660803870025006 0 52.660803870025006 21.898750006711452 0 0 0 0 68.534089658477569 123.28695973994115 0 123.28695973994115 200.67207497783329 0 0 0 0 -1.1134928007450071 44.797343029476451 0 44.797343029476451 262.6420930272609 0 0 0 0 -3.8081003116294596 140.34802016999924 0 140.34802016999924 377.87392891899663 0 0 0 0 486.37825531563453 1009.9894921124633 0 1009.9894921124633 -934.2558586985997 0 0 0 0 352.97254537157136 -301.38431430342735 0 -301.38431430342735 -47.946961250148888 0 0 0 0 -319.81512616793316 375.63512621261526 0 375.63512621261526 452.75563729192345 0 0 0 0 -259.06239727160573 217.1283467619055 0 217.1283467619055 -307.67943587938225 0 0 0 0 -44.052989377768043 25.741649508372582 0 25.741649508372582 -12.250155034103486 0 0 0 0 -406.67631922940564 944.45683402381746 0 944.45683402381746 920.84541016317962 0 0 0 0 -5.4494398862393503 2.162275237323481 0 2.162275237323481 -1.2318847366167596 0 0 0 0 -144.88259997019304 112.99702863468156 0 112.99702863468156 176.67572156823462 0 0 0 0 33.546170734940119 -410.45673114723445 0 -410.45673114723445 -479.10656346770338 0 0 0 0 -244.45394568907068 -76.591058597037772 0 -76.591058597037772 551.7163733692214 0 0 0 0 -265.26626418893375 -245.44641674955346 0 -245.44641674955346 332.64960006811816 0 0 0 0 -96.324717968086134 295.23643319796611 0 295.23643319796611 630.56695934059098 0 0 0 0 -4.7750853476460078 -2.4593807782721773 0 -2.4593807782721773 -1.8004041677088054 0 0 0 0 -135.80630561385374 -181.70379602500407 0 -181.70379602500407 -335.49784016148806 0 0 0 0 -338.9032292441608 -55.721808334246816 0 -55.721808334246816 273.06118543117009 0 0 0 0 75.6781961088152 195.60748561151104 0 195.60748561151104 177.66447712067747 0 0 0 0 -8.904566730532455 -5.7389880591658535 0 -5.7389880591658535 37.353419641587585 0 0 0 0 -20.166357939801507 2.8081806331024097 0 2.8081806331024097 6.0614425154056537 0 0 0 0 -20.530679244761814 -24.088842871672568 0 -24.088842871672568 61.934019181049962 0 0 0 0 -10.76957241539094 -57.276315001934563 0 -57.276315001934563 -33.691401879899786 0 0 0 0 -103.56982011611035 -244.09222151762197 0 -244.09222151762197 383.96307523280552 0 0 0 0 -10.900439895383357 2.7963169434625854 0 2.7963169434625854 4.8133636671048956 0 0 0 0 -2.6043571293926675 0.80778535910547333 0 0.80778535910547333 6.4109329469693996 0 0 0 0 252.95334568739872 -219.48818473015626 0 -219.48818473015626 -448.25856290650518 0 0 0 0 -73.127192629538811 -114.08859561294895 0 -114.08859561294895 -109.54474933254096 0 0 0 0 -60.863243290184073 44.613863043661695 0 44.613863043661695 29.163997271025892 0 0 0 0 -928.17760423878701 151.71321169057933 0 151.71321169057933 -191.56742549441151 0 0 0 0 -728.40929209211799 -232.20465161125503 0 -232.20465161125503 30.334650357611281 0 0 0 0 -5.3137028231447943 2.8763333306476841 0 2.8763333306476841 -1.6664142011427714 0 0 0 0 -1163.5980524857935 -439.86854951210125 0 -439.86854951210125 -147.32424754161275 0 0 0 0 -894.21640234363372 1154.0543331502058 0 1154.0543331502058 -282.11658771723557 0 0 0 0 -1969.3452220753557 801.19086597517594 0 801.19086597517594 121.41333538781146 0 0 0 0 -14.089090224028723 680.50457177461249 0 680.50457177461249 90.031156916325017 0 0 0 0 -795.26156949406868 -1017.9695957543056 0 -1017.9695957543056 -1251.6800980341736 0 0 0 0 -36.685983961730102 -2.3780297324140198 0 -2.3780297324140198 -2.4444254124258822 0 0 0 0 -866.11606249513716 -720.55063408387105 0 -720.55063408387105 -416.62386957150511 0 0 0 0 -508.36170989375114 520.39422132598884 0 520.39422132598884 -213.55070700895465 0 0 0 0 -519.98096541657287 1096.0608983403699 0 1096.0608983403699 -1138.9796220172655 0 0 0 0 -2041.0954342272307 1227.9493441061036 0 1227.9493441061036 -430.49092133634349 0 0 0 0 -2583.5000749553474 929.39434917422818 0 929.39434917422818 662.34552003642875 0 0 0 0 -3096.2907208120178 472.62564147337798 0 472.62564147337798 283.81191407318329 0 0 0 0 -1586.9714990657885 -1360.4991877212083 0 -1360.4991877212083 -552.4610899081822 0 0 0 0 248.02170397593954 265.40386126967519 0 265.40386126967519 -265.26843310063032 0 0 0 0 230.28489721867118 586.45250297391067 0 586.45250297391067 -2401.0318057042577 0 0 0 0 -336.97801685047489 -790.54253682601006 0 -790.54253682601006 -882.95942565533187 0 0 0 0 514.13542514796973 450.66777498546912 0 450.66777498546912 -383.27939716852961 0 0 0 0 1562.0090531720161 428.21056570998098 0 428.21056570998098 -823.75551346824614 0 0 0 0 -638.1814313613429 451.68600311630831 0 451.68600311630831 -207.48392992580284 0 0 0 0 0.86875399843286782 2.2643744458457835 0 2.2643744458457835 1.1771194416251092 0 0 0 0 -128.16612647743932 140.90787863078515 0 140.90787863078515 -122.05550215626681 0 0 0 0 282.95661693246802 576.9761626382392 0 576.9761626382392 246.00721781381071 0 0 0 0 -3.2669040224158001 7.3085775531880905 0 7.3085775531880905 6.2668487316588894 0 0 0 0 553.86655384412461 335.73848543812687 0 335.73848543812687 46.430567896091816 0 0 0 0 102.58350178127876 75.10007502463759 0 75.10007502463759 24.580556721592529 0 0 0 0 -43.73508809504392 520.8250545797689 0 520.8250545797689 262.71902029044031 0 0 0 0 -350.07082242756769 212.88419830856583 0 212.88419830856583 191.01706864303287 0 0 0 0 -471.50465680773141 202.22966981732588 0 202.22966981732588 719.33217798840633 0 0 0 0 -379.17129423512779 922.61129291738962 0 922.61129291738962 65.667966964021616 0 0 0 0 -711.24747423320878 633.47934267365417 0 633.47934267365417 704.23011150011371 0 0 0 0 -1670.4753723034883 18.56949032871762 0 18.56949032871762 952.78972791185333 0 0 0 0 166.7098276443121 -62.248694694410915 0 -62.248694694410915 297.71769764767578 0 0 0 0 -0.11541922376262548 2.8373660835410242 0 2.8373660835410242 10.98768963030798 0 0 0 0 -616.50231544994858 -39.439042360780149 0 -39.439042360780149 317.56181207954796 0 0 0 0 591.63414812709925 292.85547589659018 0 292.85547589659018 64.874819227449734 0 0 0 0 -1146.4911852947771 -240.26233617581602 0 -240.26233617581602 223.92240857710431 0 0 0 0 -1397.110224292428 -337.32369468695083 0 -337.32369468695083 236.59054907899736 0 0 0 0 -1231.6846679284026 -787.22204302775322 0 -787.22204302775322 193.93830092538701 0 0 0 0 -1125.583409466064 -432.74939841825289 0 -432.74939841825289 242.40366799835465 0 0 0 0 -44.394023669266971 155.52711329829026 0 155.52711329829026 -329.59082855684596 0 0 0 0 3.5454064917175856 0.88790594707188575 0 0.88790594707188575 -483.27506967191869 0 0 0 0 24.98759448292185 61.02904474105776 0 61.02904474105776 -327.49771379452795 0 0 0 0 52.918438480740406 -43.368608844582468 0 -43.368608844582468 -511.02310051015229 0 0 0 0 -11.779400316609099 214.55556196890939 0 214.55556196890939 -37.896690464339372 0 0 0 0 -13.470072771995945 1.1029044491459974 0 1.1029044491459974 0.070050296007362289 0 0 0 0 219.7814405200703 299.55144022647187 0 299.55144022647187 -414.07958381560547 0 0 0 0 -19.606645011557703 133.78337406089713 0 133.78337406089713 -331.14286098340381 0 0 0 0 -4.2524881110471071 0.52594691239064773 0 0.52594691239064773 -0.30126516300352912 0 0 0 0 -229.47090185663546 275.67499223171251 0 275.67499223171251 -211.85571174740926 0 0 0 0 -35.271188867031015 241.78871165385317 0 241.78871165385317 -595.20982928563319 0 0 0 0 760.15881875115338 240.96777548715818 0 240.96777548715818 -370.29585352610502 0 0 0 0 -126.37003517718949 61.261047779360979 0 61.261047779360979 60.413691652956459 0 0 0 0 -73.719443752572261 412.10267282346558 0 412.10267282346558 -394.45149668031399 0 0 0 0 139.13445069850968 166.5768363560328 0 166.5768363560328 -343.57866981094048 0 0 0 0 -103.8445283216297 126.08673640129382 0 126.08673640129382 -264.48448359635131 0 0 0 0 -2.1154212926630862 64.966254004350048 0 64.966254004350048 -234.08955297691125 0 0 0 0 -107.87202468758983 140.33486249484201 0 140.33486249484201 -245.48015991861121 0 0 0 0 -106.03363066175734 147.02842241184362 0 147.02842241184362 -219.37214963619749 0 0 0 0 -46.37027582598239 174.99293632937065 0 174.99293632937065 -229.33728592952775 0 0 0 0 -213.12504803521733 195.09962660783503 0 195.09962660783503 -109.65233510737107 0 0 0 0 -121.5887967883591 281.19926109622747 0 281.19926109622747 -366.39607461840467 0 0 0 0 -92.101049064240215 29.99644482781332 0 29.99644482781332 -63.65453531043886 0 0 0 0 -156.09869421099029 139.10784218770323 0 139.10784218770323 -79.46467263053546 0 0 0 0 -82.102029591393148 95.419256091386615 0 95.419256091386615 -169.61937656728006 0 0 0 0 -127.58884329078319 151.47806731586911 0 151.47806731586911 -163.64074673667619 0 0 0 0 -290.62599314534418 51.114452300667836 0 51.114452300667836 -134.22025054099254 0 0 0 0 -132.98411886153281 41.079538496144323 0 41.079538496144323 -135.4912549269684 0 0 0 0 -162.8146873066944 96.828898570386627 0 96.828898570386627 -232.59672656441126 0 0 0 0 -138.40401140548238 -57.566733057220176 0 -57.566733057220176 -135.17494675700891 0 0 0 0 -138.53211653470134 -70.345084298021447 0 -70.345084298021447 -251.1712444858872 0 0 0 0 -143.33960650767767 -8.4674670609283567 0 -8.4674670609283567 -319.01964154562586 0 0 0 0 -166.26927152702046 15.742772752662859 0 15.742772752662859 -149.73541495787714 0 0 0 0 -210.73547295099161 -25.39258612530989 0 -25.39258612530989 -131.9886374685384 0 0 0 0 -177.67252923643173 78.97936211487513 0 78.97936211487513 5.1349825257784687 0 0 0 0 -212.39385661560118 153.63332465443045 0 153.63332465443045 -132.95441891473817 0 0 0 0 -207.52708183020695 -67.889773751762732 0 -67.889773751762732 24.115990549938374 0 0 0 0 -189.8724642863549 177.42328422064975 0 177.42328422064975 -189.68596605944686 0 0 0 0 -6.463305717413327 -6.9568345326432999 0 -6.9568345326432999 6.1002166678031138 0 0 0 0 -43.443340769674251 11.873608255713407 0 11.873608255713407 8.9296409689086431 0 0 0 0 -25.292878101057855 1.0413538443990582 0 1.0413538443990582 10.616269764186818 0 0 0 0 -53.756858303169949 14.68969933761057 0 14.68969933761057 2.9484952450328716 0 0 0 0 -86.854644517794441 15.431790880252265 0 15.431790880252265 -10.000500428650412 0 0 0 0 -55.332115061560373 -6.2177394147041092 0 -6.2177394147041092 20.822758167065821 0 0 0 0 -92.41388480283058 21.841108595850073 0 21.841108595850073 8.7276484032372537 0 0 0 0 -85.123486601478362 32.877954842720555 0 32.877954842720555 4.5623204512521625 0 0 0 0 -71.531944093141647 30.934553230773304 0 30.934553230773304 3.9233044916691142 0 0 0 0 -73.243837113811878 17.547104463374126 0 17.547104463374126 9.4528646208091232 0 0 0 0 -93.489878646501893 18.879329439461799 0 18.879329439461799 36.670918261372208 0 0 0 0 -93.406659307940572 25.592311127880748 0 25.592311127880748 14.217423648404292 0 0 0 0 -21.2873817298414 11.673370699248878 0 11.673370699248878 12.892186639951625 0 0 0 0 -41.07416255951852 12.752745826870751 0 12.752745826870751 26.443701066370025 0 0 0 0 -75.970595956800352 18.95824010783884 0 18.95824010783884 2.0834023922718252 0 0 0 0 176.02606637425197 -263.60473286902925 0 -263.60473286902925 -2247.5171848766186 0 0 0 0 -169.87644995523442 -50.893797140062816 0 -50.893797140062816 538.16615482663019 0 0 0 0 -395.93393919142909 -519.85373776295 0 -519.85373776295 194.30817551842847 0 0 0 0 62.5156856839385 -89.299374494581571 0 -89.299374494581571 -0.72005501655257831 0 0 0 0 -55.089210921883932 -64.170427483815729 0 -64.170427483815729 66.759672688094724 0 0 0 0 9.3307742711913306 -87.686679094354986 0 -87.686679094354986 63.790439814557203 0 0 0 0 29.15805781148083 -48.454860920779538 0 -48.454860920779538 32.221088535051877 0 0 0 0 -108.01257223404536 -24.408779923784095 0 -24.408779923784095 65.219163877800383 0 0 0 0 -14.621398963910906 -26.455320057461904 0 -26.455320057461904 30.27671832008491 0 0 0 0 -32.208724226292773 3.3721302633482679 0 3.3721302633482679 2.879229634127185 0 0 0 0 -126.16908243067155 28.318654089380288 0 28.318654089380288 15.994584884610049 0 0 0 0 -208.74048903415678 -34.2840938036843 0 -34.2840938036843 63.408065803509999 0 0 0 0 -111.18976675133672 20.632459542511242 0 20.632459542511242 -6.0991677393285499 0 0 0 0 -244.42667416810855 81.179843909901138 0 81.179843909901138 10.964088144332436 0 0 0 0 -49.491901455739466 82.168022762473981 0 82.168022762473981 -47.81447385830478 0 0 0 0 -209.44109581580688 95.896422726659694 0 95.896422726659694 -39.576571658039029 0 0 0 0 -128.03557584124388 -27.07184389151924 0 -27.07184389151924 37.30682799394549 0 0 0 0 -85.680225946824066 13.463286322539716 0 13.463286322539716 44.076508814196131 0 0 0 0 -90.222793998227658 11.915422237213505 0 11.915422237213505 3.8970058000401622 0 0 0 0 -79.170514453532235 10.817529745889725 0 10.817529745889725 21.976457279064384 0 0 0 0 -1109.4260901544403 568.22030884944616 0 568.22030884944616 -67.261365751073754 0 0 0 0 -432.96608031196774 -177.87214200004746 0 -177.87214200004746 370.7403691918953 0 0 0 0 24.90138160305105 400.23101002506155 0 400.23101002506155 -596.904963891021 0 0 0 0 -1517.7094211014655 -597.68557065632922 0 -597.68557065632922 190.1866384630739 0 0 0 0 -2518.1525045593407 533.24889237164189 0 533.24889237164189 299.56393262162476 0 0 0 0 -25.151152192425798 50.803789667188539 0 50.803789667188539 86.191608871435164 0 0 0 0 463.74411444837824 129.79896840972469 0 129.79896840972469 -540.94403757087275 0 0 0 0 -213.84600180866892 91.627928796693595 0 91.627928796693595 26.279204609218141 0 0 0 0 -14.555281616873412 1.8322940361036792 0 1.8322940361036792 35.866930346628038 0 0 0 0 -255.36683794175406 87.142502574410173 0 87.142502574410173 467.34061675920384 0 0 0 0 -469.85515986272367 206.47611577459611 0 206.47611577459611 4.1557849423916196 0 0 0 0 -51.09024854310745 25.42307024855381 0 25.42307024855381 -2.7081705380625056 0 0 0 0 -192.27948597167415 79.19294464450104 0 79.19294464450104 27.943433507977716 0 0 0 0 -71.681841501747257 15.529129303443831 0 15.529129303443831 13.768935973019346 0 0 0 0 -120.40510751042711 98.526875575429585 0 98.526875575429585 -8.0470788404927589 0 0 0 0 -138.31297613356219 73.027836619169648 0 73.027836619169648 6.3218133413502073 0 0 0 0 -207.79087339880061 169.00983259701752 0 169.00983259701752 197.34533808051992 0 0 0 0 -53.19274990125723 128.13872324751492 0 128.13872324751492 -15.945241543802695 0 0 0 0 -181.30120425110363 105.1671838551074 0 105.1671838551074 -12.899960385275335 0 0 0 0 -241.66193624652442 -3.6660618375426566 0 -3.6660618375426566 -61.689127767402169 0 0 0 0 -235.97437210734824 -18.496301204169413 0 -18.496301204169413 2.6249996282931534 0 0 0 0 -248.55917414940996 104.69456133573931 0 104.69456133573931 22.522268923183788 0 0 0 0 -283.41083165587952 38.42135167298602 0 38.42135167298602 -3.610281292018044 0 0 0 0 -18.466840480764073 4.5284112465358071 0 4.5284112465358071 -0.038691966350320683 0 0 0 0 -12.774139954937208 23.272892769586221 0 23.272892769586221 0.78938991600806929 0 0 0 0 -119.76634784891939 29.303147199052546 0 29.303147199052546 10.377345562415485 0 0 0 0 -113.90487317332736 -109.12211342098635 0 -109.12211342098635 103.91230308944796 0 0 0 0 -87.969288327040417 21.205565548363353 0 21.205565548363353 0.68425133991877196 0 0 0 0 -334.79012976336526 88.190466136660689 0 88.190466136660689 85.160606423005447 0 0 0 0 -101.84760988111609 23.330702325091053 0 23.330702325091053 5.3294136810986359 0 0 0 0 -20.020261464127795 -17.218468817490081 0 -17.218468817490081 14.354762717504403 0 0 0 0 -118.95439022172832 25.562400652304405 0 25.562400652304405 24.146378240908234 0 0 0 0 -32.948351396320248 13.678192731329375 0 13.678192731329375 19.155504229193539 0 0 0 0 -101.57022286471329 14.050208051929076 0 14.050208051929076 18.680174952936795 0 0 0 0 -72.062696200533537 11.707733842031303 0 11.707733842031303 24.755557871747442 0 0 0 0 -69.336030492534476 6.6002067885824829 0 6.6002067885824829 29.426107340802403 0 0 0 0 -121.79174088473519 21.750522445589013 0 21.750522445589013 29.007697761924646 0 0 0 0 -28.446579438525951 -6.3790895907541625 0 -6.3790895907541625 49.091329230232077 0 0 0 0 -115.29707968653747 26.999552596144895 0 26.999552596144895 22.636613053196925 0 0 0 0 -54.136979497502978 -4.7718026857901421 0 -4.7718026857901421 32.367317941692946 0 0 0 0 -118.26450784743065 17.612298394880781 0 17.612298394880781 8.0469917796435766 0 0 0 0 -68.218778741263975 9.5756679604542683 0 9.5756679604542683 45.853380335189669 0 0 0 0 -52.957404852644629 5.2751419300368418 0 5.2751419300368418 20.601569087407299 0 0 0 0 -46.173775404233353 13.571940119726534 0 13.571940119726534 18.736024848098168 0 0 0 0 -60.77198163941145 38.910538120019226 0 38.910538120019226 6.6414593239452557 0 0 0 0 -259.00976095883857 74.462224150189158 0 74.462224150189158 -125.97728087695577 0 0 0 0 -351.53974401495361 -35.284229276912811 0 -35.284229276912811 276.36071007655482 0 0 0 0 -90.361170715961919 33.98590740944627 0 33.98590740944627 3.41816620962706 0 0 0 0 -323.43292969744653 140.93302372958715 0 140.93302372958715 -3.0239386099874537 0 0 0 0 -215.49992350539105 -19.836253164339723 0 -19.836253164339723 49.583459531349945 0 0 0 0 -19.120368809508363 45.054544191179957 0 45.054544191179957 7.002907995482019 0 0 0 0 -426.15472638914798 298.25197667288012 0 298.25197667288012 -3.6202755261692801 0 0 0 0 -3.0607093142592845 4.1066285682592749 0 4.1066285682592749 -7.8228479654021612 0 0 0 0 -475.43601512681198 13.429446778578495 0 13.429446778578495 147.23207294865279 0 0 0 0 -35.276023004043964 -37.17236587820662 0 -37.17236587820662 23.247214535236708 0 0 0 0 -115.50195011964112 49.521028287757716 0 49.521028287757716 34.037408850791081 0 0 0 0 440.84051517050102 595.66551153780165 0 595.66551153780165 609.64757776196529 0 0 0 0 -30.696355594620769 29.881475630877631 0 29.881475630877631 -16.922757507716604 0 0 0 0 -281.57232403571834 192.69013162921328 0 192.69013162921328 420.41572079228536 0 0 0 0 58.414633402120671 44.70981478903559 0 44.70981478903559 -26.972987135100993 0 0 0 0 -32.083115439535071 28.298675295624093 0 28.298675295624093 21.999538016253695 0 0 0 0 -40.17906627382763 67.411215886062564 0 67.411215886062564 23.846293530128605 0 0 0 0 -0.016379982383313063 12.849759309483119 0 12.849759309483119 -10.938213683319884 0 0 0 0 -214.97270634312736 -125.87888577492049 0 -125.87888577492049 -105.86232990074404 0 0 0 0 -70.449632202810349 38.133921312749735 0 38.133921312749735 -1.7313454663746839 0 0 0 0 -113.50055603488909 20.251393171793097 0 20.251393171793097 102.09715521815815 0 0 0 0 -875.84830216452247 95.614149632263434 0 95.614149632263434 315.20317067592623 0 0 0 0 21.006432711074012 140.70388571684271 0 140.70388571684271 242.99279893292987 0 0 0 0 -4.6084063856595137 13.428238432680601 0 13.428238432680601 -33.934415297419974 0 0 0 0 -1828.6864929666044 255.92278290865579 0 255.92278290865579 197.90610167433624 0 0 0 0 -1641.8767836276093 130.14055059613474 0 130.14055059613474 277.80729087004875 0 0 0 0 1155.9049049306122 503.20604462958909 0 503.20604462958909 -186.44037369700527 0 0 0 0 -7.2094051415088884 24.953777287800349 0 24.953777287800349 -45.485971399382763 0 0 0 0 -484.20345617803832 555.85133494178081 0 555.85133494178081 -605.68419796484886 0 0 0 0 577.69507530030751 492.62256475661979 0 492.62256475661979 2.7987633566081058 0 0 0 0 -973.09045971914747 -150.40704999397349 0 -150.40704999397349 236.37220084495493 0 0 0 0 308.4246230971039 -383.93753044189725 0 -383.93753044189725 -564.5200134100287 0 0 0 0 -460.47637905243027 804.43958161383489 0 804.43958161383489 56.122638665361592 0 0 0 0 -14.208538334161972 3.8387287468820404 0 3.8387287468820404 8.4935675866244971 0 0 0 0 -529.19022686421522 422.3623632125018 0 422.3623632125018 -334.94749520018377 0 0 0 0 -861.54228926195356 528.80671849627834 0 528.80671849627834 21.310787839029217 0 0 0 0 -339.80965228861896 -326.87143869901229 0 -326.87143869901229 -273.97285859499607 0 0 0 0 155.64989480777876 -112.68803534905601 0 -112.68803534905601 -10.896071958173707 0 0 0 0 -83.330110084585613 -57.619781514073111 0 -57.619781514073111 7.6854172872754134 0 0 0 0 -219.11346190403856 155.0045878705605 0 155.0045878705605 333.6431199140352 0 0 0 0 -378.69672074722257 -162.60815305863434 0 -162.60815305863434 90.965413066951442 0 0 0 0 -116.42421729568741 13.160132282333507 0 13.160132282333507 42.485941707971506 0 0 0 0 -102.38841736151517 25.114257551580522 0 25.114257551580522 19.643058863643091 0 0 0 0 -84.447560771805001 -7.9396382253107731 0 -7.9396382253107731 44.789592052200533 0 0 0 0 -96.799930395365664 29.762586901726536 0 29.762586901726536 36.741500112853828 0 0 0 0 -36.97598258512204 52.297693858325275 0 52.297693858325275 159.85397218366415 0 0 0 0 -92.503820629499387 -17.525772315362701 0 -17.525772315362701 108.3208546493006 0 0 0 0 -86.47620522462239 14.158010487582942 0 14.158010487582942 80.695538964566367 0 0 0 0 -54.961463196509868 23.30372322566344 0 23.30372322566344 13.592838289068956 0 0 0 0 -62.318795267761743 7.6648339566181676 0 7.6648339566181676 55.362351731171657 0 0 0 0 -10.614660653795616 -13.90941688843273 0 -13.90941688843273 48.876653392973878 0 0 0 0 -8.579193173639192 1.8345624096610607 0 1.8345624096610607 0.88096833515857043 0 0 0 0 -326.94809404971238 -117.72447736395679 0 -117.72447736395679 -9.8700972440346959 0 0 0 0 -138.30654113335186 61.329642737835457 0 61.329642737835457 160.06219714488179 0 0 0 0 -111.78195641371536 11.077840595892454 0 11.077840595892454 14.824899742584609 0 0 0 0 -576.77429111898527 419.23793226457656 0 419.23793226457656 1176.8559856534423 0 0 0 0 -773.94659211991529 402.72860297593434 0 402.72860297593434 175.64676939258425 0 0 0 0 -720.2446373730927 331.86843393159143 0 331.86843393159143 237.13262161677994 0 0 0 0 -95.075930714090646 148.41877305870548 0 148.41877305870548 116.68013290907948 0 0 0 0 -1063.1881732726397 156.06570618093247 0 156.06570618093247 394.1848556130135 0 0 0 0 -647.30750272042496 405.21768077054548 0 405.21768077054548 10.384418215660844 0 0 0 0 -128.80090986187861 143.37362404185842 0 143.37362404185842 -340.61152125333319 0 0 0 0 -558.75081118059825 910.55474655936723 0 910.55474655936723 -394.2291587110667 0 0 0 0 1293.6857087527533 318.70443941068152 0 318.70443941068152 -325.20280974396155 0 0 0 0 -3965.9332380578126 347.27665429176886 0 347.27665429176886 250.62988657550522 0 0 0 0 -1.288997647279345 0.86773483908022797 0 0.86773483908022797 -13.380769267147642 0 0 0 0 -75.895470737984397 -11.329398332279652 0 -11.329398332279652 342.50275039378175 0 0 0 0 -130.8899707881792 54.443389344867683 0 54.443389344867683 8.4810789324737925 0 0 0 0 -163.59517072475865 86.619115929248437 0 86.619115929248437 2.5484956272343879 0 0 0 0 -149.04747991650947 -12.776183124196905 0 -12.776183124196905 37.018794680596329 0 0 0 0 -155.07321177514677 -3.137585307493282 0 -3.137585307493282 92.323272394405649 0 0 0 0 -92.398599357858131 2.3099511692483219 0 2.3099511692483219 8.2188885049030063 0 0 0 0 -83.387170105823316 -35.756346541267249 0 -35.756346541267249 27.139894422422913 0 0 0 0 -38.872413639790466 46.556613955555804 0 46.556613955555804 27.201659016951453 0 0 0 0 -142.57259377384798 -105.91807636899512 0 -105.91807636899512 117.16253810886519 0 0 0 0 -98.463813659313018 26.202144839175162 0 26.202144839175162 74.166325569958644 0 0 0 0 -41.32372490715116 -6.6427055861325464 0 -6.6427055861325464 4.128851092354239 0 0 0 0 -131.63688041250862 376.39428127438805 0 376.39428127438805 -318.73230260511264 0 0 0 0 -12.364911887659105 -3.114475691015862 0 -3.114475691015862 -0.97514836861373766 0 0 0 0 -508.63969410917707 325.31303013053321 0 325.31303013053321 1013.2202501410848 0 0 0 0 -130.90348152900697 21.107610542170733 0 21.107610542170733 38.010848525387701 0 0 0 0 -15.147531856751122 11.919476874471613 0 11.919476874471613 -2.4894331898106685 0 0 0 0 -38.904646516233086 -1.6463883143245255 0 -1.6463883143245255 51.640293367791244 0 0 0 0 -113.08933298312877 74.691087131186123 0 74.691087131186123 16.282040763675468 0 0 0 0 -68.73440070275683 2.0585111532200244 0 2.0585111532200244 53.184669141282939 0 0 0 0 -99.900307809984952 63.434887253863053 0 63.434887253863053 1.8486480650390149 0 0 0 0 -28.703024319882388 8.4389884858683217 0 8.4389884858683217 19.378061793735469 0 0 0 0 -133.17208874467178 5.7979581951749424 0 5.7979581951749424 46.185584683241359 0 0 0 0 -185.22167696616725 1.3139816095407468 0 1.3139816095407468 49.540715263574384 0 0 0 0 -69.578112653388018 18.161954521125292 0 18.161954521125292 23.292203825374376 0 0 0 0 -105.01315766132029 39.786550624702613 0 39.786550624702613 85.010537639820541 0 0 0 0 -61.528766769846811 12.040226846069004 0 12.040226846069004 44.764323790907497 0 0 0 0 -94.913920090458475 -9.9726536116513671 0 -9.9726536116513671 32.763203519494155 0 0 0 0 -81.246522895118687 -9.4089779753121547 0 -9.4089779753121547 129.09306371796265 0 0 0 0 -61.979611423179449 -17.167395627869155 0 -17.167395627869155 90.922692360714791 0 0 0 0 -183.08721161633002 35.624322914408822 0 35.624322914408822 147.56864001521171 0 0 0 0 -133.42851858008882 53.554506720596052 0 53.554506720596052 75.014821655894266 0 0 0 0 -93.066561459636432 -45.82342632243126 0 -45.82342632243126 144.44396163958572 0 0 0 0 1.6917882194334766 3.2246493591685095 0 3.2246493591685095 -3.1061793082036999 0 0 0 0 51.1335139007424 -110.07249617438993 0 -110.07249617438993 282.33837784647039 0 0 0 0 285.65343678994395 -585.92477062891362 0 -585.92477062891362 -450.94075139074994 0 0 0 0 -391.27659875212703 -64.312902689671319 0 -64.312902689671319 166.40914210048186 0 0 0 0 -8.7618237833977446 -2.6756581176843355 0 -2.6756581176843355 3.9123017425701185 0 0 0 0 -23.691177426255308 -6.1083555292243545 0 -6.1083555292243545 -1.0491379414961557 0 0 0 0 -8.9583158832974732 16.032521965205888 0 16.032521965205888 22.91616160137346 0 0 0 0 -67.978505028760992 -143.58587202268336 0 -143.58587202268336 -86.943524727565091 0 0 0 0 -71.822481939947465 22.130652273053784 0 22.130652273053784 29.384159459780676 0 0 0 0 -20.956178271976512 1.8837721301627255 0 1.8837721301627255 11.881535100661534 0 0 0 0 -110.06748770974809 34.566017616980389 0 34.566017616980389 7.5542157125892118 0 0 0 0 -106.65576769427571 37.293543127401335 0 37.293543127401335 2.1565501847699124 0 0 0 0 -19.713792225345969 -21.146239582449198 0 -21.146239582449198 -59.032330192399968 0 0 0 0 -38.01049021158542 -103.90556104929783 0 -103.90556104929783 -18.513792326750263 0 0 0 0 -43.448085356445517 -14.913481742347813 0 -14.913481742347813 29.12231307510956 0 0 0 0 -83.365255670264347 -10.936209483071821 0 -10.936209483071821 23.898319442275483 0 0 0 0 -60.684821908390006 -35.519318761165493 0 -35.519318761165493 19.958311228536814 0 0 0 0 -104.12392291601282 -47.93663158022764 0 -47.93663158022764 28.94023046322036 0 0 0 0 -81.041043794870973 -20.823977049365752 0 -20.823977049365752 56.201046074716132 0 0 0 0 -75.187582621205365 -49.750985749860774 0 -49.750985749860774 -5.9650868552052998 0 0 0 0 -3.3166976047116918 10.112704333615444 0 10.112704333615444 11.657304439393762 0 0 0 0 -89.547244744841009 -16.743568180165312 0 -16.743568180165312 41.030710979175637 0 0 0 0 -70.098229933260029 -38.462177107918222 0 -38.462177107918222 22.430822470480621 0 0 0 0 -106.89371704293771 13.683268661298532 0 13.683268661298532 54.726689575620597 0 0 0 0 -76.022732890169351 -11.476400607011357 0 -11.476400607011357 27.283207962673359 0 0 0 0 -63.583634501591007 -23.385448597647823 0 -23.385448597647823 43.832832874433649 0 0 0 0 -76.082931636445437 -11.140720312706563 0 -11.140720312706563 19.102556618919603 0 0 0 0 -154.35138394948444 8.4698071835971405 0 8.4698071835971405 63.077761667277628 0 0 0 0 -92.43194977848907 3.7746760498066578 0 3.7746760498066578 53.586093258566962 0 0 0 0 -143.30995044925658 -12.502077277682474 0 -12.502077277682474 25.59750745947872 0 0 0 0 -94.979558365157573 17.550760999674822 0 17.550760999674822 19.354326081017746 0 0 0 0 -53.304746097433281 -7.7058436780293675 0 -7.7058436780293675 32.060739428008844 0 0 0 0 -90.545148775730922 -23.629190887016811 0 -23.629190887016811 32.192088223848714 0 0 0 0 -102.41847666974354 -16.605771451713053 0 -16.605771451713053 34.199546929357496 0 0 0 0 -113.49358029649011 -21.773873382147258 0 -21.773873382147258 42.946661121472516 0 0 0 0 -112.29701231775107 -15.195025170582426 0 -15.195025170582426 38.854787829652196 0 0 0 0 -113.33443394198548 -11.039415966650267 0 -11.039415966650267 25.419022894642239 0 0 0 0 -113.5106306450034 -27.452489298082128 0 -27.452489298082128 23.777706499491046 0 0 0 0 -109.56065717136516 -6.8578197387124646 0 -6.8578197387124646 14.011001809482877 0 0 0 0 -74.927044422373513 -8.3279502199370867 0 -8.3279502199370867 11.634147231688475 0 0 0 0 -108.57049233232101 -21.516547052009855 0 -21.516547052009855 46.710586762689672 0 0 0 0 -62.716240534563724 11.00824236005753 0 11.00824236005753 17.52476128793878 0 0 0 0 -81.680362106169923 0.84048201976020209 0 0.84048201976020209 51.56163105880114 0 0 0 0 -74.911000702263664 27.540606001797215 0 27.540606001797215 44.229375785546836 0 0 0 0 -89.60377350547958 7.619563525391932 0 7.619563525391932 21.170951436110379 0 0 0 0 -83.105796004668264 14.685075068278124 0 14.685075068278124 58.11978472290366 0 0 0 0 -116.30099722210434 -25.680086136718728 0 -25.680086136718728 -2.9853339696721832 0 0 0 0 -54.355767875217424 17.242317330934412 0 17.242317330934412 52.074344739103644 0 0 0 0 -102.84950734485756 -53.883036666299631 0 -53.883036666299631 -105.88319036613757 0 0 0 0 -112.04519671408343 -34.573468379470796 0 -34.573468379470796 -14.153144721625722 0 0 0 0 -68.168869821616681 54.300480108980992 0 54.300480108980992 83.284630384998309 0 0 0 0 -66.271482220305131 -5.8685392971061248 0 -5.8685392971061248 16.660865001233908 0 0 0 0 -38.527176709808629 -14.246314481793696 0 -14.246314481793696 7.1950732647347024 0 0 0 0 -73.920140820177039 13.25527691958996 0 13.25527691958996 76.20077743199181 0 0 0 0 -53.017545955313835 1.7558909215185849 0 1.7558909215185849 -0.021110034183948301 0 0 0 0 81.053974013477273 -144.73125313066907 0 -144.73125313066907 64.661984129828397 0 0 0 0 -78.876896023532026 24.524899199509491 0 24.524899199509491 -110.18677072255832 0 0 0 0 150.39087637597549 123.84282209507933 0 123.84282209507933 154.51669806664722 0 0 0 0 242.45704187748197 -21.431561154793144 0 -21.431561154793144 -93.769015026444777 0 0 0 0 -105.11656675397418 -24.625442603691155 0 -24.625442603691155 45.778588490155357 0 0 0 0 -63.81731819245033 -2.5662637340283254 0 -2.5662637340283254 79.984188659873325 0 0 0 0 150.03065652625082 -234.25924597345283 0 -234.25924597345283 183.10205962964619 0 0 0 0 -21.268802879980655 -25.396398781525107 0 -25.396398781525107 17.141395347280444 0 0 0 0 47.74469678857713 -87.210666937402493 0 -87.210666937402493 72.758899219188606 0 0 0 0 122.20114343061869 -339.75145851426441 0 -339.75145851426441 -43.108875567202176 0 0 0 0 -0.27387961837666808 -240.45449382032132 0 -240.45449382032132 -294.66045288328132 0 0 0 0 110.18976689060901 -41.533081402554046 0 -41.533081402554046 -39.363757868199173 0 0 0 0 -101.74469931019121 -3.8506606671949157 0 -3.8506606671949157 9.4420877760405801 0 0 0 0 -82.759195057503064 -30.473357946861 0 -30.473357946861 16.447897323821895 0 0 0 0 -120.40107958830777 -1.3277881208582585 0 -1.3277881208582585 12.022444943993833 0 0 0 0 -117.16283412408666 -24.045333444038306 0 -24.045333444038306 69.830892266595896 0 0 0 0 -94.183124095929088 -9.082667778720861 0 -9.082667778720861 65.514571804093009 0 0 0 0 -81.551773646955553 -28.123853475874228 0 -28.123853475874228 23.08000785295053 0 0 0 0 -85.730639074699639 -11.766290229068517 0 -11.766290229068517 26.658169533769161 0 0 0 0 -580.95799183775671 -190.03444667584517 0 -190.03444667584517 228.77228295023815 0 0 0 0 -1386.65542882921 33.555735243756317 0 33.555735243756317 139.38304240786783 0 0 0 0 -1115.7478417037928 114.17506634640313 0 114.17506634640313 88.393627470941283 0 0 0 0 -847.64656387831201 461.37240917946838 0 461.37240917946838 -179.64479931776441 0 0 0 0 -536.33334376725543 182.79869204749775 0 182.79869204749775 -159.43488613057343 0 0 0 0 -972.96591212064959 118.33026048716783 0 118.33026048716783 4.2544224964312889 0 0 0 0 -1326.7981284065172 182.47264058825203 0 182.47264058825203 8.6912273644848028 0 0 0 0 -1053.0588714719634 -1.0240805281773646 0 -1.0240805281773646 295.59317084492795 0 0 0 0 -996.27586683447589 81.638784316332021 0 81.638784316332021 212.49005506718458 0 0 0 0 -1190.6766728812217 198.46198213844718 0 198.46198213844718 268.47132558123303 0 0 0 0 -1282.8817135622085 75.646692987766983 0 75.646692987766983 266.32261355865921 0 0 0 0 -1089.6011028976936 32.07867465525851 0 32.07867465525851 248.15651663930475 0 0 0 0 -595.7903417673806 82.887739455845804 0 82.887739455845804 281.75970892774239 0 0 0 0 -860.72806558251614 -153.08969297384647 0 -153.08969297384647 210.25737305921575 0 0 0 0 -1116.4453857356275 -110.04884410891827 0 -110.04884410891827 245.65515473491814 0 0 0 0 -817.93362385484215 -139.47261995833469 0 -139.47261995833469 63.684189087448431 0 0 0 0 -918.88936941872089 74.259987472449211 0 74.259987472449211 -103.8093423769551 0 0 0 0 -997.4890911004768 -9.6665889924533985 0 -9.6665889924533985 -176.17451556088417 0 0 0 0 -1258.7930126824358 305.22799700530959 0 305.22799700530959 114.55462944401279 0 0 0 0 -1081.0919711955357 181.93783580234867 0 181.93783580234867 180.52553793808147 0 0 0 0 -1026.1763631475187 131.09356275812206 0 131.09356275812206 -133.72566772469327 0 0 0 0 -657.87084558988863 268.57418062189208 0 268.57418062189208 -84.920406354156057 0 0 0 0 -752.0371650567904 160.22647219768169 0 160.22647219768169 2.2313290380934632 0 0 0 0 -220.54483518678171 -38.070936713284937 0 -38.070936713284937 19.453461681801855 0 0 0 0 -527.01807512545201 186.84245836666105 0 186.84245836666105 18.957502306946481 0 0 0 0 -415.51756987944827 317.76883644172267 0 317.76883644172267 -90.954965201848154 0 0 0 0 -1021.1171650032629 396.99573823916398 0 396.99573823916398 -17.166019452085493 0 0 0 0 -1023.1794673082713 383.32548380959787 0 383.32548380959787 120.39279224853453 0 0 0 0 -1402.2144746039121 555.77910936258831 0 555.77910936258831 85.508952786599366 0 0 0 0 -1436.1329550995579 775.9545077715361 0 775.9545077715361 18.905014626458978 0 0 0 0 -1073.836038783018 507.03687145553431 0 507.03687145553431 -42.893818457142515 0 0 0 0 -895.79615424084477 1312.0980645773939 0 1312.0980645773939 -1322.2843122466284 0 0 0 0 -74.059233656182187 -119.25041073185821 0 -119.25041073185821 -77.209106266765275 0 0 0 0 -239.84164304210572 365.62029810760941 0 365.62029810760941 -398.28923157697227 0 0 0 0 -982.81886767621472 625.51871004140935 0 625.51871004140935 -150.73438837553658 0 0 0 0 -394.36204627616098 75.793227450443283 0 75.793227450443283 153.90498407419364 0 0 0 0 9.7308451298449654 140.39294806939688 0 140.39294806939688 143.82098826683455 0 0 0 0 -360.84999763086671 67.664028584700645 0 67.664028584700645 417.47450258432082 0 0 0 0 140.15131698458572 -70.590854838030282 0 -70.590854838030282 12.237989653643581 0 0 0 0 -64.64034903421998 -97.629371520900349 0 -97.629371520900349 52.351949988429283 0 0 0 0 -1174.5648127291352 -402.36805680280304 0 -402.36805680280304 -40.962027053616112 0 0 0 0 -569.8765311184543 -194.47919232182994 0 -194.47919232182994 3.4592948765603069 0 0 0 0 -554.2986890260654 -114.29775453553316 0 -114.29775453553316 30.644343265035786 0 0 0 0 -1449.2910095452971 -46.93683323850928 0 -46.93683323850928 292.51419474095837 0 0 0 0 -1517.4218375836208 310.17575964827029 0 310.17575964827029 230.40954182556834 0 0 0 0 -1391.7680570938346 371.25873994519304 0 371.25873994519304 246.72236801373765 0 0 0 0 -2258.8239126347471 627.16444096260557 0 627.16444096260557 241.02262952819547 0 0 0 0 -2193.3073155459715 -436.61781229759845 0 -436.61781229759845 100.1145876819819 0 0 0 0 -1214.4940041492227 -33.887574943871186 0 -33.887574943871186 189.29271571916706 0 0 0 0 -1182.6623567911738 -474.45370637059887 0 -474.45370637059887 -286.83476461503142 0 0 0 0 -3410.6842104211391 1064.1920209205582 0 1064.1920209205582 -22.45632522958897 0 0 0 0 -3075.2710089903412 -1205.9497513570932 0 -1205.9497513570932 -548.6335971559688 0 0 0 0 -971.96349678644037 -160.43429181546662 0 -160.43429181546662 -113.06267082461454 0 0 0 0 -387.77834628638811 -511.08596236945937 0 -511.08596236945937 -652.44886023631625 0 0 0 0 -718.12073672658062 283.33348906299625 0 283.33348906299625 -236.74635706665504 0 0 0 0 114.97742720061797 848.70946143782112 0 848.70946143782112 -443.47387046704125 0 0 0 0 -633.31694000590142 -28.91738912474375 0 -28.91738912474375 -538.60063286124023 0 0 0 0 -72.238668759198845 -97.468070098312239 0 -97.468070098312239 -1931.4161412544422 0 0 0 0 -3828.9731338759448 -274.83205241768155 0 -274.83205241768155 621.32352069259559 0 0 0 0 -145.82462090193451 -14.699339438915239 0 -14.699339438915239 46.023750194401885 0 0 0 0 -1411.8477214138838 566.13759458644654 0 566.13759458644654 819.36925773697362 0 0 0 0 138.81006888014963 -344.75034825948387 0 -344.75034825948387 -64.677290388026904 0 0 0 0 -61.680069405677727 -6.4706505371373915 0 -6.4706505371373915 4.2882600459268163 0 0 0 0 -229.80965270567685 -155.45454721368947 0 -155.45454721368947 -173.31518313413699 0 0 0 0 -12.841828109014273 7.1457733613901127 0 7.1457733613901127 8.3135856254060077 0 0 0 0 -183.40266170398786 -108.77491748117723 0 -108.77491748117723 -234.66010794362955 0 0 0 0 -169.85764043523523 -606.77390262449626 0 -606.77390262449626 -528.22592905478359 0 0 0 0 -110.78739306770149 -173.76550000767065 0 -173.76550000767065 -194.09647548170506 0 0 0 0 -560.91126049528248 -927.43909984004222 0 -927.43909984004222 -1452.8062393053169 0 0 0 0 -22.502446118337389 0.2200848018947843 0 0.2200848018947843 -1.0164708853983084 0 0 0 0 -1208.3101699803574 -557.52809060597895 0 -557.52809060597895 -247.77295399561444 0 0 0 0 -180.45212083199294 -452.97612556042077 0 -452.97612556042077 -392.5492591992579 0 0 0 0 -309.48298670163786 -360.50953435436622 0 -360.50953435436622 -384.91434386539413 0 0 0 0 -147.31811723469437 -16.888912265312761 0 -16.888912265312761 47.1053945608245 0 0 0 0 -779.84766277924791 -218.4996761242146 0 -218.4996761242146 -52.4523509950277 0 0 0 0 -428.62655263685883 -217.61266164548215 0 -217.61266164548215 -95.753444094008955 0 0 0 0 -317.54073776344285 -130.37895860564447 0 -130.37895860564447 -89.376393749500494 0 0 0 0 -791.40827358957404 149.24352402841697 0 149.24352402841697 -116.03284037893354 0 0 0 0 -522.54257576506643 30.175558712870952 0 30.175558712870952 -94.010561496435912 0 0 0 0 -424.26164433174927 245.89539634109178 0 245.89539634109178 -155.99493031719794 0 0 0 0 -560.30471268056863 207.53879050166506 0 207.53879050166506 -48.217944468131464 0 0 0 0 -360.28792214632267 103.42712183689036 0 103.42712183689036 -183.96733270077812 0 0 0 0 -349.85809065335343 150.57185480331009 0 150.57185480331009 -94.256584829752683 0 0 0 0 -90.216228552780649 155.35610065122887 0 155.35610065122887 -267.52271432659836 0 0 0 0 -193.8672079221069 220.90246540234239 0 220.90246540234239 -103.55444882190568 0 0 0 0 -135.20539846147585 89.016182075557481 0 89.016182075557481 12.177562655906854 0 0 0 0 55.822328070677031 154.71712921590006 0 154.71712921590006 -108.87236404184296 0 0 0 0 -92.236495293367625 114.0115945028092 0 114.0115945028092 -130.98572875870423 0 0 0 0 -33.122836500342004 77.753719534189599 0 77.753719534189599 -29.017052506990083 0 0 0 0 -102.45117652409681 82.990191563843837 0 82.990191563843837 -20.082618896526583 0 0 0 0 60.711658527474356 85.336821703335318 0 85.336821703335318 -86.269160762723914 0 0 0 0 30.403807867420255 32.733875873576835 0 32.733875873576835 -147.64880515922414 0 0 0 0 -22.425808076295652 1.3884999960555433 0 1.3884999960555433 -24.752799235511702 0 0 0 0 -24.92490246712623 11.459640922222206 0 11.459640922222206 -64.775857920554699 0 0 0 0 -29.685028028086549 7.6798318591366943 0 7.6798318591366943 -16.544032377224497 0 0 0 0 -97.633003914124856 -24.717643065956509 0 -24.717643065956509 -72.199035364388692 0 0 0 0 -109.2232877042261 -0.87146859059703274 0 -0.87146859059703274 -88.142592287022126 0 0 0 0 -130.3015164489974 -13.640874868073496 0 -13.640874868073496 42.272764364919936 0 0 0 0 -188.84559538686881 98.616661836364074 0 98.616661836364074 -561.59133785310314 0 0 0 0 -207.88480656312458 769.65439728398655 0 769.65439728398655 743.18740734722405 0 0 0 0 -129.46459926252282 -71.334010778745323 0 -71.334010778745323 -213.74103198140801 0 0 0 0 
</DataArray>
<DataArray type="Float64" Name="cross_section_updated" format="ascii">
1 1 1 1 0.0070674875955711314 1 1 1 1 1 1 1 0.010785697360747207 1 1 1 1 0.0033172672305266382 1 1 1 1 1 0.010045362646350663 1 1 1 1 1 0.0023472603935551437 1 1 1 0.0023171093631137243 1 1 0.010169612389335808 1 1 1 1 0.003003737051562802 1 1 1 1 0.0081243026444739394 1 0.0093250101377197192 1 1 1 1 1 1 1 1 1 0.0099708961882866987 1 1 1 1 1 1 0.00774572772090594 1 1 1 1 1 1 0.0085708122990248575 1 1 1 1 1 0.0043989626413190736 1 1 0.004184774733943037 1 1 1 1 1 1 1 1 1 0.0023390687912787783 1 1 1 0.0031649658282933701 1 1 1 1 1 1 1 1 1 1 1 1 1 1 1 1 1 1 1 1 1 1 1 0.0090694917229144634 1 1 1 1 1 0.010680587528359368 1 1 0.0073185155873681934 1 1 1 1 1 1 1 1 1 1 1 1 1 1 1 0.0089374752253296372 1 1 1 1 1 1 1 0.0098118410944443984 1 1 1 1 1 1 0.0097403470058875993 0.0089367019546632565 1 1 1 1 1 1 1 0.0097156327114895427 1 1 1 1 1 0.0081929531028321623 1 1 1 1 1 1 1 1 1 1 1 1 1 8.4906340291901472e-10 1 1 1 2.3114913941246762e-09 1 0.0074117934359461124 1 1 1 1 1 1 0.0054351143107035024 1 1 0.0099895921634602265 1 1 1 1 1 0.0090355085339729781 1 1 1 1 1 1 1 0.0060154017491950776 1 0.0069735220433834975 1 1 1 1 1 1 1 1 1 1 0.0082906516347570416 1 1 0.00027951745029050623 1 0.0092150790961080704 1 -1.8347431005039105e-09 1 1 1 1 4.3224382406670259e-10 0.0046538956720205277 1 1 1 1 0.0036609351938302155 1 1 -2.4641531801150585e-09 1 0.010921768988257276 1 1 1 -2.3724981701445103e-10 1 1 1 1 1 1 1 1 1 1 0.00087415817887465802 1 1.4840989409625749e-09 1 1 1 1 1 1 1 1 1 1 1 1 1 1 1 1 1 1 1 1 1 1 1 1 1 1 1 1 1 1 1 1 1 1 1 1 1 1 1 1 1 1 1 1 1 1 1 1 1 1 1 1 1 1 1 1 1 1 1 1 1 1 1 1 1 1 1 1 1 1 1 1 3.3770634760843521e-09 1 1 1 1 1 0.0099163135407873502 1 1 1 1 1 1 1 1 1 0.0034289604539692702 1 0.005077681246636094 1 1 1 0.0086457983412400914 1 0.0041189614527265724 1 1 1 1 1 1 1 1 1 1 1 1 1 1 1 1 1 1 1 1 1 1 1 1 1 1 1 1 1 1 1 1 1 1 1 1 1 1 1 1 1 1 1 1 1 1 1 1 1 1 1 1 0.0075838069683932235 1 1 0.003492694280855399 1 0.0096622311619651863 1 1 1 1 1 1 1 1 1 1 1 1 1 1 1 1 1 1 1 1 1 1 0.010931467810786652 1 0.0051998714814861461 1 1 1 1 1 1 1 0.010280883872827582 1 1 1 1 1 1 1 1 1 1 1 1 1 1 1 1 1 0.0073997893707969872 1 1 0.0089948610019038033 1 1 1 1 1 1 1 1 1 1 0.0084000244705694366 1 1 1 1 1 1 1 1 1 1 0.0075901492333150244 1 0.0047231564887269054 1 0.0092342413040897783 0.0043119343100691335 1 1 1 1 0.0094515876203552507 1 1 1 1 1 0.0096990471208288354 1 1 1 1 1 1 1 1 1 0.0065600263604994324 1 1 0.0054202297195378134 1 0.005858523040148278 1 1 1 1 1 1 1 1 1 1 1 1 0.0071382494084624229 1 1 1 0.0035827113478529449 1 1 1 1 1 0.0089133418754886833 1 1 0.0023782702487364846 1 1 1 1 0.010589394975095468 1 0.0083887632223577455 1 1 1 1 1 1 1 1 1 1 1 1 0.012381000769220761 1 1 1 1 1 0.010108333384646466 1 1 0.010011777698415388 1 1 0.009372008010268551 1 1 1 1 1 1 0.0086536787533383983 1 1 1 1 0.011396005543946092 1 0.0095093757445320129 1 0.0093643699306650337 1 1 1 1 1 1 1 1 1 1 1 1 1 1 0.010405802592092899 1 1 1 1 1 1 1 1 1 1 1 1 1 1 1 1 1 1 1 1 1 1 1 1 1 1 1 1 1 1 1 1 1 1 1 1 1 1 1 1 1 1 1 1 1 1 1 1 1 1 1 1 1 1 1 1 1 1 1 1 1 1 1 1 1 1 1 1 1 0.0047901368045533063 0.0046558710441342854 1 1 1 1 0.0054249699914534627 1 1 0.0064700771774372362 1 1 1 1 1 0.0086493618758998261 1 1 1 1 1 1 0.0080948607087148045 1 0.010263766140555649 1 1 1 1 0.0076608216767373172 1 1 1 0.0046212488937018605 1 0.011859988531794497 1 1 1 1 1 1 1 0.0070109549851694163 1 1 1 0.010802600122152192 1 1 1 1 1 1 1 1 1 1 1 1 1 1 1 1 1 1 1 1 1 1 1 0.0084058118535174468 1 1 1 1 1 1 0.0041343091592202716 1 1 1 1 0.007551154921697896 1 0.0098212901086051022 1 1 1 1 1 1 1 1 1 1 1 1 1 0.0084025945669736098 1 1 1 1 1 1 1 1 1 1 1 1 1 1 1 1 1 1 1 1 1 1 1 1 1 1 1 1 1 1 1 1 1 0.0095355447409420473 1 1 0.011236271381212845 1 0.011555260754907802 1 1 1 1 0.013288407138678831 1 1 1 1 0.013029442624488772 1 1 1 1 1 0.011877795262991644 1 1 1 1 1 -1.539499083769158e-11 1 1 0.0029939394758455758 1 1 1 1 1 1 1 0.0098213373511154625 1 1 0.012582260732401521 1 1 1 1 0.010888189461511396 1 1 1 1 1 1 1 1 1 1 1 1 1 1 1 1 1 1 1 1 1 1 1 1 1 1 1 1 1 1 1 1 1 1 1 1 1 1 1 1 1 1 1 0.0069978154480336346 1 1 1 1 1 1 1 1 1 1 1 1 1 1 0.0024468466385768085 1 1 1 1 1 1 1 0.0089274841016875571 1 1 1 1 1 0.0010996496540205229 1 1 1 1 0.0096783166262577915 1 1 1 1 1 1 0.010482030794313316 1 1 0.008691117501188457 1 1 0.007354568036950589 1 0.0087292067420676432 1 0.0050917322890778396 1 1 1 1 0.00084641373283202495 0.011689764022604753 1 1 0.0099948354951178292 1 1 1 0.0066394568937424223 1 1 1 0.0099079016523543131 1 1 1 1 1 1 1 1 1 1 1 1 1 1 1 0.010013070169868032 1 1 1 1 1 1 1 1 1 0.01013057581503592 1 1 1 1 1 1 0.0070388342824109339 0.01056553435872206 1 1 1 1 1 1 1 1 0.007304141832095894 1 1 1 1 1 0.0073175907135310161 1 1 1 0.00674076367054468 1 1 1 0.0081270080516362298 1 1 1 1 1 1 1 1 1 1 1 1 1 1 1 1 1 0.0094565757274376206 1 1 1 1 1 1 1 1 0.0098634214205876054 1 1 1 1 1 1 1 1 1 0.0092632962643715809 1 1 1 1 1 1 1 1 0.007503641949773104 1 1 1 1 0.009555583316676157 1 1 1 1 1 1 1 1 1 1 0.010573741337018178 1 1 1 0.0060800401161131392 0.0075791630030281236 1 0.01140208041097196 1 1 1 0.0085272059353590519 0.005141584778206084 0.010081838882059265 1 1 1 1 1 1 1 0.0096967169585615853 1 1 1 0.0066993759402459892 0.0099996814972834868 1 1 0.011397711995494593 0.0079905769996483668 1 1 1 0.009676243675742241 1 1 1 1 1 0.0099524895578998376 1 1 1 1 1 1 1 1 1 1 0.010017369763618783 1 1 1 1 1 1 1 1 1 1 1 1 1 1 1 1 1 1 1 1 0.0099865535338637557 1 1 1 1 0.0071787440142258617 1 1 1 1 1 1 1 1 1 1 1 1 1 0.0089238334665523791 1 1 1 1 1 1 1 0.0080400312266660501 1 1 1 1 1 1 1 1 1 1 1 1 1 1 1 1 1 1 0.0074249951027628124 1 1 1 1 1 1 0.0089969619521747032 1 1 1 1 1 1 1 0.0083806140308022269 1 1 1 1 0.0078375922137938134 1 1 1 1 1 0.0090728943554486373 1 1 1 0.010047494035076716 1 1 0.0055761140970638327 1 1 1 1 0.008664678107873065 1 0.0081520027598983944 1 1 1 1 1 1 1 1 1 1 1 1 0.008723572679014531 1 1 1 1 1 1 1 1 1 0.0074731320401781936 1 1 1 1 1 1 0.0084595763710444295 1 1 1 1 1 1 1 1 1 0.0087296108210359671 1 0.0062009265721268692 1 1 1 1 1 0.0064032041985210269 0.0078455882717055059 1 1 1 1 1 1 1 1 1 1 1 1 1 1 1 1 1 1 1 1 1 1 0.0082054949283248586 1 1 1 1 1 1 1 1 1 1 1 1 1 1 1 1 1 1 1 1 1 1 1 1 1 1 1 1 1 1 1 1 1 1 1 1 1 1 1 1 1 1 1 1 1 1 1 1 1 1 1 1 1 1 1 1 1 1 1 1 0.010536211812710878 1 0.010651792255902383 1 1 1 1 1 1 1 1 1 1 1 1 1 0.010129782428017636 1 1 1 1 0.010145689083790259 1 1 1 1 1 1 1 1 1 1 1 1 1 1 1 1 1 1 1 1 0.010152717450411635 1 1 1 1 1 1 1 1 1 1 1 1 1 1 1 1 1 1 1 1 1 1 1 1 1 1 1 1 1 1 1 1 1 1 1 1 1 1 1 1 1 1 1 0.0096444642139559764 1 1 1 1 1 1 1 1 1 0.009183954253784727 0.010376272341017583 0.010434153735117326 0.0094598134300086893 1 1 1 1 1 1 1 1 1 1 1 1 1 1 1 0.010125689606919491 1 1 1 1 1 1 1 1 1 0.0043642039227411826 1 1 1 1 1 1 1 0.0035838478733256364 1 1 1 1 1 1 0.011973176837064501 1 1 1 1 0.0056781169247649872 1 1 1 1 1 0.010008795557339396 1 1 1 1 1 1 1 0.0098185530619954581 1 1 1 1 1 1 1 1 1 0.0099115582046858716 1 1 0.01001844076288203 0.0078596258161977538 1 1 1 1 0.0072947962847157034 1 1 0.011034706104656344 1 1 1 1 1 0.0078342833333786034 0.0078322638711414393 1 1 1 1 1 1 1 1 1 1 1 1 1 1 1 1 1 1 1 1 1 1 1 1 1 1 1 1 1 1 1 1 1 1 1 1 1 1 1 1 1 1 1 1 1 1 1 1 1 1 1 1 1 1 1 1 1 1 1 1 1 1 1 1 1 1 1 1 1 1 1 1 1 1 1 1 1 1 1 1 0.0010965120533786427 1 1 1 1 1 1 1 0.0086002129673589302 0.010011017754143637 1 0.012315522326011926 1 1 1 1 1 1 1 0.009458103315168406 1 1 1 1 1 1 1 1 1 1 0.0098035616228391124 1 1 0.0094629895696918126 1 1 1 1 1 1 1 1 1 1 1 0.010222681850595586 1 1 1 1 1 1 1 1 1 1 1 1 1 0.010740594185089148 0.0097765137500173838 1 1 1 1 1 1 1 1 1 1 1 1 1 1 1 1 1 1 1 1 1 1 1 1 1 1 1 1 1 1 1 1 1 1 1 1 1 1 1 1 1 0.0088891212236982473 1 1 1 1 1 0.0094493957534359865 1 1 1 1 1 1 1 1 1 1 1 1 1 1 1 1 0.0101325668049209 0.010277831996261306 1 1 1 1 1 0.0086348214479898874 1 1 1 1 0.0098794107064303117 1 1 1 1 1 1 0.0051044450810486235 1 0.0068661928191527336 1 1 1 1 1 1 1 1 1 0.0087721168371708846 1 1 1 1 1 0.010026433437972021 1 1 0.0057589253531552566 1 1 1 1 1 1 1 1 1 0.0022838739593720458 1 0.0098987782474416024 1 0.00054848248890632806 1 1 1 0.0022277357020683598 1 1 0.0023837095840409106 1 0.010547422912742008 0.0014184316840812616 1 0.0054076958172671694 1 0.0095348857136925216 1 1 1 1 1 1 1 1 0.0094683439543299976 1 1 0.0098395402775088379 1 1 1 1 1 1 0.0018923243949628341 0.0062913428108540871 1 0.0084929580664970736 1 1 1 0.0095826478040725686 1 1 1 1 0.0093711099942200178 1 0.0040788938773461585 1 1 1 1 0.0065810731340349531 0.0076603993603128126 1 1 1 1 1 1 1 1 1 1 1 1 1 1 1 1 1 1 1 0.0098167088491397415 0.0099338253191144123 0.0050077743342948049 0.0092435345260769575 1 1 0.0084743367292490074 1 6.4835739554958138e-10 1 1 1 0.0068310165827962857 1 2.2078472747960598e-09 1 0.0094191267177118412 0.0051305675963473213 0.0015548340325059525 1 1 1 1 1 0.0051012800968522759 1 1 1 1 1 0.0043604358007468787 1 0.0098487503306351979 1 1 0.0093323561226831414 1 0.0024401558387781123 1 0.0093400872414325809 1 1 1 1 0.0095971519351101282 1 1 0.0060731301637109956 1 1 1 0.0094485265357224478 0.0097537859218667627 0.009170687988656518 0.0057599988716004157 1 0.0067369407994947936 1 0.0089265786160234572 1 1 1 0.0061391215467874044 0.0087718829860159806 0.0058252876919313197 1 0.010007275941811555 1 0.0069763147284814635 1 1 0.010013284111548088 0.0082054757098614598 1 1 0.0095868196958284399 1 1 0.0086191619609821395 1 0.0097358456121575745 1 1 1 1 1 0.0070795355123159775 1 0.0071615536954426871 1 0.0071792017426400533 0.0075709746770492078 1 1 0.0098297145290821997 1 0.0058624795710841525 0.0065510279049160527 1 1 1 0.0099994768934981611 1 0.0091272367744104337 1 1 1 0.0097456564666288693 1 1 1 1 0.0057446723918225234 1 0.0074207732798519405 1 1 1 1 1 1 1 1 1 5.6166496106846431e-10 -6.8475768631726108e-10 1 3.8028673855772244e-09 1 0.00038476888629988826 1 1 2.485303325118482e-09 1 1 1 1 1 1 1 1 1 1 1 1 1 1 1 1 -4.5483062628692839e-10 0.0092397144152595468 1 1 1 1 1 1 1 1 1 1 1 1 1 1 1 1 1 1 1 1 1 1 1 1 1 1 1 0.0098587270079084424 1 1 0.010200107167233232 1 1 1 1 1 1 0.0064711875738932279 1 1 1 0.0078092965715689218 0.00074493367400792557 1 0.010980791491123682 1 1 0.010934106070604799 1 1 -4.8362421298589475e-09 1 1 0.012094047280281369 1 0.0093965486755213205 1 1 1 1 1 1 -2.8708141489031114e-09 1 1 1 1 1 1 1 1 1 0.01103957979609576 1 1 1 1 1 1 0.01034615713616611 0.0096400574936160825 1 1 1 1 1.7906349458751691e-09 1 1 1 1 1 1 1 1 -3.1194407890122733e-09 1 0.0098622887836355352 1 -8.3827564334448823e-10 1 1 1 1 1 1 1 0.010510795297187599 1 0.0098717603274056168 0.0017751252556705149 1 1 1 1 1 1 1 1 -3.8866183708907709e-09 1 1 1 1 0.0048950069201737518 1 0.0097555451532444701 1 1 0.00028326159619693897 1 1 0.0097249064128163247 1 1 1 1 1 1 1 1 1 1 1 1 1 1 1 1 0.0080419082622789385 1 1 1 0.010719678257725506 1 1 1 1 1 1 1 1 1 1 1 0.010125864326453952 1 1 1 1 0.0083404027195792124 0.0028605121930458735 1 1 1 1 1 0.0092770034245963605 1 1 1 0.0095471074881178092 1 1 1 1 1 0.0029021639128009868 1 1 1 1 1 1 1 0.010078008859458571 1 0.0099146444122813968 0.0044536737341763846 1 0.0093764577824294367 1 1 1 1 0.0073347596228945655 0.006553327634479543 1 1 1 0.0086510157966576684 1 0.0058976146263949591 1 0.0032394506370351378 1 1 1 0.0071553955177586018 1 1 1 0.011035081082953993 1 1 0.0083298203705386847 1 0.0033288270648009627 0.0067575898335860661 0.0058024907424742214 1 1 0.0061497578736654651 1 0.0099876379376469988 1 0.0062807899207355522 1 1 0.0078150114132969767 0.0082083484962246975 1 1 1 0.0090682026792482939 1 1 0.0095672488060526556 1 1 1 1 1 1 1 0.0083356868554520722 1 1 1 1 1 1 1 1 1 1 1 1 1 1 1 1 1 1 1 1 1 0.010081389229598538 1 1 0.0020116159781466067 1 1 1 1 0.0098858866471294785 1 0.0094186086429946525 1 1 1 1 1 1 1 1 1 1 1 1 1 1 1 1 1 1 1 1 1 1 1 1 1 1 1 1 1 0.0086585384061984433 1 1 1 1 1 1 0.0087736083325478977 1 1 1 1 1 1 1 1 1 1 1 1 1 1 1 0.0099521818472809789 1 1 1 0.01061415993287864 1 0.0099796727857044496 1 1 0.0091014379922809731 1 1 1 1 0.0084808318792038307 1 1 0.0086316481709503446 1 0.0074172307396757724 0.0096034781584616487 0.0086132762272963966 1 1 1 0.0099897465280593921 1 1 0.0066433164034944078 1 0.0071207330471444036 1 1 1 1 1 1 1 1 1 1 1 1 1 0.0072168660777843403 1 1 1 1 1 1 1 1 1 1 1 1 1 1 1 1 1 1 1 1 1 1 1 1 1 1 0.002605568164137588 1 0.0021099650709723861 1 1 1 1 1 0.010179135529985055 1 1 1 1 1 1 1 1 1 1 1 1 1 1 1 0.011252662044583001 1 0.0099513027680946699 1 1 0.010627120490553948 1 1 1 1 1 1 1 1 1 1 1 1 1 1 1 1 1 1 1 0.0094767182400293856 1 1 1 1 1 1 1 1 0.010127972042227922 1 0.0094519161162753898 1 1 1 1 0.00020308995240874567 0.0018748627905417724 1 1 1 1 1 6.1963351741245454e-09 2.248040885388658e-09 1 1 1 1 1 4.3355716031201474e-09 0.010083094353031376 1 1 1 1 1 1 0.0084640932893211701 1 1 1 1 1 1 1 1 1 1 1 1 0.0093053168562054478 1 1 1 1 1 1 1 1 1 1 1 1 1 1 1 1 1 1 1 1 1 1 2.404612734624445e-09 1 1 0.0011285671270912026 1 0.0012335617781284239 1 1 1 1 0.0010653902223494646 1 1 1 1 1 1 1 1 1 1 1 1 1 1 1 1 1 1 1 1 1 1 1 1 1 1 1 1 0.0094611403363027147 1 1 0.0021561143054661253 1 1 1 0.0098357102315003442 1 1 1 1 1 0.0097920873533509992 1 1 1 1 0.010425704804522744 1 1 1 1 1 1 1 1 1 1 1 1 1 1 1 1 1 1 1 1 1 1 1 1 1 1 0.010012975840635341 1 1 1 0.009530095760105212 1 0.0095473708113531508 1 0.0086559664507384892 0.0086772001023998346 1 1 1 0.0098376409357303178 1 0.0089764268251017222 0.0097762900627464174 1 1 1 0.0099328676029548594 1 1 0.009516267964556015 1 1 1 1 1 1 0.0099960819281524546 1 1 1 1 1 1 1 1 1 0.0097364048256553919 1 1 1 1 1 0.009187716923307096 1 1 1 1 1 1 1 1 1 0.0096234519336334465 1 1 0.0092451010776033946 1 0.0093864920751434988 1 1 1 1 1 1 1 1 1 1 1 0.0097630401415100543 1 1 1 1 1 1 0.010061440450299077 1 1 1 1 0.011114994151750969 0.0076554807103307518 1 0.010384684303320981 1 1 1 0.009998939874485753 0.011205563570837431 1 0.0081243345734094488 1 1 0.0079287016661611087 1 1 1 1 1 1 1 1 1 1 1 1 1 1 1 1 1 1 1 1 1 1 1 1 1 1 1 1 1 1 1 1 1 1 1 1 1 1 1 1 1 1 1 1 1 1 1 1 1 1 1 1 1 1 1 1 1 1 1 1 1 1 1 1 1 1 0.0085377329784765144 1 1 1 1 1 1 1 1 1 1 1 1 1 1 1 1 0.006713718480740774 1 1 1 1 1 1 0.0094088558603352343 1 0.010109549571965578 0.0097334727174587729 1 1 1 1 0.011131038316561266 1 0.0064696897772037881 1 1 1 1 0.0095945416567799896 1 1 1 0.0099424549694190276 1 0.0090060002970166544 1 1 1 1 1 0.0099822383387868658 1 0.0098220992957456128 1 1 1 0.010227587994291545 1 1 1 1 1 1 1 1 0.0081676120853251891 1 1 1 1 0.008306287408699424 0.0082555232788592905 1 1 1 1 0.010034920271142868 0.0085460563837451639 1 1 1 1 1 1 1 1 0.0083451179344866955 0.0099993558708918323 1 0.0087774950452096101 1 1 1 1 0.009066078106741933 1 1 1 0.010016960720867369 1 1 1 1 1 1 1 1 1 1 1 1 0.010125692231991314 1 1 1 1 1 1 1 1 1 1 1 1 1 0.0095792939262338839 1 1 1 1 1 1 1 0.0095783222890249431 1 1 1 1 1 1 1 1 1 1 1 1 1 0.008991053252641476 1 1 1 1 1 1 1 1 1 1 1 1 1 0.010081616555485557 1 0.010000135116235839 1 1 1 1 1 1 1 1 1 1 1 1 1 1 1 1 1 1 1 1 1 1 1 1 1 1 1 1 1 1 1 1 1 1 1 1 1 1 1 1 1 1 1 1 1 1 1 1 1 1 1 1 1 1 1 1 1 1 1 1 1 1 1 1 1 1 1 1 1 1 1 1 1 1 1 1 1 1 1 1 1 1 1 1 1 1 1 1 1 1 1 1 1 1 1 1 1 1 1 1 1 1 1 1 1 1 1 1 1 1 1 1 1 1 1 1 1 1 1 1 1 1 1 0.0094940514012873574 1 1 1 1 1 1 0.0091917761106006385 1 1 1 1 1 0.010517169350959414 1 1 1 1 1 0.010069195972004334 1 1 0.010375746978397273 1 1 1 0.0099940957926136931 1 1 1 1 1 0.010233730917719518 1 1 1 1 1 1 1 0.0098287360080995326 1 1 1 1 1 1 1 1 1 1 1 1 1 1 1 1 1 1 1 0.0076011266282114617 1 1 1 1 1 1 1 0.006895083152734939 1 1 1 1 1 1 0.0062527544884004374 1 0.0098159247954321006 1 1 1 0.010016817227747048 1 1 0.0097935715551535005 1 1 1 1 1 1 1 1 1 1 0.0093835738950636613 1 1 1 1 1 1 1 1 1 1 1 1 1 1 1 0.0098610459178326837 1 1 0.0099378093566922857 1 1 1 1 1 1 1 1 1 1 1 1 1 1 1 1 0.0099232365611403896 1 1 1 1 1 1 1 1 1 1 1 1 1 1 1 0.0097050498598610906 1 1 1 1 1 1 1 1 0.0092120723319447043 1 1 1 1 1 1 1 1 1 1 1 0.009846566527214471 1 1 1 1 1 0.0092941877861389827 1 1 1 1 1 1 1 1 0.009497422039074721 1 1 1 1 0.0097112455011028678 1 1 0.0096427810082873478 1 1 1 1 1 1 1 0.010117294578102422 1 1 0.0075192084071628515 1 1 0.0090800540460020812 1 1 1 1 1 1 1 1 1 1 1 1 1 0.0093863587906779372 1 1 1 1 1 1 1 1 1 1 1 1 0.0069851574659287041 1 1 0.009369384796186972 1 1 0.010059076228943807 1 1 1 0.0099898002898400947 1 1 1 1 1 1 1 1 1 1 1 0.0074172279364194751 1 1 1 1 1 1 1 1 1 1 1 0.0032767380003673532 1 1 1 1 1 1 1 1 1 1 1 1 1 1 1 1 1 1 1 -6.9961721832489943e-10 1 1 1 1 1 1 1 1 1 1 1 0.011780732067050416 1 0.00052374858905784166 1 0.010167056998474302 1 1 1 1 0.00055452485372472354 1 1 1 1 1 1 1 1 1 1 1 1 1 1 1 1 1 1 1 1 1 1 1 1 1 1 1 1 0.0093191940897173735 1 1 1 1 0.0081235497726981215 1 1 1 0.0056504717359276077 1 1 1 0.0046503057157014568 1 1 1 1 0.0042469449226691172 1 0.0097934057411070141 1 1 0.0099786197395165532 0.0042388789034503785 1 1 1 0.0078344204913909851 1 0.0046899533383122569 1 1 0.0049501185025375288 1 0.0029188092915950047 1 1 1 -3.9207791527329228e-09 1 1 8.9067041242341105e-09 1 0.010750732671220283 1 1 1 0.010924994333882936 1 0.0012884305960353323 1 1 -5.6198763594139667e-09 4.5120119689101568e-09 1 1 1 0.009982910445872975 -4.7774293548963342e-10 1 1 -1.482713646305811e-09 1 1 1 1 1 1 1 1 1 1 1 -6.3766508739959704e-10 0.012087096749987194 1 1 1 1 1 1 0.0095309765766330955 1 0.0099554655945791899 1 0.0082481147200376831 1 1 -1.5950582382684431e-09 1 1 0.0097956600070104073 1 0.0024241432189465381 1 1 1 1 1 1 1 1 1 1 1 1 1 1 1 1 1 1 1 0.010696662799158247 1 1 1 1 1 1 1 1 1 1 1 1 1 1 1 1 1 1 1 1 1 1 1 1 1 1 1 1 1 1 1 1 0.010393438493362467 0.009494518714259513 1 1 1 0.0091477982635316951 1 0.010117276373294199 1 0.010799309056205336 1 0.0086939055838161847 1 1 1 1 0.010000991306927495 1 1 1 1 1 1 1 0.0088534161917959847 1 1 1 1 1 1 1 1 1 1 1 1 1 1 1 0.010292863341605934 1 1 1 1 1 0.0060753633972725832 1 1 1 1 1 1 1 0.0097651833740549435 1 1 1 1 0.010626370297105803 1 1 1 1 1 0.0064444617175945518 1 1 1 0.0099966482625762007 1 0.003371991511497148 1 1 1 0.0095524340900871012 1 0.0095895340765766082 1 0.0043811818648181663 1 1 0.0097315647541074846 1 1 1 0.0061788184346956414 1 1 1 1 1 0.007399765052181654 1 1 1 0.0087394901120915226 1 1 0.0087293442224654245 1 1 0.008639131867610686 1 1 1 1 1 1 1 1 1 1 1 1 1 1 1 1 0.0085089030176697875 1 1 0.0086888649449692809 1 1 1 1 0.0072026007707557474 1 1 1 1 1 1 1 1 1 1 1 1 1 1 1 1 1 1 0.010128543317631536 0.010054495404190716 1 1 1 1 1 1 1 1 1 1 1 1 1 0.0075184876751021035 1 0.0093179841887976525 1 0.0091972974396473534 0.0079435868863684533 0.0093402980144184702 1 1 1 1 1 1 1 1 1 0.0098349601858288439 1 1 0.0095096813821345418 1 1 1 1 1 1 0.010234458166766706 1 1 1 0.010032107942842938 1 1 0.0099711044561830199 1 1 1 1 1 1 0.010134103639494296 0.0099569120262344088 1 1 1 1 0.0068517372246244615 1 1 0.0060234655534574313 0.0072626139815742535 1 1 1 1 1 1 1 0.006638105753440357 0.0088383339572847899 1 1 1 1 1 0.0082904478783194582 1 0.010110548559352854 1 1 0.0091995953228166012 1 1 0.0022758205932848288 0.0099639024045963254 1 0.007516500698615293 1 1 1 1 0.010032522156064571 0.0053577127388589191 1 1 1 1 0.0038164068541994903 1 1 0.0093532714729257574 1 1 0.015053180422906617 1 1 0.0018369527761539495 1 1 1 1 1 1 1 1 1 1 1 1 1 1 1 1 1 1 1 1 1 -1.6220935011856952e-10 1 -4.0905039772054508e-10 0.010297119826912664 1 1 0.010987834661528475 1 1 1 1 1 1 1 1 1 0.010004730364646549 1 1 1 1 1 1 1 0.0092315589885927848 1 1 1 1 1 1 1 1 1 1 1 1 1 1 1 0.0086610880914550076 1 1 1 1 1 0.0099611290695091476 0.0079410184162679864 1 1 0.0096672945354179321 0.01010648637928931 0.0099947389236142437 1 1 1 1 1 1 0.0088046438888632339 1 0.0099544182268095343 1 1 1 1 1 1 0.0099881483650967901 1 0.0095571401421898836 1 1 1 0.008931196219134907 1 1 1 1 1 1 1 1 1 1 0.0098250246752560888 1 1 1 1 1 1 1 1 1 1 1 1 1 1 1 1 1 1 1 1 1 1 1 1 0.0094004648312698905 1 1 1 1 1 1 1 0.0097787399716689066 0.010037342507207151 1 1 0.010158964562128463 0.0099467738401538223 1 1 1 1 1 1 1 1 1 1 1 1 1 1 1 1 1 1 1 1 1 1 1 1 1 1 0.0081587944655677758 1 1 1 0.0057330673970383689 1 1 0.004989462504247269 1 1 1 1 1 1 1 1 1 1 1 1 1 1 1 1 1 1 1 1 1 1 1 1 1 1 1 1 1 1 1 1 1 1 1 1 1 1 1 1 1 1 1 1 1 1 1 1 1 1 1 0.0061299995720859573 1 1 1 1 1 1 1 1 1 1 1 0.0097930815586813307 0.0049845287265888293 1 1 1 0.0095015440232332337 1 1 1 1 1 1 1 1 1 0.0067935908452603569 1 1 1 1 0.0079466730911304864 1 1 1 1 1 1 1 1 0.0047965295772561256 0.0052610839032335779 1 1 1 1 0.01058604035147799 1 1 1 1 1 1 0.010116398348893 1 1 1 1 1 0.0092324776152365451 1 1 1 0.015785451837185431 1 1 0.0077514873907838233 1 1 0.010004210874058081 1 1 1 1 1 1 0.0072266133025973602 1 1 1 1 1 1 1 1 1 1 1 1 1 1 1 1 1 1 1 1 1 1 1 1 1 1 1 1 1 1 1 1 1 1 1 1 1 1 1 1 1 1 1 1 1 1 1 1 1 1 1 0.010026440898994364 1 1 1 1 1 0.0095819511820086235 1 1 1 1 0.0098215369637796954 1 1 1 1 1 1 1 1 1 1 0.0094927860028000272 0.0082663232581452351 1 1 1 1 0.0098108858069798945 1 0.0058791067590868787 1 1 1 1 1 1 1 1 1 1 1 1 1 1 1 1 1 1 1 1 1 1 1 0.0088080464799016635 1 1 1 1 1 1 1 0.0082541252602318094 1 1 1 0.0059587486066862774 1 0.0064693406373893467 1 1 1 1 1 1 1 1 1 1 1 1 1 1 1 1 1 1 1 1 1 1 1 1 1 1 1 0.010026689462103491 1 1 1 1 1 1 1 1 1 1 1 1 1 1 1 0.0098674494176273862 1 0.0014642958800468765 1 1 1 1 0.0065591350332863761 1 1 1 1 0.010525903768941965 1 1 1 1 1 1 1 1 1 0.0079625412661861687 1 1 1 1 1 1 1 1 7.2203376957902243e-10 1 1 0.01593247273405491 1 1 0.0046651311301067339 1 1 1 1 1 1 1 1 1 0.01275272101569979 1 1 1 1 1 1 1 1 1 1 0.0024621283759557432 1 1 1 1 0.00016691114092716799 1 1 1 1 1 1 1 1 1 1 1 1 1 1 1 1 1 1 1 1 0.0072242377117455701 1 0.0072654302024738153 1 1 1 1 1 1 1 1 1 1 1 0.0019843130140043928 1 1 0.0099638724166606647 0.0029629963289904832 1 1 1 0.0045235937900016294 1 1 0.0039198844061313978 1 1 1 1 1 1 0.00958555875797781 1 1 0.0087353178337002315 1 0.0098417838897316961 1 1 1 1 1 1 1 0.0019784271713268499 1 0.0047421112560581576 1 0.0030127139935178966 0.0088094895705100526 1 1 1 1 1 0.0028799918320153474 0.0099759076044763986 0.008445908994674586 1 1 1 1 0.0098656630995292306 0.0095399654694433428 1 1 1 1 0.0034025387860300519 1 1 0.0010657628858216951 1 1 0.010804427973701809 1 1 1 1 1 1 1 1 1 1 1 1 1 1 1 1 0.0099073437830863743 0.010121683598106081 1 1 0.0057372457211794063 1 1 1 1 0.006667009219150739 1 1 1 1 0.009245287706857775 1 0.0071866640952220184 1 1 1 1 1 1 1 0.0033653061883020217 0.0028595041225296589 1 1 1 1 0.0098544898199287301 1 0.0037772318637174715 0.0036785290747836444 1 1 1 1 1 1 1 1 1 1 1 1 1 1 1 1 1 1 1 1 1 1 0.0099119111613921243 1 0.0074236539473483704 1 1 0.0097651730738921375 1 1 0.0029968135251076666 0.01059020144483987 1 1 1 1 1 1 1 1 1 0.010004702419427683 1 1 0.0044739811521881147 0.005733400510447656 0.010180399961506289 1 0.0045025800290860798 1 1 1 0.0052903955098442396 0.0096705014386956976 1 1 1 0.0026613770395668285 0.011130610526588413 1 1 1 0.0053336576426544872 0.011341048826087538 1 0.0071391263496668571 1 0.0059962275888173055 1 1 1 0.00054877033353099847 1 0.0075766600168919764 1 1 1 0.0033584591213432144 1 1 1 1 1 1 1 1 1 1 1 0.01004003523229223 -3.152704153297492e-09 1 1 0.0072284188954037862 1 1 1 -2.4163798253984403e-09 1 0.0042366486356423053 1 1 1 0.0096418164021181869 1 1 1 1 1 1 1 1 1 1 0.010278697737546676 1 1 1 1 1 1 0.0093659634480343073 1 1 0.0082040724118488621 1 1 1 1 1 1 1 1 1 1 1 0.0082551606636094566 1 1 1 1 1 1 1 1 1 1 1 0.0079156652195099732 0.0051538642408729581 1 0.0049238410632576265 1 1 1 1 0.0099664454993931527 0.012459101647435061 1 1 1 1 1 1 0.0091686760162958802 1 1 1 1 1 1 0.0054652956111619477 1 1 1 0.0030737980336782694 1 0.0013552283891000222 1 1 1 1 0.0097242584654820483 1 1 0.0093250388844868057 0.0030283371305527534 1 1 0.006902472254081019 1 1 0.0032638512972489302 1 1 1 0.010693704131868462 1 1 1 1 1 1 1 0.0038642200012802413 0.010028903187732667 1 1 1 1 1 1 1 1 0.0099996141496446044 0.0050626476263344608 1 1 0.017057645178175228 1 1 1 1 1 1 0.0081997282841759517 1 1 1 1 1 1 1 1 -3.6353516794096485e-09 1 0.0099985993803439095 1 1 1 1 0.010464244394285283 1 1 1 1 1 1 1 1 1 1 1 0.0021669727490050009 1 0.009797195462356488 0.009468624378254244 1 1 0.0099593929929475133 1 1 1 1 1 0.0096587701389060903 1 0.014592788435975688 1 1 1 1 0.0098730561576523424 1 1 1 1 1 1 1 1 1 1 0.010072014358506498 1 1 1 1 1 1 1 1 1 1 1 1 0.0091464616846519946 1 1 1 1 0.0092003031259289582 1 1 0.0079172697407156323 1 1 1 1 1 1 1 1 1 1 1 1 1 1 0.009961277596522395 1 1 1 1 1 1 1 1 1 1 1 1 0.0102530722599995 1 1 1 1 1 1 0.0021920240750912812 1 1 1 1 0.0091933533259334604 0.0019558845300184239 1 1 0.0099532603444499358 1 1 0.010097259718637818 1 1 1 1 0.0031667708522753572 1 1 1 1 1 0.010046444117478197 1 1 1 0.0099975791926532401 1 1 1 1 1 0.0099037394142739814 1 0.0087399191484230469 1 0.0099959220343589991 0.0067530110855518414 0.0084835760909551076 1 1 1 1 1 1 1 1 0.0024545877081754439 1 1 0.0031677381749783389 1 1 1 1 1 1 1 1 1 0.010158306610627065 1 1 1 1 1 1 1 1 1 1 1 1 1 1 1 1 1 1 1 1 1 1 1 1 1 1 1 1 1 1 0.0098709436542039099 1 0.010021887335810855 1 1 1 0.0098349483876784098 1 1 0.0099815509016967091 1 0.0090290461774421744 0.0061848225283693443 1 0.010014838348091686 1 0.0099028707024247271 1 1 1 1 1 1 1 1 0.0087338611187691151 1 0.0093809776782547271 1 1 0.008618383031241671 1 0.0099936140649127085 1 0.009935082077935798 1 1 1 1 1 1 1 1 0.0098268676119448849 0.0093704506043797813 1 1 1 0.0087113843687331126 1 0.0081149849117765731 1 0.0097825775516139843 0.0088560831244981833 1 1 1 1 1 1 1 1 1 0.013156853943359187 1 1 0.0027143447990221328 1 1 1 1 1 1 1 1 0.0073029836371601327 1 1 0.011020361037890806 1 1 1 1 1 1 1 1 0.0093495961475685268 1 0.0087621620023818694 1 1 1 1 1 1 1 0.0095844693410922464 1 1 1 1 1 1 1 1 1 1 0.0070650197221501544 1 1 0.0080986885575314322 0.010207740799754382 1 0.0070817166876932158 0.0092368778623520761 0.0060043722084781263 1 1 0.010665742276863453 1 1 0.0082478945166861387 1 1 1 1 0.0073700946340244222 1 1 1 1 1 1 1 1 1 1 1 1 1 1 1 1 1 1 1 1 1 1 1 0.0032581880500416769 1 1 1 0.0010324076740395663 1 1 1 1 4.8718925841250565e-05 1 1 1 1 1 1 1 1 1 1 1 0.0095425939120460327 1 1 1 1 1 1 1 1 1 1 1 1 1 1 1 1 0.0094539279737918709 1 1 1 0.0090070190857465659 1 1 1 1 1 -1.0148608585447416e-09 1 1 1 1 0.0087199234418112396 1 1 1 1 1 1 0.0086667144702701308 1 1 1 1 1 0.00093127312072387516 1 1 0.0023983333337664857 1 1 1 0.00051100530829918667 1 1 1 2.6460558744112461e-10 1 1 1 -8.0710235716985324e-10 1 1 1 1 1 1 1 -8.6918408234715194e-10 1 1 1 1 1 0.0022652067359748423 1 1 1 0.0067691768901570956 1 1 1 1 1 0.0094007190022507639 2.2123037082821817e-10 1 1 1 1 1 1 1 1 0.0075526163554818157 0.0088986012196238737 1 1 1 4.9718458516867514e-12 1 0.010313796246421463 1 1 1 1 1 1 1 0.01016825639659957 1 -2.3619703172494955e-09 1 1 1 1 0.01178657105369979 1 0.0010286436854523781 1 0.0034548383690189283 1 1 1 1 1 1 0.0019126238816615029 1 1 1 0.0022010805575400014 1 1 1 1 1 0.0091307991234115971 1 1 1 1 1 1 1 1 1 1 1 1 1 1 1 1 1 1 1 1 1 1 0.010391507035726893 1 0.0038692962372043199 1 1 0.010223253809858569 1 1 1 1 1 1 0.0082553915710160963 1 1 0.0020392386645849709 1 1 1 1 1 1 1 1 1 1 1 1 1 1 1 1 1 1 1 1 1 1 1 1 0.0091506798505405842 1 1 1 1 0.0088800936487492821 1 1 1 1 1 1 1 1 1 1 1 1 1 0.01203986902445113 1 0.013619011101999041 1 1 1 1 1 0.011094528614598888 1 1 1 1 1 1 1 1 1 1 1 1 1 1 1 1 1 1 1 1 0.0050731090209734774 0.0079799051319062834 1 1 1 1 1 1 1 1 1 1 1 1 1 0.0093033340535193833 1 1 1 1 1 1 1 1 1 1 1 1 1 1 1 1 1 1 0.0096669782340124688 1 1 1 1 1 1 1 1 1 1 1 1 1 1 1 1 1 1 1 1 1 0.0045910248186623271 1 1 1 1 1 0.0047680240987784932 1 1 1 1 1 1 1 1 1 1 0.0020126912195572583 1 0.010372401435800416 1 1 1 1 1 1 1 1 1 1 1 0.0078567663399914181 1 1 0.003616625219256514 1 1 1 1 1 1 0.010426548861986495 0.010670880551477241 1 1 1 0.0046163641648117541 1 1 1 1 1 1 1 1 1 1 1 1 1 1 1 1 1 1 1 1 1 1 1 1 1 1 1 1 1 1 1 1 1 1 1 1 1 1 1 0.0062106317280429361 1 1 1 1 1 1 1 1 1 1 1 1 1 1 1 1 1 1 1 1 1 1 1 1 1 1 1 0.0092237890238221591 1 1 0.006715600703019243 1 1 1 1 0.0080797058764455511 1 1 1 0.0082013913599608204 1 1 1 1 1 1 1 1 1 1 1 1 1 1 1 0.010368108591202775 1 1 0.0053872478199165578 1 1 1 1 1 1 1 1 0.0082940439308493569 1 1 1 1 1 1 1 0.0073507000455682037 1 1 1 1 1 1 1 1 1 1 1 1 1 1 1 1 1 1 1 1 1 1 1 1 1 1 0.008514209343058422 1 1 1 1 1 1 1 1 1 1 1 1 1 1 0.0091794154803264659 1 1 1 1 0.0075113904594884366 1 1 1 1 1 1 1 1 1 1 1 1 1 1 1 1 1 1 1 1 1 1 1 1 1 1 1 1 0.0082955483347066233 1 1 1 0.0091161328543801594 1 1 1 1 1 1 1 1.600154391400788e-05 1 1 1 1 0.015244442491537617 1 1 0.0099934965844409238 1 1 1 1 1 0.0071691652742460381 1 0.010708395826584097 0.0088074297752961193 1 1 1 1 1 1 1 1 1 1 1 1 1 1 1 1 1 1 1 1 1 1 1 1 1 1 1 1 1 0.0059295973045176611 1 1 1 1 1 1 0.011481156318871588 1 1 1 0.01258036646685369 1 1 1 0.0071709335646222526 1 1 1 0.0098210597593775262 1 1 1 1 1 1 0.0071251513704707796 1 1 1 1 1 1 0.0087743886539389682 1 1 1 1 1 1 1 1 1 1 0.011454885239869666 1 1 1 1 1 1 1 1 1 1 1 0.0099599334528077295 1 1 1 1 0.010427372040843236 1 1 1 0.0095476060136146894 1 1 1 1 1 1 1 1 1 1 1 1 1 1 1 1 1 1 1 1 1 1 1 1 1 1 1 1 1 1 1 1 1 1 1 1 1 1 1 1 0.0088114615846291173 0.0092962359256653186 1 1 1 1 1 1 1 1 1 0.0082889130717791731 1 0.011107405920240784 0.0077944348489258786 1 1 1 0.0053476618593005726 0.010372697969910857 1 1 1 1 1 1 1 1 1 1 1 0.0041320986065132743 1 1 0.0097455854687848401 0.010552729240700456 1 1 1 1 1 1 1 1 1 1 1 1 1 1 1 1 1 1 1 1 1 1 0.010388478359464257 1 0.010207658313499641 1 1 1 0.0099488196453483731 0.0063103042854140111 1 1 1 1 1 0.0072415340932976673 0.011829558136995206 0.0097369797422779091 0.009331387610162438 1 1 1 1 1 1 1 0.0041010732217513484 1 1 1 1 1 1 1 0.010970014845673455 1 1 0.010270669023722577 1 1 0.0050386191257102289 1 1 1 1 1 1 1 1 1 1 1 1 1 1 1 1 1 1 0.006727748300148894 1 1 1 1 0.0088748397973799093 1 1 1 1 1 1 1 1 1 1 1 1 1 1 1 1 1 1 1 1 0.010231079663552292 1 1 1 0.0089402689352202254 1 1 1 1 1 1 1 1 1 1 1 1 1 0.006999546688642928 0.0053192300386793716 1 0.01069587730964423 1 1 1 1 0.0092970288799242885 1 1 1 1 0.0099750523433590962 1 1 1 1 1 1 1 0.0095271095886257078 1 1 1 0.0089061551023022888 1 1 1 1 1 1 1 1 1 0.0062774507136030989 0.0075046727507828131 1 1 1 0.0099114917775821806 1 1 1 1 0.0013131300580559793 1 1 0.0078140595712632224 0.0091333467557274551 1 0.0081464240577797074 1 0.010059370768659114 1 0.00992366213842962 1 1 1 0.0099554685444905363 1 1 1 1 1 1 1 1 1 0.0052788230323129841 1 1 1 1 0.01009133010940156 1 0.0099985290221131628 1 1 0.011354667535405816 1 1 1 1 1 1 1 1 1 1 1 1 1 1 1 1 0.0094087768144722108 1 1 1 1 1 1 0.0063709611770147757 1 1 0.0051557767366009763 1 1 1 1 1 1 1 1 1 1 1 1 0.0079521891288026163 1 1 1 0.0081998450662666856 1 0.011119900664444102 1 0.0097441219391710705 1 1 1 1 0.0069665335150254845 1 1 1 1 1 1 1 0.0074427254022507595 0.0068229372397728225 1 1 1 1 1 1 1 1 1 1 1 1 1 1 1 1 1 1 1 1 1 1 1 1 1 0.010262619263824851 1 1 1 1 1 1 0.0089760054514793075 1 1 1 1 1 1 0.01109249840646122 1 1 1 1 1 1 1 1 1 1 1 1 1 1 0.0097102075200788465 0.0044599304449353611 0.0044679335473844142 1 1 1 1 1 1 1 1 0.0051985607275837524 1 1 1 1 0.0044424172955598133 1 1 1 1 0.0080857876705612182 1 1 1 1 1 1 0.0068262357851544258 1 1 1 0.008242415937749506 1 1 1 1 1 1 1 1 1 1 1 1 1 1 1 1 1 1 1 1 1 1 1 1 1 1 0.0044984216086557168 1 1 1 1 0.0043205469571850948 1 1 1 1 1 1 1 0.009974671262868183 1 1 1 1 0.010162054441054318 1 1 1 1 1 1 1 1 1 1 0.010494153025654401 1 1 0.0062439807967903486 1 1 1 1 1 1 1 1 1 1 1 1 1 1 1 1 1 0.0063963377780906112 1 1 1 1 1 1 1 1 1 1 1 1 1 1 1 0.0014687052238513115 1 1 -4.6688970745112357e-10 1 1 1 1 1 1 1 1 1 1 1 1 1 1 1 1 1 1 1 1 1 0.0068814925716513906 1 1 0.0016863282536038575 1 1 1 1 1 1 1 1 1 0.0065255891950005808 1 1 1 0.0085898049509282072 1 1 1 1 1 1 1 1 1 1 1 1 1 1 1 1 1 1 1 0.0092357298963362672 1 1 1 1 0.0091625392897166161 1 1 1 1 1 1 1 1 1 1 1 1 0.0099650265439091695 1 1 1 1 1 1 1 1 1 1 1 1 1 1 1 1 1 1 1 1 1 1 1 1 1 1 1 1 1 1 1 1 1 1 1 1 1 1 1 0.0038484783001987623 0.0089185827476355225 1 1 1 1 1 1 1 1 1 0.0096189724286600987 1 1 1 1 1 1 1 1 1 1 1 0.0092732698094900208 1 1 1 1 1 0.010230247422804815 0.0017445168560790729 1 1 1 1 0.0028641031660542821 1 1 1 0.0074660004133748591 1 1 1 1 1 1 1 1 1 0.0084807426036611309 1 1 1 1 1 1 1 1 0.0084714509031097954 0.0053560788819292616 0.013061861256425594 1 1 0.0084910656015257883 1 1 1 1 1 1 1 1 1 1 1 1 4.2721125595446274e-10 1 1 1 1 1 1 1 1 1 1 1 1 0.012009458024713057 1 1 1 1 1 1 1 0.0096289272228875233 1 1 1 1 1 1 1 1 1 1 1 1 0.0086298311972933389 1 0.0079897795013191952 1 1 1 1 1 0.0056061943082758268 1 1 1 1 1 1 1 0.0080862098910546715 1 1 1 1 1 1 1 1 1 0.0043095377800828789 1 1 0.0012921328472737447 1 1 1 1 1 1 1 1 1 1 1 1 1 1 1 1 1 0.007498414087869356 1 1 0.0079661721905926169 1 1 1 1 1 1 1 1 1 1 1 1 1 1 1 1 1 1 1 1 1 1 1 1 1 1 1 0.009926462936119089 1 0.01028162687528178 1 1 1 1 1 1 1 1 1 1 0.0097759534893205203 1 1 1 1 1 1 1 1 1 1 1 1 1 1 1 1 1 1 1 1 1 1 1 1 1 1 1 1 1 1 1 1 1 1 1 1 1 1 1 1 1 1 1 1 1 0.0050998651565403539 1 1 0.0061633208157448847 1 1 0.0095561906152797239 1 1 1 1 1 0.010122716721577617 1 1 1 1 1 1 0.0017184682115818709 1 1 0.00059289493203781634 1 1 0.0099668985833922218 0.0098932569183594627 0.0044560212912687731 1 0.0088731522924638886 0.005083064770221999 1 1 1 1 1 0.00040756795004733525 1 1 1 0.0026375002686176811 1 1 1 1 1 0.0084807979657779784 1 0.0066935330748801678 1 1 1 1 1 0.0053081212937056282 1 1 1 1 0.010045333000084793 1 0.010173455759344894 1 1 1 1 1 0.010455555088713323 1 0.0069188576739275913 1 0.0067092822165308996 1 1 1 0.0094710715668671237 1 1 1 1 0.0079819940032217693 1 1 1 1 1 1 1 1 1 1 1 1 1 1 1 1 1 1 1 1 1 1 1 0.0092643221107854001 1 1 0.0075610388124943573 1 1 1 1 0.0064333799475106649 1 1 1 1 1 1 0.010906050008606125 1 0.011457439925084129 1 1 1 1 1 1 1 1 1 0.012635238968653199 0.0091520780791406239 0.00050290438997454591 1 1 0.004837625958667699 1 1 1 1 1 1 1 1 1 1 0.0049794452481281941 0.011568037632784601 0.003490091224558841 1 1 1 1 1 1 1 0.0059410322179752461 1 0.0049622458390659813 1 0.0070269552473715795 1 1 1 1 0.0021101676333358608 1 1 1 0.0098877134215833683 1 1 1 1 0.0084590924155248676 1 1 0.0028602959767348437 1 1 1 1 1 1 1 1 0.0095499317363552522 1 1 1 1 0.0099944463878600485 1 1 0.0042040827110507613 1 1 1 1 1 0.0051322351119004565 1 1 1 1 1 1 1 1 1 1 1 1 1 1 1 1 1 1 1 1 1 1 1 0.0053501716229084929 1 0.010021168679614638 1 1 1 1 0.0081689457315112981 1 1 1 0.0083694098909037253 1 0.01093485905034201 1 1 1 1 1 1 1 1 1 0.0080653554373576186 1 0.0092514915146011869 0.0083399705279737727 1 1 1 0.0063703911538240329 1 1 1 1 1 1 1 1 1 1 1 1 1 1 1 1 1 0.0099985070120045243 1 0.0092285886392358858 1 1 1 1 1 1 1 1 1 1 1 1 1 1 1 1 1 1 1 1 1 1 1 1 1 1 1 1 1 1 1 1 1 1 1 1 1 1 1 1 1 1 1 1 0.0077662905479522967 1 1 1 1 1 1 1 1 1 1 0.0077620929367822281 1 1 1 0.0092798538587304386 1 1 1 1 1 1 1 1 0.0085364401497011085 1 1 1 0.01013395313357009 1 1 0.0071917141060402756 1 1 1 1 1 1 1 1 0.0080224779603356132 1 1 1 1 0.0091431234730670798 1 1 1 1 1 1 1 1 0.011794628440342098 1 1 1 1 1 1 1 1 1 1 1 1 0.0084795157175742673 0.0083234419543458255 0.0091886086805928469 1 1 1 0.0091957503404336838 1 1 0.011623706980606951 0.0070119138066464665 1 0.01000237882279336 1 0.011021815077567668 1 1 1 1 0.0062455495310265348 1 1 1 1 1 1 0.010601254097888405 1 0.0097440830959964874 1 1 1 0.0010285343529443311 1 1 1 1 0.0096001704925407737 0.010263817824844125 1 1 1 1 1 0.013019503620296661 1 1 1 0.0055490535629548338 1 0.0099138514319305343 0.0054816751316679319 1 1 1 1 1 0.0089792449558192718 1 1 0.010010968613657171 1 1 0.0098446629463428623 1 1 1 1 1 1 1 1 1 1 1 1 1 1 1 1 1 1 1 1 1 0.0052448686670473477 1 0.0099841068860376699 1 1 1 1 1 1 0.0024042973014051297 1 1 1 1 1 1 1 0.010235288130516088 1 1 1 1 1 1 1 1 1 1 1 1 1 1 1 1 1 0.0084120827454235627 1 1 0.0083914256333206642 1 1 1 1 1 1 1 1 1 1 1 1 1 1 0.010214584565536897 1 1 0.0064604425529983123 1 1 1 1 1 0.010167756247402446 1 0.0029799350606024497 1 1 1 0.0058342210620575333 1 1 1 1 1 1 0.0081656546342257583 1 1 1 1 0.0090479485224196025 1 1 1 1 1 0.007427357860120375 1 1 1 1 1 1 1 1 1 1 1 1 0.009053888567753951 1 0.0086409217527934883 1 1 1 1 1 0.0068338549263363101 1 1 1 1 1 1 1 1 1 1 0.010355119984050663 1 1 1 1 1 1 1 1 1 1 1 1 0.0057364195836354312 1 1 1 1 0.0084424292930156478 1 1 1 1 1 1 1 1 1 0.0077092338795059223 1 0.0099952234831548747 1 1 1 1 1 1 1 0.009994502656321843 1 0.010232997941154377 1 0.0072633630053685217 1 1 1 1 1 1 0.0053931685179861846 1 1 1 1 1 1 1 1 1 0.0084284156375108287 1 1 1 0.0065951104716305935 1 0.011088121458018324 1 1 1 1 0.010546618653920828 1 1 0.010246968302750804 1 1 1 1 1 0.0089283841768249862 1 1 1 1 1 1 1 1 1 1 1 1 1 1 0.0064015671389988545 1 1 1 1 1 1 1 1 1 1 1 0.0079815928773329138 1 1 1 1 0.0053823143276787375 1 0.010059030735578314 1 1 1 0.0091389506896415642 1 1 0.0097591437568219346 1 0.010119459465372519 1 1 1 1 1 1 1 0.0066988748336966261 1 1 1 1 1 1 1 1 1 1 1 1 1 1 1 1 1 1 1 1 0.0092724991599195065 1 1 0.0074758312946529154 1 0.0089708904823960992 1 1 0.0086258304697719307 1 1 1 0.010017625173408899 0.0086097844376650488 1 1 1 1 0.006113261172393393 0.0077079840220475454 1 1 1 0.0094992549117125877 0.006934525765393898 1 0.0080358731003302014 1 1 0.0061048483152727762 1 1 1 1 0.0068804040862855721 1 1 1 1 1 1 1 0.010078106787745036 1 1 1 0.0088589101783460699 0.0063934863180692345 0.0076315132302103468 1 1 1 1.3474791143996967e-09 0.0080389898369081347 0.0088197296518417526 1 1 1 1 0.010142130109468968 1 1 1 1 1 0.008329725314707763 1 1 1 1 1 1 1 1 1 0.0054475145298879188 1 1 1 1 0.0084437262570871419 0.0015780533352623763 1 1 1 1 1 1 1 1 0.00056786124874706745 1 1 1 1 1 0.0098406741884796787 1 1 0.0070226598946932298 0.0094699251495766607 1 1 1 1 0.0065498539701992903 0.0089624502157359866 1 1 0.0088203327917042371 1 1 1 1 1 1 1 1 0.0049245611232635877 1 1 1 1 1 1 1 1 0.0092724647984474134 1 1 1 1.5222579030638173e-09 1 1 1 1 1 1 0.011919816762050308 1 0.00014414835088853717 1 1.1649174541661367e-09 1 1 0.0098867186417737687 1 1 1 1 1 0.0039286922296510804 0.0032214203080357176 1 1 1 1 0.0036403258854540155 1 1 1 1 1 0.012896420473552182 0.014801503085467613 1 1 0.0098849445242558953 1 0.0098674325346428272 1 1 0.010308860078348404 1 2.5984754591090731e-09 1 1 1 1 1 1 0.0024241246735510202 1 0.0098555608471722553 1 1 1 0.006618014430199548 1 1 1 0.0011815030532895537 1 1 1 1 1 1 1 1 1 1 1 1 0.0088296746421931832 1 1 1 1 1 1 1 1 1 1 1 0.0093027945390655037 1 1 1 1 1 1 1 1 1 1 1 1 1 1 1 1 0.0030535957555151844 1 1 1 1 0.010103919320000473 1 1 0.0057220467923934093 1 1 1 1 1 1 1 0.0030853999872441848 1 1 0.0033865269741229428 1 1 1 0.0099068058675469556 1 1 1 1 1 0.0031735322368731736 1 0.0033477425133095484 1 0.004235309647384583 1 1 1 1 0.0097266978160553685 0.0099961709492370834 0.0082723106928222628 1 0.010313908664960243 1 1 1 1 1 1 1 1 1 1 0.0076738702836169626 1 1 0.0062479192625913213 0.002253401754241699 1 1 0.0038886484120343318 0.009975601482809078 1 1 1 1 0.0091039232999964026 1 1 1 0.010008939138503044 0.0063100442016732761 1 1 0.0097080508839073043 1 0.0060262242000687812 1 0.0024160072482377268 1 1 1 0.0078880901372182025 1 1 1 1 1 1.96875526558421e-09 1 1 1 1 1 1 0.0044950280847875935 0.0019678431184140029 1 1 1 1 1 1 1 1 1 1 1 1 1 0.009681706569785559 1 1 1 1 1 0.0079056264731360796 1 1 1 1 1 1 1 1 0.0059190765363900076 1 1 0.0043030594414180182 1 0.0060070130109800973 1 1 1 1 1 1 1 1 -1.0224867307007113e-09 1 0.007582077491705988 1 1 1 0.010701168886045859 0.0067412621736818359 1 1 0.0032427361901388417 0.015245585179975749 1 0.0061791804836539357 1 0.0031192091445869201 0.0028076746631926774 1 0.011705791658691008 1 1 0.00070584555293715101 1 1 0.013235075688837764 1 1 1 1 0.0085471813160451493 1 1 0.0088380871331556615 1 1 1 1 1 1 1 1 1 0.0080930268839321928 1 1 1 1 1 1 1 1 0.0084318776582345163 1 1 0.0030078788380343627 1 1 1 1 0.0076213270486238313 1 1 1 1 1 1 1 1 0.010579320184253253 0.0092361489870084433 1 1 1 0.0097396544587445219 1 0.0059562109924670894 1 0.0086880484161834422 1 1 1 1 1 1 1 1 1 0.010512113703000713 1 1 1 6.1494537049316955e-09 1 1 1 0.0018893390590569784 1 1 0.0023316379424573744 1 1 1 1 1 -2.727743350638967e-09 0.0068391869513740097 1 -2.9553074015753467e-09 1 1 1 1 1 1 1 1 1 1 1 1 0.009307998330369955 1 1 -1.1180313150976895e-09 1 0.0048573255516530063 1 1 1 1 0.0011664296821998436 1 0.010087934897799545 1 0.0099719302195823943 1 1 1 1 1 0.0045039741704643865 1 1 0.0020999574251858461 1 1 1 2.962988319976656e-09 1 0.0048022301888407063 1 1 0.0013104263670263711 1 1 0.010627962808484791 1 1 1 1 0.0026599482510119999 1 0.0094306289129484182 1 0.012495180102537782 1 1 0.0099161532405816731 0.0099914032639597042 0.0099432338631241218 1 1 1 1 1 1 1 1 1 1 1 1 1 1 1 1 1 0.010813417561073353 1 1 1 1 1 1 1 1 1 1 0.0082252133202424128 1 1 1 1 1 1 1 1 1 1 1 1 1 1 1 1 1 1 1 1 1 1 1 1 1 1 1 1 1 1 1 1 1 1 1 1 1 1 1 1 1 1 1 1 0.0084739452489382 1 1 1 1 1 1 1 0.0039067637748976362 1 1 1 1 1 1 1 0.0031251875111970358 1 1 0.0024360207582776565 1 1 1 1 1 1 1 0.0092099165631929786 1 1 0.010678195447886327 1 0.0051957372405375176 1 1 1 -4.0803915454801221e-10 1 1 1 1 1 1 1 1 1 1 1 1 1 0.0096284573394350287 1 1 1 0.0053125338623345141 0.010183477282051632 1 0.0083050756546942869 1 1 1 1 1 1 1 1 1 1 1 1 1 1 1 1 1 1 1 0.0099969552738084916 1 1 0.0035236516014133454 1 1 1 1 0.0098749271341259277 1 1 1 1 1 1 1 0.010034762732454046 1 1 1 1 0.010082684073256309 1 1 0.0067769048345811666 1 1 0.0098008483415111761 1 1 1 0.0089905552787924881 1 1 1 0.0083029868290566897 1 1 1 1 1 1 1 1 1 1 1 1 0.0057290360321306522 1 1 0.007774768651822939 1 1 0.010011719047666104 1 1 1 0.0085434637371418869 1 1 0.006857125273542989 1 1 1 1 0.0061547174368015815 1 1 1 1 0.0085939581425291921 1 0.0082114919325000264 0.010955187079277364 1 0.010890346805472762 0.010615329462274654 1 1 1 1 0.0018507209891885056 1 1 1 0.0073940365312114634 1 1 0.0019908153819008512 1 1 1 1 0.0039096376270418842 1 1 1 1 1 0.0088256906962997875 1 1 0.0071873893857769475 1 0.0055032059292790397 0.010019434581806579 1 1 1 0.0061517164639727367 1 0.0086288690272440845 1 1 1 1 1 0.0015637072225733427 0.0035555328489711765 1 0.0092646084374375989 1 1 1 1 1 1 1 1 1 1 1 1 1 1 1 0.0091729000500092583 1 1 0.0028386065794067886 0.0065029888943768585 1 0.003801311387154574 1 1 1 1 1 1 1 1 1 0.0059156200243780689 1 1 1 1 1 1 1 1 1 1 1 1 0.0083570304314465067 1 0.010020429990513415 1 1 1 1 1 0.0097387262155499907 1 0.0024111072014533358 1 0.010184610135897332 1 1 1 0.0081918961396344192 1 1 1 1 0.0076136899511586864 1 1 0.0054310777907377664 1 0.0090765275903040774 1 1 0.0091032717310176054 1 1 0.0099974732465381751 1 1 0.0099749587503441296 1 1 1 1 1 1 1 1 1 1 1 0.0086057792960389148 1 1 1 0.010177176873330097 1 0.0020661943728407517 1 1 1 1 1 0.010061357883005075 1 1 1 0.0075015134521731128 1 1 1 1 1 1 1 1 0.0094645799618939246 1 1 1 1 1 0.0098183069904111062 1 1 1 1 1 1 1 1 1 1 1 1 1 1 1 1 1 1 1 1 0.0029701492172698463 1 1 1 0.0039648740094186882 1 1 1 1 1 0.010041030048384147 1 1 0.0045399597855589821 1 1 1 0.0076576265494890383 1 1 1 1 1 1 1 0.010639518279796643 0.0099960214692587576 1 1 1 1 1 0.010168119196326741 1 1 0.0026260280969583882 1 1 1 1 0.0073159679848389461 1 1 1 1 0.0023846319470600674 1 1 1 1 1 1 1 1 1 1 1 1 1 1 1 1 1 1 1 1 1 1 1 1 1 1 1 1 0.0092674276212596426 1 1 1 1 0.0079594910397697075 1 1 1 1 1 1 0.0022404335628562963 1 1 1 1 0.002304984285290905 1 1 0.0091988779546938945 1 1 1 1 1 0.003519176486510546 1 1 1 0.0051536706364082793 1 1 1 0.006708367717790778 1 0.0099287372034233268 1 1 1 1 1 1 1 0.0078333958999628056 1 0.005060261242566276 1 1 1 0.01125951865891741 1 1 0.0100002295407819 1 0.011267224262942459 1 1 1 1 1 0.0099646358665486517 1 1 1 1 1 1 1 1.030679958047287e-09 1 1 1 0.010004880059462817 1 0.0061782981746738089 1 0.009836412670423943 1 0.0063788072967465685 1 0.0098371433072260393 1 1 1 1 1 1 1 1 1 1 1 0.0066899926729208949 1 1 1 1 0.0070582601170942789 1 1 1 1 0.0084434457850354836 1 1 1 1 1 1 1 1 1 1 1 1 1 1 1 0.010656436292348422 1 0.0081919531635584256 1 1 1 0.013205938663381399 1 1 1 1 1 0.010039129589631109 1 1 1 0.0073944181267083207 1 1 1 1 0.0079507072980348203 0.0072561340339414027 1 1 1 0.0095573490907124165 1 1 1 1 1 1 1 1 0.018398200713937208 1 1 1 1 1 1 0.018284146233126783 1 1 1 1 1 1 1 1 0.0098836881600695564 0.018531799432473652 1 1 1 1 1 1 0.0097373457241571384 1 1 0.0035945981201977659 1 0.010139308489187513 1 1 1 1 1 6.7969610495488553e-10 1 -1.7653828052188736e-09 1 1 1 1 1 1 1 1 1 0.0069791263841641887 1 1 1 1 1 1 1 1 0.0089853425996300265 1 1 1 1 1 1 1 1 1 1 1 1 1 1 0.010551005137869114 1 0.0047835716039017831 1 1 1 3.5109721588377774e-09 1 1 1 0.0039762750502715938 1 1 1 1 1 1 1 1 1 1 0.0086513818770844741 1 1 1 0.0095249505064924633 1 1 1 1 1 1 1 1 1 1 1 1 1 0.0082012715225781296 1 1 1 1 1 1 1 1 1 1 1 1 1 0.0048535411034995903 1 1 1 1 1 0.0095613943534864285 1 1 1 1 0.0089770552314576736 1 1 1 1 1 1 1 1 1 0.0023925940066912895 1 1 1 1 1 1 1 1 0.0090908600826396374 1 1 1 1 1 1 1 1 1 1 1 1 1 1 1 1 1 1 1 1 0.009533510991927216 1 1 0.0080728386305449745 1 1 1 1 1 1 1 1 1 1 1 1 1 1 1 1 1 1 1 1 1 1 1 1 1 1 1 1 1 0.010072435585993432 1 1 0.011258848853589363 1 1 1 0.010214299620240723 1 1 0.01346610204906089 1 1 1 0.0074071650087813301 1 0.012893232550852764 1 1 0.0099898396591946645 1 0.010002384288970358 1 0.004868439296187424 1 1 1 1 0.0048512213011634372 1 1 1 1 1 1 1 0.0074777112581973365 1 1 0.0071479804756665322 1 1 -8.3709118456343212e-10 0.0018621307441981233 0.00073475427209652305 0.001577272771678297 1 1 1 1 1 1 1 1 1 1 1 1 1 1 1 1 1 1 1 1 1 1 1 1 1 1 1 1 0.0087474407234497745 0.0060722442512964811 1 1 1 1 1.2077460212478464e-09 1 0.009603621789502019 1 1 1 1.0039134246131454e-09 1 1 1 1 1 1 1 1 0.0018811171670700677 1 1 1 1 0.00055416583731239533 1 1 1 1 6.1645220872375006e-10 1 1 0.01473997869712132 1 0.010515646239725542 1 1 1 0.0096604801427818618 1 1 1 1 1 1 1 1 1 1 1 1 1 1 1 1 0.0096731516975154842 1 1 1 1 1 1 1 0.0096451409178246184 1 1 1 1 1 1 1 1 1 0.0093895099470874231 1 1 1 1 1 1 1 1 1 0.0092065352713110588 1 1 1 0.0091591920741925185 1 1 1 1 1 1 1 1 1 1 1 1 1 1 1 1 1 1 1 0.0099765472014810494 1 1 1 0.0060863351931280812 1 1 1 1 1 1 1 1 1 1 1 1 1 1 1 1 1 1 1 1 1 1 1 1 1 1 1 1 0.0066416811726272215 1 0.005995024633779121 1 1 1 0.01023868022254241 1 1 0.010087191441352755 1 1 1 1 1 1 1 1 1 1 0.010039345731512861 1 1 1 1 1 0.0088912933675734315 1 1 1 1 1 1 1 1 1 0.0083665651785450983 1 1 1 1 1 1 1 1 1 1 1 1 1 1 1 1 1 1 1 1 1 1 1 1 1 1 1 1 1 1 1 1 1 1 1 1 1 1 1 1 1 1 1 1 1 1 1 1 1 1 1 1 1 1 1 1 1 1 1 1 1 1 1 1 1 1 1 1 1 1 1 1 1 0.0090753021238240347 1 0.0095887244864207161 1 1 1 1 1 1 0.0092485580824972144 1 1 1 1 1 1 1 1 1 1 0.011729477273748167 1 1 1 1 1 1 0.0081050667658613892 1 1 0.0092847269395030727 1 1 1 1 1 1 1 0.0096598335960765142 1 1 1 1 1 1 0.010380023438656405 1 1 1 0.0092967002163959478 1 1 1 1 1 1 0.0059849697589501941 1 1 1 0.0075473456387932097 1 1 1 1 1 1 1 1 1 1 1 1 1 1 1 1 1 1 1 1 1 1 1 1 1 1 1 1 1 1 0.0059010750621652647 1 1 0.010023919756426681 0.010009585775031631 1 1 1 1 1 1 1 1 1 1 1 1 0.009126766969364139 1 1 1 1 1 1 1 1 1 1 1 0.0086905031210322212 1 1 1 1 1 0.01004045880349279 1 1 1 1 1 0.0065950706051658148 1 1 1 1 1 1 1 1 1 0.0062795543473880026 1 1 1 1 1 1 1 1 1 0.0087324514670015646 1 1 1 1 0.0098659201480566887 1 1 1 1 1 1 1 1 1 0.0078732888703422349 1 1 0.0098921434338902353 1 1 0.0085950347198466212 1 1 1 1 1 1 0.0094760954391318944 1 1 0.0088713472350274991 1 0.0092248018469180022 1 1 0.0092240658023915942 1 1 1 1 1 1 1 1 1 1 1 1 1 1 1 1 1 1 1 1 1 1 1 1 1 1 1 1 1 1 1 1 1 1 1 1 1 1 1 1 1 1 1 1 1 1 1 1 1 1 1 0.0097016640848103519 1 1 1 1 1 1 1 1 1 1 1 1 1 1 0.0081478879575428362 0.0097175245364337984 1 1 1 1 1 1 0.0072895681583479838 0.007319091393005614 1 1 1 1 1 1 1 1 1 1 1 1 1 1 1 1 0.0069919923732477823 0.011446190094269323 1 0.0047853840845891241 1 1 0.011236473483931392 1 1 1 0.0050746053970598115 1 1 1 1 1 1 1 1 1 1 1 1 1 1 1 1 1 1 1 1 1 1 1 1 1 0.0076054401400713761 1 1 1 0.0081457597293823538 1 0.010264139000149372 1 0.0055694739198516837 1 1 1 0.0094557172366443315 1 1 1 1 1 1 0.0068370420840083452 1 0.01008156790931467 1 1 0.0077393375071383025 1 1 1 1 1 1 0.010413170784016851 1 1 1 1 1 1 1 1 1 1 1 1 1 1 1 1 1 1 1 1 1 1 0.0082174297419402038 1 1 1 0.0082709597626660497 1 1 1 1 1 0.012592230669711008 1 1 0.006406591579397547 1 1 1 0.0074944511880350208 1 1 1 1 1 1 1 1 1 1 1 1 1 1 1 1 0.0064734755740296843 1 1 0.0029780855535872855 1 0.012404365043399961 1 1 1 0.010309556098975931 1 1 0.0046345984402628819 1 1 1 1 1 1 0.010578128037212295 1 1 1 1 0.009539303406832185 1 1 0.0099228436401629181 1 1 1 0.0083096318157704352 1 1 0.0089178183231657313 1 1 0.0099418266218521539 1 1 1 1 1 0.011148335509511298 1 1 1 1 1 1 0.0012066979564233221 1 1 1 1 0.010455073965319684 1 1 1 1 1 1 1 1 4.056516997308357e-09 1 1 1 1 1 1 1 1 1 1 1 1 0.0098705384914665618 1 1 1 1 1 1 0.01071039089067494 1 1 1 1 1 1 1 1 1 1 1 1 0.0095611542705182351 1 1 0.0092836908267054079 1 1 1 1 1 1 1 1 1 1 -6.5618039890580349e-09 1 0.0087828644124852955 1 1 1 1 1 1 1 1 0.0013654338219841744 0.0061786854248324129 1 1 1 0.0075815617149937713 1 1 1 0.0075465095295406352 0.0062836104440225178 0.0091099068899311367 0.0060608358822985542 1 1 1 1 1 0.008276597466932727 1 1 0.0057720576446953567 1 1 0.0060319813444771123 1 1 1 1 1 1 1 0.00849111036478295 1 1 1 1 1 1 1 1 1 1 0.0098306380796793179 1 1 1 1 1 0.010905340446606127 1 1 1 1 1 1 1 1 1 1 1 1 0.010239458429273445 1 1 1 1 1 0.0082166044103184482 1 0.012502956489280258 1 0.0025220096630867717 1 1 0.011528127234548722 1 1 0.007426405919025568 1 1 0.0043391954565668786 1 0.010025186592402018 1 1 1 0.01023964842393138 1 1 0.0099457862395268271 0.0099225101260541054 1 1 0.0030498564450108998 1 1 0.011300890050394478 1 1 1 0.011042811301503376 1 1 1 1 1 0.011461765549987981 1 1 1 1 1 1 1 1 1 0.008475379473864314 1 0.0020952222263093054 1 1 1 0.0049802915881803356 1 1 0.0033411394606123745 1 1 1 1 1 1 1 0.010441361923557008 1 1 1 1 0.0011032643431387809 1 1 1 1 0.01039674228454758 1 0.0051527059046974077 1 1 1 1 1 1 1 1 1 1 1 1 1 1 1 0.0021944047041762629 1 0.00012267221033108316 1 1 1 1 1 1 1 0.009572757622044091 1 1 1 1 1 1 0.0022874959585808749 0.0098358805304150834 1 1 1 1 1 0.0067292388311938449 0.0050419045669771768 1 1 1 1 1 1 0.0062397273476846732 1 1 1 1 1 1 1 0.0034281991495932092 0.0049445605924770299 1 1 1 1 0.0087773382498676986 0.0050217920494386933 0.0053359930861472567 1 0.005241209028459131 0.0064270862867266201 1 1 0.0099448386955539522 1 0.00035498597081167621 1 1 1 1 1 1 0.0022587544078848561 1 0.0011999963220425125 1 1 1 1 1 1 1 1 1 1 0.0093011125485013505 1 0.0079891369521548714 1 1 0.0068155295511178084 1 1 1 1 1 1 1 0.0085338065830429816 0.0084963669459869381 1 1 1 1 1 1 1 1 1 1 1 1 1 1 1 1 0.0091977112172657045 1 1 0.0072565499861579012 0.0079743455336416039 1 1 1 1 1 1 1 1 1 1 1 1 1 1 1 1 1 1 1 5.1137187404935031e-05 1 1 -4.8603897989663025e-10 1 1 1 1 1 1 1 1 1 1 1 1 1 1 1 1 1 1 0.0095515382092628241 1 0.0094056591018688643 1 1 1 1 1 1 0.010697994410905867 1 0.0077455462256694092 1 1 1 0.010920415489095224 1 1 1 1 1 0.0031445924186702598 1 0.0096452023108380726 1 0.002015321164423458 1 1 1 1 1 0.0067018776330913833 0.0058714054584813741 1 1 0.0034611093734697208 1 0.0062950196007272585 1 1 1 2.7385172671201552e-09 1 1 1 0.009785472862756793 1 1 0.0095663188255151865 0.0095529674538270028 1 1 1 1 1 1 1 1 1 1 1 1 1 -1.1545017788994194e-09 1 1 1 -4.6569499645432444e-10 1 1 1 1 1 1 1 1 0.0030266296221129613 0.0064882933691841824 1 1 1 0.0065146723355525155 1 1 1 1 1 1 1 1 1 1 1 1 1 0.0079598949758235959 1 0.0065810382759759079 1 1 1 0.0020654564939138025 1 1 1 1 1 1 1 1 1 1 1 1 0.009907216948465504 1 1 1 1 1 1 1 1 1 1 1 1 1 0.0085023317314990524 1 1 1 1 0.0099412860245472086 1 1 0.0064597080353095294 1 1 1 1 1 0.0054022679475720413 1 1 1 1 1 1 1 1 1 1 1 1 1 1 0.0073672221301854367 1 1 1 1 1 0.0039429291984564747 1 1 1 0.0089426021055953406 1 1 1 1 1 0.0073435183207008706 1 0.0099100696174427346 1 1 1 1 1 1 1 1 1 1 1 1 1 1 1 1 1 1 1 0.0044176388524057681 1 1 1 1 1 1 0.0037783983742383171 0.0037834315854317815 1 1 1 1 1 1 0.0029026978620597995 1 0.0010914352354938466 1 1 1 1 1 1 0.0099306893871880242 1 0.0075422302225444148 0.00017080921339191618 1 1 1 0.0099769110987801592 1 1 1 1 1 1 1 1 1 1 0.0093894826826480815 1 -4.6514896552551921e-09 1 1 1 1 1 1 0.0040947035658555524 0.0063615160437489517 1 1 1 1 1 1 1 1 1 1 1 1 1 1 1 1 1 1 1 1 1 1 1 1 0.010629064595541374 0.0030419264750348989 1 1 1 1 1 1 1 1 1 0.010157424472942565 1 1 1 1 1 1 1 0.0056648948919812356 1 1 0.0090355001979503871 1 1 1 1 0.0096403186821628455 1 1 0.012522604107459052 1 1 1 0.0023444539667217849 1 1 0.0048888152204698433 1 0.0064609159999254101 1 1 1 1 1 1 1 1 1 1 0.010091047447047689 1 1 1 1 1 1 1 1 0.0081914230743184713 1 0.009363595028296947 1 0.010705791056956513 1 0.004427886445375482 1 0.0074691261119325556 1 1 1 0.0087655074639421751 1 1 1 1 1 1 1 1 1 1 0.011150600645071132 1 1 1 1 1 0.010489750489038689 1 1 1 0.009307666908307994 1 1 1 1 1 1 1 1 1 1 1 1 1 1 1 2.5286982646699485e-09 1 1 1 1 1 1 1 1 3.9836093836075753e-05 1 1 0.00097723332616991669 0.0073303661340206831 1 1 1 1 1 1 0.0086348950143439254 1 1 1 1 1 1 1 0.011674361348288871 0.0043334384025669236 1 1 0.010086939075370073 0.0066916548832333892 1 1 1 1 1 0.0095762528833718136 1 1 1 1 1 1 1 0.009133926576189666 1 1 1 -1.812708613421754e-09 1 0.0079879187957437089 1 1 1 1 1 1 1 1 1 1 1 1 1 1 1 1 1 1 1 1 1 0.011728053060091692 1 1 0.0069179141818465897 1 1 0.0099723228479896495 1 1 1 1 0.00935273052234048 1 1 1 1 1 1 1 1 0.0097367494852526708 0.00010652197244969634 1 1 0.011751909707185527 1 0.010567843735154753 1 1 1 1 1 1 1 1 1 1 -3.8120251642792535e-09 1 1 1 0.00028446638929524419 1 1 1 1 0.012802024119514465 1 0.0099132043289920178 1 1 1 1 1 1 1 1 1 1 1 1 1 0.0086999235679348173 1 1 1 1 1 1 -1.4108934525249375e-09 1 0.0056680524747395053 1 1 1 1 1 0.00091140352453429434 1 1 1 0.0076638863897494436 1 1 1 1 1 1 1 1 1 1 1 1 1 1 1 1 1 0.010000620576147066 1 0.005947453676715001 1 1 1 1 1 1 1 1 1 1 1 1 1 9.4541570709247291e-10 1 1 0.0090367214252673328 1 1 1.4767893921630026e-09 1 0.0094390651382477569 1 1 1 1 1 1 0.0081179764572799386 1 1 1 1 1 1 1 1 1 1 1 1 1 1 1 1 1 1 1 1 1 1 1 1 1 1 1 1 1 1 1 0.0064234023804273302 1 1 1 1 1 1 0.0050487003705853017 0.0095081686316445101 1 1 1 0.008705715750095603 1 1 0.008212538206785221 1 1 0.0077130055151972202 1 0.0085442458416403171 1 1 1 1 0.010080732224130369 1 1 1 1 1 0.0078974702618015806 1 1 1 1 1 1 1 1 1 1 1 1 1 1 1 0.0042129440290889601 1 0.0093762777736593091 1 1 1 1 1 0.009801958017409719 1 1 1 0.013688283837009579 0.0080134164212700351 1 1 1 0.00890455990160814 0.010645722129070468 1 1 1 1 1 0.0093301156436563261 1 1 1 1 1 0.0063200487240239528 1 1 1 1 1 1 1 1 1 1 1 1 1 0.010167613948855571 1 1 0.01077708956142474 1 1 1 1 1 1 1 1 1 0.010947517131713888 1 1 1 1 1 1 1 1 1 1 1 0.0086585199285471037 1 1 0.0095772648965344997 1 1 1 1 1 1 1 1 1 1 1 1 1 1 1 1 1 1 1 1 1 1 1 1 1 1 1 1 1 0.0098086592020861178 1 0.0092116239751606297 0.0042743199119656787 1 0.0073195134714767306 1 1 1 1 1 1 0.011505784321476626 0.012843281327229908 0.0019710296776986984 1 1 1 1 1 1 1 1 1 0.0099327829229868062 1 1 1 1 0.0014070302710542139 1 0.0020381431740579756 1 0.00090551149145929981 0.0077720165383361878 1 1 1 1 1 1 1 1 0.013323681444078013 1 1 0.003920155716050722 1 0.003218690868688711 1 1 1 1 1 1 1 1 1 0.0099956974534326122 0.010578846278130619 1 1 0.00075806038982364913 1 1.4825360817455335e-09 0.0099834640734691067 1 0.011914241558656835 1 1 0.0032101743137201329 1 0.014909741010210883 1 0.0091320860435536028 1 0.0032666832827587811 0.0094910453213637551 1 0.010660424435112325 1 1 2.0714324248938265e-09 1 1 1 1 0.0098231272480900911 1 1 0.010933050122343909 1 0.0058006937226777449 1 1 0.010908004377963658 1 0.0094433633589258159 1 0.0012662905492735136 1 1 1 0.0062037087868704807 1 1 1 0.0046407811195135346 1 1 1 1 1 0.0087287671230492515 1 1 1 1 1 1 1 1 1 1 1 1 1 1 0.0052782240916616867 1 0.01488899375931802 0.010087921228026462 1 1 0.00024939981893262048 1 1 1 1 1 1 1 1 1 1 0.0086748692456117237 1 1 1 1 1 0.0023936436721392479 1 1 1 1 0.0061435818133529479 1 0.0087235589937698643 1 1 0.0099999588420899583 0.011198176701645912 1 1 1 1 1 1 0.0037219684231808332 1 0.011200130918200685 0.0035728904873501624 1 1 1 0.014032379750043959 1 0.0098997816754520726 1 1 1 0.0094532528234535992 1 1 1 1 0.011105436766503902 1 1 1 1 1 0.011372926946464889 0.0051021944912083058 1 0.0049300825919452798 1 0.0099757995776585048 1 0.0045596793848176314 -7.5461900617135313e-11 0.012175402975222925 0.0073718301550369028 0.0042800927429544056 1 1 1 1 0.0088596350374046048 1 1 1 1 1 1 1 0.0041066138683744577 1 0.0059262699792894113 1 1 0.0018906884140171901 1 1 0.011134339446124639 1 1 1 0.0053164425895299572 0.0068127811144087537 1 1 1 1 1 1 0.0040963747101490297 1 1 0.010002400449145396 1 1 1 1 1 0.0032116909763674727 1 1 1 1 0.0053789557155664025 1 1 1 1 1 1 1 1 1 1 1 1 1 1 1 1 1 1 1 1 1 1 1 1 1 1 1 1 1 1 1 1 1 1 1 1 1 1 1 1 1 1 1 1 1 1 1 1 1 1 1 1 1 1 1 1 1 1 1 -4.0488178781883377e-11 1 1 0.003804357059681962 1 0.010058312172533716 1 1 1 1 0.0077521076761418312 1 1 1 6.5236403520180578e-05 1 1 1 1 1 1 1 1 1 1 1 1 1 1 0.0034772472149315219 1 1 1 1 1 0.0083956192024459836 1 1 0.0011240731755823644 1 1 1 
</DataArray>
</CellData>
</Piece>
</UnstructuredGrid>
</VTKFile>
